     Program PWSCF v.5.1rc2 (svn rev. 11289) starts on 20Dec2018 at  8:40:57

     Current dimensions of program PWSCF are:
     Max number of different atomic species (ntypx) = 10
     Max number of k-points (npk) =  40000
     Max angular momentum in pseudopotentials (lmaxx) =  3
     Presently stress not available with electric field

     IMPORTANT: XC functional enforced from input :
     Exchange-correlation      = BEEF-VDW ( 1  4 27 13 2)
     Any further DFT definition will be discarded
     Please, verify this is what you really want

     Subspace diagonalization in iterative solution of the eigenvalue problem:
     a serial algorithm will be used

     Generating pointlists ...
     new r_m :   0.4125 (alat units)  0.7795 (a.u.) for type    1
     new r_m :   0.4125 (alat units)  0.7795 (a.u.) for type    2

     bravais-lattice index     =            0
     lattice parameter (alat)  =       1.8897  a.u.
     unit-cell volume          =    4099.6973 (a.u.)^3
     number of atoms/cell      =           12
     number of atomic types    =            2
     number of electrons       =       195.00
     number of Kohn-Sham states=          127
     kinetic-energy cutoff     =      36.7493  Ry
     charge density cutoff     =     367.4932  Ry
     convergence threshold     =      1.0E-06
     mixing beta               =       0.1000
     number of iterations used =           10  plain     mixing
     Exchange-correlation      = BEEF-VDW ( 1  4 27 13 2)
     nstep                     =           50

     celldm(1)=   1.889726  celldm(2)=   0.000000  celldm(3)=   0.000000
     celldm(4)=   0.000000  celldm(5)=   0.000000  celldm(6)=   0.000000

     crystal axes: (cart. coord. in units of alat)
               a(1) = (   5.364107   0.000000   0.000000 )
               a(2) = (  -2.682053   4.645453   0.000000 )
               a(3) = (   0.000000   0.000000  24.379775 )

     reciprocal axes: (cart. coord. in units 2 pi/alat)
               b(1) = (  0.186424  0.107632  0.000000 )
               b(2) = (  0.000000  0.215264  0.000000 )
               b(3) = (  0.000000  0.000000  0.041018 )

     PseudoPot. # 1 for Co read from file:
     /afs/slac.stanford.edu/u/if/mamunm/psp/gbrv1.5pbe/Co.UPF
     MD5 check sum: 5f91765df6ddd3222702df6e7b74a16d
     Pseudo is Ultrasoft + core correction, Zval = 17.0
     Generated by new atomic code, or converted to UPF format
     Using radial grid of  863 points,  6 beta functions with:
                l(1) =   0
                l(2) =   0
                l(3) =   1
                l(4) =   1
                l(5) =   2
                l(6) =   2
     Q(r) pseudized with  8 coefficients,  rinner =    1.200   1.200   1.200
                                                       1.200   1.200

     PseudoPot. # 2 for Pb read from file:
     /afs/slac.stanford.edu/u/if/mamunm/psp/gbrv1.5pbe/Pb.UPF
     MD5 check sum: 3d1c1779aa92214d1e8f3a7db79003e2
     Pseudo is Ultrasoft + core correction, Zval = 14.0
     Generated by new atomic code, or converted to UPF format
     Using radial grid of  899 points,  6 beta functions with:
                l(1) =   0
                l(2) =   0
                l(3) =   1
                l(4) =   1
                l(5) =   2
                l(6) =   2
     Q(r) pseudized with  6 coefficients,  rinner =    1.000   1.000   1.000
                                                       1.000   1.000

     vdW kernel table read from file vdW_kernel_table
     MD5 check sum: 095c7af220d748ca6e76c0b4c6cfb241

     atomic species   valence    mass     pseudopotential
        Co1           17.00    58.93319     Co( 1.00)
        Pb1           14.00   207.20000     Pb( 1.00)

     Starting magnetic structure
     atomic species   magnetization
        Co1          0.118
        Pb1          0.143

     No symmetry found

   Cartesian axes

     site n.     atom                  positions (alat units)
         1           Co1 tau(   1) = (   0.0000000   0.0000000  10.0000000  )
         2           Co1 tau(   2) = (  -1.3410267   2.3227265  10.0000000  )
         3           Co1 tau(   3) = (   1.3410267   2.3227265  10.0000000  )
         4           Pb1 tau(   4) = (   2.6820535   0.0000000  10.0000000  )
         5           Co1 tau(   5) = (   2.6820535   1.5484843  12.1898875  )
         6           Co1 tau(   6) = (   1.3410267   3.8712108  12.1898875  )
         7           Co1 tau(   7) = (  -1.3410267   3.8712108  12.1898875  )
         8           Pb1 tau(   8) = (   0.0000000   1.5484843  12.1898875  )
         9           Co1 tau(   9) = (  -0.0000000   3.0969686  14.3797750  )
        10           Co1 tau(  10) = (   1.3410267   0.7742422  14.3797750  )
        11           Co1 tau(  11) = (   4.0230802   0.7742422  14.3797750  )
        12           Pb1 tau(  12) = (   2.6820535   3.0969686  14.3797750  )

     number of k points=    40  Fermi-Dirac smearing, width (Ry)=  0.0110
                       cart. coord. in units 2pi/alat
        k(    1) = (   0.0000000   0.0000000   0.0000000), wk =   0.0277778
        k(    2) = (   0.0000000   0.0358774   0.0000000), wk =   0.0555556
        k(    3) = (   0.0000000   0.0717548   0.0000000), wk =   0.0555556
        k(    4) = (   0.0000000  -0.1076321   0.0000000), wk =   0.0277778
        k(    5) = (   0.0310707   0.0179387   0.0000000), wk =   0.0555556
        k(    6) = (   0.0310707   0.0538161   0.0000000), wk =   0.0555556
        k(    7) = (   0.0310707   0.0896934   0.0000000), wk =   0.0555556
        k(    8) = (   0.0310707  -0.0896934   0.0000000), wk =   0.0555556
        k(    9) = (   0.0310707  -0.0538161   0.0000000), wk =   0.0555556
        k(   10) = (   0.0310707  -0.0179387   0.0000000), wk =   0.0555556
        k(   11) = (   0.0621414   0.0358774   0.0000000), wk =   0.0555556
        k(   12) = (   0.0621414   0.0717548   0.0000000), wk =   0.0555556
        k(   13) = (   0.0621414   0.1076321   0.0000000), wk =   0.0555556
        k(   14) = (   0.0621414  -0.0717548   0.0000000), wk =   0.0555556
        k(   15) = (   0.0621414  -0.0358774   0.0000000), wk =   0.0555556
        k(   16) = (   0.0621414   0.0000000   0.0000000), wk =   0.0555556
        k(   17) = (  -0.0932122  -0.0538161   0.0000000), wk =   0.0277778
        k(   18) = (  -0.0932122  -0.0179387   0.0000000), wk =   0.0555556
        k(   19) = (  -0.0932122   0.0179387   0.0000000), wk =   0.0555556
        k(   20) = (  -0.0932122  -0.1614482   0.0000000), wk =   0.0277778
        k(   21) = (   0.0000000   0.0000000   0.0000000), wk =   0.0277778
        k(   22) = (   0.0000000   0.0358774   0.0000000), wk =   0.0555556
        k(   23) = (   0.0000000   0.0717548   0.0000000), wk =   0.0555556
        k(   24) = (   0.0000000  -0.1076321   0.0000000), wk =   0.0277778
        k(   25) = (   0.0310707   0.0179387   0.0000000), wk =   0.0555556
        k(   26) = (   0.0310707   0.0538161   0.0000000), wk =   0.0555556
        k(   27) = (   0.0310707   0.0896934   0.0000000), wk =   0.0555556
        k(   28) = (   0.0310707  -0.0896934   0.0000000), wk =   0.0555556
        k(   29) = (   0.0310707  -0.0538161   0.0000000), wk =   0.0555556
        k(   30) = (   0.0310707  -0.0179387   0.0000000), wk =   0.0555556
        k(   31) = (   0.0621414   0.0358774   0.0000000), wk =   0.0555556
        k(   32) = (   0.0621414   0.0717548   0.0000000), wk =   0.0555556
        k(   33) = (   0.0621414   0.1076321   0.0000000), wk =   0.0555556
        k(   34) = (   0.0621414  -0.0717548   0.0000000), wk =   0.0555556
        k(   35) = (   0.0621414  -0.0358774   0.0000000), wk =   0.0555556
        k(   36) = (   0.0621414   0.0000000   0.0000000), wk =   0.0555556
        k(   37) = (  -0.0932122  -0.0538161   0.0000000), wk =   0.0277778
        k(   38) = (  -0.0932122  -0.0179387   0.0000000), wk =   0.0555556
        k(   39) = (  -0.0932122   0.0179387   0.0000000), wk =   0.0555556
        k(   40) = (  -0.0932122  -0.1614482   0.0000000), wk =   0.0277778

     Largest allocated arrays     est. size (Mb)     dimensions
     Largest temporary arrays     est. size (Mb)     dimensions

     Check: negative/imaginary core charge=   -0.000005    0.000000

     Initial potential from superposition of free atoms
     Check: negative starting charge=(component1):   -0.029309
     Check: negative starting charge=(component2):   -0.021974

     starting charge  185.99288, renormalised to  195.00000

     negative rho (up, down):  3.073E-02 2.304E-02

     *
     * You are using vdW-DF for exchange-correlation in this calculation.
     * Please cite the following three references that made this development
     * possible:
     *
     *   M. Dion, H. Rydberg, E. Schroder, D. C. Langreth, and
     *   B. I. Lundqvist, Phys. Rev. Lett. 92, 246401 (2004).
     *
     *   T. Thonhauser, V. R. Cooper, S. Li, A. Puzder, P. Hyldgaard, and
     *   D. C. Langreth, Phys. Rev. B 76, 125112 (2007).
     *
     *   G. Roman-Perez and J. M. Soler, Phys. Rev. Lett. 103, 096102 (2009).
     *
     *
     * If you are using vdW-DF2, please also cite:
     *
     *   K. Lee, E. D. Murray, L. Kong, B. I. Lundqvist, and
     *   D. C. Langreth, Phys. Rev. B 82, 081101(R) (2010).
     *
     *
     * If you are calculating the stress with vdW-DF, please also cite:
     *
     *   R. Sabatini, E. Kucukbenli, B. Kolb, T. Thonhauser, and
     *   S. de Gironcoli, J. Phys.: Condens. Matter 24, 424209 (2012).
     *

     Carrying out vdW-DF run using the following parameters:

     Nqs =      20    Nr_points =    1024   r_max =   100.000
     q_mesh =
               0.00001000     0.04494208     0.09755937     0.15916263
               0.23128650     0.31572767     0.41458969     0.53033537
               0.66584808     0.82450364     1.01025438     1.22772762
               1.48234092     1.78043706     2.12944203     2.53805004
               3.01644009     3.57652955     4.23227104     5.00000000

     Gradients computed in reciprocal space

     Adding external electric field

     Computed dipole along edir(3) :
        Dipole               -0.0000 Ry au,         -0.0000 Debye
        Dipole field         -0.0000 Ry au

        Potential amp.        0.0000 Ry
        Total length         44.9193 bohr

[...]

     Starting wfc are  144 randomized atomic wfcs

     Self-consistent Calculation

     iteration #  1     ecut=    36.75 Ry     beta=0.10
     Davidson diagonalization with overlap
     ethr =  1.00E-02,  avg # of iterations =  7.2

[...]

     Magnetic moment per site:
     atom:    1    charge:    8.4430    magn:    0.9867    constr:    0.0000
     atom:    2    charge:    8.4430    magn:    0.9867    constr:    0.0000
     atom:    3    charge:    8.4430    magn:    0.9867    constr:    0.0000
     atom:    4    charge:    1.8188    magn:    0.2361    constr:    0.0000
     atom:    5    charge:    8.4394    magn:    0.9836    constr:    0.0000
     atom:    6    charge:    8.4394    magn:    0.9836    constr:    0.0000
     atom:    7    charge:    8.4394    magn:    0.9835    constr:    0.0000
     atom:    8    charge:    1.8157    magn:    0.2359    constr:    0.0000
[...]
        k(    4) = (   0.0000000  -0.1076321   0.0000000), wk =   0.0277778
        k(    5) = (   0.0310707   0.0179387   0.0000000), wk =   0.0555556
        k(    6) = (   0.0310707   0.0538161   0.0000000), wk =   0.0555556
        k(    7) = (   0.0310707   0.0896934   0.0000000), wk =   0.0555556
        k(    8) = (   0.0310707  -0.0896934   0.0000000), wk =   0.0555556
        k(    9) = (   0.0310707  -0.0538161   0.0000000), wk =   0.0555556
        k(   10) = (   0.0310707  -0.0179387   0.0000000), wk =   0.0555556
        k(   11) = (   0.0621414   0.0358774   0.0000000), wk =   0.0555556
        k(   12) = (   0.0621414   0.0717548   0.0000000), wk =   0.0555556
        k(   13) = (   0.0621414   0.1076321   0.0000000), wk =   0.0555556
        k(   14) = (   0.0621414  -0.0717548   0.0000000), wk =   0.0555556
        k(   15) = (   0.0621414  -0.0358774   0.0000000), wk =   0.0555556
        k(   16) = (   0.0621414   0.0000000   0.0000000), wk =   0.0555556
        k(   17) = (  -0.0932122  -0.0538161   0.0000000), wk =   0.0277778
        k(   18) = (  -0.0932122  -0.0179387   0.0000000), wk =   0.0555556
        k(   19) = (  -0.0932122   0.0179387   0.0000000), wk =   0.0555556
        k(   20) = (  -0.0932122  -0.1614482   0.0000000), wk =   0.0277778
        k(   21) = (   0.0000000   0.0000000   0.0000000), wk =   0.0277778
        k(   22) = (   0.0000000   0.0358774   0.0000000), wk =   0.0555556
        k(   23) = (   0.0000000   0.0717548   0.0000000), wk =   0.0555556
        k(   24) = (   0.0000000  -0.1076321   0.0000000), wk =   0.0277778
        k(   25) = (   0.0310707   0.0179387   0.0000000), wk =   0.0555556
        k(   26) = (   0.0310707   0.0538161   0.0000000), wk =   0.0555556
        k(   27) = (   0.0310707   0.0896934   0.0000000), wk =   0.0555556
        k(   28) = (   0.0310707  -0.0896934   0.0000000), wk =   0.0555556
        k(   29) = (   0.0310707  -0.0538161   0.0000000), wk =   0.0555556
        k(   30) = (   0.0310707  -0.0179387   0.0000000), wk =   0.0555556
        k(   31) = (   0.0621414   0.0358774   0.0000000), wk =   0.0555556
        k(   32) = (   0.0621414   0.0717548   0.0000000), wk =   0.0555556
        k(   33) = (   0.0621414   0.1076321   0.0000000), wk =   0.0555556
        k(   34) = (   0.0621414  -0.0717548   0.0000000), wk =   0.0555556
        k(   35) = (   0.0621414  -0.0358774   0.0000000), wk =   0.0555556
        k(   36) = (   0.0621414   0.0000000   0.0000000), wk =   0.0555556
        k(   37) = (  -0.0932122  -0.0538161   0.0000000), wk =   0.0277778
        k(   38) = (  -0.0932122  -0.0179387   0.0000000), wk =   0.0555556
        k(   39) = (  -0.0932122   0.0179387   0.0000000), wk =   0.0555556
        k(   40) = (  -0.0932122  -0.1614482   0.0000000), wk =   0.0277778

     Largest allocated arrays     est. size (Mb)     dimensions
     Largest temporary arrays     est. size (Mb)     dimensions

     Check: negative/imaginary core charge=   -0.000005    0.000000

     Initial potential from superposition of free atoms
     Check: negative starting charge=(component1):   -0.029300
     Check: negative starting charge=(component2):   -0.021968

     starting charge  185.99288, renormalised to  195.00000

[...]

     *
     * You are using vdW-DF for exchange-correlation in this calculation.
     * Please cite the following three references that made this development
     * possible:
     *
     *   M. Dion, H. Rydberg, E. Schroder, D. C. Langreth, and
     *   B. I. Lundqvist, Phys. Rev. Lett. 92, 246401 (2004).
     *
     *   T. Thonhauser, V. R. Cooper, S. Li, A. Puzder, P. Hyldgaard, and
     *   D. C. Langreth, Phys. Rev. B 76, 125112 (2007).
     *
     *   G. Roman-Perez and J. M. Soler, Phys. Rev. Lett. 103, 096102 (2009).
     *
     *
     * If you are using vdW-DF2, please also cite:
     *
     *   K. Lee, E. D. Murray, L. Kong, B. I. Lundqvist, and
     *   D. C. Langreth, Phys. Rev. B 82, 081101(R) (2010).
     *
     *
     * If you are calculating the stress with vdW-DF, please also cite:
     *
     *   R. Sabatini, E. Kucukbenli, B. Kolb, T. Thonhauser, and
     *   S. de Gironcoli, J. Phys.: Condens. Matter 24, 424209 (2012).
     *

     Carrying out vdW-DF run using the following parameters:

     Nqs =      20    Nr_points =    1024   r_max =   100.000
     q_mesh =
               0.00001000     0.04494208     0.09755937     0.15916263
               0.23128650     0.31572767     0.41458969     0.53033537
               0.66584808     0.82450364     1.01025438     1.22772762
               1.48234092     1.78043706     2.12944203     2.53805004
               3.01644009     3.57652955     4.23227104     5.00000000

     Gradients computed in reciprocal space

[...]

     Starting wfc are  144 randomized atomic wfcs

     Self-consistent Calculation

[...]

     total energy              =   -3193.49453555 Ry
     Harris-Foulkes estimate   =   -3193.49453530 Ry
     estimated scf accuracy    <       0.00000172 Ry

[...]

     iteration # 35     ecut=    36.75 Ry     beta=0.10
     Davidson diagonalization with overlap
     ethr =  8.61E-10,  avg # of iterations =  1.0

[...]

     negative rho (up, down):  2.848E-02 2.944E-02

[...]

     Adding external electric field

     Computed dipole along edir(3) :
        Dipole                0.0990 Ry au,          0.2517 Debye
        Dipole field          0.0003 Ry au

        Potential amp.       -0.0273 Ry
        Total length         44.9193 bohr

     Magnetic moment per site:
     atom:    1    charge:    8.2998    magn:    0.8623    constr:    0.0000
     atom:    2    charge:    8.2997    magn:    0.8624    constr:    0.0000
     atom:    3    charge:    8.2996    magn:    0.8625    constr:    0.0000
     atom:    4    charge:    1.7564    magn:   -0.0032    constr:    0.0000
     atom:    5    charge:    8.2877    magn:    0.8185    constr:    0.0000
     atom:    6    charge:    8.2876    magn:    0.8185    constr:    0.0000
     atom:    7    charge:    8.2876    magn:    0.8185    constr:    0.0000
     atom:    8    charge:    1.7549    magn:   -0.0040    constr:    0.0000
     atom:    9    charge:    8.2948    magn:    0.8923    constr:    0.0000
     atom:   10    charge:    8.2949    magn:    0.8922    constr:    0.0000
     atom:   11    charge:    8.2947    magn:    0.8924    constr:    0.0000
     atom:   12    charge:    1.7482    magn:   -0.0023    constr:    0.0000

     End of self-consistent calculation

 ------ SPIN UP ------------

[...]

 ------ SPIN DOWN ----------

[...]

          k = 0.0621 0.0000 0.0000 ( 15414 PWs)   bands (ev):

[...]

          k =-0.0932-0.1614 0.0000 ( 15402 PWs)   bands (ev):

   -92.5225 -92.5184 -92.5147 -92.4675 -92.4477 -92.4464 -92.3533 -92.3498
   -92.3463 -55.9358 -55.9282 -55.9204 -55.9173 -55.9130 -55.9073 -55.9025
   -55.8841 -55.8646 -55.8564 -55.8438 -55.8148 -55.8026 -55.7944 -55.7846
   -55.7796 -55.7726 -55.7640 -55.7601 -55.7463 -55.7374 -55.7352 -55.7111
   -55.6838 -55.6604 -55.6546 -55.6452 -16.0166 -16.0013 -15.9842 -15.9606
   -15.9564 -15.7095 -15.6881 -15.6834 -15.6568 -15.6447 -15.5940 -15.5730
   -15.5660 -15.5448 -15.5374  -8.8714  -8.0181  -7.2675  -4.4960  -3.3484
    -3.1869  -3.0340  -1.5627  -1.4943  -1.4732  -1.0681  -1.0024  -0.9306
    -0.8175  -0.4741  -0.3914  -0.3238  -0.2126  -0.1754  -0.0614  -0.0513
    -0.0202   0.2095   0.2122   0.2660   0.3419   0.4581   0.5834   0.5954
     0.6612   0.7775   0.7798   0.8892   1.1458   1.1741   1.1990   1.2131
     1.2563   1.3354   1.4299   1.4329   1.4947   1.5255   1.5715   1.6477
     1.6728   1.8300   1.9211   1.9346   2.0886   2.1592   2.2615   2.6212
     2.8523   2.8837   2.9604   3.6934   3.9656   4.1386   5.2858   6.0550
     6.4082   6.5307   6.6979   6.9522   7.0483   7.1931   7.2138   7.3048
     7.6419   7.8949   7.9769   8.2015   8.2464   8.3709   8.5766

     the Fermi energy is     1.4643 ev

!    total energy              =   -3193.49453681 Ry
     Harris-Foulkes estimate   =   -3193.49453521 Ry
     estimated scf accuracy    <       0.00000089 Ry

     The total energy is the sum of the following terms:

     one-electron contribution =  -24216.00873465 Ry
     hartree contribution      =   12135.17785588 Ry
     xc contribution           =    -500.48793385 Ry
     ewald contribution        =    9387.92890940 Ry
     electric field correction =       0.00003005 Ry
     smearing contrib. (-TS)   =      -0.10466364 Ry

     total magnetization       =    13.57 Bohr mag/cell
     absolute magnetization    =    15.54 Bohr mag/cell

     convergence has been achieved in  35 iterations

 BEEF-vdW xc energy contributions
           1 :   -443.019086146857
           2 :    405.757826785936
           3 :   -341.581105942396
           4 :    266.590803921561
           5 :   -196.159828452504
           6 :    139.729779911363
           7 :   -99.0913932087598
           8 :    70.3001977900747
           9 :   -47.6118287631853
          10 :    27.0570436593727
          11 :   -7.95216945449840
          12 :   -7.93378052731811
          13 :    18.4647851706001
          14 :   -22.9501929478638
          15 :    22.6454235740372
          16 :   -19.9367879035694
          17 :    16.9864956723695
          18 :   -14.7951425528072
          19 :    13.1617092626076
          20 :   -11.3748330579523
          21 :    9.02164244511602
          22 :   -6.36182993205932
          23 :    4.09622216184016
          24 :   -2.81728609986970
          25 :    2.58829375938240
          26 :   -2.94868744855967
          27 :    3.28322115273909
          28 :   -3.25227514503547
          29 :    2.96295277782497
          30 :   -2.79521929267753
          31 :   -36.6173574911683
          32 :   -26.0030739824016

     Forces acting on atoms (Ry/au):

     negative rho (up, down):  2.848E-02 2.944E-02
     atom    1 type  1   force =    -0.00001110   -0.02214224    0.01107947
     atom    2 type  1   force =    -0.01917448    0.01107815    0.01107289
     atom    3 type  1   force =     0.01915584    0.01107957    0.01108658
     atom    4 type  2   force =    -0.00000053   -0.00000528   -0.07926620
     atom    5 type  1   force =    -0.00000201    0.02259529    0.01402025
     atom    6 type  1   force =     0.01952094   -0.01130749    0.01408904
     atom    7 type  1   force =    -0.01953402   -0.01131285    0.01407664
     atom    8 type  2   force =    -0.00001381    0.00003799    0.00113042
     atom    9 type  1   force =     0.00000566   -0.00070606    0.00069072
     atom   10 type  1   force =    -0.00066266    0.00028218    0.00075264
     atom   11 type  1   force =     0.00069370    0.00029396    0.00072721
     atom   12 type  2   force =     0.00002247    0.00010677    0.00054034

     Total force =     0.101236     Total SCF correction =     0.002337

     entering subroutine stress ...

     negative rho (up, down):  2.848E-02 2.944E-02
          total   stress  (Ry/bohr**3)                   (kbar)     P=   -6.10
  -0.00007194  -0.00000002   0.00000000        -10.58     -0.00      0.00
  -0.00000002  -0.00007195   0.00000001         -0.00    -10.58      0.00
   0.00000000   0.00000001   0.00001948          0.00      0.00      2.87

 !ASE

     Writing output data file calc.save

     General routines

     Parallel routines

   This run was terminated on:  13:27: 5  20Dec2018

   JOB DONE.
Job  /afs/slac/g/suncat/bin/suncat-tsmpirun -x LD_LIBRARY_PATH -wdir /scratch/qe773527_5FHIy pw.x -in pw.inp

TID   HOST_NAME   COMMAND_LINE            STATUS            TERMINATION_TIME
00000 suncat0254 pw.x -in pw.inp   Done                     12/20/2018 13:27:05
00001 suncat0254 pw.x -in pw.inp   Done                     12/20/2018 13:27:05
00002 suncat0254 pw.x -in pw.inp   Done                     12/20/2018 13:27:05
00003 suncat0254 pw.x -in pw.inp   Done                     12/20/2018 13:27:05
00004 suncat0254 pw.x -in pw.inp   Done                     12/20/2018 13:27:05
00005 suncat0254 pw.x -in pw.inp   Done                     12/20/2018 13:27:05
00006 suncat0254 pw.x -in pw.inp   Done                     12/20/2018 13:27:05
00007 suncat0254 pw.x -in pw.inp   Done                     12/20/2018 13:27:05
00008 suncat0253 pw.x -in pw.inp   Done                     12/20/2018 13:27:05
00009 suncat0253 pw.x -in pw.inp   Done                     12/20/2018 13:27:05
00010 suncat0253 pw.x -in pw.inp   Done                     12/20/2018 13:27:05
00011 suncat0253 pw.x -in pw.inp   Done                     12/20/2018 13:27:05
00012 suncat0253 pw.x -in pw.inp   Done                     12/20/2018 13:27:05
00013 suncat0253 pw.x -in pw.inp   Done                     12/20/2018 13:27:05
00014 suncat0253 pw.x -in pw.inp   Done                     12/20/2018 13:27:05
00015 suncat0253 pw.x -in pw.inp   Done                     12/20/2018 13:27:05
00016 suncat0244 pw.x -in pw.inp   Done                     12/20/2018 13:27:05
00017 suncat0244 pw.x -in pw.inp   Done                     12/20/2018 13:27:05
00018 suncat0244 pw.x -in pw.inp   Done                     12/20/2018 13:27:05
00019 suncat0244 pw.x -in pw.inp   Done                     12/20/2018 13:27:05
00020 suncat0244 pw.x -in pw.inp   Done                     12/20/2018 13:27:05
00021 suncat0244 pw.x -in pw.inp   Done                     12/20/2018 13:27:05
00022 suncat0244 pw.x -in pw.inp   Done                     12/20/2018 13:27:05
00023 suncat0244 pw.x -in pw.inp   Done                     12/20/2018 13:27:05
00024 suncat0243 pw.x -in pw.inp   Done                     12/20/2018 13:27:05
00025 suncat0243 pw.x -in pw.inp   Done                     12/20/2018 13:27:05
00026 suncat0243 pw.x -in pw.inp   Done                     12/20/2018 13:27:05
00027 suncat0243 pw.x -in pw.inp   Done                     12/20/2018 13:27:05
00028 suncat0243 pw.x -in pw.inp   Done                     12/20/2018 13:27:05
00029 suncat0243 pw.x -in pw.inp   Done                     12/20/2018 13:27:05
00030 suncat0243 pw.x -in pw.inp   Done                     12/20/2018 13:27:05
00031 suncat0243 pw.x -in pw.inp   Done                     12/20/2018 13:27:05
00032 suncat0242 pw.x -in pw.inp   Done                     12/20/2018 13:27:05
00033 suncat0242 pw.x -in pw.inp   Done                     12/20/2018 13:27:05
00034 suncat0242 pw.x -in pw.inp   Done                     12/20/2018 13:27:05
00035 suncat0242 pw.x -in pw.inp   Done                     12/20/2018 13:27:05
00036 suncat0242 pw.x -in pw.inp   Done                     12/20/2018 13:27:05
00037 suncat0242 pw.x -in pw.inp   Done                     12/20/2018 13:27:05
00038 suncat0242 pw.x -in pw.inp   Done                     12/20/2018 13:27:05
00039 suncat0242 pw.x -in pw.inp   Done                     12/20/2018 13:27:05
00040 suncat0241 pw.x -in pw.inp   Done                     12/20/2018 13:27:05
00041 suncat0241 pw.x -in pw.inp   Done                     12/20/2018 13:27:05
00042 suncat0241 pw.x -in pw.inp   Done                     12/20/2018 13:27:05
00043 suncat0241 pw.x -in pw.inp   Done                     12/20/2018 13:27:05
00044 suncat0241 pw.x -in pw.inp   Done                     12/20/2018 13:27:05
00045 suncat0241 pw.x -in pw.inp   Done                     12/20/2018 13:27:05
00046 suncat0241 pw.x -in pw.inp   Done                     12/20/2018 13:27:05
00047 suncat0241 pw.x -in pw.inp   Done                     12/20/2018 13:27:05
00048 suncat0240 pw.x -in pw.inp   Done                     12/20/2018 13:27:05
00049 suncat0240 pw.x -in pw.inp   Done                     12/20/2018 13:27:05
00050 suncat0240 pw.x -in pw.inp   Done                     12/20/2018 13:27:05
00051 suncat0240 pw.x -in pw.inp   Done                     12/20/2018 13:27:05
00052 suncat0240 pw.x -in pw.inp   Done                     12/20/2018 13:27:05
00053 suncat0240 pw.x -in pw.inp   Done                     12/20/2018 13:27:05
00054 suncat0240 pw.x -in pw.inp   Done                     12/20/2018 13:27:05
00055 suncat0240 pw.x -in pw.inp   Done                     12/20/2018 13:27:05
00056 suncat0239 pw.x -in pw.inp   Done                     12/20/2018 13:27:05
00057 suncat0239 pw.x -in pw.inp   Done                     12/20/2018 13:27:05
00058 suncat0239 pw.x -in pw.inp   Done                     12/20/2018 13:27:05
00059 suncat0239 pw.x -in pw.inp   Done                     12/20/2018 13:27:05
00060 suncat0239 pw.x -in pw.inp   Done                     12/20/2018 13:27:05
00061 suncat0239 pw.x -in pw.inp   Done                     12/20/2018 13:27:05
00062 suncat0239 pw.x -in pw.inp   Done                     12/20/2018 13:27:05
00063 suncat0239 pw.x -in pw.inp   Done                     12/20/2018 13:27:05