     Program PWSCF v.5.1rc2 (svn rev. 11289) starts on 30Dec2018 at 19:43:24

     Current dimensions of program PWSCF are:
     Max number of different atomic species (ntypx) = 10
     Max number of k-points (npk) =  40000
     Max angular momentum in pseudopotentials (lmaxx) =  3
     Presently stress not available with electric field

     IMPORTANT: XC functional enforced from input :
     Exchange-correlation      = BEEF-VDW ( 1  4 27 13 2)
     Any further DFT definition will be discarded
     Please, verify this is what you really want

     Subspace diagonalization in iterative solution of the eigenvalue problem:
     a serial algorithm will be used

     bravais-lattice index     =            0
     lattice parameter (alat)  =       1.8897  a.u.
     unit-cell volume          =    4943.6047 (a.u.)^3
     number of atoms/cell      =           12
     number of atomic types    =            2
     number of electrons       =       126.00
     number of Kohn-Sham states=           93
     kinetic-energy cutoff     =      36.7493  Ry
     charge density cutoff     =     367.4932  Ry
     convergence threshold     =      1.0E-06
     mixing beta               =       0.1000
     number of iterations used =           10  plain     mixing
     Exchange-correlation      = BEEF-VDW ( 1  4 27 13 2)
     nstep                     =           50

     celldm(1)=   1.889726  celldm(2)=   0.000000  celldm(3)=   0.000000
     celldm(4)=   0.000000  celldm(5)=   0.000000  celldm(6)=   0.000000

     crystal axes: (cart. coord. in units of alat)
               a(1) = (   5.843644   0.000000   0.000000 )
               a(2) = (  -2.921822   5.060744   0.000000 )
               a(3) = (   0.000000   0.000000  24.771315 )

     reciprocal axes: (cart. coord. in units 2 pi/alat)
               b(1) = (  0.171126  0.098800  0.000000 )
               b(2) = (  0.000000  0.197599  0.000000 )
               b(3) = (  0.000000  0.000000  0.040369 )

     PseudoPot. # 1 for Nb read from file:
     /afs/slac.stanford.edu/u/if/mamunm/psp/gbrv1.5pbe/Nb.UPF
     MD5 check sum: 573aab8a2fa660278ed4a62cd769473f
     Pseudo is Ultrasoft + core correction, Zval = 13.0
     Generated by new atomic code, or converted to UPF format
     Using radial grid of  887 points,  6 beta functions with:
                l(1) =   0
                l(2) =   0
                l(3) =   1
                l(4) =   1
                l(5) =   2
                l(6) =   2
     Q(r) pseudized with  6 coefficients,  rinner =    1.000   1.000   1.000
                                                       1.000   1.000

     PseudoPot. # 2 for Al read from file:
     /afs/slac.stanford.edu/u/if/mamunm/psp/gbrv1.5pbe/Al.UPF
     MD5 check sum: 0a6289f5291fc8f409219462bc851e1f
     Pseudo is Ultrasoft + core correction, Zval =  3.0
     Generated by new atomic code, or converted to UPF format
     Using radial grid of  893 points,  3 beta functions with:
                l(1) =   0
                l(2) =   1
                l(3) =   2
     Q(r) pseudized with  8 coefficients,  rinner =    0.900   0.900   0.900
                                                       0.900   0.900

     vdW kernel table read from file vdW_kernel_table
     MD5 check sum: 095c7af220d748ca6e76c0b4c6cfb241

     atomic species   valence    mass     pseudopotential
        Nb1           13.00    92.90637     Nb( 1.00)
        Al1            3.00    26.98154     Al( 1.00)

     No symmetry found

   Cartesian axes

     site n.     atom                  positions (alat units)
         1           Nb1 tau(   1) = (   0.0000000   0.0000000  10.0000000  )
         2           Nb1 tau(   2) = (  -1.4609109   2.5303719  10.0000000  )
         3           Nb1 tau(   3) = (   1.4609109   2.5303719  10.0000000  )
         4           Al1 tau(   4) = (   2.9218218   0.0000000  10.0000000  )
         5           Nb1 tau(   5) = (   2.9218218   1.6869146  12.3856575  )
         6           Nb1 tau(   6) = (   1.4609109   4.2172865  12.3856575  )
         7           Nb1 tau(   7) = (  -1.4609109   4.2172865  12.3856575  )
         8           Al1 tau(   8) = (   0.0000000   1.6869146  12.3856575  )
         9           Nb1 tau(   9) = (  -0.0000000   3.3738292  14.7713150  )
        10           Nb1 tau(  10) = (   1.4609109   0.8434573  14.7713150  )
        11           Nb1 tau(  11) = (   4.3827327   0.8434573  14.7713150  )
        12           Al1 tau(  12) = (   2.9218218   3.3738292  14.7713150  )

     number of k points=    20  Fermi-Dirac smearing, width (Ry)=  0.0110
                       cart. coord. in units 2pi/alat
        k(    1) = (   0.0000000   0.0000000   0.0000000), wk =   0.0555556
        k(    2) = (   0.0000000   0.0329332   0.0000000), wk =   0.1111111
        k(    3) = (   0.0000000   0.0658665   0.0000000), wk =   0.1111111
        k(    4) = (   0.0000000  -0.0987997   0.0000000), wk =   0.0555556
        k(    5) = (   0.0285210   0.0164666   0.0000000), wk =   0.1111111
        k(    6) = (   0.0285210   0.0493999   0.0000000), wk =   0.1111111
        k(    7) = (   0.0285210   0.0823331   0.0000000), wk =   0.1111111
        k(    8) = (   0.0285210  -0.0823331   0.0000000), wk =   0.1111111
        k(    9) = (   0.0285210  -0.0493999   0.0000000), wk =   0.1111111
        k(   10) = (   0.0285210  -0.0164666   0.0000000), wk =   0.1111111
        k(   11) = (   0.0570420   0.0329332   0.0000000), wk =   0.1111111
        k(   12) = (   0.0570420   0.0658665   0.0000000), wk =   0.1111111
        k(   13) = (   0.0570420   0.0987997   0.0000000), wk =   0.1111111
        k(   14) = (   0.0570420  -0.0658665   0.0000000), wk =   0.1111111
        k(   15) = (   0.0570420  -0.0329332   0.0000000), wk =   0.1111111
        k(   16) = (   0.0570420  -0.0000000   0.0000000), wk =   0.1111111
        k(   17) = (  -0.0855631  -0.0493999   0.0000000), wk =   0.0555556
        k(   18) = (  -0.0855631  -0.0164666   0.0000000), wk =   0.1111111
        k(   19) = (  -0.0855631   0.0164666   0.0000000), wk =   0.1111111
        k(   20) = (  -0.0855631  -0.1481996   0.0000000), wk =   0.0555556

     Largest allocated arrays     est. size (Mb)     dimensions
     Largest temporary arrays     est. size (Mb)     dimensions

     Initial potential from superposition of free atoms
     Check: negative starting charge=   -0.004376

     starting charge  125.96801, renormalised to  126.00000

     negative rho (up, down):  4.377E-03 0.000E+00

     *
     * You are using vdW-DF for exchange-correlation in this calculation.
     * Please cite the following three references that made this development
     * possible:
     *
     *   M. Dion, H. Rydberg, E. Schroder, D. C. Langreth, and
     *   B. I. Lundqvist, Phys. Rev. Lett. 92, 246401 (2004).
     *
     *   T. Thonhauser, V. R. Cooper, S. Li, A. Puzder, P. Hyldgaard, and
     *   D. C. Langreth, Phys. Rev. B 76, 125112 (2007).
     *
     *   G. Roman-Perez and J. M. Soler, Phys. Rev. Lett. 103, 096102 (2009).
     *
     *
     * If you are using vdW-DF2, please also cite:
     *
     *   K. Lee, E. D. Murray, L. Kong, B. I. Lundqvist, and
     *   D. C. Langreth, Phys. Rev. B 82, 081101(R) (2010).
     *
     *
     * If you are calculating the stress with vdW-DF, please also cite:
     *
     *   R. Sabatini, E. Kucukbenli, B. Kolb, T. Thonhauser, and
     *   S. de Gironcoli, J. Phys.: Condens. Matter 24, 424209 (2012).
     *

     Carrying out vdW-DF run using the following parameters:

     Nqs =      20    Nr_points =    1024   r_max =   100.000
     q_mesh =
               0.00001000     0.04494208     0.09755937     0.15916263
               0.23128650     0.31572767     0.41458969     0.53033537
               0.66584808     0.82450364     1.01025438     1.22772762
               1.48234092     1.78043706     2.12944203     2.53805004
               3.01644009     3.57652955     4.23227104     5.00000000

     Gradients computed in reciprocal space

     Adding external electric field

     Computed dipole along edir(3) :
        Dipole                0.0000 Ry au,          0.0000 Debye
        Dipole field          0.0000 Ry au

        Potential amp.       -0.0000 Ry
        Total length         45.6407 bohr

     Starting wfc are  129 randomized atomic wfcs

     Self-consistent Calculation

     iteration #  1     ecut=    36.75 Ry     beta=0.10
     Davidson diagonalization with overlap
     ethr =  1.00E-02,  avg # of iterations =  2.4

[...]

     total energy              =   -1087.16323735 Ry
     Harris-Foulkes estimate   =   -1087.88458625 Ry
     estimated scf accuracy    <       4.34578229 Ry

[...]

     End of self-consistent calculation

          k = 0.0000 0.0000 0.0000 ( 18679 PWs)   bands (ev):

   -53.9490 -53.9295 -53.8164 -53.8164 -53.8115 -53.8115 -53.7681 -53.6629
   -53.6629 -30.4743 -30.3787 -30.2977 -30.2048 -30.2048 -30.2014 -30.1816
   -30.1816 -30.1014 -30.1014 -30.0188 -29.8959 -29.8959 -29.7999 -29.7999
   -29.7015 -29.6324 -29.5434 -29.5326 -29.5326 -29.4634 -29.4352 -29.4352
   -29.4276 -29.4276 -29.3319 -29.3319  -6.0413  -4.7130  -4.6280  -2.8507
    -2.3354  -2.1985  -1.5781  -1.5781  -1.3810  -1.2790  -1.2790  -1.0817
    -1.0631  -1.0631  -0.9515  -0.9515  -0.2310  -0.2310   0.3510   0.4369
     0.7793   0.7793   1.0480   1.0618   1.0618   1.2653   1.2653   1.4762
     1.6022   1.6370   1.6510   1.6510   2.7570   2.7570   2.9361   2.9361
     3.1196   3.1196   3.1820   3.1890   3.4413   3.6403   3.6403   3.6602
     3.6602   4.1080   4.3951   4.3951   4.6079   4.6079   4.6172   4.6172
     4.9705   5.0746   5.1480   5.4750   5.5656

[...]

          k =-0.0856-0.0494 0.0000 ( 18592 PWs)   bands (ev):

[...]

     the Fermi energy is     1.1514 ev

!    total energy              =   -1087.39898841 Ry
     Harris-Foulkes estimate   =   -1087.39898846 Ry
     estimated scf accuracy    <       0.00000024 Ry

     The total energy is the sum of the following terms:

     one-electron contribution =   -7905.04838058 Ry
     hartree contribution      =    3945.90436989 Ry
     xc contribution           =    -184.67046741 Ry
     ewald contribution        =    3056.51443463 Ry
     electric field correction =       0.00000000 Ry
     smearing contrib. (-TS)   =      -0.09894494 Ry

     convergence has been achieved in  17 iterations

 BEEF-vdW xc energy contributions
           1 :   -157.868518548479
           2 :    143.102542593580
           3 :   -118.156025447411
           4 :    90.0069094100773
           5 :   -65.1125344629423
           6 :    47.1745264999953
           7 :   -36.5136502316866
           8 :    30.9552929296674
           9 :   -27.4726053825375
          10 :    23.6503362141176
          11 :   -18.4261463727700
          12 :    12.0413213361977
          13 :   -5.50268579635093
          14 :  -9.142106609456846E-002
          15 :    4.07690949452913
          16 :   -6.46138058173034
          17 :    7.82154789520195
          18 :   -8.93889649584983
          19 :    10.3551548181659
          20 :   -12.0907313116809
          21 :    13.6771403007390
          22 :   -14.4773269930319
[...]
               a(3) = (   0.000000   0.000000  24.771315 )

     reciprocal axes: (cart. coord. in units 2 pi/alat)
               b(1) = (  0.171126  0.098800  0.000000 )
               b(2) = (  0.000000  0.197599  0.000000 )
               b(3) = (  0.000000  0.000000  0.040369 )

     PseudoPot. # 1 for Nb read from file:
     /afs/slac.stanford.edu/u/if/mamunm/psp/gbrv1.5pbe/Nb.UPF
     MD5 check sum: 573aab8a2fa660278ed4a62cd769473f
     Pseudo is Ultrasoft + core correction, Zval = 13.0
     Generated by new atomic code, or converted to UPF format
     Using radial grid of  887 points,  6 beta functions with:
                l(1) =   0
                l(2) =   0
                l(3) =   1
                l(4) =   1
                l(5) =   2
                l(6) =   2
     Q(r) pseudized with  6 coefficients,  rinner =    1.000   1.000   1.000
                                                       1.000   1.000

     PseudoPot. # 2 for Al read from file:
     /afs/slac.stanford.edu/u/if/mamunm/psp/gbrv1.5pbe/Al.UPF
     MD5 check sum: 0a6289f5291fc8f409219462bc851e1f
     Pseudo is Ultrasoft + core correction, Zval =  3.0
     Generated by new atomic code, or converted to UPF format
     Using radial grid of  893 points,  3 beta functions with:
                l(1) =   0
                l(2) =   1
                l(3) =   2
     Q(r) pseudized with  8 coefficients,  rinner =    0.900   0.900   0.900
                                                       0.900   0.900

     vdW kernel table read from file vdW_kernel_table
     MD5 check sum: 095c7af220d748ca6e76c0b4c6cfb241

     atomic species   valence    mass     pseudopotential
        Nb1           13.00    92.90637     Nb( 1.00)
        Al1            3.00    26.98154     Al( 1.00)

     No symmetry found

   Cartesian axes

     site n.     atom                  positions (alat units)
         1           Nb1 tau(   1) = (   0.0000000   0.0000000  10.0000000  )
         2           Nb1 tau(   2) = (  -1.4609109   2.5303719  10.0000000  )
         3           Nb1 tau(   3) = (   1.4609109   2.5303719  10.0000000  )
         4           Al1 tau(   4) = (   2.9218218   0.0000000  10.0000000  )
         5           Nb1 tau(   5) = (   2.9218218   1.6869146  12.3856575  )
         6           Nb1 tau(   6) = (   1.4609109   4.2172865  12.3856575  )
         7           Nb1 tau(   7) = (  -1.4609109   4.2172865  12.3856575  )
         8           Al1 tau(   8) = (   0.0000000   1.6869146  12.3856575  )
         9           Nb1 tau(   9) = (  -0.0000003   3.3386664  14.6430367  )
        10           Nb1 tau(  10) = (   1.4304610   0.8610376  14.6430369  )
        11           Nb1 tau(  11) = (   4.4131836   0.8610376  14.6430370  )
        12           Al1 tau(  12) = (   2.9218226   3.3738298  14.9678279  )

     number of k points=    20  Fermi-Dirac smearing, width (Ry)=  0.0110
                       cart. coord. in units 2pi/alat
        k(    1) = (   0.0000000   0.0000000   0.0000000), wk =   0.0555556
        k(    2) = (   0.0000000   0.0329332   0.0000000), wk =   0.1111111
        k(    3) = (   0.0000000   0.0658665   0.0000000), wk =   0.1111111
        k(    4) = (   0.0000000  -0.0987997   0.0000000), wk =   0.0555556
        k(    5) = (   0.0285210   0.0164666   0.0000000), wk =   0.1111111
        k(    6) = (   0.0285210   0.0493999   0.0000000), wk =   0.1111111
        k(    7) = (   0.0285210   0.0823331   0.0000000), wk =   0.1111111
        k(    8) = (   0.0285210  -0.0823331   0.0000000), wk =   0.1111111
        k(    9) = (   0.0285210  -0.0493999   0.0000000), wk =   0.1111111
        k(   10) = (   0.0285210  -0.0164666   0.0000000), wk =   0.1111111
        k(   11) = (   0.0570420   0.0329332   0.0000000), wk =   0.1111111
        k(   12) = (   0.0570420   0.0658665   0.0000000), wk =   0.1111111
        k(   13) = (   0.0570420   0.0987997   0.0000000), wk =   0.1111111
        k(   14) = (   0.0570420  -0.0658665   0.0000000), wk =   0.1111111
        k(   15) = (   0.0570420  -0.0329332   0.0000000), wk =   0.1111111
        k(   16) = (   0.0570420  -0.0000000   0.0000000), wk =   0.1111111
        k(   17) = (  -0.0855631  -0.0493999   0.0000000), wk =   0.0555556
        k(   18) = (  -0.0855631  -0.0164666   0.0000000), wk =   0.1111111
        k(   19) = (  -0.0855631   0.0164666   0.0000000), wk =   0.1111111
        k(   20) = (  -0.0855631  -0.1481996   0.0000000), wk =   0.0555556

     Largest allocated arrays     est. size (Mb)     dimensions
     Largest temporary arrays     est. size (Mb)     dimensions

     Initial potential from superposition of free atoms
     Check: negative starting charge=   -0.004621

     starting charge  125.96801, renormalised to  126.00000

[...]

     *
     * You are using vdW-DF for exchange-correlation in this calculation.
     * Please cite the following three references that made this development
     * possible:
     *
     *   M. Dion, H. Rydberg, E. Schroder, D. C. Langreth, and
     *   B. I. Lundqvist, Phys. Rev. Lett. 92, 246401 (2004).
     *
     *   T. Thonhauser, V. R. Cooper, S. Li, A. Puzder, P. Hyldgaard, and
     *   D. C. Langreth, Phys. Rev. B 76, 125112 (2007).
     *
     *   G. Roman-Perez and J. M. Soler, Phys. Rev. Lett. 103, 096102 (2009).
     *
     *
     * If you are using vdW-DF2, please also cite:
     *
     *   K. Lee, E. D. Murray, L. Kong, B. I. Lundqvist, and
     *   D. C. Langreth, Phys. Rev. B 82, 081101(R) (2010).
     *
     *
     * If you are calculating the stress with vdW-DF, please also cite:
     *
     *   R. Sabatini, E. Kucukbenli, B. Kolb, T. Thonhauser, and
     *   S. de Gironcoli, J. Phys.: Condens. Matter 24, 424209 (2012).
     *

     Carrying out vdW-DF run using the following parameters:

     Nqs =      20    Nr_points =    1024   r_max =   100.000
     q_mesh =
               0.00001000     0.04494208     0.09755937     0.15916263
               0.23128650     0.31572767     0.41458969     0.53033537
               0.66584808     0.82450364     1.01025438     1.22772762
               1.48234092     1.78043706     2.12944203     2.53805004
               3.01644009     3.57652955     4.23227104     5.00000000

     Gradients computed in reciprocal space

[...]

     Starting wfc are  129 randomized atomic wfcs

     Self-consistent Calculation

[...]

     total energy              =   -1087.41596376 Ry
     Harris-Foulkes estimate   =   -1087.41596355 Ry
     estimated scf accuracy    <       0.00000159 Ry

     iteration # 17     ecut=    36.75 Ry     beta=0.10
     Davidson diagonalization with overlap
     ethr =  1.26E-09,  avg # of iterations =  2.0

[...]

     negative rho (up, down):  4.392E-03 0.000E+00

     Adding external electric field

     Computed dipole along edir(3) :
        Dipole               -0.0234 Ry au,         -0.0594 Debye
        Dipole field         -0.0001 Ry au

        Potential amp.        0.0054 Ry
        Total length         45.6407 bohr

     End of self-consistent calculation

[...]

          k = 0.0570-0.0000 0.0000 ( 18591 PWs)   bands (ev):

[...]

          k =-0.0856-0.1482 0.0000 ( 18592 PWs)   bands (ev):

   -53.9311 -53.9050 -53.8899 -53.8588 -53.8474 -53.8099 -53.7513 -53.7285
   -53.6939 -30.3469 -30.3417 -30.2540 -30.1976 -30.1387 -30.1253 -30.0835
   -30.0497 -30.0193 -29.9732 -29.9560 -29.9463 -29.9111 -29.8745 -29.8713
   -29.8461 -29.8400 -29.7936 -29.6885 -29.6808 -29.6569 -29.5093 -29.5065
   -29.4915 -29.4598 -29.4486 -29.3729  -4.8827  -4.4297  -3.8204  -2.8910
    -2.3221  -2.2619  -1.8721  -1.7880  -1.1086  -1.0995  -0.9311  -0.9029
    -0.8381  -0.7942  -0.6832  -0.4512  -0.1667  -0.0463  -0.0181   0.0590
     0.3753   0.3935   0.5739   0.6544   0.7160   0.8261   0.8385   1.2434
     1.2525   1.3027   1.4081   1.5747   1.7378   2.2661   2.3346   2.7042
     2.7197   2.8046   2.8270   3.0004   3.0365   3.1326   3.3487   3.3763
     3.4262   3.4988   3.6817   3.7642   3.9488   4.5331   4.7916   4.8684
     4.8931   5.6072   5.8306   5.9366   6.3073

     the Fermi energy is     1.1182 ev

!    total energy              =   -1087.41596446 Ry
     Harris-Foulkes estimate   =   -1087.41596359 Ry
     estimated scf accuracy    <       0.00000077 Ry

     The total energy is the sum of the following terms:

     one-electron contribution =   -8019.86559320 Ry
     hartree contribution      =    4003.20305321 Ry
     xc contribution           =    -184.78572726 Ry
     ewald contribution        =    3114.12400053 Ry
     electric field correction =       0.00000139 Ry
     smearing contrib. (-TS)   =      -0.09169912 Ry

     convergence has been achieved in  17 iterations

 BEEF-vdW xc energy contributions
           1 :   -158.042523586303
           2 :    143.311680643240
           3 :   -118.403743092971
           4 :    90.2526591453504
           5 :   -65.2916565649431
           6 :    47.2364782514516
           7 :   -36.4542285327191
           8 :    30.8216210933295
           9 :   -27.3392352155948
          10 :    23.5812149787263
          11 :   -18.4445106288302
          12 :    12.1222985341626
          13 :   -5.59031968803794
          14 :  -5.370741268043844E-002
          15 :    4.11875818304924
          16 :   -6.57279938278060
          17 :    7.95849797132917
          18 :   -9.04381416269982
          19 :    10.3832936311154
          20 :   -12.0317008042033
          21 :    13.5606822412927
          22 :   -14.3593533974038
          23 :    14.0200249885374
          24 :   -12.5791160691707
          25 :    10.4824060025060
          26 :   -8.33043937130259
          27 :    6.57806527704864
          28 :   -5.36641815966726
          29 :    4.55200538714701
          30 :   -3.87670091145020
          31 :   -18.5524515727469
          32 :   -14.0082185509333

     Forces acting on atoms (Ry/au):

     negative rho (up, down):  4.392E-03 0.000E+00
     atom    1 type  1   force =     0.00000010    0.00687428    0.02145735
     atom    2 type  1   force =     0.00595314   -0.00343745    0.02145680
     atom    3 type  1   force =    -0.00595276   -0.00343736    0.02145815
     atom    4 type  2   force =     0.00000005    0.00000010   -0.02535816
     atom    5 type  1   force =    -0.00000006    0.00886281   -0.00418749
     atom    6 type  1   force =     0.00767523   -0.00443132   -0.00418767
     atom    7 type  1   force =    -0.00767536   -0.00443101   -0.00418711
     atom    8 type  2   force =     0.00000024   -0.00000009   -0.02894386
     atom    9 type  1   force =     0.00000001   -0.00007696    0.00059751
     atom   10 type  1   force =    -0.00006718    0.00003852    0.00059731
     atom   11 type  1   force =     0.00006672    0.00003851    0.00059699
     atom   12 type  2   force =    -0.00000011   -0.00000004    0.00070017

     Total force =     0.057390     Total SCF correction =     0.002237

     entering subroutine stress ...

     negative rho (up, down):  4.392E-03 0.000E+00
          total   stress  (Ry/bohr**3)                   (kbar)     P=  -13.81
  -0.00012396   0.00000000  -0.00000000        -18.24      0.00     -0.00
   0.00000000  -0.00012396  -0.00000000          0.00    -18.24     -0.00
  -0.00000000  -0.00000000  -0.00003368         -0.00     -0.00     -4.95

 !ASE

     Writing output data file calc.save

     General routines

     Parallel routines

   This run was terminated on:  21:18:38  30Dec2018

   JOB DONE.
Job  /afs/slac/g/suncat/bin/suncat-tsmpirun -x LD_LIBRARY_PATH -wdir /scratch/qe648615_4bDhS pw.x -in pw.inp

TID   HOST_NAME   COMMAND_LINE            STATUS            TERMINATION_TIME
00000 suncat0259 pw.x -in pw.inp   Done                     12/30/2018 21:18:38
00001 suncat0259 pw.x -in pw.inp   Done                     12/30/2018 21:18:38
00002 suncat0259 pw.x -in pw.inp   Done                     12/30/2018 21:18:38
00003 suncat0259 pw.x -in pw.inp   Done                     12/30/2018 21:18:38
00004 suncat0259 pw.x -in pw.inp   Done                     12/30/2018 21:18:38
00005 suncat0259 pw.x -in pw.inp   Done                     12/30/2018 21:18:38
00006 suncat0259 pw.x -in pw.inp   Done                     12/30/2018 21:18:38
00007 suncat0259 pw.x -in pw.inp   Done                     12/30/2018 21:18:38
00008 suncat0256 pw.x -in pw.inp   Done                     12/30/2018 21:18:38
00009 suncat0256 pw.x -in pw.inp   Done                     12/30/2018 21:18:38
00010 suncat0256 pw.x -in pw.inp   Done                     12/30/2018 21:18:38
00011 suncat0256 pw.x -in pw.inp   Done                     12/30/2018 21:18:38
00012 suncat0256 pw.x -in pw.inp   Done                     12/30/2018 21:18:38
00013 suncat0256 pw.x -in pw.inp   Done                     12/30/2018 21:18:38
00014 suncat0256 pw.x -in pw.inp   Done                     12/30/2018 21:18:38
00015 suncat0256 pw.x -in pw.inp   Done                     12/30/2018 21:18:38
00016 suncat0255 pw.x -in pw.inp   Done                     12/30/2018 21:18:38
00017 suncat0255 pw.x -in pw.inp   Done                     12/30/2018 21:18:38
00018 suncat0255 pw.x -in pw.inp   Done                     12/30/2018 21:18:38
00019 suncat0255 pw.x -in pw.inp   Done                     12/30/2018 21:18:38
00020 suncat0255 pw.x -in pw.inp   Done                     12/30/2018 21:18:38
00021 suncat0255 pw.x -in pw.inp   Done                     12/30/2018 21:18:38
00022 suncat0255 pw.x -in pw.inp   Done                     12/30/2018 21:18:38
00023 suncat0255 pw.x -in pw.inp   Done                     12/30/2018 21:18:38
00024 suncat0232 pw.x -in pw.inp   Done                     12/30/2018 21:18:38
00025 suncat0232 pw.x -in pw.inp   Done                     12/30/2018 21:18:38
00026 suncat0232 pw.x -in pw.inp   Done                     12/30/2018 21:18:38
00027 suncat0232 pw.x -in pw.inp   Done                     12/30/2018 21:18:38
00028 suncat0232 pw.x -in pw.inp   Done                     12/30/2018 21:18:38
00029 suncat0232 pw.x -in pw.inp   Done                     12/30/2018 21:18:38
00030 suncat0232 pw.x -in pw.inp   Done                     12/30/2018 21:18:38
00031 suncat0232 pw.x -in pw.inp   Done                     12/30/2018 21:18:38
00032 suncat0220 pw.x -in pw.inp   Done                     12/30/2018 21:18:38
00033 suncat0220 pw.x -in pw.inp   Done                     12/30/2018 21:18:38
00034 suncat0220 pw.x -in pw.inp   Done                     12/30/2018 21:18:38
00035 suncat0220 pw.x -in pw.inp   Done                     12/30/2018 21:18:38
00036 suncat0220 pw.x -in pw.inp   Done                     12/30/2018 21:18:38
00037 suncat0220 pw.x -in pw.inp   Done                     12/30/2018 21:18:38
00038 suncat0220 pw.x -in pw.inp   Done                     12/30/2018 21:18:38
00039 suncat0220 pw.x -in pw.inp   Done                     12/30/2018 21:18:38
00040 suncat0219 pw.x -in pw.inp   Done                     12/30/2018 21:18:38
00041 suncat0219 pw.x -in pw.inp   Done                     12/30/2018 21:18:38
00042 suncat0219 pw.x -in pw.inp   Done                     12/30/2018 21:18:38
00043 suncat0219 pw.x -in pw.inp   Done                     12/30/2018 21:18:38
00044 suncat0219 pw.x -in pw.inp   Done                     12/30/2018 21:18:38
00045 suncat0219 pw.x -in pw.inp   Done                     12/30/2018 21:18:38
00046 suncat0219 pw.x -in pw.inp   Done                     12/30/2018 21:18:38
00047 suncat0219 pw.x -in pw.inp   Done                     12/30/2018 21:18:38
00048 suncat0201 pw.x -in pw.inp   Done                     12/30/2018 21:18:38
00049 suncat0201 pw.x -in pw.inp   Done                     12/30/2018 21:18:38
00050 suncat0201 pw.x -in pw.inp   Done                     12/30/2018 21:18:38
00051 suncat0201 pw.x -in pw.inp   Done                     12/30/2018 21:18:38
00052 suncat0201 pw.x -in pw.inp   Done                     12/30/2018 21:18:38
00053 suncat0201 pw.x -in pw.inp   Done                     12/30/2018 21:18:38
00054 suncat0201 pw.x -in pw.inp   Done                     12/30/2018 21:18:38
00055 suncat0201 pw.x -in pw.inp   Done                     12/30/2018 21:18:38
00056 suncat0200 pw.x -in pw.inp   Done                     12/30/2018 21:18:38
00057 suncat0200 pw.x -in pw.inp   Done                     12/30/2018 21:18:38
00058 suncat0200 pw.x -in pw.inp   Done                     12/30/2018 21:18:38
00059 suncat0200 pw.x -in pw.inp   Done                     12/30/2018 21:18:38
00060 suncat0200 pw.x -in pw.inp   Done                     12/30/2018 21:18:38
00061 suncat0200 pw.x -in pw.inp   Done                     12/30/2018 21:18:38
00062 suncat0200 pw.x -in pw.inp   Done                     12/30/2018 21:18:38
00063 suncat0200 pw.x -in pw.inp   Done                     12/30/2018 21:18:38