     Program PWSCF v.5.1rc2 (svn rev. 11289) starts on  2Jan2019 at  0:31:30

     Current dimensions of program PWSCF are:
     Max number of different atomic species (ntypx) = 10
     Max number of k-points (npk) =  40000
     Max angular momentum in pseudopotentials (lmaxx) =  3
     Presently stress not available with electric field

     IMPORTANT: XC functional enforced from input :
     Exchange-correlation      = BEEF-VDW ( 1  4 27 13 2)
     Any further DFT definition will be discarded
     Please, verify this is what you really want

     Subspace diagonalization in iterative solution of the eigenvalue problem:
     a serial algorithm will be used

     bravais-lattice index     =            0
     lattice parameter (alat)  =       1.8897  a.u.
     unit-cell volume          =    6865.2270 (a.u.)^3
     number of atoms/cell      =           12
     number of atomic types    =            2
     number of electrons       =       174.00
     number of Kohn-Sham states=          117
     kinetic-energy cutoff     =      36.7493  Ry
     charge density cutoff     =     367.4932  Ry
     convergence threshold     =      1.0E-06
     mixing beta               =       0.1000
     number of iterations used =           10  plain     mixing
     Exchange-correlation      = BEEF-VDW ( 1  4 27 13 2)
     nstep                     =           50

     celldm(1)=   1.889726  celldm(2)=   0.000000  celldm(3)=   0.000000
     celldm(4)=   0.000000  celldm(5)=   0.000000  celldm(6)=   0.000000

     crystal axes: (cart. coord. in units of alat)
               a(1) = (   6.782240   0.000000   0.000000 )
               a(2) = (  -3.391120   5.873592   0.000000 )
               a(3) = (   0.000000   0.000000  25.537676 )

     reciprocal axes: (cart. coord. in units 2 pi/alat)
               b(1) = (  0.147444  0.085127  0.000000 )
               b(2) = (  0.000000  0.170254  0.000000 )
               b(3) = (  0.000000  0.000000  0.039158 )

     PseudoPot. # 1 for Tl read from file:
     /afs/slac.stanford.edu/u/if/mamunm/psp/gbrv1.5pbe/Tl.UPF
     MD5 check sum: b76cf1f7e72655a2b2c53cf6385d7059
     Pseudo is Ultrasoft + core correction, Zval = 13.0
     Generated by new atomic code, or converted to UPF format
     Using radial grid of  899 points,  6 beta functions with:
                l(1) =   0
                l(2) =   0
                l(3) =   1
                l(4) =   1
                l(5) =   2
                l(6) =   2
     Q(r) pseudized with  6 coefficients,  rinner =    1.100   1.100   1.100
                                                       1.100   1.100

     PseudoPot. # 2 for Cu read from file:
     /afs/slac.stanford.edu/u/if/mamunm/psp/gbrv1.5pbe/Cu.UPF
     MD5 check sum: 6e991ff952a84172a2a52a1c1e996048
     Pseudo is Ultrasoft + core correction, Zval = 19.0
     Generated by new atomic code, or converted to UPF format
     Using radial grid of  867 points,  6 beta functions with:
                l(1) =   0
                l(2) =   0
                l(3) =   1
                l(4) =   1
                l(5) =   2
                l(6) =   2
     Q(r) pseudized with  8 coefficients,  rinner =    1.150   1.150   1.150
                                                       1.150   1.150

     vdW kernel table read from file vdW_kernel_table
     MD5 check sum: 095c7af220d748ca6e76c0b4c6cfb241

     atomic species   valence    mass     pseudopotential
        Tl1           13.00   204.38000     Tl( 1.00)
        Cu1           19.00    63.54600     Cu( 1.00)

     No symmetry found

   Cartesian axes

     site n.     atom                  positions (alat units)
         1           Tl1 tau(   1) = (   0.0000000   0.0000000  10.0000000  )
         2           Tl1 tau(   2) = (  -1.6955600   2.9367960  10.0000000  )
         3           Tl1 tau(   3) = (   1.6955600   2.9367960  10.0000000  )
         4           Cu1 tau(   4) = (   3.3911200   0.0000000  10.0000000  )
         5           Tl1 tau(   5) = (   3.3911200   1.9578640  12.7688379  )
         6           Tl1 tau(   6) = (   1.6955600   4.8946601  12.7688379  )
         7           Tl1 tau(   7) = (  -1.6955600   4.8946601  12.7688379  )
         8           Cu1 tau(   8) = (   0.0000000   1.9578640  12.7688379  )
         9           Tl1 tau(   9) = (  -0.0000000   3.9157280  15.5376757  )
        10           Tl1 tau(  10) = (   1.6955600   0.9789320  15.5376757  )
        11           Tl1 tau(  11) = (   5.0866799   0.9789320  15.5376757  )
        12           Cu1 tau(  12) = (   3.3911200   3.9157280  15.5376757  )

     number of k points=    20  Fermi-Dirac smearing, width (Ry)=  0.0110
                       cart. coord. in units 2pi/alat
        k(    1) = (   0.0000000   0.0000000   0.0000000), wk =   0.0555556
        k(    2) = (   0.0000000   0.0283756   0.0000000), wk =   0.1111111
        k(    3) = (   0.0000000   0.0567512   0.0000000), wk =   0.1111111
        k(    4) = (   0.0000000  -0.0851268   0.0000000), wk =   0.0555556
        k(    5) = (   0.0245740   0.0141878   0.0000000), wk =   0.1111111
        k(    6) = (   0.0245740   0.0425634   0.0000000), wk =   0.1111111
        k(    7) = (   0.0245740   0.0709390   0.0000000), wk =   0.1111111
        k(    8) = (   0.0245740  -0.0709390   0.0000000), wk =   0.1111111
        k(    9) = (   0.0245740  -0.0425634   0.0000000), wk =   0.1111111
        k(   10) = (   0.0245740  -0.0141878   0.0000000), wk =   0.1111111
        k(   11) = (   0.0491480   0.0283756   0.0000000), wk =   0.1111111
        k(   12) = (   0.0491480   0.0567512   0.0000000), wk =   0.1111111
        k(   13) = (   0.0491480   0.0851268   0.0000000), wk =   0.1111111
        k(   14) = (   0.0491480  -0.0567512   0.0000000), wk =   0.1111111
        k(   15) = (   0.0491480  -0.0283756   0.0000000), wk =   0.1111111
        k(   16) = (   0.0491480   0.0000000   0.0000000), wk =   0.1111111
        k(   17) = (  -0.0737220  -0.0425634   0.0000000), wk =   0.0555556
        k(   18) = (  -0.0737220  -0.0141878   0.0000000), wk =   0.1111111
        k(   19) = (  -0.0737220   0.0141878   0.0000000), wk =   0.1111111
        k(   20) = (  -0.0737220  -0.1276902   0.0000000), wk =   0.0555556

     Largest allocated arrays     est. size (Mb)     dimensions
     Largest temporary arrays     est. size (Mb)     dimensions

     Check: negative/imaginary core charge=   -0.000001    0.000000

     Initial potential from superposition of free atoms
     Check: negative starting charge=   -0.457804

     starting charge  170.95620, renormalised to  174.00000

     negative rho (up, down):  4.660E-01 0.000E+00

     *
     * You are using vdW-DF for exchange-correlation in this calculation.
     * Please cite the following three references that made this development
     * possible:
     *
     *   M. Dion, H. Rydberg, E. Schroder, D. C. Langreth, and
     *   B. I. Lundqvist, Phys. Rev. Lett. 92, 246401 (2004).
     *
     *   T. Thonhauser, V. R. Cooper, S. Li, A. Puzder, P. Hyldgaard, and
     *   D. C. Langreth, Phys. Rev. B 76, 125112 (2007).
     *
     *   G. Roman-Perez and J. M. Soler, Phys. Rev. Lett. 103, 096102 (2009).
     *
     *
     * If you are using vdW-DF2, please also cite:
     *
     *   K. Lee, E. D. Murray, L. Kong, B. I. Lundqvist, and
     *   D. C. Langreth, Phys. Rev. B 82, 081101(R) (2010).
     *
     *
     * If you are calculating the stress with vdW-DF, please also cite:
     *
     *   R. Sabatini, E. Kucukbenli, B. Kolb, T. Thonhauser, and
     *   S. de Gironcoli, J. Phys.: Condens. Matter 24, 424209 (2012).
     *

     Carrying out vdW-DF run using the following parameters:

     Nqs =      20    Nr_points =    1024   r_max =   100.000
     q_mesh =
               0.00001000     0.04494208     0.09755937     0.15916263
               0.23128650     0.31572767     0.41458969     0.53033537
               0.66584808     0.82450364     1.01025438     1.22772762
               1.48234092     1.78043706     2.12944203     2.53805004
               3.01644009     3.57652955     4.23227104     5.00000000

     Gradients computed in reciprocal space

     Adding external electric field

     Computed dipole along edir(3) :
        Dipole                0.0000 Ry au,          0.0000 Debye
        Dipole field          0.0000 Ry au

        Potential amp.       -0.0000 Ry
        Total length         47.0527 bohr

     Starting wfc are  120 randomized atomic wfcs

     Self-consistent Calculation

     iteration #  1     ecut=    36.75 Ry     beta=0.10
     Davidson diagonalization with overlap
     ethr =  1.00E-02,  avg # of iterations =  8.1

[...]

     total energy              =   -2536.24450570 Ry
     Harris-Foulkes estimate   =   -2537.17439838 Ry
     estimated scf accuracy    <       5.10541771 Ry

[...]

     End of self-consistent calculation

          k = 0.0000 0.0000 0.0000 ( 25989 PWs)   bands (ev):

  -111.4789-111.2601-111.2601 -68.8993 -68.8911 -68.8911 -68.6900 -68.6900
   -68.6899 -68.6899 -68.6642 -68.6641 -11.7671 -11.7379 -11.7095 -11.7061
   -11.7061 -11.6678 -11.6270 -11.6270 -11.5856 -11.5856 -11.5370 -11.5368
   -11.5159 -11.5159 -11.4789 -11.4789 -11.4378 -11.4312 -11.4159 -11.4159
   -11.3164 -11.2953 -11.2747 -11.2747 -11.2679 -11.2599 -11.2599 -11.2411
   -11.2411 -11.2410 -11.2410 -11.1876 -11.1876 -11.1731 -11.1731 -11.1718
   -11.1718 -11.0718 -11.0718 -11.0552 -11.0122 -11.0122 -11.0026 -11.0003
   -10.9422  -8.5700  -7.4508  -5.8505  -4.8791  -4.8791  -4.4188  -4.4188
    -3.6206  -3.6206  -2.1610  -1.9722  -1.6415  -1.6415  -1.5420  -1.5420
    -1.5396  -1.5333  -1.5333  -1.4008  -1.3752  -1.3752  -1.3580  -1.3580
    -1.3275  -1.3275  -1.3110  -1.0570  -0.8722  -0.8722  -0.8221  -0.1441
     0.1214   0.1214   0.4476   0.4476   1.0640   1.0738   1.9689   3.3664
     3.6041   3.6041   3.7080   3.7760   3.7760   4.3825   4.4112   4.7910
     4.9891   5.5753   5.8765   5.8765   6.0751   6.0751   6.2714   6.3670
     6.6610   6.8515   6.9108   6.9805   6.9805

[...]

          k =-0.0737-0.0426 0.0000 ( 25850 PWs)   bands (ev):

[...]

     the Fermi energy is     0.4706 ev

!    total energy              =   -2535.82473215 Ry
     Harris-Foulkes estimate   =   -2535.82472809 Ry
     estimated scf accuracy    <       0.00000078 Ry

     The total energy is the sum of the following terms:

     one-electron contribution =  -11538.41985898 Ry
     hartree contribution      =    5833.16217161 Ry
     xc contribution           =    -695.83187605 Ry
     ewald contribution        =    3865.29978474 Ry
     electric field correction =       0.00000000 Ry
     smearing contrib. (-TS)   =      -0.03495347 Ry

     convergence has been achieved in  18 iterations

 BEEF-vdW xc energy contributions
           1 :   -619.390079962595
           2 :    572.185384393619
           3 :   -490.194473508420
           4 :    392.839888272172
           5 :   -298.985410008235
           6 :    220.860864866242
           7 :   -161.913523759441
           8 :    118.714294655519
           9 :   -85.1859676927425
          10 :    56.6055815453182
          11 :   -31.4981748048579
          12 :    11.0208466682875
[...]
     Pseudo is Ultrasoft + core correction, Zval = 13.0
     Generated by new atomic code, or converted to UPF format
     Using radial grid of  899 points,  6 beta functions with:
                l(1) =   0
                l(2) =   0
                l(3) =   1
                l(4) =   1
                l(5) =   2
                l(6) =   2
     Q(r) pseudized with  6 coefficients,  rinner =    1.100   1.100   1.100
                                                       1.100   1.100

     PseudoPot. # 2 for Cu read from file:
     /afs/slac.stanford.edu/u/if/mamunm/psp/gbrv1.5pbe/Cu.UPF
     MD5 check sum: 6e991ff952a84172a2a52a1c1e996048
     Pseudo is Ultrasoft + core correction, Zval = 19.0
     Generated by new atomic code, or converted to UPF format
     Using radial grid of  867 points,  6 beta functions with:
                l(1) =   0
                l(2) =   0
                l(3) =   1
                l(4) =   1
                l(5) =   2
                l(6) =   2
     Q(r) pseudized with  8 coefficients,  rinner =    1.150   1.150   1.150
                                                       1.150   1.150

     vdW kernel table read from file vdW_kernel_table
     MD5 check sum: 095c7af220d748ca6e76c0b4c6cfb241

     atomic species   valence    mass     pseudopotential
        Tl1           13.00   204.38000     Tl( 1.00)
        Cu1           19.00    63.54600     Cu( 1.00)

     No symmetry found

   Cartesian axes

     site n.     atom                  positions (alat units)
         1           Tl1 tau(   1) = (   0.0000000   0.0000000  10.0000000  )
         2           Tl1 tau(   2) = (  -1.6955600   2.9367960  10.0000000  )
         3           Tl1 tau(   3) = (   1.6955600   2.9367960  10.0000000  )
         4           Cu1 tau(   4) = (   3.3911200   0.0000000  10.0000000  )
         5           Tl1 tau(   5) = (   3.3911200   1.9578640  12.7688379  )
         6           Tl1 tau(   6) = (   1.6955600   4.8946601  12.7688379  )
         7           Tl1 tau(   7) = (  -1.6955600   4.8946601  12.7688379  )
         8           Cu1 tau(   8) = (   0.0000000   1.9578640  12.7688379  )
         9           Tl1 tau(   9) = (   0.0000534   3.8752941  15.6532528  )
        10           Tl1 tau(  10) = (   1.6605714   0.9991387  15.6532308  )
        11           Tl1 tau(  11) = (   5.1217935   0.9991620  15.6532585  )
        12           Cu1 tau(  12) = (   3.3909300   3.9156790  15.0808829  )

     number of k points=    20  Fermi-Dirac smearing, width (Ry)=  0.0110
                       cart. coord. in units 2pi/alat
        k(    1) = (   0.0000000   0.0000000   0.0000000), wk =   0.0555556
        k(    2) = (   0.0000000   0.0283756   0.0000000), wk =   0.1111111
        k(    3) = (   0.0000000   0.0567512   0.0000000), wk =   0.1111111
        k(    4) = (   0.0000000  -0.0851268   0.0000000), wk =   0.0555556
        k(    5) = (   0.0245740   0.0141878   0.0000000), wk =   0.1111111
        k(    6) = (   0.0245740   0.0425634   0.0000000), wk =   0.1111111
        k(    7) = (   0.0245740   0.0709390   0.0000000), wk =   0.1111111
        k(    8) = (   0.0245740  -0.0709390   0.0000000), wk =   0.1111111
        k(    9) = (   0.0245740  -0.0425634   0.0000000), wk =   0.1111111
        k(   10) = (   0.0245740  -0.0141878   0.0000000), wk =   0.1111111
        k(   11) = (   0.0491480   0.0283756   0.0000000), wk =   0.1111111
        k(   12) = (   0.0491480   0.0567512   0.0000000), wk =   0.1111111
        k(   13) = (   0.0491480   0.0851268   0.0000000), wk =   0.1111111
        k(   14) = (   0.0491480  -0.0567512   0.0000000), wk =   0.1111111
        k(   15) = (   0.0491480  -0.0283756   0.0000000), wk =   0.1111111
        k(   16) = (   0.0491480   0.0000000   0.0000000), wk =   0.1111111
        k(   17) = (  -0.0737220  -0.0425634   0.0000000), wk =   0.0555556
        k(   18) = (  -0.0737220  -0.0141878   0.0000000), wk =   0.1111111
        k(   19) = (  -0.0737220   0.0141878   0.0000000), wk =   0.1111111
        k(   20) = (  -0.0737220  -0.1276902   0.0000000), wk =   0.0555556

     Largest allocated arrays     est. size (Mb)     dimensions
     Largest temporary arrays     est. size (Mb)     dimensions

     Check: negative/imaginary core charge=   -0.000001    0.000000

     Initial potential from superposition of free atoms
     Check: negative starting charge=   -0.454394

     starting charge  170.95620, renormalised to  174.00000

[...]

     *
     * You are using vdW-DF for exchange-correlation in this calculation.
     * Please cite the following three references that made this development
     * possible:
     *
     *   M. Dion, H. Rydberg, E. Schroder, D. C. Langreth, and
     *   B. I. Lundqvist, Phys. Rev. Lett. 92, 246401 (2004).
     *
     *   T. Thonhauser, V. R. Cooper, S. Li, A. Puzder, P. Hyldgaard, and
     *   D. C. Langreth, Phys. Rev. B 76, 125112 (2007).
     *
     *   G. Roman-Perez and J. M. Soler, Phys. Rev. Lett. 103, 096102 (2009).
     *
     *
     * If you are using vdW-DF2, please also cite:
     *
     *   K. Lee, E. D. Murray, L. Kong, B. I. Lundqvist, and
     *   D. C. Langreth, Phys. Rev. B 82, 081101(R) (2010).
     *
     *
     * If you are calculating the stress with vdW-DF, please also cite:
     *
     *   R. Sabatini, E. Kucukbenli, B. Kolb, T. Thonhauser, and
     *   S. de Gironcoli, J. Phys.: Condens. Matter 24, 424209 (2012).
     *

     Carrying out vdW-DF run using the following parameters:

     Nqs =      20    Nr_points =    1024   r_max =   100.000
     q_mesh =
               0.00001000     0.04494208     0.09755937     0.15916263
               0.23128650     0.31572767     0.41458969     0.53033537
               0.66584808     0.82450364     1.01025438     1.22772762
               1.48234092     1.78043706     2.12944203     2.53805004
               3.01644009     3.57652955     4.23227104     5.00000000

     Gradients computed in reciprocal space

[...]

     Starting wfc are  120 randomized atomic wfcs

     Self-consistent Calculation

[...]

     total energy              =   -2535.83536147 Ry
     Harris-Foulkes estimate   =   -2535.83534758 Ry
     estimated scf accuracy    <       0.00000380 Ry

     iteration # 17     ecut=    36.75 Ry     beta=0.10
     Davidson diagonalization with overlap
     ethr =  2.18E-09,  avg # of iterations =  3.0

[...]

     negative rho (up, down):  4.729E-01 0.000E+00

     Adding external electric field

     Computed dipole along edir(3) :
        Dipole                0.0567 Ry au,          0.1441 Debye
        Dipole field          0.0001 Ry au

        Potential amp.       -0.0098 Ry
        Total length         47.0527 bohr

     End of self-consistent calculation

[...]

          k = 0.0491 0.0000 0.0000 ( 25831 PWs)   bands (ev):

[...]

          k =-0.0737-0.1277 0.0000 ( 25850 PWs)   bands (ev):

  -111.4547-111.4085-111.1868 -68.8752 -68.8719 -68.8719 -68.8280 -68.8214
   -68.8214 -68.6185 -68.6184 -68.5884 -11.6465 -11.6238 -11.5566 -11.5364
   -11.5219 -11.4827 -11.4649 -11.4648 -11.4454 -11.4397 -11.4352 -11.4105
   -11.3742 -11.3726 -11.3702 -11.3697 -11.3556 -11.3497 -11.3370 -11.3343
   -11.3228 -11.3165 -11.3140 -11.2975 -11.2975 -11.2832 -11.2508 -11.2419
   -11.2218 -11.2190 -11.2074 -11.2046 -11.1909 -11.1905 -11.1629 -11.1579
   -11.1572 -11.1375 -11.1367 -11.1338 -11.1088 -11.0969 -11.0290 -11.0200
   -10.9320  -7.5417  -7.2454  -6.4247  -6.0807  -5.3205  -5.2978  -4.9188
    -4.4371  -3.4269  -2.4374  -2.0069  -1.7308  -1.7296  -1.6656  -1.6338
    -1.6287  -1.6144  -1.5702  -1.5490  -1.5484  -1.4657  -1.4638  -1.3394
    -1.3245  -1.2975  -1.1370  -0.5481   0.4664   0.5827   0.8842   1.1966
     1.3213   1.3245   1.9992   2.0152   2.3128   2.3787   2.6950   2.9466
     3.3625   3.3866   3.6717   3.8812   3.9428   4.2169   4.3296   4.4371
     4.5661   4.7295   4.7641   4.8119   4.8179   5.1480   5.2704   5.4847
     5.5692   5.7355   5.7834   5.9632   6.2280

     the Fermi energy is     0.5160 ev

!    total energy              =   -2535.83537967 Ry
     Harris-Foulkes estimate   =   -2535.83536238 Ry
     estimated scf accuracy    <       0.00000099 Ry

     The total energy is the sum of the following terms:

     one-electron contribution =  -11632.87316194 Ry
     hartree contribution      =    5880.54542981 Ry
     xc contribution           =    -695.82235060 Ry
     ewald contribution        =    3912.35000614 Ry
     electric field correction =       0.00000589 Ry
     smearing contrib. (-TS)   =      -0.03530898 Ry

     convergence has been achieved in  17 iterations

 BEEF-vdW xc energy contributions
           1 :   -619.382897768992
           2 :    572.180916120067
           3 :   -490.193690651103
           4 :    392.839321914787
           5 :   -298.979825847372
           6 :    220.847284176174
           7 :   -161.894418538756
           8 :    118.695863777585
           9 :   -85.1734171581146
          10 :    56.5993266895366
          11 :   -31.4960595552693
          12 :    11.0227154919160
          13 :    3.08331310550727
          14 :   -10.4031869234701
          15 :    12.4364774478913
          16 :   -11.8404302525068
          17 :    11.0692706940664
          18 :   -11.3638737860747
          19 :    12.5924554109603
          20 :   -13.8404210804392
          21 :    14.2418366151570
          22 :   -13.5470846033264
          23 :    12.1783797940100
          24 :   -10.8696197985580
          25 :    10.1826179433542
          26 :   -10.2003193771982
          27 :    10.5312674054953
          28 :   -10.5770959523306
          29 :    9.88470633835686
          30 :   -8.39621092400580
          31 :   -49.5520121673950
          32 :   -35.6751231221033

     Forces acting on atoms (Ry/au):

     negative rho (up, down):  4.729E-01 0.000E+00
     atom    1 type  1   force =    -0.00000037    0.00984862   -0.00587986
     atom    2 type  1   force =     0.00852845   -0.00492062   -0.00588233
     atom    3 type  1   force =    -0.00852769   -0.00492267   -0.00588143
     atom    4 type  2   force =     0.00000263   -0.00000087    0.01222378
     atom    5 type  1   force =     0.00000204   -0.00504316    0.00312617
     atom    6 type  1   force =    -0.00437310    0.00252396    0.00312404
     atom    7 type  1   force =     0.00436712    0.00252152    0.00312761
     atom    8 type  2   force =     0.00000017    0.00000057    0.00045164
     atom    9 type  1   force =    -0.00000103    0.00135738   -0.00091513
     atom   10 type  1   force =     0.00117683   -0.00068224   -0.00091321
     atom   11 type  1   force =    -0.00117679   -0.00068054   -0.00091818
     atom   12 type  2   force =     0.00000173   -0.00000196   -0.00166312

     Total force =     0.025706     Total SCF correction =     0.003115
     SCF correction compared to forces is large: reduce conv_thr to get better values

     entering subroutine stress ...

     negative rho (up, down):  4.729E-01 0.000E+00
          total   stress  (Ry/bohr**3)                   (kbar)     P=   -7.06
  -0.00005520   0.00000000   0.00000000         -8.12      0.00      0.00
   0.00000000  -0.00005520   0.00000000          0.00     -8.12      0.00
   0.00000000   0.00000000  -0.00003366          0.00      0.00     -4.95

 !ASE

     Writing output data file calc.save

     General routines

     Parallel routines

   This run was terminated on:   5: 7:21   2Jan2019

   JOB DONE.
Job  /afs/slac/g/suncat/bin/suncat-tsmpirun -x LD_LIBRARY_PATH -wdir /scratch/qe649243_J4uWy pw.x -in pw.inp

TID   HOST_NAME   COMMAND_LINE            STATUS            TERMINATION_TIME
00000 suncat0238 pw.x -in pw.inp   Done                     01/02/2019 05:07:21
00001 suncat0238 pw.x -in pw.inp   Done                     01/02/2019 05:07:21
00002 suncat0238 pw.x -in pw.inp   Done                     01/02/2019 05:07:21
00003 suncat0238 pw.x -in pw.inp   Done                     01/02/2019 05:07:21
00004 suncat0238 pw.x -in pw.inp   Done                     01/02/2019 05:07:21
00005 suncat0238 pw.x -in pw.inp   Done                     01/02/2019 05:07:21
00006 suncat0238 pw.x -in pw.inp   Done                     01/02/2019 05:07:21
00007 suncat0238 pw.x -in pw.inp   Done                     01/02/2019 05:07:21
00008 suncat0237 pw.x -in pw.inp   Done                     01/02/2019 05:07:21
00009 suncat0237 pw.x -in pw.inp   Done                     01/02/2019 05:07:21
00010 suncat0237 pw.x -in pw.inp   Done                     01/02/2019 05:07:21
00011 suncat0237 pw.x -in pw.inp   Done                     01/02/2019 05:07:21
00012 suncat0237 pw.x -in pw.inp   Done                     01/02/2019 05:07:21
00013 suncat0237 pw.x -in pw.inp   Done                     01/02/2019 05:07:21
00014 suncat0237 pw.x -in pw.inp   Done                     01/02/2019 05:07:21
00015 suncat0237 pw.x -in pw.inp   Done                     01/02/2019 05:07:21
00016 suncat0236 pw.x -in pw.inp   Done                     01/02/2019 05:07:21
00017 suncat0236 pw.x -in pw.inp   Done                     01/02/2019 05:07:21
00018 suncat0236 pw.x -in pw.inp   Done                     01/02/2019 05:07:21
00019 suncat0236 pw.x -in pw.inp   Done                     01/02/2019 05:07:21
00020 suncat0236 pw.x -in pw.inp   Done                     01/02/2019 05:07:21
00021 suncat0236 pw.x -in pw.inp   Done                     01/02/2019 05:07:21
00022 suncat0236 pw.x -in pw.inp   Done                     01/02/2019 05:07:21
00023 suncat0236 pw.x -in pw.inp   Done                     01/02/2019 05:07:21
00024 suncat0235 pw.x -in pw.inp   Done                     01/02/2019 05:07:21
00025 suncat0235 pw.x -in pw.inp   Done                     01/02/2019 05:07:21
00026 suncat0235 pw.x -in pw.inp   Done                     01/02/2019 05:07:21
00027 suncat0235 pw.x -in pw.inp   Done                     01/02/2019 05:07:21
00028 suncat0235 pw.x -in pw.inp   Done                     01/02/2019 05:07:21
00029 suncat0235 pw.x -in pw.inp   Done                     01/02/2019 05:07:21
00030 suncat0235 pw.x -in pw.inp   Done                     01/02/2019 05:07:21
00031 suncat0235 pw.x -in pw.inp   Done                     01/02/2019 05:07:21
00032 suncat0218 pw.x -in pw.inp   Done                     01/02/2019 05:07:21
00033 suncat0218 pw.x -in pw.inp   Done                     01/02/2019 05:07:21
00034 suncat0218 pw.x -in pw.inp   Done                     01/02/2019 05:07:21
00035 suncat0218 pw.x -in pw.inp   Done                     01/02/2019 05:07:21
00036 suncat0218 pw.x -in pw.inp   Done                     01/02/2019 05:07:21
00037 suncat0218 pw.x -in pw.inp   Done                     01/02/2019 05:07:21
00038 suncat0218 pw.x -in pw.inp   Done                     01/02/2019 05:07:21
00039 suncat0218 pw.x -in pw.inp   Done                     01/02/2019 05:07:21
00040 suncat0212 pw.x -in pw.inp   Done                     01/02/2019 05:07:21
00041 suncat0212 pw.x -in pw.inp   Done                     01/02/2019 05:07:21
00042 suncat0212 pw.x -in pw.inp   Done                     01/02/2019 05:07:21
00043 suncat0212 pw.x -in pw.inp   Done                     01/02/2019 05:07:21
00044 suncat0212 pw.x -in pw.inp   Done                     01/02/2019 05:07:21
00045 suncat0212 pw.x -in pw.inp   Done                     01/02/2019 05:07:21
00046 suncat0212 pw.x -in pw.inp   Done                     01/02/2019 05:07:21
00047 suncat0212 pw.x -in pw.inp   Done                     01/02/2019 05:07:21
00048 suncat0211 pw.x -in pw.inp   Done                     01/02/2019 05:07:21
00049 suncat0211 pw.x -in pw.inp   Done                     01/02/2019 05:07:21
00050 suncat0211 pw.x -in pw.inp   Done                     01/02/2019 05:07:21
00051 suncat0211 pw.x -in pw.inp   Done                     01/02/2019 05:07:21
00052 suncat0211 pw.x -in pw.inp   Done                     01/02/2019 05:07:21
00053 suncat0211 pw.x -in pw.inp   Done                     01/02/2019 05:07:21
00054 suncat0211 pw.x -in pw.inp   Done                     01/02/2019 05:07:21
00055 suncat0211 pw.x -in pw.inp   Done                     01/02/2019 05:07:21
00056 suncat0208 pw.x -in pw.inp   Done                     01/02/2019 05:07:21
00057 suncat0208 pw.x -in pw.inp   Done                     01/02/2019 05:07:21
00058 suncat0208 pw.x -in pw.inp   Done                     01/02/2019 05:07:21
00059 suncat0208 pw.x -in pw.inp   Done                     01/02/2019 05:07:21
00060 suncat0208 pw.x -in pw.inp   Done                     01/02/2019 05:07:21
00061 suncat0208 pw.x -in pw.inp   Done                     01/02/2019 05:07:21
00062 suncat0208 pw.x -in pw.inp   Done                     01/02/2019 05:07:21
00063 suncat0208 pw.x -in pw.inp   Done                     01/02/2019 05:07:21