     Program PWSCF v.5.1rc2 (svn rev. 11289) starts on 26Dec2018 at 15:37:31

     Current dimensions of program PWSCF are:
     Max number of different atomic species (ntypx) = 10
     Max number of k-points (npk) =  40000
     Max angular momentum in pseudopotentials (lmaxx) =  3
     Presently stress not available with electric field

     IMPORTANT: XC functional enforced from input :
     Exchange-correlation      = BEEF-VDW ( 1  4 27 13 2)
     Any further DFT definition will be discarded
     Please, verify this is what you really want

     Subspace diagonalization in iterative solution of the eigenvalue problem:
     a serial algorithm will be used

     bravais-lattice index     =            0
     lattice parameter (alat)  =       1.8897  a.u.
     unit-cell volume          =    4368.0256 (a.u.)^3
     number of atoms/cell      =           12
     number of atomic types    =            2
     number of electrons       =       183.00
     number of Kohn-Sham states=          121
     kinetic-energy cutoff     =      36.7493  Ry
     charge density cutoff     =     367.4932  Ry
     convergence threshold     =      1.0E-06
     mixing beta               =       0.1000
     number of iterations used =           10  plain     mixing
     Exchange-correlation      = BEEF-VDW ( 1  4 27 13 2)
     nstep                     =           50

     celldm(1)=   1.889726  celldm(2)=   0.000000  celldm(3)=   0.000000
     celldm(4)=   0.000000  celldm(5)=   0.000000  celldm(6)=   0.000000

     crystal axes: (cart. coord. in units of alat)
               a(1) = (   5.522262   0.000000   0.000000 )
               a(2) = (  -2.761131   4.782419   0.000000 )
               a(3) = (   0.000000   0.000000  24.508908 )

     reciprocal axes: (cart. coord. in units 2 pi/alat)
               b(1) = (  0.181085  0.104550  0.000000 )
               b(2) = (  0.000000  0.209099  0.000000 )
               b(3) = (  0.000000  0.000000  0.040801 )

     PseudoPot. # 1 for Ir read from file:
     /afs/slac.stanford.edu/u/if/mamunm/psp/gbrv1.5pbe/Ir.UPF
     MD5 check sum: 8836f839c3459d2b385c504ce6d91f2c
     Pseudo is Ultrasoft + core correction, Zval = 15.0
     Generated by new atomic code, or converted to UPF format
     Using radial grid of  983 points,  7 beta functions with:
                l(1) =   0
                l(2) =   0
                l(3) =   1
                l(4) =   1
                l(5) =   1
                l(6) =   2
                l(7) =   2
     Q(r) pseudized with  8 coefficients,  rinner =    1.400   1.400   1.400
                                                       1.400   1.400

     PseudoPot. # 2 for Pt read from file:
     /afs/slac.stanford.edu/u/if/mamunm/psp/gbrv1.5pbe/Pt.UPF
     MD5 check sum: f09d6de1a584b5a045c4fc126da2d0c4
     Pseudo is Ultrasoft + core correction, Zval = 16.0
     Generated by new atomic code, or converted to UPF format
     Using radial grid of  985 points,  6 beta functions with:
                l(1) =   0
                l(2) =   0
                l(3) =   1
                l(4) =   1
                l(5) =   2
                l(6) =   2
     Q(r) pseudized with  8 coefficients,  rinner =    1.300   1.300   1.300
                                                       1.300   1.300

     vdW kernel table read from file vdW_kernel_table
     MD5 check sum: 095c7af220d748ca6e76c0b4c6cfb241

     atomic species   valence    mass     pseudopotential
        Ir1           15.00   192.21700     Ir( 1.00)
        Pt1           16.00   195.08400     Pt( 1.00)

     No symmetry found

   Cartesian axes

     site n.     atom                  positions (alat units)
         1           Ir1 tau(   1) = (   0.0000000   0.0000000  10.0000000  )
         2           Ir1 tau(   2) = (  -1.3805654   2.3912095  10.0000000  )
         3           Ir1 tau(   3) = (   1.3805654   2.3912095  10.0000000  )
         4           Pt1 tau(   4) = (   2.7611309   0.0000000  10.0000000  )
         5           Ir1 tau(   5) = (   2.7611309   1.5941397  12.2544539  )
         6           Ir1 tau(   6) = (   1.3805654   3.9853492  12.2544539  )
         7           Ir1 tau(   7) = (  -1.3805654   3.9853492  12.2544539  )
         8           Pt1 tau(   8) = (   0.0000000   1.5941397  12.2544539  )
         9           Ir1 tau(   9) = (  -0.0000000   3.1882793  14.5089079  )
        10           Ir1 tau(  10) = (   1.3805654   0.7970698  14.5089079  )
        11           Ir1 tau(  11) = (   4.1416963   0.7970698  14.5089079  )
        12           Pt1 tau(  12) = (   2.7611309   3.1882793  14.5089079  )

     number of k points=    20  Fermi-Dirac smearing, width (Ry)=  0.0110
                       cart. coord. in units 2pi/alat
        k(    1) = (   0.0000000   0.0000000   0.0000000), wk =   0.0555556
        k(    2) = (   0.0000000   0.0348499   0.0000000), wk =   0.1111111
        k(    3) = (   0.0000000   0.0696997   0.0000000), wk =   0.1111111
        k(    4) = (   0.0000000  -0.1045496   0.0000000), wk =   0.0555556
        k(    5) = (   0.0301809   0.0174249   0.0000000), wk =   0.1111111
        k(    6) = (   0.0301809   0.0522748   0.0000000), wk =   0.1111111
        k(    7) = (   0.0301809   0.0871247   0.0000000), wk =   0.1111111
        k(    8) = (   0.0301809  -0.0871247   0.0000000), wk =   0.1111111
        k(    9) = (   0.0301809  -0.0522748   0.0000000), wk =   0.1111111
        k(   10) = (   0.0301809  -0.0174249   0.0000000), wk =   0.1111111
        k(   11) = (   0.0603617   0.0348499   0.0000000), wk =   0.1111111
        k(   12) = (   0.0603617   0.0696997   0.0000000), wk =   0.1111111
        k(   13) = (   0.0603617   0.1045496   0.0000000), wk =   0.1111111
        k(   14) = (   0.0603617  -0.0696997   0.0000000), wk =   0.1111111
        k(   15) = (   0.0603617  -0.0348499   0.0000000), wk =   0.1111111
        k(   16) = (   0.0603617   0.0000000   0.0000000), wk =   0.1111111
        k(   17) = (  -0.0905426  -0.0522748   0.0000000), wk =   0.0555556
        k(   18) = (  -0.0905426  -0.0174249   0.0000000), wk =   0.1111111
        k(   19) = (  -0.0905426   0.0174249   0.0000000), wk =   0.1111111
        k(   20) = (  -0.0905426  -0.1568244   0.0000000), wk =   0.0555556

     Largest allocated arrays     est. size (Mb)     dimensions
     Largest temporary arrays     est. size (Mb)     dimensions

     Initial potential from superposition of free atoms
     Check: negative starting charge=   -3.822166

     starting charge  176.99968, renormalised to  183.00000

     negative rho (up, down):  3.952E+00 0.000E+00

     *
     * You are using vdW-DF for exchange-correlation in this calculation.
     * Please cite the following three references that made this development
     * possible:
     *
     *   M. Dion, H. Rydberg, E. Schroder, D. C. Langreth, and
     *   B. I. Lundqvist, Phys. Rev. Lett. 92, 246401 (2004).
     *
     *   T. Thonhauser, V. R. Cooper, S. Li, A. Puzder, P. Hyldgaard, and
     *   D. C. Langreth, Phys. Rev. B 76, 125112 (2007).
     *
     *   G. Roman-Perez and J. M. Soler, Phys. Rev. Lett. 103, 096102 (2009).
     *
     *
     * If you are using vdW-DF2, please also cite:
     *
     *   K. Lee, E. D. Murray, L. Kong, B. I. Lundqvist, and
     *   D. C. Langreth, Phys. Rev. B 82, 081101(R) (2010).
     *
     *
     * If you are calculating the stress with vdW-DF, please also cite:
     *
     *   R. Sabatini, E. Kucukbenli, B. Kolb, T. Thonhauser, and
     *   S. de Gironcoli, J. Phys.: Condens. Matter 24, 424209 (2012).
     *

     Carrying out vdW-DF run using the following parameters:

     Nqs =      20    Nr_points =    1024   r_max =   100.000
     q_mesh =
               0.00001000     0.04494208     0.09755937     0.15916263
               0.23128650     0.31572767     0.41458969     0.53033537
               0.66584808     0.82450364     1.01025438     1.22772762
               1.48234092     1.78043706     2.12944203     2.53805004
               3.01644009     3.57652955     4.23227104     5.00000000

     Gradients computed in reciprocal space

     Adding external electric field

     Computed dipole along edir(3) :
        Dipole                0.0000 Ry au,          0.0000 Debye
        Dipole field          0.0000 Ry au

        Potential amp.       -0.0000 Ry
        Total length         45.1572 bohr

     Starting wfc are  144 randomized atomic wfcs

     Self-consistent Calculation

     iteration #  1     ecut=    36.75 Ry     beta=0.10
     Davidson diagonalization with overlap
     ethr =  1.00E-02,  avg # of iterations =  7.5

[...]

     total energy              =   -2286.97228613 Ry
     Harris-Foulkes estimate   =   -2290.02029940 Ry
     estimated scf accuracy    <      18.99621164 Ry

[...]

     End of self-consistent calculation

          k = 0.0000 0.0000 0.0000 ( 16367 PWs)   bands (ev):

   -51.4063 -51.4063 -51.3989 -50.8799 -50.8799 -50.8785 -50.8785 -50.6336
   -50.6279 -47.6530 -47.5438 -47.5438 -47.5014 -47.4516 -47.4516 -47.3346
   -47.2394 -47.2212 -47.2012 -47.2012 -47.0589 -47.0589 -47.0338 -47.0338
   -46.8582 -46.8447 -46.8390 -46.8141 -46.8120 -46.8120 -46.7932 -46.7932
   -46.7882 -46.7881 -46.7822 -46.7822  -7.1094  -5.2421  -4.8746  -4.5845
    -4.5845  -4.4849  -4.3000  -4.3000  -4.1921  -3.7951  -3.7951  -3.7703
    -3.5629  -3.5629  -3.4481  -2.1504  -2.1504  -1.9550  -1.6918  -1.6918
    -1.6157  -1.3947  -1.2401  -1.2401  -1.1125  -0.8885  -0.8885  -0.8155
    -0.8155  -0.5696  -0.5696  -0.5665  -0.3661  -0.0717  -0.0717   0.8080
     0.8080   0.9435   0.9487   0.9487   1.1416   1.1416   1.2304   1.3191
     1.8516   1.8516   2.0972   2.3080   2.3080   2.4399   2.4399   2.6500
     2.6500   2.6994   2.7607   2.7607   2.7620   3.1798   3.1798   3.2161
     3.2822   3.2822   3.4255   3.4255   3.4491   3.6680   3.7298   5.2879
     5.3597   5.3834   5.3834   5.5708   5.5708   6.8539   7.1115   7.4717
     8.3944   8.5954   8.6081   8.8525   8.8525   8.8553   8.8553   9.2153
     9.6714

[...]

          k =-0.0905-0.0523 0.0000 ( 16444 PWs)   bands (ev):

[...]

     the Fermi energy is     2.1856 ev

!    total energy              =   -2286.77247590 Ry
     Harris-Foulkes estimate   =   -2286.77247004 Ry
     estimated scf accuracy    <       0.00000060 Ry

     The total energy is the sum of the following terms:

     one-electron contribution =  -18706.22552688 Ry
     hartree contribution      =    9383.75317399 Ry
     xc contribution           =    -643.35347052 Ry
     ewald contribution        =    7679.16689864 Ry
     electric field correction =       0.00000000 Ry
     smearing contrib. (-TS)   =      -0.11355113 Ry

     convergence has been achieved in  17 iterations

 BEEF-vdW xc energy contributions
           1 :   -570.760238171267
           2 :    531.124996151862
           3 :   -460.133699248812
           4 :    371.570420989644
           5 :   -280.641390412969
           6 :    200.033641899129
           7 :   -137.246493520264
           8 :    93.7955730333834
           9 :   -66.2965963864536
          10 :    48.8039931001665
          11 :   -35.4338847605222
          12 :    22.3257818742293
[...]
     MD5 check sum: 8836f839c3459d2b385c504ce6d91f2c
     Pseudo is Ultrasoft + core correction, Zval = 15.0
     Generated by new atomic code, or converted to UPF format
     Using radial grid of  983 points,  7 beta functions with:
                l(1) =   0
                l(2) =   0
                l(3) =   1
                l(4) =   1
                l(5) =   1
                l(6) =   2
                l(7) =   2
     Q(r) pseudized with  8 coefficients,  rinner =    1.400   1.400   1.400
                                                       1.400   1.400

     PseudoPot. # 2 for Pt read from file:
     /afs/slac.stanford.edu/u/if/mamunm/psp/gbrv1.5pbe/Pt.UPF
     MD5 check sum: f09d6de1a584b5a045c4fc126da2d0c4
     Pseudo is Ultrasoft + core correction, Zval = 16.0
     Generated by new atomic code, or converted to UPF format
     Using radial grid of  985 points,  6 beta functions with:
                l(1) =   0
                l(2) =   0
                l(3) =   1
                l(4) =   1
                l(5) =   2
                l(6) =   2
     Q(r) pseudized with  8 coefficients,  rinner =    1.300   1.300   1.300
                                                       1.300   1.300

     vdW kernel table read from file vdW_kernel_table
     MD5 check sum: 095c7af220d748ca6e76c0b4c6cfb241

     atomic species   valence    mass     pseudopotential
        Ir1           15.00   192.21700     Ir( 1.00)
        Pt1           16.00   195.08400     Pt( 1.00)

     No symmetry found

   Cartesian axes

     site n.     atom                  positions (alat units)
         1           Ir1 tau(   1) = (   0.0000000   0.0000000  10.0000000  )
         2           Ir1 tau(   2) = (  -1.3805654   2.3912095  10.0000000  )
         3           Ir1 tau(   3) = (   1.3805654   2.3912095  10.0000000  )
         4           Pt1 tau(   4) = (   2.7611309   0.0000000  10.0000000  )
         5           Ir1 tau(   5) = (   2.7611309   1.5941397  12.2544539  )
         6           Ir1 tau(   6) = (   1.3805654   3.9853492  12.2544539  )
         7           Ir1 tau(   7) = (  -1.3805654   3.9853492  12.2544539  )
         8           Pt1 tau(   8) = (   0.0000000   1.5941397  12.2544539  )
         9           Ir1 tau(   9) = (  -0.0000016   3.2091155  14.4493452  )
        10           Ir1 tau(  10) = (   1.3986097   0.7866523  14.4493437  )
        11           Ir1 tau(  11) = (   4.1236514   0.7866535  14.4493448  )
        12           Pt1 tau(  12) = (   2.7611341   3.1882776  14.5356702  )

     number of k points=    20  Fermi-Dirac smearing, width (Ry)=  0.0110
                       cart. coord. in units 2pi/alat
        k(    1) = (   0.0000000   0.0000000   0.0000000), wk =   0.0555556
        k(    2) = (   0.0000000   0.0348499   0.0000000), wk =   0.1111111
        k(    3) = (   0.0000000   0.0696997   0.0000000), wk =   0.1111111
        k(    4) = (   0.0000000  -0.1045496   0.0000000), wk =   0.0555556
        k(    5) = (   0.0301809   0.0174249   0.0000000), wk =   0.1111111
        k(    6) = (   0.0301809   0.0522748   0.0000000), wk =   0.1111111
        k(    7) = (   0.0301809   0.0871247   0.0000000), wk =   0.1111111
        k(    8) = (   0.0301809  -0.0871247   0.0000000), wk =   0.1111111
        k(    9) = (   0.0301809  -0.0522748   0.0000000), wk =   0.1111111
        k(   10) = (   0.0301809  -0.0174249   0.0000000), wk =   0.1111111
        k(   11) = (   0.0603617   0.0348499   0.0000000), wk =   0.1111111
        k(   12) = (   0.0603617   0.0696997   0.0000000), wk =   0.1111111
        k(   13) = (   0.0603617   0.1045496   0.0000000), wk =   0.1111111
        k(   14) = (   0.0603617  -0.0696997   0.0000000), wk =   0.1111111
        k(   15) = (   0.0603617  -0.0348499   0.0000000), wk =   0.1111111
        k(   16) = (   0.0603617   0.0000000   0.0000000), wk =   0.1111111
        k(   17) = (  -0.0905426  -0.0522748   0.0000000), wk =   0.0555556
        k(   18) = (  -0.0905426  -0.0174249   0.0000000), wk =   0.1111111
        k(   19) = (  -0.0905426   0.0174249   0.0000000), wk =   0.1111111
        k(   20) = (  -0.0905426  -0.1568244   0.0000000), wk =   0.0555556

     Largest allocated arrays     est. size (Mb)     dimensions
     Largest temporary arrays     est. size (Mb)     dimensions

     Initial potential from superposition of free atoms
     Check: negative starting charge=   -3.829599

     starting charge  176.99968, renormalised to  183.00000

[...]

     *
     * You are using vdW-DF for exchange-correlation in this calculation.
     * Please cite the following three references that made this development
     * possible:
     *
     *   M. Dion, H. Rydberg, E. Schroder, D. C. Langreth, and
     *   B. I. Lundqvist, Phys. Rev. Lett. 92, 246401 (2004).
     *
     *   T. Thonhauser, V. R. Cooper, S. Li, A. Puzder, P. Hyldgaard, and
     *   D. C. Langreth, Phys. Rev. B 76, 125112 (2007).
     *
     *   G. Roman-Perez and J. M. Soler, Phys. Rev. Lett. 103, 096102 (2009).
     *
     *
     * If you are using vdW-DF2, please also cite:
     *
     *   K. Lee, E. D. Murray, L. Kong, B. I. Lundqvist, and
     *   D. C. Langreth, Phys. Rev. B 82, 081101(R) (2010).
     *
     *
     * If you are calculating the stress with vdW-DF, please also cite:
     *
     *   R. Sabatini, E. Kucukbenli, B. Kolb, T. Thonhauser, and
     *   S. de Gironcoli, J. Phys.: Condens. Matter 24, 424209 (2012).
     *

     Carrying out vdW-DF run using the following parameters:

     Nqs =      20    Nr_points =    1024   r_max =   100.000
     q_mesh =
               0.00001000     0.04494208     0.09755937     0.15916263
               0.23128650     0.31572767     0.41458969     0.53033537
               0.66584808     0.82450364     1.01025438     1.22772762
               1.48234092     1.78043706     2.12944203     2.53805004
               3.01644009     3.57652955     4.23227104     5.00000000

     Gradients computed in reciprocal space

[...]

     Starting wfc are  144 randomized atomic wfcs

     Self-consistent Calculation

[...]

     total energy              =   -2286.77665628 Ry
     Harris-Foulkes estimate   =   -2286.77664826 Ry
     estimated scf accuracy    <       0.00000111 Ry

     iteration # 17     ecut=    36.75 Ry     beta=0.10
     Davidson diagonalization with overlap
     ethr =  6.04E-10,  avg # of iterations =  2.9

[...]

     negative rho (up, down):  3.461E+00 0.000E+00

     Adding external electric field

     Computed dipole along edir(3) :
        Dipole               -0.0002 Ry au,         -0.0004 Debye
        Dipole field         -0.0000 Ry au

        Potential amp.        0.0000 Ry
        Total length         45.1572 bohr

     End of self-consistent calculation

[...]

          k = 0.0604 0.0000 0.0000 ( 16448 PWs)   bands (ev):

[...]

          k =-0.0905-0.1568 0.0000 ( 16444 PWs)   bands (ev):

   -51.4508 -51.4396 -51.4354 -50.8580 -50.8539 -50.8154 -50.8111 -50.6105
   -50.5548 -47.6055 -47.5234 -47.5146 -47.4877 -47.4609 -47.4314 -47.4277
   -47.3616 -47.2162 -47.1761 -47.1063 -47.0335 -46.9960 -46.9932 -46.9701
   -46.9537 -46.9467 -46.9178 -46.9118 -46.8828 -46.8759 -46.8607 -46.8446
   -46.7941 -46.7800 -46.7786 -46.7656  -5.3702  -5.2769  -3.9279  -3.8517
    -3.6440  -3.6321  -3.5011  -3.4938  -3.4436  -3.3870  -3.0954  -2.8354
    -2.7563  -2.5624  -2.4902  -2.4607  -2.3259  -2.0856  -2.0731  -2.0343
    -1.9160  -1.6284  -1.3447  -1.2767  -1.1828  -1.0887  -1.0332  -0.9298
    -0.8933  -0.7048  -0.6608  -0.6005  -0.5464  -0.4879  -0.4446  -0.4189
    -0.3939  -0.3670  -0.3503  -0.2972   0.0903   0.4205   0.4384   0.4813
     0.6905   0.7783   0.8228   0.8981   1.0180   1.1418   1.3471   1.3873
     1.4407   1.5835   1.7380   1.7612   1.8151   1.9877   2.3282   2.4424
     2.6974   2.7028   2.8286   3.2882   4.1449   4.2810   4.7221   5.2497
     5.6015   5.9237   6.8243   6.9506   7.5508   7.6352   8.3714   8.3799
     8.9503   8.9692   9.0283   9.0327  10.0862  10.1631  10.1858  10.3054
    10.3305

     the Fermi energy is     2.2018 ev

!    total energy              =   -2286.77666495 Ry
     Harris-Foulkes estimate   =   -2286.77665651 Ry
     estimated scf accuracy    <       0.00000038 Ry

     The total energy is the sum of the following terms:

     one-electron contribution =  -18805.43429103 Ry
     hartree contribution      =    9433.33196589 Ry
     xc contribution           =    -643.44442250 Ry
     ewald contribution        =    7728.88171008 Ry
     electric field correction =       0.00000000 Ry
     smearing contrib. (-TS)   =      -0.11162739 Ry

     convergence has been achieved in  17 iterations

 BEEF-vdW xc energy contributions
           1 :   -570.854394941006
           2 :    531.258741126869
           3 :   -460.323424566598
           4 :    371.797697235130
           5 :   -280.858681903729
           6 :    200.184977952276
           7 :   -137.294257599024
           8 :    93.7406163893029
           9 :   -66.1811697813338
          10 :    48.6948979204217
          11 :   -35.3931129464454
          12 :    22.3820569968325
          13 :   -8.53613594037836
          14 :   -4.94652840308868
          15 :    15.7855892271692
          16 :   -22.0360360006913
          17 :    23.0968049375059
          18 :   -19.9829036439329
          19 :    14.8653474957559
          20 :   -10.1742061559280
          21 :    7.67988866669737
          22 :   -7.92427616716463
          23 :    10.1908988842855
          24 :   -12.9754477556222
          25 :    14.7172374173138
          26 :   -14.4709944029767
          27 :    12.2474775282291
          28 :   -8.91608195179094
          29 :    5.75062007898987
          30 :   -3.84503288136227
          31 :   -48.2543383541705
          32 :   -36.0574476089174

     Forces acting on atoms (Ry/au):

     negative rho (up, down):  3.461E+00 0.000E+00
     atom    1 type  1   force =     0.00000039   -0.01041278    0.01728631
     atom    2 type  1   force =    -0.00901770    0.00520659    0.01728663
     atom    3 type  1   force =     0.00901781    0.00520596    0.01728628
     atom    4 type  2   force =    -0.00000055    0.00000013   -0.01068889
     atom    5 type  1   force =     0.00000103    0.00638674   -0.01010123
     atom    6 type  1   force =     0.00553182   -0.00319248   -0.01009948
     atom    7 type  1   force =    -0.00553202   -0.00319344   -0.01010231
     atom    8 type  2   force =    -0.00000084   -0.00000063   -0.01211758
     atom    9 type  1   force =     0.00000088    0.00053986    0.00062889
     atom   10 type  1   force =     0.00046829   -0.00027036    0.00062811
     atom   11 type  1   force =    -0.00046764   -0.00027049    0.00062798
     atom   12 type  2   force =    -0.00000147    0.00000090   -0.00063470

     Total force =     0.043747     Total SCF correction =     0.003273

     entering subroutine stress ...

     negative rho (up, down):  3.461E+00 0.000E+00
          total   stress  (Ry/bohr**3)                   (kbar)     P=  -27.68
  -0.00024437   0.00000000   0.00000000        -35.95      0.00      0.00
   0.00000000  -0.00024437  -0.00000000          0.00    -35.95     -0.00
   0.00000000  -0.00000000  -0.00007568          0.00     -0.00    -11.13

 !ASE

     Writing output data file calc.save

     General routines

     Parallel routines

   This run was terminated on:  16:41:31  26Dec2018

   JOB DONE.
Job  /afs/slac/g/suncat/bin/suncat-tsmpirun -x LD_LIBRARY_PATH -wdir /scratch/qe109956_tvHLF pw.x -in pw.inp

TID   HOST_NAME   COMMAND_LINE            STATUS            TERMINATION_TIME
00000 suncat0042 pw.x -in pw.inp   Done                     12/26/2018 16:41:31
00001 suncat0042 pw.x -in pw.inp   Done                     12/26/2018 16:41:31
00002 suncat0042 pw.x -in pw.inp   Done                     12/26/2018 16:41:31
00003 suncat0042 pw.x -in pw.inp   Done                     12/26/2018 16:41:31
00004 suncat0042 pw.x -in pw.inp   Done                     12/26/2018 16:41:31
00005 suncat0042 pw.x -in pw.inp   Done                     12/26/2018 16:41:31
00006 suncat0042 pw.x -in pw.inp   Done                     12/26/2018 16:41:31
00007 suncat0042 pw.x -in pw.inp   Done                     12/26/2018 16:41:31
00008 suncat0020 pw.x -in pw.inp   Done                     12/26/2018 16:41:31
00009 suncat0020 pw.x -in pw.inp   Done                     12/26/2018 16:41:31
00010 suncat0020 pw.x -in pw.inp   Done                     12/26/2018 16:41:31
00011 suncat0020 pw.x -in pw.inp   Done                     12/26/2018 16:41:31
00012 suncat0020 pw.x -in pw.inp   Done                     12/26/2018 16:41:31
00013 suncat0020 pw.x -in pw.inp   Done                     12/26/2018 16:41:31
00014 suncat0020 pw.x -in pw.inp   Done                     12/26/2018 16:41:31
00015 suncat0020 pw.x -in pw.inp   Done                     12/26/2018 16:41:31
00016 suncat0196 pw.x -in pw.inp   Done                     12/26/2018 16:41:31
00017 suncat0196 pw.x -in pw.inp   Done                     12/26/2018 16:41:31
00018 suncat0196 pw.x -in pw.inp   Done                     12/26/2018 16:41:31
00019 suncat0196 pw.x -in pw.inp   Done                     12/26/2018 16:41:31
00020 suncat0196 pw.x -in pw.inp   Done                     12/26/2018 16:41:31
00021 suncat0196 pw.x -in pw.inp   Done                     12/26/2018 16:41:31
00022 suncat0196 pw.x -in pw.inp   Done                     12/26/2018 16:41:31
00023 suncat0196 pw.x -in pw.inp   Done                     12/26/2018 16:41:31
00024 suncat0194 pw.x -in pw.inp   Done                     12/26/2018 16:41:31
00025 suncat0194 pw.x -in pw.inp   Done                     12/26/2018 16:41:31
00026 suncat0194 pw.x -in pw.inp   Done                     12/26/2018 16:41:31
00027 suncat0194 pw.x -in pw.inp   Done                     12/26/2018 16:41:31
00028 suncat0194 pw.x -in pw.inp   Done                     12/26/2018 16:41:31
00029 suncat0194 pw.x -in pw.inp   Done                     12/26/2018 16:41:31
00030 suncat0194 pw.x -in pw.inp   Done                     12/26/2018 16:41:31
00031 suncat0194 pw.x -in pw.inp   Done                     12/26/2018 16:41:31
00032 suncat0121 pw.x -in pw.inp   Done                     12/26/2018 16:41:31
00033 suncat0121 pw.x -in pw.inp   Done                     12/26/2018 16:41:31
00034 suncat0121 pw.x -in pw.inp   Done                     12/26/2018 16:41:31
00035 suncat0121 pw.x -in pw.inp   Done                     12/26/2018 16:41:31
00036 suncat0121 pw.x -in pw.inp   Done                     12/26/2018 16:41:31
00037 suncat0121 pw.x -in pw.inp   Done                     12/26/2018 16:41:31
00038 suncat0121 pw.x -in pw.inp   Done                     12/26/2018 16:41:31
00039 suncat0121 pw.x -in pw.inp   Done                     12/26/2018 16:41:31
00040 suncat0115 pw.x -in pw.inp   Done                     12/26/2018 16:41:31
00041 suncat0115 pw.x -in pw.inp   Done                     12/26/2018 16:41:31
00042 suncat0115 pw.x -in pw.inp   Done                     12/26/2018 16:41:31
00043 suncat0115 pw.x -in pw.inp   Done                     12/26/2018 16:41:31
00044 suncat0115 pw.x -in pw.inp   Done                     12/26/2018 16:41:31
00045 suncat0115 pw.x -in pw.inp   Done                     12/26/2018 16:41:31
00046 suncat0115 pw.x -in pw.inp   Done                     12/26/2018 16:41:31
00047 suncat0115 pw.x -in pw.inp   Done                     12/26/2018 16:41:31
00048 suncat0228 pw.x -in pw.inp   Done                     12/26/2018 16:41:31
00049 suncat0228 pw.x -in pw.inp   Done                     12/26/2018 16:41:31
00050 suncat0228 pw.x -in pw.inp   Done                     12/26/2018 16:41:31
00051 suncat0228 pw.x -in pw.inp   Done                     12/26/2018 16:41:31
00052 suncat0228 pw.x -in pw.inp   Done                     12/26/2018 16:41:31
00053 suncat0228 pw.x -in pw.inp   Done                     12/26/2018 16:41:31
00054 suncat0228 pw.x -in pw.inp   Done                     12/26/2018 16:41:31
00055 suncat0228 pw.x -in pw.inp   Done                     12/26/2018 16:41:31
00056 suncat0227 pw.x -in pw.inp   Done                     12/26/2018 16:41:31
00057 suncat0227 pw.x -in pw.inp   Done                     12/26/2018 16:41:31
00058 suncat0227 pw.x -in pw.inp   Done                     12/26/2018 16:41:31
00059 suncat0227 pw.x -in pw.inp   Done                     12/26/2018 16:41:31
00060 suncat0227 pw.x -in pw.inp   Done                     12/26/2018 16:41:31
00061 suncat0227 pw.x -in pw.inp   Done                     12/26/2018 16:41:31
00062 suncat0227 pw.x -in pw.inp   Done                     12/26/2018 16:41:31
00063 suncat0227 pw.x -in pw.inp   Done                     12/26/2018 16:41:31