     Program PWSCF v.5.1rc2 (svn rev. 11289) starts on 25Dec2018 at 11:56:22

     Current dimensions of program PWSCF are:
     Max number of different atomic species (ntypx) = 10
     Max number of k-points (npk) =  40000
     Max angular momentum in pseudopotentials (lmaxx) =  3
     Presently stress not available with electric field

     IMPORTANT: XC functional enforced from input :
     Exchange-correlation      = BEEF-VDW ( 1  4 27 13 2)
     Any further DFT definition will be discarded
     Please, verify this is what you really want

     Subspace diagonalization in iterative solution of the eigenvalue problem:
     a serial algorithm will be used

     bravais-lattice index     =            0
     lattice parameter (alat)  =       1.8897  a.u.
     unit-cell volume          =    3903.0316 (a.u.)^3
     number of atoms/cell      =           12
     number of atomic types    =            2
     number of electrons       =       174.00
     number of Kohn-Sham states=          117
     kinetic-energy cutoff     =      36.7493  Ry
     charge density cutoff     =     367.4932  Ry
     convergence threshold     =      1.0E-06
     mixing beta               =       0.1000
     number of iterations used =           10  plain     mixing
     Exchange-correlation      = BEEF-VDW ( 1  4 27 13 2)
     nstep                     =           50

     celldm(1)=   1.889726  celldm(2)=   0.000000  celldm(3)=   0.000000
     celldm(4)=   0.000000  celldm(5)=   0.000000  celldm(6)=   0.000000

     crystal axes: (cart. coord. in units of alat)
               a(1) = (   5.244390   0.000000   0.000000 )
               a(2) = (  -2.622195   4.541775   0.000000 )
               a(3) = (   0.000000   0.000000  24.282026 )

     reciprocal axes: (cart. coord. in units 2 pi/alat)
               b(1) = (  0.190680  0.110089  0.000000 )
               b(2) = (  0.000000  0.220178  0.000000 )
               b(3) = (  0.000000  0.000000  0.041183 )

     PseudoPot. # 1 for Cr read from file:
     /afs/slac.stanford.edu/u/if/mamunm/psp/gbrv1.5pbe/Cr.UPF
     MD5 check sum: 0d52af634a40206e4dee301ad30da4bf
     Pseudo is Ultrasoft + core correction, Zval = 14.0
     Generated by new atomic code, or converted to UPF format
     Using radial grid of  857 points,  6 beta functions with:
                l(1) =   0
                l(2) =   0
                l(3) =   1
                l(4) =   1
                l(5) =   2
                l(6) =   2
     Q(r) pseudized with  8 coefficients,  rinner =    0.950   0.950   0.950
                                                       0.950   0.950

     PseudoPot. # 2 for Pd read from file:
     /afs/slac.stanford.edu/u/if/mamunm/psp/gbrv1.5pbe/Pd.UPF
     MD5 check sum: 2d733d2bc2cbfd217af676df1668a4bc
     Pseudo is Ultrasoft + core correction, Zval = 16.0
     Generated by new atomic code, or converted to UPF format
     Using radial grid of  887 points,  6 beta functions with:
                l(1) =   0
                l(2) =   0
                l(3) =   1
                l(4) =   1
                l(5) =   2
                l(6) =   2
     Q(r) pseudized with  8 coefficients,  rinner =    1.130   1.130   1.130
                                                       1.130   1.130

     vdW kernel table read from file vdW_kernel_table
     MD5 check sum: 095c7af220d748ca6e76c0b4c6cfb241

     atomic species   valence    mass     pseudopotential
        Cr1           14.00    51.99610     Cr( 1.00)
        Pd1           16.00   106.42000     Pd( 1.00)

     No symmetry found

   Cartesian axes

     site n.     atom                  positions (alat units)
         1           Cr1 tau(   1) = (   0.0000000   0.0000000  10.0000000  )
         2           Cr1 tau(   2) = (  -1.3110974   2.2708873  10.0000000  )
         3           Cr1 tau(   3) = (   1.3110974   2.2708873  10.0000000  )
         4           Pd1 tau(   4) = (   2.6221948   0.0000000  10.0000000  )
         5           Cr1 tau(   5) = (   2.6221948   1.5139249  12.1410131  )
         6           Cr1 tau(   6) = (   1.3110974   3.7848122  12.1410131  )
         7           Cr1 tau(   7) = (  -1.3110974   3.7848122  12.1410131  )
         8           Pd1 tau(   8) = (   0.0000000   1.5139249  12.1410131  )
         9           Cr1 tau(   9) = (  -0.0000000   3.0278498  14.2820262  )
        10           Cr1 tau(  10) = (   1.3110974   0.7569624  14.2820262  )
        11           Cr1 tau(  11) = (   3.9332923   0.7569624  14.2820262  )
        12           Pd1 tau(  12) = (   2.6221948   3.0278498  14.2820262  )

     number of k points=    20  Fermi-Dirac smearing, width (Ry)=  0.0110
                       cart. coord. in units 2pi/alat
        k(    1) = (   0.0000000   0.0000000   0.0000000), wk =   0.0555556
        k(    2) = (   0.0000000   0.0366964   0.0000000), wk =   0.1111111
        k(    3) = (   0.0000000   0.0733927   0.0000000), wk =   0.1111111
        k(    4) = (   0.0000000  -0.1100891   0.0000000), wk =   0.0555556
        k(    5) = (   0.0317800   0.0183482   0.0000000), wk =   0.1111111
        k(    6) = (   0.0317800   0.0550446   0.0000000), wk =   0.1111111
        k(    7) = (   0.0317800   0.0917409   0.0000000), wk =   0.1111111
        k(    8) = (   0.0317800  -0.0917409   0.0000000), wk =   0.1111111
        k(    9) = (   0.0317800  -0.0550446   0.0000000), wk =   0.1111111
        k(   10) = (   0.0317800  -0.0183482   0.0000000), wk =   0.1111111
        k(   11) = (   0.0635600   0.0366964   0.0000000), wk =   0.1111111
        k(   12) = (   0.0635600   0.0733927   0.0000000), wk =   0.1111111
        k(   13) = (   0.0635600   0.1100891   0.0000000), wk =   0.1111111
        k(   14) = (   0.0635600  -0.0733927   0.0000000), wk =   0.1111111
        k(   15) = (   0.0635600  -0.0366964   0.0000000), wk =   0.1111111
        k(   16) = (   0.0635600   0.0000000   0.0000000), wk =   0.1111111
        k(   17) = (  -0.0953400  -0.0550446   0.0000000), wk =   0.0555556
        k(   18) = (  -0.0953400  -0.0183482   0.0000000), wk =   0.1111111
        k(   19) = (  -0.0953400   0.0183482   0.0000000), wk =   0.1111111
        k(   20) = (  -0.0953400  -0.1651337   0.0000000), wk =   0.0555556

     Largest allocated arrays     est. size (Mb)     dimensions
     Largest temporary arrays     est. size (Mb)     dimensions

     Check: negative/imaginary core charge=   -0.000003    0.000000

     Initial potential from superposition of free atoms
     Check: negative starting charge=   -0.235177

     starting charge  163.49984, renormalised to  174.00000

     negative rho (up, down):  2.503E-01 0.000E+00

     *
     * You are using vdW-DF for exchange-correlation in this calculation.
     * Please cite the following three references that made this development
     * possible:
     *
     *   M. Dion, H. Rydberg, E. Schroder, D. C. Langreth, and
     *   B. I. Lundqvist, Phys. Rev. Lett. 92, 246401 (2004).
     *
     *   T. Thonhauser, V. R. Cooper, S. Li, A. Puzder, P. Hyldgaard, and
     *   D. C. Langreth, Phys. Rev. B 76, 125112 (2007).
     *
     *   G. Roman-Perez and J. M. Soler, Phys. Rev. Lett. 103, 096102 (2009).
     *
     *
     * If you are using vdW-DF2, please also cite:
     *
     *   K. Lee, E. D. Murray, L. Kong, B. I. Lundqvist, and
     *   D. C. Langreth, Phys. Rev. B 82, 081101(R) (2010).
     *
     *
     * If you are calculating the stress with vdW-DF, please also cite:
     *
     *   R. Sabatini, E. Kucukbenli, B. Kolb, T. Thonhauser, and
     *   S. de Gironcoli, J. Phys.: Condens. Matter 24, 424209 (2012).
     *

     Carrying out vdW-DF run using the following parameters:

     Nqs =      20    Nr_points =    1024   r_max =   100.000
     q_mesh =
               0.00001000     0.04494208     0.09755937     0.15916263
               0.23128650     0.31572767     0.41458969     0.53033537
               0.66584808     0.82450364     1.01025438     1.22772762
               1.48234092     1.78043706     2.12944203     2.53805004
               3.01644009     3.57652955     4.23227104     5.00000000

     Gradients computed in reciprocal space

     Adding external electric field

     Computed dipole along edir(3) :
        Dipole                0.0000 Ry au,          0.0000 Debye
        Dipole field          0.0000 Ry au

        Potential amp.       -0.0000 Ry
        Total length         44.7392 bohr

     Starting wfc are  126 randomized atomic wfcs

     Self-consistent Calculation

     iteration #  1     ecut=    36.75 Ry     beta=0.10
     Davidson diagonalization with overlap
     ethr =  1.00E-02,  avg # of iterations =  7.2

[...]

     total energy              =   -2183.60327148 Ry
     Harris-Foulkes estimate   =   -2195.78571961 Ry
     estimated scf accuracy    <      70.06527099 Ry

[...]

     End of self-consistent calculation

          k = 0.0000 0.0000 0.0000 ( 14765 PWs)   bands (ev):

   -70.4663 -70.3946 -70.3945 -70.3718 -70.3618 -70.3080 -70.3080 -70.3054
   -70.3054 -49.9578 -49.9553 -49.9553 -49.6114 -49.6114 -49.6107 -49.6107
   -49.5070 -49.5040 -42.0166 -41.9031 -41.8770 -41.8769 -41.8217 -41.8216
   -41.8161 -41.8110 -41.7428 -41.7336 -41.7336 -41.6966 -41.6966 -41.6884
   -41.6884 -41.6247 -41.5767 -41.5767 -41.5535 -41.5265 -41.5038 -41.5038
   -41.4983 -41.3616 -41.3615 -41.3587 -41.3587  -5.5918  -4.0070  -3.8133
    -3.8133  -3.6865  -3.5572  -3.5572  -3.0803  -3.0803  -3.0472  -3.0472
    -2.9703  -2.3448  -2.3204  -2.3204  -2.0727  -1.9315  -1.9315  -1.9237
    -1.2628  -0.5667  -0.4644  -0.1597   0.1481   0.1482   0.2928   0.2928
     0.5130   0.5130   0.5578   0.6075   0.6075   0.8549   0.8549   0.8712
     1.0423   1.2475   1.2475   1.2489   1.2489   1.3797   1.7438   1.7438
     1.8584   2.0195   2.1008   2.4265   2.4265   2.5834   2.5834   2.7581
     2.7581   2.8513   2.8514   2.9421   2.9421   3.0128   3.0427   3.0427
     3.0642   3.2261   3.2261   3.2414   3.2415   3.4470   3.6123   3.6594
     5.0078   5.1447   5.2125   5.2125   5.2668

[...]

          k =-0.0953-0.0550 0.0000 ( 14662 PWs)   bands (ev):

[...]

     the Fermi energy is     1.3282 ev

!    total energy              =   -2185.43655571 Ry
     Harris-Foulkes estimate   =   -2185.43655974 Ry
     estimated scf accuracy    <       0.00000039 Ry

     The total energy is the sum of the following terms:

     one-electron contribution =  -19707.14630235 Ry
     hartree contribution      =    9857.47653329 Ry
     xc contribution           =    -306.62293398 Ry
     ewald contribution        =    7970.97930034 Ry
     electric field correction =       0.00000003 Ry
     smearing contrib. (-TS)   =      -0.12315304 Ry

     convergence has been achieved in  28 iterations

 BEEF-vdW xc energy contributions
           1 :   -266.029784196323
           2 :    240.793176281104
           3 :   -198.335138052394
           4 :    150.977245354529
           5 :   -110.135926272896
           6 :    82.2456431716858
           7 :   -67.5348657829913
           8 :    61.6947761687182
           9 :   -59.0812196174350
          10 :    55.6067376999177
          11 :   -50.0422508379169
          12 :    43.5195604882872
[...]
     MD5 check sum: 0d52af634a40206e4dee301ad30da4bf
     Pseudo is Ultrasoft + core correction, Zval = 14.0
     Generated by new atomic code, or converted to UPF format
     Using radial grid of  857 points,  6 beta functions with:
                l(1) =   0
                l(2) =   0
                l(3) =   1
                l(4) =   1
                l(5) =   2
                l(6) =   2
     Q(r) pseudized with  8 coefficients,  rinner =    0.950   0.950   0.950
                                                       0.950   0.950

     PseudoPot. # 2 for Pd read from file:
     /afs/slac.stanford.edu/u/if/mamunm/psp/gbrv1.5pbe/Pd.UPF
     MD5 check sum: 2d733d2bc2cbfd217af676df1668a4bc
     Pseudo is Ultrasoft + core correction, Zval = 16.0
     Generated by new atomic code, or converted to UPF format
     Using radial grid of  887 points,  6 beta functions with:
                l(1) =   0
                l(2) =   0
                l(3) =   1
                l(4) =   1
                l(5) =   2
                l(6) =   2
     Q(r) pseudized with  8 coefficients,  rinner =    1.130   1.130   1.130
                                                       1.130   1.130

     vdW kernel table read from file vdW_kernel_table
     MD5 check sum: 095c7af220d748ca6e76c0b4c6cfb241

     atomic species   valence    mass     pseudopotential
        Cr1           14.00    51.99610     Cr( 1.00)
        Pd1           16.00   106.42000     Pd( 1.00)

     No symmetry found

   Cartesian axes

     site n.     atom                  positions (alat units)
         1           Cr1 tau(   1) = (   0.0000000   0.0000000  10.0000000  )
         2           Cr1 tau(   2) = (  -1.3110974   2.2708873  10.0000000  )
         3           Cr1 tau(   3) = (   1.3110974   2.2708873  10.0000000  )
         4           Pd1 tau(   4) = (   2.6221948   0.0000000  10.0000000  )
         5           Cr1 tau(   5) = (   2.6221948   1.5139249  12.1410131  )
         6           Cr1 tau(   6) = (   1.3110974   3.7848122  12.1410131  )
         7           Cr1 tau(   7) = (  -1.3110974   3.7848122  12.1410131  )
         8           Pd1 tau(   8) = (   0.0000000   1.5139249  12.1410131  )
         9           Cr1 tau(   9) = (  -0.0000143   3.1635042  14.1129882  )
        10           Cr1 tau(  10) = (   1.4286698   0.6890675  14.1129648  )
        11           Cr1 tau(  11) = (   3.8157980   0.6891326  14.1130275  )
        12           Pd1 tau(  12) = (   2.6221735   3.0278541  14.4255006  )

     number of k points=    20  Fermi-Dirac smearing, width (Ry)=  0.0110
                       cart. coord. in units 2pi/alat
        k(    1) = (   0.0000000   0.0000000   0.0000000), wk =   0.0555556
        k(    2) = (   0.0000000   0.0366964   0.0000000), wk =   0.1111111
        k(    3) = (   0.0000000   0.0733927   0.0000000), wk =   0.1111111
        k(    4) = (   0.0000000  -0.1100891   0.0000000), wk =   0.0555556
        k(    5) = (   0.0317800   0.0183482   0.0000000), wk =   0.1111111
        k(    6) = (   0.0317800   0.0550446   0.0000000), wk =   0.1111111
        k(    7) = (   0.0317800   0.0917409   0.0000000), wk =   0.1111111
        k(    8) = (   0.0317800  -0.0917409   0.0000000), wk =   0.1111111
        k(    9) = (   0.0317800  -0.0550446   0.0000000), wk =   0.1111111
        k(   10) = (   0.0317800  -0.0183482   0.0000000), wk =   0.1111111
        k(   11) = (   0.0635600   0.0366964   0.0000000), wk =   0.1111111
        k(   12) = (   0.0635600   0.0733927   0.0000000), wk =   0.1111111
        k(   13) = (   0.0635600   0.1100891   0.0000000), wk =   0.1111111
        k(   14) = (   0.0635600  -0.0733927   0.0000000), wk =   0.1111111
        k(   15) = (   0.0635600  -0.0366964   0.0000000), wk =   0.1111111
        k(   16) = (   0.0635600   0.0000000   0.0000000), wk =   0.1111111
        k(   17) = (  -0.0953400  -0.0550446   0.0000000), wk =   0.0555556
        k(   18) = (  -0.0953400  -0.0183482   0.0000000), wk =   0.1111111
        k(   19) = (  -0.0953400   0.0183482   0.0000000), wk =   0.1111111
        k(   20) = (  -0.0953400  -0.1651337   0.0000000), wk =   0.0555556

     Largest allocated arrays     est. size (Mb)     dimensions
     Largest temporary arrays     est. size (Mb)     dimensions

     Check: negative/imaginary core charge=   -0.000003    0.000000

     Initial potential from superposition of free atoms
     Check: negative starting charge=   -0.236682

     starting charge  163.49984, renormalised to  174.00000

[...]

     *
     * You are using vdW-DF for exchange-correlation in this calculation.
     * Please cite the following three references that made this development
     * possible:
     *
     *   M. Dion, H. Rydberg, E. Schroder, D. C. Langreth, and
     *   B. I. Lundqvist, Phys. Rev. Lett. 92, 246401 (2004).
     *
     *   T. Thonhauser, V. R. Cooper, S. Li, A. Puzder, P. Hyldgaard, and
     *   D. C. Langreth, Phys. Rev. B 76, 125112 (2007).
     *
     *   G. Roman-Perez and J. M. Soler, Phys. Rev. Lett. 103, 096102 (2009).
     *
     *
     * If you are using vdW-DF2, please also cite:
     *
     *   K. Lee, E. D. Murray, L. Kong, B. I. Lundqvist, and
     *   D. C. Langreth, Phys. Rev. B 82, 081101(R) (2010).
     *
     *
     * If you are calculating the stress with vdW-DF, please also cite:
     *
     *   R. Sabatini, E. Kucukbenli, B. Kolb, T. Thonhauser, and
     *   S. de Gironcoli, J. Phys.: Condens. Matter 24, 424209 (2012).
     *

     Carrying out vdW-DF run using the following parameters:

     Nqs =      20    Nr_points =    1024   r_max =   100.000
     q_mesh =
               0.00001000     0.04494208     0.09755937     0.15916263
               0.23128650     0.31572767     0.41458969     0.53033537
               0.66584808     0.82450364     1.01025438     1.22772762
               1.48234092     1.78043706     2.12944203     2.53805004
               3.01644009     3.57652955     4.23227104     5.00000000

     Gradients computed in reciprocal space

[...]

     Starting wfc are  126 randomized atomic wfcs

     Self-consistent Calculation

[...]

     total energy              =   -2185.46184877 Ry
     Harris-Foulkes estimate   =   -2185.46184963 Ry
     estimated scf accuracy    <       0.00000120 Ry

     iteration # 28     ecut=    36.75 Ry     beta=0.10
     Davidson diagonalization with overlap
     ethr =  6.90E-10,  avg # of iterations =  2.0

[...]

     negative rho (up, down):  2.506E-01 0.000E+00

     Adding external electric field

     Computed dipole along edir(3) :
        Dipole               -0.0101 Ry au,         -0.0256 Debye
        Dipole field         -0.0000 Ry au

        Potential amp.        0.0029 Ry
        Total length         44.7392 bohr

     End of self-consistent calculation

[...]

          k = 0.0636 0.0000 0.0000 ( 14695 PWs)   bands (ev):

[...]

          k =-0.0953-0.1651 0.0000 ( 14662 PWs)   bands (ev):

   -70.4816 -70.4560 -70.4255 -70.4088 -70.3923 -70.3714 -70.3362 -70.2665
   -70.2565 -50.0282 -50.0255 -50.0136 -49.6669 -49.6642 -49.5663 -49.3873
   -49.3850 -49.2418 -42.0413 -41.9738 -41.9421 -41.9094 -41.8654 -41.8376
   -41.8337 -41.8054 -41.8052 -41.7943 -41.7728 -41.7523 -41.7146 -41.6891
   -41.6832 -41.6736 -41.6312 -41.6057 -41.5894 -41.5528 -41.5038 -41.4818
   -41.4797 -41.4577 -41.4388 -41.3860 -41.3116  -4.1469  -3.8553  -3.3740
    -3.3493  -3.3261  -3.0443  -2.9728  -2.7718  -2.7452  -2.6846  -2.4072
    -2.3936  -2.1706  -2.1229  -2.0650  -1.9012  -1.7996  -1.7039  -1.6730
    -1.3099  -1.2203  -0.9958  -0.6652  -0.5967  -0.4948  -0.1973  -0.0949
    -0.0697   0.0689   0.1201   0.2889   0.3207   0.4020   0.4218   0.5133
     0.6005   0.6144   0.6764   0.7959   0.9451   1.0526   1.1758   1.2021
     1.3868   1.4198   1.5159   1.6481   1.7048   1.7888   1.8481   1.8886
     2.1637   2.2297   2.2655   2.3768   2.4435   2.4537   2.5531   2.6734
     2.7861   2.8191   3.0174   3.1916   3.4823   3.8851   3.9753   4.5083
     5.0273   5.2801   5.4692   5.6843   5.9517

     the Fermi energy is     1.2773 ev

!    total energy              =   -2185.46184403 Ry
     Harris-Foulkes estimate   =   -2185.46184894 Ry
     estimated scf accuracy    <       0.00000053 Ry

     The total energy is the sum of the following terms:

     one-electron contribution =  -19933.75592263 Ry
     hartree contribution      =    9970.73800942 Ry
     xc contribution           =    -306.88812489 Ry
     ewald contribution        =    8084.56410302 Ry
     electric field correction =       0.00000033 Ry
     smearing contrib. (-TS)   =      -0.11990927 Ry

     convergence has been achieved in  28 iterations

 BEEF-vdW xc energy contributions
           1 :   -266.296180752695
           2 :    241.113651582139
           3 :   -198.703177642753
           4 :    151.310489151973
           5 :   -110.320898745531
           6 :    82.2123380411337
           7 :   -67.3080844016604
           8 :    61.3881744943849
           9 :   -58.8385523620864
          10 :    55.5245930318021
          11 :   -50.1156462083658
          12 :    43.6416337226017
          13 :   -38.0017153664500
          14 :    34.4837869133931
          15 :   -33.0806134137105
          16 :    32.7621187997130
          17 :   -32.3032972703286
          18 :    31.0398180626061
          19 :   -29.1069632167881
          20 :    27.1236004741685
          21 :   -25.6438378477685
          22 :    24.7845144666585
          23 :   -24.2434578348767
          24 :    23.6118933748527
          25 :   -22.6987135870052
          26 :    21.6269207821185
          27 :   -20.6733212791088
          28 :    20.0144768377044
          29 :   -19.5858095035239
          30 :    19.1452091079423
          31 :   -26.1382934564136
          32 :   -18.9874175900130

     Forces acting on atoms (Ry/au):

     negative rho (up, down):  2.506E-01 0.000E+00
     atom    1 type  1   force =     0.00000030   -0.01221129    0.02369373
     atom    2 type  1   force =    -0.01057446    0.00610271    0.02371054
     atom    3 type  1   force =     0.01057380    0.00610194    0.02370065
     atom    4 type  2   force =     0.00000175   -0.00000483   -0.02505912
     atom    5 type  1   force =     0.00000289    0.00796362   -0.00711841
     atom    6 type  1   force =     0.00689394   -0.00398228   -0.00711292
     atom    7 type  1   force =    -0.00689055   -0.00398314   -0.00711059
     atom    8 type  2   force =    -0.00000254   -0.00000189   -0.02637517
     atom    9 type  1   force =     0.00000305    0.00015302    0.00050126
     atom   10 type  1   force =     0.00011469   -0.00006390    0.00050200
     atom   11 type  1   force =    -0.00012258   -0.00007245    0.00049138
     atom   12 type  2   force =    -0.00000029   -0.00000151    0.00017665

     Total force =     0.061636     Total SCF correction =     0.002743

     entering subroutine stress ...

     negative rho (up, down):  2.506E-01 0.000E+00
          total   stress  (Ry/bohr**3)                   (kbar)     P=  -11.23
  -0.00008702  -0.00000001   0.00000000        -12.80     -0.00      0.00
  -0.00000001  -0.00008700  -0.00000000         -0.00    -12.80     -0.00
   0.00000000  -0.00000000  -0.00005499          0.00     -0.00     -8.09

 !ASE

     Writing output data file calc.save

     General routines

     Parallel routines

   This run was terminated on:  14:50:20  25Dec2018

   JOB DONE.
Job  /afs/slac/g/suncat/bin/suncat-tsmpirun -x LD_LIBRARY_PATH -wdir /scratch/qe109524_hVrG9 pw.x -in pw.inp

TID   HOST_NAME   COMMAND_LINE            STATUS            TERMINATION_TIME
00000 suncat0050 pw.x -in pw.inp   Done                     12/25/2018 14:50:20
00001 suncat0050 pw.x -in pw.inp   Done                     12/25/2018 14:50:20
00002 suncat0050 pw.x -in pw.inp   Done                     12/25/2018 14:50:20
00003 suncat0050 pw.x -in pw.inp   Done                     12/25/2018 14:50:20
00004 suncat0050 pw.x -in pw.inp   Done                     12/25/2018 14:50:20
00005 suncat0050 pw.x -in pw.inp   Done                     12/25/2018 14:50:20
00006 suncat0050 pw.x -in pw.inp   Done                     12/25/2018 14:50:20
00007 suncat0050 pw.x -in pw.inp   Done                     12/25/2018 14:50:20
00008 suncat0049 pw.x -in pw.inp   Done                     12/25/2018 14:50:20
00009 suncat0049 pw.x -in pw.inp   Done                     12/25/2018 14:50:20
00010 suncat0049 pw.x -in pw.inp   Done                     12/25/2018 14:50:20
00011 suncat0049 pw.x -in pw.inp   Done                     12/25/2018 14:50:20
00012 suncat0049 pw.x -in pw.inp   Done                     12/25/2018 14:50:20
00013 suncat0049 pw.x -in pw.inp   Done                     12/25/2018 14:50:20
00014 suncat0049 pw.x -in pw.inp   Done                     12/25/2018 14:50:20
00015 suncat0049 pw.x -in pw.inp   Done                     12/25/2018 14:50:20
00016 suncat0031 pw.x -in pw.inp   Done                     12/25/2018 14:50:20
00017 suncat0031 pw.x -in pw.inp   Done                     12/25/2018 14:50:20
00018 suncat0031 pw.x -in pw.inp   Done                     12/25/2018 14:50:20
00019 suncat0031 pw.x -in pw.inp   Done                     12/25/2018 14:50:20
00020 suncat0031 pw.x -in pw.inp   Done                     12/25/2018 14:50:20
00021 suncat0031 pw.x -in pw.inp   Done                     12/25/2018 14:50:20
00022 suncat0031 pw.x -in pw.inp   Done                     12/25/2018 14:50:20
00023 suncat0031 pw.x -in pw.inp   Done                     12/25/2018 14:50:20
00024 suncat0030 pw.x -in pw.inp   Done                     12/25/2018 14:50:20
00025 suncat0030 pw.x -in pw.inp   Done                     12/25/2018 14:50:20
00026 suncat0030 pw.x -in pw.inp   Done                     12/25/2018 14:50:20
00027 suncat0030 pw.x -in pw.inp   Done                     12/25/2018 14:50:20
00028 suncat0030 pw.x -in pw.inp   Done                     12/25/2018 14:50:20
00029 suncat0030 pw.x -in pw.inp   Done                     12/25/2018 14:50:20
00030 suncat0030 pw.x -in pw.inp   Done                     12/25/2018 14:50:20
00031 suncat0030 pw.x -in pw.inp   Done                     12/25/2018 14:50:20
00032 suncat0280 pw.x -in pw.inp   Done                     12/25/2018 14:50:20
00033 suncat0280 pw.x -in pw.inp   Done                     12/25/2018 14:50:20
00034 suncat0280 pw.x -in pw.inp   Done                     12/25/2018 14:50:20
00035 suncat0280 pw.x -in pw.inp   Done                     12/25/2018 14:50:20
00036 suncat0280 pw.x -in pw.inp   Done                     12/25/2018 14:50:20
00037 suncat0280 pw.x -in pw.inp   Done                     12/25/2018 14:50:20
00038 suncat0280 pw.x -in pw.inp   Done                     12/25/2018 14:50:20
00039 suncat0280 pw.x -in pw.inp   Done                     12/25/2018 14:50:20
00040 suncat0279 pw.x -in pw.inp   Done                     12/25/2018 14:50:20
00041 suncat0279 pw.x -in pw.inp   Done                     12/25/2018 14:50:20
00042 suncat0279 pw.x -in pw.inp   Done                     12/25/2018 14:50:20
00043 suncat0279 pw.x -in pw.inp   Done                     12/25/2018 14:50:20
00044 suncat0279 pw.x -in pw.inp   Done                     12/25/2018 14:50:20
00045 suncat0279 pw.x -in pw.inp   Done                     12/25/2018 14:50:20
00046 suncat0279 pw.x -in pw.inp   Done                     12/25/2018 14:50:20
00047 suncat0279 pw.x -in pw.inp   Done                     12/25/2018 14:50:20
00048 suncat0278 pw.x -in pw.inp   Done                     12/25/2018 14:50:20
00049 suncat0278 pw.x -in pw.inp   Done                     12/25/2018 14:50:20
00050 suncat0278 pw.x -in pw.inp   Done                     12/25/2018 14:50:20
00051 suncat0278 pw.x -in pw.inp   Done                     12/25/2018 14:50:20
00052 suncat0278 pw.x -in pw.inp   Done                     12/25/2018 14:50:20
00053 suncat0278 pw.x -in pw.inp   Done                     12/25/2018 14:50:20
00054 suncat0278 pw.x -in pw.inp   Done                     12/25/2018 14:50:20
00055 suncat0278 pw.x -in pw.inp   Done                     12/25/2018 14:50:20
00056 suncat0099 pw.x -in pw.inp   Done                     12/25/2018 14:50:20
00057 suncat0099 pw.x -in pw.inp   Done                     12/25/2018 14:50:20
00058 suncat0099 pw.x -in pw.inp   Done                     12/25/2018 14:50:20
00059 suncat0099 pw.x -in pw.inp   Done                     12/25/2018 14:50:20
00060 suncat0099 pw.x -in pw.inp   Done                     12/25/2018 14:50:20
00061 suncat0099 pw.x -in pw.inp   Done                     12/25/2018 14:50:20
00062 suncat0099 pw.x -in pw.inp   Done                     12/25/2018 14:50:20
00063 suncat0099 pw.x -in pw.inp   Done                     12/25/2018 14:50:20