     Program PWSCF v.5.1rc2 (svn rev. 11289) starts on 24Dec2018 at 23: 6: 8

     Current dimensions of program PWSCF are:
     Max number of different atomic species (ntypx) = 10
     Max number of k-points (npk) =  40000
     Max angular momentum in pseudopotentials (lmaxx) =  3
     Presently stress not available with electric field

     IMPORTANT: XC functional enforced from input :
     Exchange-correlation      = BEEF-VDW ( 1  4 27 13 2)
     Any further DFT definition will be discarded
     Please, verify this is what you really want

     Subspace diagonalization in iterative solution of the eigenvalue problem:
     a serial algorithm will be used

     Found symmetry operation: I + ( -0.5000  0.0000  0.0000)
     This is a supercell, fractional translations are disabled

     bravais-lattice index     =            0
     lattice parameter (alat)  =       1.8897  a.u.
     unit-cell volume          =    5160.3522 (a.u.)^3
     number of atoms/cell      =           12
     number of atomic types    =            2
     number of electrons       =       162.00
     number of Kohn-Sham states=          111
     kinetic-energy cutoff     =      36.7493  Ry
     charge density cutoff     =     367.4932  Ry
     convergence threshold     =      1.0E-06
     mixing beta               =       0.1000
     number of iterations used =           10  plain     mixing
     Exchange-correlation      = BEEF-VDW ( 1  4 27 13 2)
     nstep                     =           50

     celldm(1)=   1.889726  celldm(2)=   0.000000  celldm(3)=   0.000000
     celldm(4)=   0.000000  celldm(5)=   0.000000  celldm(6)=   0.000000

     crystal axes: (cart. coord. in units of alat)
               a(1) = (   5.720459   0.000000   0.000000 )
               a(2) = (  -2.860230   5.380341   0.000000 )
               a(3) = (   0.000000   0.000000  24.845176 )

     reciprocal axes: (cart. coord. in units 2 pi/alat)
               b(1) = (  0.174811  0.092931  0.000000 )
               b(2) = (  0.000000  0.185862  0.000000 )
               b(3) = (  0.000000  0.000000  0.040249 )

     PseudoPot. # 1 for In read from file:
     /afs/slac.stanford.edu/u/if/mamunm/psp/gbrv1.5pbe/In.UPF
     MD5 check sum: 90777abd96fbb83f2e67db2a40c566b9
     Pseudo is Ultrasoft + core correction, Zval = 13.0
     Generated by new atomic code, or converted to UPF format
     Using radial grid of  889 points,  6 beta functions with:
                l(1) =   0
                l(2) =   0
                l(3) =   1
                l(4) =   1
                l(5) =   2
                l(6) =   2
     Q(r) pseudized with  6 coefficients,  rinner =    1.400   1.400   1.400
                                                       1.400   1.400

     PseudoPot. # 2 for W  read from file:
     /afs/slac.stanford.edu/u/if/mamunm/psp/gbrv1.5pbe/W.UPF
     MD5 check sum: 9c083fa34c2a2ea0f02f1f893e16e1c8
     Pseudo is Ultrasoft + core correction, Zval = 14.0
     Generated by new atomic code, or converted to UPF format
     Using radial grid of  923 points,  8 beta functions with:
                l(1) =   0
                l(2) =   0
                l(3) =   0
                l(4) =   1
                l(5) =   1
                l(6) =   2
                l(7) =   2
                l(8) =   3
     Q(r) pseudized with  6 coefficients,  rinner =    1.350   1.350   1.350
                                                       1.350   1.350   1.350
                                                       1.350

     vdW kernel table read from file vdW_kernel_table
     MD5 check sum: 095c7af220d748ca6e76c0b4c6cfb241

     atomic species   valence    mass     pseudopotential
        In1           13.00   114.81800     In( 1.00)
        W1            14.00   183.84000     W ( 1.00)

     No symmetry found

   Cartesian axes

     site n.     atom                  positions (alat units)
         1           In1 tau(   1) = (   0.0000000   0.0000000  10.0000000  )
         2           In1 tau(   2) = (   2.8602296   0.0000000  10.0000000  )
         3           W1  tau(   3) = (   1.4301148   2.6901703  10.0000000  )
         4           W1  tau(   4) = (  -1.4301148   2.6901703  10.0000000  )
         5           In1 tau(   5) = (   2.8602296   1.5205196  12.4225882  )
         6           In1 tau(   6) = (  -0.0000000   1.5205196  12.4225882  )
         7           W1  tau(   7) = (  -1.4301148   4.2106899  12.4225882  )
         8           W1  tau(   8) = (   1.4301148   4.2106899  12.4225882  )
         9           In1 tau(   9) = (   0.0000000   3.0410391  14.8451763  )
        10           In1 tau(  10) = (   2.8602296   3.0410391  14.8451763  )
        11           W1  tau(  11) = (   4.2903444   0.3508688  14.8451763  )
        12           W1  tau(  12) = (   1.4301148   0.3508688  14.8451763  )

     number of k points=    20  Fermi-Dirac smearing, width (Ry)=  0.0110
                       cart. coord. in units 2pi/alat
        k(    1) = (   0.0000000   0.0000000   0.0000000), wk =   0.0555556
        k(    2) = (   0.0000000   0.0309770   0.0000000), wk =   0.1111111
        k(    3) = (   0.0000000   0.0619539   0.0000000), wk =   0.1111111
        k(    4) = (   0.0000000  -0.0929309   0.0000000), wk =   0.0555556
        k(    5) = (   0.0291352   0.0154885   0.0000000), wk =   0.1111111
        k(    6) = (   0.0291352   0.0464655   0.0000000), wk =   0.1111111
        k(    7) = (   0.0291352   0.0774424   0.0000000), wk =   0.1111111
        k(    8) = (   0.0291352  -0.0774424   0.0000000), wk =   0.1111111
        k(    9) = (   0.0291352  -0.0464655   0.0000000), wk =   0.1111111
        k(   10) = (   0.0291352  -0.0154885   0.0000000), wk =   0.1111111
        k(   11) = (   0.0582704   0.0309770   0.0000000), wk =   0.1111111
        k(   12) = (   0.0582704   0.0619539   0.0000000), wk =   0.1111111
        k(   13) = (   0.0582704   0.0929309   0.0000000), wk =   0.1111111
        k(   14) = (   0.0582704  -0.0619539   0.0000000), wk =   0.1111111
        k(   15) = (   0.0582704  -0.0309770   0.0000000), wk =   0.1111111
        k(   16) = (   0.0582704   0.0000000   0.0000000), wk =   0.1111111
        k(   17) = (  -0.0874056  -0.0464655   0.0000000), wk =   0.0555556
        k(   18) = (  -0.0874056  -0.0154885   0.0000000), wk =   0.1111111
        k(   19) = (  -0.0874056   0.0154885   0.0000000), wk =   0.1111111
        k(   20) = (  -0.0874056  -0.1393964   0.0000000), wk =   0.0555556

     Largest allocated arrays     est. size (Mb)     dimensions
     Largest temporary arrays     est. size (Mb)     dimensions

     Initial potential from superposition of free atoms
     Check: negative starting charge=   -0.381650

     starting charge  152.39796, renormalised to  162.00000

     negative rho (up, down):  4.057E-01 0.000E+00

     *
     * You are using vdW-DF for exchange-correlation in this calculation.
     * Please cite the following three references that made this development
     * possible:
     *
     *   M. Dion, H. Rydberg, E. Schroder, D. C. Langreth, and
     *   B. I. Lundqvist, Phys. Rev. Lett. 92, 246401 (2004).
     *
     *   T. Thonhauser, V. R. Cooper, S. Li, A. Puzder, P. Hyldgaard, and
     *   D. C. Langreth, Phys. Rev. B 76, 125112 (2007).
     *
     *   G. Roman-Perez and J. M. Soler, Phys. Rev. Lett. 103, 096102 (2009).
     *
     *
     * If you are using vdW-DF2, please also cite:
     *
     *   K. Lee, E. D. Murray, L. Kong, B. I. Lundqvist, and
     *   D. C. Langreth, Phys. Rev. B 82, 081101(R) (2010).
     *
     *
     * If you are calculating the stress with vdW-DF, please also cite:
     *
     *   R. Sabatini, E. Kucukbenli, B. Kolb, T. Thonhauser, and
     *   S. de Gironcoli, J. Phys.: Condens. Matter 24, 424209 (2012).
     *

     Carrying out vdW-DF run using the following parameters:

     Nqs =      20    Nr_points =    1024   r_max =   100.000
     q_mesh =
               0.00001000     0.04494208     0.09755937     0.15916263
               0.23128650     0.31572767     0.41458969     0.53033537
               0.66584808     0.82450364     1.01025438     1.22772762
               1.48234092     1.78043706     2.12944203     2.53805004
               3.01644009     3.57652955     4.23227104     5.00000000

     Gradients computed in reciprocal space

     Adding external electric field

     Computed dipole along edir(3) :
        Dipole                0.0000 Ry au,          0.0000 Debye
        Dipole field          0.0000 Ry au

        Potential amp.       -0.0000 Ry
        Total length         45.7768 bohr

     Starting wfc are  132 randomized atomic wfcs

     Self-consistent Calculation

     iteration #  1     ecut=    36.75 Ry     beta=0.10
     Davidson diagonalization with overlap
     ethr =  1.00E-02,  avg # of iterations =  8.0

[...]

     total energy              =   -1772.10658938 Ry
     Harris-Foulkes estimate   =   -1774.14859503 Ry
     estimated scf accuracy    <      12.65062423 Ry

[...]

     End of self-consistent calculation

          k = 0.0000 0.0000 0.0000 ( 19423 PWs)   bands (ev):

   -73.0125 -72.9802 -72.8198 -72.8191 -72.7879 -72.7872 -37.3190 -37.2022
   -37.1383 -37.1280 -37.0671 -37.0609 -37.0588 -36.9676 -36.9610 -36.9089
   -36.9022 -36.8771 -36.8197 -36.7601 -36.7535 -36.7018 -36.5101 -36.5088
   -14.0150 -13.7748 -13.6608 -13.6282 -13.6257 -13.5786 -13.5157 -13.4899
   -13.4325 -13.3309 -13.3024 -13.2881 -13.2791 -13.2396 -13.1571 -13.0889
   -13.0685 -13.0610 -13.0331 -13.0112 -13.0054 -12.9598 -12.9331 -12.9087
   -12.8768 -12.8443 -12.8406 -12.8376 -12.6834 -12.6120  -8.3122  -6.5074
    -4.7107  -3.9449  -2.6615  -2.5491  -2.4048  -2.2577  -1.9775  -1.7593
    -1.5322  -0.9857  -0.9361  -0.8108  -0.4090  -0.3925  -0.2084  -0.0289
     0.1652   0.4094   0.7997   1.0403   1.0524   1.0888   1.5643   1.6162
     1.6339   1.8260   1.9309   2.0598   2.2021   2.2557   2.5214   2.6906
     2.8099   3.2745   3.5884   3.6209   3.6906   3.7415   3.7773   3.9207
     4.0960   4.3613   4.5958   4.6305   4.9471   5.0900   5.2318   5.5715
     5.7415   6.3573   7.0542   7.0966   7.5696   7.8796   8.1613

[...]

          k =-0.0874-0.0465 0.0000 ( 19370 PWs)   bands (ev):

[...]

     the Fermi energy is     1.6726 ev

!    total energy              =   -1770.54476645 Ry
     Harris-Foulkes estimate   =   -1770.54476054 Ry
     estimated scf accuracy    <       0.00000013 Ry

     The total energy is the sum of the following terms:

     one-electron contribution =  -12397.96862571 Ry
     hartree contribution      =    6230.26416137 Ry
     xc contribution           =    -490.10619640 Ry
     ewald contribution        =    4887.33341408 Ry
     electric field correction =       0.00000000 Ry
     smearing contrib. (-TS)   =      -0.06751978 Ry

     convergence has been achieved in  17 iterations

 BEEF-vdW xc energy contributions
           1 :   -430.484481012051
           2 :    396.369579262433
           3 :   -337.365159668033
           4 :    268.032897057030
           5 :   -202.677482219999
           6 :    150.628406942645
           7 :   -114.246295036410
           8 :    90.0959110387147
[...]
     MD5 check sum: 90777abd96fbb83f2e67db2a40c566b9
     Pseudo is Ultrasoft + core correction, Zval = 13.0
     Generated by new atomic code, or converted to UPF format
     Using radial grid of  889 points,  6 beta functions with:
                l(1) =   0
                l(2) =   0
                l(3) =   1
                l(4) =   1
                l(5) =   2
                l(6) =   2
     Q(r) pseudized with  6 coefficients,  rinner =    1.400   1.400   1.400
                                                       1.400   1.400

     PseudoPot. # 2 for W  read from file:
     /afs/slac.stanford.edu/u/if/mamunm/psp/gbrv1.5pbe/W.UPF
     MD5 check sum: 9c083fa34c2a2ea0f02f1f893e16e1c8
     Pseudo is Ultrasoft + core correction, Zval = 14.0
     Generated by new atomic code, or converted to UPF format
     Using radial grid of  923 points,  8 beta functions with:
                l(1) =   0
                l(2) =   0
                l(3) =   0
                l(4) =   1
                l(5) =   1
                l(6) =   2
                l(7) =   2
                l(8) =   3
     Q(r) pseudized with  6 coefficients,  rinner =    1.350   1.350   1.350
                                                       1.350   1.350   1.350
                                                       1.350

     vdW kernel table read from file vdW_kernel_table
     MD5 check sum: 095c7af220d748ca6e76c0b4c6cfb241

     atomic species   valence    mass     pseudopotential
        In1           13.00   114.81800     In( 1.00)
        W1            14.00   183.84000     W ( 1.00)

     No symmetry found

   Cartesian axes

     site n.     atom                  positions (alat units)
         1           In1 tau(   1) = (   0.0000000   0.0000000  10.0000000  )
         2           In1 tau(   2) = (   2.8602296   0.0000000  10.0000000  )
         3           W1  tau(   3) = (   1.4301148   2.6901703  10.0000000  )
         4           W1  tau(   4) = (  -1.4301148   2.6901703  10.0000000  )
         5           In1 tau(   5) = (   2.8602296   1.5205196  12.4225882  )
         6           In1 tau(   6) = (  -0.0000000   1.5205196  12.4225882  )
         7           W1  tau(   7) = (  -1.4301148   4.2106899  12.4225882  )
         8           W1  tau(   8) = (   1.4301148   4.2106899  12.4225882  )
         9           In1 tau(   9) = (  -0.0000487   2.8845988  15.2199567  )
        10           In1 tau(  10) = (   2.8602773   2.8846017  15.2199633  )
        11           W1  tau(  11) = (   4.2903389   0.0988551  14.6427086  )
        12           W1  tau(  12) = (   1.4301178   0.0988807  14.6427092  )

     number of k points=    20  Fermi-Dirac smearing, width (Ry)=  0.0110
                       cart. coord. in units 2pi/alat
        k(    1) = (   0.0000000   0.0000000   0.0000000), wk =   0.0555556
        k(    2) = (   0.0000000   0.0309770   0.0000000), wk =   0.1111111
        k(    3) = (   0.0000000   0.0619539   0.0000000), wk =   0.1111111
        k(    4) = (   0.0000000  -0.0929309   0.0000000), wk =   0.0555556
        k(    5) = (   0.0291352   0.0154885   0.0000000), wk =   0.1111111
        k(    6) = (   0.0291352   0.0464655   0.0000000), wk =   0.1111111
        k(    7) = (   0.0291352   0.0774424   0.0000000), wk =   0.1111111
        k(    8) = (   0.0291352  -0.0774424   0.0000000), wk =   0.1111111
        k(    9) = (   0.0291352  -0.0464655   0.0000000), wk =   0.1111111
        k(   10) = (   0.0291352  -0.0154885   0.0000000), wk =   0.1111111
        k(   11) = (   0.0582704   0.0309770   0.0000000), wk =   0.1111111
        k(   12) = (   0.0582704   0.0619539   0.0000000), wk =   0.1111111
        k(   13) = (   0.0582704   0.0929309   0.0000000), wk =   0.1111111
        k(   14) = (   0.0582704  -0.0619539   0.0000000), wk =   0.1111111
        k(   15) = (   0.0582704  -0.0309770   0.0000000), wk =   0.1111111
        k(   16) = (   0.0582704   0.0000000   0.0000000), wk =   0.1111111
        k(   17) = (  -0.0874056  -0.0464655   0.0000000), wk =   0.0555556
        k(   18) = (  -0.0874056  -0.0154885   0.0000000), wk =   0.1111111
        k(   19) = (  -0.0874056   0.0154885   0.0000000), wk =   0.1111111
        k(   20) = (  -0.0874056  -0.1393964   0.0000000), wk =   0.0555556

     Largest allocated arrays     est. size (Mb)     dimensions
     Largest temporary arrays     est. size (Mb)     dimensions

     Initial potential from superposition of free atoms
     Check: negative starting charge=   -0.382245

     starting charge  152.39796, renormalised to  162.00000

[...]

     *
     * You are using vdW-DF for exchange-correlation in this calculation.
     * Please cite the following three references that made this development
     * possible:
     *
     *   M. Dion, H. Rydberg, E. Schroder, D. C. Langreth, and
     *   B. I. Lundqvist, Phys. Rev. Lett. 92, 246401 (2004).
     *
     *   T. Thonhauser, V. R. Cooper, S. Li, A. Puzder, P. Hyldgaard, and
     *   D. C. Langreth, Phys. Rev. B 76, 125112 (2007).
     *
     *   G. Roman-Perez and J. M. Soler, Phys. Rev. Lett. 103, 096102 (2009).
     *
     *
     * If you are using vdW-DF2, please also cite:
     *
     *   K. Lee, E. D. Murray, L. Kong, B. I. Lundqvist, and
     *   D. C. Langreth, Phys. Rev. B 82, 081101(R) (2010).
     *
     *
     * If you are calculating the stress with vdW-DF, please also cite:
     *
     *   R. Sabatini, E. Kucukbenli, B. Kolb, T. Thonhauser, and
     *   S. de Gironcoli, J. Phys.: Condens. Matter 24, 424209 (2012).
     *

     Carrying out vdW-DF run using the following parameters:

     Nqs =      20    Nr_points =    1024   r_max =   100.000
     q_mesh =
               0.00001000     0.04494208     0.09755937     0.15916263
               0.23128650     0.31572767     0.41458969     0.53033537
               0.66584808     0.82450364     1.01025438     1.22772762
               1.48234092     1.78043706     2.12944203     2.53805004
               3.01644009     3.57652955     4.23227104     5.00000000

     Gradients computed in reciprocal space

[...]

     Starting wfc are  132 randomized atomic wfcs

     Self-consistent Calculation

[...]

     total energy              =   -1770.61883812 Ry
     Harris-Foulkes estimate   =   -1770.61883612 Ry
     estimated scf accuracy    <       0.00000109 Ry

     iteration # 19     ecut=    36.75 Ry     beta=0.10
     Davidson diagonalization with overlap
     ethr =  6.71E-10,  avg # of iterations =  2.0

[...]

     negative rho (up, down):  3.966E-01 0.000E+00

     Adding external electric field

     Computed dipole along edir(3) :
        Dipole                0.1000 Ry au,          0.2543 Debye
        Dipole field          0.0002 Ry au

        Potential amp.       -0.0223 Ry
        Total length         45.7768 bohr

     End of self-consistent calculation

[...]

          k = 0.0583 0.0000 0.0000 ( 19367 PWs)   bands (ev):

[...]

          k =-0.0874-0.1394 0.0000 ( 19370 PWs)   bands (ev):

   -72.8172 -72.8172 -72.6990 -72.6989 -72.6365 -72.6365 -37.2126 -37.2126
   -36.9420 -36.9420 -36.8925 -36.8925 -36.8287 -36.8286 -36.7876 -36.7876
   -36.7454 -36.7454 -36.6903 -36.6903 -36.6491 -36.6491 -36.3801 -36.3801
   -13.4972 -13.4972 -13.3639 -13.3639 -13.2948 -13.2948 -13.2675 -13.2675
   -13.2583 -13.2583 -13.0996 -13.0994 -13.0442 -13.0442 -13.0166 -13.0165
   -12.9856 -12.9856 -12.9691 -12.9690 -12.9569 -12.9569 -12.9408 -12.9407
   -12.9345 -12.9345 -12.8888 -12.8888 -12.8286 -12.8286  -6.4257  -6.4257
    -4.8499  -4.8498  -3.6782  -3.6781  -2.4613  -2.4613  -1.3099  -1.3099
    -0.7301  -0.7301  -0.3575  -0.3575  -0.2260  -0.2260   0.1062   0.1063
     0.3166   0.3166   0.9332   0.9332   1.0544   1.0544   1.3746   1.3747
     1.6696   1.6696   1.7595   1.7595   2.1810   2.1811   2.5589   2.5590
     3.1483   3.1483   3.4351   3.4351   3.6367   3.6367   4.1338   4.1338
     4.6123   4.6123   5.4387   5.4387   5.8302   5.8302   6.1583   6.1584
     6.7275   6.7275   6.9617   6.9617   7.3975   7.3976   7.6239

     the Fermi energy is     1.7799 ev

!    total energy              =   -1770.61884340 Ry
     Harris-Foulkes estimate   =   -1770.61883841 Ry
     estimated scf accuracy    <       0.00000075 Ry

     The total energy is the sum of the following terms:

     one-electron contribution =  -12250.29960495 Ry
     hartree contribution      =    6157.03888406 Ry
     xc contribution           =    -490.12918889 Ry
     ewald contribution        =    4812.83570863 Ry
     electric field correction =       0.00002437 Ry
     smearing contrib. (-TS)   =      -0.06466662 Ry

     convergence has been achieved in  19 iterations

 BEEF-vdW xc energy contributions
           1 :   -430.505796289752
           2 :    396.354350266310
           3 :   -337.299353621659
           4 :    267.925744320109
           5 :   -202.538773114408
           6 :    150.443586991198
           7 :   -113.975150389913
           8 :    89.7019132927491
           9 :   -71.7395101373941
          10 :    55.2542334730348
          11 :   -38.4597495840830
          12 :    22.4653713256600
          13 :   -9.57375640863125
          14 :    1.32449073749285
          15 :    2.54830188848103
          16 :   -3.83860138461711
          17 :    4.70215661998105
          18 :   -6.46324023475364
          19 :    9.10372223477452
          20 :   -11.6194317249717
          21 :    12.8865903508373
          22 :   -12.4430539641873
          23 :    10.7353614191642
          24 :   -8.77520155036547
          25 :    7.50512963606246
          26 :   -7.29444882396746
          27 :    7.83625527408350
          28 :   -8.43993026080483
          29 :    8.48729862461482
          30 :   -7.77004420964744
          31 :   -38.9477639857500
          32 :   -28.8225405655945

     Forces acting on atoms (Ry/au):

     negative rho (up, down):  3.966E-01 0.000E+00
     atom    1 type  1   force =    -0.00000010   -0.01366905   -0.05585969
     atom    2 type  1   force =     0.00000060   -0.01366885   -0.05585983
     atom    3 type  2   force =     0.00000004    0.01587915    0.04987546
     atom    4 type  2   force =     0.00000010    0.01587888    0.04987378
     atom    5 type  1   force =     0.00000254    0.02295209    0.01426995
     atom    6 type  1   force =    -0.00000255    0.02295171    0.01426987
     atom    7 type  2   force =    -0.00000001   -0.02558516   -0.00879218
     atom    8 type  2   force =     0.00000039   -0.02558940   -0.00879759
     atom    9 type  1   force =     0.00002824    0.00128721    0.00053348
     atom   10 type  1   force =    -0.00002925    0.00128726    0.00053333
     atom   11 type  2   force =     0.00000046   -0.00086062   -0.00002240
     atom   12 type  2   force =    -0.00000047   -0.00086323   -0.00002417

     Total force =     0.122572     Total SCF correction =     0.003677

     entering subroutine stress ...

     negative rho (up, down):  3.966E-01 0.000E+00
          total   stress  (Ry/bohr**3)                   (kbar)     P=  -22.65
  -0.00015894  -0.00000000  -0.00000000        -23.38     -0.00     -0.00
  -0.00000000  -0.00027569  -0.00000248         -0.00    -40.55     -0.36
  -0.00000000  -0.00000248  -0.00002731         -0.00     -0.36     -4.02

 !ASE

     Writing output data file calc.save

     General routines

     Parallel routines

   This run was terminated on:   2:56:12  25Dec2018

   JOB DONE.
Job  /afs/slac/g/suncat/bin/suncat-tsmpirun -x LD_LIBRARY_PATH -wdir /scratch/qe109035_a3dtq pw.x -in pw.inp

TID   HOST_NAME   COMMAND_LINE            STATUS            TERMINATION_TIME
00000 suncat0053 pw.x -in pw.inp   Done                     12/25/2018 02:56:12
00001 suncat0053 pw.x -in pw.inp   Done                     12/25/2018 02:56:12
00002 suncat0053 pw.x -in pw.inp   Done                     12/25/2018 02:56:12
00003 suncat0053 pw.x -in pw.inp   Done                     12/25/2018 02:56:12
00004 suncat0053 pw.x -in pw.inp   Done                     12/25/2018 02:56:12
00005 suncat0053 pw.x -in pw.inp   Done                     12/25/2018 02:56:12
00006 suncat0053 pw.x -in pw.inp   Done                     12/25/2018 02:56:12
00007 suncat0053 pw.x -in pw.inp   Done                     12/25/2018 02:56:12
00008 suncat0038 pw.x -in pw.inp   Done                     12/25/2018 02:56:12
00009 suncat0038 pw.x -in pw.inp   Done                     12/25/2018 02:56:12
00010 suncat0038 pw.x -in pw.inp   Done                     12/25/2018 02:56:12
00011 suncat0038 pw.x -in pw.inp   Done                     12/25/2018 02:56:12
00012 suncat0038 pw.x -in pw.inp   Done                     12/25/2018 02:56:12
00013 suncat0038 pw.x -in pw.inp   Done                     12/25/2018 02:56:12
00014 suncat0038 pw.x -in pw.inp   Done                     12/25/2018 02:56:12
00015 suncat0038 pw.x -in pw.inp   Done                     12/25/2018 02:56:12
00016 suncat0037 pw.x -in pw.inp   Done                     12/25/2018 02:56:12
00017 suncat0037 pw.x -in pw.inp   Done                     12/25/2018 02:56:12
00018 suncat0037 pw.x -in pw.inp   Done                     12/25/2018 02:56:12
00019 suncat0037 pw.x -in pw.inp   Done                     12/25/2018 02:56:12
00020 suncat0037 pw.x -in pw.inp   Done                     12/25/2018 02:56:12
00021 suncat0037 pw.x -in pw.inp   Done                     12/25/2018 02:56:12
00022 suncat0037 pw.x -in pw.inp   Done                     12/25/2018 02:56:12
00023 suncat0037 pw.x -in pw.inp   Done                     12/25/2018 02:56:12
00024 suncat0036 pw.x -in pw.inp   Done                     12/25/2018 02:56:12
00025 suncat0036 pw.x -in pw.inp   Done                     12/25/2018 02:56:12
00026 suncat0036 pw.x -in pw.inp   Done                     12/25/2018 02:56:12
00027 suncat0036 pw.x -in pw.inp   Done                     12/25/2018 02:56:12
00028 suncat0036 pw.x -in pw.inp   Done                     12/25/2018 02:56:12
00029 suncat0036 pw.x -in pw.inp   Done                     12/25/2018 02:56:12
00030 suncat0036 pw.x -in pw.inp   Done                     12/25/2018 02:56:12
00031 suncat0036 pw.x -in pw.inp   Done                     12/25/2018 02:56:12
00032 suncat0035 pw.x -in pw.inp   Done                     12/25/2018 02:56:12
00033 suncat0035 pw.x -in pw.inp   Done                     12/25/2018 02:56:12
00034 suncat0035 pw.x -in pw.inp   Done                     12/25/2018 02:56:12
00035 suncat0035 pw.x -in pw.inp   Done                     12/25/2018 02:56:12
00036 suncat0035 pw.x -in pw.inp   Done                     12/25/2018 02:56:12
00037 suncat0035 pw.x -in pw.inp   Done                     12/25/2018 02:56:12
00038 suncat0035 pw.x -in pw.inp   Done                     12/25/2018 02:56:12
00039 suncat0035 pw.x -in pw.inp   Done                     12/25/2018 02:56:12
00040 suncat0033 pw.x -in pw.inp   Done                     12/25/2018 02:56:12
00041 suncat0033 pw.x -in pw.inp   Done                     12/25/2018 02:56:12
00042 suncat0033 pw.x -in pw.inp   Done                     12/25/2018 02:56:12
00043 suncat0033 pw.x -in pw.inp   Done                     12/25/2018 02:56:12
00044 suncat0033 pw.x -in pw.inp   Done                     12/25/2018 02:56:12
00045 suncat0033 pw.x -in pw.inp   Done                     12/25/2018 02:56:12
00046 suncat0033 pw.x -in pw.inp   Done                     12/25/2018 02:56:12
00047 suncat0033 pw.x -in pw.inp   Done                     12/25/2018 02:56:12
00048 suncat0032 pw.x -in pw.inp   Done                     12/25/2018 02:56:12
00049 suncat0032 pw.x -in pw.inp   Done                     12/25/2018 02:56:12
00050 suncat0032 pw.x -in pw.inp   Done                     12/25/2018 02:56:12
00051 suncat0032 pw.x -in pw.inp   Done                     12/25/2018 02:56:12
00052 suncat0032 pw.x -in pw.inp   Done                     12/25/2018 02:56:12
00053 suncat0032 pw.x -in pw.inp   Done                     12/25/2018 02:56:12
00054 suncat0032 pw.x -in pw.inp   Done                     12/25/2018 02:56:12
00055 suncat0032 pw.x -in pw.inp   Done                     12/25/2018 02:56:12
00056 suncat0019 pw.x -in pw.inp   Done                     12/25/2018 02:56:12
00057 suncat0019 pw.x -in pw.inp   Done                     12/25/2018 02:56:12
00058 suncat0019 pw.x -in pw.inp   Done                     12/25/2018 02:56:12
00059 suncat0019 pw.x -in pw.inp   Done                     12/25/2018 02:56:12
00060 suncat0019 pw.x -in pw.inp   Done                     12/25/2018 02:56:12
00061 suncat0019 pw.x -in pw.inp   Done                     12/25/2018 02:56:12
00062 suncat0019 pw.x -in pw.inp   Done                     12/25/2018 02:56:12
00063 suncat0019 pw.x -in pw.inp   Done                     12/25/2018 02:56:12