     Program PWSCF v.5.1rc2 (svn rev. 11289) starts on 31Dec2018 at 17:20:26

     Current dimensions of program PWSCF are:
     Max number of different atomic species (ntypx) = 10
     Max number of k-points (npk) =  40000
     Max angular momentum in pseudopotentials (lmaxx) =  3
     Presently stress not available with electric field

     IMPORTANT: XC functional enforced from input :
     Exchange-correlation      = BEEF-VDW ( 1  4 27 13 2)
     Any further DFT definition will be discarded
     Please, verify this is what you really want

     Subspace diagonalization in iterative solution of the eigenvalue problem:
     a serial algorithm will be used

     bravais-lattice index     =            0
     lattice parameter (alat)  =       1.8897  a.u.
     unit-cell volume          =    4466.3877 (a.u.)^3
     number of atoms/cell      =           12
     number of atomic types    =            2
     number of electrons       =       168.00
     number of Kohn-Sham states=          114
     kinetic-energy cutoff     =      36.7493  Ry
     charge density cutoff     =     367.4932  Ry
     convergence threshold     =      1.0E-06
     mixing beta               =       0.1000
     number of iterations used =           10  plain     mixing
     Exchange-correlation      = BEEF-VDW ( 1  4 27 13 2)
     nstep                     =           50

     celldm(1)=   1.889726  celldm(2)=   0.000000  celldm(3)=   0.000000
     celldm(4)=   0.000000  celldm(5)=   0.000000  celldm(6)=   0.000000

     crystal axes: (cart. coord. in units of alat)
               a(1) = (   5.578838   0.000000   0.000000 )
               a(2) = (  -2.789419   4.831415   0.000000 )
               a(3) = (   0.000000   0.000000  24.555102 )

     reciprocal axes: (cart. coord. in units 2 pi/alat)
               b(1) = (  0.179249  0.103489  0.000000 )
               b(2) = (  0.000000  0.206979  0.000000 )
               b(3) = (  0.000000  0.000000  0.040725 )

     PseudoPot. # 1 for Re read from file:
     /afs/slac.stanford.edu/u/if/mamunm/psp/gbrv1.5pbe/Re.UPF
     MD5 check sum: 85f993410f3e006da9d71c142b4ad953
     Pseudo is Ultrasoft + core correction, Zval = 15.0
     Generated by new atomic code, or converted to UPF format
     Using radial grid of  981 points,  8 beta functions with:
                l(1) =   0
                l(2) =   0
                l(3) =   1
                l(4) =   1
                l(5) =   2
                l(6) =   2
                l(7) =   3
                l(8) =   3
     Q(r) pseudized with  8 coefficients,  rinner =    1.150   1.150   1.150
                                                       1.150   1.150   1.150
                                                       1.150

     PseudoPot. # 2 for Au read from file:
     /afs/slac.stanford.edu/u/if/mamunm/psp/gbrv1.5pbe/Au.UPF
     MD5 check sum: 9d7f43293ad2c663164586bc4b293ffc
     Pseudo is Ultrasoft + core correction, Zval = 11.0
     Generated by new atomic code, or converted to UPF format
     Using radial grid of  985 points,  7 beta functions with:
                l(1) =   0
                l(2) =   0
                l(3) =   1
                l(4) =   1
                l(5) =   2
                l(6) =   2
                l(7) =   3
     Q(r) pseudized with  6 coefficients,  rinner =    1.900   1.900   1.900
                                                       1.900   1.900   1.900
                                                       1.900

     vdW kernel table read from file vdW_kernel_table
     MD5 check sum: 095c7af220d748ca6e76c0b4c6cfb241

     atomic species   valence    mass     pseudopotential
        Re1           15.00   186.20700     Re( 1.00)
        Au1           11.00   196.96657     Au( 1.00)

     No symmetry found

   Cartesian axes

     site n.     atom                  positions (alat units)
         1           Re1 tau(   1) = (   0.0000000   0.0000000  10.0000000  )
         2           Re1 tau(   2) = (  -1.3947094   2.4157076  10.0000000  )
         3           Re1 tau(   3) = (   1.3947094   2.4157076  10.0000000  )
         4           Au1 tau(   4) = (   2.7894188   0.0000000  10.0000000  )
         5           Re1 tau(   5) = (   2.7894188   1.6104717  12.2775509  )
         6           Re1 tau(   6) = (   1.3947094   4.0261793  12.2775509  )
         7           Re1 tau(   7) = (  -1.3947094   4.0261793  12.2775509  )
         8           Au1 tau(   8) = (   0.0000000   1.6104717  12.2775509  )
         9           Re1 tau(   9) = (  -0.0000000   3.2209434  14.5551019  )
        10           Re1 tau(  10) = (   1.3947094   0.8052359  14.5551019  )
        11           Re1 tau(  11) = (   4.1841282   0.8052359  14.5551019  )
        12           Au1 tau(  12) = (   2.7894188   3.2209434  14.5551019  )

     number of k points=    20  Fermi-Dirac smearing, width (Ry)=  0.0110
                       cart. coord. in units 2pi/alat
        k(    1) = (   0.0000000   0.0000000   0.0000000), wk =   0.0555556
        k(    2) = (   0.0000000   0.0344964   0.0000000), wk =   0.1111111
        k(    3) = (   0.0000000   0.0689929   0.0000000), wk =   0.1111111
        k(    4) = (   0.0000000  -0.1034893   0.0000000), wk =   0.0555556
        k(    5) = (   0.0298748   0.0172482   0.0000000), wk =   0.1111111
        k(    6) = (   0.0298748   0.0517447   0.0000000), wk =   0.1111111
        k(    7) = (   0.0298748   0.0862411   0.0000000), wk =   0.1111111
        k(    8) = (   0.0298748  -0.0862411   0.0000000), wk =   0.1111111
        k(    9) = (   0.0298748  -0.0517447   0.0000000), wk =   0.1111111
        k(   10) = (   0.0298748  -0.0172482   0.0000000), wk =   0.1111111
        k(   11) = (   0.0597496   0.0344964   0.0000000), wk =   0.1111111
        k(   12) = (   0.0597496   0.0689929   0.0000000), wk =   0.1111111
        k(   13) = (   0.0597496   0.1034893   0.0000000), wk =   0.1111111
        k(   14) = (   0.0597496  -0.0689929   0.0000000), wk =   0.1111111
        k(   15) = (   0.0597496  -0.0344964   0.0000000), wk =   0.1111111
        k(   16) = (   0.0597496   0.0000000   0.0000000), wk =   0.1111111
        k(   17) = (  -0.0896244  -0.0517447   0.0000000), wk =   0.0555556
        k(   18) = (  -0.0896244  -0.0172482   0.0000000), wk =   0.1111111
        k(   19) = (  -0.0896244   0.0172482   0.0000000), wk =   0.1111111
        k(   20) = (  -0.0896244  -0.1552340   0.0000000), wk =   0.0555556

     Largest allocated arrays     est. size (Mb)     dimensions
     Largest temporary arrays     est. size (Mb)     dimensions

     Check: negative/imaginary core charge=   -0.000001    0.000000

     Initial potential from superposition of free atoms
     Check: negative starting charge=   -1.151676

     starting charge  163.49923, renormalised to  168.00000

     negative rho (up, down):  1.183E+00 0.000E+00

     *
     * You are using vdW-DF for exchange-correlation in this calculation.
     * Please cite the following three references that made this development
     * possible:
     *
     *   M. Dion, H. Rydberg, E. Schroder, D. C. Langreth, and
     *   B. I. Lundqvist, Phys. Rev. Lett. 92, 246401 (2004).
     *
     *   T. Thonhauser, V. R. Cooper, S. Li, A. Puzder, P. Hyldgaard, and
     *   D. C. Langreth, Phys. Rev. B 76, 125112 (2007).
     *
     *   G. Roman-Perez and J. M. Soler, Phys. Rev. Lett. 103, 096102 (2009).
     *
     *
     * If you are using vdW-DF2, please also cite:
     *
     *   K. Lee, E. D. Murray, L. Kong, B. I. Lundqvist, and
     *   D. C. Langreth, Phys. Rev. B 82, 081101(R) (2010).
     *
     *
     * If you are calculating the stress with vdW-DF, please also cite:
     *
     *   R. Sabatini, E. Kucukbenli, B. Kolb, T. Thonhauser, and
     *   S. de Gironcoli, J. Phys.: Condens. Matter 24, 424209 (2012).
     *

     Carrying out vdW-DF run using the following parameters:

     Nqs =      20    Nr_points =    1024   r_max =   100.000
     q_mesh =
               0.00001000     0.04494208     0.09755937     0.15916263
               0.23128650     0.31572767     0.41458969     0.53033537
               0.66584808     0.82450364     1.01025438     1.22772762
               1.48234092     1.78043706     2.12944203     2.53805004
               3.01644009     3.57652955     4.23227104     5.00000000

     Gradients computed in reciprocal space

     Adding external electric field

     Computed dipole along edir(3) :
        Dipole                0.0000 Ry au,          0.0000 Debye
        Dipole field          0.0000 Ry au

        Potential amp.       -0.0000 Ry
        Total length         45.2424 bohr

     Starting wfc are  144 randomized atomic wfcs

     Self-consistent Calculation

     iteration #  1     ecut=    36.75 Ry     beta=0.10
     Davidson diagonalization with overlap
     ethr =  1.00E-02,  avg # of iterations =  7.8

[...]

     total energy              =   -2079.13406096 Ry
     Harris-Foulkes estimate   =   -2080.25950705 Ry
     estimated scf accuracy    <       6.63416014 Ry

[...]

     End of self-consistent calculation

          k = 0.0000 0.0000 0.0000 ( 16763 PWs)   bands (ev):

   -78.8154 -78.7684 -78.7682 -78.3596 -78.3586 -78.3138 -78.3138 -78.3136
   -78.3135 -40.8738 -40.6893 -40.6892 -40.6318 -40.5126 -40.5124 -40.3517
   -40.3351 -40.3249 -40.1852 -40.1851 -40.1641 -40.1641 -40.0938 -40.0800
   -40.0800 -40.0154 -40.0153 -39.9568 -39.9403 -39.9403 -39.8299 -39.8158
   -39.6599 -39.6598 -39.6566 -39.6566  -7.3333  -5.4268  -5.1833  -5.1416
    -5.1416  -4.8358  -4.8358  -4.5101  -4.3058  -4.2307  -4.2307  -4.1073
    -4.1073  -3.7848  -3.1159  -3.0857  -3.0857  -2.9982  -2.9982  -2.4080
    -1.7409  -1.2506  -1.1697  -1.0594  -1.0593  -0.5964  -0.5964  -0.2487
    -0.2487   0.0012   0.0013   0.1119   0.3486   0.3487   0.6163   0.6164
     0.7440   0.9851   1.0924   1.0924   1.6808   1.9112   1.9113   2.3547
     2.4205   2.7584   3.2786   3.2786   3.3142   3.3143   3.4783   3.4783
     3.5416   3.5960   3.5961   3.9593   3.9593   4.1609   4.1609   4.2137
     4.2137   4.7060   4.7060   4.7153   5.1834   5.5226   5.5664   5.7584
     5.7584   6.0706   6.1589   6.6797   6.6798   6.7630   6.9538   7.4469
     8.3082   8.3757

[...]

          k =-0.0896-0.0517 0.0000 ( 16816 PWs)   bands (ev):

[...]

     the Fermi energy is     2.2242 ev

!    total energy              =   -2079.11145504 Ry
     Harris-Foulkes estimate   =   -2079.11145478 Ry
     estimated scf accuracy    <       0.00000034 Ry

     The total energy is the sum of the following terms:

     one-electron contribution =  -15390.35589239 Ry
     hartree contribution      =    7704.10113589 Ry
     xc contribution           =    -678.37396889 Ry
     ewald contribution        =    6285.57799542 Ry
     electric field correction =       0.00000000 Ry
     smearing contrib. (-TS)   =      -0.06072506 Ry

     convergence has been achieved in  16 iterations

 BEEF-vdW xc energy contributions
           1 :   -603.740499586317
           2 :    561.481846903433
           3 :   -485.505295110514
           4 :    390.104233491812
           5 :   -291.157793499614
           6 :    202.076176851959
[...]
     Using radial grid of  981 points,  8 beta functions with:
                l(1) =   0
                l(2) =   0
                l(3) =   1
                l(4) =   1
                l(5) =   2
                l(6) =   2
                l(7) =   3
                l(8) =   3
     Q(r) pseudized with  8 coefficients,  rinner =    1.150   1.150   1.150
                                                       1.150   1.150   1.150
                                                       1.150

     PseudoPot. # 2 for Au read from file:
     /afs/slac.stanford.edu/u/if/mamunm/psp/gbrv1.5pbe/Au.UPF
     MD5 check sum: 9d7f43293ad2c663164586bc4b293ffc
     Pseudo is Ultrasoft + core correction, Zval = 11.0
     Generated by new atomic code, or converted to UPF format
     Using radial grid of  985 points,  7 beta functions with:
                l(1) =   0
                l(2) =   0
                l(3) =   1
                l(4) =   1
                l(5) =   2
                l(6) =   2
                l(7) =   3
     Q(r) pseudized with  6 coefficients,  rinner =    1.900   1.900   1.900
                                                       1.900   1.900   1.900
                                                       1.900

     vdW kernel table read from file vdW_kernel_table
     MD5 check sum: 095c7af220d748ca6e76c0b4c6cfb241

     atomic species   valence    mass     pseudopotential
        Re1           15.00   186.20700     Re( 1.00)
        Au1           11.00   196.96657     Au( 1.00)

     No symmetry found

   Cartesian axes

     site n.     atom                  positions (alat units)
         1           Re1 tau(   1) = (   0.0000000   0.0000000  10.0000000  )
         2           Re1 tau(   2) = (  -1.3947094   2.4157076  10.0000000  )
         3           Re1 tau(   3) = (   1.3947094   2.4157076  10.0000000  )
         4           Au1 tau(   4) = (   2.7894188   0.0000000  10.0000000  )
         5           Re1 tau(   5) = (   2.7894188   1.6104717  12.2775509  )
         6           Re1 tau(   6) = (   1.3947094   4.0261793  12.2775509  )
         7           Re1 tau(   7) = (  -1.3947094   4.0261793  12.2775509  )
         8           Au1 tau(   8) = (   0.0000000   1.6104717  12.2775509  )
         9           Re1 tau(   9) = (   0.0000200   3.3674375  14.4410004  )
        10           Re1 tau(  10) = (   1.5216045   0.7319759  14.4409872  )
        11           Re1 tau(  11) = (   4.0572756   0.7319772  14.4410029  )
        12           Au1 tau(  12) = (   2.7894400   3.2209367  14.6477937  )

     number of k points=    20  Fermi-Dirac smearing, width (Ry)=  0.0110
                       cart. coord. in units 2pi/alat
        k(    1) = (   0.0000000   0.0000000   0.0000000), wk =   0.0555556
        k(    2) = (   0.0000000   0.0344964   0.0000000), wk =   0.1111111
        k(    3) = (   0.0000000   0.0689929   0.0000000), wk =   0.1111111
        k(    4) = (   0.0000000  -0.1034893   0.0000000), wk =   0.0555556
        k(    5) = (   0.0298748   0.0172482   0.0000000), wk =   0.1111111
        k(    6) = (   0.0298748   0.0517447   0.0000000), wk =   0.1111111
        k(    7) = (   0.0298748   0.0862411   0.0000000), wk =   0.1111111
        k(    8) = (   0.0298748  -0.0862411   0.0000000), wk =   0.1111111
        k(    9) = (   0.0298748  -0.0517447   0.0000000), wk =   0.1111111
        k(   10) = (   0.0298748  -0.0172482   0.0000000), wk =   0.1111111
        k(   11) = (   0.0597496   0.0344964   0.0000000), wk =   0.1111111
        k(   12) = (   0.0597496   0.0689929   0.0000000), wk =   0.1111111
        k(   13) = (   0.0597496   0.1034893   0.0000000), wk =   0.1111111
        k(   14) = (   0.0597496  -0.0689929   0.0000000), wk =   0.1111111
        k(   15) = (   0.0597496  -0.0344964   0.0000000), wk =   0.1111111
        k(   16) = (   0.0597496   0.0000000   0.0000000), wk =   0.1111111
        k(   17) = (  -0.0896244  -0.0517447   0.0000000), wk =   0.0555556
        k(   18) = (  -0.0896244  -0.0172482   0.0000000), wk =   0.1111111
        k(   19) = (  -0.0896244   0.0172482   0.0000000), wk =   0.1111111
        k(   20) = (  -0.0896244  -0.1552340   0.0000000), wk =   0.0555556

     Largest allocated arrays     est. size (Mb)     dimensions
     Largest temporary arrays     est. size (Mb)     dimensions

     Check: negative/imaginary core charge=   -0.000001    0.000000

     Initial potential from superposition of free atoms
     Check: negative starting charge=   -1.150733

     starting charge  163.49923, renormalised to  168.00000

[...]

     *
     * You are using vdW-DF for exchange-correlation in this calculation.
     * Please cite the following three references that made this development
     * possible:
     *
     *   M. Dion, H. Rydberg, E. Schroder, D. C. Langreth, and
     *   B. I. Lundqvist, Phys. Rev. Lett. 92, 246401 (2004).
     *
     *   T. Thonhauser, V. R. Cooper, S. Li, A. Puzder, P. Hyldgaard, and
     *   D. C. Langreth, Phys. Rev. B 76, 125112 (2007).
     *
     *   G. Roman-Perez and J. M. Soler, Phys. Rev. Lett. 103, 096102 (2009).
     *
     *
     * If you are using vdW-DF2, please also cite:
     *
     *   K. Lee, E. D. Murray, L. Kong, B. I. Lundqvist, and
     *   D. C. Langreth, Phys. Rev. B 82, 081101(R) (2010).
     *
     *
     * If you are calculating the stress with vdW-DF, please also cite:
     *
     *   R. Sabatini, E. Kucukbenli, B. Kolb, T. Thonhauser, and
     *   S. de Gironcoli, J. Phys.: Condens. Matter 24, 424209 (2012).
     *

     Carrying out vdW-DF run using the following parameters:

     Nqs =      20    Nr_points =    1024   r_max =   100.000
     q_mesh =
               0.00001000     0.04494208     0.09755937     0.15916263
               0.23128650     0.31572767     0.41458969     0.53033537
               0.66584808     0.82450364     1.01025438     1.22772762
               1.48234092     1.78043706     2.12944203     2.53805004
               3.01644009     3.57652955     4.23227104     5.00000000

     Gradients computed in reciprocal space

[...]

     Starting wfc are  144 randomized atomic wfcs

     Self-consistent Calculation

[...]

     total energy              =   -2079.17825160 Ry
     Harris-Foulkes estimate   =   -2079.17825175 Ry
     estimated scf accuracy    <       0.00000161 Ry

     iteration # 17     ecut=    36.75 Ry     beta=0.10
     Davidson diagonalization with overlap
     ethr =  9.57E-10,  avg # of iterations =  2.0

[...]

     negative rho (up, down):  1.193E+00 0.000E+00

     Adding external electric field

     Computed dipole along edir(3) :
        Dipole                0.0072 Ry au,          0.0184 Debye
        Dipole field          0.0000 Ry au

        Potential amp.       -0.0018 Ry
        Total length         45.2424 bohr

     End of self-consistent calculation

[...]

          k = 0.0597 0.0000 0.0000 ( 16778 PWs)   bands (ev):

[...]

          k =-0.0896-0.1552 0.0000 ( 16816 PWs)   bands (ev):

   -78.7697 -78.7535 -78.7372 -78.3782 -78.3309 -78.3159 -78.3078 -78.3018
   -78.3006 -40.7822 -40.6742 -40.6320 -40.5802 -40.5346 -40.5286 -40.4714
   -40.4532 -40.4254 -40.2112 -40.1990 -40.1855 -40.1148 -40.0570 -40.0316
   -39.9902 -39.9793 -39.9734 -39.9707 -39.9444 -39.9222 -39.8825 -39.8610
   -39.8283 -39.7195 -39.6627 -39.6075  -5.6861  -5.3834  -4.4709  -4.4159
    -4.4144  -4.1109  -4.0915  -3.8218  -3.8214  -3.7747  -3.4312  -3.3814
    -3.3392  -3.1694  -2.9656  -2.9345  -2.8154  -2.7353  -2.5896  -2.5092
    -2.3449  -2.2118  -1.8358  -1.6115  -1.4084  -1.0782  -1.0049  -0.8828
    -0.7406  -0.5946  -0.4239  -0.2824  -0.1785   0.0559   0.0790   0.1715
     0.3127   0.3425   0.5650   0.7744   0.8218   0.8839   1.0435   1.3389
     1.3938   1.5752   1.6514   1.7754   2.0658   2.1756   2.3613   2.6932
     2.7760   2.9467   2.9751   3.2529   3.3458   3.4240   3.4452   3.6577
     3.9154   4.4276   4.7306   4.7496   4.9472   5.0842   5.5311   5.9859
     6.8124   7.2160   7.3979   7.5631   7.6232   8.2723   8.2975   8.3669
     8.8331   8.9796

     the Fermi energy is     2.2451 ev

!    total energy              =   -2079.17825376 Ry
     Harris-Foulkes estimate   =   -2079.17825195 Ry
     estimated scf accuracy    <       0.00000037 Ry

     The total energy is the sum of the following terms:

     one-electron contribution =  -15561.86684907 Ry
     hartree contribution      =    7789.92455760 Ry
     xc contribution           =    -678.71066266 Ry
     ewald contribution        =    6371.52823844 Ry
     electric field correction =       0.00000015 Ry
     smearing contrib. (-TS)   =      -0.05353822 Ry

     convergence has been achieved in  17 iterations

 BEEF-vdW xc energy contributions
           1 :   -604.584305881354
           2 :    562.402498683777
           3 :   -486.535510212524
           4 :    391.204477119411
           5 :   -292.220787275730
           6 :    202.967651233953
           7 :   -131.697862927989
           8 :    80.7504947045713
           9 :   -47.6241453149905
          10 :    27.2036508271469
          11 :   -14.1561662011609
          12 :    4.63001473970735
          13 :    3.14767647437395
          14 :   -9.27579149099802
          15 :    13.1248463209936
          16 :   -14.2839964011373
          17 :    13.1009130362534
          18 :   -10.6729205006575
          19 :    8.40220523086316
          20 :   -7.40289779897125
          21 :    8.06393177966117
          22 :   -9.96164654183963
          23 :    12.1268620045774
          24 :   -13.5161567258575
          25 :    13.4628336922799
          26 :   -11.9202527894622
          27 :    9.41594187113060
          28 :   -6.77307522238721
          29 :    4.74745071769792
          30 :   -3.74682728805237
          31 :   -49.4682674964577
          32 :   -36.5823640758638

     Forces acting on atoms (Ry/au):

     negative rho (up, down):  1.193E+00 0.000E+00
     atom    1 type  1   force =     0.00000126   -0.04963318    0.02884621
     atom    2 type  1   force =    -0.04298331    0.02481530    0.02884718
     atom    3 type  1   force =     0.04298347    0.02481582    0.02884424
     atom    4 type  2   force =     0.00000195    0.00000168   -0.03420928
     atom    5 type  1   force =     0.00000082    0.00754244   -0.01637924
     atom    6 type  1   force =     0.00653324   -0.00377211   -0.01637754
     atom    7 type  1   force =    -0.00653041   -0.00377201   -0.01637924
     atom    8 type  2   force =     0.00000100   -0.00000428   -0.00625451
     atom    9 type  1   force =    -0.00000199    0.00071688    0.00073758
     atom   10 type  1   force =     0.00061773   -0.00035521    0.00074616
     atom   11 type  1   force =    -0.00062252   -0.00035679    0.00073680
     atom   12 type  2   force =    -0.00000123    0.00000146    0.00084166

     Total force =     0.109887     Total SCF correction =     0.001330

     entering subroutine stress ...

     negative rho (up, down):  1.193E+00 0.000E+00
          total   stress  (Ry/bohr**3)                   (kbar)     P=  -22.95
  -0.00019836   0.00000000  -0.00000001        -29.18      0.00     -0.00
   0.00000000  -0.00019836   0.00000000          0.00    -29.18      0.00
  -0.00000001   0.00000000  -0.00007134         -0.00      0.00    -10.49

 !ASE

     Writing output data file calc.save

     General routines

     Parallel routines

   This run was terminated on:  18:48:35  31Dec2018

   JOB DONE.
Job  /afs/slac/g/suncat/bin/suncat-tsmpirun -x LD_LIBRARY_PATH -wdir /scratch/qe648826_fCy4Z pw.x -in pw.inp

TID   HOST_NAME   COMMAND_LINE            STATUS            TERMINATION_TIME
00000 suncat0121 pw.x -in pw.inp   Done                     12/31/2018 18:48:35
00001 suncat0121 pw.x -in pw.inp   Done                     12/31/2018 18:48:35
00002 suncat0121 pw.x -in pw.inp   Done                     12/31/2018 18:48:35
00003 suncat0121 pw.x -in pw.inp   Done                     12/31/2018 18:48:35
00004 suncat0121 pw.x -in pw.inp   Done                     12/31/2018 18:48:35
00005 suncat0121 pw.x -in pw.inp   Done                     12/31/2018 18:48:35
00006 suncat0121 pw.x -in pw.inp   Done                     12/31/2018 18:48:35
00007 suncat0121 pw.x -in pw.inp   Done                     12/31/2018 18:48:35
00008 suncat0115 pw.x -in pw.inp   Done                     12/31/2018 18:48:35
00009 suncat0115 pw.x -in pw.inp   Done                     12/31/2018 18:48:35
00010 suncat0115 pw.x -in pw.inp   Done                     12/31/2018 18:48:35
00011 suncat0115 pw.x -in pw.inp   Done                     12/31/2018 18:48:35
00012 suncat0115 pw.x -in pw.inp   Done                     12/31/2018 18:48:35
00013 suncat0115 pw.x -in pw.inp   Done                     12/31/2018 18:48:35
00014 suncat0115 pw.x -in pw.inp   Done                     12/31/2018 18:48:35
00015 suncat0115 pw.x -in pw.inp   Done                     12/31/2018 18:48:35
00016 suncat0228 pw.x -in pw.inp   Done                     12/31/2018 18:48:35
00017 suncat0228 pw.x -in pw.inp   Done                     12/31/2018 18:48:35
00018 suncat0228 pw.x -in pw.inp   Done                     12/31/2018 18:48:35
00019 suncat0228 pw.x -in pw.inp   Done                     12/31/2018 18:48:35
00020 suncat0228 pw.x -in pw.inp   Done                     12/31/2018 18:48:35
00021 suncat0228 pw.x -in pw.inp   Done                     12/31/2018 18:48:35
00022 suncat0228 pw.x -in pw.inp   Done                     12/31/2018 18:48:35
00023 suncat0228 pw.x -in pw.inp   Done                     12/31/2018 18:48:35
00024 suncat0227 pw.x -in pw.inp   Done                     12/31/2018 18:48:35
00025 suncat0227 pw.x -in pw.inp   Done                     12/31/2018 18:48:35
00026 suncat0227 pw.x -in pw.inp   Done                     12/31/2018 18:48:35
00027 suncat0227 pw.x -in pw.inp   Done                     12/31/2018 18:48:35
00028 suncat0227 pw.x -in pw.inp   Done                     12/31/2018 18:48:35
00029 suncat0227 pw.x -in pw.inp   Done                     12/31/2018 18:48:35
00030 suncat0227 pw.x -in pw.inp   Done                     12/31/2018 18:48:35
00031 suncat0227 pw.x -in pw.inp   Done                     12/31/2018 18:48:35
00032 suncat0217 pw.x -in pw.inp   Done                     12/31/2018 18:48:35
00033 suncat0217 pw.x -in pw.inp   Done                     12/31/2018 18:48:35
00034 suncat0217 pw.x -in pw.inp   Done                     12/31/2018 18:48:35
00035 suncat0217 pw.x -in pw.inp   Done                     12/31/2018 18:48:35
00036 suncat0217 pw.x -in pw.inp   Done                     12/31/2018 18:48:35
00037 suncat0217 pw.x -in pw.inp   Done                     12/31/2018 18:48:35
00038 suncat0217 pw.x -in pw.inp   Done                     12/31/2018 18:48:35
00039 suncat0217 pw.x -in pw.inp   Done                     12/31/2018 18:48:35
00040 suncat0216 pw.x -in pw.inp   Done                     12/31/2018 18:48:35
00041 suncat0216 pw.x -in pw.inp   Done                     12/31/2018 18:48:35
00042 suncat0216 pw.x -in pw.inp   Done                     12/31/2018 18:48:35
00043 suncat0216 pw.x -in pw.inp   Done                     12/31/2018 18:48:35
00044 suncat0216 pw.x -in pw.inp   Done                     12/31/2018 18:48:35
00045 suncat0216 pw.x -in pw.inp   Done                     12/31/2018 18:48:35
00046 suncat0216 pw.x -in pw.inp   Done                     12/31/2018 18:48:35
00047 suncat0216 pw.x -in pw.inp   Done                     12/31/2018 18:48:35
00048 suncat0215 pw.x -in pw.inp   Done                     12/31/2018 18:48:35
00049 suncat0215 pw.x -in pw.inp   Done                     12/31/2018 18:48:35
00050 suncat0215 pw.x -in pw.inp   Done                     12/31/2018 18:48:35
00051 suncat0215 pw.x -in pw.inp   Done                     12/31/2018 18:48:35
00052 suncat0215 pw.x -in pw.inp   Done                     12/31/2018 18:48:35
00053 suncat0215 pw.x -in pw.inp   Done                     12/31/2018 18:48:35
00054 suncat0215 pw.x -in pw.inp   Done                     12/31/2018 18:48:35
00055 suncat0215 pw.x -in pw.inp   Done                     12/31/2018 18:48:35
00056 suncat0210 pw.x -in pw.inp   Done                     12/31/2018 18:48:35
00057 suncat0210 pw.x -in pw.inp   Done                     12/31/2018 18:48:35
00058 suncat0210 pw.x -in pw.inp   Done                     12/31/2018 18:48:35
00059 suncat0210 pw.x -in pw.inp   Done                     12/31/2018 18:48:35
00060 suncat0210 pw.x -in pw.inp   Done                     12/31/2018 18:48:35
00061 suncat0210 pw.x -in pw.inp   Done                     12/31/2018 18:48:35
00062 suncat0210 pw.x -in pw.inp   Done                     12/31/2018 18:48:35
00063 suncat0210 pw.x -in pw.inp   Done                     12/31/2018 18:48:35