     Program PWSCF v.5.1rc2 (svn rev. 11289) starts on  1Jan2019 at  9:46: 3

     Current dimensions of program PWSCF are:
     Max number of different atomic species (ntypx) = 10
     Max number of k-points (npk) =  40000
     Max angular momentum in pseudopotentials (lmaxx) =  3
     Presently stress not available with electric field

     IMPORTANT: XC functional enforced from input :
     Exchange-correlation      = BEEF-VDW ( 1  4 27 13 2)
     Any further DFT definition will be discarded
     Please, verify this is what you really want

     Subspace diagonalization in iterative solution of the eigenvalue problem:
     a serial algorithm will be used

     bravais-lattice index     =            0
     lattice parameter (alat)  =       1.8897  a.u.
     unit-cell volume          =    5428.4725 (a.u.)^3
     number of atoms/cell      =           12
     number of atomic types    =            2
     number of electrons       =       144.00
     number of Kohn-Sham states=          102
     kinetic-energy cutoff     =      36.7493  Ry
     charge density cutoff     =     367.4932  Ry
     convergence threshold     =      1.0E-06
     mixing beta               =       0.1000
     number of iterations used =           10  plain     mixing
     Exchange-correlation      = BEEF-VDW ( 1  4 27 13 2)
     nstep                     =           50

     celldm(1)=   1.889726  celldm(2)=   0.000000  celldm(3)=   0.000000
     celldm(4)=   0.000000  celldm(5)=   0.000000  celldm(6)=   0.000000

     crystal axes: (cart. coord. in units of alat)
               a(1) = (   6.098004   0.000000   0.000000 )
               a(2) = (  -3.049002   5.281026   0.000000 )
               a(3) = (   0.000000   0.000000  24.978999 )

     reciprocal axes: (cart. coord. in units 2 pi/alat)
               b(1) = (  0.163988  0.094679  0.000000 )
               b(2) = (  0.000000  0.189357  0.000000 )
               b(3) = (  0.000000  0.000000  0.040034 )

     PseudoPot. # 1 for Sc read from file:
     /afs/slac.stanford.edu/u/if/mamunm/psp/gbrv1.5pbe/Sc.UPF
     MD5 check sum: db30a2753ba66ef00f23801d899b7e7f
     Pseudo is Ultrasoft + core correction, Zval = 11.0
     Generated by new atomic code, or converted to UPF format
     Using radial grid of  849 points,  6 beta functions with:
                l(1) =   0
                l(2) =   0
                l(3) =   1
                l(4) =   1
                l(5) =   2
                l(6) =   2
     Q(r) pseudized with  6 coefficients,  rinner =    1.200   1.200   1.200
                                                       1.200   1.200

     PseudoPot. # 2 for Rh read from file:
     /afs/slac.stanford.edu/u/if/mamunm/psp/gbrv1.5pbe/Rh.UPF
     MD5 check sum: 761627e959a2e3a1f56b0b5fe687810e
     Pseudo is Ultrasoft + core correction, Zval = 15.0
     Generated by new atomic code, or converted to UPF format
     Using radial grid of  969 points,  7 beta functions with:
                l(1) =   0
                l(2) =   0
                l(3) =   1
                l(4) =   1
                l(5) =   2
                l(6) =   2
                l(7) =   2
     Q(r) pseudized with  8 coefficients,  rinner =    1.200   1.200   1.200
                                                       1.200   1.200

     vdW kernel table read from file vdW_kernel_table
     MD5 check sum: 095c7af220d748ca6e76c0b4c6cfb241

     atomic species   valence    mass     pseudopotential
        Sc1           11.00    44.95591     Sc( 1.00)
        Rh1           15.00   102.90550     Rh( 1.00)

     No symmetry found

   Cartesian axes

     site n.     atom                  positions (alat units)
         1           Sc1 tau(   1) = (   0.0000000   0.0000000  10.0000000  )
         2           Sc1 tau(   2) = (  -1.5245009   2.6405131  10.0000000  )
         3           Sc1 tau(   3) = (   1.5245009   2.6405131  10.0000000  )
         4           Rh1 tau(   4) = (   3.0490019   0.0000000  10.0000000  )
         5           Sc1 tau(   5) = (   3.0490019   1.7603421  12.4894996  )
         6           Sc1 tau(   6) = (   1.5245009   4.4008551  12.4894996  )
         7           Sc1 tau(   7) = (  -1.5245009   4.4008551  12.4894996  )
         8           Rh1 tau(   8) = (   0.0000000   1.7603421  12.4894996  )
         9           Sc1 tau(   9) = (  -0.0000000   3.5206841  14.9789992  )
        10           Sc1 tau(  10) = (   1.5245009   0.8801710  14.9789992  )
        11           Sc1 tau(  11) = (   4.5735028   0.8801710  14.9789992  )
        12           Rh1 tau(  12) = (   3.0490019   3.5206841  14.9789992  )

     number of k points=    20  Fermi-Dirac smearing, width (Ry)=  0.0110
                       cart. coord. in units 2pi/alat
        k(    1) = (   0.0000000   0.0000000   0.0000000), wk =   0.0555556
        k(    2) = (   0.0000000   0.0315595   0.0000000), wk =   0.1111111
        k(    3) = (   0.0000000   0.0631190   0.0000000), wk =   0.1111111
        k(    4) = (   0.0000000  -0.0946786   0.0000000), wk =   0.0555556
        k(    5) = (   0.0273313   0.0157798   0.0000000), wk =   0.1111111
        k(    6) = (   0.0273313   0.0473393   0.0000000), wk =   0.1111111
        k(    7) = (   0.0273313   0.0788988   0.0000000), wk =   0.1111111
        k(    8) = (   0.0273313  -0.0788988   0.0000000), wk =   0.1111111
        k(    9) = (   0.0273313  -0.0473393   0.0000000), wk =   0.1111111
        k(   10) = (   0.0273313  -0.0157798   0.0000000), wk =   0.1111111
        k(   11) = (   0.0546627   0.0315595   0.0000000), wk =   0.1111111
        k(   12) = (   0.0546627   0.0631190   0.0000000), wk =   0.1111111
        k(   13) = (   0.0546627   0.0946786   0.0000000), wk =   0.1111111
        k(   14) = (   0.0546627  -0.0631190   0.0000000), wk =   0.1111111
        k(   15) = (   0.0546627  -0.0315595   0.0000000), wk =   0.1111111
        k(   16) = (   0.0546627   0.0000000   0.0000000), wk =   0.1111111
        k(   17) = (  -0.0819940  -0.0473393   0.0000000), wk =   0.0555556
        k(   18) = (  -0.0819940  -0.0157798   0.0000000), wk =   0.1111111
        k(   19) = (  -0.0819940   0.0157798   0.0000000), wk =   0.1111111
        k(   20) = (  -0.0819940  -0.1420179   0.0000000), wk =   0.0555556

     Largest allocated arrays     est. size (Mb)     dimensions
     Largest temporary arrays     est. size (Mb)     dimensions

     Initial potential from superposition of free atoms
     Check: negative starting charge=   -0.157771

     starting charge  142.47808, renormalised to  144.00000

     negative rho (up, down):  1.595E-01 0.000E+00

     *
     * You are using vdW-DF for exchange-correlation in this calculation.
     * Please cite the following three references that made this development
     * possible:
     *
     *   M. Dion, H. Rydberg, E. Schroder, D. C. Langreth, and
     *   B. I. Lundqvist, Phys. Rev. Lett. 92, 246401 (2004).
     *
     *   T. Thonhauser, V. R. Cooper, S. Li, A. Puzder, P. Hyldgaard, and
     *   D. C. Langreth, Phys. Rev. B 76, 125112 (2007).
     *
     *   G. Roman-Perez and J. M. Soler, Phys. Rev. Lett. 103, 096102 (2009).
     *
     *
     * If you are using vdW-DF2, please also cite:
     *
     *   K. Lee, E. D. Murray, L. Kong, B. I. Lundqvist, and
     *   D. C. Langreth, Phys. Rev. B 82, 081101(R) (2010).
     *
     *
     * If you are calculating the stress with vdW-DF, please also cite:
     *
     *   R. Sabatini, E. Kucukbenli, B. Kolb, T. Thonhauser, and
     *   S. de Gironcoli, J. Phys.: Condens. Matter 24, 424209 (2012).
     *

     Carrying out vdW-DF run using the following parameters:

     Nqs =      20    Nr_points =    1024   r_max =   100.000
     q_mesh =
               0.00001000     0.04494208     0.09755937     0.15916263
               0.23128650     0.31572767     0.41458969     0.53033537
               0.66584808     0.82450364     1.01025438     1.22772762
               1.48234092     1.78043706     2.12944203     2.53805004
               3.01644009     3.57652955     4.23227104     5.00000000

     Gradients computed in reciprocal space

     Adding external electric field

     Computed dipole along edir(3) :
        Dipole                0.0000 Ry au,          0.0000 Debye
        Dipole field          0.0000 Ry au

        Potential amp.       -0.0000 Ry
        Total length         46.0234 bohr

     Starting wfc are  153 randomized atomic wfcs

     Self-consistent Calculation

     iteration #  1     ecut=    36.75 Ry     beta=0.10
     Davidson diagonalization with overlap
     ethr =  1.00E-02,  avg # of iterations =  2.0

[...]

     total energy              =   -1369.77380873 Ry
     Harris-Foulkes estimate   =   -1370.62358857 Ry
     estimated scf accuracy    <       4.85375732 Ry

[...]

     End of self-consistent calculation

          k = 0.0000 0.0000 0.0000 ( 20395 PWs)   bands (ev):

   -49.0640 -49.0614 -48.9972 -48.9971 -48.9965 -48.9965 -48.7356 -48.6723
   -48.6723 -45.1594 -45.1546 -45.1546 -44.9047 -44.9047 -44.9046 -44.9046
   -44.8167 -44.8164 -27.8955 -27.8688 -27.7851 -27.7524 -27.7524 -27.7208
   -27.7208 -27.7154 -27.6990 -27.6990 -27.6513 -27.6513 -27.5906 -27.4902
   -27.4817 -27.3953 -27.3953 -27.3732 -27.3732 -27.3414 -27.3414 -27.2810
   -27.2488 -27.2488 -27.1318 -27.0981 -27.0981  -4.2172  -3.0273  -2.1464
    -1.9248  -1.9248  -1.8245  -1.8245  -1.5031  -1.5031  -1.4423  -1.3847
    -1.3847  -1.2570  -1.0379  -0.8952  -0.8952  -0.7877  -0.5942  -0.5942
    -0.4794   0.0925   0.4197   0.9911   1.1337   1.1337   1.2497   1.2497
     1.2534   1.2714   1.4762   1.4762   1.5095   1.6675   1.6675   1.7398
     1.8940   1.8940   2.0759   2.0759   2.2427   2.2427   2.3180   2.5498
     2.5498   2.5788   2.6794   2.6794   2.9491   3.4023   3.6706   3.6706
     3.7259   3.7259   3.9831   3.9835   4.0776   4.0777

[...]

          k =-0.0820-0.0473 0.0000 ( 20452 PWs)   bands (ev):

[...]

     the Fermi energy is     0.9725 ev

!    total energy              =   -1370.11601728 Ry
     Harris-Foulkes estimate   =   -1370.11602616 Ry
     estimated scf accuracy    <       0.00000028 Ry

     The total energy is the sum of the following terms:

     one-electron contribution =   -9513.93484757 Ry
     hartree contribution      =    4754.69319809 Ry
     xc contribution           =    -218.04087701 Ry
     ewald contribution        =    3607.28221994 Ry
     electric field correction =       0.00000000 Ry
     smearing contrib. (-TS)   =      -0.11571075 Ry

     convergence has been achieved in  18 iterations

 BEEF-vdW xc energy contributions
           1 :   -186.981250201923
           2 :    167.588450028955
           3 :   -136.125621556983
           4 :    103.096896170501
           5 :   -76.8935207328229
           6 :    60.6412112106236
           7 :   -52.5237263845829
           8 :    48.4893960666825
           9 :   -45.1174488346591
          10 :    40.9962602065787
          11 :   -36.3914213827165
          12 :    32.0826938150874
          13 :   -28.4586343771863
          14 :    25.3968378371492
          15 :   -22.6964886101815
          16 :    20.4418255456957
          17 :   -18.9030745092316
[...]
               b(2) = (  0.000000  0.189357  0.000000 )
               b(3) = (  0.000000  0.000000  0.040034 )

     PseudoPot. # 1 for Sc read from file:
     /afs/slac.stanford.edu/u/if/mamunm/psp/gbrv1.5pbe/Sc.UPF
     MD5 check sum: db30a2753ba66ef00f23801d899b7e7f
     Pseudo is Ultrasoft + core correction, Zval = 11.0
     Generated by new atomic code, or converted to UPF format
     Using radial grid of  849 points,  6 beta functions with:
                l(1) =   0
                l(2) =   0
                l(3) =   1
                l(4) =   1
                l(5) =   2
                l(6) =   2
     Q(r) pseudized with  6 coefficients,  rinner =    1.200   1.200   1.200
                                                       1.200   1.200

     PseudoPot. # 2 for Rh read from file:
     /afs/slac.stanford.edu/u/if/mamunm/psp/gbrv1.5pbe/Rh.UPF
     MD5 check sum: 761627e959a2e3a1f56b0b5fe687810e
     Pseudo is Ultrasoft + core correction, Zval = 15.0
     Generated by new atomic code, or converted to UPF format
     Using radial grid of  969 points,  7 beta functions with:
                l(1) =   0
                l(2) =   0
                l(3) =   1
                l(4) =   1
                l(5) =   2
                l(6) =   2
                l(7) =   2
     Q(r) pseudized with  8 coefficients,  rinner =    1.200   1.200   1.200
                                                       1.200   1.200

     vdW kernel table read from file vdW_kernel_table
     MD5 check sum: 095c7af220d748ca6e76c0b4c6cfb241

     atomic species   valence    mass     pseudopotential
        Sc1           11.00    44.95591     Sc( 1.00)
        Rh1           15.00   102.90550     Rh( 1.00)

     No symmetry found

   Cartesian axes

     site n.     atom                  positions (alat units)
         1           Sc1 tau(   1) = (   0.0000000   0.0000000  10.0000000  )
         2           Sc1 tau(   2) = (  -1.5245009   2.6405131  10.0000000  )
         3           Sc1 tau(   3) = (   1.5245009   2.6405131  10.0000000  )
         4           Rh1 tau(   4) = (   3.0490019   0.0000000  10.0000000  )
         5           Sc1 tau(   5) = (   3.0490019   1.7603421  12.4894996  )
         6           Sc1 tau(   6) = (   1.5245009   4.4008551  12.4894996  )
         7           Sc1 tau(   7) = (  -1.5245009   4.4008551  12.4894996  )
         8           Rh1 tau(   8) = (   0.0000000   1.7603421  12.4894996  )
         9           Sc1 tau(   9) = (  -0.0000118   3.4903037  15.0040795  )
        10           Sc1 tau(  10) = (   1.4982137   0.8953358  15.0041227  )
        11           Sc1 tau(  11) = (   4.5997754   0.8953438  15.0041346  )
        12           Rh1 tau(  12) = (   3.0490000   3.5206997  14.5424730  )

     number of k points=    20  Fermi-Dirac smearing, width (Ry)=  0.0110
                       cart. coord. in units 2pi/alat
        k(    1) = (   0.0000000   0.0000000   0.0000000), wk =   0.0555556
        k(    2) = (   0.0000000   0.0315595   0.0000000), wk =   0.1111111
        k(    3) = (   0.0000000   0.0631190   0.0000000), wk =   0.1111111
        k(    4) = (   0.0000000  -0.0946786   0.0000000), wk =   0.0555556
        k(    5) = (   0.0273313   0.0157798   0.0000000), wk =   0.1111111
        k(    6) = (   0.0273313   0.0473393   0.0000000), wk =   0.1111111
        k(    7) = (   0.0273313   0.0788988   0.0000000), wk =   0.1111111
        k(    8) = (   0.0273313  -0.0788988   0.0000000), wk =   0.1111111
        k(    9) = (   0.0273313  -0.0473393   0.0000000), wk =   0.1111111
        k(   10) = (   0.0273313  -0.0157798   0.0000000), wk =   0.1111111
        k(   11) = (   0.0546627   0.0315595   0.0000000), wk =   0.1111111
        k(   12) = (   0.0546627   0.0631190   0.0000000), wk =   0.1111111
        k(   13) = (   0.0546627   0.0946786   0.0000000), wk =   0.1111111
        k(   14) = (   0.0546627  -0.0631190   0.0000000), wk =   0.1111111
        k(   15) = (   0.0546627  -0.0315595   0.0000000), wk =   0.1111111
        k(   16) = (   0.0546627   0.0000000   0.0000000), wk =   0.1111111
        k(   17) = (  -0.0819940  -0.0473393   0.0000000), wk =   0.0555556
        k(   18) = (  -0.0819940  -0.0157798   0.0000000), wk =   0.1111111
        k(   19) = (  -0.0819940   0.0157798   0.0000000), wk =   0.1111111
        k(   20) = (  -0.0819940  -0.1420179   0.0000000), wk =   0.0555556

     Largest allocated arrays     est. size (Mb)     dimensions
     Largest temporary arrays     est. size (Mb)     dimensions

     Initial potential from superposition of free atoms
     Check: negative starting charge=   -0.159344

     starting charge  142.47808, renormalised to  144.00000

[...]

     *
     * You are using vdW-DF for exchange-correlation in this calculation.
     * Please cite the following three references that made this development
     * possible:
     *
     *   M. Dion, H. Rydberg, E. Schroder, D. C. Langreth, and
     *   B. I. Lundqvist, Phys. Rev. Lett. 92, 246401 (2004).
     *
     *   T. Thonhauser, V. R. Cooper, S. Li, A. Puzder, P. Hyldgaard, and
     *   D. C. Langreth, Phys. Rev. B 76, 125112 (2007).
     *
     *   G. Roman-Perez and J. M. Soler, Phys. Rev. Lett. 103, 096102 (2009).
     *
     *
     * If you are using vdW-DF2, please also cite:
     *
     *   K. Lee, E. D. Murray, L. Kong, B. I. Lundqvist, and
     *   D. C. Langreth, Phys. Rev. B 82, 081101(R) (2010).
     *
     *
     * If you are calculating the stress with vdW-DF, please also cite:
     *
     *   R. Sabatini, E. Kucukbenli, B. Kolb, T. Thonhauser, and
     *   S. de Gironcoli, J. Phys.: Condens. Matter 24, 424209 (2012).
     *

     Carrying out vdW-DF run using the following parameters:

     Nqs =      20    Nr_points =    1024   r_max =   100.000
     q_mesh =
               0.00001000     0.04494208     0.09755937     0.15916263
               0.23128650     0.31572767     0.41458969     0.53033537
               0.66584808     0.82450364     1.01025438     1.22772762
               1.48234092     1.78043706     2.12944203     2.53805004
               3.01644009     3.57652955     4.23227104     5.00000000

     Gradients computed in reciprocal space

[...]

     Starting wfc are  153 randomized atomic wfcs

     Self-consistent Calculation

[...]

     total energy              =   -1370.14180890 Ry
     Harris-Foulkes estimate   =   -1370.14180894 Ry
     estimated scf accuracy    <       0.00000169 Ry

     iteration # 19     ecut=    36.75 Ry     beta=0.10
     Davidson diagonalization with overlap
     ethr =  1.17E-09,  avg # of iterations =  2.2

[...]

     negative rho (up, down):  1.657E-01 0.000E+00

     Adding external electric field

     Computed dipole along edir(3) :
        Dipole                0.0617 Ry au,          0.1569 Debye
        Dipole field          0.0001 Ry au

        Potential amp.       -0.0132 Ry
        Total length         46.0234 bohr

     End of self-consistent calculation

[...]

          k = 0.0547 0.0000 0.0000 ( 20417 PWs)   bands (ev):

[...]

          k =-0.0820-0.1420 0.0000 ( 20452 PWs)   bands (ev):

   -49.0061 -48.9810 -48.9713 -48.9602 -48.9492 -48.9273 -48.5699 -48.5478
   -48.5260 -45.0836 -45.0768 -45.0764 -45.0731 -45.0623 -45.0621 -44.8160
   -44.8157 -44.7236 -27.7386 -27.7153 -27.6936 -27.6823 -27.6510 -27.6431
   -27.6217 -27.6073 -27.5974 -27.5965 -27.5592 -27.5542 -27.5405 -27.5151
   -27.5120 -27.5005 -27.3427 -27.3326 -27.3236 -27.1788 -27.1497 -27.1299
   -27.1248 -27.1199 -27.1145 -27.1036 -26.9721  -2.8509  -2.7174  -1.9599
    -1.7253  -1.6245  -1.6079  -1.4011  -1.3892  -1.3262  -1.2398  -1.1585
    -1.0712  -1.0320  -0.9078  -0.8669  -0.7806  -0.6711  -0.5974  -0.5356
    -0.2999  -0.1964   0.0127   0.3837   0.6009   0.7172   0.8339   0.9587
     1.0118   1.1037   1.1123   1.3219   1.3227   1.3742   1.4121   1.5514
     1.6609   1.8847   1.9047   2.0245   2.0631   2.1170   2.4653   2.4681
     2.5882   2.6224   2.6248   2.7531   2.7841   2.8246   3.3424   3.3729
     3.4208   3.4591   3.5524   3.6073   3.6304   3.6815

     the Fermi energy is     1.0452 ev

!    total energy              =   -1370.14180789 Ry
     Harris-Foulkes estimate   =   -1370.14180834 Ry
     estimated scf accuracy    <       0.00000033 Ry

     The total energy is the sum of the following terms:

     one-electron contribution =   -9664.09596622 Ry
     hartree contribution      =    4830.05901086 Ry
     xc contribution           =    -218.13548638 Ry
     ewald contribution        =    3682.14186490 Ry
     electric field correction =       0.00000882 Ry
     smearing contrib. (-TS)   =      -0.11123988 Ry

     convergence has been achieved in  19 iterations

 BEEF-vdW xc energy contributions
           1 :   -187.126890990229
           2 :    167.781000634497
           3 :   -136.365131611183
           4 :    103.321838896659
           5 :   -77.0119591022623
           6 :    60.5933665884576
           7 :   -52.3315126693732
           8 :    48.2483708791987
           9 :   -44.9334567960154
          10 :    40.9206557929557
          11 :   -36.4070303160067
          12 :    32.1401824027004
          13 :   -28.5191513542100
          14 :    25.4448597730037
          15 :   -22.7265371340224
          16 :    20.4466522245434
          17 :   -18.8799082894241
          18 :    18.0959861754099
          19 :   -17.7140293938826
          20 :    17.1038671567289
          21 :   -15.8687491999069
          22 :    14.1672300771000
          23 :   -12.5862832982878
          24 :    11.6744348607716
          25 :   -11.5219065624908
          26 :    11.7159073712319
          27 :   -11.6828902871019
          28 :    11.1230492676331
          29 :   -10.1938963883646
          30 :    9.32887362947605
          31 :   -20.4731450198297
          32 :   -14.8989376799024

     Forces acting on atoms (Ry/au):

     negative rho (up, down):  1.657E-01 0.000E+00
     atom    1 type  1   force =    -0.00000227    0.01481428   -0.00740566
     atom    2 type  1   force =     0.01283284   -0.00740808   -0.00740498
     atom    3 type  1   force =    -0.01283142   -0.00740415   -0.00740275
     atom    4 type  2   force =     0.00000043    0.00000062    0.04125607
     atom    5 type  1   force =     0.00000147   -0.00398034   -0.00514021
     atom    6 type  1   force =    -0.00344996    0.00199054   -0.00514577
     atom    7 type  1   force =     0.00345036    0.00198891   -0.00514416
     atom    8 type  2   force =     0.00000146   -0.00000045   -0.00046101
     atom    9 type  1   force =    -0.00000088   -0.00062340   -0.00128592
     atom   10 type  1   force =    -0.00054137    0.00031112   -0.00128562
     atom   11 type  1   force =     0.00054028    0.00031176   -0.00128529
     atom   12 type  2   force =    -0.00000096   -0.00000081    0.00070531

     Total force =     0.051564     Total SCF correction =     0.001815

     entering subroutine stress ...

     negative rho (up, down):  1.657E-01 0.000E+00
          total   stress  (Ry/bohr**3)                   (kbar)     P=   -9.16
  -0.00006723  -0.00000000   0.00000000         -9.89     -0.00      0.00
  -0.00000000  -0.00006723  -0.00000000         -0.00     -9.89     -0.00
   0.00000000  -0.00000000  -0.00005232          0.00     -0.00     -7.70

 !ASE

     Writing output data file calc.save

     General routines

     Parallel routines

   This run was terminated on:  10:55:14   1Jan2019

   JOB DONE.
Job  /afs/slac/g/suncat/bin/suncat-tsmpirun -x LD_LIBRARY_PATH -wdir /scratch/qe648987_LkMsz pw.x -in pw.inp

TID   HOST_NAME   COMMAND_LINE            STATUS            TERMINATION_TIME
00000 suncat0020 pw.x -in pw.inp   Done                     01/01/2019 10:55:14
00001 suncat0020 pw.x -in pw.inp   Done                     01/01/2019 10:55:14
00002 suncat0020 pw.x -in pw.inp   Done                     01/01/2019 10:55:14
00003 suncat0020 pw.x -in pw.inp   Done                     01/01/2019 10:55:14
00004 suncat0020 pw.x -in pw.inp   Done                     01/01/2019 10:55:14
00005 suncat0020 pw.x -in pw.inp   Done                     01/01/2019 10:55:14
00006 suncat0020 pw.x -in pw.inp   Done                     01/01/2019 10:55:14
00007 suncat0020 pw.x -in pw.inp   Done                     01/01/2019 10:55:14
00008 suncat0014 pw.x -in pw.inp   Done                     01/01/2019 10:55:14
00009 suncat0014 pw.x -in pw.inp   Done                     01/01/2019 10:55:14
00010 suncat0014 pw.x -in pw.inp   Done                     01/01/2019 10:55:14
00011 suncat0014 pw.x -in pw.inp   Done                     01/01/2019 10:55:14
00012 suncat0014 pw.x -in pw.inp   Done                     01/01/2019 10:55:14
00013 suncat0014 pw.x -in pw.inp   Done                     01/01/2019 10:55:14
00014 suncat0014 pw.x -in pw.inp   Done                     01/01/2019 10:55:14
00015 suncat0014 pw.x -in pw.inp   Done                     01/01/2019 10:55:14
00016 suncat0199 pw.x -in pw.inp   Done                     01/01/2019 10:55:14
00017 suncat0199 pw.x -in pw.inp   Done                     01/01/2019 10:55:14
00018 suncat0199 pw.x -in pw.inp   Done                     01/01/2019 10:55:14
00019 suncat0199 pw.x -in pw.inp   Done                     01/01/2019 10:55:14
00020 suncat0199 pw.x -in pw.inp   Done                     01/01/2019 10:55:14
00021 suncat0199 pw.x -in pw.inp   Done                     01/01/2019 10:55:14
00022 suncat0199 pw.x -in pw.inp   Done                     01/01/2019 10:55:14
00023 suncat0199 pw.x -in pw.inp   Done                     01/01/2019 10:55:14
00024 suncat0006 pw.x -in pw.inp   Done                     01/01/2019 10:55:14
00025 suncat0006 pw.x -in pw.inp   Done                     01/01/2019 10:55:14
00026 suncat0006 pw.x -in pw.inp   Done                     01/01/2019 10:55:14
00027 suncat0006 pw.x -in pw.inp   Done                     01/01/2019 10:55:14
00028 suncat0006 pw.x -in pw.inp   Done                     01/01/2019 10:55:14
00029 suncat0006 pw.x -in pw.inp   Done                     01/01/2019 10:55:14
00030 suncat0006 pw.x -in pw.inp   Done                     01/01/2019 10:55:14
00031 suncat0006 pw.x -in pw.inp   Done                     01/01/2019 10:55:14
00032 suncat0005 pw.x -in pw.inp   Done                     01/01/2019 10:55:14
00033 suncat0005 pw.x -in pw.inp   Done                     01/01/2019 10:55:14
00034 suncat0005 pw.x -in pw.inp   Done                     01/01/2019 10:55:14
00035 suncat0005 pw.x -in pw.inp   Done                     01/01/2019 10:55:14
00036 suncat0005 pw.x -in pw.inp   Done                     01/01/2019 10:55:14
00037 suncat0005 pw.x -in pw.inp   Done                     01/01/2019 10:55:14
00038 suncat0005 pw.x -in pw.inp   Done                     01/01/2019 10:55:14
00039 suncat0005 pw.x -in pw.inp   Done                     01/01/2019 10:55:14
00040 suncat0004 pw.x -in pw.inp   Done                     01/01/2019 10:55:14
00041 suncat0004 pw.x -in pw.inp   Done                     01/01/2019 10:55:14
00042 suncat0004 pw.x -in pw.inp   Done                     01/01/2019 10:55:14
00043 suncat0004 pw.x -in pw.inp   Done                     01/01/2019 10:55:14
00044 suncat0004 pw.x -in pw.inp   Done                     01/01/2019 10:55:14
00045 suncat0004 pw.x -in pw.inp   Done                     01/01/2019 10:55:14
00046 suncat0004 pw.x -in pw.inp   Done                     01/01/2019 10:55:14
00047 suncat0004 pw.x -in pw.inp   Done                     01/01/2019 10:55:14
00048 suncat0187 pw.x -in pw.inp   Done                     01/01/2019 10:55:14
00049 suncat0187 pw.x -in pw.inp   Done                     01/01/2019 10:55:14
00050 suncat0187 pw.x -in pw.inp   Done                     01/01/2019 10:55:14
00051 suncat0187 pw.x -in pw.inp   Done                     01/01/2019 10:55:14
00052 suncat0187 pw.x -in pw.inp   Done                     01/01/2019 10:55:14
00053 suncat0187 pw.x -in pw.inp   Done                     01/01/2019 10:55:14
00054 suncat0187 pw.x -in pw.inp   Done                     01/01/2019 10:55:14
00055 suncat0187 pw.x -in pw.inp   Done                     01/01/2019 10:55:14
00056 suncat0186 pw.x -in pw.inp   Done                     01/01/2019 10:55:14
00057 suncat0186 pw.x -in pw.inp   Done                     01/01/2019 10:55:14
00058 suncat0186 pw.x -in pw.inp   Done                     01/01/2019 10:55:14
00059 suncat0186 pw.x -in pw.inp   Done                     01/01/2019 10:55:14
00060 suncat0186 pw.x -in pw.inp   Done                     01/01/2019 10:55:14
00061 suncat0186 pw.x -in pw.inp   Done                     01/01/2019 10:55:14
00062 suncat0186 pw.x -in pw.inp   Done                     01/01/2019 10:55:14
00063 suncat0186 pw.x -in pw.inp   Done                     01/01/2019 10:55:14