     Program PWSCF v.5.1rc2 (svn rev. 11289) starts on 27Dec2018 at  7:43:44

     Current dimensions of program PWSCF are:
     Max number of different atomic species (ntypx) = 10
     Max number of k-points (npk) =  40000
     Max angular momentum in pseudopotentials (lmaxx) =  3
     Presently stress not available with electric field

     IMPORTANT: XC functional enforced from input :
     Exchange-correlation      = BEEF-VDW ( 1  4 27 13 2)
     Any further DFT definition will be discarded
     Please, verify this is what you really want

     Subspace diagonalization in iterative solution of the eigenvalue problem:
     a serial algorithm will be used

     bravais-lattice index     =            0
     lattice parameter (alat)  =       1.8897  a.u.
     unit-cell volume          =    4871.8038 (a.u.)^3
     number of atoms/cell      =           12
     number of atomic types    =            2
     number of electrons       =       177.00
     number of Kohn-Sham states=          118
     kinetic-energy cutoff     =      36.7493  Ry
     charge density cutoff     =     367.4932  Ry
     convergence threshold     =      1.0E-06
     mixing beta               =       0.1000
     number of iterations used =           10  plain     mixing
     Exchange-correlation      = BEEF-VDW ( 1  4 27 13 2)
     nstep                     =           50

     celldm(1)=   1.889726  celldm(2)=   0.000000  celldm(3)=   0.000000
     celldm(4)=   0.000000  celldm(5)=   0.000000  celldm(6)=   0.000000

     crystal axes: (cart. coord. in units of alat)
               a(1) = (   5.804772   0.000000   0.000000 )
               a(2) = (  -2.902386   5.027080   0.000000 )
               a(3) = (   0.000000   0.000000  24.739576 )

     reciprocal axes: (cart. coord. in units 2 pi/alat)
               b(1) = (  0.172272  0.099461  0.000000 )
               b(2) = (  0.000000  0.198923  0.000000 )
               b(3) = (  0.000000  0.000000  0.040421 )

     PseudoPot. # 1 for Nb read from file:
     /afs/slac.stanford.edu/u/if/mamunm/psp/gbrv1.5pbe/Nb.UPF
     MD5 check sum: 573aab8a2fa660278ed4a62cd769473f
     Pseudo is Ultrasoft + core correction, Zval = 13.0
     Generated by new atomic code, or converted to UPF format
     Using radial grid of  887 points,  6 beta functions with:
                l(1) =   0
                l(2) =   0
                l(3) =   1
                l(4) =   1
                l(5) =   2
                l(6) =   2
     Q(r) pseudized with  6 coefficients,  rinner =    1.000   1.000   1.000
                                                       1.000   1.000

     PseudoPot. # 2 for Zn read from file:
     /afs/slac.stanford.edu/u/if/mamunm/psp/gbrv1.5pbe/Zn.UPF
     MD5 check sum: df62231357ef9e81f77b2b3087fa5675
     Pseudo is Ultrasoft, Zval = 20.0
     Generated by new atomic code, or converted to UPF format
     Using radial grid of  943 points,  6 beta functions with:
                l(1) =   0
                l(2) =   0
                l(3) =   1
                l(4) =   1
                l(5) =   2
                l(6) =   2
     Q(r) pseudized with  8 coefficients,  rinner =    1.100   1.100   1.100
                                                       1.100   1.100

     vdW kernel table read from file vdW_kernel_table
     MD5 check sum: 095c7af220d748ca6e76c0b4c6cfb241

     atomic species   valence    mass     pseudopotential
        Nb1           13.00    92.90637     Nb( 1.00)
        Zn1           20.00    65.38000     Zn( 1.00)

     No symmetry found

   Cartesian axes

     site n.     atom                  positions (alat units)
         1           Nb1 tau(   1) = (   0.0000000   0.0000000  10.0000000  )
         2           Nb1 tau(   2) = (  -1.4511929   2.5135399  10.0000000  )
         3           Nb1 tau(   3) = (   1.4511929   2.5135399  10.0000000  )
         4           Zn1 tau(   4) = (   2.9023859   0.0000000  10.0000000  )
         5           Nb1 tau(   5) = (   2.9023859   1.6756933  12.3697881  )
         6           Nb1 tau(   6) = (   1.4511929   4.1892332  12.3697881  )
         7           Nb1 tau(   7) = (  -1.4511929   4.1892332  12.3697881  )
         8           Zn1 tau(   8) = (   0.0000000   1.6756933  12.3697881  )
         9           Nb1 tau(   9) = (  -0.0000000   3.3513865  14.7395763  )
        10           Nb1 tau(  10) = (   1.4511929   0.8378466  14.7395763  )
        11           Nb1 tau(  11) = (   4.3535788   0.8378466  14.7395763  )
        12           Zn1 tau(  12) = (   2.9023859   3.3513865  14.7395763  )

     number of k points=    20  Fermi-Dirac smearing, width (Ry)=  0.0110
                       cart. coord. in units 2pi/alat
        k(    1) = (   0.0000000   0.0000000   0.0000000), wk =   0.0555556
        k(    2) = (   0.0000000   0.0331538   0.0000000), wk =   0.1111111
        k(    3) = (   0.0000000   0.0663075   0.0000000), wk =   0.1111111
        k(    4) = (   0.0000000  -0.0994613   0.0000000), wk =   0.0555556
        k(    5) = (   0.0287120   0.0165769   0.0000000), wk =   0.1111111
        k(    6) = (   0.0287120   0.0497307   0.0000000), wk =   0.1111111
        k(    7) = (   0.0287120   0.0828844   0.0000000), wk =   0.1111111
        k(    8) = (   0.0287120  -0.0828844   0.0000000), wk =   0.1111111
        k(    9) = (   0.0287120  -0.0497307   0.0000000), wk =   0.1111111
        k(   10) = (   0.0287120  -0.0165769   0.0000000), wk =   0.1111111
        k(   11) = (   0.0574240   0.0331538   0.0000000), wk =   0.1111111
        k(   12) = (   0.0574240   0.0663075   0.0000000), wk =   0.1111111
        k(   13) = (   0.0574240   0.0994613   0.0000000), wk =   0.1111111
        k(   14) = (   0.0574240  -0.0663075   0.0000000), wk =   0.1111111
        k(   15) = (   0.0574240  -0.0331538   0.0000000), wk =   0.1111111
        k(   16) = (   0.0574240   0.0000000   0.0000000), wk =   0.1111111
        k(   17) = (  -0.0861360  -0.0497307   0.0000000), wk =   0.0555556
        k(   18) = (  -0.0861360  -0.0165769   0.0000000), wk =   0.1111111
        k(   19) = (  -0.0861360   0.0165769   0.0000000), wk =   0.1111111
        k(   20) = (  -0.0861360  -0.1491920   0.0000000), wk =   0.0555556

     Largest allocated arrays     est. size (Mb)     dimensions
     Largest temporary arrays     est. size (Mb)     dimensions

     Initial potential from superposition of free atoms
     Check: negative starting charge=   -0.004658

     starting charge  176.97498, renormalised to  177.00000

     negative rho (up, down):  4.658E-03 0.000E+00

     *
     * You are using vdW-DF for exchange-correlation in this calculation.
     * Please cite the following three references that made this development
     * possible:
     *
     *   M. Dion, H. Rydberg, E. Schroder, D. C. Langreth, and
     *   B. I. Lundqvist, Phys. Rev. Lett. 92, 246401 (2004).
     *
     *   T. Thonhauser, V. R. Cooper, S. Li, A. Puzder, P. Hyldgaard, and
     *   D. C. Langreth, Phys. Rev. B 76, 125112 (2007).
     *
     *   G. Roman-Perez and J. M. Soler, Phys. Rev. Lett. 103, 096102 (2009).
     *
     *
     * If you are using vdW-DF2, please also cite:
     *
     *   K. Lee, E. D. Murray, L. Kong, B. I. Lundqvist, and
     *   D. C. Langreth, Phys. Rev. B 82, 081101(R) (2010).
     *
     *
     * If you are calculating the stress with vdW-DF, please also cite:
     *
     *   R. Sabatini, E. Kucukbenli, B. Kolb, T. Thonhauser, and
     *   S. de Gironcoli, J. Phys.: Condens. Matter 24, 424209 (2012).
     *

     Carrying out vdW-DF run using the following parameters:

     Nqs =      20    Nr_points =    1024   r_max =   100.000
     q_mesh =
               0.00001000     0.04494208     0.09755937     0.15916263
               0.23128650     0.31572767     0.41458969     0.53033537
               0.66584808     0.82450364     1.01025438     1.22772762
               1.48234092     1.78043706     2.12944203     2.53805004
               3.01644009     3.57652955     4.23227104     5.00000000

     Gradients computed in reciprocal space

     Adding external electric field

     Computed dipole along edir(3) :
        Dipole               -0.0000 Ry au,         -0.0000 Debye
        Dipole field         -0.0000 Ry au

        Potential amp.        0.0000 Ry
        Total length         45.5822 bohr

     Starting wfc are  156 randomized atomic wfcs

     Self-consistent Calculation

     iteration #  1     ecut=    36.75 Ry     beta=0.10
     Davidson diagonalization with overlap
     ethr =  1.00E-02,  avg # of iterations =  2.0

[...]

     total energy              =   -2454.76449821 Ry
     Harris-Foulkes estimate   =   -2455.33223673 Ry
     estimated scf accuracy    <       3.47525352 Ry

[...]

     End of self-consistent calculation

          k = 0.0000 0.0000 0.0000 ( 18367 PWs)   bands (ev):

  -124.4347-124.4347-124.3411 -78.6024 -78.6024 -78.6024 -78.6023 -78.6001
   -78.6001 -78.5090 -78.5090 -78.5001 -53.5014 -53.4823 -53.3596 -53.3595
   -53.3548 -53.3548 -53.2921 -53.1771 -53.1771 -30.0647 -29.9625 -29.8709
   -29.7731 -29.7731 -29.7653 -29.7220 -29.7220 -29.6685 -29.6685 -29.5726
   -29.4414 -29.4414 -29.3294 -29.3294 -29.2324 -29.1733 -29.0615 -29.0496
   -29.0496 -28.9626 -28.9626 -28.9549 -28.9549 -28.9541 -28.8389 -28.8389
    -5.4636  -5.4636  -5.4317  -5.4261  -5.4261  -5.4188  -5.4188  -5.3948
    -5.3619  -5.3479  -5.3479  -5.3142  -5.3142  -5.2326  -5.2326  -5.1022
    -3.7329  -3.6861  -2.4589  -1.7926  -1.4981  -0.7466  -0.6384  -0.6384
    -0.4802  -0.4540  -0.4540  -0.2617  -0.2617  -0.1140  -0.1140   0.6341
     0.6341   0.9699   1.0505   1.2941   1.2941   1.7820   1.7820   2.0065
     2.0369   2.1204   2.1836   2.1836   2.2432   2.8644   2.8644   3.6106
     3.6106   3.6806   3.7747   3.7747   3.9232   3.9813   3.9813   4.2376
     4.2376   4.4597   4.4597   4.5568   4.9724   4.9724   5.2040   5.2040
     5.2447   5.3700   5.5452   5.5452   5.5807   5.6980

[...]

          k =-0.0861-0.0497 0.0000 ( 18280 PWs)   bands (ev):

[...]

     the Fermi energy is     1.6279 ev

!    total energy              =   -2454.96389634 Ry
     Harris-Foulkes estimate   =   -2454.96389467 Ry
     estimated scf accuracy    <       0.00000077 Ry

     The total energy is the sum of the following terms:

     one-electron contribution =  -16765.96011183 Ry
     hartree contribution      =    8374.39316802 Ry
     xc contribution           =    -301.59151904 Ry
     ewald contribution        =    6238.28979501 Ry
     electric field correction =       0.00000000 Ry
     smearing contrib. (-TS)   =      -0.09522850 Ry

     convergence has been achieved in  16 iterations

 BEEF-vdW xc energy contributions
           1 :   -262.565582772893
           2 :    238.612442405210
           3 :   -197.936525698659
           4 :    151.697070161480
           5 :   -110.376408335198
           6 :    80.0681785192158
           7 :   -61.2848286527786
           8 :    50.3820716361559
           9 :   -42.4483588470299
          10 :    33.9537384905822
          11 :   -23.9489207895020
          12 :    13.5863303539817
          13 :   -4.68375249920979
          14 :   -1.63788533356393
[...]

     PseudoPot. # 1 for Nb read from file:
     /afs/slac.stanford.edu/u/if/mamunm/psp/gbrv1.5pbe/Nb.UPF
     MD5 check sum: 573aab8a2fa660278ed4a62cd769473f
     Pseudo is Ultrasoft + core correction, Zval = 13.0
     Generated by new atomic code, or converted to UPF format
     Using radial grid of  887 points,  6 beta functions with:
                l(1) =   0
                l(2) =   0
                l(3) =   1
                l(4) =   1
                l(5) =   2
                l(6) =   2
     Q(r) pseudized with  6 coefficients,  rinner =    1.000   1.000   1.000
                                                       1.000   1.000

     PseudoPot. # 2 for Zn read from file:
     /afs/slac.stanford.edu/u/if/mamunm/psp/gbrv1.5pbe/Zn.UPF
     MD5 check sum: df62231357ef9e81f77b2b3087fa5675
     Pseudo is Ultrasoft, Zval = 20.0
     Generated by new atomic code, or converted to UPF format
     Using radial grid of  943 points,  6 beta functions with:
                l(1) =   0
                l(2) =   0
                l(3) =   1
                l(4) =   1
                l(5) =   2
                l(6) =   2
     Q(r) pseudized with  8 coefficients,  rinner =    1.100   1.100   1.100
                                                       1.100   1.100

     vdW kernel table read from file vdW_kernel_table
     MD5 check sum: 095c7af220d748ca6e76c0b4c6cfb241

     atomic species   valence    mass     pseudopotential
        Nb1           13.00    92.90637     Nb( 1.00)
        Zn1           20.00    65.38000     Zn( 1.00)

     No symmetry found

   Cartesian axes

     site n.     atom                  positions (alat units)
         1           Nb1 tau(   1) = (   0.0000000   0.0000000  10.0000000  )
         2           Nb1 tau(   2) = (  -1.4511929   2.5135399  10.0000000  )
         3           Nb1 tau(   3) = (   1.4511929   2.5135399  10.0000000  )
         4           Zn1 tau(   4) = (   2.9023859   0.0000000  10.0000000  )
         5           Nb1 tau(   5) = (   2.9023859   1.6756933  12.3697881  )
         6           Nb1 tau(   6) = (   1.4511929   4.1892332  12.3697881  )
         7           Nb1 tau(   7) = (  -1.4511929   4.1892332  12.3697881  )
         8           Zn1 tau(   8) = (   0.0000000   1.6756933  12.3697881  )
         9           Nb1 tau(   9) = (   0.0000161   3.3071063  14.6225797  )
        10           Nb1 tau(  10) = (   1.4128586   0.8599819  14.6225777  )
        11           Nb1 tau(  11) = (   4.3919405   0.8599791  14.6225819  )
        12           Zn1 tau(  12) = (   2.9023791   3.3513806  14.8814133  )

     number of k points=    20  Fermi-Dirac smearing, width (Ry)=  0.0110
                       cart. coord. in units 2pi/alat
        k(    1) = (   0.0000000   0.0000000   0.0000000), wk =   0.0555556
        k(    2) = (   0.0000000   0.0331538   0.0000000), wk =   0.1111111
        k(    3) = (   0.0000000   0.0663075   0.0000000), wk =   0.1111111
        k(    4) = (   0.0000000  -0.0994613   0.0000000), wk =   0.0555556
        k(    5) = (   0.0287120   0.0165769   0.0000000), wk =   0.1111111
        k(    6) = (   0.0287120   0.0497307   0.0000000), wk =   0.1111111
        k(    7) = (   0.0287120   0.0828844   0.0000000), wk =   0.1111111
        k(    8) = (   0.0287120  -0.0828844   0.0000000), wk =   0.1111111
        k(    9) = (   0.0287120  -0.0497307   0.0000000), wk =   0.1111111
        k(   10) = (   0.0287120  -0.0165769   0.0000000), wk =   0.1111111
        k(   11) = (   0.0574240   0.0331538   0.0000000), wk =   0.1111111
        k(   12) = (   0.0574240   0.0663075   0.0000000), wk =   0.1111111
        k(   13) = (   0.0574240   0.0994613   0.0000000), wk =   0.1111111
        k(   14) = (   0.0574240  -0.0663075   0.0000000), wk =   0.1111111
        k(   15) = (   0.0574240  -0.0331538   0.0000000), wk =   0.1111111
        k(   16) = (   0.0574240   0.0000000   0.0000000), wk =   0.1111111
        k(   17) = (  -0.0861360  -0.0497307   0.0000000), wk =   0.0555556
        k(   18) = (  -0.0861360  -0.0165769   0.0000000), wk =   0.1111111
        k(   19) = (  -0.0861360   0.0165769   0.0000000), wk =   0.1111111
        k(   20) = (  -0.0861360  -0.1491920   0.0000000), wk =   0.0555556

     Largest allocated arrays     est. size (Mb)     dimensions
     Largest temporary arrays     est. size (Mb)     dimensions

     Initial potential from superposition of free atoms
     Check: negative starting charge=   -0.004561

     starting charge  176.97498, renormalised to  177.00000

[...]

     *
     * You are using vdW-DF for exchange-correlation in this calculation.
     * Please cite the following three references that made this development
     * possible:
     *
     *   M. Dion, H. Rydberg, E. Schroder, D. C. Langreth, and
     *   B. I. Lundqvist, Phys. Rev. Lett. 92, 246401 (2004).
     *
     *   T. Thonhauser, V. R. Cooper, S. Li, A. Puzder, P. Hyldgaard, and
     *   D. C. Langreth, Phys. Rev. B 76, 125112 (2007).
     *
     *   G. Roman-Perez and J. M. Soler, Phys. Rev. Lett. 103, 096102 (2009).
     *
     *
     * If you are using vdW-DF2, please also cite:
     *
     *   K. Lee, E. D. Murray, L. Kong, B. I. Lundqvist, and
     *   D. C. Langreth, Phys. Rev. B 82, 081101(R) (2010).
     *
     *
     * If you are calculating the stress with vdW-DF, please also cite:
     *
     *   R. Sabatini, E. Kucukbenli, B. Kolb, T. Thonhauser, and
     *   S. de Gironcoli, J. Phys.: Condens. Matter 24, 424209 (2012).
     *

     Carrying out vdW-DF run using the following parameters:

     Nqs =      20    Nr_points =    1024   r_max =   100.000
     q_mesh =
               0.00001000     0.04494208     0.09755937     0.15916263
               0.23128650     0.31572767     0.41458969     0.53033537
               0.66584808     0.82450364     1.01025438     1.22772762
               1.48234092     1.78043706     2.12944203     2.53805004
               3.01644009     3.57652955     4.23227104     5.00000000

     Gradients computed in reciprocal space

[...]

     Starting wfc are  156 randomized atomic wfcs

     Self-consistent Calculation

[...]

     total energy              =   -2454.98130863 Ry
     Harris-Foulkes estimate   =   -2454.98130851 Ry
     estimated scf accuracy    <       0.00000108 Ry

     iteration # 17     ecut=    36.75 Ry     beta=0.10
     Davidson diagonalization with overlap
     ethr =  6.11E-10,  avg # of iterations =  2.0

[...]

     negative rho (up, down):  4.221E-03 0.000E+00

     Adding external electric field

     Computed dipole along edir(3) :
        Dipole               -0.0055 Ry au,         -0.0139 Debye
        Dipole field         -0.0000 Ry au

        Potential amp.        0.0013 Ry
        Total length         45.5822 bohr

     End of self-consistent calculation

[...]

          k = 0.0574 0.0000 0.0000 ( 18331 PWs)   bands (ev):

[...]

          k =-0.0861-0.1492 0.0000 ( 18280 PWs)   bands (ev):

  -124.4616-124.4284-124.3658 -78.6293 -78.6292 -78.6268 -78.5933 -78.5915
   -78.5914 -78.5369 -78.5367 -78.5286 -53.4743 -53.4336 -53.4216 -53.3848
   -53.3752 -53.3227 -53.2491 -53.2217 -53.1833 -29.8994 -29.8777 -29.8018
   -29.7376 -29.6648 -29.6637 -29.5993 -29.5875 -29.5456 -29.5155 -29.4996
   -29.4830 -29.4529 -29.4141 -29.4123 -29.3707 -29.3555 -29.3142 -29.1847
   -29.1732 -29.1496 -29.0263 -29.0084 -28.9841 -28.9547 -28.9467 -28.8566
    -5.4312  -5.4287  -5.4160  -5.3870  -5.3756  -5.3685  -5.3671  -5.3570
    -5.3463  -5.3255  -5.3214  -5.2727  -5.2518  -5.2449  -5.2290  -3.7984
    -3.4778  -2.8090  -2.0465  -1.6275  -1.4749  -1.1679  -0.8748  -0.4772
    -0.3036  -0.1826  -0.1221  -0.0548   0.0154   0.1148   0.1525   0.5570
     0.5983   0.6142   0.7215   0.9360   1.1278   1.1669   1.1909   1.3393
     1.3994   1.4691   1.8795   1.8955   1.9256   2.0861   2.1662   2.3133
     2.8581   3.2325   3.2644   3.3230   3.3822   3.5198   3.6432   3.8055
     3.8222   3.9350   4.0718   4.2093   4.2840   4.4314   4.5643   4.7714
     5.1369   5.4093   5.5623   5.8620   6.4160   6.5900

     the Fermi energy is     1.6044 ev

!    total energy              =   -2454.98131017 Ry
     Harris-Foulkes estimate   =   -2454.98130871 Ry
     estimated scf accuracy    <       0.00000035 Ry

     The total energy is the sum of the following terms:

     one-electron contribution =  -16830.21519274 Ry
     hartree contribution      =    8406.45939995 Ry
     xc contribution           =    -301.72778237 Ry
     ewald contribution        =    6270.59369620 Ry
     electric field correction =       0.00000008 Ry
     smearing contrib. (-TS)   =      -0.09143128 Ry

     convergence has been achieved in  17 iterations

 BEEF-vdW xc energy contributions
           1 :   -262.903004019561
           2 :    238.987651363680
           3 :   -198.358408178967
           4 :    152.132845291000
           5 :   -110.763646303922
           6 :    80.3492643805417
           7 :   -61.4429650148428
           8 :    50.4560259127039
           9 :   -42.5146155095572
          10 :    34.0855617877244
          11 :   -24.1771877946667
          12 :    13.8844783182662
          13 :   -4.98486260876649
          14 :   -1.40220354473530
          15 :    5.36180816776977
          16 :   -7.85479042264535
          17 :    9.94334583269330
          18 :   -12.1632609528306
          19 :    14.3825825453467
          20 :   -16.1114597535735
          21 :    16.9428638675824
          22 :   -16.8071118586567
          23 :    15.9228340182945
          24 :   -14.5763679030044
          25 :    12.9466233048506
          26 :   -11.1056556528895
          27 :    9.14032701205349
          28 :   -7.24449294198797
          29 :    5.67135494534978
          30 :   -4.58002032031720
          31 :   -25.8579990757761
          32 :   -18.9235478389191

     Forces acting on atoms (Ry/au):

     negative rho (up, down):  4.221E-03 0.000E+00
     atom    1 type  1   force =    -0.00000053    0.01146895    0.01788691
     atom    2 type  1   force =     0.00993186   -0.00573437    0.01788732
     atom    3 type  1   force =    -0.00993232   -0.00573412    0.01788721
     atom    4 type  2   force =    -0.00000276   -0.00000165   -0.01688300
     atom    5 type  1   force =     0.00000100    0.00709242   -0.00448843
     atom    6 type  1   force =     0.00614240   -0.00354605   -0.00448932
     atom    7 type  1   force =    -0.00614222   -0.00354708   -0.00448811
     atom    8 type  2   force =     0.00000057   -0.00000152   -0.02572098
     atom    9 type  1   force =    -0.00000257   -0.00024359    0.00074185
     atom   10 type  1   force =    -0.00021077    0.00012124    0.00074186
     atom   11 type  1   force =     0.00020904    0.00012313    0.00074158
     atom   12 type  2   force =     0.00000629    0.00000264    0.00018311

     Total force =     0.050142     Total SCF correction =     0.001779

     entering subroutine stress ...

     negative rho (up, down):  4.221E-03 0.000E+00
          total   stress  (Ry/bohr**3)                   (kbar)     P=  -13.20
  -0.00011238   0.00000000   0.00000000        -16.53      0.00      0.00
   0.00000000  -0.00011238   0.00000000          0.00    -16.53      0.00
   0.00000000   0.00000000  -0.00004434          0.00      0.00     -6.52

 !ASE

     Writing output data file calc.save

     General routines

     Parallel routines

   This run was terminated on:   9:25:16  27Dec2018

   JOB DONE.
Job  /afs/slac/g/suncat/bin/suncat-tsmpirun -x LD_LIBRARY_PATH -wdir /scratch/qe110227_VeOnI pw.x -in pw.inp

TID   HOST_NAME   COMMAND_LINE            STATUS            TERMINATION_TIME
00000 suncat0163 pw.x -in pw.inp   Done                     12/27/2018 09:25:16
00001 suncat0163 pw.x -in pw.inp   Done                     12/27/2018 09:25:16
00002 suncat0163 pw.x -in pw.inp   Done                     12/27/2018 09:25:16
00003 suncat0163 pw.x -in pw.inp   Done                     12/27/2018 09:25:16
00004 suncat0163 pw.x -in pw.inp   Done                     12/27/2018 09:25:16
00005 suncat0163 pw.x -in pw.inp   Done                     12/27/2018 09:25:16
00006 suncat0163 pw.x -in pw.inp   Done                     12/27/2018 09:25:16
00007 suncat0163 pw.x -in pw.inp   Done                     12/27/2018 09:25:16
00008 suncat0162 pw.x -in pw.inp   Done                     12/27/2018 09:25:16
00009 suncat0162 pw.x -in pw.inp   Done                     12/27/2018 09:25:16
00010 suncat0162 pw.x -in pw.inp   Done                     12/27/2018 09:25:16
00011 suncat0162 pw.x -in pw.inp   Done                     12/27/2018 09:25:16
00012 suncat0162 pw.x -in pw.inp   Done                     12/27/2018 09:25:16
00013 suncat0162 pw.x -in pw.inp   Done                     12/27/2018 09:25:16
00014 suncat0162 pw.x -in pw.inp   Done                     12/27/2018 09:25:16
00015 suncat0162 pw.x -in pw.inp   Done                     12/27/2018 09:25:16
00016 suncat0145 pw.x -in pw.inp   Done                     12/27/2018 09:25:16
00017 suncat0145 pw.x -in pw.inp   Done                     12/27/2018 09:25:16
00018 suncat0145 pw.x -in pw.inp   Done                     12/27/2018 09:25:16
00019 suncat0145 pw.x -in pw.inp   Done                     12/27/2018 09:25:16
00020 suncat0145 pw.x -in pw.inp   Done                     12/27/2018 09:25:16
00021 suncat0145 pw.x -in pw.inp   Done                     12/27/2018 09:25:16
00022 suncat0145 pw.x -in pw.inp   Done                     12/27/2018 09:25:16
00023 suncat0145 pw.x -in pw.inp   Done                     12/27/2018 09:25:16
00024 suncat0144 pw.x -in pw.inp   Done                     12/27/2018 09:25:16
00025 suncat0144 pw.x -in pw.inp   Done                     12/27/2018 09:25:16
00026 suncat0144 pw.x -in pw.inp   Done                     12/27/2018 09:25:16
00027 suncat0144 pw.x -in pw.inp   Done                     12/27/2018 09:25:16
00028 suncat0144 pw.x -in pw.inp   Done                     12/27/2018 09:25:16
00029 suncat0144 pw.x -in pw.inp   Done                     12/27/2018 09:25:16
00030 suncat0144 pw.x -in pw.inp   Done                     12/27/2018 09:25:16
00031 suncat0144 pw.x -in pw.inp   Done                     12/27/2018 09:25:16
00032 suncat0133 pw.x -in pw.inp   Done                     12/27/2018 09:25:16
00033 suncat0133 pw.x -in pw.inp   Done                     12/27/2018 09:25:16
00034 suncat0133 pw.x -in pw.inp   Done                     12/27/2018 09:25:16
00035 suncat0133 pw.x -in pw.inp   Done                     12/27/2018 09:25:16
00036 suncat0133 pw.x -in pw.inp   Done                     12/27/2018 09:25:16
00037 suncat0133 pw.x -in pw.inp   Done                     12/27/2018 09:25:16
00038 suncat0133 pw.x -in pw.inp   Done                     12/27/2018 09:25:16
00039 suncat0133 pw.x -in pw.inp   Done                     12/27/2018 09:25:16
00040 suncat0132 pw.x -in pw.inp   Done                     12/27/2018 09:25:16
00041 suncat0132 pw.x -in pw.inp   Done                     12/27/2018 09:25:16
00042 suncat0132 pw.x -in pw.inp   Done                     12/27/2018 09:25:16
00043 suncat0132 pw.x -in pw.inp   Done                     12/27/2018 09:25:16
00044 suncat0132 pw.x -in pw.inp   Done                     12/27/2018 09:25:16
00045 suncat0132 pw.x -in pw.inp   Done                     12/27/2018 09:25:16
00046 suncat0132 pw.x -in pw.inp   Done                     12/27/2018 09:25:16
00047 suncat0132 pw.x -in pw.inp   Done                     12/27/2018 09:25:16
00048 suncat0131 pw.x -in pw.inp   Done                     12/27/2018 09:25:16
00049 suncat0131 pw.x -in pw.inp   Done                     12/27/2018 09:25:16
00050 suncat0131 pw.x -in pw.inp   Done                     12/27/2018 09:25:16
00051 suncat0131 pw.x -in pw.inp   Done                     12/27/2018 09:25:16
00052 suncat0131 pw.x -in pw.inp   Done                     12/27/2018 09:25:16
00053 suncat0131 pw.x -in pw.inp   Done                     12/27/2018 09:25:16
00054 suncat0131 pw.x -in pw.inp   Done                     12/27/2018 09:25:16
00055 suncat0131 pw.x -in pw.inp   Done                     12/27/2018 09:25:16
00056 suncat0130 pw.x -in pw.inp   Done                     12/27/2018 09:25:16
00057 suncat0130 pw.x -in pw.inp   Done                     12/27/2018 09:25:16
00058 suncat0130 pw.x -in pw.inp   Done                     12/27/2018 09:25:16
00059 suncat0130 pw.x -in pw.inp   Done                     12/27/2018 09:25:16
00060 suncat0130 pw.x -in pw.inp   Done                     12/27/2018 09:25:16
00061 suncat0130 pw.x -in pw.inp   Done                     12/27/2018 09:25:16
00062 suncat0130 pw.x -in pw.inp   Done                     12/27/2018 09:25:16
00063 suncat0130 pw.x -in pw.inp   Done                     12/27/2018 09:25:16