     Program PWSCF v.5.1rc2 (svn rev. 11289) starts on 26Dec2018 at 13:56:55

     Current dimensions of program PWSCF are:
     Max number of different atomic species (ntypx) = 10
     Max number of k-points (npk) =  40000
     Max angular momentum in pseudopotentials (lmaxx) =  3
     Presently stress not available with electric field

     IMPORTANT: XC functional enforced from input :
     Exchange-correlation      = BEEF-VDW ( 1  4 27 13 2)
     Any further DFT definition will be discarded
     Please, verify this is what you really want

     Subspace diagonalization in iterative solution of the eigenvalue problem:
     a serial algorithm will be used

     bravais-lattice index     =            0
     lattice parameter (alat)  =       1.8897  a.u.
     unit-cell volume          =    7231.2856 (a.u.)^3
     number of atoms/cell      =           12
     number of atomic types    =            2
     number of electrons       =       156.00
     number of Kohn-Sham states=          108
     kinetic-energy cutoff     =      36.7493  Ry
     charge density cutoff     =     367.4932  Ry
     convergence threshold     =      1.0E-06
     mixing beta               =       0.1000
     number of iterations used =           10  plain     mixing
     Exchange-correlation      = BEEF-VDW ( 1  4 27 13 2)
     nstep                     =           50

     celldm(1)=   1.889726  celldm(2)=   0.000000  celldm(3)=   0.000000
     celldm(4)=   0.000000  celldm(5)=   0.000000  celldm(6)=   0.000000

     crystal axes: (cart. coord. in units of alat)
               a(1) = (   6.942900   0.000000   0.000000 )
               a(2) = (  -3.471450   6.012728   0.000000 )
               a(3) = (   0.000000   0.000000  25.668854 )

     reciprocal axes: (cart. coord. in units 2 pi/alat)
               b(1) = (  0.144032  0.083157  0.000000 )
               b(2) = (  0.000000  0.166314  0.000000 )
               b(3) = (  0.000000  0.000000  0.038958 )

     PseudoPot. # 1 for In read from file:
     /afs/slac.stanford.edu/u/if/mamunm/psp/gbrv1.5pbe/In.UPF
     MD5 check sum: 90777abd96fbb83f2e67db2a40c566b9
     Pseudo is Ultrasoft + core correction, Zval = 13.0
     Generated by new atomic code, or converted to UPF format
     Using radial grid of  889 points,  6 beta functions with:
                l(1) =   0
                l(2) =   0
                l(3) =   1
                l(4) =   1
                l(5) =   2
                l(6) =   2
     Q(r) pseudized with  6 coefficients,  rinner =    1.400   1.400   1.400
                                                       1.400   1.400

     PseudoPot. # 2 for Tl read from file:
     /afs/slac.stanford.edu/u/if/mamunm/psp/gbrv1.5pbe/Tl.UPF
     MD5 check sum: b76cf1f7e72655a2b2c53cf6385d7059
     Pseudo is Ultrasoft + core correction, Zval = 13.0
     Generated by new atomic code, or converted to UPF format
     Using radial grid of  899 points,  6 beta functions with:
                l(1) =   0
                l(2) =   0
                l(3) =   1
                l(4) =   1
                l(5) =   2
                l(6) =   2
     Q(r) pseudized with  6 coefficients,  rinner =    1.100   1.100   1.100
                                                       1.100   1.100

     vdW kernel table read from file vdW_kernel_table
     MD5 check sum: 095c7af220d748ca6e76c0b4c6cfb241

     atomic species   valence    mass     pseudopotential
        In1           13.00   114.81800     In( 1.00)
        Tl1           13.00   204.38000     Tl( 1.00)

     No symmetry found

   Cartesian axes

     site n.     atom                  positions (alat units)
         1           In1 tau(   1) = (   0.0000000   0.0000000  10.0000000  )
         2           In1 tau(   2) = (  -1.7357250   3.0063638  10.0000000  )
         3           In1 tau(   3) = (   1.7357250   3.0063638  10.0000000  )
         4           Tl1 tau(   4) = (   3.4714499   0.0000000  10.0000000  )
         5           In1 tau(   5) = (   3.4714499   2.0042425  12.8344270  )
         6           In1 tau(   6) = (   1.7357250   5.0106064  12.8344270  )
         7           In1 tau(   7) = (  -1.7357250   5.0106064  12.8344270  )
         8           Tl1 tau(   8) = (   0.0000000   2.0042425  12.8344270  )
         9           In1 tau(   9) = (  -0.0000000   4.0084851  15.6688540  )
        10           In1 tau(  10) = (   1.7357250   1.0021213  15.6688540  )
        11           In1 tau(  11) = (   5.2071749   1.0021213  15.6688540  )
        12           Tl1 tau(  12) = (   3.4714499   4.0084851  15.6688540  )

     number of k points=    20  Fermi-Dirac smearing, width (Ry)=  0.0110
                       cart. coord. in units 2pi/alat
        k(    1) = (   0.0000000   0.0000000   0.0000000), wk =   0.0555556
        k(    2) = (   0.0000000   0.0277190   0.0000000), wk =   0.1111111
        k(    3) = (   0.0000000   0.0554380   0.0000000), wk =   0.1111111
        k(    4) = (   0.0000000  -0.0831569   0.0000000), wk =   0.0555556
        k(    5) = (   0.0240053   0.0138595   0.0000000), wk =   0.1111111
        k(    6) = (   0.0240053   0.0415785   0.0000000), wk =   0.1111111
        k(    7) = (   0.0240053   0.0692974   0.0000000), wk =   0.1111111
        k(    8) = (   0.0240053  -0.0692974   0.0000000), wk =   0.1111111
        k(    9) = (   0.0240053  -0.0415785   0.0000000), wk =   0.1111111
        k(   10) = (   0.0240053  -0.0138595   0.0000000), wk =   0.1111111
        k(   11) = (   0.0480107   0.0277190   0.0000000), wk =   0.1111111
        k(   12) = (   0.0480107   0.0554380   0.0000000), wk =   0.1111111
        k(   13) = (   0.0480107   0.0831569   0.0000000), wk =   0.1111111
        k(   14) = (   0.0480107  -0.0554380   0.0000000), wk =   0.1111111
        k(   15) = (   0.0480107  -0.0277190   0.0000000), wk =   0.1111111
        k(   16) = (   0.0480107   0.0000000   0.0000000), wk =   0.1111111
        k(   17) = (  -0.0720160  -0.0415785   0.0000000), wk =   0.0555556
        k(   18) = (  -0.0720160  -0.0138595   0.0000000), wk =   0.1111111
        k(   19) = (  -0.0720160   0.0138595   0.0000000), wk =   0.1111111
        k(   20) = (  -0.0720160  -0.1247354   0.0000000), wk =   0.0555556

     Largest allocated arrays     est. size (Mb)     dimensions
     Largest temporary arrays     est. size (Mb)     dimensions

     Initial potential from superposition of free atoms
     Check: negative starting charge=   -0.153527

     starting charge  142.48540, renormalised to  156.00000

     negative rho (up, down):  1.681E-01 0.000E+00

     *
     * You are using vdW-DF for exchange-correlation in this calculation.
     * Please cite the following three references that made this development
     * possible:
     *
     *   M. Dion, H. Rydberg, E. Schroder, D. C. Langreth, and
     *   B. I. Lundqvist, Phys. Rev. Lett. 92, 246401 (2004).
     *
     *   T. Thonhauser, V. R. Cooper, S. Li, A. Puzder, P. Hyldgaard, and
     *   D. C. Langreth, Phys. Rev. B 76, 125112 (2007).
     *
     *   G. Roman-Perez and J. M. Soler, Phys. Rev. Lett. 103, 096102 (2009).
     *
     *
     * If you are using vdW-DF2, please also cite:
     *
     *   K. Lee, E. D. Murray, L. Kong, B. I. Lundqvist, and
     *   D. C. Langreth, Phys. Rev. B 82, 081101(R) (2010).
     *
     *
     * If you are calculating the stress with vdW-DF, please also cite:
     *
     *   R. Sabatini, E. Kucukbenli, B. Kolb, T. Thonhauser, and
     *   S. de Gironcoli, J. Phys.: Condens. Matter 24, 424209 (2012).
     *

     Carrying out vdW-DF run using the following parameters:

     Nqs =      20    Nr_points =    1024   r_max =   100.000
     q_mesh =
               0.00001000     0.04494208     0.09755937     0.15916263
               0.23128650     0.31572767     0.41458969     0.53033537
               0.66584808     0.82450364     1.01025438     1.22772762
               1.48234092     1.78043706     2.12944203     2.53805004
               3.01644009     3.57652955     4.23227104     5.00000000

     Gradients computed in reciprocal space

     Adding external electric field

     Computed dipole along edir(3) :
        Dipole                0.0000 Ry au,          0.0000 Debye
        Dipole field          0.0000 Ry au

        Potential amp.       -0.0000 Ry
        Total length         47.2944 bohr

     Starting wfc are  108 randomized atomic wfcs

     Self-consistent Calculation

     iteration #  1     ecut=    36.75 Ry     beta=0.10
     Davidson diagonalization with overlap
     ethr =  1.00E-02,  avg # of iterations =  7.5

[...]

     total energy              =   -1657.15292765 Ry
     Harris-Foulkes estimate   =   -1661.24315207 Ry
     estimated scf accuracy    <      24.70863500 Ry

[...]

     End of self-consistent calculation

          k = 0.0000 0.0000 0.0000 ( 27273 PWs)   bands (ev):

   -14.6570 -14.6445 -14.6445 -14.6434 -14.6225 -14.6186 -14.6186 -14.6011
   -14.5836 -14.5836 -14.5804 -14.5802 -14.5696 -14.5635 -14.5635 -14.5505
   -14.5505 -14.5498 -14.5402 -14.5402 -14.5023 -14.5023 -14.4992 -14.4992
   -14.4988 -14.4939 -14.4766 -14.4766 -14.4649 -14.4581 -14.4581 -14.4422
   -14.4422 -14.4277 -14.4277 -14.4035 -14.4035 -14.3873 -14.3845 -14.3845
   -14.3658 -14.3604 -14.3394 -14.3394 -14.3140 -11.3793 -11.3776 -11.3645
   -11.3645 -11.3603 -11.3603 -11.3569 -11.3569 -11.3525 -11.3525 -11.3259
   -11.3189 -11.3189 -11.3049 -11.3049  -8.3149  -7.1867  -5.6674  -4.4809
    -4.3038  -3.8276  -3.8276  -3.5218  -3.5083  -3.5083  -2.5492  -2.5492
    -1.8847  -1.7965  -1.7965  -1.4659  -0.6767  -0.5950  -0.4927  -0.4927
    -0.3371  -0.3371   1.0711   2.8920   2.8920   2.9057   2.9057   2.9351
     2.9399   3.0203   3.5783   4.2296   4.4879   4.4882   4.6307   4.6307
     5.1218   5.1269   5.1269   5.6193   5.7984   5.7984   6.0094   6.0432
     6.1562   6.2962   6.2962   6.9373

[...]

          k =-0.0720-0.0416 0.0000 ( 27174 PWs)   bands (ev):

[...]

     the Fermi energy is     0.3167 ev

!    total energy              =   -1653.37514522 Ry
     Harris-Foulkes estimate   =   -1653.37707708 Ry
     estimated scf accuracy    <       0.00000099 Ry

     The total energy is the sum of the following terms:

     one-electron contribution =   -8199.23958528 Ry
     hartree contribution      =    4177.81276471 Ry
     xc contribution           =    -543.73512333 Ry
     ewald contribution        =    2911.82950725 Ry
     electric field correction =       0.00000000 Ry
     smearing contrib. (-TS)   =      -0.04270858 Ry

     convergence has been achieved in  15 iterations

 BEEF-vdW xc energy contributions
           1 :   -479.140219071432
           2 :    440.101651391746
           3 :   -373.479963032871
           4 :    296.924859464881
           5 :   -226.933504325567
           6 :    173.051899338440
           7 :   -136.075200915095
           8 :    110.427171610134
           9 :   -88.8785438982015
          10 :    66.8270191419980
          11 :   -44.0409071854292
          12 :    23.4701379543368
          13 :   -8.44607156481084
          14 :   0.245201548363866
          15 :    2.59496858419334
          16 :   -3.14755079420456
[...]
     Generated by new atomic code, or converted to UPF format
     Using radial grid of  889 points,  6 beta functions with:
                l(1) =   0
                l(2) =   0
                l(3) =   1
                l(4) =   1
                l(5) =   2
                l(6) =   2
     Q(r) pseudized with  6 coefficients,  rinner =    1.400   1.400   1.400
                                                       1.400   1.400

     PseudoPot. # 2 for Tl read from file:
     /afs/slac.stanford.edu/u/if/mamunm/psp/gbrv1.5pbe/Tl.UPF
     MD5 check sum: b76cf1f7e72655a2b2c53cf6385d7059
     Pseudo is Ultrasoft + core correction, Zval = 13.0
     Generated by new atomic code, or converted to UPF format
     Using radial grid of  899 points,  6 beta functions with:
                l(1) =   0
                l(2) =   0
                l(3) =   1
                l(4) =   1
                l(5) =   2
                l(6) =   2
     Q(r) pseudized with  6 coefficients,  rinner =    1.100   1.100   1.100
                                                       1.100   1.100

     vdW kernel table read from file vdW_kernel_table
     MD5 check sum: 095c7af220d748ca6e76c0b4c6cfb241

     atomic species   valence    mass     pseudopotential
        In1           13.00   114.81800     In( 1.00)
        Tl1           13.00   204.38000     Tl( 1.00)

     No symmetry found

   Cartesian axes

     site n.     atom                  positions (alat units)
         1           In1 tau(   1) = (   0.0000000   0.0000000  10.0000000  )
         2           In1 tau(   2) = (  -1.7357250   3.0063638  10.0000000  )
         3           In1 tau(   3) = (   1.7357250   3.0063638  10.0000000  )
         4           Tl1 tau(   4) = (   3.4714499   0.0000000  10.0000000  )
         5           In1 tau(   5) = (   3.4714499   2.0042425  12.8344270  )
         6           In1 tau(   6) = (   1.7357250   5.0106064  12.8344270  )
         7           In1 tau(   7) = (  -1.7357250   5.0106064  12.8344270  )
         8           Tl1 tau(   8) = (   0.0000000   2.0042425  12.8344270  )
         9           In1 tau(   9) = (  -0.0000066   4.0501541  15.6513517  )
        10           In1 tau(  10) = (   1.7716861   0.9816120  15.6513798  )
        11           In1 tau(  11) = (   5.1712494   0.9816286  15.6513920  )
        12           Tl1 tau(  12) = (   3.4714253   4.0088418  15.8180012  )

     number of k points=    20  Fermi-Dirac smearing, width (Ry)=  0.0110
                       cart. coord. in units 2pi/alat
        k(    1) = (   0.0000000   0.0000000   0.0000000), wk =   0.0555556
        k(    2) = (   0.0000000   0.0277190   0.0000000), wk =   0.1111111
        k(    3) = (   0.0000000   0.0554380   0.0000000), wk =   0.1111111
        k(    4) = (   0.0000000  -0.0831569   0.0000000), wk =   0.0555556
        k(    5) = (   0.0240053   0.0138595   0.0000000), wk =   0.1111111
        k(    6) = (   0.0240053   0.0415785   0.0000000), wk =   0.1111111
        k(    7) = (   0.0240053   0.0692974   0.0000000), wk =   0.1111111
        k(    8) = (   0.0240053  -0.0692974   0.0000000), wk =   0.1111111
        k(    9) = (   0.0240053  -0.0415785   0.0000000), wk =   0.1111111
        k(   10) = (   0.0240053  -0.0138595   0.0000000), wk =   0.1111111
        k(   11) = (   0.0480107   0.0277190   0.0000000), wk =   0.1111111
        k(   12) = (   0.0480107   0.0554380   0.0000000), wk =   0.1111111
        k(   13) = (   0.0480107   0.0831569   0.0000000), wk =   0.1111111
        k(   14) = (   0.0480107  -0.0554380   0.0000000), wk =   0.1111111
        k(   15) = (   0.0480107  -0.0277190   0.0000000), wk =   0.1111111
        k(   16) = (   0.0480107   0.0000000   0.0000000), wk =   0.1111111
        k(   17) = (  -0.0720160  -0.0415785   0.0000000), wk =   0.0555556
        k(   18) = (  -0.0720160  -0.0138595   0.0000000), wk =   0.1111111
        k(   19) = (  -0.0720160   0.0138595   0.0000000), wk =   0.1111111
        k(   20) = (  -0.0720160  -0.1247354   0.0000000), wk =   0.0555556

     Largest allocated arrays     est. size (Mb)     dimensions
     Largest temporary arrays     est. size (Mb)     dimensions

     Initial potential from superposition of free atoms
     Check: negative starting charge=   -0.153424

     starting charge  142.48540, renormalised to  156.00000

[...]

     *
     * You are using vdW-DF for exchange-correlation in this calculation.
     * Please cite the following three references that made this development
     * possible:
     *
     *   M. Dion, H. Rydberg, E. Schroder, D. C. Langreth, and
     *   B. I. Lundqvist, Phys. Rev. Lett. 92, 246401 (2004).
     *
     *   T. Thonhauser, V. R. Cooper, S. Li, A. Puzder, P. Hyldgaard, and
     *   D. C. Langreth, Phys. Rev. B 76, 125112 (2007).
     *
     *   G. Roman-Perez and J. M. Soler, Phys. Rev. Lett. 103, 096102 (2009).
     *
     *
     * If you are using vdW-DF2, please also cite:
     *
     *   K. Lee, E. D. Murray, L. Kong, B. I. Lundqvist, and
     *   D. C. Langreth, Phys. Rev. B 82, 081101(R) (2010).
     *
     *
     * If you are calculating the stress with vdW-DF, please also cite:
     *
     *   R. Sabatini, E. Kucukbenli, B. Kolb, T. Thonhauser, and
     *   S. de Gironcoli, J. Phys.: Condens. Matter 24, 424209 (2012).
     *

     Carrying out vdW-DF run using the following parameters:

     Nqs =      20    Nr_points =    1024   r_max =   100.000
     q_mesh =
               0.00001000     0.04494208     0.09755937     0.15916263
               0.23128650     0.31572767     0.41458969     0.53033537
               0.66584808     0.82450364     1.01025438     1.22772762
               1.48234092     1.78043706     2.12944203     2.53805004
               3.01644009     3.57652955     4.23227104     5.00000000

     Gradients computed in reciprocal space

[...]

     Starting wfc are  108 randomized atomic wfcs

     Self-consistent Calculation

[...]

     iteration #  9     ecut=    36.75 Ry     beta=0.10
     Davidson diagonalization with overlap
     c_bands:  1 eigenvalues not converged
     ethr =  8.11E-06,  avg # of iterations =  3.1

[...]

     total energy              =   -1653.37818560 Ry
     Harris-Foulkes estimate   =   -1653.37818031 Ry
     estimated scf accuracy    <       0.00000179 Ry

     iteration # 16     ecut=    36.75 Ry     beta=0.10
     Davidson diagonalization with overlap
     ethr =  1.14E-09,  avg # of iterations =  2.0

[...]

     negative rho (up, down):  1.575E-01 0.000E+00

     Adding external electric field

     Computed dipole along edir(3) :
        Dipole                0.0064 Ry au,          0.0161 Debye
        Dipole field          0.0000 Ry au

        Potential amp.       -0.0010 Ry
        Total length         47.2944 bohr

     End of self-consistent calculation

[...]

          k = 0.0480 0.0000 0.0000 ( 27215 PWs)   bands (ev):

[...]

          k =-0.0720-0.1247 0.0000 ( 27174 PWs)   bands (ev):

   -14.6275 -14.6133 -14.5877 -14.5854 -14.5702 -14.5659 -14.5628 -14.5576
   -14.5522 -14.5486 -14.5474 -14.5403 -14.5368 -14.5354 -14.5322 -14.5256
   -14.5244 -14.5178 -14.5153 -14.5146 -14.5080 -14.5047 -14.5020 -14.4975
   -14.4888 -14.4867 -14.4741 -14.4731 -14.4628 -14.4527 -14.4513 -14.4479
   -14.4398 -14.4258 -14.4252 -14.4227 -14.4122 -14.4104 -14.4035 -14.4010
   -14.3993 -14.3843 -14.3682 -14.3642 -14.3170 -11.3879 -11.3726 -11.3688
   -11.3661 -11.3658 -11.3636 -11.3544 -11.3498 -11.3445 -11.3436 -11.3271
   -11.3224 -11.3155 -11.3058 -11.3033  -7.2802  -7.1038  -6.2834  -5.8991
    -5.2013  -4.6740  -4.5549  -4.1267  -3.8109  -3.6092  -2.9059  -2.2163
    -0.3431  -0.3066   0.0287   0.0437   0.1424   0.3299   1.0076   1.2382
     1.2738   1.2973   1.8329   1.9183   2.3302   2.4112   2.4884   2.5914
     3.0233   3.1257   3.2768   3.3428   3.4108   3.4462   3.9840   4.0359
     4.0804   4.1070   4.5679   4.5962   4.8299   4.9961   5.2696   5.2769
     5.4792   5.5168   5.7204   5.7703

     the Fermi energy is     0.3283 ev

!    total energy              =   -1653.37818557 Ry
     Harris-Foulkes estimate   =   -1653.37818596 Ry
     estimated scf accuracy    <       0.00000037 Ry

     The total energy is the sum of the following terms:

     one-electron contribution =   -8171.28226380 Ry
     hartree contribution      =    4163.86955266 Ry
     xc contribution           =    -543.72613533 Ry
     ewald contribution        =    2897.80290625 Ry
     electric field correction =       0.00000007 Ry
     smearing contrib. (-TS)   =      -0.04224541 Ry

     convergence has been achieved in  16 iterations

 BEEF-vdW xc energy contributions
           1 :   -479.185683116922
           2 :    440.137336510380
           3 :   -373.506317917839
           4 :    296.953186773908
           5 :   -226.976739768690
           6 :    173.114284607615
           7 :   -136.148406727854
           8 :    110.495208326963
           9 :   -88.9281169222932
          10 :    66.8565115570269
          11 :   -44.0619593909378
          12 :    23.5009778375672
          13 :   -8.49987543610655
          14 :   0.321225087815151
          15 :    2.51077654718517
          16 :   -3.07321423990993
          17 :    4.13975650635473
          18 :   -6.81804283928898
          19 :    10.4347083837604
          20 :   -13.4787339350124
          21 :    14.8042886814701
          22 :   -14.3116173410536
          23 :    12.8091635926769
          24 :   -11.3431170579573
          25 :    10.5452103944370
          26 :   -10.4065749079531
          27 :    10.4992765401712
          28 :   -10.3719668844211
          29 :    9.81112024955479
          30 :   -8.85611220871476
          31 :   -41.6228468591730
          32 :   -30.1941044114358

     Forces acting on atoms (Ry/au):

     negative rho (up, down):  1.575E-01 0.000E+00
     atom    1 type  1   force =    -0.00000096   -0.00262972    0.00066009
     atom    2 type  1   force =    -0.00227331    0.00130467    0.00066597
     atom    3 type  1   force =     0.00227337    0.00130590    0.00066575
     atom    4 type  2   force =     0.00000139   -0.00001237   -0.00643344
     atom    5 type  1   force =     0.00000004    0.00207445    0.00156801
     atom    6 type  1   force =     0.00180375   -0.00104898    0.00156578
     atom    7 type  1   force =    -0.00180461   -0.00104933    0.00156579
     atom    8 type  2   force =    -0.00000036   -0.00000700    0.00110358
     atom    9 type  1   force =    -0.00000067   -0.00158233   -0.00081469
     atom   10 type  1   force =    -0.00135209    0.00081623   -0.00081309
     atom   11 type  1   force =     0.00135080    0.00081638   -0.00081301
     atom   12 type  2   force =     0.00000266    0.00001210    0.00107927

     Total force =     0.009778     Total SCF correction =     0.001769
     SCF correction compared to forces is large: reduce conv_thr to get better values

     entering subroutine stress ...

     negative rho (up, down):  1.575E-01 0.000E+00
          total   stress  (Ry/bohr**3)                   (kbar)     P=   -4.07
  -0.00003576  -0.00000000   0.00000000         -5.26     -0.00      0.00
  -0.00000000  -0.00003574   0.00000000         -0.00     -5.26      0.00
   0.00000000   0.00000000  -0.00001154          0.00      0.00     -1.70

 !ASE

     Writing output data file calc.save

     General routines

     Parallel routines

   This run was terminated on:  15:33:28  26Dec2018

   JOB DONE.
Job  /afs/slac/g/suncat/bin/suncat-tsmpirun -x LD_LIBRARY_PATH -wdir /scratch/qe109906_5mOnP pw.x -in pw.inp

TID   HOST_NAME   COMMAND_LINE            STATUS            TERMINATION_TIME
00000 suncat0108 pw.x -in pw.inp   Done                     12/26/2018 15:33:28
00001 suncat0108 pw.x -in pw.inp   Done                     12/26/2018 15:33:28
00002 suncat0108 pw.x -in pw.inp   Done                     12/26/2018 15:33:28
00003 suncat0108 pw.x -in pw.inp   Done                     12/26/2018 15:33:28
00004 suncat0108 pw.x -in pw.inp   Done                     12/26/2018 15:33:28
00005 suncat0108 pw.x -in pw.inp   Done                     12/26/2018 15:33:28
00006 suncat0108 pw.x -in pw.inp   Done                     12/26/2018 15:33:28
00007 suncat0108 pw.x -in pw.inp   Done                     12/26/2018 15:33:28
00008 suncat0107 pw.x -in pw.inp   Done                     12/26/2018 15:33:28
00009 suncat0107 pw.x -in pw.inp   Done                     12/26/2018 15:33:28
00010 suncat0107 pw.x -in pw.inp   Done                     12/26/2018 15:33:28
00011 suncat0107 pw.x -in pw.inp   Done                     12/26/2018 15:33:28
00012 suncat0107 pw.x -in pw.inp   Done                     12/26/2018 15:33:28
00013 suncat0107 pw.x -in pw.inp   Done                     12/26/2018 15:33:28
00014 suncat0107 pw.x -in pw.inp   Done                     12/26/2018 15:33:28
00015 suncat0107 pw.x -in pw.inp   Done                     12/26/2018 15:33:28
00016 suncat0106 pw.x -in pw.inp   Done                     12/26/2018 15:33:28
00017 suncat0106 pw.x -in pw.inp   Done                     12/26/2018 15:33:28
00018 suncat0106 pw.x -in pw.inp   Done                     12/26/2018 15:33:28
00019 suncat0106 pw.x -in pw.inp   Done                     12/26/2018 15:33:28
00020 suncat0106 pw.x -in pw.inp   Done                     12/26/2018 15:33:28
00021 suncat0106 pw.x -in pw.inp   Done                     12/26/2018 15:33:28
00022 suncat0106 pw.x -in pw.inp   Done                     12/26/2018 15:33:28
00023 suncat0106 pw.x -in pw.inp   Done                     12/26/2018 15:33:28
00024 suncat0105 pw.x -in pw.inp   Done                     12/26/2018 15:33:28
00025 suncat0105 pw.x -in pw.inp   Done                     12/26/2018 15:33:28
00026 suncat0105 pw.x -in pw.inp   Done                     12/26/2018 15:33:28
00027 suncat0105 pw.x -in pw.inp   Done                     12/26/2018 15:33:28
00028 suncat0105 pw.x -in pw.inp   Done                     12/26/2018 15:33:28
00029 suncat0105 pw.x -in pw.inp   Done                     12/26/2018 15:33:28
00030 suncat0105 pw.x -in pw.inp   Done                     12/26/2018 15:33:28
00031 suncat0105 pw.x -in pw.inp   Done                     12/26/2018 15:33:28
00032 suncat0238 pw.x -in pw.inp   Done                     12/26/2018 15:33:28
00033 suncat0238 pw.x -in pw.inp   Done                     12/26/2018 15:33:28
00034 suncat0238 pw.x -in pw.inp   Done                     12/26/2018 15:33:28
00035 suncat0238 pw.x -in pw.inp   Done                     12/26/2018 15:33:28
00036 suncat0238 pw.x -in pw.inp   Done                     12/26/2018 15:33:28
00037 suncat0238 pw.x -in pw.inp   Done                     12/26/2018 15:33:28
00038 suncat0238 pw.x -in pw.inp   Done                     12/26/2018 15:33:28
00039 suncat0238 pw.x -in pw.inp   Done                     12/26/2018 15:33:28
00040 suncat0237 pw.x -in pw.inp   Done                     12/26/2018 15:33:28
00041 suncat0237 pw.x -in pw.inp   Done                     12/26/2018 15:33:28
00042 suncat0237 pw.x -in pw.inp   Done                     12/26/2018 15:33:28
00043 suncat0237 pw.x -in pw.inp   Done                     12/26/2018 15:33:28
00044 suncat0237 pw.x -in pw.inp   Done                     12/26/2018 15:33:28
00045 suncat0237 pw.x -in pw.inp   Done                     12/26/2018 15:33:28
00046 suncat0237 pw.x -in pw.inp   Done                     12/26/2018 15:33:28
00047 suncat0237 pw.x -in pw.inp   Done                     12/26/2018 15:33:28
00048 suncat0236 pw.x -in pw.inp   Done                     12/26/2018 15:33:28
00049 suncat0236 pw.x -in pw.inp   Done                     12/26/2018 15:33:28
00050 suncat0236 pw.x -in pw.inp   Done                     12/26/2018 15:33:28
00051 suncat0236 pw.x -in pw.inp   Done                     12/26/2018 15:33:28
00052 suncat0236 pw.x -in pw.inp   Done                     12/26/2018 15:33:28
00053 suncat0236 pw.x -in pw.inp   Done                     12/26/2018 15:33:28
00054 suncat0236 pw.x -in pw.inp   Done                     12/26/2018 15:33:28
00055 suncat0236 pw.x -in pw.inp   Done                     12/26/2018 15:33:28
00056 suncat0235 pw.x -in pw.inp   Done                     12/26/2018 15:33:28
00057 suncat0235 pw.x -in pw.inp   Done                     12/26/2018 15:33:28
00058 suncat0235 pw.x -in pw.inp   Done                     12/26/2018 15:33:28
00059 suncat0235 pw.x -in pw.inp   Done                     12/26/2018 15:33:28
00060 suncat0235 pw.x -in pw.inp   Done                     12/26/2018 15:33:28
00061 suncat0235 pw.x -in pw.inp   Done                     12/26/2018 15:33:28
00062 suncat0235 pw.x -in pw.inp   Done                     12/26/2018 15:33:28
00063 suncat0235 pw.x -in pw.inp   Done                     12/26/2018 15:33:28