     Program PWSCF v.5.1rc2 (svn rev. 11289) starts on 31Dec2018 at  6:59: 2

     Current dimensions of program PWSCF are:
     Max number of different atomic species (ntypx) = 10
     Max number of k-points (npk) =  40000
     Max angular momentum in pseudopotentials (lmaxx) =  3
     Presently stress not available with electric field

     IMPORTANT: XC functional enforced from input :
     Exchange-correlation      = BEEF-VDW ( 1  4 27 13 2)
     Any further DFT definition will be discarded
     Please, verify this is what you really want

     Subspace diagonalization in iterative solution of the eigenvalue problem:
     a serial algorithm will be used

     bravais-lattice index     =            0
     lattice parameter (alat)  =       1.8897  a.u.
     unit-cell volume          =    4265.8981 (a.u.)^3
     number of atoms/cell      =           12
     number of atomic types    =            2
     number of electrons       =       189.00
     number of Kohn-Sham states=          124
     kinetic-energy cutoff     =      36.7493  Ry
     charge density cutoff     =     367.4932  Ry
     convergence threshold     =      1.0E-06
     mixing beta               =       0.1000
     number of iterations used =           10  plain     mixing
     Exchange-correlation      = BEEF-VDW ( 1  4 27 13 2)
     nstep                     =           50

     celldm(1)=   1.889726  celldm(2)=   0.000000  celldm(3)=   0.000000
     celldm(4)=   0.000000  celldm(5)=   0.000000  celldm(6)=   0.000000

     crystal axes: (cart. coord. in units of alat)
               a(1) = (   5.462741   0.000000   0.000000 )
               a(2) = (  -2.731371   4.730873   0.000000 )
               a(3) = (   0.000000   0.000000  24.460310 )

     reciprocal axes: (cart. coord. in units 2 pi/alat)
               b(1) = (  0.183058  0.105689  0.000000 )
               b(2) = (  0.000000  0.211377  0.000000 )
               b(3) = (  0.000000  0.000000  0.040883 )

     PseudoPot. # 1 for Os read from file:
     /afs/slac.stanford.edu/u/if/mamunm/psp/gbrv1.5pbe/Os.UPF
     MD5 check sum: a3fb40a04f0c37c25c34bbc47164c9a8
     Pseudo is Ultrasoft + core correction, Zval = 16.0
     Generated by new atomic code, or converted to UPF format
     Using radial grid of  983 points,  8 beta functions with:
                l(1) =   0
                l(2) =   0
                l(3) =   1
                l(4) =   1
                l(5) =   2
                l(6) =   2
                l(7) =   3
                l(8) =   3
     Q(r) pseudized with  8 coefficients,  rinner =    1.150   1.150   1.150
                                                       1.150   1.150   1.150
                                                       1.150

     PseudoPot. # 2 for Ir read from file:
     /afs/slac.stanford.edu/u/if/mamunm/psp/gbrv1.5pbe/Ir.UPF
     MD5 check sum: 8836f839c3459d2b385c504ce6d91f2c
     Pseudo is Ultrasoft + core correction, Zval = 15.0
     Generated by new atomic code, or converted to UPF format
     Using radial grid of  983 points,  7 beta functions with:
                l(1) =   0
                l(2) =   0
                l(3) =   1
                l(4) =   1
                l(5) =   1
                l(6) =   2
                l(7) =   2
     Q(r) pseudized with  8 coefficients,  rinner =    1.400   1.400   1.400
                                                       1.400   1.400

     vdW kernel table read from file vdW_kernel_table
     MD5 check sum: 095c7af220d748ca6e76c0b4c6cfb241

     atomic species   valence    mass     pseudopotential
        Os1           16.00   190.23000     Os( 1.00)
        Ir1           15.00   192.21700     Ir( 1.00)

     No symmetry found

   Cartesian axes

     site n.     atom                  positions (alat units)
         1           Os1 tau(   1) = (   0.0000000   0.0000000  10.0000000  )
         2           Os1 tau(   2) = (  -1.3656854   2.3654364  10.0000000  )
         3           Os1 tau(   3) = (   1.3656854   2.3654364  10.0000000  )
         4           Ir1 tau(   4) = (   2.7313707   0.0000000  10.0000000  )
         5           Os1 tau(   5) = (   2.7313707   1.5769576  12.2301549  )
         6           Os1 tau(   6) = (   1.3656854   3.9423941  12.2301549  )
         7           Os1 tau(   7) = (  -1.3656854   3.9423941  12.2301549  )
         8           Ir1 tau(   8) = (   0.0000000   1.5769576  12.2301549  )
         9           Os1 tau(   9) = (  -0.0000000   3.1539152  14.4603097  )
        10           Os1 tau(  10) = (   1.3656854   0.7884788  14.4603097  )
        11           Os1 tau(  11) = (   4.0970561   0.7884788  14.4603097  )
        12           Ir1 tau(  12) = (   2.7313707   3.1539152  14.4603097  )

     number of k points=    20  Fermi-Dirac smearing, width (Ry)=  0.0110
                       cart. coord. in units 2pi/alat
        k(    1) = (   0.0000000   0.0000000   0.0000000), wk =   0.0555556
        k(    2) = (   0.0000000   0.0352296   0.0000000), wk =   0.1111111
        k(    3) = (   0.0000000   0.0704592   0.0000000), wk =   0.1111111
        k(    4) = (   0.0000000  -0.1056887   0.0000000), wk =   0.0555556
        k(    5) = (   0.0305097   0.0176148   0.0000000), wk =   0.1111111
        k(    6) = (   0.0305097   0.0528444   0.0000000), wk =   0.1111111
        k(    7) = (   0.0305097   0.0880740   0.0000000), wk =   0.1111111
        k(    8) = (   0.0305097  -0.0880740   0.0000000), wk =   0.1111111
        k(    9) = (   0.0305097  -0.0528444   0.0000000), wk =   0.1111111
        k(   10) = (   0.0305097  -0.0176148   0.0000000), wk =   0.1111111
        k(   11) = (   0.0610194   0.0352296   0.0000000), wk =   0.1111111
        k(   12) = (   0.0610194   0.0704592   0.0000000), wk =   0.1111111
        k(   13) = (   0.0610194   0.1056887   0.0000000), wk =   0.1111111
        k(   14) = (   0.0610194  -0.0704592   0.0000000), wk =   0.1111111
        k(   15) = (   0.0610194  -0.0352296   0.0000000), wk =   0.1111111
        k(   16) = (   0.0610194   0.0000000   0.0000000), wk =   0.1111111
        k(   17) = (  -0.0915291  -0.0528444   0.0000000), wk =   0.0555556
        k(   18) = (  -0.0915291  -0.0176148   0.0000000), wk =   0.1111111
        k(   19) = (  -0.0915291   0.0176148   0.0000000), wk =   0.1111111
        k(   20) = (  -0.0915291  -0.1585331   0.0000000), wk =   0.0555556

     Largest allocated arrays     est. size (Mb)     dimensions
     Largest temporary arrays     est. size (Mb)     dimensions

     Initial potential from superposition of free atoms
     Check: negative starting charge=   -2.210831

     starting charge  182.99958, renormalised to  189.00000

     negative rho (up, down):  2.283E+00 0.000E+00

     *
     * You are using vdW-DF for exchange-correlation in this calculation.
     * Please cite the following three references that made this development
     * possible:
     *
     *   M. Dion, H. Rydberg, E. Schroder, D. C. Langreth, and
     *   B. I. Lundqvist, Phys. Rev. Lett. 92, 246401 (2004).
     *
     *   T. Thonhauser, V. R. Cooper, S. Li, A. Puzder, P. Hyldgaard, and
     *   D. C. Langreth, Phys. Rev. B 76, 125112 (2007).
     *
     *   G. Roman-Perez and J. M. Soler, Phys. Rev. Lett. 103, 096102 (2009).
     *
     *
     * If you are using vdW-DF2, please also cite:
     *
     *   K. Lee, E. D. Murray, L. Kong, B. I. Lundqvist, and
     *   D. C. Langreth, Phys. Rev. B 82, 081101(R) (2010).
     *
     *
     * If you are calculating the stress with vdW-DF, please also cite:
     *
     *   R. Sabatini, E. Kucukbenli, B. Kolb, T. Thonhauser, and
     *   S. de Gironcoli, J. Phys.: Condens. Matter 24, 424209 (2012).
     *

     Carrying out vdW-DF run using the following parameters:

     Nqs =      20    Nr_points =    1024   r_max =   100.000
     q_mesh =
               0.00001000     0.04494208     0.09755937     0.15916263
               0.23128650     0.31572767     0.41458969     0.53033537
               0.66584808     0.82450364     1.01025438     1.22772762
               1.48234092     1.78043706     2.12944203     2.53805004
               3.01644009     3.57652955     4.23227104     5.00000000

     Gradients computed in reciprocal space

     Adding external electric field

     Computed dipole along edir(3) :
        Dipole                0.0000 Ry au,          0.0000 Debye
        Dipole field          0.0000 Ry au

        Potential amp.       -0.0000 Ry
        Total length         45.0677 bohr

     Starting wfc are  153 randomized atomic wfcs

     Self-consistent Calculation

     iteration #  1     ecut=    36.75 Ry     beta=0.10
     Davidson diagonalization with overlap
     ethr =  1.00E-02,  avg # of iterations =  7.8

[...]

     total energy              =   -2347.13942927 Ry
     Harris-Foulkes estimate   =   -2350.39415223 Ry
     estimated scf accuracy    <      18.87592387 Ry

[...]

     End of self-consistent calculation

          k = 0.0000 0.0000 0.0000 ( 15989 PWs)   bands (ev):

   -84.3039 -84.2610 -84.2610 -83.8123 -83.8114 -83.7702 -83.7701 -83.7699
   -83.7699 -47.0648 -47.0648 -47.0451 -46.5609 -46.5609 -46.5571 -46.5571
   -46.5198 -46.5054 -43.9298 -43.6959 -43.6959 -43.6928 -43.5862 -43.5862
   -43.4281 -43.3926 -43.3717 -43.2676 -43.2676 -43.1694 -43.1694 -43.1171
   -43.1171 -43.0939 -43.0196 -43.0196 -42.9908 -42.9636 -42.9636 -42.8644
   -42.8524 -42.7707 -42.7707 -42.7675 -42.7675  -6.8128  -4.8356  -4.4279
    -4.1118  -4.1118  -4.0685  -3.7843  -3.7843  -3.7385  -3.2080  -3.2074
    -3.2074  -2.9345  -2.9344  -2.8660  -1.4496  -1.4496  -1.3179  -0.7315
    -0.7315  -0.7047  -0.4541  -0.3310  -0.2203  -0.2203   0.1842   0.1842
     0.2833   0.2833   0.4940   0.5113   0.5891   0.5891   0.7964   0.7964
     1.8014   2.0992   2.0992   2.1054   2.2179   2.2179   2.4408   2.4408
     2.5101   3.1336   3.2976   3.2976   3.5094   3.8659   3.8659   3.9880
     3.9880   4.1370   4.1618   4.1618   4.3242   4.3242   4.3640   4.6011
     4.6011   5.0806   5.1180   5.1180   5.2137   5.2137   5.6093   5.6895
     6.3167   6.4527   6.4528   6.7866   7.0431   7.0431   7.3547   7.5608
     8.0127   8.9103   9.8391  10.0114

[...]

          k =-0.0915-0.0528 0.0000 ( 16072 PWs)   bands (ev):

[...]

     the Fermi energy is     2.8267 ev

!    total energy              =   -2347.89196379 Ry
     Harris-Foulkes estimate   =   -2347.89195690 Ry
     estimated scf accuracy    <       0.00000085 Ry

     The total energy is the sum of the following terms:

     one-electron contribution =  -20542.63442257 Ry
     hartree contribution      =   10264.45612292 Ry
     xc contribution           =    -503.94710652 Ry
     ewald contribution        =    8434.29897351 Ry
     electric field correction =       0.00000000 Ry
     smearing contrib. (-TS)   =      -0.06553112 Ry

     convergence has been achieved in  15 iterations

 BEEF-vdW xc energy contributions
           1 :   -443.099744135095
           2 :    411.195688529463
           3 :   -354.579947668912
           4 :    285.166491058400
           5 :   -215.939408364224
           6 :    157.426410258268
           7 :   -115.355754399845
           8 :    90.0491574821199
[...]
                l(4) =   1
                l(5) =   2
                l(6) =   2
                l(7) =   3
                l(8) =   3
     Q(r) pseudized with  8 coefficients,  rinner =    1.150   1.150   1.150
                                                       1.150   1.150   1.150
                                                       1.150

     PseudoPot. # 2 for Ir read from file:
     /afs/slac.stanford.edu/u/if/mamunm/psp/gbrv1.5pbe/Ir.UPF
     MD5 check sum: 8836f839c3459d2b385c504ce6d91f2c
     Pseudo is Ultrasoft + core correction, Zval = 15.0
     Generated by new atomic code, or converted to UPF format
     Using radial grid of  983 points,  7 beta functions with:
                l(1) =   0
                l(2) =   0
                l(3) =   1
                l(4) =   1
                l(5) =   1
                l(6) =   2
                l(7) =   2
     Q(r) pseudized with  8 coefficients,  rinner =    1.400   1.400   1.400
                                                       1.400   1.400

     vdW kernel table read from file vdW_kernel_table
     MD5 check sum: 095c7af220d748ca6e76c0b4c6cfb241

     atomic species   valence    mass     pseudopotential
        Os1           16.00   190.23000     Os( 1.00)
        Ir1           15.00   192.21700     Ir( 1.00)

     No symmetry found

   Cartesian axes

     site n.     atom                  positions (alat units)
         1           Os1 tau(   1) = (   0.0000000   0.0000000  10.0000000  )
         2           Os1 tau(   2) = (  -1.3656854   2.3654364  10.0000000  )
         3           Os1 tau(   3) = (   1.3656854   2.3654364  10.0000000  )
         4           Ir1 tau(   4) = (   2.7313707   0.0000000  10.0000000  )
         5           Os1 tau(   5) = (   2.7313707   1.5769576  12.2301549  )
         6           Os1 tau(   6) = (   1.3656854   3.9423941  12.2301549  )
         7           Os1 tau(   7) = (  -1.3656854   3.9423941  12.2301549  )
         8           Ir1 tau(   8) = (   0.0000000   1.5769576  12.2301549  )
         9           Os1 tau(   9) = (   0.0000019   3.2144871  14.3723401  )
        10           Os1 tau(  10) = (   1.4181440   0.7581943  14.3723435  )
        11           Os1 tau(  11) = (   4.0445970   0.7581905  14.3723388  )
        12           Ir1 tau(  12) = (   2.7313712   3.1539155  14.3634521  )

     number of k points=    20  Fermi-Dirac smearing, width (Ry)=  0.0110
                       cart. coord. in units 2pi/alat
        k(    1) = (   0.0000000   0.0000000   0.0000000), wk =   0.0555556
        k(    2) = (   0.0000000   0.0352296   0.0000000), wk =   0.1111111
        k(    3) = (   0.0000000   0.0704592   0.0000000), wk =   0.1111111
        k(    4) = (   0.0000000  -0.1056887   0.0000000), wk =   0.0555556
        k(    5) = (   0.0305097   0.0176148   0.0000000), wk =   0.1111111
        k(    6) = (   0.0305097   0.0528444   0.0000000), wk =   0.1111111
        k(    7) = (   0.0305097   0.0880740   0.0000000), wk =   0.1111111
        k(    8) = (   0.0305097  -0.0880740   0.0000000), wk =   0.1111111
        k(    9) = (   0.0305097  -0.0528444   0.0000000), wk =   0.1111111
        k(   10) = (   0.0305097  -0.0176148   0.0000000), wk =   0.1111111
        k(   11) = (   0.0610194   0.0352296   0.0000000), wk =   0.1111111
        k(   12) = (   0.0610194   0.0704592   0.0000000), wk =   0.1111111
        k(   13) = (   0.0610194   0.1056887   0.0000000), wk =   0.1111111
        k(   14) = (   0.0610194  -0.0704592   0.0000000), wk =   0.1111111
        k(   15) = (   0.0610194  -0.0352296   0.0000000), wk =   0.1111111
        k(   16) = (   0.0610194   0.0000000   0.0000000), wk =   0.1111111
        k(   17) = (  -0.0915291  -0.0528444   0.0000000), wk =   0.0555556
        k(   18) = (  -0.0915291  -0.0176148   0.0000000), wk =   0.1111111
        k(   19) = (  -0.0915291   0.0176148   0.0000000), wk =   0.1111111
        k(   20) = (  -0.0915291  -0.1585331   0.0000000), wk =   0.0555556

     Largest allocated arrays     est. size (Mb)     dimensions
     Largest temporary arrays     est. size (Mb)     dimensions

     Initial potential from superposition of free atoms
     Check: negative starting charge=   -2.209653

     starting charge  182.99958, renormalised to  189.00000

[...]

     *
     * You are using vdW-DF for exchange-correlation in this calculation.
     * Please cite the following three references that made this development
     * possible:
     *
     *   M. Dion, H. Rydberg, E. Schroder, D. C. Langreth, and
     *   B. I. Lundqvist, Phys. Rev. Lett. 92, 246401 (2004).
     *
     *   T. Thonhauser, V. R. Cooper, S. Li, A. Puzder, P. Hyldgaard, and
     *   D. C. Langreth, Phys. Rev. B 76, 125112 (2007).
     *
     *   G. Roman-Perez and J. M. Soler, Phys. Rev. Lett. 103, 096102 (2009).
     *
     *
     * If you are using vdW-DF2, please also cite:
     *
     *   K. Lee, E. D. Murray, L. Kong, B. I. Lundqvist, and
     *   D. C. Langreth, Phys. Rev. B 82, 081101(R) (2010).
     *
     *
     * If you are calculating the stress with vdW-DF, please also cite:
     *
     *   R. Sabatini, E. Kucukbenli, B. Kolb, T. Thonhauser, and
     *   S. de Gironcoli, J. Phys.: Condens. Matter 24, 424209 (2012).
     *

     Carrying out vdW-DF run using the following parameters:

     Nqs =      20    Nr_points =    1024   r_max =   100.000
     q_mesh =
               0.00001000     0.04494208     0.09755937     0.15916263
               0.23128650     0.31572767     0.41458969     0.53033537
               0.66584808     0.82450364     1.01025438     1.22772762
               1.48234092     1.78043706     2.12944203     2.53805004
               3.01644009     3.57652955     4.23227104     5.00000000

     Gradients computed in reciprocal space

[...]

     Starting wfc are  153 randomized atomic wfcs

     Self-consistent Calculation

[...]

     iteration #  9     ecut=    36.75 Ry     beta=0.10
     Davidson diagonalization with overlap
     c_bands:  1 eigenvalues not converged
     ethr =  3.82E-06,  avg # of iterations =  6.8

[...]

     total energy              =   -2347.90925343 Ry
     Harris-Foulkes estimate   =   -2347.90925200 Ry
     estimated scf accuracy    <       0.00000102 Ry

     iteration # 16     ecut=    36.75 Ry     beta=0.10
     Davidson diagonalization with overlap
     ethr =  5.42E-10,  avg # of iterations =  2.1

[...]

     negative rho (up, down):  2.092E+00 0.000E+00

     Adding external electric field

     Computed dipole along edir(3) :
        Dipole                0.0154 Ry au,          0.0392 Debye
        Dipole field          0.0000 Ry au

        Potential amp.       -0.0041 Ry
        Total length         45.0677 bohr

     End of self-consistent calculation

[...]

          k = 0.0610 0.0000 0.0000 ( 16046 PWs)   bands (ev):

[...]

          k =-0.0915-0.1585 0.0000 ( 16072 PWs)   bands (ev):

   -84.3359 -84.3214 -84.3068 -83.8564 -83.8301 -83.8196 -83.7402 -83.7261
   -83.7122 -47.0479 -47.0366 -47.0174 -46.6200 -46.6092 -46.6059 -46.4973
   -46.4865 -46.4532 -43.8776 -43.7514 -43.7259 -43.6808 -43.6351 -43.5931
   -43.5878 -43.5707 -43.3631 -43.3445 -43.2298 -43.1744 -43.1104 -43.0713
   -43.0613 -43.0332 -43.0128 -43.0017 -43.0010 -42.9832 -42.9575 -42.9487
   -42.9409 -42.9275 -42.9178 -42.8334 -42.7419  -5.0085  -4.9578  -3.4292
    -3.4222  -3.1187  -3.0968  -3.0325  -2.9703  -2.9508  -2.9123  -2.4277
    -2.3363  -2.0706  -1.8842  -1.8477  -1.7891  -1.6004  -1.5056  -1.4105
    -1.3679  -1.0511  -0.8301  -0.4545  -0.3028  -0.2542  -0.1537  -0.1296
    -0.0059   0.0888   0.1315   0.2084   0.3089   0.3975   0.4476   0.4689
     0.5456   0.5576   0.6126   0.6362   0.7457   1.2620   1.5419   1.5985
     1.6854   1.8767   1.9425   2.0616   2.2248   2.3174   2.5298   2.6741
     2.7517   2.8262   2.9637   3.0718   3.1603   3.3088   3.5017   3.9076
     4.0298   4.5130   4.5771   4.5824   5.0824   5.4921   5.5053   6.5401
     7.0689   7.1648   7.5305   7.7963   7.9932   8.8284   8.9629   8.9692
     8.9740   9.5835   9.6202   9.6561

     the Fermi energy is     2.8483 ev

!    total energy              =   -2347.90925844 Ry
     Harris-Foulkes estimate   =   -2347.90925362 Ry
     estimated scf accuracy    <       0.00000033 Ry

     The total energy is the sum of the following terms:

     one-electron contribution =  -20810.96605641 Ry
     hartree contribution      =   10398.49537106 Ry
     xc contribution           =    -504.21132018 Ry
     ewald contribution        =    8568.83350196 Ry
     electric field correction =       0.00000070 Ry
     smearing contrib. (-TS)   =      -0.06075558 Ry

     convergence has been achieved in  16 iterations

 BEEF-vdW xc energy contributions
           1 :   -443.368156437161
           2 :    411.561425522073
           3 :   -355.085815688290
           4 :    285.772395414006
           5 :   -216.534160420496
           6 :    157.875059568457
           7 :   -115.561167518755
           8 :    90.0002273464111
           9 :   -77.3185905927127
          10 :    71.5454875685995
          11 :   -67.0136139849826
          12 :    60.1230025221844
          13 :   -49.9969646970419
          14 :    38.0291254834549
          15 :   -26.7174633804952
          16 :    18.3436315668582
          17 :   -14.0110708294018
          18 :    13.3305665159759
          19 :   -14.7632569357315
          20 :    16.3751333018610
          21 :   -16.6412073525428
          22 :    14.9676962530780
          23 :   -11.7661401700379
          24 :    8.11129048016869
          25 :   -5.17950649213174
          26 :    3.72400764580379
          27 :   -3.80211740421407
          28 :    4.83608893579208
          29 :   -5.94170913575942
          30 :    6.34958040149417
          31 :   -40.6990852476756
          32 :   -30.9377507362649

     Forces acting on atoms (Ry/au):

     negative rho (up, down):  2.092E+00 0.000E+00
     atom    1 type  1   force =    -0.00000010   -0.01994870    0.02586715
     atom    2 type  1   force =    -0.01727519    0.00997310    0.02586943
     atom    3 type  1   force =     0.01727532    0.00997456    0.02586739
     atom    4 type  2   force =     0.00000049   -0.00000043    0.02641452
     atom    5 type  1   force =    -0.00000247    0.00111525   -0.02772606
     atom    6 type  1   force =     0.00097150   -0.00055796   -0.02773248
     atom    7 type  1   force =    -0.00097061   -0.00055325   -0.02772925
     atom    8 type  2   force =    -0.00000016    0.00000046   -0.02156719
     atom    9 type  1   force =    -0.00000027   -0.00171933    0.00032353
     atom   10 type  1   force =    -0.00148958    0.00085835    0.00032321
     atom   11 type  1   force =     0.00149055    0.00085873    0.00032543
     atom   12 type  2   force =     0.00000051   -0.00000080   -0.00023570

     Total force =     0.081755     Total SCF correction =     0.003738

     entering subroutine stress ...

     negative rho (up, down):  2.092E+00 0.000E+00
          total   stress  (Ry/bohr**3)                   (kbar)     P=  -30.06
  -0.00024373   0.00000000  -0.00000000        -35.85      0.00     -0.00
   0.00000000  -0.00024373  -0.00000000          0.00    -35.85     -0.00
  -0.00000000  -0.00000000  -0.00012559         -0.00     -0.00    -18.48

 !ASE

     Writing output data file calc.save

     General routines

     Parallel routines

   This run was terminated on:   7:37:56  31Dec2018

   JOB DONE.
Job  /afs/slac/g/suncat/bin/suncat-tsmpirun -x LD_LIBRARY_PATH -wdir /scratch/qe648698_iWPXk pw.x -in pw.inp

TID   HOST_NAME   COMMAND_LINE            STATUS            TERMINATION_TIME
00000 suncat0074 pw.x -in pw.inp   Done                     12/31/2018 07:37:56
00001 suncat0074 pw.x -in pw.inp   Done                     12/31/2018 07:37:56
00002 suncat0074 pw.x -in pw.inp   Done                     12/31/2018 07:37:56
00003 suncat0074 pw.x -in pw.inp   Done                     12/31/2018 07:37:56
00004 suncat0074 pw.x -in pw.inp   Done                     12/31/2018 07:37:56
00005 suncat0074 pw.x -in pw.inp   Done                     12/31/2018 07:37:56
00006 suncat0074 pw.x -in pw.inp   Done                     12/31/2018 07:37:56
00007 suncat0074 pw.x -in pw.inp   Done                     12/31/2018 07:37:56
00008 suncat0073 pw.x -in pw.inp   Done                     12/31/2018 07:37:56
00009 suncat0073 pw.x -in pw.inp   Done                     12/31/2018 07:37:56
00010 suncat0073 pw.x -in pw.inp   Done                     12/31/2018 07:37:56
00011 suncat0073 pw.x -in pw.inp   Done                     12/31/2018 07:37:56
00012 suncat0073 pw.x -in pw.inp   Done                     12/31/2018 07:37:56
00013 suncat0073 pw.x -in pw.inp   Done                     12/31/2018 07:37:56
00014 suncat0073 pw.x -in pw.inp   Done                     12/31/2018 07:37:56
00015 suncat0073 pw.x -in pw.inp   Done                     12/31/2018 07:37:56
00016 suncat0065 pw.x -in pw.inp   Done                     12/31/2018 07:37:56
00017 suncat0065 pw.x -in pw.inp   Done                     12/31/2018 07:37:56
00018 suncat0065 pw.x -in pw.inp   Done                     12/31/2018 07:37:56
00019 suncat0065 pw.x -in pw.inp   Done                     12/31/2018 07:37:56
00020 suncat0065 pw.x -in pw.inp   Done                     12/31/2018 07:37:56
00021 suncat0065 pw.x -in pw.inp   Done                     12/31/2018 07:37:56
00022 suncat0065 pw.x -in pw.inp   Done                     12/31/2018 07:37:56
00023 suncat0065 pw.x -in pw.inp   Done                     12/31/2018 07:37:56
00024 suncat0064 pw.x -in pw.inp   Done                     12/31/2018 07:37:56
00025 suncat0064 pw.x -in pw.inp   Done                     12/31/2018 07:37:56
00026 suncat0064 pw.x -in pw.inp   Done                     12/31/2018 07:37:56
00027 suncat0064 pw.x -in pw.inp   Done                     12/31/2018 07:37:56
00028 suncat0064 pw.x -in pw.inp   Done                     12/31/2018 07:37:56
00029 suncat0064 pw.x -in pw.inp   Done                     12/31/2018 07:37:56
00030 suncat0064 pw.x -in pw.inp   Done                     12/31/2018 07:37:56
00031 suncat0064 pw.x -in pw.inp   Done                     12/31/2018 07:37:56
00032 suncat0139 pw.x -in pw.inp   Done                     12/31/2018 07:37:56
00033 suncat0139 pw.x -in pw.inp   Done                     12/31/2018 07:37:56
00034 suncat0139 pw.x -in pw.inp   Done                     12/31/2018 07:37:56
00035 suncat0139 pw.x -in pw.inp   Done                     12/31/2018 07:37:56
00036 suncat0139 pw.x -in pw.inp   Done                     12/31/2018 07:37:56
00037 suncat0139 pw.x -in pw.inp   Done                     12/31/2018 07:37:56
00038 suncat0139 pw.x -in pw.inp   Done                     12/31/2018 07:37:56
00039 suncat0139 pw.x -in pw.inp   Done                     12/31/2018 07:37:56
00040 suncat0124 pw.x -in pw.inp   Done                     12/31/2018 07:37:56
00041 suncat0124 pw.x -in pw.inp   Done                     12/31/2018 07:37:56
00042 suncat0124 pw.x -in pw.inp   Done                     12/31/2018 07:37:56
00043 suncat0124 pw.x -in pw.inp   Done                     12/31/2018 07:37:56
00044 suncat0124 pw.x -in pw.inp   Done                     12/31/2018 07:37:56
00045 suncat0124 pw.x -in pw.inp   Done                     12/31/2018 07:37:56
00046 suncat0124 pw.x -in pw.inp   Done                     12/31/2018 07:37:56
00047 suncat0124 pw.x -in pw.inp   Done                     12/31/2018 07:37:56
00048 suncat0123 pw.x -in pw.inp   Done                     12/31/2018 07:37:56
00049 suncat0123 pw.x -in pw.inp   Done                     12/31/2018 07:37:56
00050 suncat0123 pw.x -in pw.inp   Done                     12/31/2018 07:37:56
00051 suncat0123 pw.x -in pw.inp   Done                     12/31/2018 07:37:56
00052 suncat0123 pw.x -in pw.inp   Done                     12/31/2018 07:37:56
00053 suncat0123 pw.x -in pw.inp   Done                     12/31/2018 07:37:56
00054 suncat0123 pw.x -in pw.inp   Done                     12/31/2018 07:37:56
00055 suncat0123 pw.x -in pw.inp   Done                     12/31/2018 07:37:56
00056 suncat0122 pw.x -in pw.inp   Done                     12/31/2018 07:37:56
00057 suncat0122 pw.x -in pw.inp   Done                     12/31/2018 07:37:56
00058 suncat0122 pw.x -in pw.inp   Done                     12/31/2018 07:37:56
00059 suncat0122 pw.x -in pw.inp   Done                     12/31/2018 07:37:56
00060 suncat0122 pw.x -in pw.inp   Done                     12/31/2018 07:37:56
00061 suncat0122 pw.x -in pw.inp   Done                     12/31/2018 07:37:56
00062 suncat0122 pw.x -in pw.inp   Done                     12/31/2018 07:37:56
00063 suncat0122 pw.x -in pw.inp   Done                     12/31/2018 07:37:56