     Program PWSCF v.5.1rc2 (svn rev. 11289) starts on 27Dec2018 at  3:16:24

     Current dimensions of program PWSCF are:
     Max number of different atomic species (ntypx) = 10
     Max number of k-points (npk) =  40000
     Max angular momentum in pseudopotentials (lmaxx) =  3
     Presently stress not available with electric field

     IMPORTANT: XC functional enforced from input :
     Exchange-correlation      = BEEF-VDW ( 1  4 27 13 2)
     Any further DFT definition will be discarded
     Please, verify this is what you really want

     Subspace diagonalization in iterative solution of the eigenvalue problem:
     a serial algorithm will be used

     bravais-lattice index     =            0
     lattice parameter (alat)  =       1.8897  a.u.
     unit-cell volume          =    4570.4881 (a.u.)^3
     number of atoms/cell      =           12
     number of atomic types    =            2
     number of electrons       =       171.00
     number of Kohn-Sham states=          115
     kinetic-energy cutoff     =      36.7493  Ry
     charge density cutoff     =     367.4932  Ry
     convergence threshold     =      1.0E-06
     mixing beta               =       0.1000
     number of iterations used =           10  plain     mixing
     Exchange-correlation      = BEEF-VDW ( 1  4 27 13 2)
     nstep                     =           50

     celldm(1)=   1.889726  celldm(2)=   0.000000  celldm(3)=   0.000000
     celldm(4)=   0.000000  celldm(5)=   0.000000  celldm(6)=   0.000000

     crystal axes: (cart. coord. in units of alat)
               a(1) = (   5.637940   0.000000   0.000000 )
               a(2) = (  -2.818970   4.882600   0.000000 )
               a(3) = (   0.000000   0.000000  24.603359 )

     reciprocal axes: (cart. coord. in units 2 pi/alat)
               b(1) = (  0.177370  0.102404  0.000000 )
               b(2) = (  0.000000  0.204809  0.000000 )
               b(3) = (  0.000000  0.000000  0.040645 )

     PseudoPot. # 1 for Mo read from file:
     /afs/slac.stanford.edu/u/if/mamunm/psp/gbrv1.5pbe/Mo.UPF
     MD5 check sum: 30c4dcd161f5d35cd49bb5239c51a633
     Pseudo is Ultrasoft + core correction, Zval = 14.0
     Generated by new atomic code, or converted to UPF format
     Using radial grid of  889 points,  6 beta functions with:
                l(1) =   0
                l(2) =   0
                l(3) =   1
                l(4) =   1
                l(5) =   2
                l(6) =   2
     Q(r) pseudized with  6 coefficients,  rinner =    1.000   1.000   1.000
                                                       1.000   1.000

     PseudoPot. # 2 for Re read from file:
     /afs/slac.stanford.edu/u/if/mamunm/psp/gbrv1.5pbe/Re.UPF
     MD5 check sum: 85f993410f3e006da9d71c142b4ad953
     Pseudo is Ultrasoft + core correction, Zval = 15.0
     Generated by new atomic code, or converted to UPF format
     Using radial grid of  981 points,  8 beta functions with:
                l(1) =   0
                l(2) =   0
                l(3) =   1
                l(4) =   1
                l(5) =   2
                l(6) =   2
                l(7) =   3
                l(8) =   3
     Q(r) pseudized with  8 coefficients,  rinner =    1.150   1.150   1.150
                                                       1.150   1.150   1.150
                                                       1.150

     vdW kernel table read from file vdW_kernel_table
     MD5 check sum: 095c7af220d748ca6e76c0b4c6cfb241

     atomic species   valence    mass     pseudopotential
        Mo1           14.00    95.95000     Mo( 1.00)
        Re1           15.00   186.20700     Re( 1.00)

     No symmetry found

   Cartesian axes

     site n.     atom                  positions (alat units)
         1           Mo1 tau(   1) = (   0.0000000   0.0000000  10.0000000  )
         2           Mo1 tau(   2) = (  -1.4094851   2.4412998  10.0000000  )
         3           Mo1 tau(   3) = (   1.4094851   2.4412998  10.0000000  )
         4           Re1 tau(   4) = (   2.8189701   0.0000000  10.0000000  )
         5           Mo1 tau(   5) = (   2.8189701   1.6275332  12.3016795  )
         6           Mo1 tau(   6) = (   1.4094851   4.0688329  12.3016795  )
         7           Mo1 tau(   7) = (  -1.4094851   4.0688329  12.3016795  )
         8           Re1 tau(   8) = (   0.0000000   1.6275332  12.3016795  )
         9           Mo1 tau(   9) = (  -0.0000000   3.2550663  14.6033590  )
        10           Mo1 tau(  10) = (   1.4094851   0.8137666  14.6033590  )
        11           Mo1 tau(  11) = (   4.2284552   0.8137666  14.6033590  )
        12           Re1 tau(  12) = (   2.8189701   3.2550663  14.6033590  )

     number of k points=    20  Fermi-Dirac smearing, width (Ry)=  0.0110
                       cart. coord. in units 2pi/alat
        k(    1) = (   0.0000000   0.0000000   0.0000000), wk =   0.0555556
        k(    2) = (   0.0000000   0.0341348   0.0000000), wk =   0.1111111
        k(    3) = (   0.0000000   0.0682696   0.0000000), wk =   0.1111111
        k(    4) = (   0.0000000  -0.1024045   0.0000000), wk =   0.0555556
        k(    5) = (   0.0295616   0.0170674   0.0000000), wk =   0.1111111
        k(    6) = (   0.0295616   0.0512022   0.0000000), wk =   0.1111111
        k(    7) = (   0.0295616   0.0853371   0.0000000), wk =   0.1111111
        k(    8) = (   0.0295616  -0.0853371   0.0000000), wk =   0.1111111
        k(    9) = (   0.0295616  -0.0512022   0.0000000), wk =   0.1111111
        k(   10) = (   0.0295616  -0.0170674   0.0000000), wk =   0.1111111
        k(   11) = (   0.0591232   0.0341348   0.0000000), wk =   0.1111111
        k(   12) = (   0.0591232   0.0682696   0.0000000), wk =   0.1111111
        k(   13) = (   0.0591232   0.1024045   0.0000000), wk =   0.1111111
        k(   14) = (   0.0591232  -0.0682696   0.0000000), wk =   0.1111111
        k(   15) = (   0.0591232  -0.0341348   0.0000000), wk =   0.1111111
        k(   16) = (   0.0591232  -0.0000000   0.0000000), wk =   0.1111111
        k(   17) = (  -0.0886849  -0.0512022   0.0000000), wk =   0.0555556
        k(   18) = (  -0.0886849  -0.0170674   0.0000000), wk =   0.1111111
        k(   19) = (  -0.0886849   0.0170674   0.0000000), wk =   0.1111111
        k(   20) = (  -0.0886849  -0.1536067   0.0000000), wk =   0.0555556

     Largest allocated arrays     est. size (Mb)     dimensions
     Largest temporary arrays     est. size (Mb)     dimensions

     Initial potential from superposition of free atoms
     Check: negative starting charge=   -0.385186

     starting charge  169.49029, renormalised to  171.00000

     negative rho (up, down):  3.886E-01 0.000E+00

     *
     * You are using vdW-DF for exchange-correlation in this calculation.
     * Please cite the following three references that made this development
     * possible:
     *
     *   M. Dion, H. Rydberg, E. Schroder, D. C. Langreth, and
     *   B. I. Lundqvist, Phys. Rev. Lett. 92, 246401 (2004).
     *
     *   T. Thonhauser, V. R. Cooper, S. Li, A. Puzder, P. Hyldgaard, and
     *   D. C. Langreth, Phys. Rev. B 76, 125112 (2007).
     *
     *   G. Roman-Perez and J. M. Soler, Phys. Rev. Lett. 103, 096102 (2009).
     *
     *
     * If you are using vdW-DF2, please also cite:
     *
     *   K. Lee, E. D. Murray, L. Kong, B. I. Lundqvist, and
     *   D. C. Langreth, Phys. Rev. B 82, 081101(R) (2010).
     *
     *
     * If you are calculating the stress with vdW-DF, please also cite:
     *
     *   R. Sabatini, E. Kucukbenli, B. Kolb, T. Thonhauser, and
     *   S. de Gironcoli, J. Phys.: Condens. Matter 24, 424209 (2012).
     *

     Carrying out vdW-DF run using the following parameters:

     Nqs =      20    Nr_points =    1024   r_max =   100.000
     q_mesh =
               0.00001000     0.04494208     0.09755937     0.15916263
               0.23128650     0.31572767     0.41458969     0.53033537
               0.66584808     0.82450364     1.01025438     1.22772762
               1.48234092     1.78043706     2.12944203     2.53805004
               3.01644009     3.57652955     4.23227104     5.00000000

     Gradients computed in reciprocal space

     Adding external electric field

     Computed dipole along edir(3) :
        Dipole               -0.0000 Ry au,         -0.0000 Debye
        Dipole field         -0.0000 Ry au

        Potential amp.        0.0000 Ry
        Total length         45.3313 bohr

     Starting wfc are  156 randomized atomic wfcs

     Self-consistent Calculation

     iteration #  1     ecut=    36.75 Ry     beta=0.10
     Davidson diagonalization with overlap
     ethr =  1.00E-02,  avg # of iterations =  2.0

[...]

     total energy              =   -1835.46907228 Ry
     Harris-Foulkes estimate   =   -1836.35689371 Ry
     estimated scf accuracy    <       5.07439506 Ry

[...]

     End of self-consistent calculation

          k = 0.0000 0.0000 0.0000 ( 17255 PWs)   bands (ev):

   -77.9328 -77.7957 -77.7957 -58.7278 -58.6615 -58.6180 -58.5885 -58.5885
   -58.5492 -58.5492 -58.5318 -58.5318 -39.6364 -39.6364 -39.6266 -39.5486
   -39.5399 -39.4612 -39.4612 -39.4589 -39.4589 -33.2852 -33.1011 -33.0870
   -32.9908 -32.9908 -32.9665 -32.9099 -32.9099 -32.7856 -32.7856 -32.7688
   -32.6564 -32.6564 -32.6107 -32.6107 -32.4997 -32.3979 -32.3879 -32.3879
   -32.3594 -32.2823 -32.2739 -32.2739 -32.2031 -32.2031 -32.1949 -32.1949
    -4.4314  -2.9864  -2.8167  -2.3846  -2.3846  -2.3137  -2.0716  -1.9019
    -1.9019  -1.6847  -1.6847  -1.6716  -1.4334  -1.4250  -1.4250  -0.2638
    -0.2638  -0.1330   0.7324   0.7324   0.7684   0.8141   1.0704   1.4529
     1.4529   1.7314   1.7314   1.7701   1.7701   1.8352   1.9545   1.9545
     1.9646   2.0868   2.1340   2.1340   3.1959   3.1959   3.1982   3.2421
     3.4134   3.4134   3.5693   3.9831   3.9831   4.4152   4.4152   4.6156
     4.6446   4.6446   4.8525   4.8525   4.8937   5.3486   5.3486   5.4388
     5.5871   5.5871   6.2226   6.2226   6.2825   6.4351   6.4351   6.4696
     6.5617   6.5617   6.6000

[...]

          k =-0.0887-0.0512 0.0000 ( 17240 PWs)   bands (ev):

[...]

     the Fermi energy is     2.3122 ev

!    total energy              =   -1835.84703957 Ry
     Harris-Foulkes estimate   =   -1835.84703682 Ry
     estimated scf accuracy    <       0.00000068 Ry

     The total energy is the sum of the following terms:

     one-electron contribution =  -15645.26070682 Ry
     hartree contribution      =    7813.74628710 Ry
     xc contribution           =    -342.03245534 Ry
     ewald contribution        =    6337.79141479 Ry
     electric field correction =       0.00000000 Ry
     smearing contrib. (-TS)   =      -0.09157930 Ry

     convergence has been achieved in  16 iterations

 BEEF-vdW xc energy contributions
           1 :   -298.549166720023
           2 :    274.994423307210
           3 :   -233.809325973042
           4 :    184.559871047075
           5 :   -137.193457996795
           6 :    99.0621735399068
           7 :   -73.2987319844391
           8 :    58.8733168108390
           9 :   -52.0319056593104
          10 :    48.3188454759124
          11 :   -44.3475215796424
[...]
     MD5 check sum: 30c4dcd161f5d35cd49bb5239c51a633
     Pseudo is Ultrasoft + core correction, Zval = 14.0
     Generated by new atomic code, or converted to UPF format
     Using radial grid of  889 points,  6 beta functions with:
                l(1) =   0
                l(2) =   0
                l(3) =   1
                l(4) =   1
                l(5) =   2
                l(6) =   2
     Q(r) pseudized with  6 coefficients,  rinner =    1.000   1.000   1.000
                                                       1.000   1.000

     PseudoPot. # 2 for Re read from file:
     /afs/slac.stanford.edu/u/if/mamunm/psp/gbrv1.5pbe/Re.UPF
     MD5 check sum: 85f993410f3e006da9d71c142b4ad953
     Pseudo is Ultrasoft + core correction, Zval = 15.0
     Generated by new atomic code, or converted to UPF format
     Using radial grid of  981 points,  8 beta functions with:
                l(1) =   0
                l(2) =   0
                l(3) =   1
                l(4) =   1
                l(5) =   2
                l(6) =   2
                l(7) =   3
                l(8) =   3
     Q(r) pseudized with  8 coefficients,  rinner =    1.150   1.150   1.150
                                                       1.150   1.150   1.150
                                                       1.150

     vdW kernel table read from file vdW_kernel_table
     MD5 check sum: 095c7af220d748ca6e76c0b4c6cfb241

     atomic species   valence    mass     pseudopotential
        Mo1           14.00    95.95000     Mo( 1.00)
        Re1           15.00   186.20700     Re( 1.00)

     No symmetry found

   Cartesian axes

     site n.     atom                  positions (alat units)
         1           Mo1 tau(   1) = (   0.0000000   0.0000000  10.0000000  )
         2           Mo1 tau(   2) = (  -1.4094851   2.4412998  10.0000000  )
         3           Mo1 tau(   3) = (   1.4094851   2.4412998  10.0000000  )
         4           Re1 tau(   4) = (   2.8189701   0.0000000  10.0000000  )
         5           Mo1 tau(   5) = (   2.8189701   1.6275332  12.3016795  )
         6           Mo1 tau(   6) = (   1.4094851   4.0688329  12.3016795  )
         7           Mo1 tau(   7) = (  -1.4094851   4.0688329  12.3016795  )
         8           Re1 tau(   8) = (   0.0000000   1.6275332  12.3016795  )
         9           Mo1 tau(   9) = (   0.0000105   3.2381917  14.5472814  )
        10           Mo1 tau(  10) = (   1.3948672   0.8222096  14.5472820  )
        11           Mo1 tau(  11) = (   4.2430733   0.8221980  14.5472811  )
        12           Re1 tau(  12) = (   2.8189876   3.2550694  14.4953330  )

     number of k points=    20  Fermi-Dirac smearing, width (Ry)=  0.0110
                       cart. coord. in units 2pi/alat
        k(    1) = (   0.0000000   0.0000000   0.0000000), wk =   0.0555556
        k(    2) = (   0.0000000   0.0341348   0.0000000), wk =   0.1111111
        k(    3) = (   0.0000000   0.0682696   0.0000000), wk =   0.1111111
        k(    4) = (   0.0000000  -0.1024045   0.0000000), wk =   0.0555556
        k(    5) = (   0.0295616   0.0170674   0.0000000), wk =   0.1111111
        k(    6) = (   0.0295616   0.0512022   0.0000000), wk =   0.1111111
        k(    7) = (   0.0295616   0.0853371   0.0000000), wk =   0.1111111
        k(    8) = (   0.0295616  -0.0853371   0.0000000), wk =   0.1111111
        k(    9) = (   0.0295616  -0.0512022   0.0000000), wk =   0.1111111
        k(   10) = (   0.0295616  -0.0170674   0.0000000), wk =   0.1111111
        k(   11) = (   0.0591232   0.0341348   0.0000000), wk =   0.1111111
        k(   12) = (   0.0591232   0.0682696   0.0000000), wk =   0.1111111
        k(   13) = (   0.0591232   0.1024045   0.0000000), wk =   0.1111111
        k(   14) = (   0.0591232  -0.0682696   0.0000000), wk =   0.1111111
        k(   15) = (   0.0591232  -0.0341348   0.0000000), wk =   0.1111111
        k(   16) = (   0.0591232  -0.0000000   0.0000000), wk =   0.1111111
        k(   17) = (  -0.0886849  -0.0512022   0.0000000), wk =   0.0555556
        k(   18) = (  -0.0886849  -0.0170674   0.0000000), wk =   0.1111111
        k(   19) = (  -0.0886849   0.0170674   0.0000000), wk =   0.1111111
        k(   20) = (  -0.0886849  -0.1536067   0.0000000), wk =   0.0555556

     Largest allocated arrays     est. size (Mb)     dimensions
     Largest temporary arrays     est. size (Mb)     dimensions

     Initial potential from superposition of free atoms
     Check: negative starting charge=   -0.384910

     starting charge  169.49029, renormalised to  171.00000

[...]

     *
     * You are using vdW-DF for exchange-correlation in this calculation.
     * Please cite the following three references that made this development
     * possible:
     *
     *   M. Dion, H. Rydberg, E. Schroder, D. C. Langreth, and
     *   B. I. Lundqvist, Phys. Rev. Lett. 92, 246401 (2004).
     *
     *   T. Thonhauser, V. R. Cooper, S. Li, A. Puzder, P. Hyldgaard, and
     *   D. C. Langreth, Phys. Rev. B 76, 125112 (2007).
     *
     *   G. Roman-Perez and J. M. Soler, Phys. Rev. Lett. 103, 096102 (2009).
     *
     *
     * If you are using vdW-DF2, please also cite:
     *
     *   K. Lee, E. D. Murray, L. Kong, B. I. Lundqvist, and
     *   D. C. Langreth, Phys. Rev. B 82, 081101(R) (2010).
     *
     *
     * If you are calculating the stress with vdW-DF, please also cite:
     *
     *   R. Sabatini, E. Kucukbenli, B. Kolb, T. Thonhauser, and
     *   S. de Gironcoli, J. Phys.: Condens. Matter 24, 424209 (2012).
     *

     Carrying out vdW-DF run using the following parameters:

     Nqs =      20    Nr_points =    1024   r_max =   100.000
     q_mesh =
               0.00001000     0.04494208     0.09755937     0.15916263
               0.23128650     0.31572767     0.41458969     0.53033537
               0.66584808     0.82450364     1.01025438     1.22772762
               1.48234092     1.78043706     2.12944203     2.53805004
               3.01644009     3.57652955     4.23227104     5.00000000

     Gradients computed in reciprocal space

[...]

     Starting wfc are  156 randomized atomic wfcs

     Self-consistent Calculation

[...]

     total energy              =   -1835.85699303 Ry
     Harris-Foulkes estimate   =   -1835.85699219 Ry
     estimated scf accuracy    <       0.00000406 Ry

     iteration # 17     ecut=    36.75 Ry     beta=0.10
     Davidson diagonalization with overlap
     ethr =  1.42E-09,  avg # of iterations =  2.0

[...]

     negative rho (up, down):  4.002E-01 0.000E+00

     Adding external electric field

     Computed dipole along edir(3) :
        Dipole                0.0257 Ry au,          0.0654 Debye
        Dipole field          0.0001 Ry au

        Potential amp.       -0.0064 Ry
        Total length         45.3313 bohr

     End of self-consistent calculation

[...]

          k = 0.0591-0.0000 0.0000 ( 17194 PWs)   bands (ev):

[...]

          k =-0.0887-0.1536 0.0000 ( 17240 PWs)   bands (ev):

   -77.8730 -77.7834 -77.6933 -58.6271 -58.6006 -58.5629 -58.5427 -58.5406
   -58.4968 -58.4947 -58.4728 -58.4417 -39.5867 -39.5781 -39.5726 -39.5322
   -39.4541 -39.4424 -39.4335 -39.3763 -39.3677 -33.0562 -33.0024 -32.9162
   -32.8694 -32.8229 -32.7866 -32.7688 -32.7581 -32.6841 -32.6457 -32.6400
   -32.6105 -32.5708 -32.5601 -32.5475 -32.5374 -32.5147 -32.5056 -32.4360
   -32.4310 -32.4006 -32.2980 -32.2717 -32.2458 -32.2259 -32.1994 -32.1395
    -2.9169  -2.6090  -1.7411  -1.6112  -1.4216  -1.3071  -1.2530  -1.1281
    -1.1015  -0.8699  -0.6457  -0.5933  -0.5700  -0.3324  -0.3059  -0.2694
     0.0494   0.1573   0.2295   0.3841   0.4576   0.5013   0.9065   0.9933
     1.0844   1.1117   1.1618   1.3127   1.3646   1.4322   1.5006   1.5556
     1.6433   1.7184   1.7981   1.8307   1.8673   1.9487   2.2094   2.2453
     2.8397   2.9425   3.0299   3.1251   3.1292   3.2202   3.4554   3.6799
     3.7430   3.8003   3.8600   3.8932   3.9354   3.9897   4.2118   4.3385
     4.6277   4.7146   5.0725   5.1159   5.8178   5.8860   6.0119   6.0938
     6.1363   6.2259   7.5699

     the Fermi energy is     2.3344 ev

!    total energy              =   -1835.85699503 Ry
     Harris-Foulkes estimate   =   -1835.85699324 Ry
     estimated scf accuracy    <       0.00000041 Ry

     The total energy is the sum of the following terms:

     one-electron contribution =  -15802.71448836 Ry
     hartree contribution      =    7892.81273705 Ry
     xc contribution           =    -342.21718191 Ry
     ewald contribution        =    6416.35289780 Ry
     electric field correction =       0.00000182 Ry
     smearing contrib. (-TS)   =      -0.09096142 Ry

     convergence has been achieved in  17 iterations

 BEEF-vdW xc energy contributions
           1 :   -298.882062437635
           2 :    275.380460191880
           3 :   -234.266015376163
           4 :    185.052721191345
           5 :   -137.647090954413
           6 :    99.3964963989735
           7 :   -73.4725459205660
           8 :    58.9114400802708
           9 :   -52.0181845184247
          10 :    48.3573319529706
          11 :   -44.5109471455790
          12 :    39.0042341634082
          13 :   -32.2528227122572
          14 :    25.7598880665694
          15 :   -21.0497685342490
          16 :    18.8215116100295
          17 :   -18.6508363956181
          18 :    19.2789198335481
          19 :   -19.2768881004045
          20 :    17.7228653821018
          21 :   -14.5729752694147
          22 :    10.5792525605560
          23 :   -6.84716843119799
          24 :    4.27706720767964
          25 :   -3.16580558792464
          26 :    3.13204853150444
          27 :   -3.36705171551324
          28 :    3.05820320302325
          29 :   -1.77278379997171
          30 :  -0.377265417163187
          31 :   -29.5850341869724
          32 :   -22.3810361642053

     Forces acting on atoms (Ry/au):

     negative rho (up, down):  4.002E-01 0.000E+00
     atom    1 type  1   force =    -0.00000007    0.00746267    0.01321955
     atom    2 type  1   force =     0.00646278   -0.00373163    0.01321984
     atom    3 type  1   force =    -0.00646281   -0.00373148    0.01322006
     atom    4 type  2   force =    -0.00000403   -0.00000137    0.02555376
     atom    5 type  1   force =     0.00000010   -0.00318354   -0.01718308
     atom    6 type  1   force =    -0.00275673    0.00159201   -0.01718407
     atom    7 type  1   force =     0.00275647    0.00159144   -0.01718360
     atom    8 type  2   force =     0.00000123    0.00000342   -0.01456763
     atom    9 type  1   force =     0.00000017   -0.00013180    0.00001913
     atom   10 type  1   force =    -0.00011229    0.00006608    0.00001919
     atom   11 type  1   force =     0.00011378    0.00006675    0.00001923
     atom   12 type  2   force =     0.00000139   -0.00000256    0.00084763

     Total force =     0.049735     Total SCF correction =     0.002818

     entering subroutine stress ...

     negative rho (up, down):  4.002E-01 0.000E+00
          total   stress  (Ry/bohr**3)                   (kbar)     P=  -29.69
  -0.00026876   0.00000000   0.00000000        -39.54      0.00      0.00
   0.00000000  -0.00026876   0.00000000          0.00    -39.54      0.00
   0.00000000   0.00000000  -0.00006798          0.00      0.00    -10.00

 !ASE

     Writing output data file calc.save

     General routines

     Parallel routines

   This run was terminated on:   4: 1:29  27Dec2018

   JOB DONE.
Job  /afs/slac/g/suncat/bin/suncat-tsmpirun -x LD_LIBRARY_PATH -wdir /scratch/qe110145_JoZVm pw.x -in pw.inp

TID   HOST_NAME   COMMAND_LINE            STATUS            TERMINATION_TIME
00000 suncat0093 pw.x -in pw.inp   Done                     12/27/2018 04:01:29
00001 suncat0093 pw.x -in pw.inp   Done                     12/27/2018 04:01:29
00002 suncat0093 pw.x -in pw.inp   Done                     12/27/2018 04:01:29
00003 suncat0093 pw.x -in pw.inp   Done                     12/27/2018 04:01:29
00004 suncat0093 pw.x -in pw.inp   Done                     12/27/2018 04:01:29
00005 suncat0093 pw.x -in pw.inp   Done                     12/27/2018 04:01:29
00006 suncat0093 pw.x -in pw.inp   Done                     12/27/2018 04:01:29
00007 suncat0093 pw.x -in pw.inp   Done                     12/27/2018 04:01:29
00008 suncat0089 pw.x -in pw.inp   Done                     12/27/2018 04:01:29
00009 suncat0089 pw.x -in pw.inp   Done                     12/27/2018 04:01:29
00010 suncat0089 pw.x -in pw.inp   Done                     12/27/2018 04:01:29
00011 suncat0089 pw.x -in pw.inp   Done                     12/27/2018 04:01:29
00012 suncat0089 pw.x -in pw.inp   Done                     12/27/2018 04:01:29
00013 suncat0089 pw.x -in pw.inp   Done                     12/27/2018 04:01:29
00014 suncat0089 pw.x -in pw.inp   Done                     12/27/2018 04:01:29
00015 suncat0089 pw.x -in pw.inp   Done                     12/27/2018 04:01:29
00016 suncat0088 pw.x -in pw.inp   Done                     12/27/2018 04:01:29
00017 suncat0088 pw.x -in pw.inp   Done                     12/27/2018 04:01:29
00018 suncat0088 pw.x -in pw.inp   Done                     12/27/2018 04:01:29
00019 suncat0088 pw.x -in pw.inp   Done                     12/27/2018 04:01:29
00020 suncat0088 pw.x -in pw.inp   Done                     12/27/2018 04:01:29
00021 suncat0088 pw.x -in pw.inp   Done                     12/27/2018 04:01:29
00022 suncat0088 pw.x -in pw.inp   Done                     12/27/2018 04:01:29
00023 suncat0088 pw.x -in pw.inp   Done                     12/27/2018 04:01:29
00024 suncat0079 pw.x -in pw.inp   Done                     12/27/2018 04:01:29
00025 suncat0079 pw.x -in pw.inp   Done                     12/27/2018 04:01:29
00026 suncat0079 pw.x -in pw.inp   Done                     12/27/2018 04:01:29
00027 suncat0079 pw.x -in pw.inp   Done                     12/27/2018 04:01:29
00028 suncat0079 pw.x -in pw.inp   Done                     12/27/2018 04:01:29
00029 suncat0079 pw.x -in pw.inp   Done                     12/27/2018 04:01:29
00030 suncat0079 pw.x -in pw.inp   Done                     12/27/2018 04:01:29
00031 suncat0079 pw.x -in pw.inp   Done                     12/27/2018 04:01:29
00032 suncat0064 pw.x -in pw.inp   Done                     12/27/2018 04:01:29
00033 suncat0064 pw.x -in pw.inp   Done                     12/27/2018 04:01:29
00034 suncat0064 pw.x -in pw.inp   Done                     12/27/2018 04:01:29
00035 suncat0064 pw.x -in pw.inp   Done                     12/27/2018 04:01:29
00036 suncat0064 pw.x -in pw.inp   Done                     12/27/2018 04:01:29
00037 suncat0064 pw.x -in pw.inp   Done                     12/27/2018 04:01:29
00038 suncat0064 pw.x -in pw.inp   Done                     12/27/2018 04:01:29
00039 suncat0064 pw.x -in pw.inp   Done                     12/27/2018 04:01:29
00040 suncat0129 pw.x -in pw.inp   Done                     12/27/2018 04:01:29
00041 suncat0129 pw.x -in pw.inp   Done                     12/27/2018 04:01:29
00042 suncat0129 pw.x -in pw.inp   Done                     12/27/2018 04:01:29
00043 suncat0129 pw.x -in pw.inp   Done                     12/27/2018 04:01:29
00044 suncat0129 pw.x -in pw.inp   Done                     12/27/2018 04:01:29
00045 suncat0129 pw.x -in pw.inp   Done                     12/27/2018 04:01:29
00046 suncat0129 pw.x -in pw.inp   Done                     12/27/2018 04:01:29
00047 suncat0129 pw.x -in pw.inp   Done                     12/27/2018 04:01:29
00048 suncat0254 pw.x -in pw.inp   Done                     12/27/2018 04:01:29
00049 suncat0254 pw.x -in pw.inp   Done                     12/27/2018 04:01:29
00050 suncat0254 pw.x -in pw.inp   Done                     12/27/2018 04:01:29
00051 suncat0254 pw.x -in pw.inp   Done                     12/27/2018 04:01:29
00052 suncat0254 pw.x -in pw.inp   Done                     12/27/2018 04:01:29
00053 suncat0254 pw.x -in pw.inp   Done                     12/27/2018 04:01:29
00054 suncat0254 pw.x -in pw.inp   Done                     12/27/2018 04:01:29
00055 suncat0254 pw.x -in pw.inp   Done                     12/27/2018 04:01:29
00056 suncat0253 pw.x -in pw.inp   Done                     12/27/2018 04:01:29
00057 suncat0253 pw.x -in pw.inp   Done                     12/27/2018 04:01:29
00058 suncat0253 pw.x -in pw.inp   Done                     12/27/2018 04:01:29
00059 suncat0253 pw.x -in pw.inp   Done                     12/27/2018 04:01:29
00060 suncat0253 pw.x -in pw.inp   Done                     12/27/2018 04:01:29
00061 suncat0253 pw.x -in pw.inp   Done                     12/27/2018 04:01:29
00062 suncat0253 pw.x -in pw.inp   Done                     12/27/2018 04:01:29
00063 suncat0253 pw.x -in pw.inp   Done                     12/27/2018 04:01:29