     Program PWSCF v.5.1rc2 (svn rev. 11289) starts on 26Dec2018 at  8:54:53

     Current dimensions of program PWSCF are:
     Max number of different atomic species (ntypx) = 10
     Max number of k-points (npk) =  40000
     Max angular momentum in pseudopotentials (lmaxx) =  3
     Presently stress not available with electric field

     IMPORTANT: XC functional enforced from input :
     Exchange-correlation      = BEEF-VDW ( 1  4 27 13 2)
     Any further DFT definition will be discarded
     Please, verify this is what you really want

     Subspace diagonalization in iterative solution of the eigenvalue problem:
     a serial algorithm will be used

     bravais-lattice index     =            0
     lattice parameter (alat)  =       1.8897  a.u.
     unit-cell volume          =    7146.9172 (a.u.)^3
     number of atoms/cell      =           12
     number of atomic types    =            2
     number of electrons       =       147.00
     number of Kohn-Sham states=          103
     kinetic-energy cutoff     =      36.7493  Ry
     charge density cutoff     =     367.4932  Ry
     convergence threshold     =      1.0E-06
     mixing beta               =       0.1000
     number of iterations used =           10  plain     mixing
     Exchange-correlation      = BEEF-VDW ( 1  4 27 13 2)
     nstep                     =           50

     celldm(1)=   1.889726  celldm(2)=   0.000000  celldm(3)=   0.000000
     celldm(4)=   0.000000  celldm(5)=   0.000000  celldm(6)=   0.000000

     crystal axes: (cart. coord. in units of alat)
               a(1) = (   6.906300   0.000000   0.000000 )
               a(2) = (  -3.453150   5.981032   0.000000 )
               a(3) = (   0.000000   0.000000  25.638971 )

     reciprocal axes: (cart. coord. in units 2 pi/alat)
               b(1) = (  0.144795  0.083598  0.000000 )
               b(2) = (  0.000000  0.167195  0.000000 )
               b(3) = (  0.000000  0.000000  0.039003 )

     PseudoPot. # 1 for Hg read from file:
     /afs/slac.stanford.edu/u/if/mamunm/psp/gbrv1.5pbe/Hg.UPF
     MD5 check sum: 8f42caffe07f7fd9c0a564347f8c5498
     Pseudo is Ultrasoft + core correction, Zval = 12.0
     Generated by new atomic code, or converted to UPF format
     Using radial grid of  985 points,  6 beta functions with:
                l(1) =   0
                l(2) =   0
                l(3) =   1
                l(4) =   1
                l(5) =   2
                l(6) =   2
     Q(r) pseudized with  8 coefficients,  rinner =    2.000   2.000   2.000
                                                       2.000   2.000

     PseudoPot. # 2 for In read from file:
     /afs/slac.stanford.edu/u/if/mamunm/psp/gbrv1.5pbe/In.UPF
     MD5 check sum: 90777abd96fbb83f2e67db2a40c566b9
     Pseudo is Ultrasoft + core correction, Zval = 13.0
     Generated by new atomic code, or converted to UPF format
     Using radial grid of  889 points,  6 beta functions with:
                l(1) =   0
                l(2) =   0
                l(3) =   1
                l(4) =   1
                l(5) =   2
                l(6) =   2
     Q(r) pseudized with  6 coefficients,  rinner =    1.400   1.400   1.400
                                                       1.400   1.400

     vdW kernel table read from file vdW_kernel_table
     MD5 check sum: 095c7af220d748ca6e76c0b4c6cfb241

     atomic species   valence    mass     pseudopotential
        Hg1           12.00   200.59200     Hg( 1.00)
        In1           13.00   114.81800     In( 1.00)

     No symmetry found

   Cartesian axes

     site n.     atom                  positions (alat units)
         1           Hg1 tau(   1) = (   0.0000000   0.0000000  10.0000000  )
         2           Hg1 tau(   2) = (  -1.7265751   2.9905158  10.0000000  )
         3           Hg1 tau(   3) = (   1.7265751   2.9905158  10.0000000  )
         4           In1 tau(   4) = (   3.4531502   0.0000000  10.0000000  )
         5           Hg1 tau(   5) = (   3.4531502   1.9936772  12.8194853  )
         6           Hg1 tau(   6) = (   1.7265751   4.9841930  12.8194853  )
         7           Hg1 tau(   7) = (  -1.7265751   4.9841930  12.8194853  )
         8           In1 tau(   8) = (   0.0000000   1.9936772  12.8194853  )
         9           Hg1 tau(   9) = (  -0.0000000   3.9873544  15.6389707  )
        10           Hg1 tau(  10) = (   1.7265751   0.9968386  15.6389707  )
        11           Hg1 tau(  11) = (   5.1797253   0.9968386  15.6389707  )
        12           In1 tau(  12) = (   3.4531502   3.9873544  15.6389707  )

     number of k points=    20  Fermi-Dirac smearing, width (Ry)=  0.0110
                       cart. coord. in units 2pi/alat
        k(    1) = (   0.0000000   0.0000000   0.0000000), wk =   0.0555556
        k(    2) = (   0.0000000   0.0278659   0.0000000), wk =   0.1111111
        k(    3) = (   0.0000000   0.0557317   0.0000000), wk =   0.1111111
        k(    4) = (   0.0000000  -0.0835976   0.0000000), wk =   0.0555556
        k(    5) = (   0.0241326   0.0139329   0.0000000), wk =   0.1111111
        k(    6) = (   0.0241326   0.0417988   0.0000000), wk =   0.1111111
        k(    7) = (   0.0241326   0.0696647   0.0000000), wk =   0.1111111
        k(    8) = (   0.0241326  -0.0696647   0.0000000), wk =   0.1111111
        k(    9) = (   0.0241326  -0.0417988   0.0000000), wk =   0.1111111
        k(   10) = (   0.0241326  -0.0139329   0.0000000), wk =   0.1111111
        k(   11) = (   0.0482651   0.0278659   0.0000000), wk =   0.1111111
        k(   12) = (   0.0482651   0.0557317   0.0000000), wk =   0.1111111
        k(   13) = (   0.0482651   0.0835976   0.0000000), wk =   0.1111111
        k(   14) = (   0.0482651  -0.0557317   0.0000000), wk =   0.1111111
        k(   15) = (   0.0482651  -0.0278659   0.0000000), wk =   0.1111111
        k(   16) = (   0.0482651   0.0000000   0.0000000), wk =   0.1111111
        k(   17) = (  -0.0723977  -0.0417988   0.0000000), wk =   0.0555556
        k(   18) = (  -0.0723977  -0.0139329   0.0000000), wk =   0.1111111
        k(   19) = (  -0.0723977   0.0139329   0.0000000), wk =   0.1111111
        k(   20) = (  -0.0723977  -0.1253964   0.0000000), wk =   0.0555556

     Largest allocated arrays     est. size (Mb)     dimensions
     Largest temporary arrays     est. size (Mb)     dimensions

     Initial potential from superposition of free atoms
     Check: negative starting charge=   -0.000123

     starting charge  142.49947, renormalised to  147.00000

     negative rho (up, down):  1.264E-04 0.000E+00

     *
     * You are using vdW-DF for exchange-correlation in this calculation.
     * Please cite the following three references that made this development
     * possible:
     *
     *   M. Dion, H. Rydberg, E. Schroder, D. C. Langreth, and
     *   B. I. Lundqvist, Phys. Rev. Lett. 92, 246401 (2004).
     *
     *   T. Thonhauser, V. R. Cooper, S. Li, A. Puzder, P. Hyldgaard, and
     *   D. C. Langreth, Phys. Rev. B 76, 125112 (2007).
     *
     *   G. Roman-Perez and J. M. Soler, Phys. Rev. Lett. 103, 096102 (2009).
     *
     *
     * If you are using vdW-DF2, please also cite:
     *
     *   K. Lee, E. D. Murray, L. Kong, B. I. Lundqvist, and
     *   D. C. Langreth, Phys. Rev. B 82, 081101(R) (2010).
     *
     *
     * If you are calculating the stress with vdW-DF, please also cite:
     *
     *   R. Sabatini, E. Kucukbenli, B. Kolb, T. Thonhauser, and
     *   S. de Gironcoli, J. Phys.: Condens. Matter 24, 424209 (2012).
     *

     Carrying out vdW-DF run using the following parameters:

     Nqs =      20    Nr_points =    1024   r_max =   100.000
     q_mesh =
               0.00001000     0.04494208     0.09755937     0.15916263
               0.23128650     0.31572767     0.41458969     0.53033537
               0.66584808     0.82450364     1.01025438     1.22772762
               1.48234092     1.78043706     2.12944203     2.53805004
               3.01644009     3.57652955     4.23227104     5.00000000

     Gradients computed in reciprocal space

     Adding external electric field

     Computed dipole along edir(3) :
        Dipole               -0.0000 Ry au,         -0.0000 Debye
        Dipole field         -0.0000 Ry au

        Potential amp.        0.0000 Ry
        Total length         47.2394 bohr

     Starting wfc are  108 randomized atomic wfcs

     Self-consistent Calculation

     iteration #  1     ecut=    36.75 Ry     beta=0.10
     Davidson diagonalization with overlap
     ethr =  1.00E-02,  avg # of iterations =  8.2

[...]

     total energy              =   -1386.75625661 Ry
     Harris-Foulkes estimate   =   -1387.31931062 Ry
     estimated scf accuracy    <       3.49436213 Ry

[...]

     End of self-consistent calculation

          k = 0.0000 0.0000 0.0000 ( 27009 PWs)   bands (ev):

   -15.1121 -15.1080 -15.1080 -15.1029 -15.1029 -15.0945 -15.0935 -15.0886
   -15.0886 -15.0877 -15.0877 -15.0850 -15.0850 -15.0839 -15.0839  -7.7325
    -7.5010  -7.3389  -7.2218  -7.2102  -7.2102  -7.1798  -7.1504  -7.1283
    -7.0780  -7.0780  -7.0420  -7.0420  -6.9889  -6.9889  -6.8844  -6.8844
    -6.8602  -6.8340  -6.7168  -6.7168  -6.6818  -6.6673  -6.6673  -6.6397
    -6.5790  -6.5790  -6.5260  -6.5260  -6.4903  -6.4903  -6.4732  -6.3913
    -6.3913  -6.3760  -6.3760  -6.3592  -6.3592  -6.2959  -6.2959  -6.2908
    -6.2200  -6.1641  -6.1641  -6.0861  -6.0771  -6.0492  -4.2375  -3.1499
    -2.9581  -2.7324  -2.7324  -2.5040  -2.5040  -2.0481  -1.5503  -1.5503
    -1.0024  -1.0024  -0.8547  -0.2776   0.3747   0.3747   0.4693   0.4693
     0.5405   1.0038   1.7700   3.2391   3.4540   3.7322   3.9219   4.3301
     4.3301   4.4252   4.4252   4.5957   4.8239   5.6394   5.6394   5.8606
     6.2643   6.2643   6.3500   6.3861   6.5986   6.5986   6.6043

[...]

          k =-0.0724-0.0418 0.0000 ( 26854 PWs)   bands (ev):

[...]

     the Fermi energy is     0.1255 ev

!    total energy              =   -1386.32631691 Ry
     Harris-Foulkes estimate   =   -1386.32630931 Ry
     estimated scf accuracy    <       0.00000059 Ry

     The total energy is the sum of the following terms:

     one-electron contribution =   -7235.13795670 Ry
     hartree contribution      =    3703.40311009 Ry
     xc contribution           =    -480.87746080 Ry
     ewald contribution        =    2626.31047798 Ry
     electric field correction =       0.00000000 Ry
     smearing contrib. (-TS)   =      -0.02448748 Ry

     convergence has been achieved in  13 iterations

 BEEF-vdW xc energy contributions
           1 :   -421.316200211392
           2 :    386.216924830720
           3 :   -326.181424747936
           4 :    256.842332605087
           5 :   -192.916627893037
           6 :    143.323055623688
           7 :   -109.620007629774
           8 :    87.7878525556347
           9 :   -71.8873723509655
          10 :    57.4715273066286
          11 :   -43.1514522191605
          12 :    29.9949724215289
          13 :   -19.6913660617858
          14 :    12.9011307904201
          15 :   -8.77175072804334
          16 :    5.64679032251695
          17 :   -2.23122613362898
          18 :   -1.66945698490190
[...]

     PseudoPot. # 1 for Hg read from file:
     /afs/slac.stanford.edu/u/if/mamunm/psp/gbrv1.5pbe/Hg.UPF
     MD5 check sum: 8f42caffe07f7fd9c0a564347f8c5498
     Pseudo is Ultrasoft + core correction, Zval = 12.0
     Generated by new atomic code, or converted to UPF format
     Using radial grid of  985 points,  6 beta functions with:
                l(1) =   0
                l(2) =   0
                l(3) =   1
                l(4) =   1
                l(5) =   2
                l(6) =   2
     Q(r) pseudized with  8 coefficients,  rinner =    2.000   2.000   2.000
                                                       2.000   2.000

     PseudoPot. # 2 for In read from file:
     /afs/slac.stanford.edu/u/if/mamunm/psp/gbrv1.5pbe/In.UPF
     MD5 check sum: 90777abd96fbb83f2e67db2a40c566b9
     Pseudo is Ultrasoft + core correction, Zval = 13.0
     Generated by new atomic code, or converted to UPF format
     Using radial grid of  889 points,  6 beta functions with:
                l(1) =   0
                l(2) =   0
                l(3) =   1
                l(4) =   1
                l(5) =   2
                l(6) =   2
     Q(r) pseudized with  6 coefficients,  rinner =    1.400   1.400   1.400
                                                       1.400   1.400

     vdW kernel table read from file vdW_kernel_table
     MD5 check sum: 095c7af220d748ca6e76c0b4c6cfb241

     atomic species   valence    mass     pseudopotential
        Hg1           12.00   200.59200     Hg( 1.00)
        In1           13.00   114.81800     In( 1.00)

     No symmetry found

   Cartesian axes

     site n.     atom                  positions (alat units)
         1           Hg1 tau(   1) = (   0.0000000   0.0000000  10.0000000  )
         2           Hg1 tau(   2) = (  -1.7265751   2.9905158  10.0000000  )
         3           Hg1 tau(   3) = (   1.7265751   2.9905158  10.0000000  )
         4           In1 tau(   4) = (   3.4531502   0.0000000  10.0000000  )
         5           Hg1 tau(   5) = (   3.4531502   1.9936772  12.8194853  )
         6           Hg1 tau(   6) = (   1.7265751   4.9841930  12.8194853  )
         7           Hg1 tau(   7) = (  -1.7265751   4.9841930  12.8194853  )
         8           In1 tau(   8) = (   0.0000000   1.9936772  12.8194853  )
         9           Hg1 tau(   9) = (  -0.0001036   4.0116843  15.9903358  )
        10           Hg1 tau(  10) = (   1.7476340   0.9845754  15.9902595  )
        11           Hg1 tau(  11) = (   5.1585999   0.9846786  15.9902835  )
        12           In1 tau(  12) = (   3.4531811   3.9873694  15.5189852  )

     number of k points=    20  Fermi-Dirac smearing, width (Ry)=  0.0110
                       cart. coord. in units 2pi/alat
        k(    1) = (   0.0000000   0.0000000   0.0000000), wk =   0.0555556
        k(    2) = (   0.0000000   0.0278659   0.0000000), wk =   0.1111111
        k(    3) = (   0.0000000   0.0557317   0.0000000), wk =   0.1111111
        k(    4) = (   0.0000000  -0.0835976   0.0000000), wk =   0.0555556
        k(    5) = (   0.0241326   0.0139329   0.0000000), wk =   0.1111111
        k(    6) = (   0.0241326   0.0417988   0.0000000), wk =   0.1111111
        k(    7) = (   0.0241326   0.0696647   0.0000000), wk =   0.1111111
        k(    8) = (   0.0241326  -0.0696647   0.0000000), wk =   0.1111111
        k(    9) = (   0.0241326  -0.0417988   0.0000000), wk =   0.1111111
        k(   10) = (   0.0241326  -0.0139329   0.0000000), wk =   0.1111111
        k(   11) = (   0.0482651   0.0278659   0.0000000), wk =   0.1111111
        k(   12) = (   0.0482651   0.0557317   0.0000000), wk =   0.1111111
        k(   13) = (   0.0482651   0.0835976   0.0000000), wk =   0.1111111
        k(   14) = (   0.0482651  -0.0557317   0.0000000), wk =   0.1111111
        k(   15) = (   0.0482651  -0.0278659   0.0000000), wk =   0.1111111
        k(   16) = (   0.0482651   0.0000000   0.0000000), wk =   0.1111111
        k(   17) = (  -0.0723977  -0.0417988   0.0000000), wk =   0.0555556
        k(   18) = (  -0.0723977  -0.0139329   0.0000000), wk =   0.1111111
        k(   19) = (  -0.0723977   0.0139329   0.0000000), wk =   0.1111111
        k(   20) = (  -0.0723977  -0.1253964   0.0000000), wk =   0.0555556

     Largest allocated arrays     est. size (Mb)     dimensions
     Largest temporary arrays     est. size (Mb)     dimensions

     Initial potential from superposition of free atoms
     Check: negative starting charge=   -0.000120

     starting charge  142.49947, renormalised to  147.00000

[...]

     *
     * You are using vdW-DF for exchange-correlation in this calculation.
     * Please cite the following three references that made this development
     * possible:
     *
     *   M. Dion, H. Rydberg, E. Schroder, D. C. Langreth, and
     *   B. I. Lundqvist, Phys. Rev. Lett. 92, 246401 (2004).
     *
     *   T. Thonhauser, V. R. Cooper, S. Li, A. Puzder, P. Hyldgaard, and
     *   D. C. Langreth, Phys. Rev. B 76, 125112 (2007).
     *
     *   G. Roman-Perez and J. M. Soler, Phys. Rev. Lett. 103, 096102 (2009).
     *
     *
     * If you are using vdW-DF2, please also cite:
     *
     *   K. Lee, E. D. Murray, L. Kong, B. I. Lundqvist, and
     *   D. C. Langreth, Phys. Rev. B 82, 081101(R) (2010).
     *
     *
     * If you are calculating the stress with vdW-DF, please also cite:
     *
     *   R. Sabatini, E. Kucukbenli, B. Kolb, T. Thonhauser, and
     *   S. de Gironcoli, J. Phys.: Condens. Matter 24, 424209 (2012).
     *

     Carrying out vdW-DF run using the following parameters:

     Nqs =      20    Nr_points =    1024   r_max =   100.000
     q_mesh =
               0.00001000     0.04494208     0.09755937     0.15916263
               0.23128650     0.31572767     0.41458969     0.53033537
               0.66584808     0.82450364     1.01025438     1.22772762
               1.48234092     1.78043706     2.12944203     2.53805004
               3.01644009     3.57652955     4.23227104     5.00000000

     Gradients computed in reciprocal space

[...]

     Starting wfc are  108 randomized atomic wfcs

     Self-consistent Calculation

[...]

     total energy              =   -1386.33143009 Ry
     Harris-Foulkes estimate   =   -1386.33142891 Ry
     estimated scf accuracy    <       0.00000389 Ry

     iteration # 14     ecut=    36.75 Ry     beta=0.10
     Davidson diagonalization with overlap
     ethr =  2.64E-09,  avg # of iterations =  2.0

[...]

     negative rho (up, down):  5.445E-04 0.000E+00

     Adding external electric field

     Computed dipole along edir(3) :
        Dipole               -0.0057 Ry au,         -0.0145 Debye
        Dipole field         -0.0000 Ry au

        Potential amp.        0.0009 Ry
        Total length         47.2394 bohr

     End of self-consistent calculation

[...]

          k = 0.0483 0.0000 0.0000 ( 26893 PWs)   bands (ev):

[...]

          k =-0.0724-0.1254 0.0000 ( 26854 PWs)   bands (ev):

   -15.1098 -15.1036 -15.1035 -15.0986 -15.0977 -15.0806 -15.0758 -15.0753
   -15.0730 -15.0717 -15.0679 -15.0665 -15.0628 -15.0609 -15.0603  -7.2089
    -7.1942  -7.1187  -7.0601  -7.0423  -7.0083  -6.9677  -6.9605  -6.9455
    -6.9306  -6.9170  -6.9072  -6.8910  -6.8283  -6.8057  -6.7675  -6.7513
    -6.7378  -6.6913  -6.6645  -6.6543  -6.6470  -6.6052  -6.5961  -6.5948
    -6.5809  -6.5727  -6.5675  -6.5583  -6.5571  -6.5446  -6.5329  -6.5179
    -6.5101  -6.4796  -6.4785  -6.4571  -6.4436  -6.4395  -6.3860  -6.3527
    -6.3367  -6.3008  -6.2103  -6.1575  -6.1110  -6.0426  -5.1185  -4.8398
    -3.9982  -3.5564  -3.4643  -3.4062  -2.8991  -2.5617  -1.8738  -1.4728
     0.4758   0.5871   1.0494   1.2948   1.4941   1.7990   2.0229   2.0871
     2.3930   2.5792   2.8239   2.9479   3.2494   3.8059   3.8608   3.8997
     4.0117   4.1803   4.2309   4.5773   4.7461   4.8021   4.8159   4.8581
     4.8949   5.0043   5.2437   5.3802   5.5437   5.5739   5.8681

     the Fermi energy is     0.1300 ev

!    total energy              =   -1386.33143877 Ry
     Harris-Foulkes estimate   =   -1386.33143082 Ry
     estimated scf accuracy    <       0.00000092 Ry

     The total energy is the sum of the following terms:

     one-electron contribution =   -7000.19122535 Ry
     hartree contribution      =    3586.01257173 Ry
     xc contribution           =    -480.82209954 Ry
     ewald contribution        =    2508.69383149 Ry
     electric field correction =       0.00000006 Ry
     smearing contrib. (-TS)   =      -0.02451715 Ry

     convergence has been achieved in  14 iterations

 BEEF-vdW xc energy contributions
           1 :   -421.243017672213
           2 :    386.044976593416
           3 :   -325.916806268348
           4 :    256.601342324716
           5 :   -192.832977181068
           6 :    143.438041980196
           7 :   -109.841315363624
           8 :    87.9495473480196
           9 :   -71.8681044618805
          10 :    57.2831397811849
          11 :   -42.9313504715938
          12 :    29.9065091775568
          13 :   -19.8048484469193
          14 :    13.1429395584874
          15 :   -8.97894597704590
          16 :    5.68600150893167
          17 :   -2.09302987501775
          18 :   -1.86905002582324
          19 :    5.36870407009724
          20 :   -7.45044250066036
          21 :    7.78233777964914
          22 :   -6.88894014342054
          23 :    5.78934555818688
          24 :   -5.36174644001642
          25 :    5.87971781117221
          26 :   -6.98070721431060
          27 :    8.00275581456998
          28 :   -8.41254157070603
          29 :    8.05563921152236
          30 :   -7.13803125512607
          31 :   -38.9000469605231
          32 :   -28.2776335544504

     Forces acting on atoms (Ry/au):

     negative rho (up, down):  5.445E-04 0.000E+00
     atom    1 type  1   force =    -0.00000241   -0.00125753   -0.00592433
     atom    2 type  1   force =    -0.00109114    0.00062649   -0.00592483
     atom    3 type  1   force =     0.00109134    0.00062865   -0.00592584
     atom    4 type  2   force =     0.00000174    0.00000194    0.00181614
     atom    5 type  1   force =    -0.00000009   -0.00338305    0.00377570
     atom    6 type  1   force =    -0.00292842    0.00169179    0.00377415
     atom    7 type  1   force =     0.00292893    0.00169161    0.00377552
     atom    8 type  2   force =    -0.00000097   -0.00000084    0.00568904
     atom    9 type  1   force =     0.00000436   -0.00153625   -0.00027443
     atom   10 type  1   force =    -0.00132996    0.00077071   -0.00027663
     atom   11 type  1   force =     0.00133075    0.00076696   -0.00027171
     atom   12 type  2   force =    -0.00000414   -0.00000049   -0.00023278

     Total force =     0.015171     Total SCF correction =     0.003338
     SCF correction compared to forces is large: reduce conv_thr to get better values

     entering subroutine stress ...

     negative rho (up, down):  5.445E-04 0.000E+00
          total   stress  (Ry/bohr**3)                   (kbar)     P=    1.00
   0.00000434  -0.00000000   0.00000000          0.64     -0.00      0.00
  -0.00000000   0.00000434   0.00000000         -0.00      0.64      0.00
   0.00000000   0.00000000   0.00001164          0.00      0.00      1.71

 !ASE

     Writing output data file calc.save

     General routines

     Parallel routines

   This run was terminated on:  10:13: 1  26Dec2018

   JOB DONE.
Job  /afs/slac/g/suncat/bin/suncat-tsmpirun -x LD_LIBRARY_PATH -wdir /scratch/qe109805_vvpIm pw.x -in pw.inp

TID   HOST_NAME   COMMAND_LINE            STATUS            TERMINATION_TIME
00000 suncat0095 pw.x -in pw.inp   Done                     12/26/2018 10:13:01
00001 suncat0095 pw.x -in pw.inp   Done                     12/26/2018 10:13:01
00002 suncat0095 pw.x -in pw.inp   Done                     12/26/2018 10:13:01
00003 suncat0095 pw.x -in pw.inp   Done                     12/26/2018 10:13:01
00004 suncat0095 pw.x -in pw.inp   Done                     12/26/2018 10:13:01
00005 suncat0095 pw.x -in pw.inp   Done                     12/26/2018 10:13:01
00006 suncat0095 pw.x -in pw.inp   Done                     12/26/2018 10:13:01
00007 suncat0095 pw.x -in pw.inp   Done                     12/26/2018 10:13:01
00008 suncat0094 pw.x -in pw.inp   Done                     12/26/2018 10:13:01
00009 suncat0094 pw.x -in pw.inp   Done                     12/26/2018 10:13:01
00010 suncat0094 pw.x -in pw.inp   Done                     12/26/2018 10:13:01
00011 suncat0094 pw.x -in pw.inp   Done                     12/26/2018 10:13:01
00012 suncat0094 pw.x -in pw.inp   Done                     12/26/2018 10:13:01
00013 suncat0094 pw.x -in pw.inp   Done                     12/26/2018 10:13:01
00014 suncat0094 pw.x -in pw.inp   Done                     12/26/2018 10:13:01
00015 suncat0094 pw.x -in pw.inp   Done                     12/26/2018 10:13:01
00016 suncat0093 pw.x -in pw.inp   Done                     12/26/2018 10:13:01
00017 suncat0093 pw.x -in pw.inp   Done                     12/26/2018 10:13:01
00018 suncat0093 pw.x -in pw.inp   Done                     12/26/2018 10:13:01
00019 suncat0093 pw.x -in pw.inp   Done                     12/26/2018 10:13:01
00020 suncat0093 pw.x -in pw.inp   Done                     12/26/2018 10:13:01
00021 suncat0093 pw.x -in pw.inp   Done                     12/26/2018 10:13:01
00022 suncat0093 pw.x -in pw.inp   Done                     12/26/2018 10:13:01
00023 suncat0093 pw.x -in pw.inp   Done                     12/26/2018 10:13:01
00024 suncat0064 pw.x -in pw.inp   Done                     12/26/2018 10:13:01
00025 suncat0064 pw.x -in pw.inp   Done                     12/26/2018 10:13:01
00026 suncat0064 pw.x -in pw.inp   Done                     12/26/2018 10:13:01
00027 suncat0064 pw.x -in pw.inp   Done                     12/26/2018 10:13:01
00028 suncat0064 pw.x -in pw.inp   Done                     12/26/2018 10:13:01
00029 suncat0064 pw.x -in pw.inp   Done                     12/26/2018 10:13:01
00030 suncat0064 pw.x -in pw.inp   Done                     12/26/2018 10:13:01
00031 suncat0064 pw.x -in pw.inp   Done                     12/26/2018 10:13:01
00032 suncat0063 pw.x -in pw.inp   Done                     12/26/2018 10:13:01
00033 suncat0063 pw.x -in pw.inp   Done                     12/26/2018 10:13:01
00034 suncat0063 pw.x -in pw.inp   Done                     12/26/2018 10:13:01
00035 suncat0063 pw.x -in pw.inp   Done                     12/26/2018 10:13:01
00036 suncat0063 pw.x -in pw.inp   Done                     12/26/2018 10:13:01
00037 suncat0063 pw.x -in pw.inp   Done                     12/26/2018 10:13:01
00038 suncat0063 pw.x -in pw.inp   Done                     12/26/2018 10:13:01
00039 suncat0063 pw.x -in pw.inp   Done                     12/26/2018 10:13:01
00040 suncat0061 pw.x -in pw.inp   Done                     12/26/2018 10:13:01
00041 suncat0061 pw.x -in pw.inp   Done                     12/26/2018 10:13:01
00042 suncat0061 pw.x -in pw.inp   Done                     12/26/2018 10:13:01
00043 suncat0061 pw.x -in pw.inp   Done                     12/26/2018 10:13:01
00044 suncat0061 pw.x -in pw.inp   Done                     12/26/2018 10:13:01
00045 suncat0061 pw.x -in pw.inp   Done                     12/26/2018 10:13:01
00046 suncat0061 pw.x -in pw.inp   Done                     12/26/2018 10:13:01
00047 suncat0061 pw.x -in pw.inp   Done                     12/26/2018 10:13:01
00048 suncat0053 pw.x -in pw.inp   Done                     12/26/2018 10:13:01
00049 suncat0053 pw.x -in pw.inp   Done                     12/26/2018 10:13:01
00050 suncat0053 pw.x -in pw.inp   Done                     12/26/2018 10:13:01
00051 suncat0053 pw.x -in pw.inp   Done                     12/26/2018 10:13:01
00052 suncat0053 pw.x -in pw.inp   Done                     12/26/2018 10:13:01
00053 suncat0053 pw.x -in pw.inp   Done                     12/26/2018 10:13:01
00054 suncat0053 pw.x -in pw.inp   Done                     12/26/2018 10:13:01
00055 suncat0053 pw.x -in pw.inp   Done                     12/26/2018 10:13:01
00056 suncat0052 pw.x -in pw.inp   Done                     12/26/2018 10:13:01
00057 suncat0052 pw.x -in pw.inp   Done                     12/26/2018 10:13:01
00058 suncat0052 pw.x -in pw.inp   Done                     12/26/2018 10:13:01
00059 suncat0052 pw.x -in pw.inp   Done                     12/26/2018 10:13:01
00060 suncat0052 pw.x -in pw.inp   Done                     12/26/2018 10:13:01
00061 suncat0052 pw.x -in pw.inp   Done                     12/26/2018 10:13:01
00062 suncat0052 pw.x -in pw.inp   Done                     12/26/2018 10:13:01
00063 suncat0052 pw.x -in pw.inp   Done                     12/26/2018 10:13:01