     Program PWSCF v.5.1rc2 (svn rev. 11289) starts on 26Dec2018 at 17:22:29

     Current dimensions of program PWSCF are:
     Max number of different atomic species (ntypx) = 10
     Max number of k-points (npk) =  40000
     Max angular momentum in pseudopotentials (lmaxx) =  3
     Presently stress not available with electric field

     IMPORTANT: XC functional enforced from input :
     Exchange-correlation      = BEEF-VDW ( 1  4 27 13 2)
     Any further DFT definition will be discarded
     Please, verify this is what you really want

     Subspace diagonalization in iterative solution of the eigenvalue problem:
     a serial algorithm will be used

     bravais-lattice index     =            0
     lattice parameter (alat)  =       1.8897  a.u.
     unit-cell volume          =    6900.9077 (a.u.)^3
     number of atoms/cell      =           12
     number of atomic types    =            2
     number of electrons       =       147.00
     number of Kohn-Sham states=          103
     kinetic-energy cutoff     =      36.7493  Ry
     charge density cutoff     =     367.4932  Ry
     convergence threshold     =      1.0E-06
     mixing beta               =       0.1000
     number of iterations used =           10  plain     mixing
     Exchange-correlation      = BEEF-VDW ( 1  4 27 13 2)
     nstep                     =           50

     celldm(1)=   1.889726  celldm(2)=   0.000000  celldm(3)=   0.000000
     celldm(4)=   0.000000  celldm(5)=   0.000000  celldm(6)=   0.000000

     crystal axes: (cart. coord. in units of alat)
               a(1) = (   6.798117   0.000000   0.000000 )
               a(2) = (  -3.399058   5.887342   0.000000 )
               a(3) = (   0.000000   0.000000  25.550639 )

     reciprocal axes: (cart. coord. in units 2 pi/alat)
               b(1) = (  0.147100  0.084928  0.000000 )
               b(2) = (  0.000000  0.169856  0.000000 )
               b(3) = (  0.000000  0.000000  0.039138 )

     PseudoPot. # 1 for La read from file:
     /afs/slac.stanford.edu/u/if/mamunm/psp/gbrv1.5pbe/La.UPF
     MD5 check sum: 5937b0c7494ba0601a847275249473aa
     Pseudo is Ultrasoft + core correction, Zval = 11.0
     Generated by new atomic code, or converted to UPF format
     Using radial grid of  995 points,  8 beta functions with:
                l(1) =   0
                l(2) =   0
                l(3) =   1
                l(4) =   1
                l(5) =   2
                l(6) =   2
                l(7) =   3
                l(8) =   3
     Q(r) pseudized with  8 coefficients,  rinner =    1.700   1.700   1.700
                                                       1.700   1.700   1.700
                                                       1.700

     PseudoPot. # 2 for Os read from file:
     /afs/slac.stanford.edu/u/if/mamunm/psp/gbrv1.5pbe/Os.UPF
     MD5 check sum: a3fb40a04f0c37c25c34bbc47164c9a8
     Pseudo is Ultrasoft + core correction, Zval = 16.0
     Generated by new atomic code, or converted to UPF format
     Using radial grid of  983 points,  8 beta functions with:
                l(1) =   0
                l(2) =   0
                l(3) =   1
                l(4) =   1
                l(5) =   2
                l(6) =   2
                l(7) =   3
                l(8) =   3
     Q(r) pseudized with  8 coefficients,  rinner =    1.150   1.150   1.150
                                                       1.150   1.150   1.150
                                                       1.150

     vdW kernel table read from file vdW_kernel_table
     MD5 check sum: 095c7af220d748ca6e76c0b4c6cfb241

     atomic species   valence    mass     pseudopotential
        La1           11.00   138.90547     La( 1.00)
        Os1           16.00   190.23000     Os( 1.00)

     No symmetry found

   Cartesian axes

     site n.     atom                  positions (alat units)
         1           La1 tau(   1) = (   0.0000000   0.0000000  10.0000000  )
         2           La1 tau(   2) = (  -1.6995292   2.9436708  10.0000000  )
         3           La1 tau(   3) = (   1.6995292   2.9436708  10.0000000  )
         4           Os1 tau(   4) = (   3.3990583   0.0000000  10.0000000  )
         5           La1 tau(   5) = (   3.3990583   1.9624472  12.7753195  )
         6           La1 tau(   6) = (   1.6995292   4.9061181  12.7753195  )
         7           La1 tau(   7) = (  -1.6995292   4.9061181  12.7753195  )
         8           Os1 tau(   8) = (   0.0000000   1.9624472  12.7753195  )
         9           La1 tau(   9) = (  -0.0000000   3.9248945  15.5506390  )
        10           La1 tau(  10) = (   1.6995292   0.9812236  15.5506390  )
        11           La1 tau(  11) = (   5.0985875   0.9812236  15.5506390  )
        12           Os1 tau(  12) = (   3.3990583   3.9248945  15.5506390  )

     number of k points=    20  Fermi-Dirac smearing, width (Ry)=  0.0110
                       cart. coord. in units 2pi/alat
        k(    1) = (   0.0000000   0.0000000   0.0000000), wk =   0.0555556
        k(    2) = (   0.0000000   0.0283093   0.0000000), wk =   0.1111111
        k(    3) = (   0.0000000   0.0566186   0.0000000), wk =   0.1111111
        k(    4) = (   0.0000000  -0.0849280   0.0000000), wk =   0.0555556
        k(    5) = (   0.0245166   0.0141547   0.0000000), wk =   0.1111111
        k(    6) = (   0.0245166   0.0424640   0.0000000), wk =   0.1111111
        k(    7) = (   0.0245166   0.0707733   0.0000000), wk =   0.1111111
        k(    8) = (   0.0245166  -0.0707733   0.0000000), wk =   0.1111111
        k(    9) = (   0.0245166  -0.0424640   0.0000000), wk =   0.1111111
        k(   10) = (   0.0245166  -0.0141547   0.0000000), wk =   0.1111111
        k(   11) = (   0.0490332   0.0283093   0.0000000), wk =   0.1111111
        k(   12) = (   0.0490332   0.0566186   0.0000000), wk =   0.1111111
        k(   13) = (   0.0490332   0.0849280   0.0000000), wk =   0.1111111
        k(   14) = (   0.0490332  -0.0566186   0.0000000), wk =   0.1111111
        k(   15) = (   0.0490332  -0.0283093   0.0000000), wk =   0.1111111
        k(   16) = (   0.0490332   0.0000000   0.0000000), wk =   0.1111111
        k(   17) = (  -0.0735498  -0.0424640   0.0000000), wk =   0.0555556
        k(   18) = (  -0.0735498  -0.0141547   0.0000000), wk =   0.1111111
        k(   19) = (  -0.0735498   0.0141547   0.0000000), wk =   0.1111111
        k(   20) = (  -0.0735498  -0.1273920   0.0000000), wk =   0.0555556

     Largest allocated arrays     est. size (Mb)     dimensions
     Largest temporary arrays     est. size (Mb)     dimensions

     Initial potential from superposition of free atoms
     Check: negative starting charge=   -0.991732

     starting charge  145.21127, renormalised to  147.00000

     negative rho (up, down):  1.004E+00 0.000E+00

     *
     * You are using vdW-DF for exchange-correlation in this calculation.
     * Please cite the following three references that made this development
     * possible:
     *
     *   M. Dion, H. Rydberg, E. Schroder, D. C. Langreth, and
     *   B. I. Lundqvist, Phys. Rev. Lett. 92, 246401 (2004).
     *
     *   T. Thonhauser, V. R. Cooper, S. Li, A. Puzder, P. Hyldgaard, and
     *   D. C. Langreth, Phys. Rev. B 76, 125112 (2007).
     *
     *   G. Roman-Perez and J. M. Soler, Phys. Rev. Lett. 103, 096102 (2009).
     *
     *
     * If you are using vdW-DF2, please also cite:
     *
     *   K. Lee, E. D. Murray, L. Kong, B. I. Lundqvist, and
     *   D. C. Langreth, Phys. Rev. B 82, 081101(R) (2010).
     *
     *
     * If you are calculating the stress with vdW-DF, please also cite:
     *
     *   R. Sabatini, E. Kucukbenli, B. Kolb, T. Thonhauser, and
     *   S. de Gironcoli, J. Phys.: Condens. Matter 24, 424209 (2012).
     *

     Carrying out vdW-DF run using the following parameters:

     Nqs =      20    Nr_points =    1024   r_max =   100.000
     q_mesh =
               0.00001000     0.04494208     0.09755937     0.15916263
               0.23128650     0.31572767     0.41458969     0.53033537
               0.66584808     0.82450364     1.01025438     1.22772762
               1.48234092     1.78043706     2.12944203     2.53805004
               3.01644009     3.57652955     4.23227104     5.00000000

     Gradients computed in reciprocal space

     Adding external electric field

     Computed dipole along edir(3) :
        Dipole               -0.0000 Ry au,         -0.0000 Debye
        Dipole field         -0.0000 Ry au

        Potential amp.        0.0000 Ry
        Total length         47.0766 bohr

     Starting wfc are  219 randomized atomic wfcs

     Self-consistent Calculation

     iteration #  1     ecut=    36.75 Ry     beta=0.10
     Davidson diagonalization with overlap
     ethr =  1.00E-02,  avg # of iterations =  2.0

[...]

     total energy              =   -1534.72942965 Ry
     Harris-Foulkes estimate   =   -1536.18540653 Ry
     estimated scf accuracy    <       8.11154491 Ry

[...]

     iteration # 13     ecut=    36.75 Ry     beta=0.10
     Davidson diagonalization with overlap
     c_bands:  1 eigenvalues not converged
     c_bands:  1 eigenvalues not converged
     ethr =  3.40E-06,  avg # of iterations = 11.6

[...]

     End of self-consistent calculation

          k = 0.0000 0.0000 0.0000 ( 26049 PWs)   bands (ev):

   -83.1061 -82.8529 -82.8528 -42.3742 -42.3742 -42.3700 -42.1697 -42.1697
   -42.1696 -42.1696 -42.0901 -42.0900 -30.8219 -30.7825 -30.5194 -30.5194
   -30.5097 -30.5097 -30.3780 -30.1316 -30.1315 -15.6721 -15.4749 -15.1864
   -14.9370 -14.9370 -14.8063 -14.7746 -14.7746 -14.7169 -14.7169 -14.5013
   -14.2011 -14.2011 -13.9465 -13.9465 -13.7802 -13.6680 -13.5772 -13.5323
   -13.5323 -13.4514 -13.4514 -13.4091 -13.4091 -13.2203 -13.1056 -13.1056
    -1.6765  -1.2536  -0.9340  -0.1809   0.0135   0.0135   0.3137   0.4131
     0.4131   0.4954   0.4986   0.4986   0.5519   0.5519   0.5633   1.3417
     1.3417   1.3817   1.5850   1.5850   1.7213   2.0065   2.3485   2.7473
     2.8273   2.8689   2.8689   3.0215   3.0215   3.1782   3.1782   3.5285
     3.5285   3.6121   3.6121   3.7442   3.7516   3.8712   3.8750   3.8758
     3.8758   3.9404   3.9691   3.9783   3.9783   4.0719   4.0719   4.0980
     4.1733   4.1979   4.1982   4.2354   4.2486   4.2560   4.2565

[...]

          k =-0.0735-0.0425 0.0000 ( 25938 PWs)   bands (ev):

[...]

     the Fermi energy is     2.4556 ev

!    total energy              =   -1535.28343187 Ry
     Harris-Foulkes estimate   =   -1535.28344145 Ry
     estimated scf accuracy    <       0.00000066 Ry

     The total energy is the sum of the following terms:

     one-electron contribution =   -7420.21004586 Ry
     hartree contribution      =    3718.36730736 Ry
     xc contribution           =    -573.37750982 Ry
     ewald contribution        =    2740.03505992 Ry
     electric field correction =       0.00000000 Ry
     smearing contrib. (-TS)   =      -0.09824347 Ry

     convergence has been achieved in  21 iterations

 BEEF-vdW xc energy contributions
           1 :   -507.051288716167
           2 :    467.196947631274
           3 :   -396.489417097762
           4 :    309.816579319636
[...]
                l(4) =   1
                l(5) =   2
                l(6) =   2
                l(7) =   3
                l(8) =   3
     Q(r) pseudized with  8 coefficients,  rinner =    1.700   1.700   1.700
                                                       1.700   1.700   1.700
                                                       1.700

     PseudoPot. # 2 for Os read from file:
     /afs/slac.stanford.edu/u/if/mamunm/psp/gbrv1.5pbe/Os.UPF
     MD5 check sum: a3fb40a04f0c37c25c34bbc47164c9a8
     Pseudo is Ultrasoft + core correction, Zval = 16.0
     Generated by new atomic code, or converted to UPF format
     Using radial grid of  983 points,  8 beta functions with:
                l(1) =   0
                l(2) =   0
                l(3) =   1
                l(4) =   1
                l(5) =   2
                l(6) =   2
                l(7) =   3
                l(8) =   3
     Q(r) pseudized with  8 coefficients,  rinner =    1.150   1.150   1.150
                                                       1.150   1.150   1.150
                                                       1.150

     vdW kernel table read from file vdW_kernel_table
     MD5 check sum: 095c7af220d748ca6e76c0b4c6cfb241

     atomic species   valence    mass     pseudopotential
        La1           11.00   138.90547     La( 1.00)
        Os1           16.00   190.23000     Os( 1.00)

     No symmetry found

   Cartesian axes

     site n.     atom                  positions (alat units)
         1           La1 tau(   1) = (   0.0000000   0.0000000  10.0000000  )
         2           La1 tau(   2) = (  -1.6995292   2.9436708  10.0000000  )
         3           La1 tau(   3) = (   1.6995292   2.9436708  10.0000000  )
         4           Os1 tau(   4) = (   3.3990583   0.0000000  10.0000000  )
         5           La1 tau(   5) = (   3.3990583   1.9624472  12.7753195  )
         6           La1 tau(   6) = (   1.6995292   4.9061181  12.7753195  )
         7           La1 tau(   7) = (  -1.6995292   4.9061181  12.7753195  )
         8           Os1 tau(   8) = (   0.0000000   1.9624472  12.7753195  )
         9           La1 tau(   9) = (   0.0000178   3.7986588  15.5757867  )
        10           La1 tau(  10) = (   1.5902134   1.0443488  15.5757689  )
        11           La1 tau(  11) = (   5.2079479   1.0443631  15.5757503  )
        12           Os1 tau(  12) = (   3.3990086   3.9248871  14.9752355  )

     number of k points=    20  Fermi-Dirac smearing, width (Ry)=  0.0110
                       cart. coord. in units 2pi/alat
        k(    1) = (   0.0000000   0.0000000   0.0000000), wk =   0.0555556
        k(    2) = (   0.0000000   0.0283093   0.0000000), wk =   0.1111111
        k(    3) = (   0.0000000   0.0566186   0.0000000), wk =   0.1111111
        k(    4) = (   0.0000000  -0.0849280   0.0000000), wk =   0.0555556
        k(    5) = (   0.0245166   0.0141547   0.0000000), wk =   0.1111111
        k(    6) = (   0.0245166   0.0424640   0.0000000), wk =   0.1111111
        k(    7) = (   0.0245166   0.0707733   0.0000000), wk =   0.1111111
        k(    8) = (   0.0245166  -0.0707733   0.0000000), wk =   0.1111111
        k(    9) = (   0.0245166  -0.0424640   0.0000000), wk =   0.1111111
        k(   10) = (   0.0245166  -0.0141547   0.0000000), wk =   0.1111111
        k(   11) = (   0.0490332   0.0283093   0.0000000), wk =   0.1111111
        k(   12) = (   0.0490332   0.0566186   0.0000000), wk =   0.1111111
        k(   13) = (   0.0490332   0.0849280   0.0000000), wk =   0.1111111
        k(   14) = (   0.0490332  -0.0566186   0.0000000), wk =   0.1111111
        k(   15) = (   0.0490332  -0.0283093   0.0000000), wk =   0.1111111
        k(   16) = (   0.0490332   0.0000000   0.0000000), wk =   0.1111111
        k(   17) = (  -0.0735498  -0.0424640   0.0000000), wk =   0.0555556
        k(   18) = (  -0.0735498  -0.0141547   0.0000000), wk =   0.1111111
        k(   19) = (  -0.0735498   0.0141547   0.0000000), wk =   0.1111111
        k(   20) = (  -0.0735498  -0.1273920   0.0000000), wk =   0.0555556

     Largest allocated arrays     est. size (Mb)     dimensions
     Largest temporary arrays     est. size (Mb)     dimensions

     Initial potential from superposition of free atoms
     Check: negative starting charge=   -0.991149

     starting charge  145.21127, renormalised to  147.00000

[...]

     *
     * You are using vdW-DF for exchange-correlation in this calculation.
     * Please cite the following three references that made this development
     * possible:
     *
     *   M. Dion, H. Rydberg, E. Schroder, D. C. Langreth, and
     *   B. I. Lundqvist, Phys. Rev. Lett. 92, 246401 (2004).
     *
     *   T. Thonhauser, V. R. Cooper, S. Li, A. Puzder, P. Hyldgaard, and
     *   D. C. Langreth, Phys. Rev. B 76, 125112 (2007).
     *
     *   G. Roman-Perez and J. M. Soler, Phys. Rev. Lett. 103, 096102 (2009).
     *
     *
     * If you are using vdW-DF2, please also cite:
     *
     *   K. Lee, E. D. Murray, L. Kong, B. I. Lundqvist, and
     *   D. C. Langreth, Phys. Rev. B 82, 081101(R) (2010).
     *
     *
     * If you are calculating the stress with vdW-DF, please also cite:
     *
     *   R. Sabatini, E. Kucukbenli, B. Kolb, T. Thonhauser, and
     *   S. de Gironcoli, J. Phys.: Condens. Matter 24, 424209 (2012).
     *

     Carrying out vdW-DF run using the following parameters:

     Nqs =      20    Nr_points =    1024   r_max =   100.000
     q_mesh =
               0.00001000     0.04494208     0.09755937     0.15916263
               0.23128650     0.31572767     0.41458969     0.53033537
               0.66584808     0.82450364     1.01025438     1.22772762
               1.48234092     1.78043706     2.12944203     2.53805004
               3.01644009     3.57652955     4.23227104     5.00000000

     Gradients computed in reciprocal space

[...]

     Starting wfc are  219 randomized atomic wfcs

     Self-consistent Calculation

[...]

     iteration # 13     ecut=    36.75 Ry     beta=0.10
     Davidson diagonalization with overlap
     c_bands:  1 eigenvalues not converged
     c_bands:  1 eigenvalues not converged
     c_bands:  1 eigenvalues not converged
     ethr =  3.52E-06,  avg # of iterations = 16.3

[...]

     total energy              =   -1535.32860883 Ry
     Harris-Foulkes estimate   =   -1535.32861087 Ry
     estimated scf accuracy    <       0.00000133 Ry

     iteration # 22     ecut=    36.75 Ry     beta=0.10
     Davidson diagonalization with overlap
     ethr =  9.04E-10,  avg # of iterations =  3.2

[...]

     negative rho (up, down):  7.225E-01 0.000E+00

     Adding external electric field

     Computed dipole along edir(3) :
        Dipole                0.1146 Ry au,          0.2912 Debye
        Dipole field          0.0002 Ry au

        Potential amp.       -0.0196 Ry
        Total length         47.0766 bohr

     End of self-consistent calculation

[...]

          k = 0.0490 0.0000 0.0000 ( 25941 PWs)   bands (ev):

[...]

          k =-0.0735-0.1274 0.0000 ( 25938 PWs)   bands (ev):

   -82.9871 -82.8312 -82.7351 -42.2663 -42.2536 -42.2536 -42.1502 -42.1502
   -42.1394 -42.0592 -42.0592 -41.9632 -30.7302 -30.6281 -30.5402 -30.5211
   -30.4559 -30.4374 -30.0547 -29.9743 -29.8823 -15.2407 -15.0650 -14.8987
   -14.7153 -14.6159 -14.5161 -14.4858 -14.4691 -14.3544 -14.3091 -14.2860
   -14.2448 -14.2138 -14.2094 -14.0963 -13.9826 -13.9676 -13.8014 -13.6034
   -13.5417 -13.5140 -13.4172 -13.4041 -13.3231 -13.3181 -13.2604 -12.9371
    -0.5225  -0.4460   0.0158   0.5300   0.6339   0.6626   0.7778   0.9009
     0.9373   1.1007   1.1478   1.1917   1.2157   1.3619   1.3896   1.4402
     1.5719   1.6215   1.6418   1.7181   1.7819   1.7845   1.9544   2.1286
     2.3028   2.4804   2.7187   2.7526   2.8363   2.9013   3.0233   3.1340
     3.1837   3.2897   3.3745   3.3838   3.5263   3.6294   3.6327   3.6747
     3.7108   3.8541   3.9047   3.9525   4.0498   4.0756   4.1059   4.1251
     4.1826   4.1900   4.2097   4.2189   4.2708   4.2981   4.3260

     the Fermi energy is     2.5376 ev

!    total energy              =   -1535.32860288 Ry
     Harris-Foulkes estimate   =   -1535.32860796 Ry
     estimated scf accuracy    <       0.00000060 Ry

     The total energy is the sum of the following terms:

     one-electron contribution =   -7596.09915394 Ry
     hartree contribution      =    3806.87318415 Ry
     xc contribution           =    -573.57994723 Ry
     ewald contribution        =    2827.57245631 Ry
     electric field correction =       0.00002390 Ry
     smearing contrib. (-TS)   =      -0.09516608 Ry

     convergence has been achieved in  22 iterations

 BEEF-vdW xc energy contributions
           1 :   -507.259620859358
           2 :    467.479587922395
           3 :   -396.868647148307
           4 :    310.238800363957
           5 :   -223.672953591899
           6 :    150.246954541801
           7 :   -97.3794274590169
           8 :    66.2115425369141
           9 :   -52.7586671194225
          10 :    50.1712357124406
          11 :   -51.2817796605929
          12 :    50.6307853983462
          13 :   -45.4692807149844
          14 :    35.6903593727453
          15 :   -23.0389368078953
          16 :    10.0625442275779
          17 :   0.830616195239259
          18 :   -8.01861989233248
          19 :    10.9550716015135
          20 :   -10.1328394633986
          21 :    6.80893156867194
          22 :   -2.60293817434115
          23 :  -0.938298544308395
          24 :    2.72661797189221
          25 :   -2.38562407370375
          26 :   0.289452267562183
          27 :    2.63550375892328
          28 :   -5.28302914307358
          29 :    6.77532832851352
          30 :   -6.75981426658666
          31 :   -43.9874358309664
          32 :   -31.9766053633666

     Forces acting on atoms (Ry/au):

     negative rho (up, down):  7.225E-01 0.000E+00
     atom    1 type  1   force =     0.00000150    0.02960099   -0.01389093
     atom    2 type  1   force =     0.02563456   -0.01479974   -0.01389136
     atom    3 type  1   force =    -0.02563461   -0.01480204   -0.01389287
     atom    4 type  2   force =    -0.00000112   -0.00000064    0.04951059
     atom    5 type  1   force =     0.00000072   -0.01600751   -0.00100587
     atom    6 type  1   force =    -0.01386285    0.00800285   -0.00100497
     atom    7 type  1   force =     0.01386200    0.00800231   -0.00100329
     atom    8 type  2   force =    -0.00000400   -0.00000082   -0.00461630
     atom    9 type  1   force =     0.00000066    0.00031122    0.00009056
     atom   10 type  1   force =     0.00026954   -0.00015414    0.00009022
     atom   11 type  1   force =    -0.00026772   -0.00015547    0.00009111
     atom   12 type  2   force =     0.00000131    0.00000300   -0.00047690

     Total force =     0.080327     Total SCF correction =     0.001854

     entering subroutine stress ...

     negative rho (up, down):  7.225E-01 0.000E+00
          total   stress  (Ry/bohr**3)                   (kbar)     P=   -4.65
  -0.00004308  -0.00000000   0.00000000         -6.34     -0.00      0.00
  -0.00000000  -0.00004308   0.00000000         -0.00     -6.34      0.00
   0.00000000   0.00000000  -0.00000873          0.00      0.00     -1.28

 !ASE

     Writing output data file calc.save

     General routines

     Parallel routines

   This run was terminated on:  20:44:58  26Dec2018

   JOB DONE.
Job  /afs/slac/g/suncat/bin/suncat-tsmpirun -x LD_LIBRARY_PATH -wdir /scratch/qe110014_iJ7OG pw.x -in pw.inp

TID   HOST_NAME   COMMAND_LINE            STATUS            TERMINATION_TIME
00000 suncat0136 pw.x -in pw.inp   Done                     12/26/2018 20:44:58
00001 suncat0136 pw.x -in pw.inp   Done                     12/26/2018 20:44:58
00002 suncat0136 pw.x -in pw.inp   Done                     12/26/2018 20:44:58
00003 suncat0136 pw.x -in pw.inp   Done                     12/26/2018 20:44:58
00004 suncat0136 pw.x -in pw.inp   Done                     12/26/2018 20:44:58
00005 suncat0136 pw.x -in pw.inp   Done                     12/26/2018 20:44:58
00006 suncat0136 pw.x -in pw.inp   Done                     12/26/2018 20:44:58
00007 suncat0136 pw.x -in pw.inp   Done                     12/26/2018 20:44:58
00008 suncat0135 pw.x -in pw.inp   Done                     12/26/2018 20:44:58
00009 suncat0135 pw.x -in pw.inp   Done                     12/26/2018 20:44:58
00010 suncat0135 pw.x -in pw.inp   Done                     12/26/2018 20:44:58
00011 suncat0135 pw.x -in pw.inp   Done                     12/26/2018 20:44:58
00012 suncat0135 pw.x -in pw.inp   Done                     12/26/2018 20:44:58
00013 suncat0135 pw.x -in pw.inp   Done                     12/26/2018 20:44:58
00014 suncat0135 pw.x -in pw.inp   Done                     12/26/2018 20:44:58
00015 suncat0135 pw.x -in pw.inp   Done                     12/26/2018 20:44:58
00016 suncat0134 pw.x -in pw.inp   Done                     12/26/2018 20:44:58
00017 suncat0134 pw.x -in pw.inp   Done                     12/26/2018 20:44:58
00018 suncat0134 pw.x -in pw.inp   Done                     12/26/2018 20:44:58
00019 suncat0134 pw.x -in pw.inp   Done                     12/26/2018 20:44:58
00020 suncat0134 pw.x -in pw.inp   Done                     12/26/2018 20:44:58
00021 suncat0134 pw.x -in pw.inp   Done                     12/26/2018 20:44:58
00022 suncat0134 pw.x -in pw.inp   Done                     12/26/2018 20:44:58
00023 suncat0134 pw.x -in pw.inp   Done                     12/26/2018 20:44:58
00024 suncat0232 pw.x -in pw.inp   Done                     12/26/2018 20:44:58
00025 suncat0232 pw.x -in pw.inp   Done                     12/26/2018 20:44:58
00026 suncat0232 pw.x -in pw.inp   Done                     12/26/2018 20:44:58
00027 suncat0232 pw.x -in pw.inp   Done                     12/26/2018 20:44:58
00028 suncat0232 pw.x -in pw.inp   Done                     12/26/2018 20:44:58
00029 suncat0232 pw.x -in pw.inp   Done                     12/26/2018 20:44:58
00030 suncat0232 pw.x -in pw.inp   Done                     12/26/2018 20:44:58
00031 suncat0232 pw.x -in pw.inp   Done                     12/26/2018 20:44:58
00032 suncat0220 pw.x -in pw.inp   Done                     12/26/2018 20:44:58
00033 suncat0220 pw.x -in pw.inp   Done                     12/26/2018 20:44:58
00034 suncat0220 pw.x -in pw.inp   Done                     12/26/2018 20:44:58
00035 suncat0220 pw.x -in pw.inp   Done                     12/26/2018 20:44:58
00036 suncat0220 pw.x -in pw.inp   Done                     12/26/2018 20:44:58
00037 suncat0220 pw.x -in pw.inp   Done                     12/26/2018 20:44:58
00038 suncat0220 pw.x -in pw.inp   Done                     12/26/2018 20:44:58
00039 suncat0220 pw.x -in pw.inp   Done                     12/26/2018 20:44:58
00040 suncat0219 pw.x -in pw.inp   Done                     12/26/2018 20:44:58
00041 suncat0219 pw.x -in pw.inp   Done                     12/26/2018 20:44:58
00042 suncat0219 pw.x -in pw.inp   Done                     12/26/2018 20:44:58
00043 suncat0219 pw.x -in pw.inp   Done                     12/26/2018 20:44:58
00044 suncat0219 pw.x -in pw.inp   Done                     12/26/2018 20:44:58
00045 suncat0219 pw.x -in pw.inp   Done                     12/26/2018 20:44:58
00046 suncat0219 pw.x -in pw.inp   Done                     12/26/2018 20:44:58
00047 suncat0219 pw.x -in pw.inp   Done                     12/26/2018 20:44:58
00048 suncat0201 pw.x -in pw.inp   Done                     12/26/2018 20:44:58
00049 suncat0201 pw.x -in pw.inp   Done                     12/26/2018 20:44:58
00050 suncat0201 pw.x -in pw.inp   Done                     12/26/2018 20:44:58
00051 suncat0201 pw.x -in pw.inp   Done                     12/26/2018 20:44:58
00052 suncat0201 pw.x -in pw.inp   Done                     12/26/2018 20:44:58
00053 suncat0201 pw.x -in pw.inp   Done                     12/26/2018 20:44:58
00054 suncat0201 pw.x -in pw.inp   Done                     12/26/2018 20:44:58
00055 suncat0201 pw.x -in pw.inp   Done                     12/26/2018 20:44:58
00056 suncat0200 pw.x -in pw.inp   Done                     12/26/2018 20:44:58
00057 suncat0200 pw.x -in pw.inp   Done                     12/26/2018 20:44:58
00058 suncat0200 pw.x -in pw.inp   Done                     12/26/2018 20:44:58
00059 suncat0200 pw.x -in pw.inp   Done                     12/26/2018 20:44:58
00060 suncat0200 pw.x -in pw.inp   Done                     12/26/2018 20:44:58
00061 suncat0200 pw.x -in pw.inp   Done                     12/26/2018 20:44:58
00062 suncat0200 pw.x -in pw.inp   Done                     12/26/2018 20:44:58
00063 suncat0200 pw.x -in pw.inp   Done                     12/26/2018 20:44:58