     Program PWSCF v.5.1rc2 (svn rev. 11289) starts on 30Dec2018 at 18:16:44

     Current dimensions of program PWSCF are:
     Max number of different atomic species (ntypx) = 10
     Max number of k-points (npk) =  40000
     Max angular momentum in pseudopotentials (lmaxx) =  3
     Presently stress not available with electric field

     IMPORTANT: XC functional enforced from input :
     Exchange-correlation      = BEEF-VDW ( 1  4 27 13 2)
     Any further DFT definition will be discarded
     Please, verify this is what you really want

     Subspace diagonalization in iterative solution of the eigenvalue problem:
     a serial algorithm will be used

     bravais-lattice index     =            0
     lattice parameter (alat)  =       1.8897  a.u.
     unit-cell volume          =    4505.0755 (a.u.)^3
     number of atoms/cell      =           12
     number of atomic types    =            2
     number of electrons       =       183.00
     number of Kohn-Sham states=          121
     kinetic-energy cutoff     =      36.7493  Ry
     charge density cutoff     =     367.4932  Ry
     convergence threshold     =      1.0E-06
     mixing beta               =       0.1000
     number of iterations used =           10  plain     mixing
     Exchange-correlation      = BEEF-VDW ( 1  4 27 13 2)
     nstep                     =           50

     celldm(1)=   1.889726  celldm(2)=   0.000000  celldm(3)=   0.000000
     celldm(4)=   0.000000  celldm(5)=   0.000000  celldm(6)=   0.000000

     crystal axes: (cart. coord. in units of alat)
               a(1) = (   5.600894   0.000000   0.000000 )
               a(2) = (  -2.800447   4.850516   0.000000 )
               a(3) = (   0.000000   0.000000  24.573111 )

     reciprocal axes: (cart. coord. in units 2 pi/alat)
               b(1) = (  0.178543  0.103082  0.000000 )
               b(2) = (  0.000000  0.206164  0.000000 )
               b(3) = (  0.000000  0.000000  0.040695 )

     PseudoPot. # 1 for Mo read from file:
     /afs/slac.stanford.edu/u/if/mamunm/psp/gbrv1.5pbe/Mo.UPF
     MD5 check sum: 30c4dcd161f5d35cd49bb5239c51a633
     Pseudo is Ultrasoft + core correction, Zval = 14.0
     Generated by new atomic code, or converted to UPF format
     Using radial grid of  889 points,  6 beta functions with:
                l(1) =   0
                l(2) =   0
                l(3) =   1
                l(4) =   1
                l(5) =   2
                l(6) =   2
     Q(r) pseudized with  6 coefficients,  rinner =    1.000   1.000   1.000
                                                       1.000   1.000

     PseudoPot. # 2 for Ga read from file:
     /afs/slac.stanford.edu/u/if/mamunm/psp/gbrv1.5pbe/Ga.UPF
     MD5 check sum: ccd671392a58a050fbb373893b4fcd66
     Pseudo is Ultrasoft + core correction, Zval = 19.0
     Generated by new atomic code, or converted to UPF format
     Using radial grid of  871 points,  6 beta functions with:
                l(1) =   0
                l(2) =   0
                l(3) =   1
                l(4) =   1
                l(5) =   2
                l(6) =   2
     Q(r) pseudized with  8 coefficients,  rinner =    1.250   1.250   1.250
                                                       1.250   1.250

     vdW kernel table read from file vdW_kernel_table
     MD5 check sum: 095c7af220d748ca6e76c0b4c6cfb241

     atomic species   valence    mass     pseudopotential
        Mo1           14.00    95.95000     Mo( 1.00)
        Ga1           19.00    69.72300     Ga( 1.00)

     No symmetry found

   Cartesian axes

     site n.     atom                  positions (alat units)
         1           Mo1 tau(   1) = (   0.0000000   0.0000000  10.0000000  )
         2           Mo1 tau(   2) = (  -1.4002235   2.4252582  10.0000000  )
         3           Mo1 tau(   3) = (   1.4002235   2.4252582  10.0000000  )
         4           Ga1 tau(   4) = (   2.8004470   0.0000000  10.0000000  )
         5           Mo1 tau(   5) = (   2.8004470   1.6168388  12.2865554  )
         6           Mo1 tau(   6) = (   1.4002235   4.0420971  12.2865554  )
         7           Mo1 tau(   7) = (  -1.4002235   4.0420971  12.2865554  )
         8           Ga1 tau(   8) = (   0.0000000   1.6168388  12.2865554  )
         9           Mo1 tau(   9) = (  -0.0000000   3.2336777  14.5731108  )
        10           Mo1 tau(  10) = (   1.4002235   0.8084194  14.5731108  )
        11           Mo1 tau(  11) = (   4.2006705   0.8084194  14.5731108  )
        12           Ga1 tau(  12) = (   2.8004470   3.2336777  14.5731108  )

     number of k points=    20  Fermi-Dirac smearing, width (Ry)=  0.0110
                       cart. coord. in units 2pi/alat
        k(    1) = (   0.0000000   0.0000000   0.0000000), wk =   0.0555556
        k(    2) = (   0.0000000   0.0343606   0.0000000), wk =   0.1111111
        k(    3) = (   0.0000000   0.0687212   0.0000000), wk =   0.1111111
        k(    4) = (   0.0000000  -0.1030818   0.0000000), wk =   0.0555556
        k(    5) = (   0.0297572   0.0171803   0.0000000), wk =   0.1111111
        k(    6) = (   0.0297572   0.0515409   0.0000000), wk =   0.1111111
        k(    7) = (   0.0297572   0.0859015   0.0000000), wk =   0.1111111
        k(    8) = (   0.0297572  -0.0859015   0.0000000), wk =   0.1111111
        k(    9) = (   0.0297572  -0.0515409   0.0000000), wk =   0.1111111
        k(   10) = (   0.0297572  -0.0171803   0.0000000), wk =   0.1111111
        k(   11) = (   0.0595143   0.0343606   0.0000000), wk =   0.1111111
        k(   12) = (   0.0595143   0.0687212   0.0000000), wk =   0.1111111
        k(   13) = (   0.0595143   0.1030818   0.0000000), wk =   0.1111111
        k(   14) = (   0.0595143  -0.0687212   0.0000000), wk =   0.1111111
        k(   15) = (   0.0595143  -0.0343606   0.0000000), wk =   0.1111111
        k(   16) = (   0.0595143   0.0000000   0.0000000), wk =   0.1111111
        k(   17) = (  -0.0892715  -0.0515409   0.0000000), wk =   0.0555556
        k(   18) = (  -0.0892715  -0.0171803   0.0000000), wk =   0.1111111
        k(   19) = (  -0.0892715   0.0171803   0.0000000), wk =   0.1111111
        k(   20) = (  -0.0892715  -0.1546227   0.0000000), wk =   0.0555556

     Largest allocated arrays     est. size (Mb)     dimensions
     Largest temporary arrays     est. size (Mb)     dimensions

     Initial potential from superposition of free atoms
     Check: negative starting charge=   -0.004336

     starting charge  179.99043, renormalised to  183.00000

     negative rho (up, down):  4.409E-03 0.000E+00

     *
     * You are using vdW-DF for exchange-correlation in this calculation.
     * Please cite the following three references that made this development
     * possible:
     *
     *   M. Dion, H. Rydberg, E. Schroder, D. C. Langreth, and
     *   B. I. Lundqvist, Phys. Rev. Lett. 92, 246401 (2004).
     *
     *   T. Thonhauser, V. R. Cooper, S. Li, A. Puzder, P. Hyldgaard, and
     *   D. C. Langreth, Phys. Rev. B 76, 125112 (2007).
     *
     *   G. Roman-Perez and J. M. Soler, Phys. Rev. Lett. 103, 096102 (2009).
     *
     *
     * If you are using vdW-DF2, please also cite:
     *
     *   K. Lee, E. D. Murray, L. Kong, B. I. Lundqvist, and
     *   D. C. Langreth, Phys. Rev. B 82, 081101(R) (2010).
     *
     *
     * If you are calculating the stress with vdW-DF, please also cite:
     *
     *   R. Sabatini, E. Kucukbenli, B. Kolb, T. Thonhauser, and
     *   S. de Gironcoli, J. Phys.: Condens. Matter 24, 424209 (2012).
     *

     Carrying out vdW-DF run using the following parameters:

     Nqs =      20    Nr_points =    1024   r_max =   100.000
     q_mesh =
               0.00001000     0.04494208     0.09755937     0.15916263
               0.23128650     0.31572767     0.41458969     0.53033537
               0.66584808     0.82450364     1.01025438     1.22772762
               1.48234092     1.78043706     2.12944203     2.53805004
               3.01644009     3.57652955     4.23227104     5.00000000

     Gradients computed in reciprocal space

     Adding external electric field

     Computed dipole along edir(3) :
        Dipole               -0.0000 Ry au,         -0.0000 Debye
        Dipole field         -0.0000 Ry au

        Potential amp.        0.0000 Ry
        Total length         45.2755 bohr

     Starting wfc are  153 randomized atomic wfcs

     Self-consistent Calculation

     iteration #  1     ecut=    36.75 Ry     beta=0.10
     Davidson diagonalization with overlap
     ethr =  1.00E-02,  avg # of iterations =  2.1

[...]

     total energy              =   -2509.57776274 Ry
     Harris-Foulkes estimate   =   -2510.23592159 Ry
     estimated scf accuracy    <       3.90490443 Ry

[...]

     End of self-consistent calculation

          k = 0.0000 0.0000 0.0000 ( 16883 PWs)   bands (ev):

   -92.6380 -92.6380 -92.6309 -92.2341 -92.2340 -92.1944 -92.1944 -92.1943
   -92.1943 -59.5096 -59.3746 -59.3746 -59.3074 -59.2904 -59.1863 -59.1862
   -59.1819 -59.1819 -34.0699 -33.8193 -33.8193 -33.8120 -33.7605 -33.6965
   -33.6832 -33.6832 -33.5054 -33.5054 -33.3860 -33.3185 -33.3185 -33.3011
   -33.2680 -33.2680 -33.0785 -33.0757 -33.0757 -33.0464 -33.0464 -33.0419
   -32.9948 -32.8177 -32.8177 -32.8117 -32.8116 -13.0419 -13.0419 -13.0332
   -13.0116 -13.0116 -12.6039 -12.5931 -12.5813 -12.5813 -12.5730 -12.5730
   -12.5675 -12.5675 -12.5614 -12.5614  -6.8401  -5.5106  -5.3090  -3.1608
    -2.4655  -2.2628  -1.6485  -1.6485  -1.5728  -1.3202  -1.3201  -1.3032
    -1.3032  -1.2123  -0.9347  -0.9347  -0.2809  -0.2809   0.3513   0.3671
     0.5011   0.5011   1.0646   1.0646   1.2265   1.3912   1.3913   1.4347
     1.5688   1.8241   2.1320   2.1320   2.5437   2.5437   2.8844   2.8844
     2.9534   3.1288   3.1289   3.4882   3.4882   3.5600   3.5600   3.7409
     4.0502   4.0502   4.0782   4.4207   4.5993   4.5993   4.7874   4.8823
     4.8823   5.5325   5.5934   5.6103   5.8952   5.9383   5.9383   5.9997
     6.0627

[...]

          k =-0.0893-0.0515 0.0000 ( 16960 PWs)   bands (ev):

[...]

     the Fermi energy is     1.7343 ev

!    total energy              =   -2509.31600870 Ry
     Harris-Foulkes estimate   =   -2509.31600487 Ry
     estimated scf accuracy    <       0.00000048 Ry

     The total energy is the sum of the following terms:

     one-electron contribution =  -19104.40336530 Ry
     hartree contribution      =    9550.06013956 Ry
     xc contribution           =    -329.45474863 Ry
     ewald contribution        =    7374.54765809 Ry
     electric field correction =       0.00000000 Ry
     smearing contrib. (-TS)   =      -0.06569242 Ry

     convergence has been achieved in  16 iterations

 BEEF-vdW xc energy contributions
           1 :   -288.098758378373
           2 :    262.670612136867
           3 :   -219.472882963044
           4 :    170.390734193936
           5 :   -126.723869433859
           6 :    95.2529128799993
           7 :   -76.8549571484336
           8 :    67.8322764888804
           9 :   -62.8445414869726
          10 :    57.7233763685687
          11 :   -50.8838627610066
          12 :    43.0173957149049
          13 :   -35.7401582829882
[...]
     /afs/slac.stanford.edu/u/if/mamunm/psp/gbrv1.5pbe/Mo.UPF
     MD5 check sum: 30c4dcd161f5d35cd49bb5239c51a633
     Pseudo is Ultrasoft + core correction, Zval = 14.0
     Generated by new atomic code, or converted to UPF format
     Using radial grid of  889 points,  6 beta functions with:
                l(1) =   0
                l(2) =   0
                l(3) =   1
                l(4) =   1
                l(5) =   2
                l(6) =   2
     Q(r) pseudized with  6 coefficients,  rinner =    1.000   1.000   1.000
                                                       1.000   1.000

     PseudoPot. # 2 for Ga read from file:
     /afs/slac.stanford.edu/u/if/mamunm/psp/gbrv1.5pbe/Ga.UPF
     MD5 check sum: ccd671392a58a050fbb373893b4fcd66
     Pseudo is Ultrasoft + core correction, Zval = 19.0
     Generated by new atomic code, or converted to UPF format
     Using radial grid of  871 points,  6 beta functions with:
                l(1) =   0
                l(2) =   0
                l(3) =   1
                l(4) =   1
                l(5) =   2
                l(6) =   2
     Q(r) pseudized with  8 coefficients,  rinner =    1.250   1.250   1.250
                                                       1.250   1.250

     vdW kernel table read from file vdW_kernel_table
     MD5 check sum: 095c7af220d748ca6e76c0b4c6cfb241

     atomic species   valence    mass     pseudopotential
        Mo1           14.00    95.95000     Mo( 1.00)
        Ga1           19.00    69.72300     Ga( 1.00)

     No symmetry found

   Cartesian axes

     site n.     atom                  positions (alat units)
         1           Mo1 tau(   1) = (   0.0000000   0.0000000  10.0000000  )
         2           Mo1 tau(   2) = (  -1.4002235   2.4252582  10.0000000  )
         3           Mo1 tau(   3) = (   1.4002235   2.4252582  10.0000000  )
         4           Ga1 tau(   4) = (   2.8004470   0.0000000  10.0000000  )
         5           Mo1 tau(   5) = (   2.8004470   1.6168388  12.2865554  )
         6           Mo1 tau(   6) = (   1.4002235   4.0420971  12.2865554  )
         7           Mo1 tau(   7) = (  -1.4002235   4.0420971  12.2865554  )
         8           Ga1 tau(   8) = (   0.0000000   1.6168388  12.2865554  )
         9           Mo1 tau(   9) = (   0.0000065   3.3151085  14.4981070  )
        10           Mo1 tau(  10) = (   1.4707461   0.7677252  14.4981085  )
        11           Mo1 tau(  11) = (   4.1301491   0.7677190  14.4981095  )
        12           Ga1 tau(  12) = (   2.8004624   3.2336929  14.8417174  )

     number of k points=    20  Fermi-Dirac smearing, width (Ry)=  0.0110
                       cart. coord. in units 2pi/alat
        k(    1) = (   0.0000000   0.0000000   0.0000000), wk =   0.0555556
        k(    2) = (   0.0000000   0.0343606   0.0000000), wk =   0.1111111
        k(    3) = (   0.0000000   0.0687212   0.0000000), wk =   0.1111111
        k(    4) = (   0.0000000  -0.1030818   0.0000000), wk =   0.0555556
        k(    5) = (   0.0297572   0.0171803   0.0000000), wk =   0.1111111
        k(    6) = (   0.0297572   0.0515409   0.0000000), wk =   0.1111111
        k(    7) = (   0.0297572   0.0859015   0.0000000), wk =   0.1111111
        k(    8) = (   0.0297572  -0.0859015   0.0000000), wk =   0.1111111
        k(    9) = (   0.0297572  -0.0515409   0.0000000), wk =   0.1111111
        k(   10) = (   0.0297572  -0.0171803   0.0000000), wk =   0.1111111
        k(   11) = (   0.0595143   0.0343606   0.0000000), wk =   0.1111111
        k(   12) = (   0.0595143   0.0687212   0.0000000), wk =   0.1111111
        k(   13) = (   0.0595143   0.1030818   0.0000000), wk =   0.1111111
        k(   14) = (   0.0595143  -0.0687212   0.0000000), wk =   0.1111111
        k(   15) = (   0.0595143  -0.0343606   0.0000000), wk =   0.1111111
        k(   16) = (   0.0595143   0.0000000   0.0000000), wk =   0.1111111
        k(   17) = (  -0.0892715  -0.0515409   0.0000000), wk =   0.0555556
        k(   18) = (  -0.0892715  -0.0171803   0.0000000), wk =   0.1111111
        k(   19) = (  -0.0892715   0.0171803   0.0000000), wk =   0.1111111
        k(   20) = (  -0.0892715  -0.1546227   0.0000000), wk =   0.0555556

     Largest allocated arrays     est. size (Mb)     dimensions
     Largest temporary arrays     est. size (Mb)     dimensions

     Initial potential from superposition of free atoms
     Check: negative starting charge=   -0.004385

     starting charge  179.99043, renormalised to  183.00000

[...]

     *
     * You are using vdW-DF for exchange-correlation in this calculation.
     * Please cite the following three references that made this development
     * possible:
     *
     *   M. Dion, H. Rydberg, E. Schroder, D. C. Langreth, and
     *   B. I. Lundqvist, Phys. Rev. Lett. 92, 246401 (2004).
     *
     *   T. Thonhauser, V. R. Cooper, S. Li, A. Puzder, P. Hyldgaard, and
     *   D. C. Langreth, Phys. Rev. B 76, 125112 (2007).
     *
     *   G. Roman-Perez and J. M. Soler, Phys. Rev. Lett. 103, 096102 (2009).
     *
     *
     * If you are using vdW-DF2, please also cite:
     *
     *   K. Lee, E. D. Murray, L. Kong, B. I. Lundqvist, and
     *   D. C. Langreth, Phys. Rev. B 82, 081101(R) (2010).
     *
     *
     * If you are calculating the stress with vdW-DF, please also cite:
     *
     *   R. Sabatini, E. Kucukbenli, B. Kolb, T. Thonhauser, and
     *   S. de Gironcoli, J. Phys.: Condens. Matter 24, 424209 (2012).
     *

     Carrying out vdW-DF run using the following parameters:

     Nqs =      20    Nr_points =    1024   r_max =   100.000
     q_mesh =
               0.00001000     0.04494208     0.09755937     0.15916263
               0.23128650     0.31572767     0.41458969     0.53033537
               0.66584808     0.82450364     1.01025438     1.22772762
               1.48234092     1.78043706     2.12944203     2.53805004
               3.01644009     3.57652955     4.23227104     5.00000000

     Gradients computed in reciprocal space

[...]

     Starting wfc are  153 randomized atomic wfcs

     Self-consistent Calculation

[...]

     total energy              =   -2509.34415473 Ry
     Harris-Foulkes estimate   =   -2509.34415338 Ry
     estimated scf accuracy    <       0.00000109 Ry

     iteration # 16     ecut=    36.75 Ry     beta=0.10
     Davidson diagonalization with overlap
     ethr =  5.95E-10,  avg # of iterations =  2.0

[...]

     negative rho (up, down):  4.272E-03 0.000E+00

     Adding external electric field

     Computed dipole along edir(3) :
        Dipole               -0.0088 Ry au,         -0.0223 Debye
        Dipole field         -0.0000 Ry au

        Potential amp.        0.0022 Ry
        Total length         45.2755 bohr

     End of self-consistent calculation

[...]

          k = 0.0595 0.0000 0.0000 ( 16962 PWs)   bands (ev):

[...]

          k =-0.0893-0.1546 0.0000 ( 16960 PWs)   bands (ev):

   -92.6363 -92.6362 -92.6290 -92.2637 -92.2280 -92.2050 -92.2050 -92.1891
   -92.1891 -59.4587 -59.4149 -59.3651 -59.2532 -59.2346 -59.2145 -59.1771
   -59.1609 -59.1317 -33.9371 -33.8138 -33.7542 -33.6684 -33.6166 -33.6091
   -33.5880 -33.5291 -33.5259 -33.4590 -33.3757 -33.3065 -33.3064 -33.2939
   -33.2308 -33.2235 -33.2017 -33.1664 -33.1554 -33.1077 -33.0424 -33.0385
   -33.0164 -32.9802 -32.9709 -32.8360 -32.7844 -13.0347 -13.0212 -13.0150
   -13.0039 -13.0038 -12.5978 -12.5845 -12.5723 -12.5713 -12.5618 -12.5613
   -12.5542 -12.5520 -12.5451 -12.5433  -5.7044  -4.9721  -4.4289  -2.9811
    -2.4202  -2.2758  -2.0648  -1.8279  -1.2710  -1.1568  -1.0206  -0.9829
    -0.9048  -0.8040  -0.7532  -0.5058  -0.2084  -0.1910  -0.1373  -0.1123
     0.3456   0.3803   0.6538   0.7980   0.8203   0.9296   0.9555   1.0323
     1.2570   1.2834   1.4627   1.4867   1.5802   2.2093   2.3150   2.4235
     2.5690   2.6148   2.8252   2.8764   3.0346   3.0364   3.2062   3.3389
     3.4539   3.5074   3.8931   3.9676   4.1488   4.3074   4.6030   5.0489
     5.5019   5.5096   5.9566   6.4921   6.4942   6.6598   7.1508   7.2480
     7.3661

     the Fermi energy is     1.7495 ev

!    total energy              =   -2509.34415836 Ry
     Harris-Foulkes estimate   =   -2509.34415479 Ry
     estimated scf accuracy    <       0.00000037 Ry

     The total energy is the sum of the following terms:

     one-electron contribution =  -19014.05079464 Ry
     hartree contribution      =    9504.94272505 Ry
     xc contribution           =    -329.53126063 Ry
     ewald contribution        =    7329.35615474 Ry
     electric field correction =       0.00000021 Ry
     smearing contrib. (-TS)   =      -0.06098309 Ry

     convergence has been achieved in  16 iterations

 BEEF-vdW xc energy contributions
           1 :   -288.388885107598
           2 :    262.968595336952
           3 :   -219.782025101449
           4 :    170.702891157685
           5 :   -127.013893834588
           6 :    95.4825004544942
           7 :   -76.9868528997781
           8 :    67.8513959927440
           9 :   -62.7751188594405
          10 :    57.6301696563669
          11 :   -50.8493576884209
          12 :    43.1023591022023
          13 :   -35.9475235996669
          14 :    30.4939529881270
          15 :   -26.8229130060068
          16 :    24.2444467577767
          17 :   -21.9535736495961
          18 :    19.5256764202514
          19 :   -16.9797094205218
          20 :    14.5088223621578
          21 :   -12.1984012549675
          22 :    9.96814967203522
          23 :   -7.73716586418288
          24 :    5.60271459292721
          25 :   -3.83342464110819
          26 :    2.65361072531709
          27 :   -1.99975955008944
          28 :    1.47010539939748
          29 :  -0.547191140149891
          30 :   -1.05179394934839
          31 :   -27.4586361953376
          32 :   -20.2616175084623

     Forces acting on atoms (Ry/au):

     negative rho (up, down):  4.272E-03 0.000E+00
     atom    1 type  1   force =     0.00000037   -0.01295924    0.02389395
     atom    2 type  1   force =    -0.01122398    0.00648154    0.02389272
     atom    3 type  1   force =     0.01122370    0.00648110    0.02389469
     atom    4 type  2   force =     0.00000435    0.00000182   -0.04284598
     atom    5 type  1   force =     0.00000099    0.01188279   -0.00819063
     atom    6 type  1   force =     0.01029083   -0.00593961   -0.00818976
     atom    7 type  1   force =    -0.01028957   -0.00593989   -0.00818956
     atom    8 type  2   force =    -0.00001116   -0.00001152   -0.00697426
     atom    9 type  1   force =     0.00000057    0.00022254    0.00029979
     atom   10 type  1   force =     0.00019086   -0.00011103    0.00029941
     atom   11 type  1   force =    -0.00018986   -0.00011132    0.00029952
     atom   12 type  2   force =     0.00000289    0.00000281    0.00181010

     Total force =     0.068772     Total SCF correction =     0.003311

     entering subroutine stress ...

     negative rho (up, down):  4.272E-03 0.000E+00
          total   stress  (Ry/bohr**3)                   (kbar)     P=  -24.01
  -0.00022989   0.00000001   0.00000000        -33.82      0.00      0.00
   0.00000001  -0.00022989  -0.00000000          0.00    -33.82     -0.00
   0.00000000  -0.00000000  -0.00002982          0.00     -0.00     -4.39

 !ASE

     Writing output data file calc.save

     General routines

     Parallel routines

   This run was terminated on:  20: 0:17  30Dec2018

   JOB DONE.
Job  /afs/slac/g/suncat/bin/suncat-tsmpirun -x LD_LIBRARY_PATH -wdir /scratch/qe648601_zEIOz pw.x -in pw.inp

TID   HOST_NAME   COMMAND_LINE            STATUS            TERMINATION_TIME
00000 suncat0088 pw.x -in pw.inp   Done                     12/30/2018 20:00:17
00001 suncat0088 pw.x -in pw.inp   Done                     12/30/2018 20:00:17
00002 suncat0088 pw.x -in pw.inp   Done                     12/30/2018 20:00:17
00003 suncat0088 pw.x -in pw.inp   Done                     12/30/2018 20:00:17
00004 suncat0088 pw.x -in pw.inp   Done                     12/30/2018 20:00:17
00005 suncat0088 pw.x -in pw.inp   Done                     12/30/2018 20:00:17
00006 suncat0088 pw.x -in pw.inp   Done                     12/30/2018 20:00:17
00007 suncat0088 pw.x -in pw.inp   Done                     12/30/2018 20:00:17
00008 suncat0087 pw.x -in pw.inp   Done                     12/30/2018 20:00:17
00009 suncat0087 pw.x -in pw.inp   Done                     12/30/2018 20:00:17
00010 suncat0087 pw.x -in pw.inp   Done                     12/30/2018 20:00:17
00011 suncat0087 pw.x -in pw.inp   Done                     12/30/2018 20:00:17
00012 suncat0087 pw.x -in pw.inp   Done                     12/30/2018 20:00:17
00013 suncat0087 pw.x -in pw.inp   Done                     12/30/2018 20:00:17
00014 suncat0087 pw.x -in pw.inp   Done                     12/30/2018 20:00:17
00015 suncat0087 pw.x -in pw.inp   Done                     12/30/2018 20:00:17
00016 suncat0086 pw.x -in pw.inp   Done                     12/30/2018 20:00:17
00017 suncat0086 pw.x -in pw.inp   Done                     12/30/2018 20:00:17
00018 suncat0086 pw.x -in pw.inp   Done                     12/30/2018 20:00:17
00019 suncat0086 pw.x -in pw.inp   Done                     12/30/2018 20:00:17
00020 suncat0086 pw.x -in pw.inp   Done                     12/30/2018 20:00:17
00021 suncat0086 pw.x -in pw.inp   Done                     12/30/2018 20:00:17
00022 suncat0086 pw.x -in pw.inp   Done                     12/30/2018 20:00:17
00023 suncat0086 pw.x -in pw.inp   Done                     12/30/2018 20:00:17
00024 suncat0084 pw.x -in pw.inp   Done                     12/30/2018 20:00:17
00025 suncat0084 pw.x -in pw.inp   Done                     12/30/2018 20:00:17
00026 suncat0084 pw.x -in pw.inp   Done                     12/30/2018 20:00:17
00027 suncat0084 pw.x -in pw.inp   Done                     12/30/2018 20:00:17
00028 suncat0084 pw.x -in pw.inp   Done                     12/30/2018 20:00:17
00029 suncat0084 pw.x -in pw.inp   Done                     12/30/2018 20:00:17
00030 suncat0084 pw.x -in pw.inp   Done                     12/30/2018 20:00:17
00031 suncat0084 pw.x -in pw.inp   Done                     12/30/2018 20:00:17
00032 suncat0083 pw.x -in pw.inp   Done                     12/30/2018 20:00:17
00033 suncat0083 pw.x -in pw.inp   Done                     12/30/2018 20:00:17
00034 suncat0083 pw.x -in pw.inp   Done                     12/30/2018 20:00:17
00035 suncat0083 pw.x -in pw.inp   Done                     12/30/2018 20:00:17
00036 suncat0083 pw.x -in pw.inp   Done                     12/30/2018 20:00:17
00037 suncat0083 pw.x -in pw.inp   Done                     12/30/2018 20:00:17
00038 suncat0083 pw.x -in pw.inp   Done                     12/30/2018 20:00:17
00039 suncat0083 pw.x -in pw.inp   Done                     12/30/2018 20:00:17
00040 suncat0082 pw.x -in pw.inp   Done                     12/30/2018 20:00:17
00041 suncat0082 pw.x -in pw.inp   Done                     12/30/2018 20:00:17
00042 suncat0082 pw.x -in pw.inp   Done                     12/30/2018 20:00:17
00043 suncat0082 pw.x -in pw.inp   Done                     12/30/2018 20:00:17
00044 suncat0082 pw.x -in pw.inp   Done                     12/30/2018 20:00:17
00045 suncat0082 pw.x -in pw.inp   Done                     12/30/2018 20:00:17
00046 suncat0082 pw.x -in pw.inp   Done                     12/30/2018 20:00:17
00047 suncat0082 pw.x -in pw.inp   Done                     12/30/2018 20:00:17
00048 suncat0081 pw.x -in pw.inp   Done                     12/30/2018 20:00:17
00049 suncat0081 pw.x -in pw.inp   Done                     12/30/2018 20:00:17
00050 suncat0081 pw.x -in pw.inp   Done                     12/30/2018 20:00:17
00051 suncat0081 pw.x -in pw.inp   Done                     12/30/2018 20:00:17
00052 suncat0081 pw.x -in pw.inp   Done                     12/30/2018 20:00:17
00053 suncat0081 pw.x -in pw.inp   Done                     12/30/2018 20:00:17
00054 suncat0081 pw.x -in pw.inp   Done                     12/30/2018 20:00:17
00055 suncat0081 pw.x -in pw.inp   Done                     12/30/2018 20:00:17
00056 suncat0080 pw.x -in pw.inp   Done                     12/30/2018 20:00:17
00057 suncat0080 pw.x -in pw.inp   Done                     12/30/2018 20:00:17
00058 suncat0080 pw.x -in pw.inp   Done                     12/30/2018 20:00:17
00059 suncat0080 pw.x -in pw.inp   Done                     12/30/2018 20:00:17
00060 suncat0080 pw.x -in pw.inp   Done                     12/30/2018 20:00:17
00061 suncat0080 pw.x -in pw.inp   Done                     12/30/2018 20:00:17
00062 suncat0080 pw.x -in pw.inp   Done                     12/30/2018 20:00:17
00063 suncat0080 pw.x -in pw.inp   Done                     12/30/2018 20:00:17