     Program PWSCF v.5.1rc2 (svn rev. 11289) starts on 31Dec2018 at  5:31:11

     Current dimensions of program PWSCF are:
     Max number of different atomic species (ntypx) = 10
     Max number of k-points (npk) =  40000
     Max angular momentum in pseudopotentials (lmaxx) =  3
     Presently stress not available with electric field

     IMPORTANT: XC functional enforced from input :
     Exchange-correlation      = BEEF-VDW ( 1  4 27 13 2)
     Any further DFT definition will be discarded
     Please, verify this is what you really want

     Subspace diagonalization in iterative solution of the eigenvalue problem:
     a serial algorithm will be used

     bravais-lattice index     =            0
     lattice parameter (alat)  =       1.8897  a.u.
     unit-cell volume          =    4532.9323 (a.u.)^3
     number of atoms/cell      =           12
     number of atomic types    =            2
     number of electrons       =       180.00
     number of Kohn-Sham states=          120
     kinetic-energy cutoff     =      36.7493  Ry
     charge density cutoff     =     367.4932  Ry
     convergence threshold     =      1.0E-06
     mixing beta               =       0.1000
     number of iterations used =           10  plain     mixing
     Exchange-correlation      = BEEF-VDW ( 1  4 27 13 2)
     nstep                     =           50

     celldm(1)=   1.889726  celldm(2)=   0.000000  celldm(3)=   0.000000
     celldm(4)=   0.000000  celldm(5)=   0.000000  celldm(6)=   0.000000

     crystal axes: (cart. coord. in units of alat)
               a(1) = (   5.616708   0.000000   0.000000 )
               a(2) = (  -2.808354   4.864212   0.000000 )
               a(3) = (   0.000000   0.000000  24.586023 )

     reciprocal axes: (cart. coord. in units 2 pi/alat)
               b(1) = (  0.178040  0.102792  0.000000 )
               b(2) = (  0.000000  0.205583  0.000000 )
               b(3) = (  0.000000  0.000000  0.040674 )

     PseudoPot. # 1 for Os read from file:
     /afs/slac.stanford.edu/u/if/mamunm/psp/gbrv1.5pbe/Os.UPF
     MD5 check sum: a3fb40a04f0c37c25c34bbc47164c9a8
     Pseudo is Ultrasoft + core correction, Zval = 16.0
     Generated by new atomic code, or converted to UPF format
     Using radial grid of  983 points,  8 beta functions with:
                l(1) =   0
                l(2) =   0
                l(3) =   1
                l(4) =   1
                l(5) =   2
                l(6) =   2
                l(7) =   3
                l(8) =   3
     Q(r) pseudized with  8 coefficients,  rinner =    1.150   1.150   1.150
                                                       1.150   1.150   1.150
                                                       1.150

     PseudoPot. # 2 for Cd read from file:
     /afs/slac.stanford.edu/u/if/mamunm/psp/gbrv1.5pbe/Cd.UPF
     MD5 check sum: 17164a7926edb8e0dc231208abae86a6
     Pseudo is Ultrasoft + core correction, Zval = 12.0
     Generated by new atomic code, or converted to UPF format
     Using radial grid of  889 points,  6 beta functions with:
                l(1) =   0
                l(2) =   0
                l(3) =   1
                l(4) =   1
                l(5) =   2
                l(6) =   2
     Q(r) pseudized with  6 coefficients,  rinner =    1.000   1.000   1.000
                                                       1.000   1.000

     vdW kernel table read from file vdW_kernel_table
     MD5 check sum: 095c7af220d748ca6e76c0b4c6cfb241

     atomic species   valence    mass     pseudopotential
        Os1           16.00   190.23000     Os( 1.00)
        Cd1           12.00   112.41400     Cd( 1.00)

     No symmetry found

   Cartesian axes

     site n.     atom                  positions (alat units)
         1           Os1 tau(   1) = (   0.0000000   0.0000000  10.0000000  )
         2           Os1 tau(   2) = (  -1.4041770   2.4321060  10.0000000  )
         3           Os1 tau(   3) = (   1.4041770   2.4321060  10.0000000  )
         4           Cd1 tau(   4) = (   2.8083541   0.0000000  10.0000000  )
         5           Os1 tau(   5) = (   2.8083541   1.6214040  12.2930115  )
         6           Os1 tau(   6) = (   1.4041770   4.0535100  12.2930115  )
         7           Os1 tau(   7) = (  -1.4041770   4.0535100  12.2930115  )
         8           Cd1 tau(   8) = (   0.0000000   1.6214040  12.2930115  )
         9           Os1 tau(   9) = (  -0.0000000   3.2428080  14.5860230  )
        10           Os1 tau(  10) = (   1.4041770   0.8107020  14.5860230  )
        11           Os1 tau(  11) = (   4.2125311   0.8107020  14.5860230  )
        12           Cd1 tau(  12) = (   2.8083541   3.2428080  14.5860230  )

     number of k points=    20  Fermi-Dirac smearing, width (Ry)=  0.0110
                       cart. coord. in units 2pi/alat
        k(    1) = (   0.0000000   0.0000000   0.0000000), wk =   0.0555556
        k(    2) = (   0.0000000   0.0342639   0.0000000), wk =   0.1111111
        k(    3) = (   0.0000000   0.0685277   0.0000000), wk =   0.1111111
        k(    4) = (   0.0000000  -0.1027916   0.0000000), wk =   0.0555556
        k(    5) = (   0.0296734   0.0171319   0.0000000), wk =   0.1111111
        k(    6) = (   0.0296734   0.0513958   0.0000000), wk =   0.1111111
        k(    7) = (   0.0296734   0.0856596   0.0000000), wk =   0.1111111
        k(    8) = (   0.0296734  -0.0856596   0.0000000), wk =   0.1111111
        k(    9) = (   0.0296734  -0.0513958   0.0000000), wk =   0.1111111
        k(   10) = (   0.0296734  -0.0171319   0.0000000), wk =   0.1111111
        k(   11) = (   0.0593467   0.0342639   0.0000000), wk =   0.1111111
        k(   12) = (   0.0593467   0.0685277   0.0000000), wk =   0.1111111
        k(   13) = (   0.0593467   0.1027916   0.0000000), wk =   0.1111111
        k(   14) = (   0.0593467  -0.0685277   0.0000000), wk =   0.1111111
        k(   15) = (   0.0593467  -0.0342639   0.0000000), wk =   0.1111111
        k(   16) = (   0.0593467   0.0000000   0.0000000), wk =   0.1111111
        k(   17) = (  -0.0890201  -0.0513958   0.0000000), wk =   0.0555556
        k(   18) = (  -0.0890201  -0.0171319   0.0000000), wk =   0.1111111
        k(   19) = (  -0.0890201   0.0171319   0.0000000), wk =   0.1111111
        k(   20) = (  -0.0890201  -0.1541874   0.0000000), wk =   0.0555556

     Largest allocated arrays     est. size (Mb)     dimensions
     Largest temporary arrays     est. size (Mb)     dimensions

     Initial potential from superposition of free atoms
     Check: negative starting charge=   -1.183319

     starting charge  173.99955, renormalised to  180.00000

     negative rho (up, down):  1.224E+00 0.000E+00

     *
     * You are using vdW-DF for exchange-correlation in this calculation.
     * Please cite the following three references that made this development
     * possible:
     *
     *   M. Dion, H. Rydberg, E. Schroder, D. C. Langreth, and
     *   B. I. Lundqvist, Phys. Rev. Lett. 92, 246401 (2004).
     *
     *   T. Thonhauser, V. R. Cooper, S. Li, A. Puzder, P. Hyldgaard, and
     *   D. C. Langreth, Phys. Rev. B 76, 125112 (2007).
     *
     *   G. Roman-Perez and J. M. Soler, Phys. Rev. Lett. 103, 096102 (2009).
     *
     *
     * If you are using vdW-DF2, please also cite:
     *
     *   K. Lee, E. D. Murray, L. Kong, B. I. Lundqvist, and
     *   D. C. Langreth, Phys. Rev. B 82, 081101(R) (2010).
     *
     *
     * If you are calculating the stress with vdW-DF, please also cite:
     *
     *   R. Sabatini, E. Kucukbenli, B. Kolb, T. Thonhauser, and
     *   S. de Gironcoli, J. Phys.: Condens. Matter 24, 424209 (2012).
     *

     Carrying out vdW-DF run using the following parameters:

     Nqs =      20    Nr_points =    1024   r_max =   100.000
     q_mesh =
               0.00001000     0.04494208     0.09755937     0.15916263
               0.23128650     0.31572767     0.41458969     0.53033537
               0.66584808     0.82450364     1.01025438     1.22772762
               1.48234092     1.78043706     2.12944203     2.53805004
               3.01644009     3.57652955     4.23227104     5.00000000

     Gradients computed in reciprocal space

     Adding external electric field

     Computed dipole along edir(3) :
        Dipole                0.0000 Ry au,          0.0000 Debye
        Dipole field          0.0000 Ry au

        Potential amp.       -0.0000 Ry
        Total length         45.2993 bohr

     Starting wfc are  144 randomized atomic wfcs

     Self-consistent Calculation

     iteration #  1     ecut=    36.75 Ry     beta=0.10
     Davidson diagonalization with overlap
     ethr =  1.00E-02,  avg # of iterations =  8.3

     Threshold (ethr) on eigenvalues was too large:
     Diagonalizing with lowered threshold

     Davidson diagonalization with overlap
     ethr =  9.74E-04,  avg # of iterations =  2.0

[...]

     total energy              =   -2145.96442123 Ry
     Harris-Foulkes estimate   =   -2146.22212205 Ry
     estimated scf accuracy    <       1.78418961 Ry

[...]

     End of self-consistent calculation

          k = 0.0000 0.0000 0.0000 ( 17039 PWs)   bands (ev):

   -84.3984 -84.3688 -84.3688 -84.1790 -84.1781 -84.1501 -84.1501 -84.1499
   -84.1498 -43.9781 -43.8123 -43.8123 -43.8027 -43.7799 -43.7284 -43.7284
   -43.7080 -43.5460 -43.5460 -43.5414 -43.4846 -43.4846 -43.4240 -43.4239
   -43.4106 -43.3603 -43.3602 -43.3309 -43.3143 -43.3143 -43.2825 -43.2692
   -43.2637 -43.2637 -43.2577 -43.2577  -7.0986  -7.0525  -7.0525  -6.9689
    -6.9689  -6.8806  -6.7469  -6.7469  -6.7469  -6.7469  -6.6768  -6.6594
    -6.4044  -6.4044  -6.3989  -6.3989  -4.7653  -4.1480  -3.7109  -3.0585
    -2.9163  -2.2168  -2.2168  -2.0106  -1.7214  -1.7214  -1.5380  -1.4147
    -1.4147  -1.3410  -1.3409  -0.4368  -0.4368  -0.3565  -0.3564  -0.2784
     0.2370   0.2711   0.4007   0.4007   0.9086   1.1588   1.1588   1.5335
     1.9069   1.9069   1.9768   2.1430   2.2382   2.2382   2.3966   2.3966
     2.4915   2.4916   2.7365   2.7365   2.8121   2.8121   2.9586   2.9586
     3.1204   3.5504   3.5504   3.6753   4.3419   4.3905   4.4941   4.6518
     4.7506   5.0714   5.0714   5.5693   5.5693   6.4415   6.6599   7.1239
     7.5903   7.5922   8.0289   8.5407   8.5407   8.5546   8.5546   8.8845

[...]

          k =-0.0890-0.0514 0.0000 ( 17080 PWs)   bands (ev):

[...]

     the Fermi energy is     2.1607 ev

!    total energy              =   -2145.63233201 Ry
     Harris-Foulkes estimate   =   -2145.63232905 Ry
     estimated scf accuracy    <       0.00000048 Ry

     The total energy is the sum of the following terms:

     one-electron contribution =  -17540.79334265 Ry
     hartree contribution      =    8780.24100132 Ry
     xc contribution           =    -470.41105783 Ry
     ewald contribution        =    7085.42321772 Ry
     electric field correction =       0.00000000 Ry
     smearing contrib. (-TS)   =      -0.09215058 Ry

     convergence has been achieved in  16 iterations

 BEEF-vdW xc energy contributions
           1 :   -412.095276003535
           2 :    380.550493878563
           3 :   -325.440265082077
           4 :    259.687657209353
[...]
     Pseudo is Ultrasoft + core correction, Zval = 16.0
     Generated by new atomic code, or converted to UPF format
     Using radial grid of  983 points,  8 beta functions with:
                l(1) =   0
                l(2) =   0
                l(3) =   1
                l(4) =   1
                l(5) =   2
                l(6) =   2
                l(7) =   3
                l(8) =   3
     Q(r) pseudized with  8 coefficients,  rinner =    1.150   1.150   1.150
                                                       1.150   1.150   1.150
                                                       1.150

     PseudoPot. # 2 for Cd read from file:
     /afs/slac.stanford.edu/u/if/mamunm/psp/gbrv1.5pbe/Cd.UPF
     MD5 check sum: 17164a7926edb8e0dc231208abae86a6
     Pseudo is Ultrasoft + core correction, Zval = 12.0
     Generated by new atomic code, or converted to UPF format
     Using radial grid of  889 points,  6 beta functions with:
                l(1) =   0
                l(2) =   0
                l(3) =   1
                l(4) =   1
                l(5) =   2
                l(6) =   2
     Q(r) pseudized with  6 coefficients,  rinner =    1.000   1.000   1.000
                                                       1.000   1.000

     vdW kernel table read from file vdW_kernel_table
     MD5 check sum: 095c7af220d748ca6e76c0b4c6cfb241

     atomic species   valence    mass     pseudopotential
        Os1           16.00   190.23000     Os( 1.00)
        Cd1           12.00   112.41400     Cd( 1.00)

     No symmetry found

   Cartesian axes

     site n.     atom                  positions (alat units)
         1           Os1 tau(   1) = (   0.0000000   0.0000000  10.0000000  )
         2           Os1 tau(   2) = (  -1.4041770   2.4321060  10.0000000  )
         3           Os1 tau(   3) = (   1.4041770   2.4321060  10.0000000  )
         4           Cd1 tau(   4) = (   2.8083541   0.0000000  10.0000000  )
         5           Os1 tau(   5) = (   2.8083541   1.6214040  12.2930115  )
         6           Os1 tau(   6) = (   1.4041770   4.0535100  12.2930115  )
         7           Os1 tau(   7) = (  -1.4041770   4.0535100  12.2930115  )
         8           Cd1 tau(   8) = (   0.0000000   1.6214040  12.2930115  )
         9           Os1 tau(   9) = (   0.0000036   3.3585287  14.4489092  )
        10           Os1 tau(  10) = (   1.5044017   0.7528611  14.4489223  )
        11           Os1 tau(  11) = (   4.1123141   0.7528655  14.4489527  )
        12           Cd1 tau(  12) = (   2.8083905   3.2428467  15.0495279  )

     number of k points=    20  Fermi-Dirac smearing, width (Ry)=  0.0110
                       cart. coord. in units 2pi/alat
        k(    1) = (   0.0000000   0.0000000   0.0000000), wk =   0.0555556
        k(    2) = (   0.0000000   0.0342639   0.0000000), wk =   0.1111111
        k(    3) = (   0.0000000   0.0685277   0.0000000), wk =   0.1111111
        k(    4) = (   0.0000000  -0.1027916   0.0000000), wk =   0.0555556
        k(    5) = (   0.0296734   0.0171319   0.0000000), wk =   0.1111111
        k(    6) = (   0.0296734   0.0513958   0.0000000), wk =   0.1111111
        k(    7) = (   0.0296734   0.0856596   0.0000000), wk =   0.1111111
        k(    8) = (   0.0296734  -0.0856596   0.0000000), wk =   0.1111111
        k(    9) = (   0.0296734  -0.0513958   0.0000000), wk =   0.1111111
        k(   10) = (   0.0296734  -0.0171319   0.0000000), wk =   0.1111111
        k(   11) = (   0.0593467   0.0342639   0.0000000), wk =   0.1111111
        k(   12) = (   0.0593467   0.0685277   0.0000000), wk =   0.1111111
        k(   13) = (   0.0593467   0.1027916   0.0000000), wk =   0.1111111
        k(   14) = (   0.0593467  -0.0685277   0.0000000), wk =   0.1111111
        k(   15) = (   0.0593467  -0.0342639   0.0000000), wk =   0.1111111
        k(   16) = (   0.0593467   0.0000000   0.0000000), wk =   0.1111111
        k(   17) = (  -0.0890201  -0.0513958   0.0000000), wk =   0.0555556
        k(   18) = (  -0.0890201  -0.0171319   0.0000000), wk =   0.1111111
        k(   19) = (  -0.0890201   0.0171319   0.0000000), wk =   0.1111111
        k(   20) = (  -0.0890201  -0.1541874   0.0000000), wk =   0.0555556

     Largest allocated arrays     est. size (Mb)     dimensions
     Largest temporary arrays     est. size (Mb)     dimensions

     Initial potential from superposition of free atoms
     Check: negative starting charge=   -1.183784

     starting charge  173.99955, renormalised to  180.00000

[...]

     *
     * You are using vdW-DF for exchange-correlation in this calculation.
     * Please cite the following three references that made this development
     * possible:
     *
     *   M. Dion, H. Rydberg, E. Schroder, D. C. Langreth, and
     *   B. I. Lundqvist, Phys. Rev. Lett. 92, 246401 (2004).
     *
     *   T. Thonhauser, V. R. Cooper, S. Li, A. Puzder, P. Hyldgaard, and
     *   D. C. Langreth, Phys. Rev. B 76, 125112 (2007).
     *
     *   G. Roman-Perez and J. M. Soler, Phys. Rev. Lett. 103, 096102 (2009).
     *
     *
     * If you are using vdW-DF2, please also cite:
     *
     *   K. Lee, E. D. Murray, L. Kong, B. I. Lundqvist, and
     *   D. C. Langreth, Phys. Rev. B 82, 081101(R) (2010).
     *
     *
     * If you are calculating the stress with vdW-DF, please also cite:
     *
     *   R. Sabatini, E. Kucukbenli, B. Kolb, T. Thonhauser, and
     *   S. de Gironcoli, J. Phys.: Condens. Matter 24, 424209 (2012).
     *

     Carrying out vdW-DF run using the following parameters:

     Nqs =      20    Nr_points =    1024   r_max =   100.000
     q_mesh =
               0.00001000     0.04494208     0.09755937     0.15916263
               0.23128650     0.31572767     0.41458969     0.53033537
               0.66584808     0.82450364     1.01025438     1.22772762
               1.48234092     1.78043706     2.12944203     2.53805004
               3.01644009     3.57652955     4.23227104     5.00000000

     Gradients computed in reciprocal space

[...]

     Starting wfc are  144 randomized atomic wfcs

     Self-consistent Calculation

[...]

     total energy              =   -2145.68546234 Ry
     Harris-Foulkes estimate   =   -2145.68546188 Ry
     estimated scf accuracy    <       0.00000117 Ry

     iteration # 17     ecut=    36.75 Ry     beta=0.10
     Davidson diagonalization with overlap
     ethr =  6.48E-10,  avg # of iterations =  2.2

[...]

     negative rho (up, down):  1.169E+00 0.000E+00

     Adding external electric field

     Computed dipole along edir(3) :
        Dipole                0.1250 Ry au,          0.3178 Debye
        Dipole field          0.0003 Ry au

        Potential amp.       -0.0314 Ry
        Total length         45.2993 bohr

     End of self-consistent calculation

[...]

          k = 0.0593 0.0000 0.0000 ( 17028 PWs)   bands (ev):

[...]

          k =-0.0890-0.1542 0.0000 ( 17080 PWs)   bands (ev):

   -84.3233 -84.3125 -84.3020 -84.1999 -84.1675 -84.1627 -83.9927 -83.9831
   -83.9736 -43.9309 -43.8476 -43.7718 -43.7341 -43.7231 -43.6512 -43.6015
   -43.5924 -43.5449 -43.5089 -43.4690 -43.4574 -43.3735 -43.3670 -43.3480
   -43.3258 -43.3249 -43.3148 -43.3135 -43.2446 -43.2440 -43.2354 -43.2123
   -43.1748 -43.1544 -43.1491 -43.0980  -6.9302  -6.8227  -6.7803  -6.7052
    -6.6978  -6.5367  -6.3747  -6.3491  -6.3175  -6.2956  -6.2719  -6.2052
    -6.2048  -6.1554  -6.1166  -4.9077  -4.7117  -3.4154  -3.1702  -2.9141
    -2.7870  -2.5173  -2.4968  -1.8322  -1.7416  -1.6038  -1.5335  -1.4629
    -1.2225  -1.1799  -1.0591  -0.9043  -0.5641  -0.5402  -0.4206  -0.2903
    -0.1983  -0.0165   0.0099   0.0707   0.2062   0.3566   0.3952   0.6323
     0.7472   0.7773   0.8132   0.9571   1.4746   1.5548   1.7782   1.9322
     1.9644   2.0134   2.0698   2.1550   2.3650   2.4185   2.4569   2.4930
     3.0132   3.2862   3.3710   3.7581   3.8462   4.0684   4.4527   4.8127
     5.7963   5.9718   6.1478   6.5944   6.8633   7.3440   7.7225   7.8437
     8.3694   8.4907   8.5420   8.5918   9.1420   9.4564   9.5810   9.6406

     the Fermi energy is     2.3017 ev

!    total energy              =   -2145.68546490 Ry
     Harris-Foulkes estimate   =   -2145.68545892 Ry
     estimated scf accuracy    <       0.00000077 Ry

     The total energy is the sum of the following terms:

     one-electron contribution =  -17570.76354739 Ry
     hartree contribution      =    8795.64821281 Ry
     xc contribution           =    -470.53345941 Ry
     ewald contribution        =    7100.05734495 Ry
     electric field correction =       0.00004333 Ry
     smearing contrib. (-TS)   =      -0.09405918 Ry

     convergence has been achieved in  17 iterations

 BEEF-vdW xc energy contributions
           1 :   -412.332996627013
           2 :    380.802660198655
           3 :   -325.724050136652
           4 :    260.009801732572
           5 :   -197.070278203373
           6 :    146.801508346394
           7 :   -113.356702000974
           8 :    95.2031621764264
           9 :   -87.0894739370059
          10 :    82.8543259080054
          11 :   -77.8572411897195
          12 :    70.1733716046670
          13 :   -60.3907109236848
          14 :    50.4536428364523
          15 :   -42.2951645330882
          16 :    36.8899349951802
          17 :   -34.0187576611108
          18 :    32.6447999318812
          19 :   -31.5702109971370
          20 :    29.9971320596467
          21 :   -27.7562531153300
          22 :    25.1743899569484
          23 :   -22.7397188334594
          24 :    20.7855853465735
          25 :   -19.3525159182548
          26 :    18.2501550932365
          27 :   -17.2307783452644
          28 :    16.1450063281150
          29 :   -14.9973353473044
          30 :    13.8952064297630
          31 :   -38.5176349422187
          32 :   -29.0399720103916

     Forces acting on atoms (Ry/au):

     negative rho (up, down):  1.169E+00 0.000E+00
     atom    1 type  1   force =     0.00001291   -0.03449299    0.02274821
     atom    2 type  1   force =    -0.02986310    0.01726215    0.02274780
     atom    3 type  1   force =     0.02986866    0.01725054    0.02273529
     atom    4 type  2   force =     0.00000986    0.00001400   -0.06563099
     atom    5 type  1   force =    -0.00001394    0.02825367    0.00304483
     atom    6 type  1   force =     0.02445710   -0.01414206    0.00304755
     atom    7 type  1   force =    -0.02444278   -0.01411371    0.00306918
     atom    8 type  2   force =    -0.00002602   -0.00001643   -0.01151862
     atom    9 type  1   force =     0.00000547    0.00105379   -0.00018944
     atom   10 type  1   force =     0.00091439   -0.00052892   -0.00018753
     atom   11 type  1   force =    -0.00091842   -0.00053583   -0.00019943
     atom   12 type  2   force =    -0.00000412   -0.00000421    0.00033314

     Total force =     0.109480     Total SCF correction =     0.005728

     entering subroutine stress ...

     negative rho (up, down):  1.169E+00 0.000E+00
          total   stress  (Ry/bohr**3)                   (kbar)     P=  -25.97
  -0.00025335  -0.00000000  -0.00000000        -37.27     -0.00     -0.00
  -0.00000000  -0.00025334  -0.00000000         -0.00    -37.27     -0.00
  -0.00000000  -0.00000000  -0.00002293         -0.00     -0.00     -3.37

 !ASE

     Writing output data file calc.save

     General routines

     Parallel routines

   This run was terminated on:   7:47:13  31Dec2018

   JOB DONE.
Job  /afs/slac/g/suncat/bin/suncat-tsmpirun -x LD_LIBRARY_PATH -wdir /scratch/qe648682_9H3wB pw.x -in pw.inp

TID   HOST_NAME   COMMAND_LINE            STATUS            TERMINATION_TIME
00000 suncat0062 pw.x -in pw.inp   Done                     12/31/2018 07:47:13
00001 suncat0062 pw.x -in pw.inp   Done                     12/31/2018 07:47:13
00002 suncat0062 pw.x -in pw.inp   Done                     12/31/2018 07:47:13
00003 suncat0062 pw.x -in pw.inp   Done                     12/31/2018 07:47:13
00004 suncat0062 pw.x -in pw.inp   Done                     12/31/2018 07:47:13
00005 suncat0062 pw.x -in pw.inp   Done                     12/31/2018 07:47:13
00006 suncat0062 pw.x -in pw.inp   Done                     12/31/2018 07:47:13
00007 suncat0062 pw.x -in pw.inp   Done                     12/31/2018 07:47:13
00008 suncat0061 pw.x -in pw.inp   Done                     12/31/2018 07:47:13
00009 suncat0061 pw.x -in pw.inp   Done                     12/31/2018 07:47:13
00010 suncat0061 pw.x -in pw.inp   Done                     12/31/2018 07:47:13
00011 suncat0061 pw.x -in pw.inp   Done                     12/31/2018 07:47:13
00012 suncat0061 pw.x -in pw.inp   Done                     12/31/2018 07:47:13
00013 suncat0061 pw.x -in pw.inp   Done                     12/31/2018 07:47:13
00014 suncat0061 pw.x -in pw.inp   Done                     12/31/2018 07:47:13
00015 suncat0061 pw.x -in pw.inp   Done                     12/31/2018 07:47:13
00016 suncat0060 pw.x -in pw.inp   Done                     12/31/2018 07:47:13
00017 suncat0060 pw.x -in pw.inp   Done                     12/31/2018 07:47:13
00018 suncat0060 pw.x -in pw.inp   Done                     12/31/2018 07:47:13
00019 suncat0060 pw.x -in pw.inp   Done                     12/31/2018 07:47:13
00020 suncat0060 pw.x -in pw.inp   Done                     12/31/2018 07:47:13
00021 suncat0060 pw.x -in pw.inp   Done                     12/31/2018 07:47:13
00022 suncat0060 pw.x -in pw.inp   Done                     12/31/2018 07:47:13
00023 suncat0060 pw.x -in pw.inp   Done                     12/31/2018 07:47:13
00024 suncat0057 pw.x -in pw.inp   Done                     12/31/2018 07:47:13
00025 suncat0057 pw.x -in pw.inp   Done                     12/31/2018 07:47:13
00026 suncat0057 pw.x -in pw.inp   Done                     12/31/2018 07:47:13
00027 suncat0057 pw.x -in pw.inp   Done                     12/31/2018 07:47:13
00028 suncat0057 pw.x -in pw.inp   Done                     12/31/2018 07:47:13
00029 suncat0057 pw.x -in pw.inp   Done                     12/31/2018 07:47:13
00030 suncat0057 pw.x -in pw.inp   Done                     12/31/2018 07:47:13
00031 suncat0057 pw.x -in pw.inp   Done                     12/31/2018 07:47:13
00032 suncat0016 pw.x -in pw.inp   Done                     12/31/2018 07:47:13
00033 suncat0016 pw.x -in pw.inp   Done                     12/31/2018 07:47:13
00034 suncat0016 pw.x -in pw.inp   Done                     12/31/2018 07:47:13
00035 suncat0016 pw.x -in pw.inp   Done                     12/31/2018 07:47:13
00036 suncat0016 pw.x -in pw.inp   Done                     12/31/2018 07:47:13
00037 suncat0016 pw.x -in pw.inp   Done                     12/31/2018 07:47:13
00038 suncat0016 pw.x -in pw.inp   Done                     12/31/2018 07:47:13
00039 suncat0016 pw.x -in pw.inp   Done                     12/31/2018 07:47:13
00040 suncat0198 pw.x -in pw.inp   Done                     12/31/2018 07:47:13
00041 suncat0198 pw.x -in pw.inp   Done                     12/31/2018 07:47:13
00042 suncat0198 pw.x -in pw.inp   Done                     12/31/2018 07:47:13
00043 suncat0198 pw.x -in pw.inp   Done                     12/31/2018 07:47:13
00044 suncat0198 pw.x -in pw.inp   Done                     12/31/2018 07:47:13
00045 suncat0198 pw.x -in pw.inp   Done                     12/31/2018 07:47:13
00046 suncat0198 pw.x -in pw.inp   Done                     12/31/2018 07:47:13
00047 suncat0198 pw.x -in pw.inp   Done                     12/31/2018 07:47:13
00048 suncat0194 pw.x -in pw.inp   Done                     12/31/2018 07:47:13
00049 suncat0194 pw.x -in pw.inp   Done                     12/31/2018 07:47:13
00050 suncat0194 pw.x -in pw.inp   Done                     12/31/2018 07:47:13
00051 suncat0194 pw.x -in pw.inp   Done                     12/31/2018 07:47:13
00052 suncat0194 pw.x -in pw.inp   Done                     12/31/2018 07:47:13
00053 suncat0194 pw.x -in pw.inp   Done                     12/31/2018 07:47:13
00054 suncat0194 pw.x -in pw.inp   Done                     12/31/2018 07:47:13
00055 suncat0194 pw.x -in pw.inp   Done                     12/31/2018 07:47:13
00056 suncat0193 pw.x -in pw.inp   Done                     12/31/2018 07:47:13
00057 suncat0193 pw.x -in pw.inp   Done                     12/31/2018 07:47:13
00058 suncat0193 pw.x -in pw.inp   Done                     12/31/2018 07:47:13
00059 suncat0193 pw.x -in pw.inp   Done                     12/31/2018 07:47:13
00060 suncat0193 pw.x -in pw.inp   Done                     12/31/2018 07:47:13
00061 suncat0193 pw.x -in pw.inp   Done                     12/31/2018 07:47:13
00062 suncat0193 pw.x -in pw.inp   Done                     12/31/2018 07:47:13
00063 suncat0193 pw.x -in pw.inp   Done                     12/31/2018 07:47:13