     Program PWSCF v.5.1rc2 (svn rev. 11289) starts on 25Dec2018 at 15:19:28

     Current dimensions of program PWSCF are:
     Max number of different atomic species (ntypx) = 10
     Max number of k-points (npk) =  40000
     Max angular momentum in pseudopotentials (lmaxx) =  3
     Presently stress not available with electric field

     IMPORTANT: XC functional enforced from input :
     Exchange-correlation      = BEEF-VDW ( 1  4 27 13 2)
     Any further DFT definition will be discarded
     Please, verify this is what you really want

     Subspace diagonalization in iterative solution of the eigenvalue problem:
     a serial algorithm will be used

     Generating pointlists ...
     new r_m :   0.4125 (alat units)  0.7795 (a.u.) for type    1
     new r_m :   0.4125 (alat units)  0.7795 (a.u.) for type    2

     bravais-lattice index     =            0
     lattice parameter (alat)  =       1.8897  a.u.
     unit-cell volume          =    3808.7196 (a.u.)^3
     number of atoms/cell      =           12
     number of atomic types    =            2
     number of electrons       =       219.00
     number of Kohn-Sham states=          139
     kinetic-energy cutoff     =      36.7493  Ry
     charge density cutoff     =     367.4932  Ry
     convergence threshold     =      1.0E-06
     mixing beta               =       0.1000
     number of iterations used =           10  plain     mixing
     Exchange-correlation      = BEEF-VDW ( 1  4 27 13 2)
     nstep                     =           50

     celldm(1)=   1.889726  celldm(2)=   0.000000  celldm(3)=   0.000000
     celldm(4)=   0.000000  celldm(5)=   0.000000  celldm(6)=   0.000000

     crystal axes: (cart. coord. in units of alat)
               a(1) = (   5.185755   0.000000   0.000000 )
               a(2) = (  -2.592877   4.490995   0.000000 )
               a(3) = (   0.000000   0.000000  24.234151 )

     reciprocal axes: (cart. coord. in units 2 pi/alat)
               b(1) = (  0.192836  0.111334  0.000000 )
               b(2) = (  0.000000  0.222668  0.000000 )
               b(3) = (  0.000000  0.000000  0.041264 )

     PseudoPot. # 1 for Cu read from file:
     /afs/slac.stanford.edu/u/if/mamunm/psp/gbrv1.5pbe/Cu.UPF
     MD5 check sum: 6e991ff952a84172a2a52a1c1e996048
     Pseudo is Ultrasoft + core correction, Zval = 19.0
     Generated by new atomic code, or converted to UPF format
     Using radial grid of  867 points,  6 beta functions with:
                l(1) =   0
                l(2) =   0
                l(3) =   1
                l(4) =   1
                l(5) =   2
                l(6) =   2
     Q(r) pseudized with  8 coefficients,  rinner =    1.150   1.150   1.150
                                                       1.150   1.150

     PseudoPot. # 2 for Fe read from file:
     /afs/slac.stanford.edu/u/if/mamunm/psp/gbrv1.5pbe/Fe.UPF
     MD5 check sum: a130daea23fe5165f5d574ae7f82ed95
     Pseudo is Ultrasoft + core correction, Zval = 16.0
     Generated by new atomic code, or converted to UPF format
     Using radial grid of  861 points,  6 beta functions with:
                l(1) =   0
                l(2) =   0
                l(3) =   1
                l(4) =   1
                l(5) =   2
                l(6) =   2
     Q(r) pseudized with  8 coefficients,  rinner =    1.000   1.000   1.000
                                                       1.000   1.000

     vdW kernel table read from file vdW_kernel_table
     MD5 check sum: 095c7af220d748ca6e76c0b4c6cfb241

     atomic species   valence    mass     pseudopotential
        Cu1           19.00    63.54600     Cu( 1.00)
        Fe1           16.00    55.84500     Fe( 1.00)

     Starting magnetic structure
     atomic species   magnetization
        Cu1          0.105
        Fe1          0.125

     No symmetry found

   Cartesian axes

     site n.     atom                  positions (alat units)
         1           Cu1 tau(   1) = (   0.0000000   0.0000000  10.0000000  )
         2           Cu1 tau(   2) = (  -1.2964387   2.2454977  10.0000000  )
         3           Cu1 tau(   3) = (   1.2964387   2.2454977  10.0000000  )
         4           Fe1 tau(   4) = (   2.5928774   0.0000000  10.0000000  )
         5           Cu1 tau(   5) = (   2.5928774   1.4969985  12.1170755  )
         6           Cu1 tau(   6) = (   1.2964387   3.7424961  12.1170755  )
         7           Cu1 tau(   7) = (  -1.2964387   3.7424961  12.1170755  )
         8           Fe1 tau(   8) = (   0.0000000   1.4969985  12.1170755  )
         9           Cu1 tau(   9) = (   0.0000000   2.9939969  14.2341510  )
        10           Cu1 tau(  10) = (   1.2964387   0.7484992  14.2341510  )
        11           Cu1 tau(  11) = (   3.8893161   0.7484992  14.2341510  )
        12           Fe1 tau(  12) = (   2.5928774   2.9939969  14.2341510  )

     number of k points=    40  Fermi-Dirac smearing, width (Ry)=  0.0110
                       cart. coord. in units 2pi/alat
        k(    1) = (   0.0000000   0.0000000   0.0000000), wk =   0.0277778
        k(    2) = (   0.0000000   0.0371113   0.0000000), wk =   0.0555556
        k(    3) = (   0.0000000   0.0742226   0.0000000), wk =   0.0555556
        k(    4) = (   0.0000000  -0.1113339   0.0000000), wk =   0.0277778
        k(    5) = (   0.0321393   0.0185556   0.0000000), wk =   0.0555556
        k(    6) = (   0.0321393   0.0556669   0.0000000), wk =   0.0555556
        k(    7) = (   0.0321393   0.0927782   0.0000000), wk =   0.0555556
        k(    8) = (   0.0321393  -0.0927782   0.0000000), wk =   0.0555556
        k(    9) = (   0.0321393  -0.0556669   0.0000000), wk =   0.0555556
        k(   10) = (   0.0321393  -0.0185556   0.0000000), wk =   0.0555556
        k(   11) = (   0.0642787   0.0371113   0.0000000), wk =   0.0555556
        k(   12) = (   0.0642787   0.0742226   0.0000000), wk =   0.0555556
        k(   13) = (   0.0642787   0.1113339   0.0000000), wk =   0.0555556
        k(   14) = (   0.0642787  -0.0742226   0.0000000), wk =   0.0555556
        k(   15) = (   0.0642787  -0.0371113   0.0000000), wk =   0.0555556
        k(   16) = (   0.0642787   0.0000000   0.0000000), wk =   0.0555556
        k(   17) = (  -0.0964180  -0.0556669   0.0000000), wk =   0.0277778
        k(   18) = (  -0.0964180  -0.0185556   0.0000000), wk =   0.0555556
        k(   19) = (  -0.0964180   0.0185556   0.0000000), wk =   0.0555556
        k(   20) = (  -0.0964180  -0.1670008   0.0000000), wk =   0.0277778
        k(   21) = (   0.0000000   0.0000000   0.0000000), wk =   0.0277778
        k(   22) = (   0.0000000   0.0371113   0.0000000), wk =   0.0555556
        k(   23) = (   0.0000000   0.0742226   0.0000000), wk =   0.0555556
        k(   24) = (   0.0000000  -0.1113339   0.0000000), wk =   0.0277778
        k(   25) = (   0.0321393   0.0185556   0.0000000), wk =   0.0555556
        k(   26) = (   0.0321393   0.0556669   0.0000000), wk =   0.0555556
        k(   27) = (   0.0321393   0.0927782   0.0000000), wk =   0.0555556
        k(   28) = (   0.0321393  -0.0927782   0.0000000), wk =   0.0555556
        k(   29) = (   0.0321393  -0.0556669   0.0000000), wk =   0.0555556
        k(   30) = (   0.0321393  -0.0185556   0.0000000), wk =   0.0555556
        k(   31) = (   0.0642787   0.0371113   0.0000000), wk =   0.0555556
        k(   32) = (   0.0642787   0.0742226   0.0000000), wk =   0.0555556
        k(   33) = (   0.0642787   0.1113339   0.0000000), wk =   0.0555556
        k(   34) = (   0.0642787  -0.0742226   0.0000000), wk =   0.0555556
        k(   35) = (   0.0642787  -0.0371113   0.0000000), wk =   0.0555556
        k(   36) = (   0.0642787   0.0000000   0.0000000), wk =   0.0555556
        k(   37) = (  -0.0964180  -0.0556669   0.0000000), wk =   0.0277778
        k(   38) = (  -0.0964180  -0.0185556   0.0000000), wk =   0.0555556
        k(   39) = (  -0.0964180   0.0185556   0.0000000), wk =   0.0555556
        k(   40) = (  -0.0964180  -0.1670008   0.0000000), wk =   0.0277778

     Largest allocated arrays     est. size (Mb)     dimensions
     Largest temporary arrays     est. size (Mb)     dimensions

     Check: negative/imaginary core charge=   -0.000003    0.000000

     Initial potential from superposition of free atoms
     Check: negative starting charge=(component1):   -0.000106

     starting charge  206.99996, renormalised to  219.00000

     negative rho (up, down):  1.124E-04 8.915E-05

     *
     * You are using vdW-DF for exchange-correlation in this calculation.
     * Please cite the following three references that made this development
     * possible:
     *
     *   M. Dion, H. Rydberg, E. Schroder, D. C. Langreth, and
     *   B. I. Lundqvist, Phys. Rev. Lett. 92, 246401 (2004).
     *
     *   T. Thonhauser, V. R. Cooper, S. Li, A. Puzder, P. Hyldgaard, and
     *   D. C. Langreth, Phys. Rev. B 76, 125112 (2007).
     *
     *   G. Roman-Perez and J. M. Soler, Phys. Rev. Lett. 103, 096102 (2009).
     *
     *
     * If you are using vdW-DF2, please also cite:
     *
     *   K. Lee, E. D. Murray, L. Kong, B. I. Lundqvist, and
     *   D. C. Langreth, Phys. Rev. B 82, 081101(R) (2010).
     *
     *
     * If you are calculating the stress with vdW-DF, please also cite:
     *
     *   R. Sabatini, E. Kucukbenli, B. Kolb, T. Thonhauser, and
     *   S. de Gironcoli, J. Phys.: Condens. Matter 24, 424209 (2012).
     *

     Carrying out vdW-DF run using the following parameters:

     Nqs =      20    Nr_points =    1024   r_max =   100.000
     q_mesh =
               0.00001000     0.04494208     0.09755937     0.15916263
               0.23128650     0.31572767     0.41458969     0.53033537
               0.66584808     0.82450364     1.01025438     1.22772762
               1.48234092     1.78043706     2.12944203     2.53805004
               3.01644009     3.57652955     4.23227104     5.00000000

     Gradients computed in reciprocal space

     Adding external electric field

     Computed dipole along edir(3) :
        Dipole               -0.0000 Ry au,         -0.0000 Debye
        Dipole field         -0.0000 Ry au

        Potential amp.        0.0000 Ry
        Total length         44.6510 bohr

[...]

     Starting wfc are  156 randomized atomic wfcs

     Self-consistent Calculation

     iteration #  1     ecut=    36.75 Ry     beta=0.10
     Davidson diagonalization with overlap
     ethr =  1.00E-02,  avg # of iterations =  7.0

[...]

     Magnetic moment per site:
     atom:    1    charge:   10.7287    magn:    1.1475    constr:    0.0000
     atom:    2    charge:   10.7287    magn:    1.1475    constr:    0.0000
     atom:    3    charge:   10.7287    magn:    1.1475    constr:    0.0000
     atom:    4    charge:    7.4029    magn:    0.8639    constr:    0.0000
     atom:    5    charge:   10.7347    magn:    1.1448    constr:    0.0000
     atom:    6    charge:   10.7347    magn:    1.1448    constr:    0.0000
     atom:    7    charge:   10.7347    magn:    1.1448    constr:    0.0000
     atom:    8    charge:    7.4064    magn:    0.8699    constr:    0.0000
     atom:    9    charge:   10.7287    magn:    1.1475    constr:    0.0000
     atom:   10    charge:   10.7287    magn:    1.1475    constr:    0.0000
     atom:   11    charge:   10.7287    magn:    1.1475    constr:    0.0000
     atom:   12    charge:    7.4029    magn:    0.8639    constr:    0.0000

     total energy              =   -4375.98131477 Ry
     Harris-Foulkes estimate   =   -4412.80621297 Ry
     estimated scf accuracy    <     206.89304645 Ry

     total magnetization       =    19.48 Bohr mag/cell
     absolute magnetization    =    20.29 Bohr mag/cell

[...]

     total energy              =   -4398.27882324 Ry
     Harris-Foulkes estimate   =   -4398.27882137 Ry
     estimated scf accuracy    <       0.00000136 Ry

[...]

     iteration # 27     ecut=    36.75 Ry     beta=0.10
     Davidson diagonalization with overlap
     ethr =  6.23E-10,  avg # of iterations =  1.8

[...]

     negative rho (up, down):  4.682E-04 6.178E-04

[...]

     Adding external electric field

     Computed dipole along edir(3) :
        Dipole                0.0015 Ry au,          0.0039 Debye
        Dipole field          0.0000 Ry au

        Potential amp.       -0.0004 Ry
        Total length         44.6510 bohr

     Magnetic moment per site:
     atom:    1    charge:   10.6051    magn:    0.0597    constr:    0.0000
     atom:    2    charge:   10.6051    magn:    0.0597    constr:    0.0000
     atom:    3    charge:   10.6051    magn:    0.0597    constr:    0.0000
     atom:    4    charge:    7.1015    magn:    1.3694    constr:    0.0000
     atom:    5    charge:   10.6105    magn:    0.0610    constr:    0.0000
     atom:    6    charge:   10.6105    magn:    0.0610    constr:    0.0000
     atom:    7    charge:   10.6105    magn:    0.0610    constr:    0.0000
     atom:    8    charge:    7.1053    magn:    1.3174    constr:    0.0000
     atom:    9    charge:   10.6051    magn:    0.0597    constr:    0.0000
     atom:   10    charge:   10.6051    magn:    0.0597    constr:    0.0000
     atom:   11    charge:   10.6051    magn:    0.0597    constr:    0.0000
     atom:   12    charge:    7.1013    magn:    1.3694    constr:    0.0000

     End of self-consistent calculation

 ------ SPIN UP ------------

          k = 0.0000 0.0000 0.0000 ( 14345 PWs)   bands (ev):

  -112.3347-112.3291-112.3291-112.0919-112.0918-112.0864-112.0864-112.0863
  -112.0863 -88.6297 -88.6291 -88.5051 -69.7686 -69.7539 -69.7539 -69.7378
   -69.7378 -69.7227 -69.6893 -69.6508 -69.6508 -69.5613 -69.5613 -69.5597
   -69.5597 -69.5367 -69.5364 -69.5079 -69.5078 -69.4570 -69.4570 -69.4568
   -69.4568 -69.4116 -69.4095 -69.4000 -69.4000 -69.3991 -69.3991 -54.7360
   -54.7352 -54.6121 -54.5969 -54.5969 -54.5963 -54.5963 -54.4715 -54.4715
    -7.7215  -5.8988  -4.6501  -4.3121  -4.3121  -4.1979  -4.1979  -4.0943
    -3.9434  -3.7882  -3.7882  -3.7689  -3.7689  -3.7261  -3.5660  -3.1651
    -3.1651  -2.9493  -2.7606  -2.7606  -2.7179  -2.5964  -2.5942  -2.5640
    -2.5640  -2.4290  -2.4290  -2.4129  -2.3814  -2.3814  -2.3236  -2.3236
    -2.2124  -2.1281  -2.1281  -1.7983  -1.7983  -1.7966  -1.7698  -1.7698
    -1.7622  -1.7622  -1.5816  -1.5346  -1.5346  -1.4356  -1.3321  -1.3321
    -1.3154  -1.3154  -1.3074  -1.2928  -1.2359  -1.2359  -1.1376  -1.1206
    -1.0493  -1.0307  -1.0307  -0.9754  -0.9754  -0.9300  -0.9300   0.4258
     0.6453   0.6453   0.6929   1.6969   1.6969   1.9037   2.1420   2.1420
     2.2602   4.2718   4.6798   4.9001   4.9001   5.1027   5.3123   5.9735
     5.9735   6.0335   6.1616   6.6349   6.7648   6.7648   7.0531   8.3207
     8.3835   9.2880   9.2880

[...]

          k =-0.0964-0.0557 0.0000 ( 14302 PWs)   bands (ev):

[...]

 ------ SPIN DOWN ----------

[...]

          k = 0.0643 0.0000 0.0000 ( 14335 PWs)   bands (ev):

[...]

          k =-0.0964-0.1670 0.0000 ( 14302 PWs)   bands (ev):

  -112.1962-112.1944-112.1925-111.9559-111.9558-111.9541-111.9539-111.9522
  -111.9521 -85.1111 -85.0982 -85.0981 -69.6155 -69.6014 -69.6009 -69.5978
   -69.5974 -69.5894 -69.5765 -69.5666 -69.5500 -69.4048 -69.4043 -69.3953
   -69.3945 -69.3892 -69.3888 -69.3664 -69.3662 -69.3510 -69.3508 -69.3321
   -69.3320 -69.3032 -69.3029 -69.3015 -69.3000 -69.2982 -69.2978 -51.2259
   -51.2177 -51.2175 -51.2083 -51.2081 -51.1919 -51.1918 -51.1916 -51.1915
    -5.9935  -5.8650  -4.3924  -4.2352  -3.7433  -3.5853  -3.5228  -3.4462
    -3.3169  -3.2918  -3.2234  -2.9951  -2.9756  -2.9559  -2.9499  -2.8282
    -2.7751  -2.7424  -2.6777  -2.6338  -2.4524  -2.4111  -2.3499  -2.3298
    -2.3230  -2.2984  -2.2722  -2.2424  -2.2059  -2.1922  -2.1844  -2.1483
    -2.1472  -2.0667  -1.9810  -1.9723  -1.9157  -1.9097  -1.8408  -1.8231
    -1.7548  -1.7275  -1.6420  -1.6246  -1.4851  -1.4308  -1.3533  -1.2609
    -1.2521  -1.1447  -0.5078  -0.4367   0.0569   0.2133   0.2245   0.3367
     0.4531   0.5099   0.5612   0.5629   0.5679   0.9198   1.0205   1.1217
     1.1847   1.5877   1.8550   2.1633   2.2970   2.7577   3.6298   3.7346
     4.3164   4.6042   6.0362   6.0438   6.6280   6.6465   6.9504   6.9524
     7.2345   7.3087   7.7258   7.9424   7.9516   7.9543   8.0122   8.0914
     8.3523   8.3991   9.1886

     the Fermi energy is     0.5074 ev

!    total energy              =   -4398.27883080 Ry
     Harris-Foulkes estimate   =   -4398.27882344 Ry
     estimated scf accuracy    <       0.00000100 Ry

     The total energy is the sum of the following terms:

     one-electron contribution =  -33927.10205079 Ry
     hartree contribution      =   16972.26161543 Ry
     xc contribution           =    -450.76247178 Ry
     ewald contribution        =   13007.39933167 Ry
     electric field correction =       0.00000001 Ry
     smearing contrib. (-TS)   =      -0.07525533 Ry

     total magnetization       =     9.13 Bohr mag/cell
     absolute magnetization    =    10.53 Bohr mag/cell

     convergence has been achieved in  27 iterations

 BEEF-vdW xc energy contributions
           1 :   -398.612844328302
           2 :    361.233700237641
           3 :   -298.079283286323
           4 :    226.808461373815
           5 :   -163.419858364917
           6 :    116.459565485727
           7 :   -85.7323455698657
           8 :    65.3343401057553
           9 :   -48.6164484719135
          10 :    32.0636060590315
          11 :   -16.2424885901146
          12 :    3.95520481124146
          13 :    2.63811421447150
          14 :   -3.88419012628111
          15 :    2.43621491828105
          16 :   -1.46433113178205
          17 :    2.70741489812110
          18 :   -5.69363003159344
          19 :    8.48409370400498
          20 :   -9.26451287969019
          21 :    7.63624987657818
          22 :   -4.79888927269678
          23 :    2.62100165856214
          24 :   -2.33948062458637
          25 :    3.79264800569194
          26 :   -5.65889150638122
          27 :    6.44750916023162
          28 :   -5.51961590132049
          29 :    3.45398614336375
          30 :   -1.57052292025219
          31 :   -32.3238354121022
          32 :   -22.2226114603002

     Forces acting on atoms (Ry/au):

     negative rho (up, down):  4.682E-04 6.178E-04
     atom    1 type  1   force =     0.00000011   -0.00119813    0.00135362
     atom    2 type  1   force =    -0.00103763    0.00059892    0.00135368
     atom    3 type  1   force =     0.00103765    0.00059921    0.00135390
     atom    4 type  2   force =     0.00000007   -0.00000011   -0.00141757
     atom    5 type  1   force =     0.00000016   -0.00001408   -0.00017248
     atom    6 type  1   force =    -0.00001227    0.00000664   -0.00017299
     atom    7 type  1   force =     0.00001219    0.00000683   -0.00017288
     atom    8 type  2   force =     0.00000014    0.00000010   -0.00030014
     atom    9 type  1   force =    -0.00000009    0.00137077   -0.00101784
     atom   10 type  1   force =     0.00118802   -0.00068559   -0.00101924
     atom   11 type  1   force =    -0.00118858   -0.00068457   -0.00101866
     atom   12 type  2   force =     0.00000022    0.00000001    0.00123058

     Total force =     0.004718     Total SCF correction =     0.004565
     SCF correction compared to forces is large: reduce conv_thr to get better values

     entering subroutine stress ...

     negative rho (up, down):  4.682E-04 6.178E-04
          total   stress  (Ry/bohr**3)                   (kbar)     P=  -16.06
  -0.00012890  -0.00000000  -0.00000000        -18.96     -0.00     -0.00
  -0.00000000  -0.00012890   0.00000000         -0.00    -18.96      0.00
  -0.00000000   0.00000000  -0.00006968         -0.00      0.00    -10.25

 !ASE

     Writing output data file calc.save

     General routines

     Parallel routines

   This run was terminated on:  16:30: 4  25Dec2018

   JOB DONE.
Job  /afs/slac/g/suncat/bin/suncat-tsmpirun -x LD_LIBRARY_PATH -wdir /scratch/qe109562_1Qbho pw.x -in pw.inp

TID   HOST_NAME   COMMAND_LINE            STATUS            TERMINATION_TIME
00000 suncat0108 pw.x -in pw.inp   Done                     12/25/2018 16:30:04
00001 suncat0108 pw.x -in pw.inp   Done                     12/25/2018 16:30:04
00002 suncat0108 pw.x -in pw.inp   Done                     12/25/2018 16:30:04
00003 suncat0108 pw.x -in pw.inp   Done                     12/25/2018 16:30:04
00004 suncat0108 pw.x -in pw.inp   Done                     12/25/2018 16:30:04
00005 suncat0108 pw.x -in pw.inp   Done                     12/25/2018 16:30:04
00006 suncat0108 pw.x -in pw.inp   Done                     12/25/2018 16:30:04
00007 suncat0108 pw.x -in pw.inp   Done                     12/25/2018 16:30:04
00008 suncat0107 pw.x -in pw.inp   Done                     12/25/2018 16:30:04
00009 suncat0107 pw.x -in pw.inp   Done                     12/25/2018 16:30:04
00010 suncat0107 pw.x -in pw.inp   Done                     12/25/2018 16:30:04
00011 suncat0107 pw.x -in pw.inp   Done                     12/25/2018 16:30:04
00012 suncat0107 pw.x -in pw.inp   Done                     12/25/2018 16:30:04
00013 suncat0107 pw.x -in pw.inp   Done                     12/25/2018 16:30:04
00014 suncat0107 pw.x -in pw.inp   Done                     12/25/2018 16:30:04
00015 suncat0107 pw.x -in pw.inp   Done                     12/25/2018 16:30:04
00016 suncat0106 pw.x -in pw.inp   Done                     12/25/2018 16:30:04
00017 suncat0106 pw.x -in pw.inp   Done                     12/25/2018 16:30:04
00018 suncat0106 pw.x -in pw.inp   Done                     12/25/2018 16:30:04
00019 suncat0106 pw.x -in pw.inp   Done                     12/25/2018 16:30:04
00020 suncat0106 pw.x -in pw.inp   Done                     12/25/2018 16:30:04
00021 suncat0106 pw.x -in pw.inp   Done                     12/25/2018 16:30:04
00022 suncat0106 pw.x -in pw.inp   Done                     12/25/2018 16:30:04
00023 suncat0106 pw.x -in pw.inp   Done                     12/25/2018 16:30:04
00024 suncat0105 pw.x -in pw.inp   Done                     12/25/2018 16:30:04
00025 suncat0105 pw.x -in pw.inp   Done                     12/25/2018 16:30:04
00026 suncat0105 pw.x -in pw.inp   Done                     12/25/2018 16:30:04
00027 suncat0105 pw.x -in pw.inp   Done                     12/25/2018 16:30:04
00028 suncat0105 pw.x -in pw.inp   Done                     12/25/2018 16:30:04
00029 suncat0105 pw.x -in pw.inp   Done                     12/25/2018 16:30:04
00030 suncat0105 pw.x -in pw.inp   Done                     12/25/2018 16:30:04
00031 suncat0105 pw.x -in pw.inp   Done                     12/25/2018 16:30:04
00032 suncat0238 pw.x -in pw.inp   Done                     12/25/2018 16:30:04
00033 suncat0238 pw.x -in pw.inp   Done                     12/25/2018 16:30:04
00034 suncat0238 pw.x -in pw.inp   Done                     12/25/2018 16:30:04
00035 suncat0238 pw.x -in pw.inp   Done                     12/25/2018 16:30:04
00036 suncat0238 pw.x -in pw.inp   Done                     12/25/2018 16:30:04
00037 suncat0238 pw.x -in pw.inp   Done                     12/25/2018 16:30:04
00038 suncat0238 pw.x -in pw.inp   Done                     12/25/2018 16:30:04
00039 suncat0238 pw.x -in pw.inp   Done                     12/25/2018 16:30:04
00040 suncat0237 pw.x -in pw.inp   Done                     12/25/2018 16:30:04
00041 suncat0237 pw.x -in pw.inp   Done                     12/25/2018 16:30:04
00042 suncat0237 pw.x -in pw.inp   Done                     12/25/2018 16:30:04
00043 suncat0237 pw.x -in pw.inp   Done                     12/25/2018 16:30:04
00044 suncat0237 pw.x -in pw.inp   Done                     12/25/2018 16:30:04
00045 suncat0237 pw.x -in pw.inp   Done                     12/25/2018 16:30:04
00046 suncat0237 pw.x -in pw.inp   Done                     12/25/2018 16:30:04
00047 suncat0237 pw.x -in pw.inp   Done                     12/25/2018 16:30:04
00048 suncat0236 pw.x -in pw.inp   Done                     12/25/2018 16:30:04
00049 suncat0236 pw.x -in pw.inp   Done                     12/25/2018 16:30:04
00050 suncat0236 pw.x -in pw.inp   Done                     12/25/2018 16:30:04
00051 suncat0236 pw.x -in pw.inp   Done                     12/25/2018 16:30:04
00052 suncat0236 pw.x -in pw.inp   Done                     12/25/2018 16:30:04
00053 suncat0236 pw.x -in pw.inp   Done                     12/25/2018 16:30:04
00054 suncat0236 pw.x -in pw.inp   Done                     12/25/2018 16:30:04
00055 suncat0236 pw.x -in pw.inp   Done                     12/25/2018 16:30:04
00056 suncat0235 pw.x -in pw.inp   Done                     12/25/2018 16:30:04
00057 suncat0235 pw.x -in pw.inp   Done                     12/25/2018 16:30:04
00058 suncat0235 pw.x -in pw.inp   Done                     12/25/2018 16:30:04
00059 suncat0235 pw.x -in pw.inp   Done                     12/25/2018 16:30:04
00060 suncat0235 pw.x -in pw.inp   Done                     12/25/2018 16:30:04
00061 suncat0235 pw.x -in pw.inp   Done                     12/25/2018 16:30:04
00062 suncat0235 pw.x -in pw.inp   Done                     12/25/2018 16:30:04
00063 suncat0235 pw.x -in pw.inp   Done                     12/25/2018 16:30:04