     Program PWSCF v.5.1rc2 (svn rev. 11289) starts on 20Dec2018 at  0:14:30

     Current dimensions of program PWSCF are:
     Max number of different atomic species (ntypx) = 10
     Max number of k-points (npk) =  40000
     Max angular momentum in pseudopotentials (lmaxx) =  3
     Presently stress not available with electric field

     IMPORTANT: XC functional enforced from input :
     Exchange-correlation      = BEEF-VDW ( 1  4 27 13 2)
     Any further DFT definition will be discarded
     Please, verify this is what you really want

     Subspace diagonalization in iterative solution of the eigenvalue problem:
     a serial algorithm will be used

     bravais-lattice index     =            0
     lattice parameter (alat)  =       1.8897  a.u.
     unit-cell volume          =    5233.3397 (a.u.)^3
     number of atoms/cell      =           12
     number of atomic types    =            2
     number of electrons       =       153.00
     number of Kohn-Sham states=          106
     kinetic-energy cutoff     =      36.7493  Ry
     charge density cutoff     =     367.4932  Ry
     convergence threshold     =      1.0E-06
     mixing beta               =       0.1000
     number of iterations used =           10  plain     mixing
     Exchange-correlation      = BEEF-VDW ( 1  4 27 13 2)
     nstep                     =           50

     celldm(1)=   1.889726  celldm(2)=   0.000000  celldm(3)=   0.000000
     celldm(4)=   0.000000  celldm(5)=   0.000000  celldm(6)=   0.000000

     crystal axes: (cart. coord. in units of alat)
               a(1) = (   5.997281   0.000000   0.000000 )
               a(2) = (  -2.998641   5.193798   0.000000 )
               a(3) = (   0.000000   0.000000  24.896760 )

     reciprocal axes: (cart. coord. in units 2 pi/alat)
               b(1) = (  0.166742  0.096269  0.000000 )
               b(2) = (  0.000000  0.192537  0.000000 )
               b(3) = (  0.000000  0.000000  0.040166 )

     PseudoPot. # 1 for Cd read from file:
     /afs/slac.stanford.edu/u/if/mamunm/psp/gbrv1.5pbe/Cd.UPF
     MD5 check sum: 17164a7926edb8e0dc231208abae86a6
     Pseudo is Ultrasoft + core correction, Zval = 12.0
     Generated by new atomic code, or converted to UPF format
     Using radial grid of  889 points,  6 beta functions with:
                l(1) =   0
                l(2) =   0
                l(3) =   1
                l(4) =   1
                l(5) =   2
                l(6) =   2
     Q(r) pseudized with  6 coefficients,  rinner =    1.000   1.000   1.000
                                                       1.000   1.000

     PseudoPot. # 2 for Re read from file:
     /afs/slac.stanford.edu/u/if/mamunm/psp/gbrv1.5pbe/Re.UPF
     MD5 check sum: 85f993410f3e006da9d71c142b4ad953
     Pseudo is Ultrasoft + core correction, Zval = 15.0
     Generated by new atomic code, or converted to UPF format
     Using radial grid of  981 points,  8 beta functions with:
                l(1) =   0
                l(2) =   0
                l(3) =   1
                l(4) =   1
                l(5) =   2
                l(6) =   2
                l(7) =   3
                l(8) =   3
     Q(r) pseudized with  8 coefficients,  rinner =    1.150   1.150   1.150
                                                       1.150   1.150   1.150
                                                       1.150

     vdW kernel table read from file vdW_kernel_table
     MD5 check sum: 095c7af220d748ca6e76c0b4c6cfb241

     atomic species   valence    mass     pseudopotential
        Cd1           12.00   112.41400     Cd( 1.00)
        Re1           15.00   186.20700     Re( 1.00)

     No symmetry found

   Cartesian axes

     site n.     atom                  positions (alat units)
         1           Cd1 tau(   1) = (   0.0000000   0.0000000  10.0000000  )
         2           Cd1 tau(   2) = (  -1.4993204   2.5968991  10.0000000  )
         3           Cd1 tau(   3) = (   1.4993204   2.5968991  10.0000000  )
         4           Re1 tau(   4) = (   2.9986407   0.0000000  10.0000000  )
         5           Cd1 tau(   5) = (   2.9986407   1.7312660  12.4483799  )
         6           Cd1 tau(   6) = (   1.4993204   4.3281651  12.4483799  )
         7           Cd1 tau(   7) = (  -1.4993204   4.3281651  12.4483799  )
         8           Re1 tau(   8) = (   0.0000000   1.7312660  12.4483799  )
         9           Cd1 tau(   9) = (  -0.0000000   3.4625321  14.8967598  )
        10           Cd1 tau(  10) = (   1.4993204   0.8656330  14.8967598  )
        11           Cd1 tau(  11) = (   4.4979611   0.8656330  14.8967598  )
        12           Re1 tau(  12) = (   2.9986407   3.4625321  14.8967598  )

     number of k points=    20  Fermi-Dirac smearing, width (Ry)=  0.0110
                       cart. coord. in units 2pi/alat
        k(    1) = (   0.0000000   0.0000000   0.0000000), wk =   0.0555556
        k(    2) = (   0.0000000   0.0320896   0.0000000), wk =   0.1111111
        k(    3) = (   0.0000000   0.0641791   0.0000000), wk =   0.1111111
        k(    4) = (   0.0000000  -0.0962687   0.0000000), wk =   0.0555556
        k(    5) = (   0.0277904   0.0160448   0.0000000), wk =   0.1111111
        k(    6) = (   0.0277904   0.0481343   0.0000000), wk =   0.1111111
        k(    7) = (   0.0277904   0.0802239   0.0000000), wk =   0.1111111
        k(    8) = (   0.0277904  -0.0802239   0.0000000), wk =   0.1111111
        k(    9) = (   0.0277904  -0.0481343   0.0000000), wk =   0.1111111
        k(   10) = (   0.0277904  -0.0160448   0.0000000), wk =   0.1111111
        k(   11) = (   0.0555807   0.0320896   0.0000000), wk =   0.1111111
        k(   12) = (   0.0555807   0.0641791   0.0000000), wk =   0.1111111
        k(   13) = (   0.0555807   0.0962687   0.0000000), wk =   0.1111111
        k(   14) = (   0.0555807  -0.0641791   0.0000000), wk =   0.1111111
        k(   15) = (   0.0555807  -0.0320896   0.0000000), wk =   0.1111111
        k(   16) = (   0.0555807   0.0000000   0.0000000), wk =   0.1111111
        k(   17) = (  -0.0833711  -0.0481343   0.0000000), wk =   0.0555556
        k(   18) = (  -0.0833711  -0.0160448   0.0000000), wk =   0.1111111
        k(   19) = (  -0.0833711   0.0160448   0.0000000), wk =   0.1111111
        k(   20) = (  -0.0833711  -0.1444030   0.0000000), wk =   0.0555556

     Largest allocated arrays     est. size (Mb)     dimensions
     Largest temporary arrays     est. size (Mb)     dimensions

     Initial potential from superposition of free atoms
     Check: negative starting charge=   -0.578120

     starting charge  146.99949, renormalised to  153.00000

     negative rho (up, down):  6.017E-01 0.000E+00

     *
     * You are using vdW-DF for exchange-correlation in this calculation.
     * Please cite the following three references that made this development
     * possible:
     *
     *   M. Dion, H. Rydberg, E. Schroder, D. C. Langreth, and
     *   B. I. Lundqvist, Phys. Rev. Lett. 92, 246401 (2004).
     *
     *   T. Thonhauser, V. R. Cooper, S. Li, A. Puzder, P. Hyldgaard, and
     *   D. C. Langreth, Phys. Rev. B 76, 125112 (2007).
     *
     *   G. Roman-Perez and J. M. Soler, Phys. Rev. Lett. 103, 096102 (2009).
     *
     *
     * If you are using vdW-DF2, please also cite:
     *
     *   K. Lee, E. D. Murray, L. Kong, B. I. Lundqvist, and
     *   D. C. Langreth, Phys. Rev. B 82, 081101(R) (2010).
     *
     *
     * If you are calculating the stress with vdW-DF, please also cite:
     *
     *   R. Sabatini, E. Kucukbenli, B. Kolb, T. Thonhauser, and
     *   S. de Gironcoli, J. Phys.: Condens. Matter 24, 424209 (2012).
     *

     Carrying out vdW-DF run using the following parameters:

     Nqs =      20    Nr_points =    1024   r_max =   100.000
     q_mesh =
               0.00001000     0.04494208     0.09755937     0.15916263
               0.23128650     0.31572767     0.41458969     0.53033537
               0.66584808     0.82450364     1.01025438     1.22772762
               1.48234092     1.78043706     2.12944203     2.53805004
               3.01644009     3.57652955     4.23227104     5.00000000

     Gradients computed in reciprocal space

     Adding external electric field

     Computed dipole along edir(3) :
        Dipole               -0.0000 Ry au,         -0.0000 Debye
        Dipole field         -0.0000 Ry au

        Potential amp.        0.0000 Ry
        Total length         45.8719 bohr

     Starting wfc are  120 randomized atomic wfcs

     Self-consistent Calculation

     iteration #  1     ecut=    36.75 Ry     beta=0.10
     Davidson diagonalization with overlap
     ethr =  1.00E-02,  avg # of iterations =  8.7

     Threshold (ethr) on eigenvalues was too large:
     Diagonalizing with lowered threshold

     Davidson diagonalization with overlap
     ethr =  9.85E-04,  avg # of iterations =  2.1

[...]

     total energy              =   -1620.83234621 Ry
     Harris-Foulkes estimate   =   -1621.05969694 Ry
     estimated scf accuracy    <       1.47940060 Ry

[...]

     End of self-consistent calculation

          k = 0.0000 0.0000 0.0000 ( 19543 PWs)   bands (ev):

   -79.0375 -78.9977 -78.9975 -40.7719 -40.7608 -40.7608 -40.7572 -40.7566
   -40.6690 -40.6690 -40.6688 -40.6688  -8.9303  -8.7433  -8.7060  -8.7060
    -8.5887  -8.5789  -8.5643  -8.4437  -8.4437  -8.3480  -8.3480  -8.2953
    -8.2953  -8.1846  -8.1082  -8.1082  -8.0792  -8.0062  -7.9067  -7.8816
    -7.8816  -7.8563  -7.8129  -7.8129  -7.7623  -7.7622  -7.5711  -7.5711
    -7.5183  -7.5183  -7.4675  -7.4675  -7.4662  -7.4472  -7.4472  -7.4180
    -7.4180  -7.3936  -7.2608  -7.2608  -7.1867  -7.1719  -7.1378  -7.1378
    -6.9405  -6.9365  -5.5044  -2.9994  -1.6980  -1.6980  -1.4400  -1.2847
    -1.2847  -0.9348  -0.7513  -0.7513  -0.1195  -0.1195  -0.0703   0.4823
     0.6874   0.6874   0.7398   0.9125   0.9125   1.0356   1.0356   1.6639
     1.7567   1.7567   1.9172   1.9872   1.9872   3.1311   4.1220   4.1901
     4.1901   4.3380   4.3380   4.3935   4.7474   4.7965   5.0726   5.0726
     5.3913   6.3075   6.5297   7.4349   7.4489   7.4489   7.5825   8.0513
     8.0513   8.1332

[...]

          k =-0.0834-0.0481 0.0000 ( 19724 PWs)   bands (ev):

[...]

     the Fermi energy is     0.8548 ev

!    total energy              =   -1620.60775872 Ry
     Harris-Foulkes estimate   =   -1620.60776742 Ry
     estimated scf accuracy    <       0.00000063 Ry

     The total energy is the sum of the following terms:

     one-electron contribution =  -10860.29903771 Ry
     hartree contribution      =    5496.26240970 Ry
     xc contribution           =    -529.46466377 Ry
     ewald contribution        =    4272.96373111 Ry
     electric field correction =       0.00000000 Ry
     smearing contrib. (-TS)   =      -0.07019806 Ry

     convergence has been achieved in  15 iterations

 BEEF-vdW xc energy contributions
           1 :   -465.912212169938
           2 :    428.430585811516
           3 :   -363.935099282365
           4 :    288.879741934028
           5 :   -219.272230188864
           6 :    165.346635718853
           7 :   -129.447173919244
           8 :    107.511992523025
[...]
     /afs/slac.stanford.edu/u/if/mamunm/psp/gbrv1.5pbe/Cd.UPF
     MD5 check sum: 17164a7926edb8e0dc231208abae86a6
     Pseudo is Ultrasoft + core correction, Zval = 12.0
     Generated by new atomic code, or converted to UPF format
     Using radial grid of  889 points,  6 beta functions with:
                l(1) =   0
                l(2) =   0
                l(3) =   1
                l(4) =   1
                l(5) =   2
                l(6) =   2
     Q(r) pseudized with  6 coefficients,  rinner =    1.000   1.000   1.000
                                                       1.000   1.000

     PseudoPot. # 2 for Re read from file:
     /afs/slac.stanford.edu/u/if/mamunm/psp/gbrv1.5pbe/Re.UPF
     MD5 check sum: 85f993410f3e006da9d71c142b4ad953
     Pseudo is Ultrasoft + core correction, Zval = 15.0
     Generated by new atomic code, or converted to UPF format
     Using radial grid of  981 points,  8 beta functions with:
                l(1) =   0
                l(2) =   0
                l(3) =   1
                l(4) =   1
                l(5) =   2
                l(6) =   2
                l(7) =   3
                l(8) =   3
     Q(r) pseudized with  8 coefficients,  rinner =    1.150   1.150   1.150
                                                       1.150   1.150   1.150
                                                       1.150

     vdW kernel table read from file vdW_kernel_table
     MD5 check sum: 095c7af220d748ca6e76c0b4c6cfb241

     atomic species   valence    mass     pseudopotential
        Cd1           12.00   112.41400     Cd( 1.00)
        Re1           15.00   186.20700     Re( 1.00)

     No symmetry found

   Cartesian axes

     site n.     atom                  positions (alat units)
         1           Cd1 tau(   1) = (   0.0000000   0.0000000  10.0000000  )
         2           Cd1 tau(   2) = (  -1.4993204   2.5968991  10.0000000  )
         3           Cd1 tau(   3) = (   1.4993204   2.5968991  10.0000000  )
         4           Re1 tau(   4) = (   2.9986407   0.0000000  10.0000000  )
         5           Cd1 tau(   5) = (   2.9986407   1.7312660  12.4483799  )
         6           Cd1 tau(   6) = (   1.4993204   4.3281651  12.4483799  )
         7           Cd1 tau(   7) = (  -1.4993204   4.3281651  12.4483799  )
         8           Re1 tau(   8) = (   0.0000000   1.7312660  12.4483799  )
         9           Cd1 tau(   9) = (   0.0000328   3.4561109  15.1040565  )
        10           Cd1 tau(  10) = (   1.4938251   0.8689300  15.1040758  )
        11           Cd1 tau(  11) = (   4.5035413   0.8688952  15.1040013  )
        12           Re1 tau(  12) = (   2.9986468   3.4625570  14.6608742  )

     number of k points=    20  Fermi-Dirac smearing, width (Ry)=  0.0110
                       cart. coord. in units 2pi/alat
        k(    1) = (   0.0000000   0.0000000   0.0000000), wk =   0.0555556
        k(    2) = (   0.0000000   0.0320896   0.0000000), wk =   0.1111111
        k(    3) = (   0.0000000   0.0641791   0.0000000), wk =   0.1111111
        k(    4) = (   0.0000000  -0.0962687   0.0000000), wk =   0.0555556
        k(    5) = (   0.0277904   0.0160448   0.0000000), wk =   0.1111111
        k(    6) = (   0.0277904   0.0481343   0.0000000), wk =   0.1111111
        k(    7) = (   0.0277904   0.0802239   0.0000000), wk =   0.1111111
        k(    8) = (   0.0277904  -0.0802239   0.0000000), wk =   0.1111111
        k(    9) = (   0.0277904  -0.0481343   0.0000000), wk =   0.1111111
        k(   10) = (   0.0277904  -0.0160448   0.0000000), wk =   0.1111111
        k(   11) = (   0.0555807   0.0320896   0.0000000), wk =   0.1111111
        k(   12) = (   0.0555807   0.0641791   0.0000000), wk =   0.1111111
        k(   13) = (   0.0555807   0.0962687   0.0000000), wk =   0.1111111
        k(   14) = (   0.0555807  -0.0641791   0.0000000), wk =   0.1111111
        k(   15) = (   0.0555807  -0.0320896   0.0000000), wk =   0.1111111
        k(   16) = (   0.0555807   0.0000000   0.0000000), wk =   0.1111111
        k(   17) = (  -0.0833711  -0.0481343   0.0000000), wk =   0.0555556
        k(   18) = (  -0.0833711  -0.0160448   0.0000000), wk =   0.1111111
        k(   19) = (  -0.0833711   0.0160448   0.0000000), wk =   0.1111111
        k(   20) = (  -0.0833711  -0.1444030   0.0000000), wk =   0.0555556

     Largest allocated arrays     est. size (Mb)     dimensions
     Largest temporary arrays     est. size (Mb)     dimensions

     Initial potential from superposition of free atoms
     Check: negative starting charge=   -0.579646

     starting charge  146.99949, renormalised to  153.00000

[...]

     *
     * You are using vdW-DF for exchange-correlation in this calculation.
     * Please cite the following three references that made this development
     * possible:
     *
     *   M. Dion, H. Rydberg, E. Schroder, D. C. Langreth, and
     *   B. I. Lundqvist, Phys. Rev. Lett. 92, 246401 (2004).
     *
     *   T. Thonhauser, V. R. Cooper, S. Li, A. Puzder, P. Hyldgaard, and
     *   D. C. Langreth, Phys. Rev. B 76, 125112 (2007).
     *
     *   G. Roman-Perez and J. M. Soler, Phys. Rev. Lett. 103, 096102 (2009).
     *
     *
     * If you are using vdW-DF2, please also cite:
     *
     *   K. Lee, E. D. Murray, L. Kong, B. I. Lundqvist, and
     *   D. C. Langreth, Phys. Rev. B 82, 081101(R) (2010).
     *
     *
     * If you are calculating the stress with vdW-DF, please also cite:
     *
     *   R. Sabatini, E. Kucukbenli, B. Kolb, T. Thonhauser, and
     *   S. de Gironcoli, J. Phys.: Condens. Matter 24, 424209 (2012).
     *

     Carrying out vdW-DF run using the following parameters:

     Nqs =      20    Nr_points =    1024   r_max =   100.000
     q_mesh =
               0.00001000     0.04494208     0.09755937     0.15916263
               0.23128650     0.31572767     0.41458969     0.53033537
               0.66584808     0.82450364     1.01025438     1.22772762
               1.48234092     1.78043706     2.12944203     2.53805004
               3.01644009     3.57652955     4.23227104     5.00000000

     Gradients computed in reciprocal space

[...]

     Starting wfc are  120 randomized atomic wfcs

     Self-consistent Calculation

[...]

     total energy              =   -1620.65252752 Ry
     Harris-Foulkes estimate   =   -1620.65252986 Ry
     estimated scf accuracy    <       0.00000102 Ry

     iteration # 16     ecut=    36.75 Ry     beta=0.10
     Davidson diagonalization with overlap
     ethr =  6.70E-10,  avg # of iterations =  2.9

[...]

     negative rho (up, down):  5.739E-01 0.000E+00

     Adding external electric field

     Computed dipole along edir(3) :
        Dipole                0.0143 Ry au,          0.0364 Debye
        Dipole field          0.0000 Ry au

        Potential amp.       -0.0032 Ry
        Total length         45.8719 bohr

     End of self-consistent calculation

[...]

          k = 0.0556 0.0000 0.0000 ( 19681 PWs)   bands (ev):

[...]

          k =-0.0834-0.1444 0.0000 ( 19724 PWs)   bands (ev):

   -79.0264 -78.9724 -78.9432 -40.7471 -40.7466 -40.7400 -40.7238 -40.7029
   -40.6470 -40.6467 -40.6151 -40.6147  -8.4983  -8.3869  -8.3428  -8.2754
    -8.2085  -8.1651  -8.1431  -8.0978  -8.0891  -8.0759  -8.0332  -8.0329
    -8.0028  -7.9074  -7.8842  -7.8545  -7.8115  -7.7634  -7.7467  -7.7210
    -7.6981  -7.6969  -7.6828  -7.6456  -7.6346  -7.6103  -7.6095  -7.5755
    -7.5666  -7.5403  -7.5207  -7.5167  -7.5061  -7.4916  -7.4853  -7.4684
    -7.4622  -7.4060  -7.3829  -7.3086  -7.2724  -7.2694  -7.1773  -7.0657
    -7.0017  -5.5781  -5.4142  -4.0532  -3.6298  -2.9216  -1.9987  -1.7726
    -1.6286  -1.1520  -1.0562  -0.3645  -0.3363  -0.0048   0.0504   0.0949
     0.1052   0.3121   0.5627   0.5885   0.9129   1.1577   1.3624   1.6413
     2.0581   2.2483   2.8941   3.0742   3.2921   3.3348   5.0856   5.1372
     5.2838   5.3827   5.4936   5.7709   5.7778   5.9937   6.0813   6.1642
     6.6283   6.6797   6.8016   6.9292   7.0203   7.4833   7.4879   7.5862
     7.6748   7.7060

     the Fermi energy is     0.8979 ev

!    total energy              =   -1620.65251899 Ry
     Harris-Foulkes estimate   =   -1620.65252773 Ry
     estimated scf accuracy    <       0.00000021 Ry

     The total energy is the sum of the following terms:

     one-electron contribution =  -10733.04432617 Ry
     hartree contribution      =    5433.16189977 Ry
     xc contribution           =    -529.40688321 Ry
     ewald contribution        =    4208.69930570 Ry
     electric field correction =       0.00000049 Ry
     smearing contrib. (-TS)   =      -0.06251557 Ry

     convergence has been achieved in  16 iterations

 BEEF-vdW xc energy contributions
           1 :   -466.089136234661
           2 :    428.557317809809
           3 :   -364.009031203806
           4 :    288.952158803112
           5 :   -219.407007387087
           6 :    165.566936595630
           7 :   -129.714457843894
           8 :    107.753329766178
           9 :   -93.0008560090706
          10 :    80.0379461013553
          11 :   -66.7941999846291
          12 :    54.2830880260382
          13 :   -44.7325934171013
          14 :    39.5375913402548
          15 :   -38.2356519125707
          16 :    38.8636696842415
          17 :   -39.1890730568259
          18 :    37.9120005380648
          19 :   -35.1371302532831
          20 :    31.9713974327622
          21 :   -29.6371859228993
          22 :    28.6985912651193
          23 :   -28.8257929164030
          24 :    29.1372955688790
          25 :   -28.8219765030860
          26 :    27.6287530487855
          27 :   -25.9508590919989
          28 :    24.5060530906343
          29 :   -23.8540153531894
          30 :    24.0603248274330
          31 :   -40.9095019808441
          32 :   -29.9863893938949

     Forces acting on atoms (Ry/au):

     negative rho (up, down):  5.739E-01 0.000E+00
     atom    1 type  1   force =     0.00000065    0.00536275   -0.02747273
     atom    2 type  1   force =     0.00464218   -0.00268176   -0.02747082
     atom    3 type  1   force =    -0.00464582   -0.00268133   -0.02747408
     atom    4 type  2   force =    -0.00000155    0.00000129    0.07409816
     atom    5 type  1   force =     0.00000067   -0.01725028   -0.00137398
     atom    6 type  1   force =    -0.01493921    0.00862282   -0.00137596
     atom    7 type  1   force =     0.01494201    0.00862785   -0.00137102
     atom    8 type  2   force =    -0.00000020   -0.00000132    0.01178100
     atom    9 type  1   force =    -0.00000300    0.00011275    0.00058158
     atom   10 type  1   force =     0.00008683   -0.00005956    0.00057688
     atom   11 type  1   force =    -0.00008544   -0.00005526    0.00058179
     atom   12 type  2   force =     0.00000287    0.00000207   -0.00108081

     Total force =     0.094236     Total SCF correction =     0.001456

     entering subroutine stress ...

     negative rho (up, down):  5.739E-01 0.000E+00
          total   stress  (Ry/bohr**3)                   (kbar)     P=  -12.89
  -0.00012226  -0.00000000  -0.00000000        -17.98     -0.00     -0.00
  -0.00000000  -0.00012226  -0.00000000         -0.00    -17.98     -0.00
  -0.00000000  -0.00000000  -0.00001830         -0.00     -0.00     -2.69

 !ASE

     Writing output data file calc.save

     General routines

     Parallel routines

   This run was terminated on:   1:11:37  20Dec2018

   JOB DONE.
Job  /afs/slac/g/suncat/bin/suncat-tsmpirun -x LD_LIBRARY_PATH -wdir /scratch/qe773462_mRizZ pw.x -in pw.inp

TID   HOST_NAME   COMMAND_LINE            STATUS            TERMINATION_TIME
00000 suncat0077 pw.x -in pw.inp   Done                     12/20/2018 01:11:37
00001 suncat0077 pw.x -in pw.inp   Done                     12/20/2018 01:11:37
00002 suncat0077 pw.x -in pw.inp   Done                     12/20/2018 01:11:37
00003 suncat0077 pw.x -in pw.inp   Done                     12/20/2018 01:11:37
00004 suncat0077 pw.x -in pw.inp   Done                     12/20/2018 01:11:37
00005 suncat0077 pw.x -in pw.inp   Done                     12/20/2018 01:11:37
00006 suncat0077 pw.x -in pw.inp   Done                     12/20/2018 01:11:37
00007 suncat0077 pw.x -in pw.inp   Done                     12/20/2018 01:11:37
00008 suncat0076 pw.x -in pw.inp   Done                     12/20/2018 01:11:37
00009 suncat0076 pw.x -in pw.inp   Done                     12/20/2018 01:11:37
00010 suncat0076 pw.x -in pw.inp   Done                     12/20/2018 01:11:37
00011 suncat0076 pw.x -in pw.inp   Done                     12/20/2018 01:11:37
00012 suncat0076 pw.x -in pw.inp   Done                     12/20/2018 01:11:37
00013 suncat0076 pw.x -in pw.inp   Done                     12/20/2018 01:11:37
00014 suncat0076 pw.x -in pw.inp   Done                     12/20/2018 01:11:37
00015 suncat0076 pw.x -in pw.inp   Done                     12/20/2018 01:11:37
00016 suncat0075 pw.x -in pw.inp   Done                     12/20/2018 01:11:37
00017 suncat0075 pw.x -in pw.inp   Done                     12/20/2018 01:11:37
00018 suncat0075 pw.x -in pw.inp   Done                     12/20/2018 01:11:37
00019 suncat0075 pw.x -in pw.inp   Done                     12/20/2018 01:11:37
00020 suncat0075 pw.x -in pw.inp   Done                     12/20/2018 01:11:37
00021 suncat0075 pw.x -in pw.inp   Done                     12/20/2018 01:11:37
00022 suncat0075 pw.x -in pw.inp   Done                     12/20/2018 01:11:37
00023 suncat0075 pw.x -in pw.inp   Done                     12/20/2018 01:11:37
00024 suncat0074 pw.x -in pw.inp   Done                     12/20/2018 01:11:37
00025 suncat0074 pw.x -in pw.inp   Done                     12/20/2018 01:11:37
00026 suncat0074 pw.x -in pw.inp   Done                     12/20/2018 01:11:37
00027 suncat0074 pw.x -in pw.inp   Done                     12/20/2018 01:11:37
00028 suncat0074 pw.x -in pw.inp   Done                     12/20/2018 01:11:37
00029 suncat0074 pw.x -in pw.inp   Done                     12/20/2018 01:11:37
00030 suncat0074 pw.x -in pw.inp   Done                     12/20/2018 01:11:37
00031 suncat0074 pw.x -in pw.inp   Done                     12/20/2018 01:11:37
00032 suncat0137 pw.x -in pw.inp   Done                     12/20/2018 01:11:37
00033 suncat0137 pw.x -in pw.inp   Done                     12/20/2018 01:11:37
00034 suncat0137 pw.x -in pw.inp   Done                     12/20/2018 01:11:37
00035 suncat0137 pw.x -in pw.inp   Done                     12/20/2018 01:11:37
00036 suncat0137 pw.x -in pw.inp   Done                     12/20/2018 01:11:37
00037 suncat0137 pw.x -in pw.inp   Done                     12/20/2018 01:11:37
00038 suncat0137 pw.x -in pw.inp   Done                     12/20/2018 01:11:37
00039 suncat0137 pw.x -in pw.inp   Done                     12/20/2018 01:11:37
00040 suncat0136 pw.x -in pw.inp   Done                     12/20/2018 01:11:37
00041 suncat0136 pw.x -in pw.inp   Done                     12/20/2018 01:11:37
00042 suncat0136 pw.x -in pw.inp   Done                     12/20/2018 01:11:37
00043 suncat0136 pw.x -in pw.inp   Done                     12/20/2018 01:11:37
00044 suncat0136 pw.x -in pw.inp   Done                     12/20/2018 01:11:37
00045 suncat0136 pw.x -in pw.inp   Done                     12/20/2018 01:11:37
00046 suncat0136 pw.x -in pw.inp   Done                     12/20/2018 01:11:37
00047 suncat0136 pw.x -in pw.inp   Done                     12/20/2018 01:11:37
00048 suncat0135 pw.x -in pw.inp   Done                     12/20/2018 01:11:37
00049 suncat0135 pw.x -in pw.inp   Done                     12/20/2018 01:11:37
00050 suncat0135 pw.x -in pw.inp   Done                     12/20/2018 01:11:37
00051 suncat0135 pw.x -in pw.inp   Done                     12/20/2018 01:11:37
00052 suncat0135 pw.x -in pw.inp   Done                     12/20/2018 01:11:37
00053 suncat0135 pw.x -in pw.inp   Done                     12/20/2018 01:11:37
00054 suncat0135 pw.x -in pw.inp   Done                     12/20/2018 01:11:37
00055 suncat0135 pw.x -in pw.inp   Done                     12/20/2018 01:11:37
00056 suncat0134 pw.x -in pw.inp   Done                     12/20/2018 01:11:37
00057 suncat0134 pw.x -in pw.inp   Done                     12/20/2018 01:11:37
00058 suncat0134 pw.x -in pw.inp   Done                     12/20/2018 01:11:37
00059 suncat0134 pw.x -in pw.inp   Done                     12/20/2018 01:11:37
00060 suncat0134 pw.x -in pw.inp   Done                     12/20/2018 01:11:37
00061 suncat0134 pw.x -in pw.inp   Done                     12/20/2018 01:11:37
00062 suncat0134 pw.x -in pw.inp   Done                     12/20/2018 01:11:37
00063 suncat0134 pw.x -in pw.inp   Done                     12/20/2018 01:11:37