     Program PWSCF v.5.1rc2 (svn rev. 11289) starts on 19Dec2018 at 17: 6:28

     Current dimensions of program PWSCF are:
     Max number of different atomic species (ntypx) = 10
     Max number of k-points (npk) =  40000
     Max angular momentum in pseudopotentials (lmaxx) =  3
     Presently stress not available with electric field

     IMPORTANT: XC functional enforced from input :
     Exchange-correlation      = BEEF-VDW ( 1  4 27 13 2)
     Any further DFT definition will be discarded
     Please, verify this is what you really want

     Subspace diagonalization in iterative solution of the eigenvalue problem:
     a serial algorithm will be used

     bravais-lattice index     =            0
     lattice parameter (alat)  =       1.8897  a.u.
     unit-cell volume          =    4425.0634 (a.u.)^3
     number of atoms/cell      =           12
     number of atomic types    =            2
     number of electrons       =        84.00
     number of Kohn-Sham states=           72
     kinetic-energy cutoff     =      36.7493  Ry
     charge density cutoff     =     367.4932  Ry
     convergence threshold     =      1.0E-06
     mixing beta               =       0.1000
     number of iterations used =           10  plain     mixing
     Exchange-correlation      = BEEF-VDW ( 1  4 27 13 2)
     nstep                     =           50

     celldm(1)=   1.889726  celldm(2)=   0.000000  celldm(3)=   0.000000
     celldm(4)=   0.000000  celldm(5)=   0.000000  celldm(6)=   0.000000

     crystal axes: (cart. coord. in units of alat)
               a(1) = (   5.555157   0.000000   0.000000 )
               a(2) = (  -2.777578   4.810907   0.000000 )
               a(3) = (   0.000000   0.000000  24.535766 )

     reciprocal axes: (cart. coord. in units 2 pi/alat)
               b(1) = (  0.180013  0.103931  0.000000 )
               b(2) = (  0.000000  0.207861  0.000000 )
               b(3) = (  0.000000  0.000000  0.040757 )

     PseudoPot. # 1 for Al read from file:
     /afs/slac.stanford.edu/u/if/mamunm/psp/gbrv1.5pbe/Al.UPF
     MD5 check sum: 0a6289f5291fc8f409219462bc851e1f
     Pseudo is Ultrasoft + core correction, Zval =  3.0
     Generated by new atomic code, or converted to UPF format
     Using radial grid of  893 points,  3 beta functions with:
                l(1) =   0
                l(2) =   1
                l(3) =   2
     Q(r) pseudized with  8 coefficients,  rinner =    0.900   0.900   0.900
                                                       0.900   0.900

     PseudoPot. # 2 for Cu read from file:
     /afs/slac.stanford.edu/u/if/mamunm/psp/gbrv1.5pbe/Cu.UPF
     MD5 check sum: 6e991ff952a84172a2a52a1c1e996048
     Pseudo is Ultrasoft + core correction, Zval = 19.0
     Generated by new atomic code, or converted to UPF format
     Using radial grid of  867 points,  6 beta functions with:
                l(1) =   0
                l(2) =   0
                l(3) =   1
                l(4) =   1
                l(5) =   2
                l(6) =   2
     Q(r) pseudized with  8 coefficients,  rinner =    1.150   1.150   1.150
                                                       1.150   1.150

     vdW kernel table read from file vdW_kernel_table
     MD5 check sum: 095c7af220d748ca6e76c0b4c6cfb241

     atomic species   valence    mass     pseudopotential
        Al1            3.00    26.98154     Al( 1.00)
        Cu1           19.00    63.54600     Cu( 1.00)

     No symmetry found

   Cartesian axes

     site n.     atom                  positions (alat units)
         1           Al1 tau(   1) = (   0.0000000   0.0000000  10.0000000  )
         2           Al1 tau(   2) = (  -1.3887892   2.4054534  10.0000000  )
         3           Al1 tau(   3) = (   1.3887892   2.4054534  10.0000000  )
         4           Cu1 tau(   4) = (   2.7775784   0.0000000  10.0000000  )
         5           Al1 tau(   5) = (   2.7775784   1.6036356  12.2678832  )
         6           Al1 tau(   6) = (   1.3887892   4.0090890  12.2678832  )
         7           Al1 tau(   7) = (  -1.3887892   4.0090890  12.2678832  )
         8           Cu1 tau(   8) = (   0.0000000   1.6036356  12.2678832  )
         9           Al1 tau(   9) = (  -0.0000000   3.2072712  14.5357665  )
        10           Al1 tau(  10) = (   1.3887892   0.8018178  14.5357665  )
        11           Al1 tau(  11) = (   4.1663675   0.8018178  14.5357665  )
        12           Cu1 tau(  12) = (   2.7775784   3.2072712  14.5357665  )

     number of k points=    20  Fermi-Dirac smearing, width (Ry)=  0.0110
                       cart. coord. in units 2pi/alat
        k(    1) = (   0.0000000   0.0000000   0.0000000), wk =   0.0555556
        k(    2) = (   0.0000000   0.0346435   0.0000000), wk =   0.1111111
        k(    3) = (   0.0000000   0.0692870   0.0000000), wk =   0.1111111
        k(    4) = (   0.0000000  -0.1039305   0.0000000), wk =   0.0555556
        k(    5) = (   0.0300022   0.0173218   0.0000000), wk =   0.1111111
        k(    6) = (   0.0300022   0.0519653   0.0000000), wk =   0.1111111
        k(    7) = (   0.0300022   0.0866088   0.0000000), wk =   0.1111111
        k(    8) = (   0.0300022  -0.0866088   0.0000000), wk =   0.1111111
        k(    9) = (   0.0300022  -0.0519653   0.0000000), wk =   0.1111111
        k(   10) = (   0.0300022  -0.0173218   0.0000000), wk =   0.1111111
        k(   11) = (   0.0600043   0.0346435   0.0000000), wk =   0.1111111
        k(   12) = (   0.0600043   0.0692870   0.0000000), wk =   0.1111111
        k(   13) = (   0.0600043   0.1039305   0.0000000), wk =   0.1111111
        k(   14) = (   0.0600043  -0.0692870   0.0000000), wk =   0.1111111
        k(   15) = (   0.0600043  -0.0346435   0.0000000), wk =   0.1111111
        k(   16) = (   0.0600043   0.0000000   0.0000000), wk =   0.1111111
        k(   17) = (  -0.0900065  -0.0519653   0.0000000), wk =   0.0555556
        k(   18) = (  -0.0900065  -0.0173218   0.0000000), wk =   0.1111111
        k(   19) = (  -0.0900065   0.0173218   0.0000000), wk =   0.1111111
        k(   20) = (  -0.0900065  -0.1558958   0.0000000), wk =   0.0555556

     Largest allocated arrays     est. size (Mb)     dimensions
     Largest temporary arrays     est. size (Mb)     dimensions

     Initial potential from superposition of free atoms
     Check: negative starting charge=   -0.000143

     starting charge   80.97781, renormalised to   84.00000

     negative rho (up, down):  1.480E-04 0.000E+00

     *
     * You are using vdW-DF for exchange-correlation in this calculation.
     * Please cite the following three references that made this development
     * possible:
     *
     *   M. Dion, H. Rydberg, E. Schroder, D. C. Langreth, and
     *   B. I. Lundqvist, Phys. Rev. Lett. 92, 246401 (2004).
     *
     *   T. Thonhauser, V. R. Cooper, S. Li, A. Puzder, P. Hyldgaard, and
     *   D. C. Langreth, Phys. Rev. B 76, 125112 (2007).
     *
     *   G. Roman-Perez and J. M. Soler, Phys. Rev. Lett. 103, 096102 (2009).
     *
     *
     * If you are using vdW-DF2, please also cite:
     *
     *   K. Lee, E. D. Murray, L. Kong, B. I. Lundqvist, and
     *   D. C. Langreth, Phys. Rev. B 82, 081101(R) (2010).
     *
     *
     * If you are calculating the stress with vdW-DF, please also cite:
     *
     *   R. Sabatini, E. Kucukbenli, B. Kolb, T. Thonhauser, and
     *   S. de Gironcoli, J. Phys.: Condens. Matter 24, 424209 (2012).
     *

     Carrying out vdW-DF run using the following parameters:

     Nqs =      20    Nr_points =    1024   r_max =   100.000
     q_mesh =
               0.00001000     0.04494208     0.09755937     0.15916263
               0.23128650     0.31572767     0.41458969     0.53033537
               0.66584808     0.82450364     1.01025438     1.22772762
               1.48234092     1.78043706     2.12944203     2.53805004
               3.01644009     3.57652955     4.23227104     5.00000000

     Gradients computed in reciprocal space

     Adding external electric field

     Computed dipole along edir(3) :
        Dipole               -0.0000 Ry au,         -0.0000 Debye
        Dipole field         -0.0000 Ry au

        Potential amp.        0.0000 Ry
        Total length         45.2067 bohr

     Starting wfc are   75 randomized atomic wfcs

     Self-consistent Calculation

     iteration #  1     ecut=    36.75 Ry     beta=0.10
     Davidson diagonalization with overlap
     ethr =  1.00E-02,  avg # of iterations =  7.1

[...]

     total energy              =   -1275.94699983 Ry
     Harris-Foulkes estimate   =   -1277.54272063 Ry
     estimated scf accuracy    <       8.97423228 Ry

[...]

     End of self-consistent calculation

          k = 0.0000 0.0000 0.0000 ( 16643 PWs)   bands (ev):

  -113.8452-113.5605-113.5604 -71.2313 -71.2313 -71.2290 -70.9848 -70.9848
   -70.9847 -70.9847 -70.8807 -70.8805 -10.9323  -9.1785  -6.6818  -5.5046
    -5.5046  -5.0604  -5.0174  -5.0174  -4.6892  -4.6223  -4.6223  -4.0371
    -4.0371  -3.9232  -3.9232  -3.8566  -3.6349  -3.6349  -3.6193  -3.3400
    -3.3088  -3.3088  -3.0781  -2.9873  -2.9873  -2.9428  -2.7063  -2.7063
    -1.8335  -1.4753  -1.4753   0.1154   0.1154   0.3671   0.4626   0.5547
     0.5547   0.8496   2.5375   3.0899   3.2079   3.2079   3.2264   3.2264
     3.3701   3.6111   4.0989   4.3059   5.7601   5.8242   6.3305   6.3305
     6.3862   6.7974   6.8174   6.8174   6.9430   7.5399   7.5399   7.9473

[...]

          k =-0.0900-0.0520 0.0000 ( 16668 PWs)   bands (ev):

[...]

     the Fermi energy is    -0.4316 ev

!    total energy              =   -1276.64394932 Ry
     Harris-Foulkes estimate   =   -1276.64394246 Ry
     estimated scf accuracy    <       0.00000005 Ry

     The total energy is the sum of the following terms:

     one-electron contribution =   -5093.94747346 Ry
     hartree contribution      =    2552.47658670 Ry
     xc contribution           =    -159.71971571 Ry
     ewald contribution        =    1424.57254582 Ry
     electric field correction =       0.00000000 Ry
     smearing contrib. (-TS)   =      -0.02589267 Ry

     convergence has been achieved in  16 iterations

 BEEF-vdW xc energy contributions
           1 :   -138.830178382702
           2 :    124.271915802993
           3 :   -100.363765464466
           4 :    74.5946949377108
           5 :   -53.0171688612122
           6 :    37.9882017320628
           7 :   -28.3571574826138
           8 :    21.4491668325020
           9 :   -15.2273366802663
          10 :    9.26955560802827
          11 :   -4.31735243730424
          12 :    1.16299953154362
          13 :   0.137951980992966
          14 :  -0.277939860795811
          15 :   0.168782030239925
          16 :  -0.409219900084707
          17 :    1.09362115753149
          18 :   -1.94978175569719
          19 :    2.59785665812052
          20 :   -2.76967106508539
          21 :    2.43762039219141
          22 :   -1.83837252872837
          23 :    1.36271050141733
          24 :   -1.32788125408422
          25 :    1.75212462004430
          26 :   -2.30907427087749
          27 :    2.54024018612327
          28 :   -2.19868211772740
[...]

     crystal axes: (cart. coord. in units of alat)
               a(1) = (   5.555157   0.000000   0.000000 )
               a(2) = (  -2.777578   4.810907   0.000000 )
               a(3) = (   0.000000   0.000000  24.535766 )

     reciprocal axes: (cart. coord. in units 2 pi/alat)
               b(1) = (  0.180013  0.103931  0.000000 )
               b(2) = (  0.000000  0.207861  0.000000 )
               b(3) = (  0.000000  0.000000  0.040757 )

     PseudoPot. # 1 for Al read from file:
     /afs/slac.stanford.edu/u/if/mamunm/psp/gbrv1.5pbe/Al.UPF
     MD5 check sum: 0a6289f5291fc8f409219462bc851e1f
     Pseudo is Ultrasoft + core correction, Zval =  3.0
     Generated by new atomic code, or converted to UPF format
     Using radial grid of  893 points,  3 beta functions with:
                l(1) =   0
                l(2) =   1
                l(3) =   2
     Q(r) pseudized with  8 coefficients,  rinner =    0.900   0.900   0.900
                                                       0.900   0.900

     PseudoPot. # 2 for Cu read from file:
     /afs/slac.stanford.edu/u/if/mamunm/psp/gbrv1.5pbe/Cu.UPF
     MD5 check sum: 6e991ff952a84172a2a52a1c1e996048
     Pseudo is Ultrasoft + core correction, Zval = 19.0
     Generated by new atomic code, or converted to UPF format
     Using radial grid of  867 points,  6 beta functions with:
                l(1) =   0
                l(2) =   0
                l(3) =   1
                l(4) =   1
                l(5) =   2
                l(6) =   2
     Q(r) pseudized with  8 coefficients,  rinner =    1.150   1.150   1.150
                                                       1.150   1.150

     vdW kernel table read from file vdW_kernel_table
     MD5 check sum: 095c7af220d748ca6e76c0b4c6cfb241

     atomic species   valence    mass     pseudopotential
        Al1            3.00    26.98154     Al( 1.00)
        Cu1           19.00    63.54600     Cu( 1.00)

     No symmetry found

   Cartesian axes

     site n.     atom                  positions (alat units)
         1           Al1 tau(   1) = (   0.0000000   0.0000000  10.0000000  )
         2           Al1 tau(   2) = (  -1.3887892   2.4054534  10.0000000  )
         3           Al1 tau(   3) = (   1.3887892   2.4054534  10.0000000  )
         4           Cu1 tau(   4) = (   2.7775784   0.0000000  10.0000000  )
         5           Al1 tau(   5) = (   2.7775784   1.6036356  12.2678832  )
         6           Al1 tau(   6) = (   1.3887892   4.0090890  12.2678832  )
         7           Al1 tau(   7) = (  -1.3887892   4.0090890  12.2678832  )
         8           Cu1 tau(   8) = (   0.0000000   1.6036356  12.2678832  )
         9           Al1 tau(   9) = (  -0.0000018   3.1883417  14.5990959  )
        10           Al1 tau(  10) = (   1.3723939   0.8112829  14.5990957  )
        11           Al1 tau(  11) = (   4.1827615   0.8112845  14.5990957  )
        12           Cu1 tau(  12) = (   2.7775664   3.2072765  14.4532269  )

     number of k points=    20  Fermi-Dirac smearing, width (Ry)=  0.0110
                       cart. coord. in units 2pi/alat
        k(    1) = (   0.0000000   0.0000000   0.0000000), wk =   0.0555556
        k(    2) = (   0.0000000   0.0346435   0.0000000), wk =   0.1111111
        k(    3) = (   0.0000000   0.0692870   0.0000000), wk =   0.1111111
        k(    4) = (   0.0000000  -0.1039305   0.0000000), wk =   0.0555556
        k(    5) = (   0.0300022   0.0173218   0.0000000), wk =   0.1111111
        k(    6) = (   0.0300022   0.0519653   0.0000000), wk =   0.1111111
        k(    7) = (   0.0300022   0.0866088   0.0000000), wk =   0.1111111
        k(    8) = (   0.0300022  -0.0866088   0.0000000), wk =   0.1111111
        k(    9) = (   0.0300022  -0.0519653   0.0000000), wk =   0.1111111
        k(   10) = (   0.0300022  -0.0173218   0.0000000), wk =   0.1111111
        k(   11) = (   0.0600043   0.0346435   0.0000000), wk =   0.1111111
        k(   12) = (   0.0600043   0.0692870   0.0000000), wk =   0.1111111
        k(   13) = (   0.0600043   0.1039305   0.0000000), wk =   0.1111111
        k(   14) = (   0.0600043  -0.0692870   0.0000000), wk =   0.1111111
        k(   15) = (   0.0600043  -0.0346435   0.0000000), wk =   0.1111111
        k(   16) = (   0.0600043   0.0000000   0.0000000), wk =   0.1111111
        k(   17) = (  -0.0900065  -0.0519653   0.0000000), wk =   0.0555556
        k(   18) = (  -0.0900065  -0.0173218   0.0000000), wk =   0.1111111
        k(   19) = (  -0.0900065   0.0173218   0.0000000), wk =   0.1111111
        k(   20) = (  -0.0900065  -0.1558958   0.0000000), wk =   0.0555556

     Largest allocated arrays     est. size (Mb)     dimensions
     Largest temporary arrays     est. size (Mb)     dimensions

     Initial potential from superposition of free atoms
     Check: negative starting charge=   -0.000147

     starting charge   80.97781, renormalised to   84.00000

[...]

     *
     * You are using vdW-DF for exchange-correlation in this calculation.
     * Please cite the following three references that made this development
     * possible:
     *
     *   M. Dion, H. Rydberg, E. Schroder, D. C. Langreth, and
     *   B. I. Lundqvist, Phys. Rev. Lett. 92, 246401 (2004).
     *
     *   T. Thonhauser, V. R. Cooper, S. Li, A. Puzder, P. Hyldgaard, and
     *   D. C. Langreth, Phys. Rev. B 76, 125112 (2007).
     *
     *   G. Roman-Perez and J. M. Soler, Phys. Rev. Lett. 103, 096102 (2009).
     *
     *
     * If you are using vdW-DF2, please also cite:
     *
     *   K. Lee, E. D. Murray, L. Kong, B. I. Lundqvist, and
     *   D. C. Langreth, Phys. Rev. B 82, 081101(R) (2010).
     *
     *
     * If you are calculating the stress with vdW-DF, please also cite:
     *
     *   R. Sabatini, E. Kucukbenli, B. Kolb, T. Thonhauser, and
     *   S. de Gironcoli, J. Phys.: Condens. Matter 24, 424209 (2012).
     *

     Carrying out vdW-DF run using the following parameters:

     Nqs =      20    Nr_points =    1024   r_max =   100.000
     q_mesh =
               0.00001000     0.04494208     0.09755937     0.15916263
               0.23128650     0.31572767     0.41458969     0.53033537
               0.66584808     0.82450364     1.01025438     1.22772762
               1.48234092     1.78043706     2.12944203     2.53805004
               3.01644009     3.57652955     4.23227104     5.00000000

     Gradients computed in reciprocal space

[...]

     Starting wfc are   75 randomized atomic wfcs

     Self-consistent Calculation

[...]

     total energy              =   -1276.65139549 Ry
     Harris-Foulkes estimate   =   -1276.65139449 Ry
     estimated scf accuracy    <       0.00000180 Ry

     iteration # 15     ecut=    36.75 Ry     beta=0.10
     Davidson diagonalization with overlap
     ethr =  2.15E-09,  avg # of iterations =  2.1

[...]

     negative rho (up, down):  6.369E-04 0.000E+00

     Adding external electric field

     Computed dipole along edir(3) :
        Dipole                0.0132 Ry au,          0.0336 Debye
        Dipole field          0.0000 Ry au

        Potential amp.       -0.0034 Ry
        Total length         45.2067 bohr

     End of self-consistent calculation

[...]

          k = 0.0600 0.0000 0.0000 ( 16592 PWs)   bands (ev):

[...]

          k =-0.0900-0.1559 0.0000 ( 16668 PWs)   bands (ev):

  -113.7854-113.6169-113.5276 -71.1736 -71.1736 -71.1656 -71.0326 -71.0326
   -70.9520 -70.9520 -70.9507 -70.8487  -9.4069  -9.1870  -7.6016  -7.5739
    -6.3689  -6.1918  -5.2972  -5.0474  -4.9553  -4.5976  -4.2579  -4.1835
    -4.0140  -3.9718  -3.9496  -3.8801  -3.8115  -3.7124  -3.7033  -3.5914
    -3.4607  -3.2890  -3.2324  -3.1368  -3.1113  -1.7435  -1.4184  -1.3909
    -0.9842   0.2489   0.5305   0.6549   0.7404   1.3462   1.6351   1.6423
     2.0469   2.2221   2.2951   2.4445   2.7492   3.4756   3.7392   4.0495
     4.1224   4.5606   4.6908   4.7345   4.8088   4.9431   4.9726   5.0237
     5.4903   5.5233   5.5342   5.5869   5.6750   5.9412   6.0381   7.1382

     the Fermi energy is    -0.4047 ev

!    total energy              =   -1276.65140405 Ry
     Harris-Foulkes estimate   =   -1276.65139585 Ry
     estimated scf accuracy    <       0.00000058 Ry

     The total energy is the sum of the following terms:

     one-electron contribution =   -5112.08772330 Ry
     hartree contribution      =    2561.58371801 Ry
     xc contribution           =    -159.69227876 Ry
     ewald contribution        =    1433.57068845 Ry
     electric field correction =       0.00000050 Ry
     smearing contrib. (-TS)   =      -0.02580895 Ry

     convergence has been achieved in  15 iterations

 BEEF-vdW xc energy contributions
           1 :   -138.943980697302
           2 :    124.381583702146
           3 :   -100.466219806493
           4 :    74.6876538413238
           5 :   -53.0984950192216
           6 :    38.0560818852884
           7 :   -28.4123855596501
           8 :    21.4972473240822
           9 :   -15.2770398417239
          10 :    9.32757119381253
          11 :   -4.38267170700510
          12 :    1.22665159299785
          13 :   8.548895132076950E-002
          14 :  -0.237426835472831
          15 :   0.129599862169641
          16 :  -0.356954564244745
          17 :    1.02209595171416
          18 :   -1.86659228971121
          19 :    2.51760606727825
          20 :   -2.70034571273979
          21 :    2.37242817969857
          22 :   -1.76108463217588
          23 :    1.26199776840744
          24 :   -1.20739597180673
          25 :    1.62713863299825
          26 :   -2.19270610771883
          27 :    2.43182636947435
          28 :   -2.08503276750085
          29 :    1.32667559369094
          30 :  -0.652921072023560
          31 :   -13.3372390634021
          32 :   -9.34242590876087

     Forces acting on atoms (Ry/au):

     negative rho (up, down):  6.369E-04 0.000E+00
     atom    1 type  1   force =    -0.00000003    0.00749822   -0.00799275
     atom    2 type  1   force =     0.00649321   -0.00374857   -0.00799267
     atom    3 type  1   force =    -0.00649338   -0.00374863   -0.00799270
     atom    4 type  2   force =     0.00000277   -0.00000187    0.00878838
     atom    5 type  1   force =    -0.00000001   -0.00234156    0.00502936
     atom    6 type  1   force =    -0.00202849    0.00117151    0.00502913
     atom    7 type  1   force =     0.00202810    0.00117131    0.00502935
     atom    8 type  2   force =     0.00000155   -0.00000075    0.00144047
     atom    9 type  1   force =    -0.00000033    0.00071105   -0.00018143
     atom   10 type  1   force =     0.00061542   -0.00035485   -0.00018140
     atom   11 type  1   force =    -0.00061593   -0.00035477   -0.00018146
     atom   12 type  2   force =    -0.00000288   -0.00000110   -0.00079429

     Total force =     0.023113     Total SCF correction =     0.001607

     entering subroutine stress ...

     negative rho (up, down):  6.369E-04 0.000E+00
          total   stress  (Ry/bohr**3)                   (kbar)     P=  -17.32
  -0.00017104   0.00000000   0.00000000        -25.16      0.00      0.00
   0.00000000  -0.00017104  -0.00000000          0.00    -25.16     -0.00
   0.00000000  -0.00000000  -0.00001122          0.00     -0.00     -1.65

 !ASE

     Writing output data file calc.save

     General routines

     Parallel routines

   This run was terminated on:  17:37:13  19Dec2018

   JOB DONE.
Job  /afs/slac/g/suncat/bin/suncat-tsmpirun -x LD_LIBRARY_PATH -wdir /scratch/qe773242_md3Si pw.x -in pw.inp

TID   HOST_NAME   COMMAND_LINE            STATUS            TERMINATION_TIME
00000 suncat0282 pw.x -in pw.inp   Done                     12/19/2018 17:37:13
00001 suncat0282 pw.x -in pw.inp   Done                     12/19/2018 17:37:13
00002 suncat0282 pw.x -in pw.inp   Done                     12/19/2018 17:37:13
00003 suncat0282 pw.x -in pw.inp   Done                     12/19/2018 17:37:13
00004 suncat0282 pw.x -in pw.inp   Done                     12/19/2018 17:37:13
00005 suncat0282 pw.x -in pw.inp   Done                     12/19/2018 17:37:13
00006 suncat0282 pw.x -in pw.inp   Done                     12/19/2018 17:37:13
00007 suncat0282 pw.x -in pw.inp   Done                     12/19/2018 17:37:13
00008 suncat0280 pw.x -in pw.inp   Done                     12/19/2018 17:37:13
00009 suncat0280 pw.x -in pw.inp   Done                     12/19/2018 17:37:13
00010 suncat0280 pw.x -in pw.inp   Done                     12/19/2018 17:37:13
00011 suncat0280 pw.x -in pw.inp   Done                     12/19/2018 17:37:13
00012 suncat0280 pw.x -in pw.inp   Done                     12/19/2018 17:37:13
00013 suncat0280 pw.x -in pw.inp   Done                     12/19/2018 17:37:13
00014 suncat0280 pw.x -in pw.inp   Done                     12/19/2018 17:37:13
00015 suncat0280 pw.x -in pw.inp   Done                     12/19/2018 17:37:13
00016 suncat0279 pw.x -in pw.inp   Done                     12/19/2018 17:37:13
00017 suncat0279 pw.x -in pw.inp   Done                     12/19/2018 17:37:13
00018 suncat0279 pw.x -in pw.inp   Done                     12/19/2018 17:37:13
00019 suncat0279 pw.x -in pw.inp   Done                     12/19/2018 17:37:13
00020 suncat0279 pw.x -in pw.inp   Done                     12/19/2018 17:37:13
00021 suncat0279 pw.x -in pw.inp   Done                     12/19/2018 17:37:13
00022 suncat0279 pw.x -in pw.inp   Done                     12/19/2018 17:37:13
00023 suncat0279 pw.x -in pw.inp   Done                     12/19/2018 17:37:13
00024 suncat0278 pw.x -in pw.inp   Done                     12/19/2018 17:37:13
00025 suncat0278 pw.x -in pw.inp   Done                     12/19/2018 17:37:13
00026 suncat0278 pw.x -in pw.inp   Done                     12/19/2018 17:37:13
00027 suncat0278 pw.x -in pw.inp   Done                     12/19/2018 17:37:13
00028 suncat0278 pw.x -in pw.inp   Done                     12/19/2018 17:37:13
00029 suncat0278 pw.x -in pw.inp   Done                     12/19/2018 17:37:13
00030 suncat0278 pw.x -in pw.inp   Done                     12/19/2018 17:37:13
00031 suncat0278 pw.x -in pw.inp   Done                     12/19/2018 17:37:13
00032 suncat0267 pw.x -in pw.inp   Done                     12/19/2018 17:37:13
00033 suncat0267 pw.x -in pw.inp   Done                     12/19/2018 17:37:13
00034 suncat0267 pw.x -in pw.inp   Done                     12/19/2018 17:37:13
00035 suncat0267 pw.x -in pw.inp   Done                     12/19/2018 17:37:13
00036 suncat0267 pw.x -in pw.inp   Done                     12/19/2018 17:37:13
00037 suncat0267 pw.x -in pw.inp   Done                     12/19/2018 17:37:13
00038 suncat0267 pw.x -in pw.inp   Done                     12/19/2018 17:37:13
00039 suncat0267 pw.x -in pw.inp   Done                     12/19/2018 17:37:13
00040 suncat0266 pw.x -in pw.inp   Done                     12/19/2018 17:37:13
00041 suncat0266 pw.x -in pw.inp   Done                     12/19/2018 17:37:13
00042 suncat0266 pw.x -in pw.inp   Done                     12/19/2018 17:37:13
00043 suncat0266 pw.x -in pw.inp   Done                     12/19/2018 17:37:13
00044 suncat0266 pw.x -in pw.inp   Done                     12/19/2018 17:37:13
00045 suncat0266 pw.x -in pw.inp   Done                     12/19/2018 17:37:13
00046 suncat0266 pw.x -in pw.inp   Done                     12/19/2018 17:37:13
00047 suncat0266 pw.x -in pw.inp   Done                     12/19/2018 17:37:13
00048 suncat0264 pw.x -in pw.inp   Done                     12/19/2018 17:37:13
00049 suncat0264 pw.x -in pw.inp   Done                     12/19/2018 17:37:13
00050 suncat0264 pw.x -in pw.inp   Done                     12/19/2018 17:37:13
00051 suncat0264 pw.x -in pw.inp   Done                     12/19/2018 17:37:13
00052 suncat0264 pw.x -in pw.inp   Done                     12/19/2018 17:37:13
00053 suncat0264 pw.x -in pw.inp   Done                     12/19/2018 17:37:13
00054 suncat0264 pw.x -in pw.inp   Done                     12/19/2018 17:37:13
00055 suncat0264 pw.x -in pw.inp   Done                     12/19/2018 17:37:13
00056 suncat0262 pw.x -in pw.inp   Done                     12/19/2018 17:37:13
00057 suncat0262 pw.x -in pw.inp   Done                     12/19/2018 17:37:13
00058 suncat0262 pw.x -in pw.inp   Done                     12/19/2018 17:37:13
00059 suncat0262 pw.x -in pw.inp   Done                     12/19/2018 17:37:13
00060 suncat0262 pw.x -in pw.inp   Done                     12/19/2018 17:37:13
00061 suncat0262 pw.x -in pw.inp   Done                     12/19/2018 17:37:13
00062 suncat0262 pw.x -in pw.inp   Done                     12/19/2018 17:37:13
00063 suncat0262 pw.x -in pw.inp   Done                     12/19/2018 17:37:13