     Program PWSCF v.5.1rc2 (svn rev. 11289) starts on  1Jan2019 at  2:59:58

     Current dimensions of program PWSCF are:
     Max number of different atomic species (ntypx) = 10
     Max number of k-points (npk) =  40000
     Max angular momentum in pseudopotentials (lmaxx) =  3
     Presently stress not available with electric field

     IMPORTANT: XC functional enforced from input :
     Exchange-correlation      = BEEF-VDW ( 1  4 27 13 2)
     Any further DFT definition will be discarded
     Please, verify this is what you really want

     Subspace diagonalization in iterative solution of the eigenvalue problem:
     a serial algorithm will be used

     bravais-lattice index     =            0
     lattice parameter (alat)  =       1.8897  a.u.
     unit-cell volume          =    4370.5133 (a.u.)^3
     number of atoms/cell      =           12
     number of atomic types    =            2
     number of electrons       =       183.00
     number of Kohn-Sham states=          121
     kinetic-energy cutoff     =      36.7493  Ry
     charge density cutoff     =     367.4932  Ry
     convergence threshold     =      1.0E-06
     mixing beta               =       0.1000
     number of iterations used =           10  plain     mixing
     Exchange-correlation      = BEEF-VDW ( 1  4 27 13 2)
     nstep                     =           50

     celldm(1)=   1.889726  celldm(2)=   0.000000  celldm(3)=   0.000000
     celldm(4)=   0.000000  celldm(5)=   0.000000  celldm(6)=   0.000000

     crystal axes: (cart. coord. in units of alat)
               a(1) = (   5.523702   0.000000   0.000000 )
               a(2) = (  -2.761851   4.783666   0.000000 )
               a(3) = (   0.000000   0.000000  24.510083 )

     reciprocal axes: (cart. coord. in units 2 pi/alat)
               b(1) = (  0.181038  0.104522  0.000000 )
               b(2) = (  0.000000  0.209045  0.000000 )
               b(3) = (  0.000000  0.000000  0.040800 )

     PseudoPot. # 1 for Ru read from file:
     /afs/slac.stanford.edu/u/if/mamunm/psp/gbrv1.5pbe/Ru.UPF
     MD5 check sum: 7158a806dd851261a58e6920c40ebe78
     Pseudo is Ultrasoft + core correction, Zval = 16.0
     Generated by new atomic code, or converted to UPF format
     Using radial grid of  967 points,  6 beta functions with:
                l(1) =   0
                l(2) =   0
                l(3) =   1
                l(4) =   1
                l(5) =   2
                l(6) =   2
     Q(r) pseudized with  8 coefficients,  rinner =    1.300   1.300   1.300
                                                       1.300   1.300

     PseudoPot. # 2 for Nb read from file:
     /afs/slac.stanford.edu/u/if/mamunm/psp/gbrv1.5pbe/Nb.UPF
     MD5 check sum: 573aab8a2fa660278ed4a62cd769473f
     Pseudo is Ultrasoft + core correction, Zval = 13.0
     Generated by new atomic code, or converted to UPF format
     Using radial grid of  887 points,  6 beta functions with:
                l(1) =   0
                l(2) =   0
                l(3) =   1
                l(4) =   1
                l(5) =   2
                l(6) =   2
     Q(r) pseudized with  6 coefficients,  rinner =    1.000   1.000   1.000
                                                       1.000   1.000

     vdW kernel table read from file vdW_kernel_table
     MD5 check sum: 095c7af220d748ca6e76c0b4c6cfb241

     atomic species   valence    mass     pseudopotential
        Ru1           16.00   101.07000     Ru( 1.00)
        Nb1           13.00    92.90637     Nb( 1.00)

     No symmetry found

   Cartesian axes

     site n.     atom                  positions (alat units)
         1           Ru1 tau(   1) = (   0.0000000   0.0000000  10.0000000  )
         2           Ru1 tau(   2) = (  -1.3809254   2.3918330  10.0000000  )
         3           Ru1 tau(   3) = (   1.3809254   2.3918330  10.0000000  )
         4           Nb1 tau(   4) = (   2.7618508   0.0000000  10.0000000  )
         5           Ru1 tau(   5) = (   2.7618508   1.5945553  12.2550417  )
         6           Ru1 tau(   6) = (   1.3809254   3.9863883  12.2550417  )
         7           Ru1 tau(   7) = (  -1.3809254   3.9863883  12.2550417  )
         8           Nb1 tau(   8) = (   0.0000000   1.5945553  12.2550417  )
         9           Ru1 tau(   9) = (  -0.0000000   3.1891106  14.5100835  )
        10           Ru1 tau(  10) = (   1.3809254   0.7972777  14.5100835  )
        11           Ru1 tau(  11) = (   4.1427762   0.7972777  14.5100835  )
        12           Nb1 tau(  12) = (   2.7618508   3.1891106  14.5100835  )

     number of k points=    20  Fermi-Dirac smearing, width (Ry)=  0.0110
                       cart. coord. in units 2pi/alat
        k(    1) = (   0.0000000   0.0000000   0.0000000), wk =   0.0555556
        k(    2) = (   0.0000000   0.0348408   0.0000000), wk =   0.1111111
        k(    3) = (   0.0000000   0.0696816   0.0000000), wk =   0.1111111
        k(    4) = (   0.0000000  -0.1045223   0.0000000), wk =   0.0555556
        k(    5) = (   0.0301730   0.0174204   0.0000000), wk =   0.1111111
        k(    6) = (   0.0301730   0.0522612   0.0000000), wk =   0.1111111
        k(    7) = (   0.0301730   0.0871020   0.0000000), wk =   0.1111111
        k(    8) = (   0.0301730  -0.0871020   0.0000000), wk =   0.1111111
        k(    9) = (   0.0301730  -0.0522612   0.0000000), wk =   0.1111111
        k(   10) = (   0.0301730  -0.0174204   0.0000000), wk =   0.1111111
        k(   11) = (   0.0603460   0.0348408   0.0000000), wk =   0.1111111
        k(   12) = (   0.0603460   0.0696816   0.0000000), wk =   0.1111111
        k(   13) = (   0.0603460   0.1045223   0.0000000), wk =   0.1111111
        k(   14) = (   0.0603460  -0.0696816   0.0000000), wk =   0.1111111
        k(   15) = (   0.0603460  -0.0348408   0.0000000), wk =   0.1111111
        k(   16) = (   0.0603460   0.0000000   0.0000000), wk =   0.1111111
        k(   17) = (  -0.0905190  -0.0522612   0.0000000), wk =   0.0555556
        k(   18) = (  -0.0905190  -0.0174204   0.0000000), wk =   0.1111111
        k(   19) = (  -0.0905190   0.0174204   0.0000000), wk =   0.1111111
        k(   20) = (  -0.0905190  -0.1567835   0.0000000), wk =   0.0555556

     Largest allocated arrays     est. size (Mb)     dimensions
     Largest temporary arrays     est. size (Mb)     dimensions

     Initial potential from superposition of free atoms
     Check: negative starting charge=   -0.659422

     starting charge  173.99166, renormalised to  183.00000

     negative rho (up, down):  6.936E-01 0.000E+00

     *
     * You are using vdW-DF for exchange-correlation in this calculation.
     * Please cite the following three references that made this development
     * possible:
     *
     *   M. Dion, H. Rydberg, E. Schroder, D. C. Langreth, and
     *   B. I. Lundqvist, Phys. Rev. Lett. 92, 246401 (2004).
     *
     *   T. Thonhauser, V. R. Cooper, S. Li, A. Puzder, P. Hyldgaard, and
     *   D. C. Langreth, Phys. Rev. B 76, 125112 (2007).
     *
     *   G. Roman-Perez and J. M. Soler, Phys. Rev. Lett. 103, 096102 (2009).
     *
     *
     * If you are using vdW-DF2, please also cite:
     *
     *   K. Lee, E. D. Murray, L. Kong, B. I. Lundqvist, and
     *   D. C. Langreth, Phys. Rev. B 82, 081101(R) (2010).
     *
     *
     * If you are calculating the stress with vdW-DF, please also cite:
     *
     *   R. Sabatini, E. Kucukbenli, B. Kolb, T. Thonhauser, and
     *   S. de Gironcoli, J. Phys.: Condens. Matter 24, 424209 (2012).
     *

     Carrying out vdW-DF run using the following parameters:

     Nqs =      20    Nr_points =    1024   r_max =   100.000
     q_mesh =
               0.00001000     0.04494208     0.09755937     0.15916263
               0.23128650     0.31572767     0.41458969     0.53033537
               0.66584808     0.82450364     1.01025438     1.22772762
               1.48234092     1.78043706     2.12944203     2.53805004
               3.01644009     3.57652955     4.23227104     5.00000000

     Gradients computed in reciprocal space

     Adding external electric field

     Computed dipole along edir(3) :
        Dipole               -0.0000 Ry au,         -0.0000 Debye
        Dipole field         -0.0000 Ry au

        Potential amp.        0.0000 Ry
        Total length         45.1594 bohr

     Starting wfc are  156 randomized atomic wfcs

     Self-consistent Calculation

     iteration #  1     ecut=    36.75 Ry     beta=0.10
     Davidson diagonalization with overlap
     ethr =  1.00E-02,  avg # of iterations =  6.9

[...]

     total energy              =   -2113.30274721 Ry
     Harris-Foulkes estimate   =   -2114.61488063 Ry
     estimated scf accuracy    <       8.78416215 Ry

[...]

     End of self-consistent calculation

          k = 0.0000 0.0000 0.0000 ( 16391 PWs)   bands (ev):

   -70.5386 -70.4768 -70.4768 -70.1463 -70.1442 -70.0861 -70.0861 -70.0856
   -70.0856 -53.1094 -53.1084 -52.9369 -40.7622 -40.6168 -40.6168 -40.6154
   -40.5309 -40.5309 -40.4053 -40.3777 -40.3228 -40.2138 -40.2138 -40.2014
   -40.2014 -40.1451 -40.1451 -40.1082 -40.0520 -40.0520 -40.0377 -40.0086
   -40.0086 -39.9159 -39.9058 -39.8588 -39.8588 -39.8568 -39.8568 -29.2274
   -29.2054 -29.0393 -29.0393 -29.0342 -29.0342 -28.9588 -28.9588 -28.9059
    -3.9573  -2.6739  -2.6739  -2.6160  -2.5700  -2.5453  -2.2771  -2.2771
    -2.2023  -2.0754  -2.0754  -1.9562  -1.7288  -1.7288  -1.6777  -0.6270
    -0.5879  -0.5879  -0.0279  -0.0279   0.1288   0.3537   0.4645   0.6102
     0.6361   0.6361   0.8706   0.8706   1.1553   1.1553   1.2195   1.2195
     1.3570   1.3570   2.0731   2.1173   2.2241   2.4527   2.4527   2.4575
     2.4575   2.6150   2.6150   3.2506   3.4111   3.4222   3.4222   3.4323
     3.9778   4.0534   4.0534   4.3312   4.3823   4.7294   4.7294   4.8016
     4.8267   4.9321   4.9321   5.1058   5.1058   5.4676   5.4676   5.6913
     5.6913   5.9667   5.9667   6.4651   6.6603   7.0888   7.0888   7.1298
     7.2039

[...]

          k =-0.0905-0.0523 0.0000 ( 16456 PWs)   bands (ev):

[...]

     the Fermi energy is     2.3693 ev

!    total energy              =   -2111.67516153 Ry
     Harris-Foulkes estimate   =   -2111.67516224 Ry
     estimated scf accuracy    <       0.00000090 Ry

     The total energy is the sum of the following terms:

     one-electron contribution =  -18961.13021909 Ry
     hartree contribution      =    9479.68663059 Ry
     xc contribution           =    -298.62049330 Ry
     ewald contribution        =    7668.48004296 Ry
     electric field correction =       0.00000000 Ry
     smearing contrib. (-TS)   =      -0.09112270 Ry

     convergence has been achieved in  17 iterations

 BEEF-vdW xc energy contributions
           1 :   -258.517000165169
           2 :    237.004508070398
           3 :   -199.800553545963
           4 :    156.201932903773
           5 :   -115.630288155321
           6 :    84.6803399023444
           7 :   -65.6199459811180
           8 :    56.6352509605397
           9 :   -53.4439049251038
          10 :    51.4321496718916
          11 :   -47.4335394054698
          12 :    40.5446906688060
          13 :   -31.8678625641110
[...]
     /afs/slac.stanford.edu/u/if/mamunm/psp/gbrv1.5pbe/Ru.UPF
     MD5 check sum: 7158a806dd851261a58e6920c40ebe78
     Pseudo is Ultrasoft + core correction, Zval = 16.0
     Generated by new atomic code, or converted to UPF format
     Using radial grid of  967 points,  6 beta functions with:
                l(1) =   0
                l(2) =   0
                l(3) =   1
                l(4) =   1
                l(5) =   2
                l(6) =   2
     Q(r) pseudized with  8 coefficients,  rinner =    1.300   1.300   1.300
                                                       1.300   1.300

     PseudoPot. # 2 for Nb read from file:
     /afs/slac.stanford.edu/u/if/mamunm/psp/gbrv1.5pbe/Nb.UPF
     MD5 check sum: 573aab8a2fa660278ed4a62cd769473f
     Pseudo is Ultrasoft + core correction, Zval = 13.0
     Generated by new atomic code, or converted to UPF format
     Using radial grid of  887 points,  6 beta functions with:
                l(1) =   0
                l(2) =   0
                l(3) =   1
                l(4) =   1
                l(5) =   2
                l(6) =   2
     Q(r) pseudized with  6 coefficients,  rinner =    1.000   1.000   1.000
                                                       1.000   1.000

     vdW kernel table read from file vdW_kernel_table
     MD5 check sum: 095c7af220d748ca6e76c0b4c6cfb241

     atomic species   valence    mass     pseudopotential
        Ru1           16.00   101.07000     Ru( 1.00)
        Nb1           13.00    92.90637     Nb( 1.00)

     No symmetry found

   Cartesian axes

     site n.     atom                  positions (alat units)
         1           Ru1 tau(   1) = (   0.0000000   0.0000000  10.0000000  )
         2           Ru1 tau(   2) = (  -1.3809254   2.3918330  10.0000000  )
         3           Ru1 tau(   3) = (   1.3809254   2.3918330  10.0000000  )
         4           Nb1 tau(   4) = (   2.7618508   0.0000000  10.0000000  )
         5           Ru1 tau(   5) = (   2.7618508   1.5945553  12.2550417  )
         6           Ru1 tau(   6) = (   1.3809254   3.9863883  12.2550417  )
         7           Ru1 tau(   7) = (  -1.3809254   3.9863883  12.2550417  )
         8           Nb1 tau(   8) = (   0.0000000   1.5945553  12.2550417  )
         9           Ru1 tau(   9) = (   0.0000007   3.1989998  14.4253935  )
        10           Ru1 tau(  10) = (   1.3894996   0.7923279  14.4253984  )
        11           Ru1 tau(  11) = (   4.1342138   0.7923336  14.4253915  )
        12           Nb1 tau(  12) = (   2.7618512   3.1891097  14.3593123  )

     number of k points=    20  Fermi-Dirac smearing, width (Ry)=  0.0110
                       cart. coord. in units 2pi/alat
        k(    1) = (   0.0000000   0.0000000   0.0000000), wk =   0.0555556
        k(    2) = (   0.0000000   0.0348408   0.0000000), wk =   0.1111111
        k(    3) = (   0.0000000   0.0696816   0.0000000), wk =   0.1111111
        k(    4) = (   0.0000000  -0.1045223   0.0000000), wk =   0.0555556
        k(    5) = (   0.0301730   0.0174204   0.0000000), wk =   0.1111111
        k(    6) = (   0.0301730   0.0522612   0.0000000), wk =   0.1111111
        k(    7) = (   0.0301730   0.0871020   0.0000000), wk =   0.1111111
        k(    8) = (   0.0301730  -0.0871020   0.0000000), wk =   0.1111111
        k(    9) = (   0.0301730  -0.0522612   0.0000000), wk =   0.1111111
        k(   10) = (   0.0301730  -0.0174204   0.0000000), wk =   0.1111111
        k(   11) = (   0.0603460   0.0348408   0.0000000), wk =   0.1111111
        k(   12) = (   0.0603460   0.0696816   0.0000000), wk =   0.1111111
        k(   13) = (   0.0603460   0.1045223   0.0000000), wk =   0.1111111
        k(   14) = (   0.0603460  -0.0696816   0.0000000), wk =   0.1111111
        k(   15) = (   0.0603460  -0.0348408   0.0000000), wk =   0.1111111
        k(   16) = (   0.0603460   0.0000000   0.0000000), wk =   0.1111111
        k(   17) = (  -0.0905190  -0.0522612   0.0000000), wk =   0.0555556
        k(   18) = (  -0.0905190  -0.0174204   0.0000000), wk =   0.1111111
        k(   19) = (  -0.0905190   0.0174204   0.0000000), wk =   0.1111111
        k(   20) = (  -0.0905190  -0.1567835   0.0000000), wk =   0.0555556

     Largest allocated arrays     est. size (Mb)     dimensions
     Largest temporary arrays     est. size (Mb)     dimensions

     Initial potential from superposition of free atoms
     Check: negative starting charge=   -0.661487

     starting charge  173.99166, renormalised to  183.00000

[...]

     *
     * You are using vdW-DF for exchange-correlation in this calculation.
     * Please cite the following three references that made this development
     * possible:
     *
     *   M. Dion, H. Rydberg, E. Schroder, D. C. Langreth, and
     *   B. I. Lundqvist, Phys. Rev. Lett. 92, 246401 (2004).
     *
     *   T. Thonhauser, V. R. Cooper, S. Li, A. Puzder, P. Hyldgaard, and
     *   D. C. Langreth, Phys. Rev. B 76, 125112 (2007).
     *
     *   G. Roman-Perez and J. M. Soler, Phys. Rev. Lett. 103, 096102 (2009).
     *
     *
     * If you are using vdW-DF2, please also cite:
     *
     *   K. Lee, E. D. Murray, L. Kong, B. I. Lundqvist, and
     *   D. C. Langreth, Phys. Rev. B 82, 081101(R) (2010).
     *
     *
     * If you are calculating the stress with vdW-DF, please also cite:
     *
     *   R. Sabatini, E. Kucukbenli, B. Kolb, T. Thonhauser, and
     *   S. de Gironcoli, J. Phys.: Condens. Matter 24, 424209 (2012).
     *

     Carrying out vdW-DF run using the following parameters:

     Nqs =      20    Nr_points =    1024   r_max =   100.000
     q_mesh =
               0.00001000     0.04494208     0.09755937     0.15916263
               0.23128650     0.31572767     0.41458969     0.53033537
               0.66584808     0.82450364     1.01025438     1.22772762
               1.48234092     1.78043706     2.12944203     2.53805004
               3.01644009     3.57652955     4.23227104     5.00000000

     Gradients computed in reciprocal space

[...]

     Starting wfc are  156 randomized atomic wfcs

     Self-consistent Calculation

[...]

     total energy              =   -2111.68700428 Ry
     Harris-Foulkes estimate   =   -2111.68700414 Ry
     estimated scf accuracy    <       0.00000124 Ry

     iteration # 18     ecut=    36.75 Ry     beta=0.10
     Davidson diagonalization with overlap
     ethr =  6.77E-10,  avg # of iterations =  1.2

[...]

     negative rho (up, down):  6.877E-01 0.000E+00

     Adding external electric field

     Computed dipole along edir(3) :
        Dipole                0.0269 Ry au,          0.0683 Debye
        Dipole field          0.0001 Ry au

        Potential amp.       -0.0070 Ry
        Total length         45.1594 bohr

     End of self-consistent calculation

[...]

          k = 0.0603 0.0000 0.0000 ( 16456 PWs)   bands (ev):

[...]

          k =-0.0905-0.1568 0.0000 ( 16456 PWs)   bands (ev):

   -70.5542 -70.5335 -70.5125 -70.1282 -70.1082 -70.1045 -70.0886 -70.0850
   -70.0649 -53.1438 -52.9784 -52.8899 -40.7122 -40.6407 -40.6298 -40.5866
   -40.5279 -40.5191 -40.4846 -40.4815 -40.2828 -40.2760 -40.2494 -40.1110
   -40.0874 -40.0822 -40.0665 -40.0588 -40.0548 -40.0522 -40.0363 -40.0306
   -40.0264 -40.0172 -39.9985 -39.9945 -39.9928 -39.8771 -39.8534 -29.2611
   -29.1031 -29.0880 -29.0750 -28.9711 -28.9548 -28.9516 -28.9295 -28.8631
    -2.5272  -2.4073  -1.9274  -1.8305  -1.7996  -1.7691  -1.5893  -1.4705
    -1.4438  -1.2703  -1.2274  -1.1179  -1.0309  -0.8972  -0.8030  -0.7346
    -0.4700  -0.3958  -0.3855  -0.1641   0.0338   0.0362   0.3587   0.4654
     0.5513   0.6143   0.6933   0.7422   0.7723   0.8799   0.8954   0.9230
     0.9351   0.9830   1.0730   1.1263   1.2170   1.3974   1.5473   1.6031
     1.7465   1.7682   1.9533   2.0963   2.3142   2.3277   2.5166   2.6566
     2.7719   2.8825   3.1565   3.2283   3.4947   3.6753   3.8053   3.8375
     3.9132   4.0410   4.4162   4.4522   4.5100   5.0247   5.1645   5.5480
     5.7613   6.0013   6.4875   7.2306   7.3380   7.6175   8.0528   8.0786
     8.1197

     the Fermi energy is     2.3767 ev

!    total energy              =   -2111.68700399 Ry
     Harris-Foulkes estimate   =   -2111.68700435 Ry
     estimated scf accuracy    <       0.00000077 Ry

     The total energy is the sum of the following terms:

     one-electron contribution =  -19228.40566898 Ry
     hartree contribution      =    9613.31595637 Ry
     xc contribution           =    -298.84901776 Ry
     ewald contribution        =    7802.33923083 Ry
     electric field correction =       0.00000207 Ry
     smearing contrib. (-TS)   =      -0.08750652 Ry

     convergence has been achieved in  18 iterations

 BEEF-vdW xc energy contributions
           1 :   -258.750820372819
           2 :    237.324268264421
           3 :   -200.235434914356
           4 :    156.698645588994
           5 :   -116.073366790327
           6 :    84.9492873118352
           7 :   -65.6538641112932
           8 :    56.4704691556713
           9 :   -53.2029270482334
          10 :    51.2672534123320
          11 :   -47.4527967410341
          12 :    40.7583120686692
          13 :   -32.1831028528092
          14 :    23.7648266461672
          15 :   -17.4024509194674
          16 :    13.9800918123436
          17 :   -13.1069262445172
          18 :    13.4765919348043
          19 :   -13.5927095343887
          20 :    12.4764408391609
          21 :   -10.0379362075630
          22 :    6.98278521493745
          23 :   -4.35896066674292
          24 :    2.99734842130931
          25 :   -3.12266422028489
          26 :    4.29624752551177
          27 :   -5.68299866675767
          28 :    6.47928918821333
          29 :   -6.28119790961443
          30 :    5.22066822817243
          31 :   -27.3576767325656
          32 :   -20.7625387335122

     Forces acting on atoms (Ry/au):

     negative rho (up, down):  6.877E-01 0.000E+00
     atom    1 type  1   force =    -0.00000052   -0.00306992    0.01378173
     atom    2 type  1   force =    -0.00265630    0.00153334    0.01378009
     atom    3 type  1   force =     0.00265686    0.00153387    0.01378118
     atom    4 type  2   force =    -0.00000129    0.00000103    0.03123922
     atom    5 type  1   force =     0.00000945    0.00021854   -0.02054857
     atom    6 type  1   force =     0.00017882   -0.00010515   -0.02053156
     atom    7 type  1   force =    -0.00018220   -0.00011824   -0.02054669
     atom    8 type  2   force =    -0.00000594    0.00000490   -0.00993342
     atom    9 type  1   force =    -0.00000063   -0.00003574   -0.00022905
     atom   10 type  1   force =    -0.00002724    0.00001699   -0.00022759
     atom   11 type  1   force =     0.00003038    0.00001960   -0.00022896
     atom   12 type  2   force =    -0.00000139    0.00000079   -0.00033638

     Total force =     0.054212     Total SCF correction =     0.001198

     entering subroutine stress ...

     negative rho (up, down):  6.877E-01 0.000E+00
          total   stress  (Ry/bohr**3)                   (kbar)     P=  -17.74
  -0.00014406  -0.00000000  -0.00000000        -21.19     -0.00     -0.00
  -0.00000000  -0.00014405   0.00000000         -0.00    -21.19      0.00
  -0.00000000   0.00000000  -0.00007377         -0.00      0.00    -10.85

 !ASE

     Writing output data file calc.save

     General routines

     Parallel routines

   This run was terminated on:   3:49:47   1Jan2019

   JOB DONE.
Job  /afs/slac/g/suncat/bin/suncat-tsmpirun -x LD_LIBRARY_PATH -wdir /scratch/qe648935_7cRCG pw.x -in pw.inp

TID   HOST_NAME   COMMAND_LINE            STATUS            TERMINATION_TIME
00000 suncat0056 pw.x -in pw.inp   Done                     01/01/2019 03:49:47
00001 suncat0056 pw.x -in pw.inp   Done                     01/01/2019 03:49:47
00002 suncat0056 pw.x -in pw.inp   Done                     01/01/2019 03:49:47
00003 suncat0056 pw.x -in pw.inp   Done                     01/01/2019 03:49:47
00004 suncat0056 pw.x -in pw.inp   Done                     01/01/2019 03:49:47
00005 suncat0056 pw.x -in pw.inp   Done                     01/01/2019 03:49:47
00006 suncat0056 pw.x -in pw.inp   Done                     01/01/2019 03:49:47
00007 suncat0056 pw.x -in pw.inp   Done                     01/01/2019 03:49:47
00008 suncat0052 pw.x -in pw.inp   Done                     01/01/2019 03:49:47
00009 suncat0052 pw.x -in pw.inp   Done                     01/01/2019 03:49:47
00010 suncat0052 pw.x -in pw.inp   Done                     01/01/2019 03:49:47
00011 suncat0052 pw.x -in pw.inp   Done                     01/01/2019 03:49:47
00012 suncat0052 pw.x -in pw.inp   Done                     01/01/2019 03:49:47
00013 suncat0052 pw.x -in pw.inp   Done                     01/01/2019 03:49:47
00014 suncat0052 pw.x -in pw.inp   Done                     01/01/2019 03:49:47
00015 suncat0052 pw.x -in pw.inp   Done                     01/01/2019 03:49:47
00016 suncat0048 pw.x -in pw.inp   Done                     01/01/2019 03:49:47
00017 suncat0048 pw.x -in pw.inp   Done                     01/01/2019 03:49:47
00018 suncat0048 pw.x -in pw.inp   Done                     01/01/2019 03:49:47
00019 suncat0048 pw.x -in pw.inp   Done                     01/01/2019 03:49:47
00020 suncat0048 pw.x -in pw.inp   Done                     01/01/2019 03:49:47
00021 suncat0048 pw.x -in pw.inp   Done                     01/01/2019 03:49:47
00022 suncat0048 pw.x -in pw.inp   Done                     01/01/2019 03:49:47
00023 suncat0048 pw.x -in pw.inp   Done                     01/01/2019 03:49:47
00024 suncat0047 pw.x -in pw.inp   Done                     01/01/2019 03:49:47
00025 suncat0047 pw.x -in pw.inp   Done                     01/01/2019 03:49:47
00026 suncat0047 pw.x -in pw.inp   Done                     01/01/2019 03:49:47
00027 suncat0047 pw.x -in pw.inp   Done                     01/01/2019 03:49:47
00028 suncat0047 pw.x -in pw.inp   Done                     01/01/2019 03:49:47
00029 suncat0047 pw.x -in pw.inp   Done                     01/01/2019 03:49:47
00030 suncat0047 pw.x -in pw.inp   Done                     01/01/2019 03:49:47
00031 suncat0047 pw.x -in pw.inp   Done                     01/01/2019 03:49:47
00032 suncat0041 pw.x -in pw.inp   Done                     01/01/2019 03:49:47
00033 suncat0041 pw.x -in pw.inp   Done                     01/01/2019 03:49:47
00034 suncat0041 pw.x -in pw.inp   Done                     01/01/2019 03:49:47
00035 suncat0041 pw.x -in pw.inp   Done                     01/01/2019 03:49:47
00036 suncat0041 pw.x -in pw.inp   Done                     01/01/2019 03:49:47
00037 suncat0041 pw.x -in pw.inp   Done                     01/01/2019 03:49:47
00038 suncat0041 pw.x -in pw.inp   Done                     01/01/2019 03:49:47
00039 suncat0041 pw.x -in pw.inp   Done                     01/01/2019 03:49:47
00040 suncat0039 pw.x -in pw.inp   Done                     01/01/2019 03:49:47
00041 suncat0039 pw.x -in pw.inp   Done                     01/01/2019 03:49:47
00042 suncat0039 pw.x -in pw.inp   Done                     01/01/2019 03:49:47
00043 suncat0039 pw.x -in pw.inp   Done                     01/01/2019 03:49:47
00044 suncat0039 pw.x -in pw.inp   Done                     01/01/2019 03:49:47
00045 suncat0039 pw.x -in pw.inp   Done                     01/01/2019 03:49:47
00046 suncat0039 pw.x -in pw.inp   Done                     01/01/2019 03:49:47
00047 suncat0039 pw.x -in pw.inp   Done                     01/01/2019 03:49:47
00048 suncat0207 pw.x -in pw.inp   Done                     01/01/2019 03:49:47
00049 suncat0207 pw.x -in pw.inp   Done                     01/01/2019 03:49:47
00050 suncat0207 pw.x -in pw.inp   Done                     01/01/2019 03:49:47
00051 suncat0207 pw.x -in pw.inp   Done                     01/01/2019 03:49:47
00052 suncat0207 pw.x -in pw.inp   Done                     01/01/2019 03:49:47
00053 suncat0207 pw.x -in pw.inp   Done                     01/01/2019 03:49:47
00054 suncat0207 pw.x -in pw.inp   Done                     01/01/2019 03:49:47
00055 suncat0207 pw.x -in pw.inp   Done                     01/01/2019 03:49:47
00056 suncat0206 pw.x -in pw.inp   Done                     01/01/2019 03:49:47
00057 suncat0206 pw.x -in pw.inp   Done                     01/01/2019 03:49:47
00058 suncat0206 pw.x -in pw.inp   Done                     01/01/2019 03:49:47
00059 suncat0206 pw.x -in pw.inp   Done                     01/01/2019 03:49:47
00060 suncat0206 pw.x -in pw.inp   Done                     01/01/2019 03:49:47
00061 suncat0206 pw.x -in pw.inp   Done                     01/01/2019 03:49:47
00062 suncat0206 pw.x -in pw.inp   Done                     01/01/2019 03:49:47
00063 suncat0206 pw.x -in pw.inp   Done                     01/01/2019 03:49:47