     Program PWSCF v.5.1rc2 (svn rev. 11289) starts on 19Dec2018 at 17:23:21

     Current dimensions of program PWSCF are:
     Max number of different atomic species (ntypx) = 10
     Max number of k-points (npk) =  40000
     Max angular momentum in pseudopotentials (lmaxx) =  3
     Presently stress not available with electric field

     IMPORTANT: XC functional enforced from input :
     Exchange-correlation      = BEEF-VDW ( 1  4 27 13 2)
     Any further DFT definition will be discarded
     Please, verify this is what you really want

     Subspace diagonalization in iterative solution of the eigenvalue problem:
     a serial algorithm will be used

     bravais-lattice index     =            0
     lattice parameter (alat)  =       1.8897  a.u.
     unit-cell volume          =    5183.8998 (a.u.)^3
     number of atoms/cell      =           12
     number of atomic types    =            2
     number of electrons       =        63.00
     number of Kohn-Sham states=           61
     kinetic-energy cutoff     =      36.7493  Ry
     charge density cutoff     =     367.4932  Ry
     convergence threshold     =      1.0E-06
     mixing beta               =       0.1000
     number of iterations used =           10  plain     mixing
     Exchange-correlation      = BEEF-VDW ( 1  4 27 13 2)
     nstep                     =           50

     celldm(1)=   1.889726  celldm(2)=   0.000000  celldm(3)=   0.000000
     celldm(4)=   0.000000  celldm(5)=   0.000000  celldm(6)=   0.000000

     crystal axes: (cart. coord. in units of alat)
               a(1) = (   5.971419   0.000000   0.000000 )
               a(2) = (  -2.985709   5.171400   0.000000 )
               a(3) = (   0.000000   0.000000  24.875643 )

     reciprocal axes: (cart. coord. in units 2 pi/alat)
               b(1) = (  0.167464  0.096686  0.000000 )
               b(2) = (  0.000000  0.193371  0.000000 )
               b(3) = (  0.000000  0.000000  0.040200 )

     PseudoPot. # 1 for Al read from file:
     /afs/slac.stanford.edu/u/if/mamunm/psp/gbrv1.5pbe/Al.UPF
     MD5 check sum: 0a6289f5291fc8f409219462bc851e1f
     Pseudo is Ultrasoft + core correction, Zval =  3.0
     Generated by new atomic code, or converted to UPF format
     Using radial grid of  893 points,  3 beta functions with:
                l(1) =   0
                l(2) =   1
                l(3) =   2
     Q(r) pseudized with  8 coefficients,  rinner =    0.900   0.900   0.900
                                                       0.900   0.900

     PseudoPot. # 2 for Hg read from file:
     /afs/slac.stanford.edu/u/if/mamunm/psp/gbrv1.5pbe/Hg.UPF
     MD5 check sum: 8f42caffe07f7fd9c0a564347f8c5498
     Pseudo is Ultrasoft + core correction, Zval = 12.0
     Generated by new atomic code, or converted to UPF format
     Using radial grid of  985 points,  6 beta functions with:
                l(1) =   0
                l(2) =   0
                l(3) =   1
                l(4) =   1
                l(5) =   2
                l(6) =   2
     Q(r) pseudized with  8 coefficients,  rinner =    2.000   2.000   2.000
                                                       2.000   2.000

     vdW kernel table read from file vdW_kernel_table
     MD5 check sum: 095c7af220d748ca6e76c0b4c6cfb241

     atomic species   valence    mass     pseudopotential
        Al1            3.00    26.98154     Al( 1.00)
        Hg1           12.00   200.59200     Hg( 1.00)

     No symmetry found

   Cartesian axes

     site n.     atom                  positions (alat units)
         1           Al1 tau(   1) = (   0.0000000   0.0000000  10.0000000  )
         2           Al1 tau(   2) = (  -1.4928547   2.5857002  10.0000000  )
         3           Al1 tau(   3) = (   1.4928547   2.5857002  10.0000000  )
         4           Hg1 tau(   4) = (   2.9857094   0.0000000  10.0000000  )
         5           Al1 tau(   5) = (   2.9857094   1.7238001  12.4378215  )
         6           Al1 tau(   6) = (   1.4928547   4.3095003  12.4378215  )
         7           Al1 tau(   7) = (  -1.4928547   4.3095003  12.4378215  )
         8           Hg1 tau(   8) = (   0.0000000   1.7238001  12.4378215  )
         9           Al1 tau(   9) = (  -0.0000000   3.4476002  14.8756430  )
        10           Al1 tau(  10) = (   1.4928547   0.8619001  14.8756430  )
        11           Al1 tau(  11) = (   4.4785640   0.8619001  14.8756430  )
        12           Hg1 tau(  12) = (   2.9857094   3.4476002  14.8756430  )

     number of k points=    20  Fermi-Dirac smearing, width (Ry)=  0.0110
                       cart. coord. in units 2pi/alat
        k(    1) = (   0.0000000   0.0000000   0.0000000), wk =   0.0555556
        k(    2) = (   0.0000000   0.0322285   0.0000000), wk =   0.1111111
        k(    3) = (   0.0000000   0.0644571   0.0000000), wk =   0.1111111
        k(    4) = (   0.0000000  -0.0966856   0.0000000), wk =   0.0555556
        k(    5) = (   0.0279107   0.0161143   0.0000000), wk =   0.1111111
        k(    6) = (   0.0279107   0.0483428   0.0000000), wk =   0.1111111
        k(    7) = (   0.0279107   0.0805713   0.0000000), wk =   0.1111111
        k(    8) = (   0.0279107  -0.0805713   0.0000000), wk =   0.1111111
        k(    9) = (   0.0279107  -0.0483428   0.0000000), wk =   0.1111111
        k(   10) = (   0.0279107  -0.0161143   0.0000000), wk =   0.1111111
        k(   11) = (   0.0558215   0.0322285   0.0000000), wk =   0.1111111
        k(   12) = (   0.0558215   0.0644571   0.0000000), wk =   0.1111111
        k(   13) = (   0.0558215   0.0966856   0.0000000), wk =   0.1111111
        k(   14) = (   0.0558215  -0.0644571   0.0000000), wk =   0.1111111
        k(   15) = (   0.0558215  -0.0322285   0.0000000), wk =   0.1111111
        k(   16) = (   0.0558215   0.0000000   0.0000000), wk =   0.1111111
        k(   17) = (  -0.0837322  -0.0483428   0.0000000), wk =   0.0555556
        k(   18) = (  -0.0837322  -0.0161143   0.0000000), wk =   0.1111111
        k(   19) = (  -0.0837322   0.0161143   0.0000000), wk =   0.1111111
        k(   20) = (  -0.0837322  -0.1450284   0.0000000), wk =   0.0555556

     Largest allocated arrays     est. size (Mb)     dimensions
     Largest temporary arrays     est. size (Mb)     dimensions

     Initial potential from superposition of free atoms
     Check: negative starting charge=   -0.000149

     starting charge   62.97764, renormalised to   63.00000

     negative rho (up, down):  1.492E-04 0.000E+00

     *
     * You are using vdW-DF for exchange-correlation in this calculation.
     * Please cite the following three references that made this development
     * possible:
     *
     *   M. Dion, H. Rydberg, E. Schroder, D. C. Langreth, and
     *   B. I. Lundqvist, Phys. Rev. Lett. 92, 246401 (2004).
     *
     *   T. Thonhauser, V. R. Cooper, S. Li, A. Puzder, P. Hyldgaard, and
     *   D. C. Langreth, Phys. Rev. B 76, 125112 (2007).
     *
     *   G. Roman-Perez and J. M. Soler, Phys. Rev. Lett. 103, 096102 (2009).
     *
     *
     * If you are using vdW-DF2, please also cite:
     *
     *   K. Lee, E. D. Murray, L. Kong, B. I. Lundqvist, and
     *   D. C. Langreth, Phys. Rev. B 82, 081101(R) (2010).
     *
     *
     * If you are calculating the stress with vdW-DF, please also cite:
     *
     *   R. Sabatini, E. Kucukbenli, B. Kolb, T. Thonhauser, and
     *   S. de Gironcoli, J. Phys.: Condens. Matter 24, 424209 (2012).
     *

     Carrying out vdW-DF run using the following parameters:

     Nqs =      20    Nr_points =    1024   r_max =   100.000
     q_mesh =
               0.00001000     0.04494208     0.09755937     0.15916263
               0.23128650     0.31572767     0.41458969     0.53033537
               0.66584808     0.82450364     1.01025438     1.22772762
               1.48234092     1.78043706     2.12944203     2.53805004
               3.01644009     3.57652955     4.23227104     5.00000000

     Gradients computed in reciprocal space

     Adding external electric field

     Computed dipole along edir(3) :
        Dipole               -0.0000 Ry au,         -0.0000 Debye
        Dipole field         -0.0000 Ry au

        Potential amp.        0.0000 Ry
        Total length         45.8329 bohr

     Starting wfc are   63 randomized atomic wfcs

     Self-consistent Calculation

     iteration #  1     ecut=    36.75 Ry     beta=0.10
     Davidson diagonalization with overlap
     ethr =  1.00E-02,  avg # of iterations =  7.3

     Threshold (ethr) on eigenvalues was too large:
     Diagonalizing with lowered threshold

     Davidson diagonalization with overlap
     ethr =  7.17E-04,  avg # of iterations =  2.5

[...]

     total energy              =    -388.93353758 Ry
     Harris-Foulkes estimate   =    -389.00374876 Ry
     estimated scf accuracy    <       0.46464069 Ry

[...]

     End of self-consistent calculation

          k = 0.0000 0.0000 0.0000 ( 19447 PWs)   bands (ev):

   -10.4705  -8.9975  -8.6736  -8.5961  -8.5961  -8.4382  -8.4382  -8.1481
    -8.1481  -8.0342  -8.0342  -8.0067  -7.8923  -7.8923  -7.8137  -7.8137
    -7.7458  -5.9070  -4.6338  -4.5388  -4.2321  -4.2321  -3.9768  -3.9768
    -3.3493  -3.0317  -2.9380  -2.9380  -2.8783  -2.1320  -2.1320  -0.8108
    -0.6754  -0.5528  -0.5528  -0.1576  -0.1576   0.5644   2.4461   2.6532
     2.6532   2.7297   2.7297   2.7959   2.9120   3.4113   3.9943   4.2984
     4.6596   5.2114   5.2114   5.5512   5.7485   6.0624   6.2562   6.2562
     6.2689   6.3331   6.3421   6.3421   7.1755

[...]

          k =-0.0837-0.0483 0.0000 ( 19532 PWs)   bands (ev):

[...]

     the Fermi energy is    -0.4168 ev

!    total energy              =    -388.90360174 Ry
     Harris-Foulkes estimate   =    -388.90360097 Ry
     estimated scf accuracy    <       0.00000038 Ry

     The total energy is the sum of the following terms:

     one-electron contribution =   -1878.41840164 Ry
     hartree contribution      =     965.34082893 Ry
     xc contribution           =    -160.64625064 Ry
     ewald contribution        =     684.85342645 Ry
     electric field correction =       0.00000000 Ry
     smearing contrib. (-TS)   =      -0.03320484 Ry

     convergence has been achieved in  13 iterations

 BEEF-vdW xc energy contributions
           1 :   -138.600197150110
           2 :    125.592164009919
           3 :   -103.831347667222
           4 :    79.4906447082516
           5 :   -57.7978578556339
           6 :    41.3436676984863
           7 :   -30.1400226290117
           8 :    22.8388617735225
           9 :   -17.9909957856930
          10 :    14.5848513614612
          11 :   -11.9272876043349
          12 :    9.42621179848547
          13 :   -6.67563451250496
          14 :    3.72057289988226
          15 :   -1.09235455250692
          16 :  -0.577290871313807
          17 :    1.08731154889659
          18 :  -0.869491495714783
          19 :   0.665110320044732
          20 :  -0.962462140022694
          21 :    1.68498867988325
          22 :   -2.36635767846880
          23 :    2.60265851468344
          24 :   -2.36474369418295
          25 :    1.94128783930498
          26 :   -1.64303295537007
[...]
               a(1) = (   5.971419   0.000000   0.000000 )
               a(2) = (  -2.985709   5.171400   0.000000 )
               a(3) = (   0.000000   0.000000  24.875643 )

     reciprocal axes: (cart. coord. in units 2 pi/alat)
               b(1) = (  0.167464  0.096686  0.000000 )
               b(2) = (  0.000000  0.193371  0.000000 )
               b(3) = (  0.000000  0.000000  0.040200 )

     PseudoPot. # 1 for Al read from file:
     /afs/slac.stanford.edu/u/if/mamunm/psp/gbrv1.5pbe/Al.UPF
     MD5 check sum: 0a6289f5291fc8f409219462bc851e1f
     Pseudo is Ultrasoft + core correction, Zval =  3.0
     Generated by new atomic code, or converted to UPF format
     Using radial grid of  893 points,  3 beta functions with:
                l(1) =   0
                l(2) =   1
                l(3) =   2
     Q(r) pseudized with  8 coefficients,  rinner =    0.900   0.900   0.900
                                                       0.900   0.900

     PseudoPot. # 2 for Hg read from file:
     /afs/slac.stanford.edu/u/if/mamunm/psp/gbrv1.5pbe/Hg.UPF
     MD5 check sum: 8f42caffe07f7fd9c0a564347f8c5498
     Pseudo is Ultrasoft + core correction, Zval = 12.0
     Generated by new atomic code, or converted to UPF format
     Using radial grid of  985 points,  6 beta functions with:
                l(1) =   0
                l(2) =   0
                l(3) =   1
                l(4) =   1
                l(5) =   2
                l(6) =   2
     Q(r) pseudized with  8 coefficients,  rinner =    2.000   2.000   2.000
                                                       2.000   2.000

     vdW kernel table read from file vdW_kernel_table
     MD5 check sum: 095c7af220d748ca6e76c0b4c6cfb241

     atomic species   valence    mass     pseudopotential
        Al1            3.00    26.98154     Al( 1.00)
        Hg1           12.00   200.59200     Hg( 1.00)

     No symmetry found

   Cartesian axes

     site n.     atom                  positions (alat units)
         1           Al1 tau(   1) = (   0.0000000   0.0000000  10.0000000  )
         2           Al1 tau(   2) = (  -1.4928547   2.5857002  10.0000000  )
         3           Al1 tau(   3) = (   1.4928547   2.5857002  10.0000000  )
         4           Hg1 tau(   4) = (   2.9857094   0.0000000  10.0000000  )
         5           Al1 tau(   5) = (   2.9857094   1.7238001  12.4378215  )
         6           Al1 tau(   6) = (   1.4928547   4.3095003  12.4378215  )
         7           Al1 tau(   7) = (  -1.4928547   4.3095003  12.4378215  )
         8           Hg1 tau(   8) = (   0.0000000   1.7238001  12.4378215  )
         9           Al1 tau(   9) = (   0.0000114   3.5016677  14.7920367  )
        10           Al1 tau(  10) = (   1.5396969   0.8348649  14.7920568  )
        11           Al1 tau(  11) = (   4.4317592   0.8348650  14.7920650  )
        12           Hg1 tau(  12) = (   2.9857191   3.4475945  15.3211341  )

     number of k points=    20  Fermi-Dirac smearing, width (Ry)=  0.0110
                       cart. coord. in units 2pi/alat
        k(    1) = (   0.0000000   0.0000000   0.0000000), wk =   0.0555556
        k(    2) = (   0.0000000   0.0322285   0.0000000), wk =   0.1111111
        k(    3) = (   0.0000000   0.0644571   0.0000000), wk =   0.1111111
        k(    4) = (   0.0000000  -0.0966856   0.0000000), wk =   0.0555556
        k(    5) = (   0.0279107   0.0161143   0.0000000), wk =   0.1111111
        k(    6) = (   0.0279107   0.0483428   0.0000000), wk =   0.1111111
        k(    7) = (   0.0279107   0.0805713   0.0000000), wk =   0.1111111
        k(    8) = (   0.0279107  -0.0805713   0.0000000), wk =   0.1111111
        k(    9) = (   0.0279107  -0.0483428   0.0000000), wk =   0.1111111
        k(   10) = (   0.0279107  -0.0161143   0.0000000), wk =   0.1111111
        k(   11) = (   0.0558215   0.0322285   0.0000000), wk =   0.1111111
        k(   12) = (   0.0558215   0.0644571   0.0000000), wk =   0.1111111
        k(   13) = (   0.0558215   0.0966856   0.0000000), wk =   0.1111111
        k(   14) = (   0.0558215  -0.0644571   0.0000000), wk =   0.1111111
        k(   15) = (   0.0558215  -0.0322285   0.0000000), wk =   0.1111111
        k(   16) = (   0.0558215   0.0000000   0.0000000), wk =   0.1111111
        k(   17) = (  -0.0837322  -0.0483428   0.0000000), wk =   0.0555556
        k(   18) = (  -0.0837322  -0.0161143   0.0000000), wk =   0.1111111
        k(   19) = (  -0.0837322   0.0161143   0.0000000), wk =   0.1111111
        k(   20) = (  -0.0837322  -0.1450284   0.0000000), wk =   0.0555556

     Largest allocated arrays     est. size (Mb)     dimensions
     Largest temporary arrays     est. size (Mb)     dimensions

     Initial potential from superposition of free atoms
     Check: negative starting charge=   -0.000147

     starting charge   62.97764, renormalised to   63.00000

[...]

     *
     * You are using vdW-DF for exchange-correlation in this calculation.
     * Please cite the following three references that made this development
     * possible:
     *
     *   M. Dion, H. Rydberg, E. Schroder, D. C. Langreth, and
     *   B. I. Lundqvist, Phys. Rev. Lett. 92, 246401 (2004).
     *
     *   T. Thonhauser, V. R. Cooper, S. Li, A. Puzder, P. Hyldgaard, and
     *   D. C. Langreth, Phys. Rev. B 76, 125112 (2007).
     *
     *   G. Roman-Perez and J. M. Soler, Phys. Rev. Lett. 103, 096102 (2009).
     *
     *
     * If you are using vdW-DF2, please also cite:
     *
     *   K. Lee, E. D. Murray, L. Kong, B. I. Lundqvist, and
     *   D. C. Langreth, Phys. Rev. B 82, 081101(R) (2010).
     *
     *
     * If you are calculating the stress with vdW-DF, please also cite:
     *
     *   R. Sabatini, E. Kucukbenli, B. Kolb, T. Thonhauser, and
     *   S. de Gironcoli, J. Phys.: Condens. Matter 24, 424209 (2012).
     *

     Carrying out vdW-DF run using the following parameters:

     Nqs =      20    Nr_points =    1024   r_max =   100.000
     q_mesh =
               0.00001000     0.04494208     0.09755937     0.15916263
               0.23128650     0.31572767     0.41458969     0.53033537
               0.66584808     0.82450364     1.01025438     1.22772762
               1.48234092     1.78043706     2.12944203     2.53805004
               3.01644009     3.57652955     4.23227104     5.00000000

     Gradients computed in reciprocal space

[...]

     Starting wfc are   63 randomized atomic wfcs

     Self-consistent Calculation

[...]

     Threshold (ethr) on eigenvalues was too large:
     Diagonalizing with lowered threshold

     Davidson diagonalization with overlap
     ethr =  8.13E-04,  avg # of iterations =  2.4

[...]

     total energy              =    -388.91431110 Ry
     Harris-Foulkes estimate   =    -388.91431113 Ry
     estimated scf accuracy    <       0.00000129 Ry

     iteration # 13     ecut=    36.75 Ry     beta=0.10
     Davidson diagonalization with overlap
     ethr =  2.05E-09,  avg # of iterations =  2.2

[...]

     negative rho (up, down):  3.094E-04 0.000E+00

     Adding external electric field

     Computed dipole along edir(3) :
        Dipole               -0.0119 Ry au,         -0.0302 Debye
        Dipole field         -0.0000 Ry au

        Potential amp.        0.0026 Ry
        Total length         45.8329 bohr

     End of self-consistent calculation

[...]

          k = 0.0558 0.0000 0.0000 ( 19485 PWs)   bands (ev):

[...]

          k =-0.0837-0.1450 0.0000 ( 19532 PWs)   bands (ev):

    -9.2772  -8.9513  -8.7458  -8.5648  -8.5160  -8.4142  -8.4106  -8.1155
    -8.0682  -8.0116  -7.9254  -7.8740  -7.7283  -7.6635  -7.5894  -7.5231
    -7.5218  -6.9941  -6.7907  -5.7896  -5.7134  -4.7939  -4.4702  -4.1447
    -4.0274  -1.9460  -1.9407  -1.5049  -1.4410  -0.3422  -0.2825  -0.2153
     0.1301   0.8234   0.9603   1.1867   1.4039   1.5110   1.7583   2.0353
     2.1122   2.4381   2.8222   3.4025   3.5100   3.6122   3.7157   3.7628
     3.7923   4.1827   4.2115   4.4716   4.6064   4.6836   4.7400   5.3267
     5.3473   5.5708   5.6962   6.0434   6.1339

     the Fermi energy is    -0.4367 ev

!    total energy              =    -388.91431199 Ry
     Harris-Foulkes estimate   =    -388.91431139 Ry
     estimated scf accuracy    <       0.00000068 Ry

     The total energy is the sum of the following terms:

     one-electron contribution =   -1820.63490578 Ry
     hartree contribution      =     936.54601624 Ry
     xc contribution           =    -160.62976536 Ry
     ewald contribution        =     655.83802663 Ry
     electric field correction =       0.00000034 Ry
     smearing contrib. (-TS)   =      -0.03368405 Ry

     convergence has been achieved in  13 iterations

 BEEF-vdW xc energy contributions
           1 :   -138.633667238991
           2 :    125.578584377808
           3 :   -103.768335023756
           4 :    79.4234230457431
           5 :   -57.7848111986918
           6 :    41.4149585983571
           7 :   -30.2747631851147
           8 :    22.9713553091033
           9 :   -18.0425348571030
          10 :    14.5056512692998
          11 :   -11.7266965413469
          12 :    9.17325408570557
          13 :   -6.46679882619125
          14 :    3.63082377462086
          15 :   -1.13705701121623
          16 :  -0.446584969062030
          17 :   0.951033912125212
          18 :  -0.792393027673569
          19 :   0.661381039761039
          20 :  -0.992764820574365
          21 :    1.68449988015479
          22 :   -2.28502213321221
          23 :    2.43349265274901
          24 :   -2.14660342452257
          25 :    1.73841485749890
          26 :   -1.51396615237385
          27 :    1.54424387176056
          28 :   -1.69322172743031
          29 :    1.80226856266879
          30 :   -1.81879270531368
          31 :   -14.7444228014709
          32 :   -10.8210013802829

     Forces acting on atoms (Ry/au):

     negative rho (up, down):  3.094E-04 0.000E+00
     atom    1 type  1   force =    -0.00000001   -0.00575458    0.00263408
     atom    2 type  1   force =    -0.00498374    0.00287727    0.00263411
     atom    3 type  1   force =     0.00498373    0.00287736    0.00263416
     atom    4 type  2   force =     0.00000087   -0.00000087   -0.01673989
     atom    5 type  1   force =     0.00000032    0.01073010    0.00265693
     atom    6 type  1   force =     0.00929304   -0.00536459    0.00265639
     atom    7 type  1   force =    -0.00929293   -0.00536479    0.00265649
     atom    8 type  2   force =    -0.00000145   -0.00000149   -0.00279648
     atom    9 type  1   force =    -0.00000014   -0.00006657    0.00100696
     atom   10 type  1   force =    -0.00005854    0.00003344    0.00100510
     atom   11 type  1   force =     0.00005786    0.00003353    0.00100481
     atom   12 type  2   force =     0.00000099    0.00000120    0.00064735

     Total force =     0.027897     Total SCF correction =     0.001555

     entering subroutine stress ...

     negative rho (up, down):  3.094E-04 0.000E+00
          total   stress  (Ry/bohr**3)                   (kbar)     P=   -7.13
  -0.00007707  -0.00000000  -0.00000000        -11.34     -0.00     -0.00
  -0.00000000  -0.00007706   0.00000000         -0.00    -11.34      0.00
  -0.00000000   0.00000000   0.00000877         -0.00      0.00      1.29

 !ASE

     Writing output data file calc.save

     General routines

     Parallel routines

   This run was terminated on:  18:39:13  19Dec2018

   JOB DONE.
Job  /afs/slac/g/suncat/bin/suncat-tsmpirun -x LD_LIBRARY_PATH -wdir /scratch/qe773265_TucYL pw.x -in pw.inp

TID   HOST_NAME   COMMAND_LINE            STATUS            TERMINATION_TIME
00000 suncat0025 pw.x -in pw.inp   Done                     12/19/2018 18:39:13
00001 suncat0025 pw.x -in pw.inp   Done                     12/19/2018 18:39:13
00002 suncat0025 pw.x -in pw.inp   Done                     12/19/2018 18:39:13
00003 suncat0025 pw.x -in pw.inp   Done                     12/19/2018 18:39:13
00004 suncat0025 pw.x -in pw.inp   Done                     12/19/2018 18:39:13
00005 suncat0025 pw.x -in pw.inp   Done                     12/19/2018 18:39:13
00006 suncat0025 pw.x -in pw.inp   Done                     12/19/2018 18:39:13
00007 suncat0025 pw.x -in pw.inp   Done                     12/19/2018 18:39:13
00008 suncat0024 pw.x -in pw.inp   Done                     12/19/2018 18:39:13
00009 suncat0024 pw.x -in pw.inp   Done                     12/19/2018 18:39:13
00010 suncat0024 pw.x -in pw.inp   Done                     12/19/2018 18:39:13
00011 suncat0024 pw.x -in pw.inp   Done                     12/19/2018 18:39:13
00012 suncat0024 pw.x -in pw.inp   Done                     12/19/2018 18:39:13
00013 suncat0024 pw.x -in pw.inp   Done                     12/19/2018 18:39:13
00014 suncat0024 pw.x -in pw.inp   Done                     12/19/2018 18:39:13
00015 suncat0024 pw.x -in pw.inp   Done                     12/19/2018 18:39:13
00016 suncat0023 pw.x -in pw.inp   Done                     12/19/2018 18:39:13
00017 suncat0023 pw.x -in pw.inp   Done                     12/19/2018 18:39:13
00018 suncat0023 pw.x -in pw.inp   Done                     12/19/2018 18:39:13
00019 suncat0023 pw.x -in pw.inp   Done                     12/19/2018 18:39:13
00020 suncat0023 pw.x -in pw.inp   Done                     12/19/2018 18:39:13
00021 suncat0023 pw.x -in pw.inp   Done                     12/19/2018 18:39:13
00022 suncat0023 pw.x -in pw.inp   Done                     12/19/2018 18:39:13
00023 suncat0023 pw.x -in pw.inp   Done                     12/19/2018 18:39:13
00024 suncat0022 pw.x -in pw.inp   Done                     12/19/2018 18:39:13
00025 suncat0022 pw.x -in pw.inp   Done                     12/19/2018 18:39:13
00026 suncat0022 pw.x -in pw.inp   Done                     12/19/2018 18:39:13
00027 suncat0022 pw.x -in pw.inp   Done                     12/19/2018 18:39:13
00028 suncat0022 pw.x -in pw.inp   Done                     12/19/2018 18:39:13
00029 suncat0022 pw.x -in pw.inp   Done                     12/19/2018 18:39:13
00030 suncat0022 pw.x -in pw.inp   Done                     12/19/2018 18:39:13
00031 suncat0022 pw.x -in pw.inp   Done                     12/19/2018 18:39:13
00032 suncat0021 pw.x -in pw.inp   Done                     12/19/2018 18:39:13
00033 suncat0021 pw.x -in pw.inp   Done                     12/19/2018 18:39:13
00034 suncat0021 pw.x -in pw.inp   Done                     12/19/2018 18:39:13
00035 suncat0021 pw.x -in pw.inp   Done                     12/19/2018 18:39:13
00036 suncat0021 pw.x -in pw.inp   Done                     12/19/2018 18:39:13
00037 suncat0021 pw.x -in pw.inp   Done                     12/19/2018 18:39:13
00038 suncat0021 pw.x -in pw.inp   Done                     12/19/2018 18:39:13
00039 suncat0021 pw.x -in pw.inp   Done                     12/19/2018 18:39:13
00040 suncat0016 pw.x -in pw.inp   Done                     12/19/2018 18:39:13
00041 suncat0016 pw.x -in pw.inp   Done                     12/19/2018 18:39:13
00042 suncat0016 pw.x -in pw.inp   Done                     12/19/2018 18:39:13
00043 suncat0016 pw.x -in pw.inp   Done                     12/19/2018 18:39:13
00044 suncat0016 pw.x -in pw.inp   Done                     12/19/2018 18:39:13
00045 suncat0016 pw.x -in pw.inp   Done                     12/19/2018 18:39:13
00046 suncat0016 pw.x -in pw.inp   Done                     12/19/2018 18:39:13
00047 suncat0016 pw.x -in pw.inp   Done                     12/19/2018 18:39:13
00048 suncat0015 pw.x -in pw.inp   Done                     12/19/2018 18:39:13
00049 suncat0015 pw.x -in pw.inp   Done                     12/19/2018 18:39:13
00050 suncat0015 pw.x -in pw.inp   Done                     12/19/2018 18:39:13
00051 suncat0015 pw.x -in pw.inp   Done                     12/19/2018 18:39:13
00052 suncat0015 pw.x -in pw.inp   Done                     12/19/2018 18:39:13
00053 suncat0015 pw.x -in pw.inp   Done                     12/19/2018 18:39:13
00054 suncat0015 pw.x -in pw.inp   Done                     12/19/2018 18:39:13
00055 suncat0015 pw.x -in pw.inp   Done                     12/19/2018 18:39:13
00056 suncat0014 pw.x -in pw.inp   Done                     12/19/2018 18:39:13
00057 suncat0014 pw.x -in pw.inp   Done                     12/19/2018 18:39:13
00058 suncat0014 pw.x -in pw.inp   Done                     12/19/2018 18:39:13
00059 suncat0014 pw.x -in pw.inp   Done                     12/19/2018 18:39:13
00060 suncat0014 pw.x -in pw.inp   Done                     12/19/2018 18:39:13
00061 suncat0014 pw.x -in pw.inp   Done                     12/19/2018 18:39:13
00062 suncat0014 pw.x -in pw.inp   Done                     12/19/2018 18:39:13
00063 suncat0014 pw.x -in pw.inp   Done                     12/19/2018 18:39:13