     Program PWSCF v.5.1rc2 (svn rev. 11289) starts on 31Dec2018 at 10: 5:45

     Current dimensions of program PWSCF are:
     Max number of different atomic species (ntypx) = 10
     Max number of k-points (npk) =  40000
     Max angular momentum in pseudopotentials (lmaxx) =  3
     Presently stress not available with electric field

     IMPORTANT: XC functional enforced from input :
     Exchange-correlation      = BEEF-VDW ( 1  4 27 13 2)
     Any further DFT definition will be discarded
     Please, verify this is what you really want

     Subspace diagonalization in iterative solution of the eigenvalue problem:
     a serial algorithm will be used

     bravais-lattice index     =            0
     lattice parameter (alat)  =       1.8897  a.u.
     unit-cell volume          =    6608.8843 (a.u.)^3
     number of atoms/cell      =           12
     number of atomic types    =            2
     number of electrons       =       168.00
     number of Kohn-Sham states=          114
     kinetic-energy cutoff     =      36.7493  Ry
     charge density cutoff     =     367.4932  Ry
     convergence threshold     =      1.0E-06
     mixing beta               =       0.1000
     number of iterations used =           10  plain     mixing
     Exchange-correlation      = BEEF-VDW ( 1  4 27 13 2)
     nstep                     =           50

     celldm(1)=   1.889726  celldm(2)=   0.000000  celldm(3)=   0.000000
     celldm(4)=   0.000000  celldm(5)=   0.000000  celldm(6)=   0.000000

     crystal axes: (cart. coord. in units of alat)
               a(1) = (   6.666735   0.000000   0.000000 )
               a(2) = (  -3.333367   5.773562   0.000000 )
               a(3) = (   0.000000   0.000000  25.443366 )

     reciprocal axes: (cart. coord. in units 2 pi/alat)
               b(1) = (  0.149998  0.086602  0.000000 )
               b(2) = (  0.000000  0.173203  0.000000 )
               b(3) = (  0.000000  0.000000  0.039303 )

     PseudoPot. # 1 for Pb read from file:
     /afs/slac.stanford.edu/u/if/mamunm/psp/gbrv1.5pbe/Pb.UPF
     MD5 check sum: 3d1c1779aa92214d1e8f3a7db79003e2
     Pseudo is Ultrasoft + core correction, Zval = 14.0
     Generated by new atomic code, or converted to UPF format
     Using radial grid of  899 points,  6 beta functions with:
                l(1) =   0
                l(2) =   0
                l(3) =   1
                l(4) =   1
                l(5) =   2
                l(6) =   2
     Q(r) pseudized with  6 coefficients,  rinner =    1.000   1.000   1.000
                                                       1.000   1.000

     PseudoPot. # 2 for Mo read from file:
     /afs/slac.stanford.edu/u/if/mamunm/psp/gbrv1.5pbe/Mo.UPF
     MD5 check sum: 30c4dcd161f5d35cd49bb5239c51a633
     Pseudo is Ultrasoft + core correction, Zval = 14.0
     Generated by new atomic code, or converted to UPF format
     Using radial grid of  889 points,  6 beta functions with:
                l(1) =   0
                l(2) =   0
                l(3) =   1
                l(4) =   1
                l(5) =   2
                l(6) =   2
     Q(r) pseudized with  6 coefficients,  rinner =    1.000   1.000   1.000
                                                       1.000   1.000

     vdW kernel table read from file vdW_kernel_table
     MD5 check sum: 095c7af220d748ca6e76c0b4c6cfb241

     atomic species   valence    mass     pseudopotential
        Pb1           14.00   207.20000     Pb( 1.00)
        Mo1           14.00    95.95000     Mo( 1.00)

     No symmetry found

   Cartesian axes

     site n.     atom                  positions (alat units)
         1           Pb1 tau(   1) = (   0.0000000   0.0000000  10.0000000  )
         2           Pb1 tau(   2) = (  -1.6666837   2.8867808  10.0000000  )
         3           Pb1 tau(   3) = (   1.6666837   2.8867808  10.0000000  )
         4           Mo1 tau(   4) = (   3.3333674   0.0000000  10.0000000  )
         5           Pb1 tau(   5) = (   3.3333674   1.9245205  12.7216831  )
         6           Pb1 tau(   6) = (   1.6666837   4.8113014  12.7216831  )
         7           Pb1 tau(   7) = (  -1.6666837   4.8113014  12.7216831  )
         8           Mo1 tau(   8) = (   0.0000000   1.9245205  12.7216831  )
         9           Pb1 tau(   9) = (  -0.0000000   3.8490411  15.4433661  )
        10           Pb1 tau(  10) = (   1.6666837   0.9622603  15.4433661  )
        11           Pb1 tau(  11) = (   5.0000511   0.9622603  15.4433661  )
        12           Mo1 tau(  12) = (   3.3333674   3.8490411  15.4433661  )

     number of k points=    20  Fermi-Dirac smearing, width (Ry)=  0.0110
                       cart. coord. in units 2pi/alat
        k(    1) = (   0.0000000   0.0000000   0.0000000), wk =   0.0555556
        k(    2) = (   0.0000000   0.0288672   0.0000000), wk =   0.1111111
        k(    3) = (   0.0000000   0.0577344   0.0000000), wk =   0.1111111
        k(    4) = (   0.0000000  -0.0866017   0.0000000), wk =   0.0555556
        k(    5) = (   0.0249997   0.0144336   0.0000000), wk =   0.1111111
        k(    6) = (   0.0249997   0.0433008   0.0000000), wk =   0.1111111
        k(    7) = (   0.0249997   0.0721680   0.0000000), wk =   0.1111111
        k(    8) = (   0.0249997  -0.0721680   0.0000000), wk =   0.1111111
        k(    9) = (   0.0249997  -0.0433008   0.0000000), wk =   0.1111111
        k(   10) = (   0.0249997  -0.0144336   0.0000000), wk =   0.1111111
        k(   11) = (   0.0499995   0.0288672   0.0000000), wk =   0.1111111
        k(   12) = (   0.0499995   0.0577344   0.0000000), wk =   0.1111111
        k(   13) = (   0.0499995   0.0866017   0.0000000), wk =   0.1111111
        k(   14) = (   0.0499995  -0.0577344   0.0000000), wk =   0.1111111
        k(   15) = (   0.0499995  -0.0288672   0.0000000), wk =   0.1111111
        k(   16) = (   0.0499995   0.0000000   0.0000000), wk =   0.1111111
        k(   17) = (  -0.0749992  -0.0433008   0.0000000), wk =   0.0555556
        k(   18) = (  -0.0749992  -0.0144336   0.0000000), wk =   0.1111111
        k(   19) = (  -0.0749992   0.0144336   0.0000000), wk =   0.1111111
        k(   20) = (  -0.0749992  -0.1299025   0.0000000), wk =   0.0555556

     Largest allocated arrays     est. size (Mb)     dimensions
     Largest temporary arrays     est. size (Mb)     dimensions

     Check: negative/imaginary core charge=   -0.000001    0.000000

     Initial potential from superposition of free atoms
     Check: negative starting charge=   -0.151128

     starting charge  167.97565, renormalised to  168.00000

     negative rho (up, down):  1.511E-01 0.000E+00

     *
     * You are using vdW-DF for exchange-correlation in this calculation.
     * Please cite the following three references that made this development
     * possible:
     *
     *   M. Dion, H. Rydberg, E. Schroder, D. C. Langreth, and
     *   B. I. Lundqvist, Phys. Rev. Lett. 92, 246401 (2004).
     *
     *   T. Thonhauser, V. R. Cooper, S. Li, A. Puzder, P. Hyldgaard, and
     *   D. C. Langreth, Phys. Rev. B 76, 125112 (2007).
     *
     *   G. Roman-Perez and J. M. Soler, Phys. Rev. Lett. 103, 096102 (2009).
     *
     *
     * If you are using vdW-DF2, please also cite:
     *
     *   K. Lee, E. D. Murray, L. Kong, B. I. Lundqvist, and
     *   D. C. Langreth, Phys. Rev. B 82, 081101(R) (2010).
     *
     *
     * If you are calculating the stress with vdW-DF, please also cite:
     *
     *   R. Sabatini, E. Kucukbenli, B. Kolb, T. Thonhauser, and
     *   S. de Gironcoli, J. Phys.: Condens. Matter 24, 424209 (2012).
     *

     Carrying out vdW-DF run using the following parameters:

     Nqs =      20    Nr_points =    1024   r_max =   100.000
     q_mesh =
               0.00001000     0.04494208     0.09755937     0.15916263
               0.23128650     0.31572767     0.41458969     0.53033537
               0.66584808     0.82450364     1.01025438     1.22772762
               1.48234092     1.78043706     2.12944203     2.53805004
               3.01644009     3.57652955     4.23227104     5.00000000

     Gradients computed in reciprocal space

     Adding external electric field

     Computed dipole along edir(3) :
        Dipole                0.0000 Ry au,          0.0000 Debye
        Dipole field          0.0000 Ry au

        Potential amp.       -0.0000 Ry
        Total length         46.8790 bohr

     Starting wfc are  120 randomized atomic wfcs

     Self-consistent Calculation

     iteration #  1     ecut=    36.75 Ry     beta=0.10
     Davidson diagonalization with overlap
     ethr =  1.00E-02,  avg # of iterations =  4.8

[...]

     total energy              =   -1912.78793946 Ry
     Harris-Foulkes estimate   =   -1913.83548849 Ry
     estimated scf accuracy    <       5.89892260 Ry

[...]

     End of self-consistent calculation

          k = 0.0000 0.0000 0.0000 ( 24777 PWs)   bands (ev):

   -59.7147 -59.7147 -59.6764 -33.7752 -33.7752 -33.7751 -33.7751 -33.7560
   -33.7560 -33.7421 -33.7419 -33.6404 -16.2075 -16.1674 -16.1674 -16.1609
   -16.1518 -16.1263 -16.0696 -16.0696 -16.0600 -16.0600 -16.0159 -16.0157
   -16.0157 -15.9898 -15.9567 -15.9567 -15.9564 -15.9125 -15.9125 -15.9076
   -15.8939 -15.8482 -15.8465 -15.8465 -15.8264 -15.8264 -15.8238 -15.8238
   -15.8099 -15.8099 -15.8073 -15.7987 -15.7987 -15.7791 -15.7791 -15.7569
   -15.7569 -15.6975 -15.6975 -15.6794 -15.6794 -15.6761 -15.6481 -15.6238
   -15.6212  -9.9574  -8.8287  -7.4534  -6.6492  -6.6492  -6.0357  -6.0357
    -5.3221  -5.3221  -2.8215  -2.1610  -1.8146  -1.5536  -1.5536  -1.2867
    -0.5139  -0.5139  -0.3435  -0.3435   0.0564   0.7852   0.7852   0.7993
     0.7993   1.2586   1.2974   1.2974   1.3919   1.4387   1.4387   1.4430
     1.4430   1.6838   1.6838   1.7936   2.1641   2.5216   3.4074   3.7606
     3.7606   3.8664   3.8664   4.4657   4.5765   4.6815   4.8556   5.1726
     5.7184   5.7185   5.8528   5.9232   5.9343   6.3361   6.3361   6.9542
     7.2463   7.2463

[...]

          k =-0.0750-0.0433 0.0000 ( 24898 PWs)   bands (ev):

[...]

     the Fermi energy is     1.3272 ev

!    total energy              =   -1913.38467458 Ry
     Harris-Foulkes estimate   =   -1913.38463598 Ry
     estimated scf accuracy    <       0.00000034 Ry

     The total energy is the sum of the following terms:

     one-electron contribution =  -10251.67870514 Ry
     hartree contribution      =    5176.37916133 Ry
     xc contribution           =    -647.60883690 Ry
     ewald contribution        =    3809.63590594 Ry
     electric field correction =       0.00000000 Ry
     smearing contrib. (-TS)   =      -0.11219981 Ry

     convergence has been achieved in  15 iterations

 BEEF-vdW xc energy contributions
           1 :   -575.389514242820
           2 :    533.564657301227
           3 :   -460.174533688384
           4 :    371.735562828629
           5 :   -285.199547178123
           6 :    212.761017828854
           7 :   -159.183962660056
           8 :    122.269631182137
           9 :   -95.8093524916316
          10 :    73.3979521370214
          11 :   -51.3482956627629
          12 :    29.5927539904854
          13 :   -10.5835212150156
[...]
     /afs/slac.stanford.edu/u/if/mamunm/psp/gbrv1.5pbe/Pb.UPF
     MD5 check sum: 3d1c1779aa92214d1e8f3a7db79003e2
     Pseudo is Ultrasoft + core correction, Zval = 14.0
     Generated by new atomic code, or converted to UPF format
     Using radial grid of  899 points,  6 beta functions with:
                l(1) =   0
                l(2) =   0
                l(3) =   1
                l(4) =   1
                l(5) =   2
                l(6) =   2
     Q(r) pseudized with  6 coefficients,  rinner =    1.000   1.000   1.000
                                                       1.000   1.000

     PseudoPot. # 2 for Mo read from file:
     /afs/slac.stanford.edu/u/if/mamunm/psp/gbrv1.5pbe/Mo.UPF
     MD5 check sum: 30c4dcd161f5d35cd49bb5239c51a633
     Pseudo is Ultrasoft + core correction, Zval = 14.0
     Generated by new atomic code, or converted to UPF format
     Using radial grid of  889 points,  6 beta functions with:
                l(1) =   0
                l(2) =   0
                l(3) =   1
                l(4) =   1
                l(5) =   2
                l(6) =   2
     Q(r) pseudized with  6 coefficients,  rinner =    1.000   1.000   1.000
                                                       1.000   1.000

     vdW kernel table read from file vdW_kernel_table
     MD5 check sum: 095c7af220d748ca6e76c0b4c6cfb241

     atomic species   valence    mass     pseudopotential
        Pb1           14.00   207.20000     Pb( 1.00)
        Mo1           14.00    95.95000     Mo( 1.00)

     No symmetry found

   Cartesian axes

     site n.     atom                  positions (alat units)
         1           Pb1 tau(   1) = (   0.0000000   0.0000000  10.0000000  )
         2           Pb1 tau(   2) = (  -1.6666837   2.8867808  10.0000000  )
         3           Pb1 tau(   3) = (   1.6666837   2.8867808  10.0000000  )
         4           Mo1 tau(   4) = (   3.3333674   0.0000000  10.0000000  )
         5           Pb1 tau(   5) = (   3.3333674   1.9245205  12.7216831  )
         6           Pb1 tau(   6) = (   1.6666837   4.8113014  12.7216831  )
         7           Pb1 tau(   7) = (  -1.6666837   4.8113014  12.7216831  )
         8           Mo1 tau(   8) = (   0.0000000   1.9245205  12.7216831  )
         9           Pb1 tau(   9) = (   0.0000247   3.7865972  15.5865946  )
        10           Pb1 tau(  10) = (   1.6126184   0.9934052  15.5866725  )
        11           Pb1 tau(  11) = (   5.0541018   0.9934797  15.5866345  )
        12           Mo1 tau(  12) = (   3.3333787   3.8490564  14.8252857  )

     number of k points=    20  Fermi-Dirac smearing, width (Ry)=  0.0110
                       cart. coord. in units 2pi/alat
        k(    1) = (   0.0000000   0.0000000   0.0000000), wk =   0.0555556
        k(    2) = (   0.0000000   0.0288672   0.0000000), wk =   0.1111111
        k(    3) = (   0.0000000   0.0577344   0.0000000), wk =   0.1111111
        k(    4) = (   0.0000000  -0.0866017   0.0000000), wk =   0.0555556
        k(    5) = (   0.0249997   0.0144336   0.0000000), wk =   0.1111111
        k(    6) = (   0.0249997   0.0433008   0.0000000), wk =   0.1111111
        k(    7) = (   0.0249997   0.0721680   0.0000000), wk =   0.1111111
        k(    8) = (   0.0249997  -0.0721680   0.0000000), wk =   0.1111111
        k(    9) = (   0.0249997  -0.0433008   0.0000000), wk =   0.1111111
        k(   10) = (   0.0249997  -0.0144336   0.0000000), wk =   0.1111111
        k(   11) = (   0.0499995   0.0288672   0.0000000), wk =   0.1111111
        k(   12) = (   0.0499995   0.0577344   0.0000000), wk =   0.1111111
        k(   13) = (   0.0499995   0.0866017   0.0000000), wk =   0.1111111
        k(   14) = (   0.0499995  -0.0577344   0.0000000), wk =   0.1111111
        k(   15) = (   0.0499995  -0.0288672   0.0000000), wk =   0.1111111
        k(   16) = (   0.0499995   0.0000000   0.0000000), wk =   0.1111111
        k(   17) = (  -0.0749992  -0.0433008   0.0000000), wk =   0.0555556
        k(   18) = (  -0.0749992  -0.0144336   0.0000000), wk =   0.1111111
        k(   19) = (  -0.0749992   0.0144336   0.0000000), wk =   0.1111111
        k(   20) = (  -0.0749992  -0.1299025   0.0000000), wk =   0.0555556

     Largest allocated arrays     est. size (Mb)     dimensions
     Largest temporary arrays     est. size (Mb)     dimensions

     Check: negative/imaginary core charge=   -0.000001    0.000000

     Initial potential from superposition of free atoms
     Check: negative starting charge=   -0.150709

     starting charge  167.97565, renormalised to  168.00000

[...]

     *
     * You are using vdW-DF for exchange-correlation in this calculation.
     * Please cite the following three references that made this development
     * possible:
     *
     *   M. Dion, H. Rydberg, E. Schroder, D. C. Langreth, and
     *   B. I. Lundqvist, Phys. Rev. Lett. 92, 246401 (2004).
     *
     *   T. Thonhauser, V. R. Cooper, S. Li, A. Puzder, P. Hyldgaard, and
     *   D. C. Langreth, Phys. Rev. B 76, 125112 (2007).
     *
     *   G. Roman-Perez and J. M. Soler, Phys. Rev. Lett. 103, 096102 (2009).
     *
     *
     * If you are using vdW-DF2, please also cite:
     *
     *   K. Lee, E. D. Murray, L. Kong, B. I. Lundqvist, and
     *   D. C. Langreth, Phys. Rev. B 82, 081101(R) (2010).
     *
     *
     * If you are calculating the stress with vdW-DF, please also cite:
     *
     *   R. Sabatini, E. Kucukbenli, B. Kolb, T. Thonhauser, and
     *   S. de Gironcoli, J. Phys.: Condens. Matter 24, 424209 (2012).
     *

     Carrying out vdW-DF run using the following parameters:

     Nqs =      20    Nr_points =    1024   r_max =   100.000
     q_mesh =
               0.00001000     0.04494208     0.09755937     0.15916263
               0.23128650     0.31572767     0.41458969     0.53033537
               0.66584808     0.82450364     1.01025438     1.22772762
               1.48234092     1.78043706     2.12944203     2.53805004
               3.01644009     3.57652955     4.23227104     5.00000000

     Gradients computed in reciprocal space

[...]

     Starting wfc are  120 randomized atomic wfcs

     Self-consistent Calculation

[...]

     total energy              =   -1913.43677559 Ry
     Harris-Foulkes estimate   =   -1913.43676628 Ry
     estimated scf accuracy    <       0.00000132 Ry

     iteration # 18     ecut=    36.75 Ry     beta=0.10
     Davidson diagonalization with overlap
     ethr =  7.85E-10,  avg # of iterations =  4.0

[...]

     negative rho (up, down):  1.642E-01 0.000E+00

     Adding external electric field

     Computed dipole along edir(3) :
        Dipole                0.0773 Ry au,          0.1966 Debye
        Dipole field          0.0001 Ry au

        Potential amp.       -0.0138 Ry
        Total length         46.8790 bohr

     End of self-consistent calculation

[...]

          k = 0.0500 0.0000 0.0000 ( 24864 PWs)   bands (ev):

[...]

          k =-0.0750-0.1299 0.0000 ( 24898 PWs)   bands (ev):

   -59.7824 -59.7022 -59.6825 -33.8424 -33.8223 -33.8221 -33.7676 -33.7672
   -33.7642 -33.7635 -33.7375 -33.6878 -16.1617 -16.0907 -16.0821 -16.0642
   -16.0481 -16.0358 -16.0206 -15.9986 -15.9932 -15.9916 -15.9681 -15.9445
   -15.9382 -15.9228 -15.9123 -15.9084 -15.8995 -15.8994 -15.8900 -15.8879
   -15.8784 -15.8622 -15.8557 -15.8525 -15.8456 -15.8448 -15.8381 -15.8222
   -15.8182 -15.8169 -15.8126 -15.8085 -15.8044 -15.7988 -15.7940 -15.7901
   -15.7870 -15.7696 -15.7583 -15.7533 -15.7441 -15.7189 -15.6901 -15.6677
   -15.6451  -9.0120  -8.6449  -7.8874  -7.4258  -6.9442  -6.9129  -6.4877
    -5.9894  -5.2216  -2.5939  -2.0503  -1.4482  -0.7156  -0.6628  -0.4573
    -0.4381  -0.3334   0.1348   0.1661   0.2152   0.4863   0.8653   0.8723
     1.1499   1.1907   1.2015   1.2877   1.4090   1.4708   1.5861   1.6993
     1.8478   1.9162   2.2673   2.2932   2.5095   2.6841   2.9729   3.0670
     3.4608   3.7186   4.0745   4.1590   4.2288   4.7622   4.8763   5.2357
     5.4540   5.6026   5.7688   5.8522   6.1466   6.2375   6.3771   6.4405
     6.4694   6.6225

     the Fermi energy is     1.3290 ev

!    total energy              =   -1913.43676508 Ry
     Harris-Foulkes estimate   =   -1913.43677551 Ry
     estimated scf accuracy    <       0.00000020 Ry

     The total energy is the sum of the following terms:

     one-electron contribution =  -10303.28263303 Ry
     hartree contribution      =    5202.16630757 Ry
     xc contribution           =    -647.67486273 Ry
     ewald contribution        =    3835.45306203 Ry
     electric field correction =       0.00001137 Ry
     smearing contrib. (-TS)   =      -0.09865029 Ry

     convergence has been achieved in  18 iterations

 BEEF-vdW xc energy contributions
           1 :   -575.460129373763
           2 :    533.666439126523
           3 :   -460.322462223385
           4 :    371.914280211245
           5 :   -285.361587246570
           6 :    212.847775993183
           7 :   -159.157198087198
           8 :    122.134836591825
           9 :   -95.6178641432521
          10 :    73.2263755927825
          11 :   -51.2641318411916
          12 :    29.6220992942401
          13 :   -10.6968528845183
          14 :   -2.74197040383001
          15 :    9.45201246974523
          16 :   -10.4617048099382
          17 :    8.46679032613451
          18 :   -6.41283894442893
          19 :    6.12026880914777
          20 :   -7.67079477378832
          21 :    9.77468080031053
          22 :   -10.8011264979019
          23 :    9.83420299400223
          24 :   -7.18478444981088
          25 :    4.14409402131298
          26 :   -2.20299513637917
          27 :    2.22015073232626
          28 :   -4.00321154683422
          29 :    6.49235877059505
          30 :   -8.39472338603537
          31 :   -47.6963411511178
          32 :   -35.1327859081406

     Forces acting on atoms (Ry/au):

     negative rho (up, down):  1.642E-01 0.000E+00
     atom    1 type  1   force =     0.00000141    0.01813543   -0.01376860
     atom    2 type  1   force =     0.01570360   -0.00906732   -0.01376030
     atom    3 type  1   force =    -0.01570100   -0.00906754   -0.01376281
     atom    4 type  2   force =     0.00000021    0.00000009    0.06875729
     atom    5 type  1   force =    -0.00000044   -0.02058658   -0.01202202
     atom    6 type  1   force =    -0.01782942    0.01029611   -0.01203225
     atom    7 type  1   force =     0.01783101    0.01029380   -0.01203487
     atom    8 type  2   force =    -0.00000048   -0.00000013    0.01057365
     atom    9 type  1   force =    -0.00000082   -0.00004304   -0.00012246
     atom   10 type  1   force =    -0.00003582    0.00002119   -0.00012742
     atom   11 type  1   force =     0.00003170    0.00001802   -0.00013012
     atom   12 type  2   force =     0.00000004   -0.00000003   -0.00157011

     Total force =     0.090014     Total SCF correction =     0.002935

     entering subroutine stress ...

     negative rho (up, down):  1.642E-01 0.000E+00
          total   stress  (Ry/bohr**3)                   (kbar)     P=   -7.22
  -0.00006337   0.00000000   0.00000000         -9.32      0.00      0.00
   0.00000000  -0.00006337  -0.00000000          0.00     -9.32     -0.00
   0.00000000  -0.00000000  -0.00002060          0.00     -0.00     -3.03

 !ASE

     Writing output data file calc.save

     General routines

     Parallel routines

   This run was terminated on:  13: 4:48  31Dec2018

   JOB DONE.
Job  /afs/slac/g/suncat/bin/suncat-tsmpirun -x LD_LIBRARY_PATH -wdir /scratch/qe648738_0PxuA pw.x -in pw.inp

TID   HOST_NAME   COMMAND_LINE            STATUS            TERMINATION_TIME
00000 suncat0251 pw.x -in pw.inp   Done                     12/31/2018 13:04:48
00001 suncat0251 pw.x -in pw.inp   Done                     12/31/2018 13:04:48
00002 suncat0251 pw.x -in pw.inp   Done                     12/31/2018 13:04:48
00003 suncat0251 pw.x -in pw.inp   Done                     12/31/2018 13:04:48
00004 suncat0251 pw.x -in pw.inp   Done                     12/31/2018 13:04:48
00005 suncat0251 pw.x -in pw.inp   Done                     12/31/2018 13:04:48
00006 suncat0251 pw.x -in pw.inp   Done                     12/31/2018 13:04:48
00007 suncat0251 pw.x -in pw.inp   Done                     12/31/2018 13:04:48
00008 suncat0244 pw.x -in pw.inp   Done                     12/31/2018 13:04:48
00009 suncat0244 pw.x -in pw.inp   Done                     12/31/2018 13:04:48
00010 suncat0244 pw.x -in pw.inp   Done                     12/31/2018 13:04:48
00011 suncat0244 pw.x -in pw.inp   Done                     12/31/2018 13:04:48
00012 suncat0244 pw.x -in pw.inp   Done                     12/31/2018 13:04:48
00013 suncat0244 pw.x -in pw.inp   Done                     12/31/2018 13:04:48
00014 suncat0244 pw.x -in pw.inp   Done                     12/31/2018 13:04:48
00015 suncat0244 pw.x -in pw.inp   Done                     12/31/2018 13:04:48
00016 suncat0243 pw.x -in pw.inp   Done                     12/31/2018 13:04:48
00017 suncat0243 pw.x -in pw.inp   Done                     12/31/2018 13:04:48
00018 suncat0243 pw.x -in pw.inp   Done                     12/31/2018 13:04:48
00019 suncat0243 pw.x -in pw.inp   Done                     12/31/2018 13:04:48
00020 suncat0243 pw.x -in pw.inp   Done                     12/31/2018 13:04:48
00021 suncat0243 pw.x -in pw.inp   Done                     12/31/2018 13:04:48
00022 suncat0243 pw.x -in pw.inp   Done                     12/31/2018 13:04:48
00023 suncat0243 pw.x -in pw.inp   Done                     12/31/2018 13:04:48
00024 suncat0242 pw.x -in pw.inp   Done                     12/31/2018 13:04:48
00025 suncat0242 pw.x -in pw.inp   Done                     12/31/2018 13:04:48
00026 suncat0242 pw.x -in pw.inp   Done                     12/31/2018 13:04:48
00027 suncat0242 pw.x -in pw.inp   Done                     12/31/2018 13:04:48
00028 suncat0242 pw.x -in pw.inp   Done                     12/31/2018 13:04:48
00029 suncat0242 pw.x -in pw.inp   Done                     12/31/2018 13:04:48
00030 suncat0242 pw.x -in pw.inp   Done                     12/31/2018 13:04:48
00031 suncat0242 pw.x -in pw.inp   Done                     12/31/2018 13:04:48
00032 suncat0209 pw.x -in pw.inp   Done                     12/31/2018 13:04:48
00033 suncat0209 pw.x -in pw.inp   Done                     12/31/2018 13:04:48
00034 suncat0209 pw.x -in pw.inp   Done                     12/31/2018 13:04:48
00035 suncat0209 pw.x -in pw.inp   Done                     12/31/2018 13:04:48
00036 suncat0209 pw.x -in pw.inp   Done                     12/31/2018 13:04:48
00037 suncat0209 pw.x -in pw.inp   Done                     12/31/2018 13:04:48
00038 suncat0209 pw.x -in pw.inp   Done                     12/31/2018 13:04:48
00039 suncat0209 pw.x -in pw.inp   Done                     12/31/2018 13:04:48
00040 suncat0205 pw.x -in pw.inp   Done                     12/31/2018 13:04:48
00041 suncat0205 pw.x -in pw.inp   Done                     12/31/2018 13:04:48
00042 suncat0205 pw.x -in pw.inp   Done                     12/31/2018 13:04:48
00043 suncat0205 pw.x -in pw.inp   Done                     12/31/2018 13:04:48
00044 suncat0205 pw.x -in pw.inp   Done                     12/31/2018 13:04:48
00045 suncat0205 pw.x -in pw.inp   Done                     12/31/2018 13:04:48
00046 suncat0205 pw.x -in pw.inp   Done                     12/31/2018 13:04:48
00047 suncat0205 pw.x -in pw.inp   Done                     12/31/2018 13:04:48
00048 suncat0204 pw.x -in pw.inp   Done                     12/31/2018 13:04:48
00049 suncat0204 pw.x -in pw.inp   Done                     12/31/2018 13:04:48
00050 suncat0204 pw.x -in pw.inp   Done                     12/31/2018 13:04:48
00051 suncat0204 pw.x -in pw.inp   Done                     12/31/2018 13:04:48
00052 suncat0204 pw.x -in pw.inp   Done                     12/31/2018 13:04:48
00053 suncat0204 pw.x -in pw.inp   Done                     12/31/2018 13:04:48
00054 suncat0204 pw.x -in pw.inp   Done                     12/31/2018 13:04:48
00055 suncat0204 pw.x -in pw.inp   Done                     12/31/2018 13:04:48
00056 suncat0203 pw.x -in pw.inp   Done                     12/31/2018 13:04:48
00057 suncat0203 pw.x -in pw.inp   Done                     12/31/2018 13:04:48
00058 suncat0203 pw.x -in pw.inp   Done                     12/31/2018 13:04:48
00059 suncat0203 pw.x -in pw.inp   Done                     12/31/2018 13:04:48
00060 suncat0203 pw.x -in pw.inp   Done                     12/31/2018 13:04:48
00061 suncat0203 pw.x -in pw.inp   Done                     12/31/2018 13:04:48
00062 suncat0203 pw.x -in pw.inp   Done                     12/31/2018 13:04:48
00063 suncat0203 pw.x -in pw.inp   Done                     12/31/2018 13:04:48