     Program PWSCF v.5.1rc2 (svn rev. 11289) starts on  2Jan2019 at  0:48:35

     Current dimensions of program PWSCF are:
     Max number of different atomic species (ntypx) = 10
     Max number of k-points (npk) =  40000
     Max angular momentum in pseudopotentials (lmaxx) =  3
     Presently stress not available with electric field

     IMPORTANT: XC functional enforced from input :
     Exchange-correlation      = BEEF-VDW ( 1  4 27 13 2)
     Any further DFT definition will be discarded
     Please, verify this is what you really want

     Subspace diagonalization in iterative solution of the eigenvalue problem:
     a serial algorithm will be used

     bravais-lattice index     =            0
     lattice parameter (alat)  =       1.8897  a.u.
     unit-cell volume          =    6536.9254 (a.u.)^3
     number of atoms/cell      =           12
     number of atomic types    =            2
     number of electrons       =       153.00
     number of Kohn-Sham states=          106
     kinetic-energy cutoff     =      36.7493  Ry
     charge density cutoff     =     367.4932  Ry
     convergence threshold     =      1.0E-06
     mixing beta               =       0.1000
     number of iterations used =           10  plain     mixing
     Exchange-correlation      = BEEF-VDW ( 1  4 27 13 2)
     nstep                     =           50

     celldm(1)=   1.889726  celldm(2)=   0.000000  celldm(3)=   0.000000
     celldm(4)=   0.000000  celldm(5)=   0.000000  celldm(6)=   0.000000

     crystal axes: (cart. coord. in units of alat)
               a(1) = (   6.633843   0.000000   0.000000 )
               a(2) = (  -3.316921   5.745077   0.000000 )
               a(3) = (   0.000000   0.000000  25.416510 )

     reciprocal axes: (cart. coord. in units 2 pi/alat)
               b(1) = (  0.150742  0.087031  0.000000 )
               b(2) = (  0.000000  0.174062  0.000000 )
               b(3) = (  0.000000  0.000000  0.039345 )

     PseudoPot. # 1 for Tl read from file:
     /afs/slac.stanford.edu/u/if/mamunm/psp/gbrv1.5pbe/Tl.UPF
     MD5 check sum: b76cf1f7e72655a2b2c53cf6385d7059
     Pseudo is Ultrasoft + core correction, Zval = 13.0
     Generated by new atomic code, or converted to UPF format
     Using radial grid of  899 points,  6 beta functions with:
                l(1) =   0
                l(2) =   0
                l(3) =   1
                l(4) =   1
                l(5) =   2
                l(6) =   2
     Q(r) pseudized with  6 coefficients,  rinner =    1.100   1.100   1.100
                                                       1.100   1.100

     PseudoPot. # 2 for Hf read from file:
     /afs/slac.stanford.edu/u/if/mamunm/psp/gbrv1.5pbe/Hf.UPF
     MD5 check sum: 8ee9378dfe14276e333edf04c5e4aa26
     Pseudo is Ultrasoft + core correction, Zval = 12.0
     Generated by new atomic code, or converted to UPF format
     Using radial grid of  921 points,  8 beta functions with:
                l(1) =   0
                l(2) =   0
                l(3) =   0
                l(4) =   1
                l(5) =   1
                l(6) =   2
                l(7) =   2
                l(8) =   3
     Q(r) pseudized with  6 coefficients,  rinner =    1.200   1.200   1.200
                                                       1.200   1.200   1.200
                                                       1.200

     vdW kernel table read from file vdW_kernel_table
     MD5 check sum: 095c7af220d748ca6e76c0b4c6cfb241

     atomic species   valence    mass     pseudopotential
        Tl1           13.00   204.38000     Tl( 1.00)
        Hf1           12.00   178.49000     Hf( 1.00)

     No symmetry found

   Cartesian axes

     site n.     atom                  positions (alat units)
         1           Tl1 tau(   1) = (   0.0000000   0.0000000  10.0000000  )
         2           Tl1 tau(   2) = (  -1.6584607   2.8725383  10.0000000  )
         3           Tl1 tau(   3) = (   1.6584607   2.8725383  10.0000000  )
         4           Hf1 tau(   4) = (   3.3169215   0.0000000  10.0000000  )
         5           Tl1 tau(   5) = (   3.3169215   1.9150255  12.7082551  )
         6           Tl1 tau(   6) = (   1.6584607   4.7875638  12.7082551  )
         7           Tl1 tau(   7) = (  -1.6584607   4.7875638  12.7082551  )
         8           Hf1 tau(   8) = (   0.0000000   1.9150255  12.7082551  )
         9           Tl1 tau(   9) = (  -0.0000000   3.8300510  15.4165101  )
        10           Tl1 tau(  10) = (   1.6584607   0.9575128  15.4165101  )
        11           Tl1 tau(  11) = (   4.9753822   0.9575128  15.4165101  )
        12           Hf1 tau(  12) = (   3.3169215   3.8300510  15.4165101  )

     number of k points=    20  Fermi-Dirac smearing, width (Ry)=  0.0110
                       cart. coord. in units 2pi/alat
        k(    1) = (   0.0000000   0.0000000   0.0000000), wk =   0.0555556
        k(    2) = (   0.0000000   0.0290103   0.0000000), wk =   0.1111111
        k(    3) = (   0.0000000   0.0580207   0.0000000), wk =   0.1111111
        k(    4) = (   0.0000000  -0.0870310   0.0000000), wk =   0.0555556
        k(    5) = (   0.0251237   0.0145052   0.0000000), wk =   0.1111111
        k(    6) = (   0.0251237   0.0435155   0.0000000), wk =   0.1111111
        k(    7) = (   0.0251237   0.0725259   0.0000000), wk =   0.1111111
        k(    8) = (   0.0251237  -0.0725259   0.0000000), wk =   0.1111111
        k(    9) = (   0.0251237  -0.0435155   0.0000000), wk =   0.1111111
        k(   10) = (   0.0251237  -0.0145052   0.0000000), wk =   0.1111111
        k(   11) = (   0.0502474   0.0290103   0.0000000), wk =   0.1111111
        k(   12) = (   0.0502474   0.0580207   0.0000000), wk =   0.1111111
        k(   13) = (   0.0502474   0.0870310   0.0000000), wk =   0.1111111
        k(   14) = (   0.0502474  -0.0580207   0.0000000), wk =   0.1111111
        k(   15) = (   0.0502474  -0.0290103   0.0000000), wk =   0.1111111
        k(   16) = (   0.0502474  -0.0000000   0.0000000), wk =   0.1111111
        k(   17) = (  -0.0753711  -0.0435155   0.0000000), wk =   0.0555556
        k(   18) = (  -0.0753711  -0.0145052   0.0000000), wk =   0.1111111
        k(   19) = (  -0.0753711   0.0145052   0.0000000), wk =   0.1111111
        k(   20) = (  -0.0753711  -0.1305466   0.0000000), wk =   0.0555556

     Largest allocated arrays     est. size (Mb)     dimensions
     Largest temporary arrays     est. size (Mb)     dimensions

     Check: negative/imaginary core charge=   -0.000002    0.000000

     Initial potential from superposition of free atoms
     Check: negative starting charge=   -0.779146

     starting charge  146.95620, renormalised to  153.00000

     negative rho (up, down):  8.112E-01 0.000E+00

     *
     * You are using vdW-DF for exchange-correlation in this calculation.
     * Please cite the following three references that made this development
     * possible:
     *
     *   M. Dion, H. Rydberg, E. Schroder, D. C. Langreth, and
     *   B. I. Lundqvist, Phys. Rev. Lett. 92, 246401 (2004).
     *
     *   T. Thonhauser, V. R. Cooper, S. Li, A. Puzder, P. Hyldgaard, and
     *   D. C. Langreth, Phys. Rev. B 76, 125112 (2007).
     *
     *   G. Roman-Perez and J. M. Soler, Phys. Rev. Lett. 103, 096102 (2009).
     *
     *
     * If you are using vdW-DF2, please also cite:
     *
     *   K. Lee, E. D. Murray, L. Kong, B. I. Lundqvist, and
     *   D. C. Langreth, Phys. Rev. B 82, 081101(R) (2010).
     *
     *
     * If you are calculating the stress with vdW-DF, please also cite:
     *
     *   R. Sabatini, E. Kucukbenli, B. Kolb, T. Thonhauser, and
     *   S. de Gironcoli, J. Phys.: Condens. Matter 24, 424209 (2012).
     *

     Carrying out vdW-DF run using the following parameters:

     Nqs =      20    Nr_points =    1024   r_max =   100.000
     q_mesh =
               0.00001000     0.04494208     0.09755937     0.15916263
               0.23128650     0.31572767     0.41458969     0.53033537
               0.66584808     0.82450364     1.01025438     1.22772762
               1.48234092     1.78043706     2.12944203     2.53805004
               3.01644009     3.57652955     4.23227104     5.00000000

     Gradients computed in reciprocal space

     Adding external electric field

     Computed dipole along edir(3) :
        Dipole                0.0000 Ry au,          0.0000 Debye
        Dipole field          0.0000 Ry au

        Potential amp.       -0.0000 Ry
        Total length         46.8295 bohr

     Starting wfc are  120 randomized atomic wfcs

     Self-consistent Calculation

     iteration #  1     ecut=    36.75 Ry     beta=0.10
     Davidson diagonalization with overlap
     ethr =  1.00E-02,  avg # of iterations =  8.4

[...]

     total energy              =   -1803.21816056 Ry
     Harris-Foulkes estimate   =   -1803.80518506 Ry
     estimated scf accuracy    <       3.90743073 Ry

[...]

     End of self-consistent calculation

          k = 0.0000 0.0000 0.0000 ( 24489 PWs)   bands (ev):

   -62.8245 -62.8244 -62.5084 -31.3660 -31.3652 -31.2050 -31.2050 -31.2047
   -31.2047 -30.9779 -30.9779 -30.9499 -11.0984 -11.0136 -11.0119 -11.0119
   -10.9430 -10.9289 -10.8672 -10.8441 -10.8441 -10.8011 -10.8011 -10.7729
   -10.7729 -10.6997 -10.6895 -10.6895 -10.6447 -10.6148 -10.5418 -10.5389
   -10.5389 -10.5158 -10.5099 -10.5099 -10.4857 -10.4857 -10.3974 -10.3974
   -10.3662 -10.3662 -10.3423 -10.3423 -10.3408 -10.3317 -10.3317 -10.2706
   -10.2706 -10.1957 -10.1957 -10.1615 -10.1476 -10.1263 -10.1263 -10.0327
   -10.0297  -8.5093  -7.1245  -5.3988  -4.4353  -4.4353  -3.8257  -3.8257
    -3.0151  -3.0151  -1.8751  -1.3349  -0.8865  -0.7687  -0.7687  -0.3193
     0.5408   0.5717   0.5717   0.6023   0.6023   1.5625   1.5625   1.6758
     1.6758   2.0405   2.2545   2.4698   2.5880   2.6403   2.6403   2.7722
     2.7722   2.7735   2.9222   2.9222   3.3651   3.3651   3.9673   4.3699
     4.5990   5.1790   5.1790   5.4261   5.4813   5.5619   5.5619   5.7509
     5.9669   6.0881

[...]

          k =-0.0754-0.0435 0.0000 ( 24560 PWs)   bands (ev):

[...]

     the Fermi energy is     1.0773 ev

!    total energy              =   -1802.57485411 Ry
     Harris-Foulkes estimate   =   -1802.57481567 Ry
     estimated scf accuracy    <       0.00000070 Ry

     The total energy is the sum of the following terms:

     one-electron contribution =   -8512.99084145 Ry
     hartree contribution      =    4312.98131563 Ry
     xc contribution           =    -807.86406090 Ry
     ewald contribution        =    3205.35503003 Ry
     electric field correction =       0.00000000 Ry
     smearing contrib. (-TS)   =      -0.05629742 Ry

     convergence has been achieved in  16 iterations

 BEEF-vdW xc energy contributions
           1 :   -723.072060317979
           2 :    671.814472035455
           3 :   -581.309798733114
           4 :    470.885927031856
           5 :   -360.471859896772
           6 :    264.724722370885
           7 :   -190.227271735225
           8 :    136.179687127461
           9 :   -97.5170492816044
          10 :    68.5250973551362
          11 :   -45.3203189152754
[...]
     MD5 check sum: b76cf1f7e72655a2b2c53cf6385d7059
     Pseudo is Ultrasoft + core correction, Zval = 13.0
     Generated by new atomic code, or converted to UPF format
     Using radial grid of  899 points,  6 beta functions with:
                l(1) =   0
                l(2) =   0
                l(3) =   1
                l(4) =   1
                l(5) =   2
                l(6) =   2
     Q(r) pseudized with  6 coefficients,  rinner =    1.100   1.100   1.100
                                                       1.100   1.100

     PseudoPot. # 2 for Hf read from file:
     /afs/slac.stanford.edu/u/if/mamunm/psp/gbrv1.5pbe/Hf.UPF
     MD5 check sum: 8ee9378dfe14276e333edf04c5e4aa26
     Pseudo is Ultrasoft + core correction, Zval = 12.0
     Generated by new atomic code, or converted to UPF format
     Using radial grid of  921 points,  8 beta functions with:
                l(1) =   0
                l(2) =   0
                l(3) =   0
                l(4) =   1
                l(5) =   1
                l(6) =   2
                l(7) =   2
                l(8) =   3
     Q(r) pseudized with  6 coefficients,  rinner =    1.200   1.200   1.200
                                                       1.200   1.200   1.200
                                                       1.200

     vdW kernel table read from file vdW_kernel_table
     MD5 check sum: 095c7af220d748ca6e76c0b4c6cfb241

     atomic species   valence    mass     pseudopotential
        Tl1           13.00   204.38000     Tl( 1.00)
        Hf1           12.00   178.49000     Hf( 1.00)

     No symmetry found

   Cartesian axes

     site n.     atom                  positions (alat units)
         1           Tl1 tau(   1) = (   0.0000000   0.0000000  10.0000000  )
         2           Tl1 tau(   2) = (  -1.6584607   2.8725383  10.0000000  )
         3           Tl1 tau(   3) = (   1.6584607   2.8725383  10.0000000  )
         4           Hf1 tau(   4) = (   3.3169215   0.0000000  10.0000000  )
         5           Tl1 tau(   5) = (   3.3169215   1.9150255  12.7082551  )
         6           Tl1 tau(   6) = (   1.6584607   4.7875638  12.7082551  )
         7           Tl1 tau(   7) = (  -1.6584607   4.7875638  12.7082551  )
         8           Hf1 tau(   8) = (   0.0000000   1.9150255  12.7082551  )
         9           Tl1 tau(   9) = (   0.0000104   3.8260110  15.6754998  )
        10           Tl1 tau(  10) = (   1.6549602   0.9595427  15.6754989  )
        11           Tl1 tau(  11) = (   4.9788862   0.9595489  15.6755086  )
        12           Hf1 tau(  12) = (   3.3169294   3.8300495  15.1036241  )

     number of k points=    20  Fermi-Dirac smearing, width (Ry)=  0.0110
                       cart. coord. in units 2pi/alat
        k(    1) = (   0.0000000   0.0000000   0.0000000), wk =   0.0555556
        k(    2) = (   0.0000000   0.0290103   0.0000000), wk =   0.1111111
        k(    3) = (   0.0000000   0.0580207   0.0000000), wk =   0.1111111
        k(    4) = (   0.0000000  -0.0870310   0.0000000), wk =   0.0555556
        k(    5) = (   0.0251237   0.0145052   0.0000000), wk =   0.1111111
        k(    6) = (   0.0251237   0.0435155   0.0000000), wk =   0.1111111
        k(    7) = (   0.0251237   0.0725259   0.0000000), wk =   0.1111111
        k(    8) = (   0.0251237  -0.0725259   0.0000000), wk =   0.1111111
        k(    9) = (   0.0251237  -0.0435155   0.0000000), wk =   0.1111111
        k(   10) = (   0.0251237  -0.0145052   0.0000000), wk =   0.1111111
        k(   11) = (   0.0502474   0.0290103   0.0000000), wk =   0.1111111
        k(   12) = (   0.0502474   0.0580207   0.0000000), wk =   0.1111111
        k(   13) = (   0.0502474   0.0870310   0.0000000), wk =   0.1111111
        k(   14) = (   0.0502474  -0.0580207   0.0000000), wk =   0.1111111
        k(   15) = (   0.0502474  -0.0290103   0.0000000), wk =   0.1111111
        k(   16) = (   0.0502474  -0.0000000   0.0000000), wk =   0.1111111
        k(   17) = (  -0.0753711  -0.0435155   0.0000000), wk =   0.0555556
        k(   18) = (  -0.0753711  -0.0145052   0.0000000), wk =   0.1111111
        k(   19) = (  -0.0753711   0.0145052   0.0000000), wk =   0.1111111
        k(   20) = (  -0.0753711  -0.1305466   0.0000000), wk =   0.0555556

     Largest allocated arrays     est. size (Mb)     dimensions
     Largest temporary arrays     est. size (Mb)     dimensions

     Check: negative/imaginary core charge=   -0.000002    0.000000

     Initial potential from superposition of free atoms
     Check: negative starting charge=   -0.777530

     starting charge  146.95620, renormalised to  153.00000

[...]

     *
     * You are using vdW-DF for exchange-correlation in this calculation.
     * Please cite the following three references that made this development
     * possible:
     *
     *   M. Dion, H. Rydberg, E. Schroder, D. C. Langreth, and
     *   B. I. Lundqvist, Phys. Rev. Lett. 92, 246401 (2004).
     *
     *   T. Thonhauser, V. R. Cooper, S. Li, A. Puzder, P. Hyldgaard, and
     *   D. C. Langreth, Phys. Rev. B 76, 125112 (2007).
     *
     *   G. Roman-Perez and J. M. Soler, Phys. Rev. Lett. 103, 096102 (2009).
     *
     *
     * If you are using vdW-DF2, please also cite:
     *
     *   K. Lee, E. D. Murray, L. Kong, B. I. Lundqvist, and
     *   D. C. Langreth, Phys. Rev. B 82, 081101(R) (2010).
     *
     *
     * If you are calculating the stress with vdW-DF, please also cite:
     *
     *   R. Sabatini, E. Kucukbenli, B. Kolb, T. Thonhauser, and
     *   S. de Gironcoli, J. Phys.: Condens. Matter 24, 424209 (2012).
     *

     Carrying out vdW-DF run using the following parameters:

     Nqs =      20    Nr_points =    1024   r_max =   100.000
     q_mesh =
               0.00001000     0.04494208     0.09755937     0.15916263
               0.23128650     0.31572767     0.41458969     0.53033537
               0.66584808     0.82450364     1.01025438     1.22772762
               1.48234092     1.78043706     2.12944203     2.53805004
               3.01644009     3.57652955     4.23227104     5.00000000

     Gradients computed in reciprocal space

[...]

     Starting wfc are  120 randomized atomic wfcs

     Self-consistent Calculation

[...]

     total energy              =   -1802.60706715 Ry
     Harris-Foulkes estimate   =   -1802.60706237 Ry
     estimated scf accuracy    <       0.00000380 Ry

     iteration # 19     ecut=    36.75 Ry     beta=0.10
     Davidson diagonalization with overlap
     ethr =  2.48E-09,  avg # of iterations =  2.0

[...]

     negative rho (up, down):  8.239E-01 0.000E+00

     Adding external electric field

     Computed dipole along edir(3) :
        Dipole                0.0261 Ry au,          0.0663 Debye
        Dipole field          0.0001 Ry au

        Potential amp.       -0.0047 Ry
        Total length         46.8295 bohr

     End of self-consistent calculation

[...]

          k = 0.0502-0.0000 0.0000 ( 24594 PWs)   bands (ev):

[...]

          k =-0.0754-0.1305 0.0000 ( 24560 PWs)   bands (ev):

   -62.7694 -62.6320 -62.5911 -31.3062 -31.1529 -31.1523 -31.1478 -31.0539
   -31.0538 -31.0485 -31.0474 -31.0209 -10.9426 -10.8450 -10.8386 -10.8109
   -10.7885 -10.7572 -10.7199 -10.6934 -10.6879 -10.6738 -10.6693 -10.6482
   -10.6288 -10.6136 -10.5886 -10.5697 -10.5603 -10.5239 -10.5167 -10.4994
   -10.4960 -10.4862 -10.4758 -10.4719 -10.4628 -10.4585 -10.4492 -10.4356
   -10.4327 -10.4230 -10.4140 -10.4100 -10.3965 -10.3931 -10.3766 -10.3732
   -10.3402 -10.3389 -10.3361 -10.3261 -10.2940 -10.2516 -10.1999 -10.1449
   -10.1063  -7.2569  -6.9246  -5.9099  -5.7138  -4.9628  -4.7623  -4.4486
    -3.7514  -2.7524  -2.2686  -1.5493  -0.5862   0.1299   0.1631   0.2715
     0.4921   0.5827   0.9586   0.9829   1.2601   1.4170   2.0238   2.0240
     2.2954   2.3513   2.4175   2.5515   2.6437   2.7267   2.8721   2.9417
     3.0357   3.3972   3.5647   3.5678   3.8002   4.0099   4.3400   4.4459
     4.7016   4.9482   5.2877   5.3653   5.4477   5.4786   5.6135   5.7816
     6.1584   6.1638

     the Fermi energy is     1.0883 ev

!    total energy              =   -1802.60708430 Ry
     Harris-Foulkes estimate   =   -1802.60706771 Ry
     estimated scf accuracy    <       0.00000066 Ry

     The total energy is the sum of the following terms:

     one-electron contribution =   -8353.73943234 Ry
     hartree contribution      =    4233.48185356 Ry
     xc contribution           =    -807.80985111 Ry
     ewald contribution        =    3125.51450727 Ry
     electric field correction =       0.00000131 Ry
     smearing contrib. (-TS)   =      -0.05416298 Ry

     convergence has been achieved in  19 iterations

 BEEF-vdW xc energy contributions
           1 :   -723.009484094239
           2 :    671.694822721331
           3 :   -581.136210219645
           4 :    470.724536972172
           5 :   -360.396038495622
           6 :    264.754661310337
           7 :   -190.311366616800
           8 :    136.226197499405
           9 :   -97.4522726322801
          10 :    68.3428725768737
          11 :   -45.0917593846888
          12 :    26.2953486385628
          13 :   -12.0454071316680
          14 :    2.52930142038997
          15 :    2.90273134120014
          16 :   -5.80160997984171
          17 :    7.98309570045581
          18 :   -10.7190049002976
          19 :    14.2388228632252
          20 :   -17.7807893813498
          21 :    20.1111870202532
          22 :   -20.2352036364089
          23 :    17.9539381031560
          24 :   -14.0274907853030
          25 :    9.87636679693503
          26 :   -6.97097518470787
          27 :    6.19118962951904
          28 :   -7.46291690481110
          29 :    9.84148008101977
          30 :   -12.0007054702791
          31 :   -56.1879450261441
          32 :   -40.9473510372258

     Forces acting on atoms (Ry/au):

     negative rho (up, down):  8.239E-01 0.000E+00
     atom    1 type  1   force =    -0.00000047    0.00537437   -0.02342306
     atom    2 type  1   force =     0.00465484   -0.00268541   -0.02342719
     atom    3 type  1   force =    -0.00465723   -0.00268399   -0.02342968
     atom    4 type  2   force =    -0.00000079    0.00000035    0.05289666
     atom    5 type  1   force =     0.00000281   -0.01405442    0.00223737
     atom    6 type  1   force =    -0.01217261    0.00702666    0.00223503
     atom    7 type  1   force =     0.01217412    0.00702701    0.00223529
     atom    8 type  2   force =     0.00000026   -0.00000123    0.00826105
     atom    9 type  1   force =    -0.00000273   -0.00124183    0.00077702
     atom   10 type  1   force =    -0.00107537    0.00061853    0.00077946
     atom   11 type  1   force =     0.00107665    0.00061928    0.00077898
     atom   12 type  2   force =     0.00000051    0.00000069    0.00007908

     Total force =     0.072204     Total SCF correction =     0.002849

     entering subroutine stress ...

     negative rho (up, down):  8.239E-01 0.000E+00
          total   stress  (Ry/bohr**3)                   (kbar)     P=  -12.96
  -0.00011840  -0.00000000  -0.00000000        -17.42     -0.00     -0.00
  -0.00000000  -0.00011840  -0.00000000         -0.00    -17.42     -0.00
  -0.00000000  -0.00000000  -0.00002742         -0.00     -0.00     -4.03

 !ASE

     Writing output data file calc.save

     General routines

     Parallel routines

   This run was terminated on:   4:18:35   2Jan2019

   JOB DONE.
Job  /afs/slac/g/suncat/bin/suncat-tsmpirun -x LD_LIBRARY_PATH -wdir /scratch/qe649248_GGlVc pw.x -in pw.inp

TID   HOST_NAME   COMMAND_LINE            STATUS            TERMINATION_TIME
00000 suncat0146 pw.x -in pw.inp   Done                     01/02/2019 04:18:35
00001 suncat0146 pw.x -in pw.inp   Done                     01/02/2019 04:18:35
00002 suncat0146 pw.x -in pw.inp   Done                     01/02/2019 04:18:35
00003 suncat0146 pw.x -in pw.inp   Done                     01/02/2019 04:18:35
00004 suncat0146 pw.x -in pw.inp   Done                     01/02/2019 04:18:35
00005 suncat0146 pw.x -in pw.inp   Done                     01/02/2019 04:18:35
00006 suncat0146 pw.x -in pw.inp   Done                     01/02/2019 04:18:35
00007 suncat0146 pw.x -in pw.inp   Done                     01/02/2019 04:18:35
00008 suncat0136 pw.x -in pw.inp   Done                     01/02/2019 04:18:35
00009 suncat0136 pw.x -in pw.inp   Done                     01/02/2019 04:18:35
00010 suncat0136 pw.x -in pw.inp   Done                     01/02/2019 04:18:35
00011 suncat0136 pw.x -in pw.inp   Done                     01/02/2019 04:18:35
00012 suncat0136 pw.x -in pw.inp   Done                     01/02/2019 04:18:35
00013 suncat0136 pw.x -in pw.inp   Done                     01/02/2019 04:18:35
00014 suncat0136 pw.x -in pw.inp   Done                     01/02/2019 04:18:35
00015 suncat0136 pw.x -in pw.inp   Done                     01/02/2019 04:18:35
00016 suncat0248 pw.x -in pw.inp   Done                     01/02/2019 04:18:35
00017 suncat0248 pw.x -in pw.inp   Done                     01/02/2019 04:18:35
00018 suncat0248 pw.x -in pw.inp   Done                     01/02/2019 04:18:35
00019 suncat0248 pw.x -in pw.inp   Done                     01/02/2019 04:18:35
00020 suncat0248 pw.x -in pw.inp   Done                     01/02/2019 04:18:35
00021 suncat0248 pw.x -in pw.inp   Done                     01/02/2019 04:18:35
00022 suncat0248 pw.x -in pw.inp   Done                     01/02/2019 04:18:35
00023 suncat0248 pw.x -in pw.inp   Done                     01/02/2019 04:18:35
00024 suncat0247 pw.x -in pw.inp   Done                     01/02/2019 04:18:35
00025 suncat0247 pw.x -in pw.inp   Done                     01/02/2019 04:18:35
00026 suncat0247 pw.x -in pw.inp   Done                     01/02/2019 04:18:35
00027 suncat0247 pw.x -in pw.inp   Done                     01/02/2019 04:18:35
00028 suncat0247 pw.x -in pw.inp   Done                     01/02/2019 04:18:35
00029 suncat0247 pw.x -in pw.inp   Done                     01/02/2019 04:18:35
00030 suncat0247 pw.x -in pw.inp   Done                     01/02/2019 04:18:35
00031 suncat0247 pw.x -in pw.inp   Done                     01/02/2019 04:18:35
00032 suncat0246 pw.x -in pw.inp   Done                     01/02/2019 04:18:35
00033 suncat0246 pw.x -in pw.inp   Done                     01/02/2019 04:18:35
00034 suncat0246 pw.x -in pw.inp   Done                     01/02/2019 04:18:35
00035 suncat0246 pw.x -in pw.inp   Done                     01/02/2019 04:18:35
00036 suncat0246 pw.x -in pw.inp   Done                     01/02/2019 04:18:35
00037 suncat0246 pw.x -in pw.inp   Done                     01/02/2019 04:18:35
00038 suncat0246 pw.x -in pw.inp   Done                     01/02/2019 04:18:35
00039 suncat0246 pw.x -in pw.inp   Done                     01/02/2019 04:18:35
00040 suncat0245 pw.x -in pw.inp   Done                     01/02/2019 04:18:35
00041 suncat0245 pw.x -in pw.inp   Done                     01/02/2019 04:18:35
00042 suncat0245 pw.x -in pw.inp   Done                     01/02/2019 04:18:35
00043 suncat0245 pw.x -in pw.inp   Done                     01/02/2019 04:18:35
00044 suncat0245 pw.x -in pw.inp   Done                     01/02/2019 04:18:35
00045 suncat0245 pw.x -in pw.inp   Done                     01/02/2019 04:18:35
00046 suncat0245 pw.x -in pw.inp   Done                     01/02/2019 04:18:35
00047 suncat0245 pw.x -in pw.inp   Done                     01/02/2019 04:18:35
00048 suncat0214 pw.x -in pw.inp   Done                     01/02/2019 04:18:35
00049 suncat0214 pw.x -in pw.inp   Done                     01/02/2019 04:18:35
00050 suncat0214 pw.x -in pw.inp   Done                     01/02/2019 04:18:35
00051 suncat0214 pw.x -in pw.inp   Done                     01/02/2019 04:18:35
00052 suncat0214 pw.x -in pw.inp   Done                     01/02/2019 04:18:35
00053 suncat0214 pw.x -in pw.inp   Done                     01/02/2019 04:18:35
00054 suncat0214 pw.x -in pw.inp   Done                     01/02/2019 04:18:35
00055 suncat0214 pw.x -in pw.inp   Done                     01/02/2019 04:18:35
00056 suncat0213 pw.x -in pw.inp   Done                     01/02/2019 04:18:35
00057 suncat0213 pw.x -in pw.inp   Done                     01/02/2019 04:18:35
00058 suncat0213 pw.x -in pw.inp   Done                     01/02/2019 04:18:35
00059 suncat0213 pw.x -in pw.inp   Done                     01/02/2019 04:18:35
00060 suncat0213 pw.x -in pw.inp   Done                     01/02/2019 04:18:35
00061 suncat0213 pw.x -in pw.inp   Done                     01/02/2019 04:18:35
00062 suncat0213 pw.x -in pw.inp   Done                     01/02/2019 04:18:35
00063 suncat0213 pw.x -in pw.inp   Done                     01/02/2019 04:18:35