     Program PWSCF v.5.1rc2 (svn rev. 11289) starts on  2Jan2019 at 15:20:32

     Current dimensions of program PWSCF are:
     Max number of different atomic species (ntypx) = 10
     Max number of k-points (npk) =  40000
     Max angular momentum in pseudopotentials (lmaxx) =  3
     Presently stress not available with electric field

     IMPORTANT: XC functional enforced from input :
     Exchange-correlation      = BEEF-VDW ( 1  4 27 13 2)
     Any further DFT definition will be discarded
     Please, verify this is what you really want

     Subspace diagonalization in iterative solution of the eigenvalue problem:
     a serial algorithm will be used

     Generating pointlists ...
     new r_m :   0.4125 (alat units)  0.7795 (a.u.) for type    1
     new r_m :   0.4125 (alat units)  0.7795 (a.u.) for type    2

     bravais-lattice index     =            0
     lattice parameter (alat)  =       1.8897  a.u.
     unit-cell volume          =    4104.7938 (a.u.)^3
     number of atoms/cell      =           12
     number of atomic types    =            2
     number of electrons       =       228.00
     number of Kohn-Sham states=          144
     kinetic-energy cutoff     =      36.7493  Ry
     charge density cutoff     =     367.4932  Ry
     convergence threshold     =      1.0E-06
     mixing beta               =       0.1000
     number of iterations used =           10  plain     mixing
     Exchange-correlation      = BEEF-VDW ( 1  4 27 13 2)
     nstep                     =           50

     celldm(1)=   1.889726  celldm(2)=   0.000000  celldm(3)=   0.000000
     celldm(4)=   0.000000  celldm(5)=   0.000000  celldm(6)=   0.000000

     crystal axes: (cart. coord. in units of alat)
               a(1) = (   5.367165   0.000000   0.000000 )
               a(2) = (  -2.683583   4.648102   0.000000 )
               a(3) = (   0.000000   0.000000  24.382272 )

     reciprocal axes: (cart. coord. in units 2 pi/alat)
               b(1) = (  0.186318  0.107571  0.000000 )
               b(2) = (  0.000000  0.215142  0.000000 )
               b(3) = (  0.000000  0.000000  0.041013 )

     PseudoPot. # 1 for Zn read from file:
     /afs/slac.stanford.edu/u/if/mamunm/psp/gbrv1.5pbe/Zn.UPF
     MD5 check sum: df62231357ef9e81f77b2b3087fa5675
     Pseudo is Ultrasoft, Zval = 20.0
     Generated by new atomic code, or converted to UPF format
     Using radial grid of  943 points,  6 beta functions with:
                l(1) =   0
                l(2) =   0
                l(3) =   1
                l(4) =   1
                l(5) =   2
                l(6) =   2
     Q(r) pseudized with  8 coefficients,  rinner =    1.100   1.100   1.100
                                                       1.100   1.100

     PseudoPot. # 2 for Fe read from file:
     /afs/slac.stanford.edu/u/if/mamunm/psp/gbrv1.5pbe/Fe.UPF
     MD5 check sum: a130daea23fe5165f5d574ae7f82ed95
     Pseudo is Ultrasoft + core correction, Zval = 16.0
     Generated by new atomic code, or converted to UPF format
     Using radial grid of  861 points,  6 beta functions with:
                l(1) =   0
                l(2) =   0
                l(3) =   1
                l(4) =   1
                l(5) =   2
                l(6) =   2
     Q(r) pseudized with  8 coefficients,  rinner =    1.000   1.000   1.000
                                                       1.000   1.000

     vdW kernel table read from file vdW_kernel_table
     MD5 check sum: 095c7af220d748ca6e76c0b4c6cfb241

     atomic species   valence    mass     pseudopotential
        Zn1           20.00    65.38000     Zn( 1.00)
        Fe1           16.00    55.84500     Fe( 1.00)

     Starting magnetic structure
     atomic species   magnetization
        Zn1          0.100
        Fe1          0.125

     No symmetry found

   Cartesian axes

     site n.     atom                  positions (alat units)
         1           Zn1 tau(   1) = (   0.0000000   0.0000000  10.0000000  )
         2           Zn1 tau(   2) = (  -1.3417913   2.3240508  10.0000000  )
         3           Zn1 tau(   3) = (   1.3417913   2.3240508  10.0000000  )
         4           Fe1 tau(   4) = (   2.6835827   0.0000000  10.0000000  )
         5           Zn1 tau(   5) = (   2.6835827   1.5493672  12.1911361  )
         6           Zn1 tau(   6) = (   1.3417913   3.8734179  12.1911361  )
         7           Zn1 tau(   7) = (  -1.3417913   3.8734179  12.1911361  )
         8           Fe1 tau(   8) = (   0.0000000   1.5493672  12.1911361  )
         9           Zn1 tau(   9) = (  -0.0000000   3.0987343  14.3822721  )
        10           Zn1 tau(  10) = (   1.3417913   0.7746836  14.3822721  )
        11           Zn1 tau(  11) = (   4.0253740   0.7746836  14.3822721  )
        12           Fe1 tau(  12) = (   2.6835827   3.0987343  14.3822721  )

     number of k points=    40  Fermi-Dirac smearing, width (Ry)=  0.0110
                       cart. coord. in units 2pi/alat
        k(    1) = (   0.0000000   0.0000000   0.0000000), wk =   0.0277778
        k(    2) = (   0.0000000   0.0358569   0.0000000), wk =   0.0555556
        k(    3) = (   0.0000000   0.0717139   0.0000000), wk =   0.0555556
        k(    4) = (   0.0000000  -0.1075708   0.0000000), wk =   0.0277778
        k(    5) = (   0.0310530   0.0179285   0.0000000), wk =   0.0555556
        k(    6) = (   0.0310530   0.0537854   0.0000000), wk =   0.0555556
        k(    7) = (   0.0310530   0.0896423   0.0000000), wk =   0.0555556
        k(    8) = (   0.0310530  -0.0896423   0.0000000), wk =   0.0555556
        k(    9) = (   0.0310530  -0.0537854   0.0000000), wk =   0.0555556
        k(   10) = (   0.0310530  -0.0179285   0.0000000), wk =   0.0555556
        k(   11) = (   0.0621060   0.0358569   0.0000000), wk =   0.0555556
        k(   12) = (   0.0621060   0.0717139   0.0000000), wk =   0.0555556
        k(   13) = (   0.0621060   0.1075708   0.0000000), wk =   0.0555556
        k(   14) = (   0.0621060  -0.0717139   0.0000000), wk =   0.0555556
        k(   15) = (   0.0621060  -0.0358569   0.0000000), wk =   0.0555556
        k(   16) = (   0.0621060   0.0000000   0.0000000), wk =   0.0555556
        k(   17) = (  -0.0931590  -0.0537854   0.0000000), wk =   0.0277778
        k(   18) = (  -0.0931590  -0.0179285   0.0000000), wk =   0.0555556
        k(   19) = (  -0.0931590   0.0179285   0.0000000), wk =   0.0555556
        k(   20) = (  -0.0931590  -0.1613562   0.0000000), wk =   0.0277778
        k(   21) = (   0.0000000   0.0000000   0.0000000), wk =   0.0277778
        k(   22) = (   0.0000000   0.0358569   0.0000000), wk =   0.0555556
        k(   23) = (   0.0000000   0.0717139   0.0000000), wk =   0.0555556
        k(   24) = (   0.0000000  -0.1075708   0.0000000), wk =   0.0277778
        k(   25) = (   0.0310530   0.0179285   0.0000000), wk =   0.0555556
        k(   26) = (   0.0310530   0.0537854   0.0000000), wk =   0.0555556
        k(   27) = (   0.0310530   0.0896423   0.0000000), wk =   0.0555556
        k(   28) = (   0.0310530  -0.0896423   0.0000000), wk =   0.0555556
        k(   29) = (   0.0310530  -0.0537854   0.0000000), wk =   0.0555556
        k(   30) = (   0.0310530  -0.0179285   0.0000000), wk =   0.0555556
        k(   31) = (   0.0621060   0.0358569   0.0000000), wk =   0.0555556
        k(   32) = (   0.0621060   0.0717139   0.0000000), wk =   0.0555556
        k(   33) = (   0.0621060   0.1075708   0.0000000), wk =   0.0555556
        k(   34) = (   0.0621060  -0.0717139   0.0000000), wk =   0.0555556
        k(   35) = (   0.0621060  -0.0358569   0.0000000), wk =   0.0555556
        k(   36) = (   0.0621060   0.0000000   0.0000000), wk =   0.0555556
        k(   37) = (  -0.0931590  -0.0537854   0.0000000), wk =   0.0277778
        k(   38) = (  -0.0931590  -0.0179285   0.0000000), wk =   0.0555556
        k(   39) = (  -0.0931590   0.0179285   0.0000000), wk =   0.0555556
        k(   40) = (  -0.0931590  -0.1613562   0.0000000), wk =   0.0277778

     Largest allocated arrays     est. size (Mb)     dimensions
     Largest temporary arrays     est. size (Mb)     dimensions

     Check: negative/imaginary core charge=   -0.000003    0.000000

     Initial potential from superposition of free atoms
     Check: negative starting charge=(component1):   -0.000380
     Check: negative starting charge=(component2):   -0.000310

     starting charge  224.99871, renormalised to  228.00000

     negative rho (up, down):  3.851E-04 3.145E-04

     *
     * You are using vdW-DF for exchange-correlation in this calculation.
     * Please cite the following three references that made this development
     * possible:
     *
     *   M. Dion, H. Rydberg, E. Schroder, D. C. Langreth, and
     *   B. I. Lundqvist, Phys. Rev. Lett. 92, 246401 (2004).
     *
     *   T. Thonhauser, V. R. Cooper, S. Li, A. Puzder, P. Hyldgaard, and
     *   D. C. Langreth, Phys. Rev. B 76, 125112 (2007).
     *
     *   G. Roman-Perez and J. M. Soler, Phys. Rev. Lett. 103, 096102 (2009).
     *
     *
     * If you are using vdW-DF2, please also cite:
     *
     *   K. Lee, E. D. Murray, L. Kong, B. I. Lundqvist, and
     *   D. C. Langreth, Phys. Rev. B 82, 081101(R) (2010).
     *
     *
     * If you are calculating the stress with vdW-DF, please also cite:
     *
     *   R. Sabatini, E. Kucukbenli, B. Kolb, T. Thonhauser, and
     *   S. de Gironcoli, J. Phys.: Condens. Matter 24, 424209 (2012).
     *

     Carrying out vdW-DF run using the following parameters:

     Nqs =      20    Nr_points =    1024   r_max =   100.000
     q_mesh =
               0.00001000     0.04494208     0.09755937     0.15916263
               0.23128650     0.31572767     0.41458969     0.53033537
               0.66584808     0.82450364     1.01025438     1.22772762
               1.48234092     1.78043706     2.12944203     2.53805004
               3.01644009     3.57652955     4.23227104     5.00000000

     Gradients computed in reciprocal space

     Adding external electric field

     Computed dipole along edir(3) :
        Dipole               -0.0000 Ry au,         -0.0000 Debye
        Dipole field         -0.0000 Ry au

        Potential amp.        0.0000 Ry
        Total length         44.9239 bohr

[...]

     Starting wfc are  156 randomized atomic wfcs

     Self-consistent Calculation

     iteration #  1     ecut=    36.75 Ry     beta=0.10
     Davidson diagonalization with overlap
     ethr =  1.00E-02,  avg # of iterations =  7.4

[...]

     Magnetic moment per site:
     atom:    1    charge:   11.7124    magn:    1.1216    constr:    0.0000
     atom:    2    charge:   11.7124    magn:    1.1216    constr:    0.0000
     atom:    3    charge:   11.7124    magn:    1.1216    constr:    0.0000
     atom:    4    charge:    7.2497    magn:    0.8043    constr:    0.0000
     atom:    5    charge:   11.7116    magn:    1.1109    constr:    0.0000
     atom:    6    charge:   11.7116    magn:    1.1109    constr:    0.0000
     atom:    7    charge:   11.7116    magn:    1.1109    constr:    0.0000
     atom:    8    charge:    7.2415    magn:    0.8032    constr:    0.0000
[...]
        k(    7) = (   0.0310530   0.0896423   0.0000000), wk =   0.0555556
        k(    8) = (   0.0310530  -0.0896423   0.0000000), wk =   0.0555556
        k(    9) = (   0.0310530  -0.0537854   0.0000000), wk =   0.0555556
        k(   10) = (   0.0310530  -0.0179285   0.0000000), wk =   0.0555556
        k(   11) = (   0.0621060   0.0358569   0.0000000), wk =   0.0555556
        k(   12) = (   0.0621060   0.0717139   0.0000000), wk =   0.0555556
        k(   13) = (   0.0621060   0.1075708   0.0000000), wk =   0.0555556
        k(   14) = (   0.0621060  -0.0717139   0.0000000), wk =   0.0555556
        k(   15) = (   0.0621060  -0.0358569   0.0000000), wk =   0.0555556
        k(   16) = (   0.0621060   0.0000000   0.0000000), wk =   0.0555556
        k(   17) = (  -0.0931590  -0.0537854   0.0000000), wk =   0.0277778
        k(   18) = (  -0.0931590  -0.0179285   0.0000000), wk =   0.0555556
        k(   19) = (  -0.0931590   0.0179285   0.0000000), wk =   0.0555556
        k(   20) = (  -0.0931590  -0.1613562   0.0000000), wk =   0.0277778
        k(   21) = (   0.0000000   0.0000000   0.0000000), wk =   0.0277778
        k(   22) = (   0.0000000   0.0358569   0.0000000), wk =   0.0555556
        k(   23) = (   0.0000000   0.0717139   0.0000000), wk =   0.0555556
        k(   24) = (   0.0000000  -0.1075708   0.0000000), wk =   0.0277778
        k(   25) = (   0.0310530   0.0179285   0.0000000), wk =   0.0555556
        k(   26) = (   0.0310530   0.0537854   0.0000000), wk =   0.0555556
        k(   27) = (   0.0310530   0.0896423   0.0000000), wk =   0.0555556
        k(   28) = (   0.0310530  -0.0896423   0.0000000), wk =   0.0555556
        k(   29) = (   0.0310530  -0.0537854   0.0000000), wk =   0.0555556
        k(   30) = (   0.0310530  -0.0179285   0.0000000), wk =   0.0555556
        k(   31) = (   0.0621060   0.0358569   0.0000000), wk =   0.0555556
        k(   32) = (   0.0621060   0.0717139   0.0000000), wk =   0.0555556
        k(   33) = (   0.0621060   0.1075708   0.0000000), wk =   0.0555556
        k(   34) = (   0.0621060  -0.0717139   0.0000000), wk =   0.0555556
        k(   35) = (   0.0621060  -0.0358569   0.0000000), wk =   0.0555556
        k(   36) = (   0.0621060   0.0000000   0.0000000), wk =   0.0555556
        k(   37) = (  -0.0931590  -0.0537854   0.0000000), wk =   0.0277778
        k(   38) = (  -0.0931590  -0.0179285   0.0000000), wk =   0.0555556
        k(   39) = (  -0.0931590   0.0179285   0.0000000), wk =   0.0555556
        k(   40) = (  -0.0931590  -0.1613562   0.0000000), wk =   0.0277778

     Largest allocated arrays     est. size (Mb)     dimensions
     Largest temporary arrays     est. size (Mb)     dimensions

     Check: negative/imaginary core charge=   -0.000003    0.000000

     Initial potential from superposition of free atoms
     Check: negative starting charge=(component1):   -0.000408
     Check: negative starting charge=(component2):   -0.000334

     starting charge  224.99871, renormalised to  228.00000

[...]

     *
     * You are using vdW-DF for exchange-correlation in this calculation.
     * Please cite the following three references that made this development
     * possible:
     *
     *   M. Dion, H. Rydberg, E. Schroder, D. C. Langreth, and
     *   B. I. Lundqvist, Phys. Rev. Lett. 92, 246401 (2004).
     *
     *   T. Thonhauser, V. R. Cooper, S. Li, A. Puzder, P. Hyldgaard, and
     *   D. C. Langreth, Phys. Rev. B 76, 125112 (2007).
     *
     *   G. Roman-Perez and J. M. Soler, Phys. Rev. Lett. 103, 096102 (2009).
     *
     *
     * If you are using vdW-DF2, please also cite:
     *
     *   K. Lee, E. D. Murray, L. Kong, B. I. Lundqvist, and
     *   D. C. Langreth, Phys. Rev. B 82, 081101(R) (2010).
     *
     *
     * If you are calculating the stress with vdW-DF, please also cite:
     *
     *   R. Sabatini, E. Kucukbenli, B. Kolb, T. Thonhauser, and
     *   S. de Gironcoli, J. Phys.: Condens. Matter 24, 424209 (2012).
     *

     Carrying out vdW-DF run using the following parameters:

     Nqs =      20    Nr_points =    1024   r_max =   100.000
     q_mesh =
               0.00001000     0.04494208     0.09755937     0.15916263
               0.23128650     0.31572767     0.41458969     0.53033537
               0.66584808     0.82450364     1.01025438     1.22772762
               1.48234092     1.78043706     2.12944203     2.53805004
               3.01644009     3.57652955     4.23227104     5.00000000

     Gradients computed in reciprocal space

[...]

     Starting wfc are  156 randomized atomic wfcs

     Self-consistent Calculation

[...]

     total energy              =   -4918.91924372 Ry
     Harris-Foulkes estimate   =   -4918.91923971 Ry
     estimated scf accuracy    <       0.00000145 Ry

[...]

     iteration # 27     ecut=    36.75 Ry     beta=0.10
     Davidson diagonalization with overlap
     ethr =  6.36E-10,  avg # of iterations =  2.0

[...]

     negative rho (up, down):  4.791E-04 9.570E-04

[...]

     Adding external electric field

     Computed dipole along edir(3) :
        Dipole               -0.0122 Ry au,         -0.0309 Debye
        Dipole field         -0.0000 Ry au

        Potential amp.        0.0033 Ry
        Total length         44.9239 bohr

     Magnetic moment per site:
     atom:    1    charge:   11.6859    magn:    0.0027    constr:    0.0000
     atom:    2    charge:   11.6859    magn:    0.0027    constr:    0.0000
     atom:    3    charge:   11.6859    magn:    0.0027    constr:    0.0000
     atom:    4    charge:    7.0973    magn:    1.2091    constr:    0.0000
     atom:    5    charge:   11.6752    magn:    0.0032    constr:    0.0000
     atom:    6    charge:   11.6752    magn:    0.0032    constr:    0.0000
     atom:    7    charge:   11.6752    magn:    0.0032    constr:    0.0000
     atom:    8    charge:    7.0891    magn:    1.1405    constr:    0.0000
     atom:    9    charge:   11.6864    magn:    0.0014    constr:    0.0000
     atom:   10    charge:   11.6864    magn:    0.0014    constr:    0.0000
     atom:   11    charge:   11.6864    magn:    0.0014    constr:    0.0000
     atom:   12    charge:    7.0921    magn:    1.1464    constr:    0.0000

     End of self-consistent calculation

 ------ SPIN UP ------------

[...]

 ------ SPIN DOWN ----------

[...]

          k = 0.0621 0.0000 0.0000 ( 15442 PWs)   bands (ev):

[...]

          k =-0.0932-0.1614 0.0000 ( 15426 PWs)   bands (ev):

  -125.8965-125.8959-125.8953-125.7362-125.7356-125.7350-125.6004-125.5998
  -125.5992 -84.8534 -84.8128 -84.7454 -80.0990 -80.0941 -80.0901 -80.0658
   -80.0632 -80.0606 -80.0551 -80.0527 -80.0492 -79.9379 -79.9339 -79.9310
   -79.9153 -79.9116 -79.9078 -79.8890 -79.8868 -79.8837 -79.8027 -79.7980
   -79.7945 -79.7835 -79.7806 -79.7772 -79.7508 -79.7485 -79.7455 -50.9679
   -50.9678 -50.9637 -50.9483 -50.9046 -50.9045 -50.8761 -50.8381 -50.8380
    -7.6535  -7.3824  -7.2913  -7.2377  -7.2000  -7.1353  -7.1150  -7.0817
    -7.0792  -7.0763  -7.0473  -7.0099  -6.9876  -6.9095  -6.8981  -6.8569
    -6.8548  -6.8315  -6.7741  -6.7034  -6.6804  -6.6789  -6.6492  -6.6242
    -6.6167  -6.6052  -6.5999  -6.5843  -6.5609  -6.5412  -6.5319  -6.5114
    -6.5113  -6.4906  -6.4737  -6.4642  -6.4534  -6.3928  -6.3876  -6.3597
    -6.2862  -6.2855  -6.2582  -6.2429  -6.2030  -6.1661  -6.1026  -4.8450
    -4.6142  -3.3607  -2.8561  -2.1985  -1.8435  -1.4526  -1.1673  -0.2626
    -0.0036   0.1004   0.1978   0.2187   0.2471   0.5073   0.6724   0.7124
     1.1270   1.2829   1.3808   1.4950   1.6844   1.8070   2.3698   2.4748
     2.6277   3.0044   4.9674   5.0337   5.1428   5.3324   5.3386   5.6839
     5.7274   5.9550   6.1030   6.1388   6.5716   6.6021   6.8566   6.8970
     7.3507   7.4792   7.5001   7.5339   7.5765   7.6606   8.0754   8.4503

     the Fermi energy is     0.6436 ev

!    total energy              =   -4918.91926002 Ry
     Harris-Foulkes estimate   =   -4918.91924402 Ry
     estimated scf accuracy    <       0.00000071 Ry

     The total energy is the sum of the following terms:

     one-electron contribution =  -34120.93407348 Ry
     hartree contribution      =   17046.61199806 Ry
     xc contribution           =    -481.71749298 Ry
     ewald contribution        =   12637.17236187 Ry
     electric field correction =       0.00000045 Ry
     smearing contrib. (-TS)   =      -0.05205394 Ry

     total magnetization       =     7.14 Bohr mag/cell
     absolute magnetization    =     8.76 Bohr mag/cell

     convergence has been achieved in  27 iterations

 BEEF-vdW xc energy contributions
           1 :   -426.909699818288
           2 :    386.915801340897
           3 :   -319.818423631008
           4 :    245.083747217050
           5 :   -180.012222104282
           6 :    133.288021118184
           7 :   -103.772012263478
           8 :    84.2398910784427
           9 :   -67.1801113776817
          10 :    49.0789092648690
          11 :   -31.1274162493295
          12 :    16.7582020359029
          13 :   -8.30240032406743
          14 :    5.15029911199224
          15 :   -4.36963899944419
          16 :    2.89507125761719
          17 :   0.497651545823942
          18 :   -4.79043813826797
          19 :    7.93487448924486
          20 :   -8.59594363094800
          21 :    7.11375090889095
          22 :   -5.11628189564152
          23 :    4.23829328749571
          24 :   -4.98852030484397
          25 :    6.55647692432353
          26 :   -7.58747833889663
          27 :    7.24464307119479
          28 :   -5.76305071165029
          29 :    4.15384315888309
          30 :   -3.37977178195888
          31 :   -33.8147832060969
          32 :   -23.2560006310910

     Forces acting on atoms (Ry/au):

     negative rho (up, down):  4.791E-04 9.570E-04
     atom    1 type  1   force =     0.00000001    0.00298402   -0.01624313
     atom    2 type  1   force =     0.00258425   -0.00149204   -0.01624295
     atom    3 type  1   force =    -0.00258427   -0.00149209   -0.01624303
     atom    4 type  2   force =    -0.00000003   -0.00000004    0.02269960
     atom    5 type  1   force =     0.00000016   -0.00889842    0.00469500
     atom    6 type  1   force =    -0.00770625    0.00444929    0.00469539
     atom    7 type  1   force =     0.00770631    0.00444907    0.00469471
     atom    8 type  2   force =    -0.00000009   -0.00000006    0.01070384
     atom    9 type  1   force =    -0.00000015   -0.00027883    0.00026022
     atom   10 type  1   force =    -0.00024155    0.00013955    0.00026038
     atom   11 type  1   force =     0.00024148    0.00013970    0.00025986
     atom   12 type  2   force =     0.00000012   -0.00000015    0.00046012

     Total force =     0.041862     Total SCF correction =     0.006197
     SCF correction compared to forces is large: reduce conv_thr to get better values

     entering subroutine stress ...

     negative rho (up, down):  4.791E-04 9.570E-04
          total   stress  (Ry/bohr**3)                   (kbar)     P=  -12.99
  -0.00012570  -0.00000000  -0.00000000        -18.49     -0.00     -0.00
  -0.00000000  -0.00012570   0.00000000         -0.00    -18.49      0.00
  -0.00000000   0.00000000  -0.00001344         -0.00      0.00     -1.98

 !ASE

     Writing output data file calc.save

     General routines

     Parallel routines

   This run was terminated on:  22:20:56   2Jan2019

   JOB DONE.
Job  /afs/slac/g/suncat/bin/suncat-tsmpirun -x LD_LIBRARY_PATH -wdir /scratch/qe649472_5NmYc pw.x -in pw.inp

TID   HOST_NAME   COMMAND_LINE            STATUS            TERMINATION_TIME
00000 suncat0043 pw.x -in pw.inp   Done                     01/02/2019 22:20:56
00001 suncat0043 pw.x -in pw.inp   Done                     01/02/2019 22:20:56
00002 suncat0043 pw.x -in pw.inp   Done                     01/02/2019 22:20:56
00003 suncat0043 pw.x -in pw.inp   Done                     01/02/2019 22:20:56
00004 suncat0043 pw.x -in pw.inp   Done                     01/02/2019 22:20:56
00005 suncat0043 pw.x -in pw.inp   Done                     01/02/2019 22:20:56
00006 suncat0043 pw.x -in pw.inp   Done                     01/02/2019 22:20:56
00007 suncat0043 pw.x -in pw.inp   Done                     01/02/2019 22:20:56
00008 suncat0041 pw.x -in pw.inp   Done                     01/02/2019 22:20:56
00009 suncat0041 pw.x -in pw.inp   Done                     01/02/2019 22:20:56
00010 suncat0041 pw.x -in pw.inp   Done                     01/02/2019 22:20:56
00011 suncat0041 pw.x -in pw.inp   Done                     01/02/2019 22:20:56
00012 suncat0041 pw.x -in pw.inp   Done                     01/02/2019 22:20:56
00013 suncat0041 pw.x -in pw.inp   Done                     01/02/2019 22:20:56
00014 suncat0041 pw.x -in pw.inp   Done                     01/02/2019 22:20:56
00015 suncat0041 pw.x -in pw.inp   Done                     01/02/2019 22:20:56
00016 suncat0039 pw.x -in pw.inp   Done                     01/02/2019 22:20:56
00017 suncat0039 pw.x -in pw.inp   Done                     01/02/2019 22:20:56
00018 suncat0039 pw.x -in pw.inp   Done                     01/02/2019 22:20:56
00019 suncat0039 pw.x -in pw.inp   Done                     01/02/2019 22:20:56
00020 suncat0039 pw.x -in pw.inp   Done                     01/02/2019 22:20:56
00021 suncat0039 pw.x -in pw.inp   Done                     01/02/2019 22:20:56
00022 suncat0039 pw.x -in pw.inp   Done                     01/02/2019 22:20:56
00023 suncat0039 pw.x -in pw.inp   Done                     01/02/2019 22:20:56
00024 suncat0025 pw.x -in pw.inp   Done                     01/02/2019 22:20:56
00025 suncat0025 pw.x -in pw.inp   Done                     01/02/2019 22:20:56
00026 suncat0025 pw.x -in pw.inp   Done                     01/02/2019 22:20:56
00027 suncat0025 pw.x -in pw.inp   Done                     01/02/2019 22:20:56
00028 suncat0025 pw.x -in pw.inp   Done                     01/02/2019 22:20:56
00029 suncat0025 pw.x -in pw.inp   Done                     01/02/2019 22:20:56
00030 suncat0025 pw.x -in pw.inp   Done                     01/02/2019 22:20:56
00031 suncat0025 pw.x -in pw.inp   Done                     01/02/2019 22:20:56
00032 suncat0013 pw.x -in pw.inp   Done                     01/02/2019 22:20:56
00033 suncat0013 pw.x -in pw.inp   Done                     01/02/2019 22:20:56
00034 suncat0013 pw.x -in pw.inp   Done                     01/02/2019 22:20:56
00035 suncat0013 pw.x -in pw.inp   Done                     01/02/2019 22:20:56
00036 suncat0013 pw.x -in pw.inp   Done                     01/02/2019 22:20:56
00037 suncat0013 pw.x -in pw.inp   Done                     01/02/2019 22:20:56
00038 suncat0013 pw.x -in pw.inp   Done                     01/02/2019 22:20:56
00039 suncat0013 pw.x -in pw.inp   Done                     01/02/2019 22:20:56
00040 suncat0008 pw.x -in pw.inp   Done                     01/02/2019 22:20:56
00041 suncat0008 pw.x -in pw.inp   Done                     01/02/2019 22:20:56
00042 suncat0008 pw.x -in pw.inp   Done                     01/02/2019 22:20:56
00043 suncat0008 pw.x -in pw.inp   Done                     01/02/2019 22:20:56
00044 suncat0008 pw.x -in pw.inp   Done                     01/02/2019 22:20:56
00045 suncat0008 pw.x -in pw.inp   Done                     01/02/2019 22:20:56
00046 suncat0008 pw.x -in pw.inp   Done                     01/02/2019 22:20:56
00047 suncat0008 pw.x -in pw.inp   Done                     01/02/2019 22:20:56
00048 suncat0117 pw.x -in pw.inp   Done                     01/02/2019 22:20:56
00049 suncat0117 pw.x -in pw.inp   Done                     01/02/2019 22:20:56
00050 suncat0117 pw.x -in pw.inp   Done                     01/02/2019 22:20:56
00051 suncat0117 pw.x -in pw.inp   Done                     01/02/2019 22:20:56
00052 suncat0117 pw.x -in pw.inp   Done                     01/02/2019 22:20:56
00053 suncat0117 pw.x -in pw.inp   Done                     01/02/2019 22:20:56
00054 suncat0117 pw.x -in pw.inp   Done                     01/02/2019 22:20:56
00055 suncat0117 pw.x -in pw.inp   Done                     01/02/2019 22:20:56
00056 suncat0250 pw.x -in pw.inp   Done                     01/02/2019 22:20:56
00057 suncat0250 pw.x -in pw.inp   Done                     01/02/2019 22:20:56
00058 suncat0250 pw.x -in pw.inp   Done                     01/02/2019 22:20:56
00059 suncat0250 pw.x -in pw.inp   Done                     01/02/2019 22:20:56
00060 suncat0250 pw.x -in pw.inp   Done                     01/02/2019 22:20:56
00061 suncat0250 pw.x -in pw.inp   Done                     01/02/2019 22:20:56
00062 suncat0250 pw.x -in pw.inp   Done                     01/02/2019 22:20:56
00063 suncat0250 pw.x -in pw.inp   Done                     01/02/2019 22:20:56