     Program PWSCF v.5.1rc2 (svn rev. 11289) starts on 27Dec2018 at  5: 7:50

     Current dimensions of program PWSCF are:
     Max number of different atomic species (ntypx) = 10
     Max number of k-points (npk) =  40000
     Max angular momentum in pseudopotentials (lmaxx) =  3
     Presently stress not available with electric field

     IMPORTANT: XC functional enforced from input :
     Exchange-correlation      = BEEF-VDW ( 1  4 27 13 2)
     Any further DFT definition will be discarded
     Please, verify this is what you really want

     Subspace diagonalization in iterative solution of the eigenvalue problem:
     a serial algorithm will be used

     bravais-lattice index     =            0
     lattice parameter (alat)  =       1.8897  a.u.
     unit-cell volume          =    4464.5790 (a.u.)^3
     number of atoms/cell      =           12
     number of atomic types    =            2
     number of electrons       =       186.00
     number of Kohn-Sham states=          123
     kinetic-energy cutoff     =      36.7493  Ry
     charge density cutoff     =     367.4932  Ry
     convergence threshold     =      1.0E-06
     mixing beta               =       0.1000
     number of iterations used =           10  plain     mixing
     Exchange-correlation      = BEEF-VDW ( 1  4 27 13 2)
     nstep                     =           50

     celldm(1)=   1.889726  celldm(2)=   0.000000  celldm(3)=   0.000000
     celldm(4)=   0.000000  celldm(5)=   0.000000  celldm(6)=   0.000000

     crystal axes: (cart. coord. in units of alat)
               a(1) = (   5.577804   0.000000   0.000000 )
               a(2) = (  -2.788902   4.830520   0.000000 )
               a(3) = (   0.000000   0.000000  24.554258 )

     reciprocal axes: (cart. coord. in units 2 pi/alat)
               b(1) = (  0.179282  0.103509  0.000000 )
               b(2) = (  0.000000  0.207017  0.000000 )
               b(3) = (  0.000000  0.000000  0.040726 )

     PseudoPot. # 1 for Mo read from file:
     /afs/slac.stanford.edu/u/if/mamunm/psp/gbrv1.5pbe/Mo.UPF
     MD5 check sum: 30c4dcd161f5d35cd49bb5239c51a633
     Pseudo is Ultrasoft + core correction, Zval = 14.0
     Generated by new atomic code, or converted to UPF format
     Using radial grid of  889 points,  6 beta functions with:
                l(1) =   0
                l(2) =   0
                l(3) =   1
                l(4) =   1
                l(5) =   2
                l(6) =   2
     Q(r) pseudized with  6 coefficients,  rinner =    1.000   1.000   1.000
                                                       1.000   1.000

     PseudoPot. # 2 for Zn read from file:
     /afs/slac.stanford.edu/u/if/mamunm/psp/gbrv1.5pbe/Zn.UPF
     MD5 check sum: df62231357ef9e81f77b2b3087fa5675
     Pseudo is Ultrasoft, Zval = 20.0
     Generated by new atomic code, or converted to UPF format
     Using radial grid of  943 points,  6 beta functions with:
                l(1) =   0
                l(2) =   0
                l(3) =   1
                l(4) =   1
                l(5) =   2
                l(6) =   2
     Q(r) pseudized with  8 coefficients,  rinner =    1.100   1.100   1.100
                                                       1.100   1.100

     vdW kernel table read from file vdW_kernel_table
     MD5 check sum: 095c7af220d748ca6e76c0b4c6cfb241

     atomic species   valence    mass     pseudopotential
        Mo1           14.00    95.95000     Mo( 1.00)
        Zn1           20.00    65.38000     Zn( 1.00)

     No symmetry found

   Cartesian axes

     site n.     atom                  positions (alat units)
         1           Mo1 tau(   1) = (   0.0000000   0.0000000  10.0000000  )
         2           Mo1 tau(   2) = (  -1.3944510   2.4152599  10.0000000  )
         3           Mo1 tau(   3) = (   1.3944510   2.4152599  10.0000000  )
         4           Zn1 tau(   4) = (   2.7889019   0.0000000  10.0000000  )
         5           Mo1 tau(   5) = (   2.7889019   1.6101733  12.2771289  )
         6           Mo1 tau(   6) = (   1.3944510   4.0254332  12.2771289  )
         7           Mo1 tau(   7) = (  -1.3944510   4.0254332  12.2771289  )
         8           Zn1 tau(   8) = (   0.0000000   1.6101733  12.2771289  )
         9           Mo1 tau(   9) = (  -0.0000000   3.2203465  14.5542578  )
        10           Mo1 tau(  10) = (   1.3944510   0.8050866  14.5542578  )
        11           Mo1 tau(  11) = (   4.1833529   0.8050866  14.5542578  )
        12           Zn1 tau(  12) = (   2.7889019   3.2203465  14.5542578  )

     number of k points=    20  Fermi-Dirac smearing, width (Ry)=  0.0110
                       cart. coord. in units 2pi/alat
        k(    1) = (   0.0000000   0.0000000   0.0000000), wk =   0.0555556
        k(    2) = (   0.0000000   0.0345028   0.0000000), wk =   0.1111111
        k(    3) = (   0.0000000   0.0690057   0.0000000), wk =   0.1111111
        k(    4) = (   0.0000000  -0.1035085   0.0000000), wk =   0.0555556
        k(    5) = (   0.0298803   0.0172514   0.0000000), wk =   0.1111111
        k(    6) = (   0.0298803   0.0517543   0.0000000), wk =   0.1111111
        k(    7) = (   0.0298803   0.0862571   0.0000000), wk =   0.1111111
        k(    8) = (   0.0298803  -0.0862571   0.0000000), wk =   0.1111111
        k(    9) = (   0.0298803  -0.0517543   0.0000000), wk =   0.1111111
        k(   10) = (   0.0298803  -0.0172514   0.0000000), wk =   0.1111111
        k(   11) = (   0.0597607   0.0345028   0.0000000), wk =   0.1111111
        k(   12) = (   0.0597607   0.0690057   0.0000000), wk =   0.1111111
        k(   13) = (   0.0597607   0.1035085   0.0000000), wk =   0.1111111
        k(   14) = (   0.0597607  -0.0690057   0.0000000), wk =   0.1111111
        k(   15) = (   0.0597607  -0.0345028   0.0000000), wk =   0.1111111
        k(   16) = (   0.0597607   0.0000000   0.0000000), wk =   0.1111111
        k(   17) = (  -0.0896410  -0.0517543   0.0000000), wk =   0.0555556
        k(   18) = (  -0.0896410  -0.0172514   0.0000000), wk =   0.1111111
        k(   19) = (  -0.0896410   0.0172514   0.0000000), wk =   0.1111111
        k(   20) = (  -0.0896410  -0.1552628   0.0000000), wk =   0.0555556

     Largest allocated arrays     est. size (Mb)     dimensions
     Largest temporary arrays     est. size (Mb)     dimensions

     Initial potential from superposition of free atoms
     Check: negative starting charge=   -0.004307

     starting charge  185.99001, renormalised to  186.00000

     negative rho (up, down):  4.308E-03 0.000E+00

     *
     * You are using vdW-DF for exchange-correlation in this calculation.
     * Please cite the following three references that made this development
     * possible:
     *
     *   M. Dion, H. Rydberg, E. Schroder, D. C. Langreth, and
     *   B. I. Lundqvist, Phys. Rev. Lett. 92, 246401 (2004).
     *
     *   T. Thonhauser, V. R. Cooper, S. Li, A. Puzder, P. Hyldgaard, and
     *   D. C. Langreth, Phys. Rev. B 76, 125112 (2007).
     *
     *   G. Roman-Perez and J. M. Soler, Phys. Rev. Lett. 103, 096102 (2009).
     *
     *
     * If you are using vdW-DF2, please also cite:
     *
     *   K. Lee, E. D. Murray, L. Kong, B. I. Lundqvist, and
     *   D. C. Langreth, Phys. Rev. B 82, 081101(R) (2010).
     *
     *
     * If you are calculating the stress with vdW-DF, please also cite:
     *
     *   R. Sabatini, E. Kucukbenli, B. Kolb, T. Thonhauser, and
     *   S. de Gironcoli, J. Phys.: Condens. Matter 24, 424209 (2012).
     *

     Carrying out vdW-DF run using the following parameters:

     Nqs =      20    Nr_points =    1024   r_max =   100.000
     q_mesh =
               0.00001000     0.04494208     0.09755937     0.15916263
               0.23128650     0.31572767     0.41458969     0.53033537
               0.66584808     0.82450364     1.01025438     1.22772762
               1.48234092     1.78043706     2.12944203     2.53805004
               3.01644009     3.57652955     4.23227104     5.00000000

     Gradients computed in reciprocal space

     Adding external electric field

     Computed dipole along edir(3) :
        Dipole               -0.0000 Ry au,         -0.0000 Debye
        Dipole field         -0.0000 Ry au

        Potential amp.        0.0000 Ry
        Total length         45.2408 bohr

     Starting wfc are  156 randomized atomic wfcs

     Self-consistent Calculation

     iteration #  1     ecut=    36.75 Ry     beta=0.10
     Davidson diagonalization with overlap
     ethr =  1.00E-02,  avg # of iterations =  2.0

[...]

     total energy              =   -2647.58371282 Ry
     Harris-Foulkes estimate   =   -2648.22476634 Ry
     estimated scf accuracy    <       3.67530056 Ry

[...]

     End of self-consistent calculation

          k = 0.0000 0.0000 0.0000 ( 16763 PWs)   bands (ev):

  -124.4821-124.2930-124.2929 -78.6534 -78.6534 -78.6394 -78.4614 -78.4614
   -78.4613 -78.4613 -78.4573 -78.4571 -59.4873 -59.3443 -59.3443 -59.3001
   -59.2801 -59.1729 -59.1729 -59.1677 -59.1677 -34.0760 -33.8239 -33.7839
   -33.7839 -33.7812 -33.6941 -33.6785 -33.6785 -33.4986 -33.4985 -33.3731
   -33.2981 -33.2981 -33.2487 -33.2486 -33.2448 -33.0548 -33.0472 -33.0472
   -33.0163 -33.0036 -33.0036 -32.9595 -32.8022 -32.8022 -32.7959 -32.7959
    -5.6825  -5.6170  -5.6170  -5.5457  -5.5457  -5.4974  -5.3739  -5.3739
    -5.3529  -5.3529  -5.3481  -5.3309  -5.2187  -5.2187  -5.1987  -5.1987
    -4.1561  -3.9015  -3.1525  -2.2893  -2.0267  -1.4176  -1.2745  -1.2745
    -1.0961  -1.0961  -1.0174  -0.8943  -0.8943  -0.6172  -0.6172   0.1416
     0.1416   0.5199   0.5459   0.5459   0.7448   1.2834   1.3283   1.3283
     1.6391   1.8662   1.8662   1.9057   2.1460   2.8207   2.8207   2.9924
     2.9924   3.0111   3.1142   3.1142   3.3792   3.3792   3.5850   3.5850
     3.7955   3.7955   4.0755   4.1457   4.1457   4.6828   4.6828   4.7760
     4.8768   5.2389   5.5575   5.5575   5.7063   5.8341   5.9748   6.0419
     6.0887   6.4001   6.4001

[...]

          k =-0.0896-0.0518 0.0000 ( 16808 PWs)   bands (ev):

[...]

     the Fermi energy is     1.6975 ev

!    total energy              =   -2647.72720948 Ry
     Harris-Foulkes estimate   =   -2647.72720722 Ry
     estimated scf accuracy    <       0.00000079 Ry

     The total energy is the sum of the following terms:

     one-electron contribution =  -20052.59333528 Ry
     hartree contribution      =   10017.33532348 Ry
     xc contribution           =    -310.22313281 Ry
     ewald contribution        =    7697.83474016 Ry
     electric field correction =       0.00000000 Ry
     smearing contrib. (-TS)   =      -0.08080503 Ry

     convergence has been achieved in  15 iterations

 BEEF-vdW xc energy contributions
           1 :   -270.201735485329
           2 :    246.092218364761
           3 :   -205.090207118537
           4 :    158.431777736536
           5 :   -116.878761837103
           6 :    87.0012252499611
           7 :   -69.7971274225031
           8 :    61.8407963455469
           9 :   -57.9853739362807
          10 :    54.0489516792728
          11 :   -48.2676960963595
          12 :    41.1490025553033
          13 :   -34.2716986237604
[...]
     /afs/slac.stanford.edu/u/if/mamunm/psp/gbrv1.5pbe/Mo.UPF
     MD5 check sum: 30c4dcd161f5d35cd49bb5239c51a633
     Pseudo is Ultrasoft + core correction, Zval = 14.0
     Generated by new atomic code, or converted to UPF format
     Using radial grid of  889 points,  6 beta functions with:
                l(1) =   0
                l(2) =   0
                l(3) =   1
                l(4) =   1
                l(5) =   2
                l(6) =   2
     Q(r) pseudized with  6 coefficients,  rinner =    1.000   1.000   1.000
                                                       1.000   1.000

     PseudoPot. # 2 for Zn read from file:
     /afs/slac.stanford.edu/u/if/mamunm/psp/gbrv1.5pbe/Zn.UPF
     MD5 check sum: df62231357ef9e81f77b2b3087fa5675
     Pseudo is Ultrasoft, Zval = 20.0
     Generated by new atomic code, or converted to UPF format
     Using radial grid of  943 points,  6 beta functions with:
                l(1) =   0
                l(2) =   0
                l(3) =   1
                l(4) =   1
                l(5) =   2
                l(6) =   2
     Q(r) pseudized with  8 coefficients,  rinner =    1.100   1.100   1.100
                                                       1.100   1.100

     vdW kernel table read from file vdW_kernel_table
     MD5 check sum: 095c7af220d748ca6e76c0b4c6cfb241

     atomic species   valence    mass     pseudopotential
        Mo1           14.00    95.95000     Mo( 1.00)
        Zn1           20.00    65.38000     Zn( 1.00)

     No symmetry found

   Cartesian axes

     site n.     atom                  positions (alat units)
         1           Mo1 tau(   1) = (   0.0000000   0.0000000  10.0000000  )
         2           Mo1 tau(   2) = (  -1.3944510   2.4152599  10.0000000  )
         3           Mo1 tau(   3) = (   1.3944510   2.4152599  10.0000000  )
         4           Zn1 tau(   4) = (   2.7889019   0.0000000  10.0000000  )
         5           Mo1 tau(   5) = (   2.7889019   1.6101733  12.2771289  )
         6           Mo1 tau(   6) = (   1.3944510   4.0254332  12.2771289  )
         7           Mo1 tau(   7) = (  -1.3944510   4.0254332  12.2771289  )
         8           Zn1 tau(   8) = (   0.0000000   1.6101733  12.2771289  )
         9           Mo1 tau(   9) = (   0.0000190   3.2941843  14.4621027  )
        10           Mo1 tau(  10) = (   1.4584172   0.7681524  14.4621028  )
        11           Mo1 tau(  11) = (   4.1194127   0.7681460  14.4620994  )
        12           Zn1 tau(  12) = (   2.7889245   3.2203303  14.8175736  )

     number of k points=    20  Fermi-Dirac smearing, width (Ry)=  0.0110
                       cart. coord. in units 2pi/alat
        k(    1) = (   0.0000000   0.0000000   0.0000000), wk =   0.0555556
        k(    2) = (   0.0000000   0.0345028   0.0000000), wk =   0.1111111
        k(    3) = (   0.0000000   0.0690057   0.0000000), wk =   0.1111111
        k(    4) = (   0.0000000  -0.1035085   0.0000000), wk =   0.0555556
        k(    5) = (   0.0298803   0.0172514   0.0000000), wk =   0.1111111
        k(    6) = (   0.0298803   0.0517543   0.0000000), wk =   0.1111111
        k(    7) = (   0.0298803   0.0862571   0.0000000), wk =   0.1111111
        k(    8) = (   0.0298803  -0.0862571   0.0000000), wk =   0.1111111
        k(    9) = (   0.0298803  -0.0517543   0.0000000), wk =   0.1111111
        k(   10) = (   0.0298803  -0.0172514   0.0000000), wk =   0.1111111
        k(   11) = (   0.0597607   0.0345028   0.0000000), wk =   0.1111111
        k(   12) = (   0.0597607   0.0690057   0.0000000), wk =   0.1111111
        k(   13) = (   0.0597607   0.1035085   0.0000000), wk =   0.1111111
        k(   14) = (   0.0597607  -0.0690057   0.0000000), wk =   0.1111111
        k(   15) = (   0.0597607  -0.0345028   0.0000000), wk =   0.1111111
        k(   16) = (   0.0597607   0.0000000   0.0000000), wk =   0.1111111
        k(   17) = (  -0.0896410  -0.0517543   0.0000000), wk =   0.0555556
        k(   18) = (  -0.0896410  -0.0172514   0.0000000), wk =   0.1111111
        k(   19) = (  -0.0896410   0.0172514   0.0000000), wk =   0.1111111
        k(   20) = (  -0.0896410  -0.1552628   0.0000000), wk =   0.0555556

     Largest allocated arrays     est. size (Mb)     dimensions
     Largest temporary arrays     est. size (Mb)     dimensions

     Initial potential from superposition of free atoms
     Check: negative starting charge=   -0.004325

     starting charge  185.99001, renormalised to  186.00000

[...]

     *
     * You are using vdW-DF for exchange-correlation in this calculation.
     * Please cite the following three references that made this development
     * possible:
     *
     *   M. Dion, H. Rydberg, E. Schroder, D. C. Langreth, and
     *   B. I. Lundqvist, Phys. Rev. Lett. 92, 246401 (2004).
     *
     *   T. Thonhauser, V. R. Cooper, S. Li, A. Puzder, P. Hyldgaard, and
     *   D. C. Langreth, Phys. Rev. B 76, 125112 (2007).
     *
     *   G. Roman-Perez and J. M. Soler, Phys. Rev. Lett. 103, 096102 (2009).
     *
     *
     * If you are using vdW-DF2, please also cite:
     *
     *   K. Lee, E. D. Murray, L. Kong, B. I. Lundqvist, and
     *   D. C. Langreth, Phys. Rev. B 82, 081101(R) (2010).
     *
     *
     * If you are calculating the stress with vdW-DF, please also cite:
     *
     *   R. Sabatini, E. Kucukbenli, B. Kolb, T. Thonhauser, and
     *   S. de Gironcoli, J. Phys.: Condens. Matter 24, 424209 (2012).
     *

     Carrying out vdW-DF run using the following parameters:

     Nqs =      20    Nr_points =    1024   r_max =   100.000
     q_mesh =
               0.00001000     0.04494208     0.09755937     0.15916263
               0.23128650     0.31572767     0.41458969     0.53033537
               0.66584808     0.82450364     1.01025438     1.22772762
               1.48234092     1.78043706     2.12944203     2.53805004
               3.01644009     3.57652955     4.23227104     5.00000000

     Gradients computed in reciprocal space

[...]

     Starting wfc are  156 randomized atomic wfcs

     Self-consistent Calculation

[...]

     total energy              =   -2647.75151099 Ry
     Harris-Foulkes estimate   =   -2647.75151021 Ry
     estimated scf accuracy    <       0.00000150 Ry

     iteration # 16     ecut=    36.75 Ry     beta=0.10
     Davidson diagonalization with overlap
     ethr =  8.07E-10,  avg # of iterations =  2.0

[...]

     negative rho (up, down):  4.295E-03 0.000E+00

     Adding external electric field

     Computed dipole along edir(3) :
        Dipole               -0.0211 Ry au,         -0.0537 Debye
        Dipole field         -0.0001 Ry au

        Potential amp.        0.0054 Ry
        Total length         45.2408 bohr

     End of self-consistent calculation

[...]

          k = 0.0598 0.0000 0.0000 ( 16772 PWs)   bands (ev):

[...]

          k =-0.0896-0.1553 0.0000 ( 16808 PWs)   bands (ev):

  -124.5436-124.3154-124.1664 -78.7128 -78.7127 -78.7022 -78.4849 -78.4847
   -78.4783 -78.3399 -78.3398 -78.3294 -59.4653 -59.4195 -59.3652 -59.2823
   -59.2496 -59.2353 -59.2038 -59.1739 -59.1418 -33.9693 -33.8583 -33.7756
   -33.7002 -33.6386 -33.6116 -33.6072 -33.5506 -33.5265 -33.4708 -33.3852
   -33.3241 -33.3187 -33.3142 -33.2513 -33.2443 -33.2368 -33.1661 -33.1545
   -33.1018 -33.0710 -33.0320 -33.0148 -32.9713 -32.9667 -32.8649 -32.8027
    -5.6105  -5.5560  -5.5313  -5.5121  -5.5097  -5.3454  -5.2661  -5.2495
    -5.2325  -5.2288  -5.1691  -5.0986  -5.0864  -5.0665  -5.0608  -4.1207
    -3.7030  -2.9098  -2.5261  -2.1636  -2.0527  -1.8491  -1.2878  -1.1229
    -1.0198  -0.8352  -0.6863  -0.6582  -0.6277  -0.3890  -0.3501  -0.0970
     0.0420   0.0724   0.1029   0.5084   0.6200   0.8209   0.8798   0.9070
     0.9621   1.0287   1.1759   1.3417   1.3459   1.5547   1.5811   1.6322
     2.3191   2.4704   2.5918   2.6497   2.7600   2.9697   2.9965   3.1000
     3.1652   3.3114   3.3896   3.5422   3.9706   4.1134   4.2497   4.3846
     4.6245   4.7050   5.4072   5.5845   5.9613   6.7879   6.9355   6.9588
     7.1219   7.4244   7.4689

     the Fermi energy is     1.6676 ev

!    total energy              =   -2647.75151267 Ry
     Harris-Foulkes estimate   =   -2647.75151085 Ry
     estimated scf accuracy    <       0.00000052 Ry

     The total energy is the sum of the following terms:

     one-electron contribution =  -19982.77293393 Ry
     hartree contribution      =    9982.34814197 Ry
     xc contribution           =    -310.34058391 Ry
     ewald contribution        =    7663.08982457 Ry
     electric field correction =       0.00000126 Ry
     smearing contrib. (-TS)   =      -0.07596263 Ry

     convergence has been achieved in  16 iterations

 BEEF-vdW xc energy contributions
           1 :   -270.480898315883
           2 :    246.388301029403
           3 :   -205.411627008661
           4 :    158.768313675282
           5 :   -117.194515834444
           6 :    87.2406131687843
           7 :   -69.9065353550889
           8 :    61.7993973189709
           9 :   -57.8285140697052
          10 :    53.8664452660707
          11 :   -48.1685305870170
          12 :    41.2068595503706
          13 :   -34.4813383869870
          14 :    29.2279532620456
          15 :   -25.7471700853727
          16 :    23.5026844399343
          17 :   -21.6728545046489
          18 :    19.6698354938480
          19 :   -17.3353830913867
          20 :    14.8127489294332
          21 :   -12.3090608015048
          22 :    9.95140706896450
          23 :   -7.80085711183614
          24 :    5.92960179512176
          25 :   -4.43691766947012
          26 :    3.36229557256667
          27 :   -2.57979142419453
          28 :    1.79160417772545
          29 :  -0.670897492947404
          30 :  -0.929060365086684
          31 :   -26.5586507338919
          32 :   -19.6265238971454

     Forces acting on atoms (Ry/au):

     negative rho (up, down):  4.295E-03 0.000E+00
     atom    1 type  1   force =    -0.00000185   -0.01054877    0.02426442
     atom    2 type  1   force =    -0.00913567    0.00527211    0.02426516
     atom    3 type  1   force =     0.00913099    0.00527161    0.02426547
     atom    4 type  2   force =    -0.00000087    0.00000001   -0.03345092
     atom    5 type  1   force =    -0.00000189    0.01181615   -0.00934928
     atom    6 type  1   force =     0.01023210   -0.00591039   -0.00935038
     atom    7 type  1   force =    -0.01023562   -0.00591013   -0.00934981
     atom    8 type  2   force =     0.00002190    0.00001343   -0.01120603
     atom    9 type  1   force =    -0.00000311   -0.00071322   -0.00021401
     atom   10 type  1   force =    -0.00061834    0.00035415   -0.00021445
     atom   11 type  1   force =     0.00061515    0.00035598   -0.00021242
     atom   12 type  2   force =    -0.00000278   -0.00000093    0.00055227

     Total force =     0.063465     Total SCF correction =     0.004617

     entering subroutine stress ...

     negative rho (up, down):  4.295E-03 0.000E+00
          total   stress  (Ry/bohr**3)                   (kbar)     P=  -20.77
  -0.00018508   0.00000001  -0.00000000        -27.23      0.00     -0.00
   0.00000001  -0.00018508   0.00000000          0.00    -27.23      0.00
  -0.00000000   0.00000000  -0.00005336         -0.00      0.00     -7.85

 !ASE

     Writing output data file calc.save

     General routines

     Parallel routines

   This run was terminated on:   6:25:18  27Dec2018

   JOB DONE.
Job  /afs/slac/g/suncat/bin/suncat-tsmpirun -x LD_LIBRARY_PATH -wdir /scratch/qe110165_2arEr pw.x -in pw.inp

TID   HOST_NAME   COMMAND_LINE            STATUS            TERMINATION_TIME
00000 suncat0092 pw.x -in pw.inp   Done                     12/27/2018 06:25:18
00001 suncat0092 pw.x -in pw.inp   Done                     12/27/2018 06:25:18
00002 suncat0092 pw.x -in pw.inp   Done                     12/27/2018 06:25:18
00003 suncat0092 pw.x -in pw.inp   Done                     12/27/2018 06:25:18
00004 suncat0092 pw.x -in pw.inp   Done                     12/27/2018 06:25:18
00005 suncat0092 pw.x -in pw.inp   Done                     12/27/2018 06:25:18
00006 suncat0092 pw.x -in pw.inp   Done                     12/27/2018 06:25:18
00007 suncat0092 pw.x -in pw.inp   Done                     12/27/2018 06:25:18
00008 suncat0075 pw.x -in pw.inp   Done                     12/27/2018 06:25:18
00009 suncat0075 pw.x -in pw.inp   Done                     12/27/2018 06:25:18
00010 suncat0075 pw.x -in pw.inp   Done                     12/27/2018 06:25:18
00011 suncat0075 pw.x -in pw.inp   Done                     12/27/2018 06:25:18
00012 suncat0075 pw.x -in pw.inp   Done                     12/27/2018 06:25:18
00013 suncat0075 pw.x -in pw.inp   Done                     12/27/2018 06:25:18
00014 suncat0075 pw.x -in pw.inp   Done                     12/27/2018 06:25:18
00015 suncat0075 pw.x -in pw.inp   Done                     12/27/2018 06:25:18
00016 suncat0074 pw.x -in pw.inp   Done                     12/27/2018 06:25:18
00017 suncat0074 pw.x -in pw.inp   Done                     12/27/2018 06:25:18
00018 suncat0074 pw.x -in pw.inp   Done                     12/27/2018 06:25:18
00019 suncat0074 pw.x -in pw.inp   Done                     12/27/2018 06:25:18
00020 suncat0074 pw.x -in pw.inp   Done                     12/27/2018 06:25:18
00021 suncat0074 pw.x -in pw.inp   Done                     12/27/2018 06:25:18
00022 suncat0074 pw.x -in pw.inp   Done                     12/27/2018 06:25:18
00023 suncat0074 pw.x -in pw.inp   Done                     12/27/2018 06:25:18
00024 suncat0195 pw.x -in pw.inp   Done                     12/27/2018 06:25:18
00025 suncat0195 pw.x -in pw.inp   Done                     12/27/2018 06:25:18
00026 suncat0195 pw.x -in pw.inp   Done                     12/27/2018 06:25:18
00027 suncat0195 pw.x -in pw.inp   Done                     12/27/2018 06:25:18
00028 suncat0195 pw.x -in pw.inp   Done                     12/27/2018 06:25:18
00029 suncat0195 pw.x -in pw.inp   Done                     12/27/2018 06:25:18
00030 suncat0195 pw.x -in pw.inp   Done                     12/27/2018 06:25:18
00031 suncat0195 pw.x -in pw.inp   Done                     12/27/2018 06:25:18
00032 suncat0003 pw.x -in pw.inp   Done                     12/27/2018 06:25:18
00033 suncat0003 pw.x -in pw.inp   Done                     12/27/2018 06:25:18
00034 suncat0003 pw.x -in pw.inp   Done                     12/27/2018 06:25:18
00035 suncat0003 pw.x -in pw.inp   Done                     12/27/2018 06:25:18
00036 suncat0003 pw.x -in pw.inp   Done                     12/27/2018 06:25:18
00037 suncat0003 pw.x -in pw.inp   Done                     12/27/2018 06:25:18
00038 suncat0003 pw.x -in pw.inp   Done                     12/27/2018 06:25:18
00039 suncat0003 pw.x -in pw.inp   Done                     12/27/2018 06:25:18
00040 suncat0002 pw.x -in pw.inp   Done                     12/27/2018 06:25:18
00041 suncat0002 pw.x -in pw.inp   Done                     12/27/2018 06:25:18
00042 suncat0002 pw.x -in pw.inp   Done                     12/27/2018 06:25:18
00043 suncat0002 pw.x -in pw.inp   Done                     12/27/2018 06:25:18
00044 suncat0002 pw.x -in pw.inp   Done                     12/27/2018 06:25:18
00045 suncat0002 pw.x -in pw.inp   Done                     12/27/2018 06:25:18
00046 suncat0002 pw.x -in pw.inp   Done                     12/27/2018 06:25:18
00047 suncat0002 pw.x -in pw.inp   Done                     12/27/2018 06:25:18
00048 suncat0283 pw.x -in pw.inp   Done                     12/27/2018 06:25:18
00049 suncat0283 pw.x -in pw.inp   Done                     12/27/2018 06:25:18
00050 suncat0283 pw.x -in pw.inp   Done                     12/27/2018 06:25:18
00051 suncat0283 pw.x -in pw.inp   Done                     12/27/2018 06:25:18
00052 suncat0283 pw.x -in pw.inp   Done                     12/27/2018 06:25:18
00053 suncat0283 pw.x -in pw.inp   Done                     12/27/2018 06:25:18
00054 suncat0283 pw.x -in pw.inp   Done                     12/27/2018 06:25:18
00055 suncat0283 pw.x -in pw.inp   Done                     12/27/2018 06:25:18
00056 suncat0282 pw.x -in pw.inp   Done                     12/27/2018 06:25:18
00057 suncat0282 pw.x -in pw.inp   Done                     12/27/2018 06:25:18
00058 suncat0282 pw.x -in pw.inp   Done                     12/27/2018 06:25:18
00059 suncat0282 pw.x -in pw.inp   Done                     12/27/2018 06:25:18
00060 suncat0282 pw.x -in pw.inp   Done                     12/27/2018 06:25:18
00061 suncat0282 pw.x -in pw.inp   Done                     12/27/2018 06:25:18
00062 suncat0282 pw.x -in pw.inp   Done                     12/27/2018 06:25:18
00063 suncat0282 pw.x -in pw.inp   Done                     12/27/2018 06:25:18