     Program PWSCF v.5.1rc2 (svn rev. 11289) starts on 30Dec2018 at 23:34:35

     Current dimensions of program PWSCF are:
     Max number of different atomic species (ntypx) = 10
     Max number of k-points (npk) =  40000
     Max angular momentum in pseudopotentials (lmaxx) =  3
     Presently stress not available with electric field

     IMPORTANT: XC functional enforced from input :
     Exchange-correlation      = BEEF-VDW ( 1  4 27 13 2)
     Any further DFT definition will be discarded
     Please, verify this is what you really want

     Subspace diagonalization in iterative solution of the eigenvalue problem:
     a serial algorithm will be used

     Generating pointlists ...
     new r_m :   0.4125 (alat units)  0.7795 (a.u.) for type    1
     new r_m :   0.4125 (alat units)  0.7795 (a.u.) for type    2

     bravais-lattice index     =            0
     lattice parameter (alat)  =       1.8897  a.u.
     unit-cell volume          =    3582.4990 (a.u.)^3
     number of atoms/cell      =           12
     number of atomic types    =            2
     number of electrons       =       210.00
     number of Kohn-Sham states=          135
     kinetic-energy cutoff     =      36.7493  Ry
     charge density cutoff     =     367.4932  Ry
     convergence threshold     =      1.0E-06
     mixing beta               =       0.1000
     number of iterations used =           10  plain     mixing
     Exchange-correlation      = BEEF-VDW ( 1  4 27 13 2)
     nstep                     =           50

     celldm(1)=   1.889726  celldm(2)=   0.000000  celldm(3)=   0.000000
     celldm(4)=   0.000000  celldm(5)=   0.000000  celldm(6)=   0.000000

     crystal axes: (cart. coord. in units of alat)
               a(1) = (   5.041647   0.000000   0.000000 )
               a(2) = (  -2.520823   4.366194   0.000000 )
               a(3) = (   0.000000   0.000000  24.116487 )

     reciprocal axes: (cart. coord. in units 2 pi/alat)
               b(1) = (  0.198348  0.114516  0.000000 )
               b(2) = (  0.000000  0.229032  0.000000 )
               b(3) = (  0.000000  0.000000  0.041465 )

     PseudoPot. # 1 for Ni read from file:
     /afs/slac.stanford.edu/u/if/mamunm/psp/gbrv1.5pbe/Ni.UPF
     MD5 check sum: 1ee80287db30b12d2bc1f57a5b5d6409
     Pseudo is Ultrasoft + core correction, Zval = 18.0
     Generated by new atomic code, or converted to UPF format
     Using radial grid of  865 points,  6 beta functions with:
                l(1) =   0
                l(2) =   0
                l(3) =   1
                l(4) =   1
                l(5) =   2
                l(6) =   2
     Q(r) pseudized with 10 coefficients,  rinner =    0.980   0.980   0.980
                                                       0.980   0.980

     PseudoPot. # 2 for Fe read from file:
     /afs/slac.stanford.edu/u/if/mamunm/psp/gbrv1.5pbe/Fe.UPF
     MD5 check sum: a130daea23fe5165f5d574ae7f82ed95
     Pseudo is Ultrasoft + core correction, Zval = 16.0
     Generated by new atomic code, or converted to UPF format
     Using radial grid of  861 points,  6 beta functions with:
                l(1) =   0
                l(2) =   0
                l(3) =   1
                l(4) =   1
                l(5) =   2
                l(6) =   2
     Q(r) pseudized with  8 coefficients,  rinner =    1.000   1.000   1.000
                                                       1.000   1.000

     vdW kernel table read from file vdW_kernel_table
     MD5 check sum: 095c7af220d748ca6e76c0b4c6cfb241

     atomic species   valence    mass     pseudopotential
        Ni1           18.00    58.69340     Ni( 1.00)
        Fe1           16.00    55.84500     Fe( 1.00)

     Starting magnetic structure
     atomic species   magnetization
        Ni1          0.111
        Fe1          0.125

     No symmetry found

   Cartesian axes

     site n.     atom                  positions (alat units)
         1           Ni1 tau(   1) = (   0.0000000   0.0000000  10.0000000  )
         2           Ni1 tau(   2) = (  -1.2604116   2.1830970  10.0000000  )
         3           Ni1 tau(   3) = (   1.2604116   2.1830970  10.0000000  )
         4           Fe1 tau(   4) = (   2.5208233   0.0000000  10.0000000  )
         5           Ni1 tau(   5) = (   2.5208233   1.4553980  12.0582436  )
         6           Ni1 tau(   6) = (   1.2604116   3.6384950  12.0582436  )
         7           Ni1 tau(   7) = (  -1.2604116   3.6384950  12.0582436  )
         8           Fe1 tau(   8) = (   0.0000000   1.4553980  12.0582436  )
         9           Ni1 tau(   9) = (  -0.0000000   2.9107960  14.1164872  )
        10           Ni1 tau(  10) = (   1.2604116   0.7276990  14.1164872  )
        11           Ni1 tau(  11) = (   3.7812349   0.7276990  14.1164872  )
        12           Fe1 tau(  12) = (   2.5208233   2.9107960  14.1164872  )

     number of k points=    40  Fermi-Dirac smearing, width (Ry)=  0.0110
                       cart. coord. in units 2pi/alat
        k(    1) = (   0.0000000   0.0000000   0.0000000), wk =   0.0277778
        k(    2) = (   0.0000000   0.0381721   0.0000000), wk =   0.0555556
        k(    3) = (   0.0000000   0.0763441   0.0000000), wk =   0.0555556
        k(    4) = (   0.0000000  -0.1145162   0.0000000), wk =   0.0277778
        k(    5) = (   0.0330580   0.0190860   0.0000000), wk =   0.0555556
        k(    6) = (   0.0330580   0.0572581   0.0000000), wk =   0.0555556
        k(    7) = (   0.0330580   0.0954302   0.0000000), wk =   0.0555556
        k(    8) = (   0.0330580  -0.0954302   0.0000000), wk =   0.0555556
        k(    9) = (   0.0330580  -0.0572581   0.0000000), wk =   0.0555556
        k(   10) = (   0.0330580  -0.0190860   0.0000000), wk =   0.0555556
        k(   11) = (   0.0661160   0.0381721   0.0000000), wk =   0.0555556
        k(   12) = (   0.0661160   0.0763441   0.0000000), wk =   0.0555556
        k(   13) = (   0.0661160   0.1145162   0.0000000), wk =   0.0555556
        k(   14) = (   0.0661160  -0.0763441   0.0000000), wk =   0.0555556
        k(   15) = (   0.0661160  -0.0381721   0.0000000), wk =   0.0555556
        k(   16) = (   0.0661160   0.0000000   0.0000000), wk =   0.0555556
        k(   17) = (  -0.0991739  -0.0572581   0.0000000), wk =   0.0277778
        k(   18) = (  -0.0991739  -0.0190860   0.0000000), wk =   0.0555556
        k(   19) = (  -0.0991739   0.0190860   0.0000000), wk =   0.0555556
        k(   20) = (  -0.0991739  -0.1717743   0.0000000), wk =   0.0277778
        k(   21) = (   0.0000000   0.0000000   0.0000000), wk =   0.0277778
        k(   22) = (   0.0000000   0.0381721   0.0000000), wk =   0.0555556
        k(   23) = (   0.0000000   0.0763441   0.0000000), wk =   0.0555556
        k(   24) = (   0.0000000  -0.1145162   0.0000000), wk =   0.0277778
        k(   25) = (   0.0330580   0.0190860   0.0000000), wk =   0.0555556
        k(   26) = (   0.0330580   0.0572581   0.0000000), wk =   0.0555556
        k(   27) = (   0.0330580   0.0954302   0.0000000), wk =   0.0555556
        k(   28) = (   0.0330580  -0.0954302   0.0000000), wk =   0.0555556
        k(   29) = (   0.0330580  -0.0572581   0.0000000), wk =   0.0555556
        k(   30) = (   0.0330580  -0.0190860   0.0000000), wk =   0.0555556
        k(   31) = (   0.0661160   0.0381721   0.0000000), wk =   0.0555556
        k(   32) = (   0.0661160   0.0763441   0.0000000), wk =   0.0555556
        k(   33) = (   0.0661160   0.1145162   0.0000000), wk =   0.0555556
        k(   34) = (   0.0661160  -0.0763441   0.0000000), wk =   0.0555556
        k(   35) = (   0.0661160  -0.0381721   0.0000000), wk =   0.0555556
        k(   36) = (   0.0661160   0.0000000   0.0000000), wk =   0.0555556
        k(   37) = (  -0.0991739  -0.0572581   0.0000000), wk =   0.0277778
        k(   38) = (  -0.0991739  -0.0190860   0.0000000), wk =   0.0555556
        k(   39) = (  -0.0991739   0.0190860   0.0000000), wk =   0.0555556
        k(   40) = (  -0.0991739  -0.1717743   0.0000000), wk =   0.0277778

     Largest allocated arrays     est. size (Mb)     dimensions
     Largest temporary arrays     est. size (Mb)     dimensions

     Check: negative/imaginary core charge=   -0.000004    0.000000

     Initial potential from superposition of free atoms
     Check: negative starting charge=(component1):   -0.000410
     Check: negative starting charge=(component2):   -0.000328

     starting charge  188.99998, renormalised to  210.00000

     negative rho (up, down):  4.551E-04 3.643E-04

     *
     * You are using vdW-DF for exchange-correlation in this calculation.
     * Please cite the following three references that made this development
     * possible:
     *
     *   M. Dion, H. Rydberg, E. Schroder, D. C. Langreth, and
     *   B. I. Lundqvist, Phys. Rev. Lett. 92, 246401 (2004).
     *
     *   T. Thonhauser, V. R. Cooper, S. Li, A. Puzder, P. Hyldgaard, and
     *   D. C. Langreth, Phys. Rev. B 76, 125112 (2007).
     *
     *   G. Roman-Perez and J. M. Soler, Phys. Rev. Lett. 103, 096102 (2009).
     *
     *
     * If you are using vdW-DF2, please also cite:
     *
     *   K. Lee, E. D. Murray, L. Kong, B. I. Lundqvist, and
     *   D. C. Langreth, Phys. Rev. B 82, 081101(R) (2010).
     *
     *
     * If you are calculating the stress with vdW-DF, please also cite:
     *
     *   R. Sabatini, E. Kucukbenli, B. Kolb, T. Thonhauser, and
     *   S. de Gironcoli, J. Phys.: Condens. Matter 24, 424209 (2012).
     *

     Carrying out vdW-DF run using the following parameters:

     Nqs =      20    Nr_points =    1024   r_max =   100.000
     q_mesh =
               0.00001000     0.04494208     0.09755937     0.15916263
               0.23128650     0.31572767     0.41458969     0.53033537
               0.66584808     0.82450364     1.01025438     1.22772762
               1.48234092     1.78043706     2.12944203     2.53805004
               3.01644009     3.57652955     4.23227104     5.00000000

     Gradients computed in reciprocal space

     Adding external electric field

     Computed dipole along edir(3) :
        Dipole                0.0000 Ry au,          0.0000 Debye
        Dipole field          0.0000 Ry au

        Potential amp.       -0.0000 Ry
        Total length         44.4342 bohr

[...]

     Starting wfc are  156 randomized atomic wfcs

     Self-consistent Calculation

     iteration #  1     ecut=    36.75 Ry     beta=0.10
     Davidson diagonalization with overlap
     ethr =  1.00E-02,  avg # of iterations =  7.1

[...]

     Magnetic moment per site:
     atom:    1    charge:    9.8513    magn:    1.0429    constr:    0.0000
     atom:    2    charge:    9.8513    magn:    1.0429    constr:    0.0000
     atom:    3    charge:    9.8513    magn:    1.0429    constr:    0.0000
     atom:    4    charge:    7.5108    magn:    0.8936    constr:    0.0000
     atom:    5    charge:    9.8469    magn:    1.0420    constr:    0.0000
     atom:    6    charge:    9.8469    magn:    1.0420    constr:    0.0000
     atom:    7    charge:    9.8469    magn:    1.0420    constr:    0.0000
     atom:    8    charge:    7.5129    magn:    0.8959    constr:    0.0000
[...]
        k(    6) = (   0.0330580   0.0572581   0.0000000), wk =   0.0555556
        k(    7) = (   0.0330580   0.0954302   0.0000000), wk =   0.0555556
        k(    8) = (   0.0330580  -0.0954302   0.0000000), wk =   0.0555556
        k(    9) = (   0.0330580  -0.0572581   0.0000000), wk =   0.0555556
        k(   10) = (   0.0330580  -0.0190860   0.0000000), wk =   0.0555556
        k(   11) = (   0.0661160   0.0381721   0.0000000), wk =   0.0555556
        k(   12) = (   0.0661160   0.0763441   0.0000000), wk =   0.0555556
        k(   13) = (   0.0661160   0.1145162   0.0000000), wk =   0.0555556
        k(   14) = (   0.0661160  -0.0763441   0.0000000), wk =   0.0555556
        k(   15) = (   0.0661160  -0.0381721   0.0000000), wk =   0.0555556
        k(   16) = (   0.0661160   0.0000000   0.0000000), wk =   0.0555556
        k(   17) = (  -0.0991739  -0.0572581   0.0000000), wk =   0.0277778
        k(   18) = (  -0.0991739  -0.0190860   0.0000000), wk =   0.0555556
        k(   19) = (  -0.0991739   0.0190860   0.0000000), wk =   0.0555556
        k(   20) = (  -0.0991739  -0.1717743   0.0000000), wk =   0.0277778
        k(   21) = (   0.0000000   0.0000000   0.0000000), wk =   0.0277778
        k(   22) = (   0.0000000   0.0381721   0.0000000), wk =   0.0555556
        k(   23) = (   0.0000000   0.0763441   0.0000000), wk =   0.0555556
        k(   24) = (   0.0000000  -0.1145162   0.0000000), wk =   0.0277778
        k(   25) = (   0.0330580   0.0190860   0.0000000), wk =   0.0555556
        k(   26) = (   0.0330580   0.0572581   0.0000000), wk =   0.0555556
        k(   27) = (   0.0330580   0.0954302   0.0000000), wk =   0.0555556
        k(   28) = (   0.0330580  -0.0954302   0.0000000), wk =   0.0555556
        k(   29) = (   0.0330580  -0.0572581   0.0000000), wk =   0.0555556
        k(   30) = (   0.0330580  -0.0190860   0.0000000), wk =   0.0555556
        k(   31) = (   0.0661160   0.0381721   0.0000000), wk =   0.0555556
        k(   32) = (   0.0661160   0.0763441   0.0000000), wk =   0.0555556
        k(   33) = (   0.0661160   0.1145162   0.0000000), wk =   0.0555556
        k(   34) = (   0.0661160  -0.0763441   0.0000000), wk =   0.0555556
        k(   35) = (   0.0661160  -0.0381721   0.0000000), wk =   0.0555556
        k(   36) = (   0.0661160   0.0000000   0.0000000), wk =   0.0555556
        k(   37) = (  -0.0991739  -0.0572581   0.0000000), wk =   0.0277778
        k(   38) = (  -0.0991739  -0.0190860   0.0000000), wk =   0.0555556
        k(   39) = (  -0.0991739   0.0190860   0.0000000), wk =   0.0555556
        k(   40) = (  -0.0991739  -0.1717743   0.0000000), wk =   0.0277778

     Largest allocated arrays     est. size (Mb)     dimensions
     Largest temporary arrays     est. size (Mb)     dimensions

     Check: negative/imaginary core charge=   -0.000004    0.000000

     Initial potential from superposition of free atoms
     Check: negative starting charge=(component1):   -0.000420
     Check: negative starting charge=(component2):   -0.000336

     starting charge  188.99998, renormalised to  210.00000

[...]

     *
     * You are using vdW-DF for exchange-correlation in this calculation.
     * Please cite the following three references that made this development
     * possible:
     *
     *   M. Dion, H. Rydberg, E. Schroder, D. C. Langreth, and
     *   B. I. Lundqvist, Phys. Rev. Lett. 92, 246401 (2004).
     *
     *   T. Thonhauser, V. R. Cooper, S. Li, A. Puzder, P. Hyldgaard, and
     *   D. C. Langreth, Phys. Rev. B 76, 125112 (2007).
     *
     *   G. Roman-Perez and J. M. Soler, Phys. Rev. Lett. 103, 096102 (2009).
     *
     *
     * If you are using vdW-DF2, please also cite:
     *
     *   K. Lee, E. D. Murray, L. Kong, B. I. Lundqvist, and
     *   D. C. Langreth, Phys. Rev. B 82, 081101(R) (2010).
     *
     *
     * If you are calculating the stress with vdW-DF, please also cite:
     *
     *   R. Sabatini, E. Kucukbenli, B. Kolb, T. Thonhauser, and
     *   S. de Gironcoli, J. Phys.: Condens. Matter 24, 424209 (2012).
     *

     Carrying out vdW-DF run using the following parameters:

     Nqs =      20    Nr_points =    1024   r_max =   100.000
     q_mesh =
               0.00001000     0.04494208     0.09755937     0.15916263
               0.23128650     0.31572767     0.41458969     0.53033537
               0.66584808     0.82450364     1.01025438     1.22772762
               1.48234092     1.78043706     2.12944203     2.53805004
               3.01644009     3.57652955     4.23227104     5.00000000

     Gradients computed in reciprocal space

[...]

     Starting wfc are  156 randomized atomic wfcs

     Self-consistent Calculation

[...]

     total energy              =   -3853.82548157 Ry
     Harris-Foulkes estimate   =   -3853.82548058 Ry
     estimated scf accuracy    <       0.00000127 Ry

[...]

     iteration # 42     ecut=    36.75 Ry     beta=0.10
     Davidson diagonalization with overlap
     ethr =  5.25E-10,  avg # of iterations =  1.1

[...]

     negative rho (up, down):  9.179E-04 7.682E-04

[...]

     Adding external electric field

     Computed dipole along edir(3) :
        Dipole                0.0067 Ry au,          0.0170 Debye
        Dipole field          0.0000 Ry au

        Potential amp.       -0.0021 Ry
        Total length         44.4342 bohr

     Magnetic moment per site:
     atom:    1    charge:    9.3481    magn:    0.4322    constr:    0.0000
     atom:    2    charge:    9.3481    magn:    0.4322    constr:    0.0000
     atom:    3    charge:    9.3481    magn:    0.4322    constr:    0.0000
     atom:    4    charge:    7.0891    magn:    1.4400    constr:    0.0000
     atom:    5    charge:    9.3395    magn:    0.4677    constr:    0.0000
     atom:    6    charge:    9.3396    magn:    0.4677    constr:    0.0000
     atom:    7    charge:    9.3395    magn:    0.4677    constr:    0.0000
     atom:    8    charge:    7.0808    magn:    1.4269    constr:    0.0000
     atom:    9    charge:    9.3480    magn:    0.4347    constr:    0.0000
     atom:   10    charge:    9.3480    magn:    0.4347    constr:    0.0000
     atom:   11    charge:    9.3480    magn:    0.4347    constr:    0.0000
     atom:   12    charge:    7.0886    magn:    1.4367    constr:    0.0000

     End of self-consistent calculation

 ------ SPIN UP ------------

[...]

 ------ SPIN DOWN ----------

[...]

          k = 0.0661 0.0000 0.0000 ( 13455 PWs)   bands (ev):

[...]

          k =-0.0992-0.1718 0.0000 ( 13542 PWs)   bands (ev):

  -102.2554-102.2507-102.2458-102.0086-102.0037-101.9990-101.9836-101.9788
  -101.9741 -85.0191 -84.9445 -84.9418 -62.7042 -62.6745 -62.6664 -62.6641
   -62.6469 -62.6441 -62.6393 -62.6372 -62.5935 -62.4827 -62.4620 -62.4534
   -62.4456 -62.4417 -62.4326 -62.4228 -62.4225 -62.4197 -62.3978 -62.3762
   -62.3533 -62.3342 -62.3297 -62.3258 -62.3021 -62.2975 -62.2938 -51.1316
   -51.1307 -51.0934 -51.0588 -51.0565 -51.0333 -51.0324 -51.0318 -51.0308
    -5.5622  -5.5045  -3.8053  -3.7277  -3.0429  -2.9174  -2.6051  -2.5235
    -2.5115  -2.4594  -2.1242  -1.9412  -1.9024  -1.8740  -1.7613  -1.6284
    -1.5717  -1.4923  -1.4885  -1.4201  -1.2608  -1.2599  -1.1203  -0.9650
    -0.9519  -0.9506  -0.8985  -0.8786  -0.8634  -0.7913  -0.7623  -0.6456
    -0.6374  -0.6111  -0.4726  -0.4672  -0.4370  -0.2625  -0.2598  -0.2240
    -0.1840  -0.1291  -0.0983   0.0529   0.1118   0.1297   0.3571   0.3592
     0.3812   0.4264   0.6895   0.8170   0.8947   0.9762   0.9815   1.1047
     1.1142   1.1566   1.3560   1.4414   1.4968   1.5150   1.5523   1.8828
     2.3787   2.4813   2.6965   3.2424   3.3796   3.8293   4.5587   4.6609
     5.6037   5.7809   6.6876   6.6881   7.1837   7.1995   7.4246   7.4254
     8.4284   8.4535   8.4624   8.4856   8.9833   8.9895   9.4652

     the Fermi energy is     0.6675 ev

!    total energy              =   -3853.82548626 Ry
     Harris-Foulkes estimate   =   -3853.82548152 Ry
     estimated scf accuracy    <       0.00000063 Ry

     The total energy is the sum of the following terms:

     one-electron contribution =  -32833.23884275 Ry
     hartree contribution      =   16423.11031138 Ry
     xc contribution           =    -421.88570597 Ry
     ewald contribution        =   12978.25863133 Ry
     electric field correction =       0.00000016 Ry
     smearing contrib. (-TS)   =      -0.06988040 Ry

     total magnetization       =    14.85 Bohr mag/cell
     absolute magnetization    =    16.72 Bohr mag/cell

     convergence has been achieved in  42 iterations

 BEEF-vdW xc energy contributions
           1 :   -371.232488181885
           2 :    336.350878367271
           3 :   -277.785249538952
           4 :    212.623835207238
           5 :   -156.410673840101
           6 :    117.422057787727
           7 :   -95.2078580569031
           8 :    83.3663420506584
           9 :   -74.3969584721706
          10 :    63.7431736692100
          11 :   -51.1375437924359
          12 :    39.1717131576449
          13 :   -30.6001766593370
          14 :    26.2688415495349
          15 :   -24.7984991144080
          16 :    23.8125919120830
          17 :   -21.5954740596344
          18 :    18.0078095111998
          19 :   -14.2104297767856
          20 :    11.5830193788619
          21 :   -10.6928513570734
          22 :    10.9796404973750
          23 :   -11.2628591397101
          24 :    10.6045606894905
          25 :   -8.90509039870324
          26 :    6.85968093329905
          27 :   -5.39159416964100
          28 :    4.99693181921288
          29 :   -5.45196893095016
          30 :    6.03080302566701
          31 :   -31.1299620183099
          32 :   -21.8020886754740

     Forces acting on atoms (Ry/au):

     negative rho (up, down):  9.179E-04 7.682E-04
     atom    1 type  1   force =     0.00002216    0.00403596    0.00652958
     atom    2 type  1   force =     0.00348543   -0.00200411    0.00652695
     atom    3 type  1   force =    -0.00349057   -0.00203208    0.00659367
     atom    4 type  2   force =    -0.00001406    0.00000238    0.00378766
     atom    5 type  1   force =     0.00002573    0.00081977   -0.00633510
     atom    6 type  1   force =     0.00070518   -0.00039833   -0.00631966
     atom    7 type  1   force =    -0.00070807   -0.00042907   -0.00637501
     atom    8 type  2   force =    -0.00001707    0.00000250   -0.00944595
     atom    9 type  1   force =    -0.00003726    0.00072168    0.00178554
     atom   10 type  1   force =     0.00061271   -0.00038681    0.00179554
     atom   11 type  1   force =    -0.00061263   -0.00034434    0.00179111
     atom   12 type  2   force =     0.00002844    0.00001245   -0.00033434

     Total force =     0.020373     Total SCF correction =     0.005689
     SCF correction compared to forces is large: reduce conv_thr to get better values

     entering subroutine stress ...

     negative rho (up, down):  9.179E-04 7.682E-04
          total   stress  (Ry/bohr**3)                   (kbar)     P=  -60.25
  -0.00043593   0.00000000  -0.00000000        -64.13      0.00     -0.00
   0.00000000  -0.00043593   0.00000000          0.00    -64.13      0.00
  -0.00000000   0.00000000  -0.00035692         -0.00      0.00    -52.51

 !ASE

     Writing output data file calc.save

     General routines

     Parallel routines

   This run was terminated on:   4:32:48  31Dec2018

   JOB DONE.
Job  /afs/slac/g/suncat/bin/suncat-tsmpirun -x LD_LIBRARY_PATH -wdir /scratch/qe648657_uezxh pw.x -in pw.inp

TID   HOST_NAME   COMMAND_LINE            STATUS            TERMINATION_TIME
00000 suncat0146 pw.x -in pw.inp   Done                     12/31/2018 04:32:48
00001 suncat0146 pw.x -in pw.inp   Done                     12/31/2018 04:32:48
00002 suncat0146 pw.x -in pw.inp   Done                     12/31/2018 04:32:48
00003 suncat0146 pw.x -in pw.inp   Done                     12/31/2018 04:32:48
00004 suncat0146 pw.x -in pw.inp   Done                     12/31/2018 04:32:48
00005 suncat0146 pw.x -in pw.inp   Done                     12/31/2018 04:32:48
00006 suncat0146 pw.x -in pw.inp   Done                     12/31/2018 04:32:48
00007 suncat0146 pw.x -in pw.inp   Done                     12/31/2018 04:32:48
00008 suncat0136 pw.x -in pw.inp   Done                     12/31/2018 04:32:48
00009 suncat0136 pw.x -in pw.inp   Done                     12/31/2018 04:32:48
00010 suncat0136 pw.x -in pw.inp   Done                     12/31/2018 04:32:48
00011 suncat0136 pw.x -in pw.inp   Done                     12/31/2018 04:32:48
00012 suncat0136 pw.x -in pw.inp   Done                     12/31/2018 04:32:48
00013 suncat0136 pw.x -in pw.inp   Done                     12/31/2018 04:32:48
00014 suncat0136 pw.x -in pw.inp   Done                     12/31/2018 04:32:48
00015 suncat0136 pw.x -in pw.inp   Done                     12/31/2018 04:32:48
00016 suncat0248 pw.x -in pw.inp   Done                     12/31/2018 04:32:48
00017 suncat0248 pw.x -in pw.inp   Done                     12/31/2018 04:32:48
00018 suncat0248 pw.x -in pw.inp   Done                     12/31/2018 04:32:48
00019 suncat0248 pw.x -in pw.inp   Done                     12/31/2018 04:32:48
00020 suncat0248 pw.x -in pw.inp   Done                     12/31/2018 04:32:48
00021 suncat0248 pw.x -in pw.inp   Done                     12/31/2018 04:32:48
00022 suncat0248 pw.x -in pw.inp   Done                     12/31/2018 04:32:48
00023 suncat0248 pw.x -in pw.inp   Done                     12/31/2018 04:32:48
00024 suncat0247 pw.x -in pw.inp   Done                     12/31/2018 04:32:48
00025 suncat0247 pw.x -in pw.inp   Done                     12/31/2018 04:32:48
00026 suncat0247 pw.x -in pw.inp   Done                     12/31/2018 04:32:48
00027 suncat0247 pw.x -in pw.inp   Done                     12/31/2018 04:32:48
00028 suncat0247 pw.x -in pw.inp   Done                     12/31/2018 04:32:48
00029 suncat0247 pw.x -in pw.inp   Done                     12/31/2018 04:32:48
00030 suncat0247 pw.x -in pw.inp   Done                     12/31/2018 04:32:48
00031 suncat0247 pw.x -in pw.inp   Done                     12/31/2018 04:32:48
00032 suncat0246 pw.x -in pw.inp   Done                     12/31/2018 04:32:48
00033 suncat0246 pw.x -in pw.inp   Done                     12/31/2018 04:32:48
00034 suncat0246 pw.x -in pw.inp   Done                     12/31/2018 04:32:48
00035 suncat0246 pw.x -in pw.inp   Done                     12/31/2018 04:32:48
00036 suncat0246 pw.x -in pw.inp   Done                     12/31/2018 04:32:48
00037 suncat0246 pw.x -in pw.inp   Done                     12/31/2018 04:32:48
00038 suncat0246 pw.x -in pw.inp   Done                     12/31/2018 04:32:48
00039 suncat0246 pw.x -in pw.inp   Done                     12/31/2018 04:32:48
00040 suncat0245 pw.x -in pw.inp   Done                     12/31/2018 04:32:48
00041 suncat0245 pw.x -in pw.inp   Done                     12/31/2018 04:32:48
00042 suncat0245 pw.x -in pw.inp   Done                     12/31/2018 04:32:48
00043 suncat0245 pw.x -in pw.inp   Done                     12/31/2018 04:32:48
00044 suncat0245 pw.x -in pw.inp   Done                     12/31/2018 04:32:48
00045 suncat0245 pw.x -in pw.inp   Done                     12/31/2018 04:32:48
00046 suncat0245 pw.x -in pw.inp   Done                     12/31/2018 04:32:48
00047 suncat0245 pw.x -in pw.inp   Done                     12/31/2018 04:32:48
00048 suncat0214 pw.x -in pw.inp   Done                     12/31/2018 04:32:48
00049 suncat0214 pw.x -in pw.inp   Done                     12/31/2018 04:32:48
00050 suncat0214 pw.x -in pw.inp   Done                     12/31/2018 04:32:48
00051 suncat0214 pw.x -in pw.inp   Done                     12/31/2018 04:32:48
00052 suncat0214 pw.x -in pw.inp   Done                     12/31/2018 04:32:48
00053 suncat0214 pw.x -in pw.inp   Done                     12/31/2018 04:32:48
00054 suncat0214 pw.x -in pw.inp   Done                     12/31/2018 04:32:48
00055 suncat0214 pw.x -in pw.inp   Done                     12/31/2018 04:32:48
00056 suncat0213 pw.x -in pw.inp   Done                     12/31/2018 04:32:48
00057 suncat0213 pw.x -in pw.inp   Done                     12/31/2018 04:32:48
00058 suncat0213 pw.x -in pw.inp   Done                     12/31/2018 04:32:48
00059 suncat0213 pw.x -in pw.inp   Done                     12/31/2018 04:32:48
00060 suncat0213 pw.x -in pw.inp   Done                     12/31/2018 04:32:48
00061 suncat0213 pw.x -in pw.inp   Done                     12/31/2018 04:32:48
00062 suncat0213 pw.x -in pw.inp   Done                     12/31/2018 04:32:48
00063 suncat0213 pw.x -in pw.inp   Done                     12/31/2018 04:32:48