     Program PWSCF v.5.1rc2 (svn rev. 11289) starts on  2Jan2019 at 19:42:31

     Current dimensions of program PWSCF are:
     Max number of different atomic species (ntypx) = 10
     Max number of k-points (npk) =  40000
     Max angular momentum in pseudopotentials (lmaxx) =  3
     Presently stress not available with electric field

     IMPORTANT: XC functional enforced from input :
     Exchange-correlation      = BEEF-VDW ( 1  4 27 13 2)
     Any further DFT definition will be discarded
     Please, verify this is what you really want

     Subspace diagonalization in iterative solution of the eigenvalue problem:
     a serial algorithm will be used

     bravais-lattice index     =            0
     lattice parameter (alat)  =       1.8897  a.u.
     unit-cell volume          =    6024.7325 (a.u.)^3
     number of atoms/cell      =           12
     number of atomic types    =            2
     number of electrons       =       144.00
     number of Kohn-Sham states=          102
     kinetic-energy cutoff     =      36.7493  Ry
     charge density cutoff     =     367.4932  Ry
     convergence threshold     =      1.0E-06
     mixing beta               =       0.1000
     number of iterations used =           10  plain     mixing
     Exchange-correlation      = BEEF-VDW ( 1  4 27 13 2)
     nstep                     =           50

     celldm(1)=   1.889726  celldm(2)=   0.000000  celldm(3)=   0.000000
     celldm(4)=   0.000000  celldm(5)=   0.000000  celldm(6)=   0.000000

     crystal axes: (cart. coord. in units of alat)
               a(1) = (   6.393390   0.000000   0.000000 )
               a(2) = (  -3.196695   5.536838   0.000000 )
               a(3) = (   0.000000   0.000000  25.220181 )

     reciprocal axes: (cart. coord. in units 2 pi/alat)
               b(1) = (  0.156412  0.090304  0.000000 )
               b(2) = (  0.000000  0.180609  0.000000 )
               b(3) = (  0.000000  0.000000  0.039651 )

     PseudoPot. # 1 for Zr read from file:
     /afs/slac.stanford.edu/u/if/mamunm/psp/gbrv1.5pbe/Zr.UPF
     MD5 check sum: 5db81b1e868ab7776c4564c113de050b
     Pseudo is Ultrasoft + core correction, Zval = 12.0
     Generated by new atomic code, or converted to UPF format
     Using radial grid of  887 points,  6 beta functions with:
                l(1) =   0
                l(2) =   0
                l(3) =   1
                l(4) =   1
                l(5) =   2
                l(6) =   2
     Q(r) pseudized with  6 coefficients,  rinner =    1.200   1.200   1.200
                                                       1.200   1.200

     PseudoPot. # 2 for Hf read from file:
     /afs/slac.stanford.edu/u/if/mamunm/psp/gbrv1.5pbe/Hf.UPF
     MD5 check sum: 8ee9378dfe14276e333edf04c5e4aa26
     Pseudo is Ultrasoft + core correction, Zval = 12.0
     Generated by new atomic code, or converted to UPF format
     Using radial grid of  921 points,  8 beta functions with:
                l(1) =   0
                l(2) =   0
                l(3) =   0
                l(4) =   1
                l(5) =   1
                l(6) =   2
                l(7) =   2
                l(8) =   3
     Q(r) pseudized with  6 coefficients,  rinner =    1.200   1.200   1.200
                                                       1.200   1.200   1.200
                                                       1.200

     vdW kernel table read from file vdW_kernel_table
     MD5 check sum: 095c7af220d748ca6e76c0b4c6cfb241

     atomic species   valence    mass     pseudopotential
        Zr1           12.00    91.22400     Zr( 1.00)
        Hf1           12.00   178.49000     Hf( 1.00)

     No symmetry found

   Cartesian axes

     site n.     atom                  positions (alat units)
         1           Zr1 tau(   1) = (   0.0000000   0.0000000  10.0000000  )
         2           Zr1 tau(   2) = (  -1.5983474   2.7684189  10.0000000  )
         3           Zr1 tau(   3) = (   1.5983474   2.7684189  10.0000000  )
         4           Hf1 tau(   4) = (   3.1966948   0.0000000  10.0000000  )
         5           Zr1 tau(   5) = (   3.1966948   1.8456126  12.6100904  )
         6           Zr1 tau(   6) = (   1.5983474   4.6140315  12.6100904  )
         7           Zr1 tau(   7) = (  -1.5983474   4.6140315  12.6100904  )
         8           Hf1 tau(   8) = (   0.0000000   1.8456126  12.6100904  )
         9           Zr1 tau(   9) = (  -0.0000000   3.6912252  15.2201807  )
        10           Zr1 tau(  10) = (   1.5983474   0.9228063  15.2201807  )
        11           Zr1 tau(  11) = (   4.7950422   0.9228063  15.2201807  )
        12           Hf1 tau(  12) = (   3.1966948   3.6912252  15.2201807  )

     number of k points=    20  Fermi-Dirac smearing, width (Ry)=  0.0110
                       cart. coord. in units 2pi/alat
        k(    1) = (   0.0000000   0.0000000   0.0000000), wk =   0.0555556
        k(    2) = (   0.0000000   0.0301014   0.0000000), wk =   0.1111111
        k(    3) = (   0.0000000   0.0602028   0.0000000), wk =   0.1111111
        k(    4) = (   0.0000000  -0.0903043   0.0000000), wk =   0.0555556
        k(    5) = (   0.0260686   0.0150507   0.0000000), wk =   0.1111111
        k(    6) = (   0.0260686   0.0451521   0.0000000), wk =   0.1111111
        k(    7) = (   0.0260686   0.0752535   0.0000000), wk =   0.1111111
        k(    8) = (   0.0260686  -0.0752535   0.0000000), wk =   0.1111111
        k(    9) = (   0.0260686  -0.0451521   0.0000000), wk =   0.1111111
        k(   10) = (   0.0260686  -0.0150507   0.0000000), wk =   0.1111111
        k(   11) = (   0.0521372   0.0301014   0.0000000), wk =   0.1111111
        k(   12) = (   0.0521372   0.0602028   0.0000000), wk =   0.1111111
        k(   13) = (   0.0521372   0.0903043   0.0000000), wk =   0.1111111
        k(   14) = (   0.0521372  -0.0602028   0.0000000), wk =   0.1111111
        k(   15) = (   0.0521372  -0.0301014   0.0000000), wk =   0.1111111
        k(   16) = (   0.0521372  -0.0000000   0.0000000), wk =   0.1111111
        k(   17) = (  -0.0782058  -0.0451521   0.0000000), wk =   0.0555556
        k(   18) = (  -0.0782058  -0.0150507   0.0000000), wk =   0.1111111
        k(   19) = (  -0.0782058   0.0150507   0.0000000), wk =   0.1111111
        k(   20) = (  -0.0782058  -0.1354564   0.0000000), wk =   0.0555556

     Largest allocated arrays     est. size (Mb)     dimensions
     Largest temporary arrays     est. size (Mb)     dimensions

     Check: negative/imaginary core charge=   -0.000002    0.000000

     Initial potential from superposition of free atoms
     Check: negative starting charge=   -0.874952

     starting charge  137.98065, renormalised to  144.00000

     negative rho (up, down):  9.131E-01 0.000E+00

     *
     * You are using vdW-DF for exchange-correlation in this calculation.
     * Please cite the following three references that made this development
     * possible:
     *
     *   M. Dion, H. Rydberg, E. Schroder, D. C. Langreth, and
     *   B. I. Lundqvist, Phys. Rev. Lett. 92, 246401 (2004).
     *
     *   T. Thonhauser, V. R. Cooper, S. Li, A. Puzder, P. Hyldgaard, and
     *   D. C. Langreth, Phys. Rev. B 76, 125112 (2007).
     *
     *   G. Roman-Perez and J. M. Soler, Phys. Rev. Lett. 103, 096102 (2009).
     *
     *
     * If you are using vdW-DF2, please also cite:
     *
     *   K. Lee, E. D. Murray, L. Kong, B. I. Lundqvist, and
     *   D. C. Langreth, Phys. Rev. B 82, 081101(R) (2010).
     *
     *
     * If you are calculating the stress with vdW-DF, please also cite:
     *
     *   R. Sabatini, E. Kucukbenli, B. Kolb, T. Thonhauser, and
     *   S. de Gironcoli, J. Phys.: Condens. Matter 24, 424209 (2012).
     *

     Carrying out vdW-DF run using the following parameters:

     Nqs =      20    Nr_points =    1024   r_max =   100.000
     q_mesh =
               0.00001000     0.04494208     0.09755937     0.15916263
               0.23128650     0.31572767     0.41458969     0.53033537
               0.66584808     0.82450364     1.01025438     1.22772762
               1.48234092     1.78043706     2.12944203     2.53805004
               3.01644009     3.57652955     4.23227104     5.00000000

     Gradients computed in reciprocal space

     Adding external electric field

     Computed dipole along edir(3) :
        Dipole                0.0000 Ry au,          0.0000 Debye
        Dipole field          0.0000 Ry au

        Potential amp.       -0.0000 Ry
        Total length         46.4678 bohr

     Starting wfc are  156 randomized atomic wfcs

     Self-consistent Calculation

     iteration #  1     ecut=    36.75 Ry     beta=0.10
     Davidson diagonalization with overlap
     ethr =  1.00E-02,  avg # of iterations =  2.0

[...]

     total energy              =   -1379.55312792 Ry
     Harris-Foulkes estimate   =   -1380.69945482 Ry
     estimated scf accuracy    <       7.21265292 Ry

[...]

     End of self-consistent calculation

          k = 0.0000 0.0000 0.0000 ( 22729 PWs)   bands (ev):

   -61.2514 -61.2514 -60.8325 -47.7861 -47.7828 -47.7146 -47.7146 -47.7138
   -47.7138 -47.4795 -47.4127 -47.4124 -29.8148 -29.8067 -29.7496 -29.7496
   -29.7474 -29.7474 -29.3728 -29.3695 -29.3695 -26.1109 -26.0827 -25.9170
   -25.8806 -25.8806 -25.8347 -25.8347 -25.7994 -25.7994 -25.7970 -25.7553
   -25.7149 -25.7149 -25.5422 -25.5245 -25.5067 -25.5067 -25.4275 -25.4275
   -25.4105 -25.4105 -25.3511 -25.3245 -25.3244 -25.2241 -25.1401 -25.1400
    -4.0074  -2.8689  -2.0399  -1.3222  -1.3114  -1.1532  -1.1532  -1.0176
    -1.0176  -0.8423  -0.5934  -0.5934  -0.4116  -0.3810  -0.3810   0.4141
     0.4673   0.4673   1.3231   1.4303   1.6344   1.6445   1.6446   2.0585
     2.0587   2.0587   2.0607   2.1010   2.4099   2.4099   2.6085   2.6085
     2.6714   2.6714   2.6837   2.6915   2.6915   2.7753   2.7900   2.7900
     3.1354   3.1354   3.2845   3.8969   4.0037   4.0037   4.5124   4.5958
     4.5958   4.7022   4.7022   4.9071   4.9071   4.9530

[...]

          k =-0.0782-0.0452 0.0000 ( 22668 PWs)   bands (ev):

[...]

     the Fermi energy is     1.4230 ev

!    total energy              =   -1379.27987518 Ry
     Harris-Foulkes estimate   =   -1379.27987482 Ry
     estimated scf accuracy    <       0.00000022 Ry

     The total energy is the sum of the following terms:

     one-electron contribution =   -8263.38467594 Ry
     hartree contribution      =    4120.33185470 Ry
     xc contribution           =    -397.30170400 Ry
     ewald contribution        =    3161.19596908 Ry
     electric field correction =       0.00000000 Ry
     smearing contrib. (-TS)   =      -0.12131901 Ry

     convergence has been achieved in  18 iterations

 BEEF-vdW xc energy contributions
           1 :   -351.465343224228
           2 :    323.359266378700
           3 :   -274.625678231180
           4 :    216.963210028628
           5 :   -161.753378648168
           6 :    116.402916069797
           7 :   -83.0974590686312
           8 :    59.9788796055253
           9 :   -43.6041880168938
          10 :    31.1397368380358
          11 :   -21.3124225308129
          12 :    14.0366128279574
[...]
     MD5 check sum: 5db81b1e868ab7776c4564c113de050b
     Pseudo is Ultrasoft + core correction, Zval = 12.0
     Generated by new atomic code, or converted to UPF format
     Using radial grid of  887 points,  6 beta functions with:
                l(1) =   0
                l(2) =   0
                l(3) =   1
                l(4) =   1
                l(5) =   2
                l(6) =   2
     Q(r) pseudized with  6 coefficients,  rinner =    1.200   1.200   1.200
                                                       1.200   1.200

     PseudoPot. # 2 for Hf read from file:
     /afs/slac.stanford.edu/u/if/mamunm/psp/gbrv1.5pbe/Hf.UPF
     MD5 check sum: 8ee9378dfe14276e333edf04c5e4aa26
     Pseudo is Ultrasoft + core correction, Zval = 12.0
     Generated by new atomic code, or converted to UPF format
     Using radial grid of  921 points,  8 beta functions with:
                l(1) =   0
                l(2) =   0
                l(3) =   0
                l(4) =   1
                l(5) =   1
                l(6) =   2
                l(7) =   2
                l(8) =   3
     Q(r) pseudized with  6 coefficients,  rinner =    1.200   1.200   1.200
                                                       1.200   1.200   1.200
                                                       1.200

     vdW kernel table read from file vdW_kernel_table
     MD5 check sum: 095c7af220d748ca6e76c0b4c6cfb241

     atomic species   valence    mass     pseudopotential
        Zr1           12.00    91.22400     Zr( 1.00)
        Hf1           12.00   178.49000     Hf( 1.00)

     No symmetry found

   Cartesian axes

     site n.     atom                  positions (alat units)
         1           Zr1 tau(   1) = (   0.0000000   0.0000000  10.0000000  )
         2           Zr1 tau(   2) = (  -1.5983474   2.7684189  10.0000000  )
         3           Zr1 tau(   3) = (   1.5983474   2.7684189  10.0000000  )
         4           Hf1 tau(   4) = (   3.1966948   0.0000000  10.0000000  )
         5           Zr1 tau(   5) = (   3.1966948   1.8456126  12.6100904  )
         6           Zr1 tau(   6) = (   1.5983474   4.6140315  12.6100904  )
         7           Zr1 tau(   7) = (  -1.5983474   4.6140315  12.6100904  )
         8           Hf1 tau(   8) = (   0.0000000   1.8456126  12.6100904  )
         9           Zr1 tau(   9) = (  -0.0000050   3.6712189  15.1046417  )
        10           Zr1 tau(  10) = (   1.5810164   0.9328311  15.1046357  )
        11           Zr1 tau(  11) = (   4.8123741   0.9328362  15.1046381  )
        12           Hf1 tau(  12) = (   3.1967015   3.6912171  15.0831940  )

     number of k points=    20  Fermi-Dirac smearing, width (Ry)=  0.0110
                       cart. coord. in units 2pi/alat
        k(    1) = (   0.0000000   0.0000000   0.0000000), wk =   0.0555556
        k(    2) = (   0.0000000   0.0301014   0.0000000), wk =   0.1111111
        k(    3) = (   0.0000000   0.0602028   0.0000000), wk =   0.1111111
        k(    4) = (   0.0000000  -0.0903043   0.0000000), wk =   0.0555556
        k(    5) = (   0.0260686   0.0150507   0.0000000), wk =   0.1111111
        k(    6) = (   0.0260686   0.0451521   0.0000000), wk =   0.1111111
        k(    7) = (   0.0260686   0.0752535   0.0000000), wk =   0.1111111
        k(    8) = (   0.0260686  -0.0752535   0.0000000), wk =   0.1111111
        k(    9) = (   0.0260686  -0.0451521   0.0000000), wk =   0.1111111
        k(   10) = (   0.0260686  -0.0150507   0.0000000), wk =   0.1111111
        k(   11) = (   0.0521372   0.0301014   0.0000000), wk =   0.1111111
        k(   12) = (   0.0521372   0.0602028   0.0000000), wk =   0.1111111
        k(   13) = (   0.0521372   0.0903043   0.0000000), wk =   0.1111111
        k(   14) = (   0.0521372  -0.0602028   0.0000000), wk =   0.1111111
        k(   15) = (   0.0521372  -0.0301014   0.0000000), wk =   0.1111111
        k(   16) = (   0.0521372  -0.0000000   0.0000000), wk =   0.1111111
        k(   17) = (  -0.0782058  -0.0451521   0.0000000), wk =   0.0555556
        k(   18) = (  -0.0782058  -0.0150507   0.0000000), wk =   0.1111111
        k(   19) = (  -0.0782058   0.0150507   0.0000000), wk =   0.1111111
        k(   20) = (  -0.0782058  -0.1354564   0.0000000), wk =   0.0555556

     Largest allocated arrays     est. size (Mb)     dimensions
     Largest temporary arrays     est. size (Mb)     dimensions

     Check: negative/imaginary core charge=   -0.000002    0.000000

     Initial potential from superposition of free atoms
     Check: negative starting charge=   -0.871989

     starting charge  137.98065, renormalised to  144.00000

[...]

     *
     * You are using vdW-DF for exchange-correlation in this calculation.
     * Please cite the following three references that made this development
     * possible:
     *
     *   M. Dion, H. Rydberg, E. Schroder, D. C. Langreth, and
     *   B. I. Lundqvist, Phys. Rev. Lett. 92, 246401 (2004).
     *
     *   T. Thonhauser, V. R. Cooper, S. Li, A. Puzder, P. Hyldgaard, and
     *   D. C. Langreth, Phys. Rev. B 76, 125112 (2007).
     *
     *   G. Roman-Perez and J. M. Soler, Phys. Rev. Lett. 103, 096102 (2009).
     *
     *
     * If you are using vdW-DF2, please also cite:
     *
     *   K. Lee, E. D. Murray, L. Kong, B. I. Lundqvist, and
     *   D. C. Langreth, Phys. Rev. B 82, 081101(R) (2010).
     *
     *
     * If you are calculating the stress with vdW-DF, please also cite:
     *
     *   R. Sabatini, E. Kucukbenli, B. Kolb, T. Thonhauser, and
     *   S. de Gironcoli, J. Phys.: Condens. Matter 24, 424209 (2012).
     *

     Carrying out vdW-DF run using the following parameters:

     Nqs =      20    Nr_points =    1024   r_max =   100.000
     q_mesh =
               0.00001000     0.04494208     0.09755937     0.15916263
               0.23128650     0.31572767     0.41458969     0.53033537
               0.66584808     0.82450364     1.01025438     1.22772762
               1.48234092     1.78043706     2.12944203     2.53805004
               3.01644009     3.57652955     4.23227104     5.00000000

     Gradients computed in reciprocal space

[...]

     Starting wfc are  156 randomized atomic wfcs

     Self-consistent Calculation

[...]

     total energy              =   -1379.28856983 Ry
     Harris-Foulkes estimate   =   -1379.28856885 Ry
     estimated scf accuracy    <       0.00000136 Ry

     iteration # 18     ecut=    36.75 Ry     beta=0.10
     Davidson diagonalization with overlap
     ethr =  9.42E-10,  avg # of iterations =  3.0

[...]

     negative rho (up, down):  9.056E-01 0.000E+00

     Adding external electric field

     Computed dipole along edir(3) :
        Dipole                0.0008 Ry au,          0.0022 Debye
        Dipole field          0.0000 Ry au

        Potential amp.       -0.0002 Ry
        Total length         46.4678 bohr

     End of self-consistent calculation

[...]

          k = 0.0521-0.0000 0.0000 ( 22675 PWs)   bands (ev):

[...]

          k =-0.0782-0.1355 0.0000 ( 22668 PWs)   bands (ev):

   -61.2543 -61.1789 -60.7472 -47.7630 -47.7396 -47.7299 -47.7161 -47.7051
   -47.6812 -47.4063 -47.3844 -47.3619 -29.8164 -29.7577 -29.7469 -29.7381
   -29.6915 -29.6828 -29.3124 -29.2954 -29.2862 -25.9824 -25.9457 -25.9014
   -25.8273 -25.8096 -25.7936 -25.7433 -25.7361 -25.7334 -25.7280 -25.7095
   -25.7094 -25.6777 -25.6765 -25.6745 -25.6561 -25.5680 -25.4608 -25.4381
   -25.3790 -25.3485 -25.3217 -25.2929 -25.2789 -25.2641 -25.2517 -25.1166
    -2.6319  -2.5066  -1.6186  -1.3882  -0.8775  -0.5685  -0.5491  -0.4396
    -0.4201  -0.3939   0.2043   0.3516   0.3709   0.3952   0.4326   0.4533
     0.7429   0.7982   0.8177   0.8734   0.8775   1.0243   1.1537   1.2013
     1.2429   1.2563   1.4039   1.4793   1.5082   1.5529   1.7032   1.7521
     2.1065   2.1270   2.2406   2.2850   2.4586   2.4675   2.9955   3.0124
     3.2082   3.3035   3.6148   3.6515   3.6787   3.8111   3.8269   3.8694
     4.0439   4.0909   4.1458   4.2525   4.3475   4.3564

     the Fermi energy is     1.4126 ev

!    total energy              =   -1379.28857012 Ry
     Harris-Foulkes estimate   =   -1379.28857019 Ry
     estimated scf accuracy    <       0.00000089 Ry

     The total energy is the sum of the following terms:

     one-electron contribution =   -8407.78826564 Ry
     hartree contribution      =    4192.68847953 Ry
     xc contribution           =    -397.48845786 Ry
     ewald contribution        =    3233.41579785 Ry
     electric field correction =       0.00000000 Ry
     smearing contrib. (-TS)   =      -0.11612401 Ry

     convergence has been achieved in  18 iterations

 BEEF-vdW xc energy contributions
           1 :   -351.666700515726
           2 :    323.619409332422
           3 :   -274.943305635478
           4 :    217.265850130343
           5 :   -161.944988505308
           6 :    116.432113772999
           7 :   -82.9955788661338
           8 :    59.8419354208795
           9 :   -43.5342101102412
          10 :    31.1849972156375
          11 :   -21.4423386288342
          12 :    14.1640929792334
          13 :   -9.43710050968826
          14 :    6.76540111367319
          15 :   -4.95343527930044
          16 :    2.64838488808522
          17 :   0.896345368040045
          18 :   -5.37937804431499
          19 :    9.61491657857192
          20 :   -12.2045991812673
          21 :    12.3058006905300
          22 :   -10.0611801094848
          23 :    6.47762647071812
          24 :   -2.88966836135353
          25 :   0.352456542339439
          26 :   0.701793331874626
          27 :  -0.430285001706807
          28 :  -0.709295152962454
          29 :    2.26040711867074
          30 :   -3.90485821245511
          31 :   -31.4330258570958
          32 :   -23.0675080029260

     Forces acting on atoms (Ry/au):

     negative rho (up, down):  9.056E-01 0.000E+00
     atom    1 type  1   force =     0.00000009    0.00221209    0.01173127
     atom    2 type  1   force =     0.00191556   -0.00110665    0.01173175
     atom    3 type  1   force =    -0.00191552   -0.00110684    0.01173132
     atom    4 type  2   force =    -0.00000016   -0.00000247    0.01537430
     atom    5 type  1   force =     0.00000069   -0.00124648   -0.01091209
     atom    6 type  1   force =    -0.00107978    0.00062431   -0.01090728
     atom    7 type  1   force =     0.00107997    0.00062348   -0.01090883
     atom    8 type  2   force =    -0.00000070   -0.00000380   -0.01359200
     atom    9 type  1   force =     0.00000104    0.00007701   -0.00133933
     atom   10 type  1   force =     0.00006779   -0.00003901   -0.00133822
     atom   11 type  1   force =    -0.00006785   -0.00003989   -0.00133872
     atom   12 type  2   force =    -0.00000113    0.00000824   -0.00023218

     Total force =     0.034869     Total SCF correction =     0.002707

     entering subroutine stress ...

     negative rho (up, down):  9.056E-01 0.000E+00
          total   stress  (Ry/bohr**3)                   (kbar)     P=   -8.60
  -0.00006128  -0.00000000  -0.00000000         -9.01     -0.00     -0.00
  -0.00000000  -0.00006135  -0.00000001         -0.00     -9.02     -0.00
  -0.00000000  -0.00000001  -0.00005271         -0.00     -0.00     -7.75

 !ASE

     Writing output data file calc.save

     General routines

     Parallel routines

   This run was terminated on:  21: 2:39   2Jan2019

   JOB DONE.
Job  /afs/slac/g/suncat/bin/suncat-tsmpirun -x LD_LIBRARY_PATH -wdir /scratch/qe649540_0x6mS pw.x -in pw.inp

TID   HOST_NAME   COMMAND_LINE            STATUS            TERMINATION_TIME
00000 suncat0278 pw.x -in pw.inp   Done                     01/02/2019 21:02:39
00001 suncat0278 pw.x -in pw.inp   Done                     01/02/2019 21:02:39
00002 suncat0278 pw.x -in pw.inp   Done                     01/02/2019 21:02:39
00003 suncat0278 pw.x -in pw.inp   Done                     01/02/2019 21:02:39
00004 suncat0278 pw.x -in pw.inp   Done                     01/02/2019 21:02:39
00005 suncat0278 pw.x -in pw.inp   Done                     01/02/2019 21:02:39
00006 suncat0278 pw.x -in pw.inp   Done                     01/02/2019 21:02:39
00007 suncat0278 pw.x -in pw.inp   Done                     01/02/2019 21:02:39
00008 suncat0271 pw.x -in pw.inp   Done                     01/02/2019 21:02:39
00009 suncat0271 pw.x -in pw.inp   Done                     01/02/2019 21:02:39
00010 suncat0271 pw.x -in pw.inp   Done                     01/02/2019 21:02:39
00011 suncat0271 pw.x -in pw.inp   Done                     01/02/2019 21:02:39
00012 suncat0271 pw.x -in pw.inp   Done                     01/02/2019 21:02:39
00013 suncat0271 pw.x -in pw.inp   Done                     01/02/2019 21:02:39
00014 suncat0271 pw.x -in pw.inp   Done                     01/02/2019 21:02:39
00015 suncat0271 pw.x -in pw.inp   Done                     01/02/2019 21:02:39
00016 suncat0266 pw.x -in pw.inp   Done                     01/02/2019 21:02:39
00017 suncat0266 pw.x -in pw.inp   Done                     01/02/2019 21:02:39
00018 suncat0266 pw.x -in pw.inp   Done                     01/02/2019 21:02:39
00019 suncat0266 pw.x -in pw.inp   Done                     01/02/2019 21:02:39
00020 suncat0266 pw.x -in pw.inp   Done                     01/02/2019 21:02:39
00021 suncat0266 pw.x -in pw.inp   Done                     01/02/2019 21:02:39
00022 suncat0266 pw.x -in pw.inp   Done                     01/02/2019 21:02:39
00023 suncat0266 pw.x -in pw.inp   Done                     01/02/2019 21:02:39
00024 suncat0251 pw.x -in pw.inp   Done                     01/02/2019 21:02:39
00025 suncat0251 pw.x -in pw.inp   Done                     01/02/2019 21:02:39
00026 suncat0251 pw.x -in pw.inp   Done                     01/02/2019 21:02:39
00027 suncat0251 pw.x -in pw.inp   Done                     01/02/2019 21:02:39
00028 suncat0251 pw.x -in pw.inp   Done                     01/02/2019 21:02:39
00029 suncat0251 pw.x -in pw.inp   Done                     01/02/2019 21:02:39
00030 suncat0251 pw.x -in pw.inp   Done                     01/02/2019 21:02:39
00031 suncat0251 pw.x -in pw.inp   Done                     01/02/2019 21:02:39
00032 suncat0244 pw.x -in pw.inp   Done                     01/02/2019 21:02:39
00033 suncat0244 pw.x -in pw.inp   Done                     01/02/2019 21:02:39
00034 suncat0244 pw.x -in pw.inp   Done                     01/02/2019 21:02:39
00035 suncat0244 pw.x -in pw.inp   Done                     01/02/2019 21:02:39
00036 suncat0244 pw.x -in pw.inp   Done                     01/02/2019 21:02:39
00037 suncat0244 pw.x -in pw.inp   Done                     01/02/2019 21:02:39
00038 suncat0244 pw.x -in pw.inp   Done                     01/02/2019 21:02:39
00039 suncat0244 pw.x -in pw.inp   Done                     01/02/2019 21:02:39
00040 suncat0239 pw.x -in pw.inp   Done                     01/02/2019 21:02:39
00041 suncat0239 pw.x -in pw.inp   Done                     01/02/2019 21:02:39
00042 suncat0239 pw.x -in pw.inp   Done                     01/02/2019 21:02:39
00043 suncat0239 pw.x -in pw.inp   Done                     01/02/2019 21:02:39
00044 suncat0239 pw.x -in pw.inp   Done                     01/02/2019 21:02:39
00045 suncat0239 pw.x -in pw.inp   Done                     01/02/2019 21:02:39
00046 suncat0239 pw.x -in pw.inp   Done                     01/02/2019 21:02:39
00047 suncat0239 pw.x -in pw.inp   Done                     01/02/2019 21:02:39
00048 suncat0099 pw.x -in pw.inp   Done                     01/02/2019 21:02:39
00049 suncat0099 pw.x -in pw.inp   Done                     01/02/2019 21:02:39
00050 suncat0099 pw.x -in pw.inp   Done                     01/02/2019 21:02:39
00051 suncat0099 pw.x -in pw.inp   Done                     01/02/2019 21:02:39
00052 suncat0099 pw.x -in pw.inp   Done                     01/02/2019 21:02:39
00053 suncat0099 pw.x -in pw.inp   Done                     01/02/2019 21:02:39
00054 suncat0099 pw.x -in pw.inp   Done                     01/02/2019 21:02:39
00055 suncat0099 pw.x -in pw.inp   Done                     01/02/2019 21:02:39
00056 suncat0098 pw.x -in pw.inp   Done                     01/02/2019 21:02:39
00057 suncat0098 pw.x -in pw.inp   Done                     01/02/2019 21:02:39
00058 suncat0098 pw.x -in pw.inp   Done                     01/02/2019 21:02:39
00059 suncat0098 pw.x -in pw.inp   Done                     01/02/2019 21:02:39
00060 suncat0098 pw.x -in pw.inp   Done                     01/02/2019 21:02:39
00061 suncat0098 pw.x -in pw.inp   Done                     01/02/2019 21:02:39
00062 suncat0098 pw.x -in pw.inp   Done                     01/02/2019 21:02:39
00063 suncat0098 pw.x -in pw.inp   Done                     01/02/2019 21:02:39