     Program PWSCF v.5.1rc2 (svn rev. 11289) starts on 31Dec2018 at  5: 7:26

     Current dimensions of program PWSCF are:
     Max number of different atomic species (ntypx) = 10
     Max number of k-points (npk) =  40000
     Max angular momentum in pseudopotentials (lmaxx) =  3
     Presently stress not available with electric field

     IMPORTANT: XC functional enforced from input :
     Exchange-correlation      = BEEF-VDW ( 1  4 27 13 2)
     Any further DFT definition will be discarded
     Please, verify this is what you really want

     Subspace diagonalization in iterative solution of the eigenvalue problem:
     a serial algorithm will be used

     bravais-lattice index     =            0
     lattice parameter (alat)  =       1.8897  a.u.
     unit-cell volume          =    4413.4455 (a.u.)^3
     number of atoms/cell      =           12
     number of atomic types    =            2
     number of electrons       =       177.00
     number of Kohn-Sham states=          118
     kinetic-energy cutoff     =      36.7493  Ry
     charge density cutoff     =     367.4932  Ry
     convergence threshold     =      1.0E-06
     mixing beta               =       0.1000
     number of iterations used =           10  plain     mixing
     Exchange-correlation      = BEEF-VDW ( 1  4 27 13 2)
     nstep                     =           50

     celldm(1)=   1.889726  celldm(2)=   0.000000  celldm(3)=   0.000000
     celldm(4)=   0.000000  celldm(5)=   0.000000  celldm(6)=   0.000000

     crystal axes: (cart. coord. in units of alat)
               a(1) = (   5.548476   0.000000   0.000000 )
               a(2) = (  -2.774238   4.805121   0.000000 )
               a(3) = (   0.000000   0.000000  24.530312 )

     reciprocal axes: (cart. coord. in units 2 pi/alat)
               b(1) = (  0.180230  0.104056  0.000000 )
               b(2) = (  0.000000  0.208111  0.000000 )
               b(3) = (  0.000000  0.000000  0.040766 )

     PseudoPot. # 1 for Os read from file:
     /afs/slac.stanford.edu/u/if/mamunm/psp/gbrv1.5pbe/Os.UPF
     MD5 check sum: a3fb40a04f0c37c25c34bbc47164c9a8
     Pseudo is Ultrasoft + core correction, Zval = 16.0
     Generated by new atomic code, or converted to UPF format
     Using radial grid of  983 points,  8 beta functions with:
                l(1) =   0
                l(2) =   0
                l(3) =   1
                l(4) =   1
                l(5) =   2
                l(6) =   2
                l(7) =   3
                l(8) =   3
     Q(r) pseudized with  8 coefficients,  rinner =    1.150   1.150   1.150
                                                       1.150   1.150   1.150
                                                       1.150

     PseudoPot. # 2 for Au read from file:
     /afs/slac.stanford.edu/u/if/mamunm/psp/gbrv1.5pbe/Au.UPF
     MD5 check sum: 9d7f43293ad2c663164586bc4b293ffc
     Pseudo is Ultrasoft + core correction, Zval = 11.0
     Generated by new atomic code, or converted to UPF format
     Using radial grid of  985 points,  7 beta functions with:
                l(1) =   0
                l(2) =   0
                l(3) =   1
                l(4) =   1
                l(5) =   2
                l(6) =   2
                l(7) =   3
     Q(r) pseudized with  6 coefficients,  rinner =    1.900   1.900   1.900
                                                       1.900   1.900   1.900
                                                       1.900

     vdW kernel table read from file vdW_kernel_table
     MD5 check sum: 095c7af220d748ca6e76c0b4c6cfb241

     atomic species   valence    mass     pseudopotential
        Os1           16.00   190.23000     Os( 1.00)
        Au1           11.00   196.96657     Au( 1.00)

     No symmetry found

   Cartesian axes

     site n.     atom                  positions (alat units)
         1           Os1 tau(   1) = (   0.0000000   0.0000000  10.0000000  )
         2           Os1 tau(   2) = (  -1.3871191   2.4025607  10.0000000  )
         3           Os1 tau(   3) = (   1.3871191   2.4025607  10.0000000  )
         4           Au1 tau(   4) = (   2.7742381   0.0000000  10.0000000  )
         5           Os1 tau(   5) = (   2.7742381   1.6017071  12.2651559  )
         6           Os1 tau(   6) = (   1.3871191   4.0042678  12.2651559  )
         7           Os1 tau(   7) = (  -1.3871191   4.0042678  12.2651559  )
         8           Au1 tau(   8) = (   0.0000000   1.6017071  12.2651559  )
         9           Os1 tau(   9) = (  -0.0000000   3.2034143  14.5303119  )
        10           Os1 tau(  10) = (   1.3871191   0.8008536  14.5303119  )
        11           Os1 tau(  11) = (   4.1613572   0.8008536  14.5303119  )
        12           Au1 tau(  12) = (   2.7742381   3.2034143  14.5303119  )

     number of k points=    20  Fermi-Dirac smearing, width (Ry)=  0.0110
                       cart. coord. in units 2pi/alat
        k(    1) = (   0.0000000   0.0000000   0.0000000), wk =   0.0555556
        k(    2) = (   0.0000000   0.0346852   0.0000000), wk =   0.1111111
        k(    3) = (   0.0000000   0.0693704   0.0000000), wk =   0.1111111
        k(    4) = (   0.0000000  -0.1040556   0.0000000), wk =   0.0555556
        k(    5) = (   0.0300383   0.0173426   0.0000000), wk =   0.1111111
        k(    6) = (   0.0300383   0.0520278   0.0000000), wk =   0.1111111
        k(    7) = (   0.0300383   0.0867130   0.0000000), wk =   0.1111111
        k(    8) = (   0.0300383  -0.0867130   0.0000000), wk =   0.1111111
        k(    9) = (   0.0300383  -0.0520278   0.0000000), wk =   0.1111111
        k(   10) = (   0.0300383  -0.0173426   0.0000000), wk =   0.1111111
        k(   11) = (   0.0600766   0.0346852   0.0000000), wk =   0.1111111
        k(   12) = (   0.0600766   0.0693704   0.0000000), wk =   0.1111111
        k(   13) = (   0.0600766   0.1040556   0.0000000), wk =   0.1111111
        k(   14) = (   0.0600766  -0.0693704   0.0000000), wk =   0.1111111
        k(   15) = (   0.0600766  -0.0346852   0.0000000), wk =   0.1111111
        k(   16) = (   0.0600766   0.0000000   0.0000000), wk =   0.1111111
        k(   17) = (  -0.0901148  -0.0520278   0.0000000), wk =   0.0555556
        k(   18) = (  -0.0901148  -0.0173426   0.0000000), wk =   0.1111111
        k(   19) = (  -0.0901148   0.0173426   0.0000000), wk =   0.1111111
        k(   20) = (  -0.0901148  -0.1560835   0.0000000), wk =   0.0555556

     Largest allocated arrays     est. size (Mb)     dimensions
     Largest temporary arrays     est. size (Mb)     dimensions

     Check: negative/imaginary core charge=   -0.000001    0.000000

     Initial potential from superposition of free atoms
     Check: negative starting charge=   -1.123210

     starting charge  172.49930, renormalised to  177.00000

     negative rho (up, down):  1.153E+00 0.000E+00

     *
     * You are using vdW-DF for exchange-correlation in this calculation.
     * Please cite the following three references that made this development
     * possible:
     *
     *   M. Dion, H. Rydberg, E. Schroder, D. C. Langreth, and
     *   B. I. Lundqvist, Phys. Rev. Lett. 92, 246401 (2004).
     *
     *   T. Thonhauser, V. R. Cooper, S. Li, A. Puzder, P. Hyldgaard, and
     *   D. C. Langreth, Phys. Rev. B 76, 125112 (2007).
     *
     *   G. Roman-Perez and J. M. Soler, Phys. Rev. Lett. 103, 096102 (2009).
     *
     *
     * If you are using vdW-DF2, please also cite:
     *
     *   K. Lee, E. D. Murray, L. Kong, B. I. Lundqvist, and
     *   D. C. Langreth, Phys. Rev. B 82, 081101(R) (2010).
     *
     *
     * If you are calculating the stress with vdW-DF, please also cite:
     *
     *   R. Sabatini, E. Kucukbenli, B. Kolb, T. Thonhauser, and
     *   S. de Gironcoli, J. Phys.: Condens. Matter 24, 424209 (2012).
     *

     Carrying out vdW-DF run using the following parameters:

     Nqs =      20    Nr_points =    1024   r_max =   100.000
     q_mesh =
               0.00001000     0.04494208     0.09755937     0.15916263
               0.23128650     0.31572767     0.41458969     0.53033537
               0.66584808     0.82450364     1.01025438     1.22772762
               1.48234092     1.78043706     2.12944203     2.53805004
               3.01644009     3.57652955     4.23227104     5.00000000

     Gradients computed in reciprocal space

     Adding external electric field

     Computed dipole along edir(3) :
        Dipole                0.0000 Ry au,          0.0000 Debye
        Dipole field          0.0000 Ry au

        Potential amp.       -0.0000 Ry
        Total length         45.1967 bohr

     Starting wfc are  144 randomized atomic wfcs

     Self-consistent Calculation

     iteration #  1     ecut=    36.75 Ry     beta=0.10
     Davidson diagonalization with overlap
     ethr =  1.00E-02,  avg # of iterations =  9.2

[...]

     total energy              =   -2147.50694532 Ry
     Harris-Foulkes estimate   =   -2148.65448390 Ry
     estimated scf accuracy    <       6.64555137 Ry

[...]

     End of self-consistent calculation

          k = 0.0000 0.0000 0.0000 ( 16559 PWs)   bands (ev):

   -84.6728 -84.6382 -84.6381 -84.2812 -84.2805 -84.2471 -84.2470 -84.2469
   -84.2469 -44.2118 -44.0952 -44.0951 -44.0586 -43.9808 -43.9807 -43.8914
   -43.8620 -43.8165 -43.6575 -43.6575 -43.6519 -43.6519 -43.5979 -43.5979
   -43.5092 -43.4461 -43.4461 -43.4309 -43.4034 -43.4034 -43.3727 -43.3627
   -43.3246 -43.3245 -43.3216 -43.3216  -7.3567  -5.5100  -5.2247  -5.1007
    -5.1007  -4.8369  -4.8369  -4.5563  -4.3486  -4.2610  -4.2610  -4.1402
    -4.1402  -3.9643  -3.3928  -2.9689  -2.9689  -2.8594  -2.8594  -2.2504
    -1.9540  -1.6235  -1.4927  -1.3482  -1.3482  -0.9721  -0.9721  -0.6572
    -0.6572  -0.5440  -0.5440  -0.2861   0.0393   0.0393   0.0879   0.3614
     0.3614   0.6167   0.6168   0.7608   1.2970   1.4300   1.4300   1.9414
     1.9766   2.5072   2.5599   2.5599   2.6216   2.6216   2.7947   2.7947
     3.1512   3.1513   3.1885   3.1885   3.2966   3.2966   3.3519   3.3520
     3.3583   3.6995   3.7822   3.7822   4.3937   4.7984   4.8829   5.0426
     5.1729   5.4526   5.4526   5.9703   5.9703   6.8040   7.0302   7.4622
     8.1782   8.2112   8.3768   9.1181   9.1288   9.1433

[...]

          k =-0.0901-0.0520 0.0000 ( 16596 PWs)   bands (ev):

[...]

     the Fermi energy is     2.2767 ev

!    total energy              =   -2147.60899546 Ry
     Harris-Foulkes estimate   =   -2147.60898934 Ry
     estimated scf accuracy    <       0.00000094 Ry

     The total energy is the sum of the following terms:

     one-electron contribution =  -17384.73196724 Ry
     hartree contribution      =    8700.47927667 Ry
     xc contribution           =    -539.79007483 Ry
     ewald contribution        =    7076.52248392 Ry
     electric field correction =       0.00000000 Ry
     smearing contrib. (-TS)   =      -0.08871398 Ry

     convergence has been achieved in  15 iterations

 BEEF-vdW xc energy contributions
           1 :   -476.443206119907
           2 :    442.176840836205
           3 :   -381.240533361886
           4 :    306.217236776644
           5 :   -230.849332768850
[...]
                l(1) =   0
                l(2) =   0
                l(3) =   1
                l(4) =   1
                l(5) =   2
                l(6) =   2
                l(7) =   3
                l(8) =   3
     Q(r) pseudized with  8 coefficients,  rinner =    1.150   1.150   1.150
                                                       1.150   1.150   1.150
                                                       1.150

     PseudoPot. # 2 for Au read from file:
     /afs/slac.stanford.edu/u/if/mamunm/psp/gbrv1.5pbe/Au.UPF
     MD5 check sum: 9d7f43293ad2c663164586bc4b293ffc
     Pseudo is Ultrasoft + core correction, Zval = 11.0
     Generated by new atomic code, or converted to UPF format
     Using radial grid of  985 points,  7 beta functions with:
                l(1) =   0
                l(2) =   0
                l(3) =   1
                l(4) =   1
                l(5) =   2
                l(6) =   2
                l(7) =   3
     Q(r) pseudized with  6 coefficients,  rinner =    1.900   1.900   1.900
                                                       1.900   1.900   1.900
                                                       1.900

     vdW kernel table read from file vdW_kernel_table
     MD5 check sum: 095c7af220d748ca6e76c0b4c6cfb241

     atomic species   valence    mass     pseudopotential
        Os1           16.00   190.23000     Os( 1.00)
        Au1           11.00   196.96657     Au( 1.00)

     No symmetry found

   Cartesian axes

     site n.     atom                  positions (alat units)
         1           Os1 tau(   1) = (   0.0000000   0.0000000  10.0000000  )
         2           Os1 tau(   2) = (  -1.3871191   2.4025607  10.0000000  )
         3           Os1 tau(   3) = (   1.3871191   2.4025607  10.0000000  )
         4           Au1 tau(   4) = (   2.7742381   0.0000000  10.0000000  )
         5           Os1 tau(   5) = (   2.7742381   1.6017071  12.2651559  )
         6           Os1 tau(   6) = (   1.3871191   4.0042678  12.2651559  )
         7           Os1 tau(   7) = (  -1.3871191   4.0042678  12.2651559  )
         8           Au1 tau(   8) = (   0.0000000   1.6017071  12.2651559  )
         9           Os1 tau(   9) = (  -0.0000026   3.3167349  14.4469884  )
        10           Os1 tau(  10) = (   1.4852525   0.7442015  14.4469916  )
        11           Os1 tau(  11) = (   4.0632149   0.7441989  14.4469823  )
        12           Au1 tau(  12) = (   2.7742321   3.2034163  14.6686189  )

     number of k points=    20  Fermi-Dirac smearing, width (Ry)=  0.0110
                       cart. coord. in units 2pi/alat
        k(    1) = (   0.0000000   0.0000000   0.0000000), wk =   0.0555556
        k(    2) = (   0.0000000   0.0346852   0.0000000), wk =   0.1111111
        k(    3) = (   0.0000000   0.0693704   0.0000000), wk =   0.1111111
        k(    4) = (   0.0000000  -0.1040556   0.0000000), wk =   0.0555556
        k(    5) = (   0.0300383   0.0173426   0.0000000), wk =   0.1111111
        k(    6) = (   0.0300383   0.0520278   0.0000000), wk =   0.1111111
        k(    7) = (   0.0300383   0.0867130   0.0000000), wk =   0.1111111
        k(    8) = (   0.0300383  -0.0867130   0.0000000), wk =   0.1111111
        k(    9) = (   0.0300383  -0.0520278   0.0000000), wk =   0.1111111
        k(   10) = (   0.0300383  -0.0173426   0.0000000), wk =   0.1111111
        k(   11) = (   0.0600766   0.0346852   0.0000000), wk =   0.1111111
        k(   12) = (   0.0600766   0.0693704   0.0000000), wk =   0.1111111
        k(   13) = (   0.0600766   0.1040556   0.0000000), wk =   0.1111111
        k(   14) = (   0.0600766  -0.0693704   0.0000000), wk =   0.1111111
        k(   15) = (   0.0600766  -0.0346852   0.0000000), wk =   0.1111111
        k(   16) = (   0.0600766   0.0000000   0.0000000), wk =   0.1111111
        k(   17) = (  -0.0901148  -0.0520278   0.0000000), wk =   0.0555556
        k(   18) = (  -0.0901148  -0.0173426   0.0000000), wk =   0.1111111
        k(   19) = (  -0.0901148   0.0173426   0.0000000), wk =   0.1111111
        k(   20) = (  -0.0901148  -0.1560835   0.0000000), wk =   0.0555556

     Largest allocated arrays     est. size (Mb)     dimensions
     Largest temporary arrays     est. size (Mb)     dimensions

     Check: negative/imaginary core charge=   -0.000001    0.000000

     Initial potential from superposition of free atoms
     Check: negative starting charge=   -1.124549

     starting charge  172.49930, renormalised to  177.00000

[...]

     *
     * You are using vdW-DF for exchange-correlation in this calculation.
     * Please cite the following three references that made this development
     * possible:
     *
     *   M. Dion, H. Rydberg, E. Schroder, D. C. Langreth, and
     *   B. I. Lundqvist, Phys. Rev. Lett. 92, 246401 (2004).
     *
     *   T. Thonhauser, V. R. Cooper, S. Li, A. Puzder, P. Hyldgaard, and
     *   D. C. Langreth, Phys. Rev. B 76, 125112 (2007).
     *
     *   G. Roman-Perez and J. M. Soler, Phys. Rev. Lett. 103, 096102 (2009).
     *
     *
     * If you are using vdW-DF2, please also cite:
     *
     *   K. Lee, E. D. Murray, L. Kong, B. I. Lundqvist, and
     *   D. C. Langreth, Phys. Rev. B 82, 081101(R) (2010).
     *
     *
     * If you are calculating the stress with vdW-DF, please also cite:
     *
     *   R. Sabatini, E. Kucukbenli, B. Kolb, T. Thonhauser, and
     *   S. de Gironcoli, J. Phys.: Condens. Matter 24, 424209 (2012).
     *

     Carrying out vdW-DF run using the following parameters:

     Nqs =      20    Nr_points =    1024   r_max =   100.000
     q_mesh =
               0.00001000     0.04494208     0.09755937     0.15916263
               0.23128650     0.31572767     0.41458969     0.53033537
               0.66584808     0.82450364     1.01025438     1.22772762
               1.48234092     1.78043706     2.12944203     2.53805004
               3.01644009     3.57652955     4.23227104     5.00000000

     Gradients computed in reciprocal space

[...]

     Starting wfc are  144 randomized atomic wfcs

     Self-consistent Calculation

[...]

     total energy              =   -2147.63722362 Ry
     Harris-Foulkes estimate   =   -2147.63722312 Ry
     estimated scf accuracy    <       0.00000372 Ry

     iteration # 16     ecut=    36.75 Ry     beta=0.10
     Davidson diagonalization with overlap
     ethr =  2.10E-09,  avg # of iterations =  2.0

[...]

     negative rho (up, down):  1.117E+00 0.000E+00

     Adding external electric field

     Computed dipole along edir(3) :
        Dipole                0.0340 Ry au,          0.0864 Debye
        Dipole field          0.0001 Ry au

        Potential amp.       -0.0088 Ry
        Total length         45.1967 bohr

     End of self-consistent calculation

[...]

          k = 0.0601 0.0000 0.0000 ( 16568 PWs)   bands (ev):

[...]

          k =-0.0901-0.1561 0.0000 ( 16596 PWs)   bands (ev):

   -84.6557 -84.6440 -84.6321 -84.4105 -84.3711 -84.3655 -84.1971 -84.1858
   -84.1744 -44.1939 -44.1193 -44.0655 -44.0474 -43.9875 -43.9838 -43.9298
   -43.9288 -43.8355 -43.7676 -43.7126 -43.6919 -43.6490 -43.5597 -43.5393
   -43.5262 -43.5243 -43.5204 -43.5040 -43.4563 -43.4376 -43.4225 -43.4194
   -43.3749 -43.3514 -43.3414 -43.2725  -5.6882  -5.4129  -4.4628  -4.3714
    -4.3490  -4.1094  -3.9780  -3.7951  -3.7613  -3.6559  -3.5170  -3.4558
    -3.4077  -3.0843  -2.8958  -2.8903  -2.8364  -2.5772  -2.5039  -2.3906
    -2.3862  -2.1767  -1.9984  -1.9669  -1.6765  -1.5041  -1.3141  -1.1759
    -1.0851  -0.9991  -0.7390  -0.6123  -0.5961  -0.3663  -0.3654  -0.2665
    -0.1170  -0.0821   0.0159   0.2664   0.2865   0.4479   0.5880   0.7973
     0.8189   0.9542   1.1558   1.2551   1.4613   1.4684   1.6216   1.9069
     2.1167   2.1284   2.2074   2.3310   2.3769   2.6440   2.7284   2.8004
     2.9239   3.4198   3.7261   4.2003   4.3964   4.4235   4.5467   5.4720
     6.1502   6.4992   6.6448   7.1653   7.3558   7.8333   8.2793   8.2987
     8.8681   8.9527   8.9862   8.9983   9.7147  10.0781

     the Fermi energy is     2.3137 ev

!    total energy              =   -2147.63722915 Ry
     Harris-Foulkes estimate   =   -2147.63722371 Ry
     estimated scf accuracy    <       0.00000085 Ry

     The total energy is the sum of the following terms:

     one-electron contribution =  -17494.24376426 Ry
     hartree contribution      =    8755.19080850 Ry
     xc contribution           =    -539.95308100 Ry
     ewald contribution        =    7131.45680603 Ry
     electric field correction =       0.00000329 Ry
     smearing contrib. (-TS)   =      -0.08800172 Ry

     convergence has been achieved in  16 iterations

 BEEF-vdW xc energy contributions
           1 :   -476.605886818247
           2 :    442.377809801671
           3 :   -381.498880729014
           4 :    306.516660707256
           5 :   -231.137136063205
           6 :    166.564758001783
           7 :   -119.084595399778
           8 :    89.4276774210003
           9 :   -73.8900906848635
          10 :    66.5727933357213
          11 :   -61.8094600943308
          12 :    55.9056088639421
          13 :   -47.7380268433556
          14 :    38.2605082330202
          15 :   -29.3680922314876
          16 :    22.7016909912035
          17 :   -18.8771548358350
          18 :    17.3510358873409
          19 :   -16.8499284542243
          20 :    16.0628676465516
          21 :   -14.2381035443644
          22 :    11.4251735571599
          23 :   -8.31159891869686
          24 :    5.78799303326412
          25 :   -4.47994722224109
          26 :    4.46241698448722
          27 :   -5.26650021701244
          28 :    6.13867053467015
          29 :   -6.40581032001921
          30 :    5.76348616444000
          31 :   -42.4092782790270
          32 :   -31.9351818109711

     Forces acting on atoms (Ry/au):

     negative rho (up, down):  1.117E+00 0.000E+00
     atom    1 type  1   force =    -0.00000491   -0.04279422    0.02200480
     atom    2 type  1   force =    -0.03705950    0.02139597    0.02199912
     atom    3 type  1   force =     0.03706024    0.02140368    0.02200437
     atom    4 type  2   force =    -0.00000269    0.00000292   -0.03859820
     atom    5 type  1   force =    -0.00000924    0.01515296   -0.01281227
     atom    6 type  1   force =     0.01311604   -0.00758298   -0.01280981
     atom    7 type  1   force =    -0.01311306   -0.00757091   -0.01280314
     atom    8 type  2   force =    -0.00000499   -0.00000122    0.00591685
     atom    9 type  1   force =     0.00000772    0.00036322    0.00115594
     atom   10 type  1   force =     0.00031657   -0.00018129    0.00115812
     atom   11 type  1   force =    -0.00031175   -0.00018745    0.00115276
     atom   12 type  2   force =     0.00000558   -0.00000069    0.00163147

     Total force =     0.098280     Total SCF correction =     0.005465

     entering subroutine stress ...

     negative rho (up, down):  1.117E+00 0.000E+00
          total   stress  (Ry/bohr**3)                   (kbar)     P=  -24.91
  -0.00023710   0.00000000   0.00000000        -34.88      0.00      0.00
   0.00000000  -0.00023710  -0.00000000          0.00    -34.88     -0.00
   0.00000000  -0.00000000  -0.00003374          0.00     -0.00     -4.96

 !ASE

     Writing output data file calc.save

     General routines

     Parallel routines

   This run was terminated on:   6:18:36  31Dec2018

   JOB DONE.
Job  /afs/slac/g/suncat/bin/suncat-tsmpirun -x LD_LIBRARY_PATH -wdir /scratch/qe648680_OWajt pw.x -in pw.inp

TID   HOST_NAME   COMMAND_LINE            STATUS            TERMINATION_TIME
00000 suncat0020 pw.x -in pw.inp   Done                     12/31/2018 06:18:36
00001 suncat0020 pw.x -in pw.inp   Done                     12/31/2018 06:18:36
00002 suncat0020 pw.x -in pw.inp   Done                     12/31/2018 06:18:36
00003 suncat0020 pw.x -in pw.inp   Done                     12/31/2018 06:18:36
00004 suncat0020 pw.x -in pw.inp   Done                     12/31/2018 06:18:36
00005 suncat0020 pw.x -in pw.inp   Done                     12/31/2018 06:18:36
00006 suncat0020 pw.x -in pw.inp   Done                     12/31/2018 06:18:36
00007 suncat0020 pw.x -in pw.inp   Done                     12/31/2018 06:18:36
00008 suncat0014 pw.x -in pw.inp   Done                     12/31/2018 06:18:36
00009 suncat0014 pw.x -in pw.inp   Done                     12/31/2018 06:18:36
00010 suncat0014 pw.x -in pw.inp   Done                     12/31/2018 06:18:36
00011 suncat0014 pw.x -in pw.inp   Done                     12/31/2018 06:18:36
00012 suncat0014 pw.x -in pw.inp   Done                     12/31/2018 06:18:36
00013 suncat0014 pw.x -in pw.inp   Done                     12/31/2018 06:18:36
00014 suncat0014 pw.x -in pw.inp   Done                     12/31/2018 06:18:36
00015 suncat0014 pw.x -in pw.inp   Done                     12/31/2018 06:18:36
00016 suncat0199 pw.x -in pw.inp   Done                     12/31/2018 06:18:36
00017 suncat0199 pw.x -in pw.inp   Done                     12/31/2018 06:18:36
00018 suncat0199 pw.x -in pw.inp   Done                     12/31/2018 06:18:36
00019 suncat0199 pw.x -in pw.inp   Done                     12/31/2018 06:18:36
00020 suncat0199 pw.x -in pw.inp   Done                     12/31/2018 06:18:36
00021 suncat0199 pw.x -in pw.inp   Done                     12/31/2018 06:18:36
00022 suncat0199 pw.x -in pw.inp   Done                     12/31/2018 06:18:36
00023 suncat0199 pw.x -in pw.inp   Done                     12/31/2018 06:18:36
00024 suncat0006 pw.x -in pw.inp   Done                     12/31/2018 06:18:36
00025 suncat0006 pw.x -in pw.inp   Done                     12/31/2018 06:18:36
00026 suncat0006 pw.x -in pw.inp   Done                     12/31/2018 06:18:36
00027 suncat0006 pw.x -in pw.inp   Done                     12/31/2018 06:18:36
00028 suncat0006 pw.x -in pw.inp   Done                     12/31/2018 06:18:36
00029 suncat0006 pw.x -in pw.inp   Done                     12/31/2018 06:18:36
00030 suncat0006 pw.x -in pw.inp   Done                     12/31/2018 06:18:36
00031 suncat0006 pw.x -in pw.inp   Done                     12/31/2018 06:18:36
00032 suncat0005 pw.x -in pw.inp   Done                     12/31/2018 06:18:36
00033 suncat0005 pw.x -in pw.inp   Done                     12/31/2018 06:18:36
00034 suncat0005 pw.x -in pw.inp   Done                     12/31/2018 06:18:36
00035 suncat0005 pw.x -in pw.inp   Done                     12/31/2018 06:18:36
00036 suncat0005 pw.x -in pw.inp   Done                     12/31/2018 06:18:36
00037 suncat0005 pw.x -in pw.inp   Done                     12/31/2018 06:18:36
00038 suncat0005 pw.x -in pw.inp   Done                     12/31/2018 06:18:36
00039 suncat0005 pw.x -in pw.inp   Done                     12/31/2018 06:18:36
00040 suncat0004 pw.x -in pw.inp   Done                     12/31/2018 06:18:36
00041 suncat0004 pw.x -in pw.inp   Done                     12/31/2018 06:18:36
00042 suncat0004 pw.x -in pw.inp   Done                     12/31/2018 06:18:36
00043 suncat0004 pw.x -in pw.inp   Done                     12/31/2018 06:18:36
00044 suncat0004 pw.x -in pw.inp   Done                     12/31/2018 06:18:36
00045 suncat0004 pw.x -in pw.inp   Done                     12/31/2018 06:18:36
00046 suncat0004 pw.x -in pw.inp   Done                     12/31/2018 06:18:36
00047 suncat0004 pw.x -in pw.inp   Done                     12/31/2018 06:18:36
00048 suncat0187 pw.x -in pw.inp   Done                     12/31/2018 06:18:36
00049 suncat0187 pw.x -in pw.inp   Done                     12/31/2018 06:18:36
00050 suncat0187 pw.x -in pw.inp   Done                     12/31/2018 06:18:36
00051 suncat0187 pw.x -in pw.inp   Done                     12/31/2018 06:18:36
00052 suncat0187 pw.x -in pw.inp   Done                     12/31/2018 06:18:36
00053 suncat0187 pw.x -in pw.inp   Done                     12/31/2018 06:18:36
00054 suncat0187 pw.x -in pw.inp   Done                     12/31/2018 06:18:36
00055 suncat0187 pw.x -in pw.inp   Done                     12/31/2018 06:18:36
00056 suncat0186 pw.x -in pw.inp   Done                     12/31/2018 06:18:36
00057 suncat0186 pw.x -in pw.inp   Done                     12/31/2018 06:18:36
00058 suncat0186 pw.x -in pw.inp   Done                     12/31/2018 06:18:36
00059 suncat0186 pw.x -in pw.inp   Done                     12/31/2018 06:18:36
00060 suncat0186 pw.x -in pw.inp   Done                     12/31/2018 06:18:36
00061 suncat0186 pw.x -in pw.inp   Done                     12/31/2018 06:18:36
00062 suncat0186 pw.x -in pw.inp   Done                     12/31/2018 06:18:36
00063 suncat0186 pw.x -in pw.inp   Done                     12/31/2018 06:18:36