     Program PWSCF v.5.1rc2 (svn rev. 11289) starts on 26Dec2018 at 15:44:46

     Current dimensions of program PWSCF are:
     Max number of different atomic species (ntypx) = 10
     Max number of k-points (npk) =  40000
     Max angular momentum in pseudopotentials (lmaxx) =  3
     Presently stress not available with electric field

     IMPORTANT: XC functional enforced from input :
     Exchange-correlation      = BEEF-VDW ( 1  4 27 13 2)
     Any further DFT definition will be discarded
     Please, verify this is what you really want

     Subspace diagonalization in iterative solution of the eigenvalue problem:
     a serial algorithm will be used

     bravais-lattice index     =            0
     lattice parameter (alat)  =       1.8897  a.u.
     unit-cell volume          =    4310.8207 (a.u.)^3
     number of atoms/cell      =           12
     number of atomic types    =            2
     number of electrons       =       180.00
     number of Kohn-Sham states=          120
     kinetic-energy cutoff     =      36.7493  Ry
     charge density cutoff     =     367.4932  Ry
     convergence threshold     =      1.0E-06
     mixing beta               =       0.1000
     number of iterations used =           10  plain     mixing
     Exchange-correlation      = BEEF-VDW ( 1  4 27 13 2)
     nstep                     =           50

     celldm(1)=   1.889726  celldm(2)=   0.000000  celldm(3)=   0.000000
     celldm(4)=   0.000000  celldm(5)=   0.000000  celldm(6)=   0.000000

     crystal axes: (cart. coord. in units of alat)
               a(1) = (   5.489022   0.000000   0.000000 )
               a(2) = (  -2.744511   4.753633   0.000000 )
               a(3) = (   0.000000   0.000000  24.481768 )

     reciprocal axes: (cart. coord. in units 2 pi/alat)
               b(1) = (  0.182182  0.105183  0.000000 )
               b(2) = (  0.000000  0.210365  0.000000 )
               b(3) = (  0.000000  0.000000  0.040847 )

     PseudoPot. # 1 for Ir read from file:
     /afs/slac.stanford.edu/u/if/mamunm/psp/gbrv1.5pbe/Ir.UPF
     MD5 check sum: 8836f839c3459d2b385c504ce6d91f2c
     Pseudo is Ultrasoft + core correction, Zval = 15.0
     Generated by new atomic code, or converted to UPF format
     Using radial grid of  983 points,  7 beta functions with:
                l(1) =   0
                l(2) =   0
                l(3) =   1
                l(4) =   1
                l(5) =   1
                l(6) =   2
                l(7) =   2
     Q(r) pseudized with  8 coefficients,  rinner =    1.400   1.400   1.400
                                                       1.400   1.400

     PseudoPot. # 2 for Re read from file:
     /afs/slac.stanford.edu/u/if/mamunm/psp/gbrv1.5pbe/Re.UPF
     MD5 check sum: 85f993410f3e006da9d71c142b4ad953
     Pseudo is Ultrasoft + core correction, Zval = 15.0
     Generated by new atomic code, or converted to UPF format
     Using radial grid of  981 points,  8 beta functions with:
                l(1) =   0
                l(2) =   0
                l(3) =   1
                l(4) =   1
                l(5) =   2
                l(6) =   2
                l(7) =   3
                l(8) =   3
     Q(r) pseudized with  8 coefficients,  rinner =    1.150   1.150   1.150
                                                       1.150   1.150   1.150
                                                       1.150

     vdW kernel table read from file vdW_kernel_table
     MD5 check sum: 095c7af220d748ca6e76c0b4c6cfb241

     atomic species   valence    mass     pseudopotential
        Ir1           15.00   192.21700     Ir( 1.00)
        Re1           15.00   186.20700     Re( 1.00)

     No symmetry found

   Cartesian axes

     site n.     atom                  positions (alat units)
         1           Ir1 tau(   1) = (   0.0000000   0.0000000  10.0000000  )
         2           Ir1 tau(   2) = (  -1.3722555   2.3768163  10.0000000  )
         3           Ir1 tau(   3) = (   1.3722555   2.3768163  10.0000000  )
         4           Re1 tau(   4) = (   2.7445110   0.0000000  10.0000000  )
         5           Ir1 tau(   5) = (   2.7445110   1.5845442  12.2408839  )
         6           Ir1 tau(   6) = (   1.3722555   3.9613605  12.2408839  )
         7           Ir1 tau(   7) = (  -1.3722555   3.9613605  12.2408839  )
         8           Re1 tau(   8) = (   0.0000000   1.5845442  12.2408839  )
         9           Ir1 tau(   9) = (  -0.0000000   3.1690884  14.4817677  )
        10           Ir1 tau(  10) = (   1.3722555   0.7922721  14.4817677  )
        11           Ir1 tau(  11) = (   4.1167665   0.7922721  14.4817677  )
        12           Re1 tau(  12) = (   2.7445110   3.1690884  14.4817677  )

     number of k points=    20  Fermi-Dirac smearing, width (Ry)=  0.0110
                       cart. coord. in units 2pi/alat
        k(    1) = (   0.0000000   0.0000000   0.0000000), wk =   0.0555556
        k(    2) = (   0.0000000   0.0350609   0.0000000), wk =   0.1111111
        k(    3) = (   0.0000000   0.0701218   0.0000000), wk =   0.1111111
        k(    4) = (   0.0000000  -0.1051827   0.0000000), wk =   0.0555556
        k(    5) = (   0.0303636   0.0175305   0.0000000), wk =   0.1111111
        k(    6) = (   0.0303636   0.0525914   0.0000000), wk =   0.1111111
        k(    7) = (   0.0303636   0.0876523   0.0000000), wk =   0.1111111
        k(    8) = (   0.0303636  -0.0876523   0.0000000), wk =   0.1111111
        k(    9) = (   0.0303636  -0.0525914   0.0000000), wk =   0.1111111
        k(   10) = (   0.0303636  -0.0175305   0.0000000), wk =   0.1111111
        k(   11) = (   0.0607273   0.0350609   0.0000000), wk =   0.1111111
        k(   12) = (   0.0607273   0.0701218   0.0000000), wk =   0.1111111
        k(   13) = (   0.0607273   0.1051827   0.0000000), wk =   0.1111111
        k(   14) = (   0.0607273  -0.0701218   0.0000000), wk =   0.1111111
        k(   15) = (   0.0607273  -0.0350609   0.0000000), wk =   0.1111111
        k(   16) = (   0.0607273   0.0000000   0.0000000), wk =   0.1111111
        k(   17) = (  -0.0910909  -0.0525914   0.0000000), wk =   0.0555556
        k(   18) = (  -0.0910909  -0.0175305   0.0000000), wk =   0.1111111
        k(   19) = (  -0.0910909   0.0175305   0.0000000), wk =   0.1111111
        k(   20) = (  -0.0910909  -0.1577741   0.0000000), wk =   0.0555556

     Largest allocated arrays     est. size (Mb)     dimensions
     Largest temporary arrays     est. size (Mb)     dimensions

     Initial potential from superposition of free atoms
     Check: negative starting charge=   -3.656163

     starting charge  173.99958, renormalised to  180.00000

     negative rho (up, down):  3.782E+00 0.000E+00

     *
     * You are using vdW-DF for exchange-correlation in this calculation.
     * Please cite the following three references that made this development
     * possible:
     *
     *   M. Dion, H. Rydberg, E. Schroder, D. C. Langreth, and
     *   B. I. Lundqvist, Phys. Rev. Lett. 92, 246401 (2004).
     *
     *   T. Thonhauser, V. R. Cooper, S. Li, A. Puzder, P. Hyldgaard, and
     *   D. C. Langreth, Phys. Rev. B 76, 125112 (2007).
     *
     *   G. Roman-Perez and J. M. Soler, Phys. Rev. Lett. 103, 096102 (2009).
     *
     *
     * If you are using vdW-DF2, please also cite:
     *
     *   K. Lee, E. D. Murray, L. Kong, B. I. Lundqvist, and
     *   D. C. Langreth, Phys. Rev. B 82, 081101(R) (2010).
     *
     *
     * If you are calculating the stress with vdW-DF, please also cite:
     *
     *   R. Sabatini, E. Kucukbenli, B. Kolb, T. Thonhauser, and
     *   S. de Gironcoli, J. Phys.: Condens. Matter 24, 424209 (2012).
     *

     Carrying out vdW-DF run using the following parameters:

     Nqs =      20    Nr_points =    1024   r_max =   100.000
     q_mesh =
               0.00001000     0.04494208     0.09755937     0.15916263
               0.23128650     0.31572767     0.41458969     0.53033537
               0.66584808     0.82450364     1.01025438     1.22772762
               1.48234092     1.78043706     2.12944203     2.53805004
               3.01644009     3.57652955     4.23227104     5.00000000

     Gradients computed in reciprocal space

     Adding external electric field

     Computed dipole along edir(3) :
        Dipole                0.0000 Ry au,          0.0000 Debye
        Dipole field          0.0000 Ry au

        Potential amp.       -0.0000 Ry
        Total length         45.1072 bohr

     Starting wfc are  147 randomized atomic wfcs

     Self-consistent Calculation

     iteration #  1     ecut=    36.75 Ry     beta=0.10
     Davidson diagonalization with overlap
     ethr =  1.00E-02,  avg # of iterations =  8.1

[...]

     total energy              =   -2226.47951807 Ry
     Harris-Foulkes estimate   =   -2229.95130514 Ry
     estimated scf accuracy    <      20.91290747 Ry

[...]

     End of self-consistent calculation

          k = 0.0000 0.0000 0.0000 ( 16091 PWs)   bands (ev):

   -78.7939 -78.4143 -78.4141 -47.5747 -47.3994 -47.3994 -47.3579 -47.2909
   -47.2909 -47.1400 -47.0893 -47.0893 -46.9999 -46.9925 -46.9176 -46.9176
   -46.8819 -46.8819 -46.7061 -46.6890 -46.6818 -46.6580 -46.6546 -46.6546
   -46.6284 -46.6284 -46.5407 -46.5407 -46.5391 -46.5391 -40.4644 -40.4201
   -40.4201 -40.0949 -40.0826 -40.0337 -40.0337 -40.0307 -40.0307  -6.9917
    -5.0484  -4.6646  -4.3561  -4.3413  -4.3413  -4.0448  -4.0190  -4.0190
    -3.5043  -3.5043  -3.4783  -3.2256  -3.2006  -3.2006  -1.7806  -1.7079
    -1.7079  -1.1962  -1.1962  -1.0750  -0.8611  -0.6806  -0.6690  -0.6690
    -0.4686  -0.2602  -0.2602   0.0008   0.0008   0.0856   0.0856   0.1369
     0.1369   0.6848   1.3617   1.5173   1.6075   1.6075   1.7380   1.7380
     1.7878   1.7878   2.0472   2.9048   2.9125   2.9125   2.9132   2.9263
     2.9263   3.4439   3.7121   3.7121   3.7390   3.8069   3.8069   3.8797
     3.9573   3.9573   3.9667   4.0302   4.3771   4.3772   4.8489   4.8489
     5.0073   5.0073   5.9534   5.9534   6.1211   6.3191   6.3191   6.7159
     7.0975   7.3127   7.7352   8.6360   9.5337   9.5337   9.5418   9.5661

[...]

          k =-0.0911-0.0526 0.0000 ( 16164 PWs)   bands (ev):

[...]

     the Fermi energy is     2.5623 ev

!    total energy              =   -2226.34342119 Ry
     Harris-Foulkes estimate   =   -2226.34342253 Ry
     estimated scf accuracy    <       0.00000055 Ry

     The total energy is the sum of the following terms:

     one-electron contribution =  -18331.96399255 Ry
     hartree contribution      =    9183.19155090 Ry
     xc contribution           =    -629.84342351 Ry
     ewald contribution        =    7552.34384202 Ry
     electric field correction =       0.00000000 Ry
     smearing contrib. (-TS)   =      -0.07139804 Ry

     convergence has been achieved in  17 iterations

 BEEF-vdW xc energy contributions
           1 :   -558.548509943924
           2 :    519.649164729343
           3 :   -449.939910451254
           4 :    362.929368396016
           5 :   -273.564462367895
           6 :    194.360315497310
           7 :   -132.754021659152
           8 :    90.3040636273587
           9 :   -63.7371872006582
[...]
     Generated by new atomic code, or converted to UPF format
     Using radial grid of  983 points,  7 beta functions with:
                l(1) =   0
                l(2) =   0
                l(3) =   1
                l(4) =   1
                l(5) =   1
                l(6) =   2
                l(7) =   2
     Q(r) pseudized with  8 coefficients,  rinner =    1.400   1.400   1.400
                                                       1.400   1.400

     PseudoPot. # 2 for Re read from file:
     /afs/slac.stanford.edu/u/if/mamunm/psp/gbrv1.5pbe/Re.UPF
     MD5 check sum: 85f993410f3e006da9d71c142b4ad953
     Pseudo is Ultrasoft + core correction, Zval = 15.0
     Generated by new atomic code, or converted to UPF format
     Using radial grid of  981 points,  8 beta functions with:
                l(1) =   0
                l(2) =   0
                l(3) =   1
                l(4) =   1
                l(5) =   2
                l(6) =   2
                l(7) =   3
                l(8) =   3
     Q(r) pseudized with  8 coefficients,  rinner =    1.150   1.150   1.150
                                                       1.150   1.150   1.150
                                                       1.150

     vdW kernel table read from file vdW_kernel_table
     MD5 check sum: 095c7af220d748ca6e76c0b4c6cfb241

     atomic species   valence    mass     pseudopotential
        Ir1           15.00   192.21700     Ir( 1.00)
        Re1           15.00   186.20700     Re( 1.00)

     No symmetry found

   Cartesian axes

     site n.     atom                  positions (alat units)
         1           Ir1 tau(   1) = (   0.0000000   0.0000000  10.0000000  )
         2           Ir1 tau(   2) = (  -1.3722555   2.3768163  10.0000000  )
         3           Ir1 tau(   3) = (   1.3722555   2.3768163  10.0000000  )
         4           Re1 tau(   4) = (   2.7445110   0.0000000  10.0000000  )
         5           Ir1 tau(   5) = (   2.7445110   1.5845442  12.2408839  )
         6           Ir1 tau(   6) = (   1.3722555   3.9613605  12.2408839  )
         7           Ir1 tau(   7) = (  -1.3722555   3.9613605  12.2408839  )
         8           Re1 tau(   8) = (   0.0000000   1.5845442  12.2408839  )
         9           Ir1 tau(   9) = (   0.0000010   3.1276381  14.4033487  )
        10           Ir1 tau(  10) = (   1.3363567   0.8129962  14.4033495  )
        11           Ir1 tau(  11) = (   4.1526631   0.8129978  14.4033482  )
        12           Re1 tau(  12) = (   2.7445132   3.1690876  14.4191252  )

     number of k points=    20  Fermi-Dirac smearing, width (Ry)=  0.0110
                       cart. coord. in units 2pi/alat
        k(    1) = (   0.0000000   0.0000000   0.0000000), wk =   0.0555556
        k(    2) = (   0.0000000   0.0350609   0.0000000), wk =   0.1111111
        k(    3) = (   0.0000000   0.0701218   0.0000000), wk =   0.1111111
        k(    4) = (   0.0000000  -0.1051827   0.0000000), wk =   0.0555556
        k(    5) = (   0.0303636   0.0175305   0.0000000), wk =   0.1111111
        k(    6) = (   0.0303636   0.0525914   0.0000000), wk =   0.1111111
        k(    7) = (   0.0303636   0.0876523   0.0000000), wk =   0.1111111
        k(    8) = (   0.0303636  -0.0876523   0.0000000), wk =   0.1111111
        k(    9) = (   0.0303636  -0.0525914   0.0000000), wk =   0.1111111
        k(   10) = (   0.0303636  -0.0175305   0.0000000), wk =   0.1111111
        k(   11) = (   0.0607273   0.0350609   0.0000000), wk =   0.1111111
        k(   12) = (   0.0607273   0.0701218   0.0000000), wk =   0.1111111
        k(   13) = (   0.0607273   0.1051827   0.0000000), wk =   0.1111111
        k(   14) = (   0.0607273  -0.0701218   0.0000000), wk =   0.1111111
        k(   15) = (   0.0607273  -0.0350609   0.0000000), wk =   0.1111111
        k(   16) = (   0.0607273   0.0000000   0.0000000), wk =   0.1111111
        k(   17) = (  -0.0910909  -0.0525914   0.0000000), wk =   0.0555556
        k(   18) = (  -0.0910909  -0.0175305   0.0000000), wk =   0.1111111
        k(   19) = (  -0.0910909   0.0175305   0.0000000), wk =   0.1111111
        k(   20) = (  -0.0910909  -0.1577741   0.0000000), wk =   0.0555556

     Largest allocated arrays     est. size (Mb)     dimensions
     Largest temporary arrays     est. size (Mb)     dimensions

     Initial potential from superposition of free atoms
     Check: negative starting charge=   -3.648752

     starting charge  173.99958, renormalised to  180.00000

[...]

     *
     * You are using vdW-DF for exchange-correlation in this calculation.
     * Please cite the following three references that made this development
     * possible:
     *
     *   M. Dion, H. Rydberg, E. Schroder, D. C. Langreth, and
     *   B. I. Lundqvist, Phys. Rev. Lett. 92, 246401 (2004).
     *
     *   T. Thonhauser, V. R. Cooper, S. Li, A. Puzder, P. Hyldgaard, and
     *   D. C. Langreth, Phys. Rev. B 76, 125112 (2007).
     *
     *   G. Roman-Perez and J. M. Soler, Phys. Rev. Lett. 103, 096102 (2009).
     *
     *
     * If you are using vdW-DF2, please also cite:
     *
     *   K. Lee, E. D. Murray, L. Kong, B. I. Lundqvist, and
     *   D. C. Langreth, Phys. Rev. B 82, 081101(R) (2010).
     *
     *
     * If you are calculating the stress with vdW-DF, please also cite:
     *
     *   R. Sabatini, E. Kucukbenli, B. Kolb, T. Thonhauser, and
     *   S. de Gironcoli, J. Phys.: Condens. Matter 24, 424209 (2012).
     *

     Carrying out vdW-DF run using the following parameters:

     Nqs =      20    Nr_points =    1024   r_max =   100.000
     q_mesh =
               0.00001000     0.04494208     0.09755937     0.15916263
               0.23128650     0.31572767     0.41458969     0.53033537
               0.66584808     0.82450364     1.01025438     1.22772762
               1.48234092     1.78043706     2.12944203     2.53805004
               3.01644009     3.57652955     4.23227104     5.00000000

     Gradients computed in reciprocal space

[...]

     Starting wfc are  147 randomized atomic wfcs

     Self-consistent Calculation

[...]

     total energy              =   -2226.35501741 Ry
     Harris-Foulkes estimate   =   -2226.35501034 Ry
     estimated scf accuracy    <       0.00000115 Ry

     iteration # 17     ecut=    36.75 Ry     beta=0.10
     Davidson diagonalization with overlap
     ethr =  6.40E-10,  avg # of iterations =  2.2

[...]

     negative rho (up, down):  3.296E+00 0.000E+00

     Adding external electric field

     Computed dipole along edir(3) :
        Dipole                0.0136 Ry au,          0.0346 Debye
        Dipole field          0.0000 Ry au

        Potential amp.       -0.0036 Ry
        Total length         45.1072 bohr

     End of self-consistent calculation

[...]

          k = 0.0607 0.0000 0.0000 ( 16230 PWs)   bands (ev):

[...]

          k =-0.0911-0.1578 0.0000 ( 16164 PWs)   bands (ev):

   -78.7860 -78.4107 -78.3585 -47.5037 -47.3818 -47.3655 -47.3341 -47.3308
   -47.3249 -47.3113 -47.2918 -47.1314 -47.0083 -46.8989 -46.8829 -46.8736
   -46.8069 -46.7800 -46.7609 -46.7549 -46.7452 -46.7349 -46.7206 -46.7117
   -46.6701 -46.6322 -46.6132 -46.5933 -46.5843 -46.5037 -40.4746 -40.4413
   -40.4286 -40.0962 -40.0561 -40.0430 -40.0328 -39.9985 -39.9859  -5.1839
    -5.1761  -3.6845  -3.6501  -3.3705  -3.3522  -3.2875  -3.2622  -3.2385
    -3.1525  -2.7585  -2.6011  -2.4088  -2.1716  -2.1502  -2.1498  -1.9459
    -1.8878  -1.7944  -1.5827  -1.4394  -1.1633  -0.9020  -0.7212  -0.6285
    -0.6165  -0.5190  -0.4092  -0.3316  -0.3179  -0.1698  -0.1656  -0.1403
    -0.0705   0.0174   0.1589   0.1823   0.1831   0.3368   0.4345   0.6318
     0.8358   0.9535   1.2208   1.4443   1.4805   1.5545   1.6018   2.0450
     2.0628   2.1171   2.1480   2.4249   2.4962   2.5467   2.7255   2.9470
     3.1220   3.3083   3.5243   3.5537   4.0524   4.0587   4.6670   4.9107
     5.1339   5.6310   6.4261   6.6690   7.1264   7.4035   7.6097   8.3206
     8.5103   8.6668   8.6881   9.2696   9.2977   9.3440   9.3507  10.4784

     the Fermi energy is     2.5908 ev

!    total energy              =   -2226.35502631 Ry
     Harris-Foulkes estimate   =   -2226.35501764 Ry
     estimated scf accuracy    <       0.00000065 Ry

     The total energy is the sum of the following terms:

     one-electron contribution =  -18530.03675776 Ry
     hartree contribution      =    9282.15375867 Ry
     xc contribution           =    -630.04045288 Ry
     ewald contribution        =    7651.63722216 Ry
     electric field correction =       0.00000054 Ry
     smearing contrib. (-TS)   =      -0.06879704 Ry

     convergence has been achieved in  17 iterations

 BEEF-vdW xc energy contributions
           1 :   -558.750525966638
           2 :    519.930638839516
           3 :   -450.334314266186
           4 :    363.401213124400
           5 :   -274.020644411007
           6 :    194.690922232968
           7 :   -132.884575806954
           8 :    90.2341279140089
           9 :   -63.5459396236688
          10 :    47.0385798902103
          11 :   -34.8715019970034
          12 :    23.0671113273960
          13 :   -10.3055225537387
          14 :   -2.44017588499798
          15 :    13.0441431559084
          16 :   -19.5693664370988
          17 :    21.2687981050312
          18 :   -18.9194359582972
          19 :    14.4585013105897
          20 :   -10.1702094581583
          21 :    7.80752379645344
          22 :   -8.00777870014713
          23 :    10.2019706100393
          24 :   -13.0077949795038
          25 :    14.9035968576601
          26 :   -14.8864384146796
          27 :    12.8465105275457
          28 :   -9.53136344225516
          29 :    6.15401648947761
          30 :   -3.84504854847432
          31 :   -47.4232975783500
          32 :   -35.4916298020336

     Forces acting on atoms (Ry/au):

     negative rho (up, down):  3.296E+00 0.000E+00
     atom    1 type  1   force =     0.00000108    0.02419983    0.02240295
     atom    2 type  1   force =     0.02095761   -0.01210017    0.02240164
     atom    3 type  1   force =    -0.02095788   -0.01209998    0.02240325
     atom    4 type  2   force =    -0.00000040    0.00000042    0.01305278
     atom    5 type  1   force =     0.00000007    0.00039240   -0.01681602
     atom    6 type  1   force =     0.00033974   -0.00019647   -0.01681695
     atom    7 type  1   force =    -0.00034022   -0.00019619   -0.01681646
     atom    8 type  2   force =    -0.00000025   -0.00000124   -0.02723397
     atom    9 type  1   force =    -0.00000077   -0.00067202   -0.00094191
     atom   10 type  1   force =    -0.00058133    0.00033503   -0.00094257
     atom   11 type  1   force =     0.00058254    0.00033620   -0.00094195
     atom   12 type  2   force =    -0.00000019    0.00000219    0.00024921

     Total force =     0.070905     Total SCF correction =     0.003109

     entering subroutine stress ...

     negative rho (up, down):  3.296E+00 0.000E+00
          total   stress  (Ry/bohr**3)                   (kbar)     P=  -33.35
  -0.00027861  -0.00000000  -0.00000000        -40.98     -0.00     -0.00
  -0.00000000  -0.00027861  -0.00000000         -0.00    -40.98     -0.00
  -0.00000000  -0.00000000  -0.00012301         -0.00     -0.00    -18.09

 !ASE

     Writing output data file calc.save

     General routines

     Parallel routines

   This run was terminated on:  16:52:10  26Dec2018

   JOB DONE.
Job  /afs/slac/g/suncat/bin/suncat-tsmpirun -x LD_LIBRARY_PATH -wdir /scratch/qe109957_aVQ7p pw.x -in pw.inp

TID   HOST_NAME   COMMAND_LINE            STATUS            TERMINATION_TIME
00000 suncat0044 pw.x -in pw.inp   Done                     12/26/2018 16:52:10
00001 suncat0044 pw.x -in pw.inp   Done                     12/26/2018 16:52:10
00002 suncat0044 pw.x -in pw.inp   Done                     12/26/2018 16:52:10
00003 suncat0044 pw.x -in pw.inp   Done                     12/26/2018 16:52:10
00004 suncat0044 pw.x -in pw.inp   Done                     12/26/2018 16:52:10
00005 suncat0044 pw.x -in pw.inp   Done                     12/26/2018 16:52:10
00006 suncat0044 pw.x -in pw.inp   Done                     12/26/2018 16:52:10
00007 suncat0044 pw.x -in pw.inp   Done                     12/26/2018 16:52:10
00008 suncat0038 pw.x -in pw.inp   Done                     12/26/2018 16:52:10
00009 suncat0038 pw.x -in pw.inp   Done                     12/26/2018 16:52:10
00010 suncat0038 pw.x -in pw.inp   Done                     12/26/2018 16:52:10
00011 suncat0038 pw.x -in pw.inp   Done                     12/26/2018 16:52:10
00012 suncat0038 pw.x -in pw.inp   Done                     12/26/2018 16:52:10
00013 suncat0038 pw.x -in pw.inp   Done                     12/26/2018 16:52:10
00014 suncat0038 pw.x -in pw.inp   Done                     12/26/2018 16:52:10
00015 suncat0038 pw.x -in pw.inp   Done                     12/26/2018 16:52:10
00016 suncat0037 pw.x -in pw.inp   Done                     12/26/2018 16:52:10
00017 suncat0037 pw.x -in pw.inp   Done                     12/26/2018 16:52:10
00018 suncat0037 pw.x -in pw.inp   Done                     12/26/2018 16:52:10
00019 suncat0037 pw.x -in pw.inp   Done                     12/26/2018 16:52:10
00020 suncat0037 pw.x -in pw.inp   Done                     12/26/2018 16:52:10
00021 suncat0037 pw.x -in pw.inp   Done                     12/26/2018 16:52:10
00022 suncat0037 pw.x -in pw.inp   Done                     12/26/2018 16:52:10
00023 suncat0037 pw.x -in pw.inp   Done                     12/26/2018 16:52:10
00024 suncat0036 pw.x -in pw.inp   Done                     12/26/2018 16:52:10
00025 suncat0036 pw.x -in pw.inp   Done                     12/26/2018 16:52:10
00026 suncat0036 pw.x -in pw.inp   Done                     12/26/2018 16:52:10
00027 suncat0036 pw.x -in pw.inp   Done                     12/26/2018 16:52:10
00028 suncat0036 pw.x -in pw.inp   Done                     12/26/2018 16:52:10
00029 suncat0036 pw.x -in pw.inp   Done                     12/26/2018 16:52:10
00030 suncat0036 pw.x -in pw.inp   Done                     12/26/2018 16:52:10
00031 suncat0036 pw.x -in pw.inp   Done                     12/26/2018 16:52:10
00032 suncat0035 pw.x -in pw.inp   Done                     12/26/2018 16:52:10
00033 suncat0035 pw.x -in pw.inp   Done                     12/26/2018 16:52:10
00034 suncat0035 pw.x -in pw.inp   Done                     12/26/2018 16:52:10
00035 suncat0035 pw.x -in pw.inp   Done                     12/26/2018 16:52:10
00036 suncat0035 pw.x -in pw.inp   Done                     12/26/2018 16:52:10
00037 suncat0035 pw.x -in pw.inp   Done                     12/26/2018 16:52:10
00038 suncat0035 pw.x -in pw.inp   Done                     12/26/2018 16:52:10
00039 suncat0035 pw.x -in pw.inp   Done                     12/26/2018 16:52:10
00040 suncat0033 pw.x -in pw.inp   Done                     12/26/2018 16:52:10
00041 suncat0033 pw.x -in pw.inp   Done                     12/26/2018 16:52:10
00042 suncat0033 pw.x -in pw.inp   Done                     12/26/2018 16:52:10
00043 suncat0033 pw.x -in pw.inp   Done                     12/26/2018 16:52:10
00044 suncat0033 pw.x -in pw.inp   Done                     12/26/2018 16:52:10
00045 suncat0033 pw.x -in pw.inp   Done                     12/26/2018 16:52:10
00046 suncat0033 pw.x -in pw.inp   Done                     12/26/2018 16:52:10
00047 suncat0033 pw.x -in pw.inp   Done                     12/26/2018 16:52:10
00048 suncat0032 pw.x -in pw.inp   Done                     12/26/2018 16:52:10
00049 suncat0032 pw.x -in pw.inp   Done                     12/26/2018 16:52:10
00050 suncat0032 pw.x -in pw.inp   Done                     12/26/2018 16:52:10
00051 suncat0032 pw.x -in pw.inp   Done                     12/26/2018 16:52:10
00052 suncat0032 pw.x -in pw.inp   Done                     12/26/2018 16:52:10
00053 suncat0032 pw.x -in pw.inp   Done                     12/26/2018 16:52:10
00054 suncat0032 pw.x -in pw.inp   Done                     12/26/2018 16:52:10
00055 suncat0032 pw.x -in pw.inp   Done                     12/26/2018 16:52:10
00056 suncat0019 pw.x -in pw.inp   Done                     12/26/2018 16:52:10
00057 suncat0019 pw.x -in pw.inp   Done                     12/26/2018 16:52:10
00058 suncat0019 pw.x -in pw.inp   Done                     12/26/2018 16:52:10
00059 suncat0019 pw.x -in pw.inp   Done                     12/26/2018 16:52:10
00060 suncat0019 pw.x -in pw.inp   Done                     12/26/2018 16:52:10
00061 suncat0019 pw.x -in pw.inp   Done                     12/26/2018 16:52:10
00062 suncat0019 pw.x -in pw.inp   Done                     12/26/2018 16:52:10
00063 suncat0019 pw.x -in pw.inp   Done                     12/26/2018 16:52:10