     Program PWSCF v.5.1rc2 (svn rev. 11289) starts on 25Dec2018 at  3:10:34

     Current dimensions of program PWSCF are:
     Max number of different atomic species (ntypx) = 10
     Max number of k-points (npk) =  40000
     Max angular momentum in pseudopotentials (lmaxx) =  3
     Presently stress not available with electric field

     IMPORTANT: XC functional enforced from input :
     Exchange-correlation      = BEEF-VDW ( 1  4 27 13 2)
     Any further DFT definition will be discarded
     Please, verify this is what you really want

     Subspace diagonalization in iterative solution of the eigenvalue problem:
     a serial algorithm will be used

     Found symmetry operation: I + (  0.5000  0.0000  0.0000)
     This is a supercell, fractional translations are disabled

     bravais-lattice index     =            0
     lattice parameter (alat)  =       1.8897  a.u.
     unit-cell volume          =    5654.8130 (a.u.)^3
     number of atoms/cell      =           12
     number of atomic types    =            2
     number of electrons       =       168.00
     number of Kohn-Sham states=          114
     kinetic-energy cutoff     =      36.7493  Ry
     charge density cutoff     =     367.4932  Ry
     convergence threshold     =      1.0E-06
     mixing beta               =       0.1000
     number of iterations used =           10  plain     mixing
     Exchange-correlation      = BEEF-VDW ( 1  4 27 13 2)
     nstep                     =           50

     celldm(1)=   1.889726  celldm(2)=   0.000000  celldm(3)=   0.000000
     celldm(4)=   0.000000  celldm(5)=   0.000000  celldm(6)=   0.000000

     crystal axes: (cart. coord. in units of alat)
               a(1) = (   6.045158   0.000000   0.000000 )
               a(2) = (  -3.022579   5.530804   0.000000 )
               a(3) = (   0.000000   0.000000  25.062576 )

     reciprocal axes: (cart. coord. in units 2 pi/alat)
               b(1) = (  0.165422  0.090403  0.000000 )
               b(2) = (  0.000000  0.180806  0.000000 )
               b(3) = (  0.000000  0.000000  0.039900 )

     PseudoPot. # 1 for W  read from file:
     /afs/slac.stanford.edu/u/if/mamunm/psp/gbrv1.5pbe/W.UPF
     MD5 check sum: 9c083fa34c2a2ea0f02f1f893e16e1c8
     Pseudo is Ultrasoft + core correction, Zval = 14.0
     Generated by new atomic code, or converted to UPF format
     Using radial grid of  923 points,  8 beta functions with:
                l(1) =   0
                l(2) =   0
                l(3) =   0
                l(4) =   1
                l(5) =   1
                l(6) =   2
                l(7) =   2
                l(8) =   3
     Q(r) pseudized with  6 coefficients,  rinner =    1.350   1.350   1.350
                                                       1.350   1.350   1.350
                                                       1.350

     PseudoPot. # 2 for Pb read from file:
     /afs/slac.stanford.edu/u/if/mamunm/psp/gbrv1.5pbe/Pb.UPF
     MD5 check sum: 3d1c1779aa92214d1e8f3a7db79003e2
     Pseudo is Ultrasoft + core correction, Zval = 14.0
     Generated by new atomic code, or converted to UPF format
     Using radial grid of  899 points,  6 beta functions with:
                l(1) =   0
                l(2) =   0
                l(3) =   1
                l(4) =   1
                l(5) =   2
                l(6) =   2
     Q(r) pseudized with  6 coefficients,  rinner =    1.000   1.000   1.000
                                                       1.000   1.000

     vdW kernel table read from file vdW_kernel_table
     MD5 check sum: 095c7af220d748ca6e76c0b4c6cfb241

     atomic species   valence    mass     pseudopotential
        W1            14.00   183.84000     W ( 1.00)
        Pb1           14.00   207.20000     Pb( 1.00)

     No symmetry found

   Cartesian axes

     site n.     atom                  positions (alat units)
         1           W1  tau(   1) = (   0.0000000   0.0000000  10.0000000  )
         2           W1  tau(   2) = (   3.0225790   0.0000000  10.0000000  )
         3           Pb1 tau(   3) = (   1.5112895   2.7654020  10.0000000  )
         4           Pb1 tau(   4) = (  -1.5112895   2.7654020  10.0000000  )
         5           W1  tau(   5) = (   3.0225790   1.6518365  12.5312882  )
         6           W1  tau(   6) = (   0.0000000   1.6518365  12.5312882  )
         7           Pb1 tau(   7) = (  -1.5112895   4.4172385  12.5312882  )
         8           Pb1 tau(   8) = (   1.5112895   4.4172385  12.5312882  )
         9           W1  tau(   9) = (   0.0000000   3.3036730  15.0625765  )
        10           W1  tau(  10) = (   3.0225790   3.3036730  15.0625765  )
        11           Pb1 tau(  11) = (   4.5338686   0.5382710  15.0625765  )
        12           Pb1 tau(  12) = (   1.5112895   0.5382710  15.0625765  )

     number of k points=    20  Fermi-Dirac smearing, width (Ry)=  0.0110
                       cart. coord. in units 2pi/alat
        k(    1) = (   0.0000000   0.0000000   0.0000000), wk =   0.0555556
        k(    2) = (   0.0000000   0.0301343   0.0000000), wk =   0.1111111
        k(    3) = (   0.0000000   0.0602685   0.0000000), wk =   0.1111111
        k(    4) = (   0.0000000  -0.0904028   0.0000000), wk =   0.0555556
        k(    5) = (   0.0275703   0.0150671   0.0000000), wk =   0.1111111
        k(    6) = (   0.0275703   0.0452014   0.0000000), wk =   0.1111111
        k(    7) = (   0.0275703   0.0753356   0.0000000), wk =   0.1111111
        k(    8) = (   0.0275703  -0.0753356   0.0000000), wk =   0.1111111
        k(    9) = (   0.0275703  -0.0452014   0.0000000), wk =   0.1111111
        k(   10) = (   0.0275703  -0.0150671   0.0000000), wk =   0.1111111
        k(   11) = (   0.0551405   0.0301343   0.0000000), wk =   0.1111111
        k(   12) = (   0.0551405   0.0602685   0.0000000), wk =   0.1111111
        k(   13) = (   0.0551405   0.0904028   0.0000000), wk =   0.1111111
        k(   14) = (   0.0551405  -0.0602685   0.0000000), wk =   0.1111111
        k(   15) = (   0.0551405  -0.0301343   0.0000000), wk =   0.1111111
        k(   16) = (   0.0551405  -0.0000000   0.0000000), wk =   0.1111111
        k(   17) = (  -0.0827108  -0.0452014   0.0000000), wk =   0.0555556
        k(   18) = (  -0.0827108  -0.0150671   0.0000000), wk =   0.1111111
        k(   19) = (  -0.0827108   0.0150671   0.0000000), wk =   0.1111111
        k(   20) = (  -0.0827108  -0.1356042   0.0000000), wk =   0.0555556

     Largest allocated arrays     est. size (Mb)     dimensions
     Largest temporary arrays     est. size (Mb)     dimensions

     Initial potential from superposition of free atoms
     Check: negative starting charge=   -0.478954

     starting charge  167.38385, renormalised to  168.00000

     negative rho (up, down):  4.807E-01 0.000E+00

     *
     * You are using vdW-DF for exchange-correlation in this calculation.
     * Please cite the following three references that made this development
     * possible:
     *
     *   M. Dion, H. Rydberg, E. Schroder, D. C. Langreth, and
     *   B. I. Lundqvist, Phys. Rev. Lett. 92, 246401 (2004).
     *
     *   T. Thonhauser, V. R. Cooper, S. Li, A. Puzder, P. Hyldgaard, and
     *   D. C. Langreth, Phys. Rev. B 76, 125112 (2007).
     *
     *   G. Roman-Perez and J. M. Soler, Phys. Rev. Lett. 103, 096102 (2009).
     *
     *
     * If you are using vdW-DF2, please also cite:
     *
     *   K. Lee, E. D. Murray, L. Kong, B. I. Lundqvist, and
     *   D. C. Langreth, Phys. Rev. B 82, 081101(R) (2010).
     *
     *
     * If you are calculating the stress with vdW-DF, please also cite:
     *
     *   R. Sabatini, E. Kucukbenli, B. Kolb, T. Thonhauser, and
     *   S. de Gironcoli, J. Phys.: Condens. Matter 24, 424209 (2012).
     *

     Carrying out vdW-DF run using the following parameters:

     Nqs =      20    Nr_points =    1024   r_max =   100.000
     q_mesh =
               0.00001000     0.04494208     0.09755937     0.15916263
               0.23128650     0.31572767     0.41458969     0.53033537
               0.66584808     0.82450364     1.01025438     1.22772762
               1.48234092     1.78043706     2.12944203     2.53805004
               3.01644009     3.57652955     4.23227104     5.00000000

     Gradients computed in reciprocal space

     Adding external electric field

     Computed dipole along edir(3) :
        Dipole               -0.0000 Ry au,         -0.0000 Debye
        Dipole field         -0.0000 Ry au

        Potential amp.        0.0000 Ry
        Total length         46.1774 bohr

     Starting wfc are  132 randomized atomic wfcs

     Self-consistent Calculation

     iteration #  1     ecut=    36.75 Ry     beta=0.10
     Davidson diagonalization with overlap
     ethr =  1.00E-02,  avg # of iterations =  3.3

     Threshold (ethr) on eigenvalues was too large:
     Diagonalizing with lowered threshold

     Davidson diagonalization with overlap
     ethr =  6.49E-04,  avg # of iterations =  4.3

[...]

     total energy              =   -1957.47743722 Ry
     Harris-Foulkes estimate   =   -1957.66092717 Ry
     estimated scf accuracy    <       1.13591917 Ry

[...]

     End of self-consistent calculation

          k = 0.0000 0.0000 0.0000 ( 21273 PWs)   bands (ev):

   -72.8108 -72.7954 -72.6798 -72.6796 -72.6646 -72.6644 -37.0148 -36.9172
   -36.8831 -36.8779 -36.8455 -36.8446 -36.8441 -36.8038 -36.7939 -36.7717
   -36.7620 -36.6953 -36.6937 -36.6638 -36.6355 -36.6066 -36.5282 -36.5277
   -16.0850 -15.8791 -15.8625 -15.8308 -15.7144 -15.6671 -15.6328 -15.5900
   -15.5819 -15.5428 -15.5371 -15.5332 -15.4916 -15.4452 -15.3584 -15.3378
   -15.3239 -15.3052 -15.2998 -15.2761 -15.2524 -15.2411 -15.2229 -15.2101
   -15.1897 -15.1834 -15.1826 -15.1230 -15.0375 -14.9549  -9.9987  -8.6169
    -7.2516  -6.5180  -5.4003  -4.4010  -2.5964  -2.3313  -2.3298  -2.0462
    -1.5705  -1.4857  -0.8899  -0.8265  -0.4882  -0.3317  -0.2277  -0.1656
    -0.1317   0.0798   0.8036   1.0076   1.0145   1.0208   1.1502   1.1867
     1.2357   1.5348   1.6388   1.8649   1.8955   2.0322   2.0442   2.1726
     2.3234   2.4522   2.7074   3.0156   3.0996   3.2456   3.2509   3.2723
     3.2740   3.3773   3.4033   3.4493   3.4538   4.1388   4.5634   5.5761
     5.5823   5.6180   6.0408   6.2717   6.3150   6.6528   6.9704   7.1781
     7.2247   7.2852

[...]

          k =-0.0827-0.0452 0.0000 ( 21276 PWs)   bands (ev):

[...]

     the Fermi energy is     1.9762 ev

!    total energy              =   -1957.52289339 Ry
     Harris-Foulkes estimate   =   -1957.52295962 Ry
     estimated scf accuracy    <       0.00000063 Ry

     The total energy is the sum of the following terms:

     one-electron contribution =  -12020.50686666 Ry
     hartree contribution      =    6036.46439042 Ry
     xc contribution           =    -646.89656875 Ry
     ewald contribution        =    4673.49710184 Ry
     electric field correction =       0.00000000 Ry
     smearing contrib. (-TS)   =      -0.08095025 Ry

     convergence has been achieved in  15 iterations

 BEEF-vdW xc energy contributions
           1 :   -573.850272188376
           2 :    532.414429433985
[...]
     MD5 check sum: 9c083fa34c2a2ea0f02f1f893e16e1c8
     Pseudo is Ultrasoft + core correction, Zval = 14.0
     Generated by new atomic code, or converted to UPF format
     Using radial grid of  923 points,  8 beta functions with:
                l(1) =   0
                l(2) =   0
                l(3) =   0
                l(4) =   1
                l(5) =   1
                l(6) =   2
                l(7) =   2
                l(8) =   3
     Q(r) pseudized with  6 coefficients,  rinner =    1.350   1.350   1.350
                                                       1.350   1.350   1.350
                                                       1.350

     PseudoPot. # 2 for Pb read from file:
     /afs/slac.stanford.edu/u/if/mamunm/psp/gbrv1.5pbe/Pb.UPF
     MD5 check sum: 3d1c1779aa92214d1e8f3a7db79003e2
     Pseudo is Ultrasoft + core correction, Zval = 14.0
     Generated by new atomic code, or converted to UPF format
     Using radial grid of  899 points,  6 beta functions with:
                l(1) =   0
                l(2) =   0
                l(3) =   1
                l(4) =   1
                l(5) =   2
                l(6) =   2
     Q(r) pseudized with  6 coefficients,  rinner =    1.000   1.000   1.000
                                                       1.000   1.000

     vdW kernel table read from file vdW_kernel_table
     MD5 check sum: 095c7af220d748ca6e76c0b4c6cfb241

     atomic species   valence    mass     pseudopotential
        W1            14.00   183.84000     W ( 1.00)
        Pb1           14.00   207.20000     Pb( 1.00)

     No symmetry found

   Cartesian axes

     site n.     atom                  positions (alat units)
         1           W1  tau(   1) = (   0.0000000   0.0000000  10.0000000  )
         2           W1  tau(   2) = (   3.0225790   0.0000000  10.0000000  )
         3           Pb1 tau(   3) = (   1.5112895   2.7654020  10.0000000  )
         4           Pb1 tau(   4) = (  -1.5112895   2.7654020  10.0000000  )
         5           W1  tau(   5) = (   3.0225790   1.6518365  12.5312882  )
         6           W1  tau(   6) = (   0.0000000   1.6518365  12.5312882  )
         7           Pb1 tau(   7) = (  -1.5112895   4.4172385  12.5312882  )
         8           Pb1 tau(   8) = (   1.5112895   4.4172385  12.5312882  )
         9           W1  tau(   9) = (  -0.0001207   3.0046578  14.5909233  )
        10           W1  tau(  10) = (   3.0225772   3.0046452  14.5909336  )
        11           Pb1 tau(  11) = (   4.5341407   0.5760045  15.5158948  )
        12           Pb1 tau(  12) = (   1.5116146   0.5760904  15.5156721  )

     number of k points=    20  Fermi-Dirac smearing, width (Ry)=  0.0110
                       cart. coord. in units 2pi/alat
        k(    1) = (   0.0000000   0.0000000   0.0000000), wk =   0.0555556
        k(    2) = (   0.0000000   0.0301343   0.0000000), wk =   0.1111111
        k(    3) = (   0.0000000   0.0602685   0.0000000), wk =   0.1111111
        k(    4) = (   0.0000000  -0.0904028   0.0000000), wk =   0.0555556
        k(    5) = (   0.0275703   0.0150671   0.0000000), wk =   0.1111111
        k(    6) = (   0.0275703   0.0452014   0.0000000), wk =   0.1111111
        k(    7) = (   0.0275703   0.0753356   0.0000000), wk =   0.1111111
        k(    8) = (   0.0275703  -0.0753356   0.0000000), wk =   0.1111111
        k(    9) = (   0.0275703  -0.0452014   0.0000000), wk =   0.1111111
        k(   10) = (   0.0275703  -0.0150671   0.0000000), wk =   0.1111111
        k(   11) = (   0.0551405   0.0301343   0.0000000), wk =   0.1111111
        k(   12) = (   0.0551405   0.0602685   0.0000000), wk =   0.1111111
        k(   13) = (   0.0551405   0.0904028   0.0000000), wk =   0.1111111
        k(   14) = (   0.0551405  -0.0602685   0.0000000), wk =   0.1111111
        k(   15) = (   0.0551405  -0.0301343   0.0000000), wk =   0.1111111
        k(   16) = (   0.0551405  -0.0000000   0.0000000), wk =   0.1111111
        k(   17) = (  -0.0827108  -0.0452014   0.0000000), wk =   0.0555556
        k(   18) = (  -0.0827108  -0.0150671   0.0000000), wk =   0.1111111
        k(   19) = (  -0.0827108   0.0150671   0.0000000), wk =   0.1111111
        k(   20) = (  -0.0827108  -0.1356042   0.0000000), wk =   0.0555556

     Largest allocated arrays     est. size (Mb)     dimensions
     Largest temporary arrays     est. size (Mb)     dimensions

     Initial potential from superposition of free atoms
     Check: negative starting charge=   -0.477178

     starting charge  167.38385, renormalised to  168.00000

[...]

     *
     * You are using vdW-DF for exchange-correlation in this calculation.
     * Please cite the following three references that made this development
     * possible:
     *
     *   M. Dion, H. Rydberg, E. Schroder, D. C. Langreth, and
     *   B. I. Lundqvist, Phys. Rev. Lett. 92, 246401 (2004).
     *
     *   T. Thonhauser, V. R. Cooper, S. Li, A. Puzder, P. Hyldgaard, and
     *   D. C. Langreth, Phys. Rev. B 76, 125112 (2007).
     *
     *   G. Roman-Perez and J. M. Soler, Phys. Rev. Lett. 103, 096102 (2009).
     *
     *
     * If you are using vdW-DF2, please also cite:
     *
     *   K. Lee, E. D. Murray, L. Kong, B. I. Lundqvist, and
     *   D. C. Langreth, Phys. Rev. B 82, 081101(R) (2010).
     *
     *
     * If you are calculating the stress with vdW-DF, please also cite:
     *
     *   R. Sabatini, E. Kucukbenli, B. Kolb, T. Thonhauser, and
     *   S. de Gironcoli, J. Phys.: Condens. Matter 24, 424209 (2012).
     *

     Carrying out vdW-DF run using the following parameters:

     Nqs =      20    Nr_points =    1024   r_max =   100.000
     q_mesh =
               0.00001000     0.04494208     0.09755937     0.15916263
               0.23128650     0.31572767     0.41458969     0.53033537
               0.66584808     0.82450364     1.01025438     1.22772762
               1.48234092     1.78043706     2.12944203     2.53805004
               3.01644009     3.57652955     4.23227104     5.00000000

     Gradients computed in reciprocal space

[...]

     Starting wfc are  132 randomized atomic wfcs

     Self-consistent Calculation

[...]

     total energy              =   -1957.68017537 Ry
     Harris-Foulkes estimate   =   -1957.68016613 Ry
     estimated scf accuracy    <       0.00000164 Ry

     iteration # 16     ecut=    36.75 Ry     beta=0.10
     Davidson diagonalization with overlap
     ethr =  9.77E-10,  avg # of iterations =  5.2

[...]

     negative rho (up, down):  5.026E-01 0.000E+00

     Adding external electric field

     Computed dipole along edir(3) :
        Dipole                0.2340 Ry au,          0.5948 Debye
        Dipole field          0.0005 Ry au

        Potential amp.       -0.0480 Ry
        Total length         46.1774 bohr

     End of self-consistent calculation

[...]

          k = 0.0551-0.0000 0.0000 ( 21327 PWs)   bands (ev):

[...]

          k =-0.0827-0.1356 0.0000 ( 21276 PWs)   bands (ev):

   -72.4653 -72.4653 -72.3530 -72.3529 -72.1368 -72.1367 -36.8293 -36.8293
   -36.5829 -36.5829 -36.5279 -36.5279 -36.5036 -36.5036 -36.4556 -36.4556
   -36.4335 -36.4335 -36.3456 -36.3456 -36.1933 -36.1932 -35.7697 -35.7697
   -15.5308 -15.5308 -15.4041 -15.4041 -15.3360 -15.3360 -15.3239 -15.3239
   -15.3148 -15.3148 -15.2556 -15.2555 -15.2042 -15.2041 -15.1908 -15.1908
   -15.1652 -15.1652 -15.1461 -15.1461 -15.1176 -15.1175 -15.0909 -15.0909
   -15.0809 -15.0808 -15.0622 -15.0621 -14.9997 -14.9997  -8.3443  -8.3442
    -7.0194  -7.0192  -6.2935  -6.2934  -2.5302  -2.5302  -1.3708  -1.3707
    -0.8564  -0.8563  -0.5119  -0.5118  -0.0698  -0.0698   0.1428   0.1428
     0.2686   0.2686   0.8635   0.8635   1.1612   1.1612   1.5909   1.5910
     1.8064   1.8065   1.9201   1.9202   2.0705   2.0705   2.4509   2.4509
     2.7840   2.7842   3.0404   3.0405   3.4183   3.4183   3.8706   3.8707
     4.1035   4.1035   4.3484   4.3485   4.4439   4.4439   4.8489   4.8490
     5.3308   5.3310   6.4074   6.4075   6.7743   6.7744   6.9115   6.9116
     7.1102   7.1103

     the Fermi energy is     2.1575 ev

!    total energy              =   -1957.68012098 Ry
     Harris-Foulkes estimate   =   -1957.68017686 Ry
     estimated scf accuracy    <       0.00000052 Ry

     The total energy is the sum of the following terms:

     one-electron contribution =  -12005.74045633 Ry
     hartree contribution      =    6030.67178551 Ry
     xc contribution           =    -647.21454116 Ry
     ewald contribution        =    4664.68014962 Ry
     electric field correction =       0.00012168 Ry
     smearing contrib. (-TS)   =      -0.07718030 Ry

     convergence has been achieved in  16 iterations

 BEEF-vdW xc energy contributions
           1 :   -574.168493433556
           2 :    532.765675314381
           3 :   -459.680474910619
           4 :    370.697723026186
           5 :   -282.307585612567
           6 :    206.861563261821
           7 :   -149.887277206904
           8 :    110.231573394906
           9 :   -82.5413731754717
          10 :    60.6959066218511
          11 :   -40.6026595507618
          12 :    21.2988791394766
          13 :   -4.26026423818325
          14 :   -8.33177335996515
          15 :    15.2704367907731
          16 :   -17.1139359759144
          17 :    15.8602172789364
          18 :   -13.8897900754096
          19 :    12.8578676435227
          20 :   -13.1253835278779
          21 :    13.9419947087808
          22 :   -14.1674934895794
          23 :    13.0639920153673
          24 :   -10.7267974949257
          25 :    7.97940657336324
          26 :   -5.86920935492833
          27 :    5.08863497753316
          28 :   -5.64073440417314
          29 :    6.89707809223216
          30 :   -7.97388418432683
          31 :   -48.1982274575447
          32 :   -35.6934004997228

     Forces acting on atoms (Ry/au):

     negative rho (up, down):  5.026E-01 0.000E+00
     atom    1 type  1   force =    -0.00000337    0.01556758    0.05542314
     atom    2 type  1   force =    -0.00000384    0.01556567    0.05541849
     atom    3 type  2   force =     0.00000380   -0.02680429   -0.05706813
     atom    4 type  2   force =    -0.00000096   -0.02681215   -0.05708076
     atom    5 type  1   force =    -0.00000340   -0.03936206   -0.00006224
     atom    6 type  1   force =     0.00000430   -0.03936564   -0.00007022
     atom    7 type  2   force =    -0.00001398    0.05160961    0.00195100
     atom    8 type  2   force =    -0.00001610    0.05160737    0.00198848
     atom    9 type  1   force =    -0.00000375   -0.00054511    0.00006072
     atom   10 type  1   force =     0.00001762   -0.00053298    0.00005694
     atom   11 type  2   force =     0.00002305   -0.00046028   -0.00031108
     atom   12 type  2   force =    -0.00000337   -0.00046771   -0.00030635

     Total force =     0.151706     Total SCF correction =     0.002640

     entering subroutine stress ...

     negative rho (up, down):  5.026E-01 0.000E+00
          total   stress  (Ry/bohr**3)                   (kbar)     P=  -12.14
  -0.00009641   0.00000002  -0.00000001        -14.18      0.00     -0.00
   0.00000002  -0.00011968   0.00001724          0.00    -17.61      2.54
  -0.00000001   0.00001724  -0.00003154         -0.00      2.54     -4.64

 !ASE

     Writing output data file calc.save

     General routines

     Parallel routines

   This run was terminated on:   7:11:10  25Dec2018

   JOB DONE.
Job  /afs/slac/g/suncat/bin/suncat-tsmpirun -x LD_LIBRARY_PATH -wdir /scratch/qe109165_DfENH pw.x -in pw.inp

TID   HOST_NAME   COMMAND_LINE            STATUS            TERMINATION_TIME
00000 suncat0152 pw.x -in pw.inp   Done                     12/25/2018 07:11:10
00001 suncat0152 pw.x -in pw.inp   Done                     12/25/2018 07:11:10
00002 suncat0152 pw.x -in pw.inp   Done                     12/25/2018 07:11:10
00003 suncat0152 pw.x -in pw.inp   Done                     12/25/2018 07:11:10
00004 suncat0152 pw.x -in pw.inp   Done                     12/25/2018 07:11:10
00005 suncat0152 pw.x -in pw.inp   Done                     12/25/2018 07:11:10
00006 suncat0152 pw.x -in pw.inp   Done                     12/25/2018 07:11:10
00007 suncat0152 pw.x -in pw.inp   Done                     12/25/2018 07:11:10
00008 suncat0150 pw.x -in pw.inp   Done                     12/25/2018 07:11:10
00009 suncat0150 pw.x -in pw.inp   Done                     12/25/2018 07:11:10
00010 suncat0150 pw.x -in pw.inp   Done                     12/25/2018 07:11:10
00011 suncat0150 pw.x -in pw.inp   Done                     12/25/2018 07:11:10
00012 suncat0150 pw.x -in pw.inp   Done                     12/25/2018 07:11:10
00013 suncat0150 pw.x -in pw.inp   Done                     12/25/2018 07:11:10
00014 suncat0150 pw.x -in pw.inp   Done                     12/25/2018 07:11:10
00015 suncat0150 pw.x -in pw.inp   Done                     12/25/2018 07:11:10
00016 suncat0248 pw.x -in pw.inp   Done                     12/25/2018 07:11:10
00017 suncat0248 pw.x -in pw.inp   Done                     12/25/2018 07:11:10
00018 suncat0248 pw.x -in pw.inp   Done                     12/25/2018 07:11:10
00019 suncat0248 pw.x -in pw.inp   Done                     12/25/2018 07:11:10
00020 suncat0248 pw.x -in pw.inp   Done                     12/25/2018 07:11:10
00021 suncat0248 pw.x -in pw.inp   Done                     12/25/2018 07:11:10
00022 suncat0248 pw.x -in pw.inp   Done                     12/25/2018 07:11:10
00023 suncat0248 pw.x -in pw.inp   Done                     12/25/2018 07:11:10
00024 suncat0247 pw.x -in pw.inp   Done                     12/25/2018 07:11:10
00025 suncat0247 pw.x -in pw.inp   Done                     12/25/2018 07:11:10
00026 suncat0247 pw.x -in pw.inp   Done                     12/25/2018 07:11:10
00027 suncat0247 pw.x -in pw.inp   Done                     12/25/2018 07:11:10
00028 suncat0247 pw.x -in pw.inp   Done                     12/25/2018 07:11:10
00029 suncat0247 pw.x -in pw.inp   Done                     12/25/2018 07:11:10
00030 suncat0247 pw.x -in pw.inp   Done                     12/25/2018 07:11:10
00031 suncat0247 pw.x -in pw.inp   Done                     12/25/2018 07:11:10
00032 suncat0246 pw.x -in pw.inp   Done                     12/25/2018 07:11:10
00033 suncat0246 pw.x -in pw.inp   Done                     12/25/2018 07:11:10
00034 suncat0246 pw.x -in pw.inp   Done                     12/25/2018 07:11:10
00035 suncat0246 pw.x -in pw.inp   Done                     12/25/2018 07:11:10
00036 suncat0246 pw.x -in pw.inp   Done                     12/25/2018 07:11:10
00037 suncat0246 pw.x -in pw.inp   Done                     12/25/2018 07:11:10
00038 suncat0246 pw.x -in pw.inp   Done                     12/25/2018 07:11:10
00039 suncat0246 pw.x -in pw.inp   Done                     12/25/2018 07:11:10
00040 suncat0245 pw.x -in pw.inp   Done                     12/25/2018 07:11:10
00041 suncat0245 pw.x -in pw.inp   Done                     12/25/2018 07:11:10
00042 suncat0245 pw.x -in pw.inp   Done                     12/25/2018 07:11:10
00043 suncat0245 pw.x -in pw.inp   Done                     12/25/2018 07:11:10
00044 suncat0245 pw.x -in pw.inp   Done                     12/25/2018 07:11:10
00045 suncat0245 pw.x -in pw.inp   Done                     12/25/2018 07:11:10
00046 suncat0245 pw.x -in pw.inp   Done                     12/25/2018 07:11:10
00047 suncat0245 pw.x -in pw.inp   Done                     12/25/2018 07:11:10
00048 suncat0214 pw.x -in pw.inp   Done                     12/25/2018 07:11:10
00049 suncat0214 pw.x -in pw.inp   Done                     12/25/2018 07:11:10
00050 suncat0214 pw.x -in pw.inp   Done                     12/25/2018 07:11:10
00051 suncat0214 pw.x -in pw.inp   Done                     12/25/2018 07:11:10
00052 suncat0214 pw.x -in pw.inp   Done                     12/25/2018 07:11:10
00053 suncat0214 pw.x -in pw.inp   Done                     12/25/2018 07:11:10
00054 suncat0214 pw.x -in pw.inp   Done                     12/25/2018 07:11:10
00055 suncat0214 pw.x -in pw.inp   Done                     12/25/2018 07:11:10
00056 suncat0213 pw.x -in pw.inp   Done                     12/25/2018 07:11:10
00057 suncat0213 pw.x -in pw.inp   Done                     12/25/2018 07:11:10
00058 suncat0213 pw.x -in pw.inp   Done                     12/25/2018 07:11:10
00059 suncat0213 pw.x -in pw.inp   Done                     12/25/2018 07:11:10
00060 suncat0213 pw.x -in pw.inp   Done                     12/25/2018 07:11:10
00061 suncat0213 pw.x -in pw.inp   Done                     12/25/2018 07:11:10
00062 suncat0213 pw.x -in pw.inp   Done                     12/25/2018 07:11:10
00063 suncat0213 pw.x -in pw.inp   Done                     12/25/2018 07:11:10