     Program PWSCF v.5.1rc2 (svn rev. 11289) starts on  2Jan2019 at  1:14:32

     Current dimensions of program PWSCF are:
     Max number of different atomic species (ntypx) = 10
     Max number of k-points (npk) =  40000
     Max angular momentum in pseudopotentials (lmaxx) =  3
     Presently stress not available with electric field

     IMPORTANT: XC functional enforced from input :
     Exchange-correlation      = BEEF-VDW ( 1  4 27 13 2)
     Any further DFT definition will be discarded
     Please, verify this is what you really want

     Subspace diagonalization in iterative solution of the eigenvalue problem:
     a serial algorithm will be used

     bravais-lattice index     =            0
     lattice parameter (alat)  =       1.8897  a.u.
     unit-cell volume          =    7362.6004 (a.u.)^3
     number of atoms/cell      =           12
     number of atomic types    =            2
     number of electrons       =       150.00
     number of Kohn-Sham states=          105
     kinetic-energy cutoff     =      36.7493  Ry
     charge density cutoff     =     367.4932  Ry
     convergence threshold     =      1.0E-06
     mixing beta               =       0.1000
     number of iterations used =           10  plain     mixing
     Exchange-correlation      = BEEF-VDW ( 1  4 27 13 2)
     nstep                     =           50

     celldm(1)=   1.889726  celldm(2)=   0.000000  celldm(3)=   0.000000
     celldm(4)=   0.000000  celldm(5)=   0.000000  celldm(6)=   0.000000

     crystal axes: (cart. coord. in units of alat)
               a(1) = (   6.999372   0.000000   0.000000 )
               a(2) = (  -3.499686   6.061634   0.000000 )
               a(3) = (   0.000000   0.000000  25.714963 )

     reciprocal axes: (cart. coord. in units 2 pi/alat)
               b(1) = (  0.142870  0.082486  0.000000 )
               b(2) = (  0.000000  0.164972  0.000000 )
               b(3) = (  0.000000  0.000000  0.038888 )

     PseudoPot. # 1 for Tl read from file:
     /afs/slac.stanford.edu/u/if/mamunm/psp/gbrv1.5pbe/Tl.UPF
     MD5 check sum: b76cf1f7e72655a2b2c53cf6385d7059
     Pseudo is Ultrasoft + core correction, Zval = 13.0
     Generated by new atomic code, or converted to UPF format
     Using radial grid of  899 points,  6 beta functions with:
                l(1) =   0
                l(2) =   0
                l(3) =   1
                l(4) =   1
                l(5) =   2
                l(6) =   2
     Q(r) pseudized with  6 coefficients,  rinner =    1.100   1.100   1.100
                                                       1.100   1.100

     PseudoPot. # 2 for La read from file:
     /afs/slac.stanford.edu/u/if/mamunm/psp/gbrv1.5pbe/La.UPF
     MD5 check sum: 5937b0c7494ba0601a847275249473aa
     Pseudo is Ultrasoft + core correction, Zval = 11.0
     Generated by new atomic code, or converted to UPF format
     Using radial grid of  995 points,  8 beta functions with:
                l(1) =   0
                l(2) =   0
                l(3) =   1
                l(4) =   1
                l(5) =   2
                l(6) =   2
                l(7) =   3
                l(8) =   3
     Q(r) pseudized with  8 coefficients,  rinner =    1.700   1.700   1.700
                                                       1.700   1.700   1.700
                                                       1.700

     vdW kernel table read from file vdW_kernel_table
     MD5 check sum: 095c7af220d748ca6e76c0b4c6cfb241

     atomic species   valence    mass     pseudopotential
        Tl1           13.00   204.38000     Tl( 1.00)
        La1           11.00   138.90547     La( 1.00)

     No symmetry found

   Cartesian axes

     site n.     atom                  positions (alat units)
         1           Tl1 tau(   1) = (   0.0000000   0.0000000  10.0000000  )
         2           Tl1 tau(   2) = (  -1.7498429   3.0308168  10.0000000  )
         3           Tl1 tau(   3) = (   1.7498429   3.0308168  10.0000000  )
         4           La1 tau(   4) = (   3.4996858   0.0000000  10.0000000  )
         5           Tl1 tau(   5) = (   3.4996858   2.0205445  12.8574815  )
         6           Tl1 tau(   6) = (   1.7498429   5.0513613  12.8574815  )
         7           Tl1 tau(   7) = (  -1.7498429   5.0513613  12.8574815  )
         8           La1 tau(   8) = (   0.0000000   2.0205445  12.8574815  )
         9           Tl1 tau(   9) = (  -0.0000000   4.0410890  15.7149629  )
        10           Tl1 tau(  10) = (   1.7498429   1.0102723  15.7149629  )
        11           Tl1 tau(  11) = (   5.2495287   1.0102723  15.7149629  )
        12           La1 tau(  12) = (   3.4996858   4.0410890  15.7149629  )

     number of k points=    20  Fermi-Dirac smearing, width (Ry)=  0.0110
                       cart. coord. in units 2pi/alat
        k(    1) = (   0.0000000   0.0000000   0.0000000), wk =   0.0555556
        k(    2) = (   0.0000000   0.0274953   0.0000000), wk =   0.1111111
        k(    3) = (   0.0000000   0.0549907   0.0000000), wk =   0.1111111
        k(    4) = (   0.0000000  -0.0824860   0.0000000), wk =   0.0555556
        k(    5) = (   0.0238117   0.0137477   0.0000000), wk =   0.1111111
        k(    6) = (   0.0238117   0.0412430   0.0000000), wk =   0.1111111
        k(    7) = (   0.0238117   0.0687383   0.0000000), wk =   0.1111111
        k(    8) = (   0.0238117  -0.0687383   0.0000000), wk =   0.1111111
        k(    9) = (   0.0238117  -0.0412430   0.0000000), wk =   0.1111111
        k(   10) = (   0.0238117  -0.0137477   0.0000000), wk =   0.1111111
        k(   11) = (   0.0476233   0.0274953   0.0000000), wk =   0.1111111
        k(   12) = (   0.0476233   0.0549907   0.0000000), wk =   0.1111111
        k(   13) = (   0.0476233   0.0824860   0.0000000), wk =   0.1111111
        k(   14) = (   0.0476233  -0.0549907   0.0000000), wk =   0.1111111
        k(   15) = (   0.0476233  -0.0274953   0.0000000), wk =   0.1111111
        k(   16) = (   0.0476233   0.0000000   0.0000000), wk =   0.1111111
        k(   17) = (  -0.0714350  -0.0412430   0.0000000), wk =   0.0555556
        k(   18) = (  -0.0714350  -0.0137477   0.0000000), wk =   0.1111111
        k(   19) = (  -0.0714350   0.0137477   0.0000000), wk =   0.1111111
        k(   20) = (  -0.0714350  -0.1237290   0.0000000), wk =   0.0555556

     Largest allocated arrays     est. size (Mb)     dimensions
     Largest temporary arrays     est. size (Mb)     dimensions

     Check: negative/imaginary core charge=   -0.000001    0.000000

     Initial potential from superposition of free atoms
     Check: negative starting charge=   -0.668295

     starting charge  149.86000, renormalised to  150.00000

     negative rho (up, down):  6.689E-01 0.000E+00

     *
     * You are using vdW-DF for exchange-correlation in this calculation.
     * Please cite the following three references that made this development
     * possible:
     *
     *   M. Dion, H. Rydberg, E. Schroder, D. C. Langreth, and
     *   B. I. Lundqvist, Phys. Rev. Lett. 92, 246401 (2004).
     *
     *   T. Thonhauser, V. R. Cooper, S. Li, A. Puzder, P. Hyldgaard, and
     *   D. C. Langreth, Phys. Rev. B 76, 125112 (2007).
     *
     *   G. Roman-Perez and J. M. Soler, Phys. Rev. Lett. 103, 096102 (2009).
     *
     *
     * If you are using vdW-DF2, please also cite:
     *
     *   K. Lee, E. D. Murray, L. Kong, B. I. Lundqvist, and
     *   D. C. Langreth, Phys. Rev. B 82, 081101(R) (2010).
     *
     *
     * If you are calculating the stress with vdW-DF, please also cite:
     *
     *   R. Sabatini, E. Kucukbenli, B. Kolb, T. Thonhauser, and
     *   S. de Gironcoli, J. Phys.: Condens. Matter 24, 424209 (2012).
     *

     Carrying out vdW-DF run using the following parameters:

     Nqs =      20    Nr_points =    1024   r_max =   100.000
     q_mesh =
               0.00001000     0.04494208     0.09755937     0.15916263
               0.23128650     0.31572767     0.41458969     0.53033537
               0.66584808     0.82450364     1.01025438     1.22772762
               1.48234092     1.78043706     2.12944203     2.53805004
               3.01644009     3.57652955     4.23227104     5.00000000

     Gradients computed in reciprocal space

     Adding external electric field

     Computed dipole along edir(3) :
        Dipole                0.0000 Ry au,          0.0000 Debye
        Dipole field          0.0000 Ry au

        Potential amp.       -0.0000 Ry
        Total length         47.3794 bohr

     Starting wfc are  141 randomized atomic wfcs

     Self-consistent Calculation

     iteration #  1     ecut=    36.75 Ry     beta=0.10
     Davidson diagonalization with overlap
     ethr =  1.00E-02,  avg # of iterations =  1.9

[...]

     total energy              =   -1632.59315870 Ry
     Harris-Foulkes estimate   =   -1633.65612199 Ry
     estimated scf accuracy    <       5.81639888 Ry

[...]

     End of self-consistent calculation

          k = 0.0000 0.0000 0.0000 ( 27711 PWs)   bands (ev):

   -32.4429 -32.4427 -32.1879 -16.0928 -16.0778 -15.9795 -15.9795 -15.9764
   -15.9764 -15.8470 -15.7777 -15.7777 -10.6409 -10.6176 -10.6032 -10.6032
   -10.5739 -10.5487 -10.5487 -10.5178 -10.4940 -10.4781 -10.4780 -10.4592
   -10.4592 -10.4556 -10.4298 -10.3970 -10.3969 -10.3870 -10.3870 -10.3800
   -10.3093 -10.3093 -10.3075 -10.3075 -10.3007 -10.2802 -10.2660 -10.2574
   -10.2574 -10.2500 -10.2500 -10.2188 -10.2187 -10.1826 -10.1826 -10.1533
   -10.1531 -10.0718 -10.0717 -10.0601 -10.0349 -10.0261 -10.0008 -10.0007
    -9.9523  -7.2543  -6.2644  -5.0558  -4.2966  -4.2964  -3.7776  -3.7776
    -3.1519  -3.1518  -0.9196  -0.4634  -0.0822   0.3349   0.3349   0.3631
     1.1298   1.1298   1.1585   1.1585   1.2272   2.0288   2.0288   2.1643
     2.1643   2.3552   2.4057   2.4108   2.4576   2.5211   2.5211   2.5238
     2.5238   2.5739   2.5959   2.5959   2.5976   2.6167   2.6462   2.6462
     2.6546   2.6915   2.6915   2.7941   2.8935   2.8935   2.9332   3.2482
     3.6160

[...]

          k =-0.0714-0.0412 0.0000 ( 27666 PWs)   bands (ev):

[...]

     the Fermi energy is     1.2965 ev

!    total energy              =   -1633.43815260 Ry
     Harris-Foulkes estimate   =   -1633.43817101 Ry
     estimated scf accuracy    <       0.00000027 Ry

     The total energy is the sum of the following terms:

     one-electron contribution =   -7190.75257281 Ry
     hartree contribution      =    3660.35395154 Ry
     xc contribution           =    -728.21379478 Ry
     ewald contribution        =    2625.23638226 Ry
     electric field correction =       0.00000000 Ry
     smearing contrib. (-TS)   =      -0.06211882 Ry

     convergence has been achieved in  17 iterations

 BEEF-vdW xc energy contributions
           1 :   -648.061471370844
           2 :    600.608168023353
           3 :   -516.997483985554
           4 :    415.400371259429
           5 :   -314.553403939780
           6 :    228.269853974754
           7 :   -162.718911493077
           8 :    116.869361139109
           9 :   -85.3029683376670
          10 :    61.7888055269960
          11 :   -42.0121228798899
          12 :    24.4984255925980
[...]
     MD5 check sum: b76cf1f7e72655a2b2c53cf6385d7059
     Pseudo is Ultrasoft + core correction, Zval = 13.0
     Generated by new atomic code, or converted to UPF format
     Using radial grid of  899 points,  6 beta functions with:
                l(1) =   0
                l(2) =   0
                l(3) =   1
                l(4) =   1
                l(5) =   2
                l(6) =   2
     Q(r) pseudized with  6 coefficients,  rinner =    1.100   1.100   1.100
                                                       1.100   1.100

     PseudoPot. # 2 for La read from file:
     /afs/slac.stanford.edu/u/if/mamunm/psp/gbrv1.5pbe/La.UPF
     MD5 check sum: 5937b0c7494ba0601a847275249473aa
     Pseudo is Ultrasoft + core correction, Zval = 11.0
     Generated by new atomic code, or converted to UPF format
     Using radial grid of  995 points,  8 beta functions with:
                l(1) =   0
                l(2) =   0
                l(3) =   1
                l(4) =   1
                l(5) =   2
                l(6) =   2
                l(7) =   3
                l(8) =   3
     Q(r) pseudized with  8 coefficients,  rinner =    1.700   1.700   1.700
                                                       1.700   1.700   1.700
                                                       1.700

     vdW kernel table read from file vdW_kernel_table
     MD5 check sum: 095c7af220d748ca6e76c0b4c6cfb241

     atomic species   valence    mass     pseudopotential
        Tl1           13.00   204.38000     Tl( 1.00)
        La1           11.00   138.90547     La( 1.00)

     No symmetry found

   Cartesian axes

     site n.     atom                  positions (alat units)
         1           Tl1 tau(   1) = (   0.0000000   0.0000000  10.0000000  )
         2           Tl1 tau(   2) = (  -1.7498429   3.0308168  10.0000000  )
         3           Tl1 tau(   3) = (   1.7498429   3.0308168  10.0000000  )
         4           La1 tau(   4) = (   3.4996858   0.0000000  10.0000000  )
         5           Tl1 tau(   5) = (   3.4996858   2.0205445  12.8574815  )
         6           Tl1 tau(   6) = (   1.7498429   5.0513613  12.8574815  )
         7           Tl1 tau(   7) = (  -1.7498429   5.0513613  12.8574815  )
         8           La1 tau(   8) = (   0.0000000   2.0205445  12.8574815  )
         9           Tl1 tau(   9) = (  -0.0000191   4.0862354  15.8101653  )
        10           Tl1 tau(  10) = (   1.7896805   0.9869774  15.8102711  )
        11           Tl1 tau(  11) = (   5.2096663   0.9869768  15.8103252  )
        12           La1 tau(  12) = (   3.4996746   4.0409468  15.5866536  )

     number of k points=    20  Fermi-Dirac smearing, width (Ry)=  0.0110
                       cart. coord. in units 2pi/alat
        k(    1) = (   0.0000000   0.0000000   0.0000000), wk =   0.0555556
        k(    2) = (   0.0000000   0.0274953   0.0000000), wk =   0.1111111
        k(    3) = (   0.0000000   0.0549907   0.0000000), wk =   0.1111111
        k(    4) = (   0.0000000  -0.0824860   0.0000000), wk =   0.0555556
        k(    5) = (   0.0238117   0.0137477   0.0000000), wk =   0.1111111
        k(    6) = (   0.0238117   0.0412430   0.0000000), wk =   0.1111111
        k(    7) = (   0.0238117   0.0687383   0.0000000), wk =   0.1111111
        k(    8) = (   0.0238117  -0.0687383   0.0000000), wk =   0.1111111
        k(    9) = (   0.0238117  -0.0412430   0.0000000), wk =   0.1111111
        k(   10) = (   0.0238117  -0.0137477   0.0000000), wk =   0.1111111
        k(   11) = (   0.0476233   0.0274953   0.0000000), wk =   0.1111111
        k(   12) = (   0.0476233   0.0549907   0.0000000), wk =   0.1111111
        k(   13) = (   0.0476233   0.0824860   0.0000000), wk =   0.1111111
        k(   14) = (   0.0476233  -0.0549907   0.0000000), wk =   0.1111111
        k(   15) = (   0.0476233  -0.0274953   0.0000000), wk =   0.1111111
        k(   16) = (   0.0476233   0.0000000   0.0000000), wk =   0.1111111
        k(   17) = (  -0.0714350  -0.0412430   0.0000000), wk =   0.0555556
        k(   18) = (  -0.0714350  -0.0137477   0.0000000), wk =   0.1111111
        k(   19) = (  -0.0714350   0.0137477   0.0000000), wk =   0.1111111
        k(   20) = (  -0.0714350  -0.1237290   0.0000000), wk =   0.0555556

     Largest allocated arrays     est. size (Mb)     dimensions
     Largest temporary arrays     est. size (Mb)     dimensions

     Check: negative/imaginary core charge=   -0.000001    0.000000

     Initial potential from superposition of free atoms
     Check: negative starting charge=   -0.669421

     starting charge  149.86000, renormalised to  150.00000

[...]

     *
     * You are using vdW-DF for exchange-correlation in this calculation.
     * Please cite the following three references that made this development
     * possible:
     *
     *   M. Dion, H. Rydberg, E. Schroder, D. C. Langreth, and
     *   B. I. Lundqvist, Phys. Rev. Lett. 92, 246401 (2004).
     *
     *   T. Thonhauser, V. R. Cooper, S. Li, A. Puzder, P. Hyldgaard, and
     *   D. C. Langreth, Phys. Rev. B 76, 125112 (2007).
     *
     *   G. Roman-Perez and J. M. Soler, Phys. Rev. Lett. 103, 096102 (2009).
     *
     *
     * If you are using vdW-DF2, please also cite:
     *
     *   K. Lee, E. D. Murray, L. Kong, B. I. Lundqvist, and
     *   D. C. Langreth, Phys. Rev. B 82, 081101(R) (2010).
     *
     *
     * If you are calculating the stress with vdW-DF, please also cite:
     *
     *   R. Sabatini, E. Kucukbenli, B. Kolb, T. Thonhauser, and
     *   S. de Gironcoli, J. Phys.: Condens. Matter 24, 424209 (2012).
     *

     Carrying out vdW-DF run using the following parameters:

     Nqs =      20    Nr_points =    1024   r_max =   100.000
     q_mesh =
               0.00001000     0.04494208     0.09755937     0.15916263
               0.23128650     0.31572767     0.41458969     0.53033537
               0.66584808     0.82450364     1.01025438     1.22772762
               1.48234092     1.78043706     2.12944203     2.53805004
               3.01644009     3.57652955     4.23227104     5.00000000

     Gradients computed in reciprocal space

[...]

     Starting wfc are  141 randomized atomic wfcs

     Self-consistent Calculation

[...]

     total energy              =   -1633.44795543 Ry
     Harris-Foulkes estimate   =   -1633.44794321 Ry
     estimated scf accuracy    <       0.00000403 Ry

     iteration # 16     ecut=    36.75 Ry     beta=0.10
     Davidson diagonalization with overlap
     ethr =  2.68E-09,  avg # of iterations =  4.0

[...]

     negative rho (up, down):  6.234E-01 0.000E+00

     Adding external electric field

     Computed dipole along edir(3) :
        Dipole               -0.0412 Ry au,         -0.1048 Debye
        Dipole field         -0.0001 Ry au

        Potential amp.        0.0067 Ry
        Total length         47.3794 bohr

     End of self-consistent calculation

[...]

          k = 0.0476 0.0000 0.0000 ( 27703 PWs)   bands (ev):

[...]

          k =-0.0714-0.1237 0.0000 ( 27666 PWs)   bands (ev):

   -32.4644 -32.3709 -32.2726 -16.1035 -16.0362 -16.0261 -16.0125 -15.9531
   -15.9323 -15.9050 -15.8740 -15.8558 -10.6189 -10.5997 -10.5407 -10.5334
   -10.5089 -10.4837 -10.4780 -10.4734 -10.4654 -10.4595 -10.4542 -10.4439
   -10.4186 -10.4145 -10.4112 -10.4016 -10.3937 -10.3915 -10.3821 -10.3814
   -10.3757 -10.3723 -10.3664 -10.3647 -10.3558 -10.3324 -10.3296 -10.3136
   -10.3102 -10.2971 -10.2898 -10.2870 -10.2631 -10.2602 -10.2493 -10.2297
   -10.2259 -10.2065 -10.2058 -10.1893 -10.1892 -10.1711 -10.1104 -10.1094
   -10.0245  -6.2886  -6.1153  -5.3223  -5.1839  -4.5298  -4.3645  -4.2193
    -3.7718  -2.9726  -0.9348  -0.5446  -0.0391   0.6033   0.6482   0.7481
     0.9195   0.9657   1.3235   1.6111   1.8703   1.9389   2.0831   2.2819
     2.2975   2.3121   2.3553   2.4278   2.4454   2.4482   2.4662   2.4770
     2.4905   2.5194   2.5373   2.5536   2.5738   2.5974   2.6065   2.6577
     2.6653   2.6719   2.6868   2.6877   3.0190   3.0255   3.1859   3.2416
     3.4070

     the Fermi energy is     1.2516 ev

!    total energy              =   -1633.44793417 Ry
     Harris-Foulkes estimate   =   -1633.44795606 Ry
     estimated scf accuracy    <       0.00000073 Ry

     The total energy is the sum of the following terms:

     one-electron contribution =   -7142.41102114 Ry
     hartree contribution      =    3636.00401927 Ry
     xc contribution           =    -728.19487977 Ry
     ewald contribution        =    2601.21624734 Ry
     electric field correction =       0.00000290 Ry
     smearing contrib. (-TS)   =      -0.06230277 Ry

     convergence has been achieved in  16 iterations

 BEEF-vdW xc energy contributions
           1 :   -648.195002161305
           2 :    600.727810858667
           3 :   -517.104334842020
           4 :    415.511767452141
           5 :   -314.690022682172
           6 :    228.438717505256
           7 :   -162.904973856925
           8 :    117.044066938874
           9 :   -85.4446032840643
          10 :    61.8991939183991
          11 :   -42.1164200548525
          12 :    24.6278929927066
          13 :   -10.0179691389585
          14 :  -0.640931842715190
          15 :    7.07848842480860
          16 :   -10.2161330490262
          17 :    11.6614595100152
          18 :   -12.8263058274117
          19 :    14.2717043603825
          20 :   -15.6449187254411
          21 :    16.1584573499674
          22 :   -15.2700064858466
          23 :    13.1395798178463
          24 :   -10.6179297774058
          25 :    8.79578380875057
          26 :   -8.39750001951313
          27 :    9.36904651581835
          28 :   -10.8958166594251
          29 :    11.8364235287762
          30 :   -11.3374337808933
          31 :   -52.5830187045877
          32 :   -38.2935687405909

     Forces acting on atoms (Ry/au):

     negative rho (up, down):  6.234E-01 0.000E+00
     atom    1 type  1   force =    -0.00000603   -0.00797432   -0.00601920
     atom    2 type  1   force =    -0.00696464    0.00399259   -0.00607599
     atom    3 type  1   force =     0.00696692    0.00399463   -0.00608183
     atom    4 type  2   force =    -0.00000076    0.00000070    0.01051116
     atom    5 type  1   force =     0.00000611   -0.00367721   -0.00159076
     atom    6 type  1   force =    -0.00318454    0.00183941   -0.00159188
     atom    7 type  1   force =     0.00318417    0.00183361   -0.00159751
     atom    8 type  2   force =     0.00000008   -0.00002176    0.00814002
     atom    9 type  1   force =     0.00000044    0.00121136    0.00091027
     atom   10 type  1   force =     0.00106254   -0.00058709    0.00096296
     atom   11 type  1   force =    -0.00106342   -0.00059527    0.00095418
     atom   12 type  2   force =    -0.00000088   -0.00001665    0.00147860

     Total force =     0.023170     Total SCF correction =     0.001827

     entering subroutine stress ...

     negative rho (up, down):  6.234E-01 0.000E+00
          total   stress  (Ry/bohr**3)                   (kbar)     P=   -6.11
  -0.00005244   0.00000000   0.00000000         -7.71      0.00      0.00
   0.00000000  -0.00005245   0.00000001          0.00     -7.72      0.00
   0.00000000   0.00000001  -0.00001974          0.00      0.00     -2.90

 !ASE

     Writing output data file calc.save

     General routines

     Parallel routines

   This run was terminated on:   3:39:16   2Jan2019

   JOB DONE.
Job  /afs/slac/g/suncat/bin/suncat-tsmpirun -x LD_LIBRARY_PATH -wdir /scratch/qe649255_Ox8At pw.x -in pw.inp

TID   HOST_NAME   COMMAND_LINE            STATUS            TERMINATION_TIME
00000 suncat0141 pw.x -in pw.inp   Done                     01/02/2019 03:39:16
00001 suncat0141 pw.x -in pw.inp   Done                     01/02/2019 03:39:16
00002 suncat0141 pw.x -in pw.inp   Done                     01/02/2019 03:39:16
00003 suncat0141 pw.x -in pw.inp   Done                     01/02/2019 03:39:16
00004 suncat0141 pw.x -in pw.inp   Done                     01/02/2019 03:39:16
00005 suncat0141 pw.x -in pw.inp   Done                     01/02/2019 03:39:16
00006 suncat0141 pw.x -in pw.inp   Done                     01/02/2019 03:39:16
00007 suncat0141 pw.x -in pw.inp   Done                     01/02/2019 03:39:16
00008 suncat0140 pw.x -in pw.inp   Done                     01/02/2019 03:39:16
00009 suncat0140 pw.x -in pw.inp   Done                     01/02/2019 03:39:16
00010 suncat0140 pw.x -in pw.inp   Done                     01/02/2019 03:39:16
00011 suncat0140 pw.x -in pw.inp   Done                     01/02/2019 03:39:16
00012 suncat0140 pw.x -in pw.inp   Done                     01/02/2019 03:39:16
00013 suncat0140 pw.x -in pw.inp   Done                     01/02/2019 03:39:16
00014 suncat0140 pw.x -in pw.inp   Done                     01/02/2019 03:39:16
00015 suncat0140 pw.x -in pw.inp   Done                     01/02/2019 03:39:16
00016 suncat0135 pw.x -in pw.inp   Done                     01/02/2019 03:39:16
00017 suncat0135 pw.x -in pw.inp   Done                     01/02/2019 03:39:16
00018 suncat0135 pw.x -in pw.inp   Done                     01/02/2019 03:39:16
00019 suncat0135 pw.x -in pw.inp   Done                     01/02/2019 03:39:16
00020 suncat0135 pw.x -in pw.inp   Done                     01/02/2019 03:39:16
00021 suncat0135 pw.x -in pw.inp   Done                     01/02/2019 03:39:16
00022 suncat0135 pw.x -in pw.inp   Done                     01/02/2019 03:39:16
00023 suncat0135 pw.x -in pw.inp   Done                     01/02/2019 03:39:16
00024 suncat0134 pw.x -in pw.inp   Done                     01/02/2019 03:39:16
00025 suncat0134 pw.x -in pw.inp   Done                     01/02/2019 03:39:16
00026 suncat0134 pw.x -in pw.inp   Done                     01/02/2019 03:39:16
00027 suncat0134 pw.x -in pw.inp   Done                     01/02/2019 03:39:16
00028 suncat0134 pw.x -in pw.inp   Done                     01/02/2019 03:39:16
00029 suncat0134 pw.x -in pw.inp   Done                     01/02/2019 03:39:16
00030 suncat0134 pw.x -in pw.inp   Done                     01/02/2019 03:39:16
00031 suncat0134 pw.x -in pw.inp   Done                     01/02/2019 03:39:16
00032 suncat0272 pw.x -in pw.inp   Done                     01/02/2019 03:39:16
00033 suncat0272 pw.x -in pw.inp   Done                     01/02/2019 03:39:16
00034 suncat0272 pw.x -in pw.inp   Done                     01/02/2019 03:39:16
00035 suncat0272 pw.x -in pw.inp   Done                     01/02/2019 03:39:16
00036 suncat0272 pw.x -in pw.inp   Done                     01/02/2019 03:39:16
00037 suncat0272 pw.x -in pw.inp   Done                     01/02/2019 03:39:16
00038 suncat0272 pw.x -in pw.inp   Done                     01/02/2019 03:39:16
00039 suncat0272 pw.x -in pw.inp   Done                     01/02/2019 03:39:16
00040 suncat0262 pw.x -in pw.inp   Done                     01/02/2019 03:39:16
00041 suncat0262 pw.x -in pw.inp   Done                     01/02/2019 03:39:16
00042 suncat0262 pw.x -in pw.inp   Done                     01/02/2019 03:39:16
00043 suncat0262 pw.x -in pw.inp   Done                     01/02/2019 03:39:16
00044 suncat0262 pw.x -in pw.inp   Done                     01/02/2019 03:39:16
00045 suncat0262 pw.x -in pw.inp   Done                     01/02/2019 03:39:16
00046 suncat0262 pw.x -in pw.inp   Done                     01/02/2019 03:39:16
00047 suncat0262 pw.x -in pw.inp   Done                     01/02/2019 03:39:16
00048 suncat0258 pw.x -in pw.inp   Done                     01/02/2019 03:39:16
00049 suncat0258 pw.x -in pw.inp   Done                     01/02/2019 03:39:16
00050 suncat0258 pw.x -in pw.inp   Done                     01/02/2019 03:39:16
00051 suncat0258 pw.x -in pw.inp   Done                     01/02/2019 03:39:16
00052 suncat0258 pw.x -in pw.inp   Done                     01/02/2019 03:39:16
00053 suncat0258 pw.x -in pw.inp   Done                     01/02/2019 03:39:16
00054 suncat0258 pw.x -in pw.inp   Done                     01/02/2019 03:39:16
00055 suncat0258 pw.x -in pw.inp   Done                     01/02/2019 03:39:16
00056 suncat0257 pw.x -in pw.inp   Done                     01/02/2019 03:39:16
00057 suncat0257 pw.x -in pw.inp   Done                     01/02/2019 03:39:16
00058 suncat0257 pw.x -in pw.inp   Done                     01/02/2019 03:39:16
00059 suncat0257 pw.x -in pw.inp   Done                     01/02/2019 03:39:16
00060 suncat0257 pw.x -in pw.inp   Done                     01/02/2019 03:39:16
00061 suncat0257 pw.x -in pw.inp   Done                     01/02/2019 03:39:16
00062 suncat0257 pw.x -in pw.inp   Done                     01/02/2019 03:39:16
00063 suncat0257 pw.x -in pw.inp   Done                     01/02/2019 03:39:16