     Program PWSCF v.5.1rc2 (svn rev. 11289) starts on  1Jan2019 at 20:27:14

     Current dimensions of program PWSCF are:
     Max number of different atomic species (ntypx) = 10
     Max number of k-points (npk) =  40000
     Max angular momentum in pseudopotentials (lmaxx) =  3
     Presently stress not available with electric field

     IMPORTANT: XC functional enforced from input :
     Exchange-correlation      = BEEF-VDW ( 1  4 27 13 2)
     Any further DFT definition will be discarded
     Please, verify this is what you really want

     Subspace diagonalization in iterative solution of the eigenvalue problem:
     a serial algorithm will be used

     bravais-lattice index     =            0
     lattice parameter (alat)  =       1.8897  a.u.
     unit-cell volume          =    4299.1310 (a.u.)^3
     number of atoms/cell      =           12
     number of atomic types    =            2
     number of electrons       =       183.00
     number of Kohn-Sham states=          121
     kinetic-energy cutoff     =      36.7493  Ry
     charge density cutoff     =     367.4932  Ry
     convergence threshold     =      1.0E-06
     mixing beta               =       0.1000
     number of iterations used =           10  plain     mixing
     Exchange-correlation      = BEEF-VDW ( 1  4 27 13 2)
     nstep                     =           50

     celldm(1)=   1.889726  celldm(2)=   0.000000  celldm(3)=   0.000000
     celldm(4)=   0.000000  celldm(5)=   0.000000  celldm(6)=   0.000000

     crystal axes: (cart. coord. in units of alat)
               a(1) = (   5.482199   0.000000   0.000000 )
               a(2) = (  -2.741099   4.747723   0.000000 )
               a(3) = (   0.000000   0.000000  24.476196 )

     reciprocal axes: (cart. coord. in units 2 pi/alat)
               b(1) = (  0.182409  0.105314  0.000000 )
               b(2) = (  0.000000  0.210627  0.000000 )
               b(3) = (  0.000000  0.000000  0.040856 )

     PseudoPot. # 1 for Tc read from file:
     /afs/slac.stanford.edu/u/if/mamunm/psp/gbrv1.5pbe/Tc.UPF
     MD5 check sum: 9eb49e5b028550b2339a02317eb7b844
     Pseudo is Ultrasoft + core correction, Zval = 15.0
     Generated by new atomic code, or converted to UPF format
     Using radial grid of  965 points,  6 beta functions with:
                l(1) =   0
                l(2) =   0
                l(3) =   1
                l(4) =   1
                l(5) =   2
                l(6) =   2
     Q(r) pseudized with  8 coefficients,  rinner =    1.300   1.300   1.300
                                                       1.300   1.300

     PseudoPot. # 2 for Os read from file:
     /afs/slac.stanford.edu/u/if/mamunm/psp/gbrv1.5pbe/Os.UPF
     MD5 check sum: a3fb40a04f0c37c25c34bbc47164c9a8
     Pseudo is Ultrasoft + core correction, Zval = 16.0
     Generated by new atomic code, or converted to UPF format
     Using radial grid of  983 points,  8 beta functions with:
                l(1) =   0
                l(2) =   0
                l(3) =   1
                l(4) =   1
                l(5) =   2
                l(6) =   2
                l(7) =   3
                l(8) =   3
     Q(r) pseudized with  8 coefficients,  rinner =    1.150   1.150   1.150
                                                       1.150   1.150   1.150
                                                       1.150

     vdW kernel table read from file vdW_kernel_table
     MD5 check sum: 095c7af220d748ca6e76c0b4c6cfb241

     atomic species   valence    mass     pseudopotential
        Tc1           15.00    97.90721     Tc( 1.00)
        Os1           16.00   190.23000     Os( 1.00)

     No symmetry found

   Cartesian axes

     site n.     atom                  positions (alat units)
         1           Tc1 tau(   1) = (   0.0000000   0.0000000  10.0000000  )
         2           Tc1 tau(   2) = (  -1.3705496   2.3738616  10.0000000  )
         3           Tc1 tau(   3) = (   1.3705496   2.3738616  10.0000000  )
         4           Os1 tau(   4) = (   2.7410993   0.0000000  10.0000000  )
         5           Tc1 tau(   5) = (   2.7410993   1.5825744  12.2380982  )
         6           Tc1 tau(   6) = (   1.3705496   3.9564360  12.2380982  )
         7           Tc1 tau(   7) = (  -1.3705496   3.9564360  12.2380982  )
         8           Os1 tau(   8) = (   0.0000000   1.5825744  12.2380982  )
         9           Tc1 tau(   9) = (  -0.0000000   3.1651488  14.4761964  )
        10           Tc1 tau(  10) = (   1.3705496   0.7912872  14.4761964  )
        11           Tc1 tau(  11) = (   4.1116489   0.7912872  14.4761964  )
        12           Os1 tau(  12) = (   2.7410993   3.1651488  14.4761964  )

     number of k points=    20  Fermi-Dirac smearing, width (Ry)=  0.0110
                       cart. coord. in units 2pi/alat
        k(    1) = (   0.0000000   0.0000000   0.0000000), wk =   0.0555556
        k(    2) = (   0.0000000   0.0351045   0.0000000), wk =   0.1111111
        k(    3) = (   0.0000000   0.0702091   0.0000000), wk =   0.1111111
        k(    4) = (   0.0000000  -0.1053136   0.0000000), wk =   0.0555556
        k(    5) = (   0.0304014   0.0175523   0.0000000), wk =   0.1111111
        k(    6) = (   0.0304014   0.0526568   0.0000000), wk =   0.1111111
        k(    7) = (   0.0304014   0.0877614   0.0000000), wk =   0.1111111
        k(    8) = (   0.0304014  -0.0877614   0.0000000), wk =   0.1111111
        k(    9) = (   0.0304014  -0.0526568   0.0000000), wk =   0.1111111
        k(   10) = (   0.0304014  -0.0175523   0.0000000), wk =   0.1111111
        k(   11) = (   0.0608029   0.0351045   0.0000000), wk =   0.1111111
        k(   12) = (   0.0608029   0.0702091   0.0000000), wk =   0.1111111
        k(   13) = (   0.0608029   0.1053136   0.0000000), wk =   0.1111111
        k(   14) = (   0.0608029  -0.0702091   0.0000000), wk =   0.1111111
        k(   15) = (   0.0608029  -0.0351045   0.0000000), wk =   0.1111111
        k(   16) = (   0.0608029   0.0000000   0.0000000), wk =   0.1111111
        k(   17) = (  -0.0912043  -0.0526568   0.0000000), wk =   0.0555556
        k(   18) = (  -0.0912043  -0.0175523   0.0000000), wk =   0.1111111
        k(   19) = (  -0.0912043   0.0175523   0.0000000), wk =   0.1111111
        k(   20) = (  -0.0912043  -0.1579705   0.0000000), wk =   0.0555556

     Largest allocated arrays     est. size (Mb)     dimensions
     Largest temporary arrays     est. size (Mb)     dimensions

     Check: negative/imaginary core charge=   -0.000018    0.000000

     Initial potential from superposition of free atoms
     Check: negative starting charge=   -1.502305

     starting charge  172.49964, renormalised to  183.00000

     negative rho (up, down):  1.594E+00 0.000E+00

     *
     * You are using vdW-DF for exchange-correlation in this calculation.
     * Please cite the following three references that made this development
     * possible:
     *
     *   M. Dion, H. Rydberg, E. Schroder, D. C. Langreth, and
     *   B. I. Lundqvist, Phys. Rev. Lett. 92, 246401 (2004).
     *
     *   T. Thonhauser, V. R. Cooper, S. Li, A. Puzder, P. Hyldgaard, and
     *   D. C. Langreth, Phys. Rev. B 76, 125112 (2007).
     *
     *   G. Roman-Perez and J. M. Soler, Phys. Rev. Lett. 103, 096102 (2009).
     *
     *
     * If you are using vdW-DF2, please also cite:
     *
     *   K. Lee, E. D. Murray, L. Kong, B. I. Lundqvist, and
     *   D. C. Langreth, Phys. Rev. B 82, 081101(R) (2010).
     *
     *
     * If you are calculating the stress with vdW-DF, please also cite:
     *
     *   R. Sabatini, E. Kucukbenli, B. Kolb, T. Thonhauser, and
     *   S. de Gironcoli, J. Phys.: Condens. Matter 24, 424209 (2012).
     *

     Carrying out vdW-DF run using the following parameters:

     Nqs =      20    Nr_points =    1024   r_max =   100.000
     q_mesh =
               0.00001000     0.04494208     0.09755937     0.15916263
               0.23128650     0.31572767     0.41458969     0.53033537
               0.66584808     0.82450364     1.01025438     1.22772762
               1.48234092     1.78043706     2.12944203     2.53805004
               3.01644009     3.57652955     4.23227104     5.00000000

     Gradients computed in reciprocal space

     Adding external electric field

     Computed dipole along edir(3) :
        Dipole                0.0000 Ry au,          0.0000 Debye
        Dipole field          0.0000 Ry au

        Potential amp.       -0.0000 Ry
        Total length         45.0970 bohr

     Starting wfc are  156 randomized atomic wfcs

     Self-consistent Calculation

     iteration #  1     ecut=    36.75 Ry     beta=0.10
     Davidson diagonalization with overlap
     ethr =  1.00E-02,  avg # of iterations =  9.6

[...]

     total energy              =   -2178.53629558 Ry
     Harris-Foulkes estimate   =   -2180.24122288 Ry
     estimated scf accuracy    <      11.16056549 Ry

[...]

     End of self-consistent calculation

          k = 0.0000 0.0000 0.0000 ( 16073 PWs)   bands (ev):

   -84.1923 -83.7876 -83.7874 -64.8513 -64.7444 -64.7444 -64.5656 -64.5573
   -64.4655 -64.4654 -64.4634 -64.4634 -43.4885 -43.4596 -43.4596 -43.0738
   -43.0647 -43.0572 -43.0572 -43.0547 -43.0547 -37.2739 -37.0502 -37.0205
   -37.0205 -36.9321 -36.9019 -36.9018 -36.8747 -36.6626 -36.6625 -36.6023
   -36.6001 -36.5830 -36.5830 -36.5043 -36.5043 -36.4076 -36.4076 -36.3898
   -36.3771 -36.3771 -36.2837 -36.2551 -36.1255 -36.1255 -36.1205 -36.1205
    -4.8901  -3.3657  -3.3329  -3.0857  -3.0857  -2.9099  -2.6519  -2.6145
    -2.6145  -2.3721  -2.3503  -2.3503  -2.0167  -2.0167  -1.9192  -0.8372
    -0.8372  -0.6406  -0.0278  -0.0278   0.0424   0.3001   0.3161   0.5832
     0.5832   0.9217   0.9217   0.9772   0.9772   1.1399   1.2272   1.2272
     1.3117   1.6133   1.6133   2.0860   2.6879   2.6879   2.7236   2.7329
     2.7329   2.8221   3.0522   3.0522   3.3359   3.6193   3.6193   4.0314
     4.1967   4.1967   4.4328   4.4328   4.4778   4.6384   4.6384   4.6782
     4.6782   4.9458   5.1521   5.1521   5.1847   5.5259   5.5263   5.5263
     5.6067   5.6067   5.6069   6.4505   6.7285   6.9796   6.9796   7.0614
     7.1531

[...]

          k =-0.0912-0.0527 0.0000 ( 16164 PWs)   bands (ev):

[...]

     the Fermi energy is     2.5004 ev

!    total energy              =   -2176.82838525 Ry
     Harris-Foulkes estimate   =   -2176.82837735 Ry
     estimated scf accuracy    <       0.00000076 Ry

     The total energy is the sum of the following terms:

     one-electron contribution =  -19177.80046423 Ry
     hartree contribution      =    9582.89924055 Ry
     xc contribution           =    -413.61153908 Ry
     ewald contribution        =    7831.77880293 Ry
     electric field correction =       0.00000003 Ry
     smearing contrib. (-TS)   =      -0.09442546 Ry

     convergence has been achieved in  17 iterations

 BEEF-vdW xc energy contributions
           1 :   -362.471635274990
           2 :    334.042761070614
           3 :   -283.538139346526
           4 :    221.295832355079
           5 :   -158.434909210564
           6 :    103.742142563416
           7 :   -61.8628619404248
[...]
     Using radial grid of  965 points,  6 beta functions with:
                l(1) =   0
                l(2) =   0
                l(3) =   1
                l(4) =   1
                l(5) =   2
                l(6) =   2
     Q(r) pseudized with  8 coefficients,  rinner =    1.300   1.300   1.300
                                                       1.300   1.300

     PseudoPot. # 2 for Os read from file:
     /afs/slac.stanford.edu/u/if/mamunm/psp/gbrv1.5pbe/Os.UPF
     MD5 check sum: a3fb40a04f0c37c25c34bbc47164c9a8
     Pseudo is Ultrasoft + core correction, Zval = 16.0
     Generated by new atomic code, or converted to UPF format
     Using radial grid of  983 points,  8 beta functions with:
                l(1) =   0
                l(2) =   0
                l(3) =   1
                l(4) =   1
                l(5) =   2
                l(6) =   2
                l(7) =   3
                l(8) =   3
     Q(r) pseudized with  8 coefficients,  rinner =    1.150   1.150   1.150
                                                       1.150   1.150   1.150
                                                       1.150

     vdW kernel table read from file vdW_kernel_table
     MD5 check sum: 095c7af220d748ca6e76c0b4c6cfb241

     atomic species   valence    mass     pseudopotential
        Tc1           15.00    97.90721     Tc( 1.00)
        Os1           16.00   190.23000     Os( 1.00)

     No symmetry found

   Cartesian axes

     site n.     atom                  positions (alat units)
         1           Tc1 tau(   1) = (   0.0000000   0.0000000  10.0000000  )
         2           Tc1 tau(   2) = (  -1.3705496   2.3738616  10.0000000  )
         3           Tc1 tau(   3) = (   1.3705496   2.3738616  10.0000000  )
         4           Os1 tau(   4) = (   2.7410993   0.0000000  10.0000000  )
         5           Tc1 tau(   5) = (   2.7410993   1.5825744  12.2380982  )
         6           Tc1 tau(   6) = (   1.3705496   3.9564360  12.2380982  )
         7           Tc1 tau(   7) = (  -1.3705496   3.9564360  12.2380982  )
         8           Os1 tau(   8) = (   0.0000000   1.5825744  12.2380982  )
         9           Tc1 tau(   9) = (  -0.0000033   3.1612051  14.3670584  )
        10           Tc1 tau(  10) = (   1.3671339   0.7932567  14.3670532  )
        11           Tc1 tau(  11) = (   4.1150652   0.7932603  14.3670556  )
        12           Os1 tau(  12) = (   2.7411010   3.1651469  14.3600645  )

     number of k points=    20  Fermi-Dirac smearing, width (Ry)=  0.0110
                       cart. coord. in units 2pi/alat
        k(    1) = (   0.0000000   0.0000000   0.0000000), wk =   0.0555556
        k(    2) = (   0.0000000   0.0351045   0.0000000), wk =   0.1111111
        k(    3) = (   0.0000000   0.0702091   0.0000000), wk =   0.1111111
        k(    4) = (   0.0000000  -0.1053136   0.0000000), wk =   0.0555556
        k(    5) = (   0.0304014   0.0175523   0.0000000), wk =   0.1111111
        k(    6) = (   0.0304014   0.0526568   0.0000000), wk =   0.1111111
        k(    7) = (   0.0304014   0.0877614   0.0000000), wk =   0.1111111
        k(    8) = (   0.0304014  -0.0877614   0.0000000), wk =   0.1111111
        k(    9) = (   0.0304014  -0.0526568   0.0000000), wk =   0.1111111
        k(   10) = (   0.0304014  -0.0175523   0.0000000), wk =   0.1111111
        k(   11) = (   0.0608029   0.0351045   0.0000000), wk =   0.1111111
        k(   12) = (   0.0608029   0.0702091   0.0000000), wk =   0.1111111
        k(   13) = (   0.0608029   0.1053136   0.0000000), wk =   0.1111111
        k(   14) = (   0.0608029  -0.0702091   0.0000000), wk =   0.1111111
        k(   15) = (   0.0608029  -0.0351045   0.0000000), wk =   0.1111111
        k(   16) = (   0.0608029   0.0000000   0.0000000), wk =   0.1111111
        k(   17) = (  -0.0912043  -0.0526568   0.0000000), wk =   0.0555556
        k(   18) = (  -0.0912043  -0.0175523   0.0000000), wk =   0.1111111
        k(   19) = (  -0.0912043   0.0175523   0.0000000), wk =   0.1111111
        k(   20) = (  -0.0912043  -0.1579705   0.0000000), wk =   0.0555556

     Largest allocated arrays     est. size (Mb)     dimensions
     Largest temporary arrays     est. size (Mb)     dimensions

     Check: negative/imaginary core charge=   -0.000018    0.000000

     Initial potential from superposition of free atoms
     Check: negative starting charge=   -1.497061

     starting charge  172.49964, renormalised to  183.00000

[...]

     *
     * You are using vdW-DF for exchange-correlation in this calculation.
     * Please cite the following three references that made this development
     * possible:
     *
     *   M. Dion, H. Rydberg, E. Schroder, D. C. Langreth, and
     *   B. I. Lundqvist, Phys. Rev. Lett. 92, 246401 (2004).
     *
     *   T. Thonhauser, V. R. Cooper, S. Li, A. Puzder, P. Hyldgaard, and
     *   D. C. Langreth, Phys. Rev. B 76, 125112 (2007).
     *
     *   G. Roman-Perez and J. M. Soler, Phys. Rev. Lett. 103, 096102 (2009).
     *
     *
     * If you are using vdW-DF2, please also cite:
     *
     *   K. Lee, E. D. Murray, L. Kong, B. I. Lundqvist, and
     *   D. C. Langreth, Phys. Rev. B 82, 081101(R) (2010).
     *
     *
     * If you are calculating the stress with vdW-DF, please also cite:
     *
     *   R. Sabatini, E. Kucukbenli, B. Kolb, T. Thonhauser, and
     *   S. de Gironcoli, J. Phys.: Condens. Matter 24, 424209 (2012).
     *

     Carrying out vdW-DF run using the following parameters:

     Nqs =      20    Nr_points =    1024   r_max =   100.000
     q_mesh =
               0.00001000     0.04494208     0.09755937     0.15916263
               0.23128650     0.31572767     0.41458969     0.53033537
               0.66584808     0.82450364     1.01025438     1.22772762
               1.48234092     1.78043706     2.12944203     2.53805004
               3.01644009     3.57652955     4.23227104     5.00000000

     Gradients computed in reciprocal space

[...]

     Starting wfc are  156 randomized atomic wfcs

     Self-consistent Calculation

[...]

     total energy              =   -2176.84300673 Ry
     Harris-Foulkes estimate   =   -2176.84300513 Ry
     estimated scf accuracy    <       0.00000158 Ry

     iteration # 17     ecut=    36.75 Ry     beta=0.10
     Davidson diagonalization with overlap
     ethr =  8.62E-10,  avg # of iterations =  2.0

[...]

     negative rho (up, down):  1.566E+00 0.000E+00

     Adding external electric field

     Computed dipole along edir(3) :
        Dipole                0.0432 Ry au,          0.1098 Debye
        Dipole field          0.0001 Ry au

        Potential amp.       -0.0114 Ry
        Total length         45.0970 bohr

     End of self-consistent calculation

[...]

          k = 0.0608 0.0000 0.0000 ( 16186 PWs)   bands (ev):

[...]

          k =-0.0912-0.1580 0.0000 ( 16164 PWs)   bands (ev):

   -84.2024 -83.7786 -83.7440 -64.8136 -64.7777 -64.7403 -64.5044 -64.4854
   -64.4720 -64.4530 -64.4391 -64.4214 -43.5135 -43.4804 -43.4721 -43.0809
   -43.0601 -43.0521 -43.0234 -43.0120 -43.0038 -37.1530 -37.0258 -36.9998
   -36.9162 -36.8924 -36.8572 -36.8102 -36.7875 -36.7483 -36.6858 -36.5202
   -36.5053 -36.5012 -36.4898 -36.4592 -36.4563 -36.4511 -36.4354 -36.4317
   -36.4107 -36.3920 -36.3675 -36.3352 -36.2713 -36.2640 -36.1306 -36.1212
    -3.4981  -3.0921  -2.2959  -2.2704  -2.2452  -2.0414  -1.9829  -1.8358
    -1.7692  -1.5368  -1.5279  -1.3768  -1.3205  -1.0573  -1.0560  -0.9094
    -0.7681  -0.5656  -0.5252  -0.3061  -0.2397  -0.0768   0.3302   0.4040
     0.4671   0.5570   0.5759   0.7826   0.8001   0.8200   0.9767   1.0356
     1.1016   1.1889   1.2035   1.2078   1.2450   1.2716   1.3264   1.3661
     2.0042   2.1829   2.1961   2.3272   2.4132   2.4879   2.6843   2.8656
     2.9528   3.0153   3.1470   3.1698   3.3626   3.3691   3.4984   3.5876
     3.7144   3.8052   4.3631   4.4124   4.9055   4.9286   5.1866   5.2473
     5.7455   5.8208   7.3024   7.4141   7.6517   7.6945   7.7002   7.7103
     8.1333

     the Fermi energy is     2.5259 ev

!    total energy              =   -2176.84301478 Ry
     Harris-Foulkes estimate   =   -2176.84300702 Ry
     estimated scf accuracy    <       0.00000028 Ry

     The total energy is the sum of the following terms:

     one-electron contribution =  -19483.66032152 Ry
     hartree contribution      =    9735.90921163 Ry
     xc contribution           =    -413.89361051 Ry
     ewald contribution        =    7984.89539338 Ry
     electric field correction =       0.00000545 Ry
     smearing contrib. (-TS)   =      -0.09369321 Ry

     convergence has been achieved in  17 iterations

 BEEF-vdW xc energy contributions
           1 :   -362.758521772534
           2 :    334.431855863336
           3 :   -284.069313388820
           4 :    221.915817933048
           5 :   -159.015355070718
           6 :    104.139173537826
           7 :   -61.9890857788822
           8 :    32.9749225033372
           9 :   -14.4180479861233
          10 :    2.42514395572550
          11 :    6.31611803428945
          12 :   -13.4752248884590
          13 :    18.9458239463420
          14 :   -21.5230662245999
          15 :    19.9434774517540
          16 :   -13.8226236116541
          17 :    4.09019824164227
          18 :    7.18954428167473
          19 :   -17.4927841058272
          20 :    24.6656205250883
          21 :   -27.5641621295168
          22 :    26.2560498813918
          23 :   -21.7670634109348
          24 :    15.5395351115193
          25 :   -8.88055211734127
          26 :    2.62184545444109
          27 :    2.91030661411224
          28 :   -7.68346978010840
          29 :    11.6641217698208
          30 :   -14.6187155027773
          31 :   -34.4013195716151
          32 :   -25.5493608393668

     Forces acting on atoms (Ry/au):

     negative rho (up, down):  1.566E+00 0.000E+00
     atom    1 type  1   force =     0.00000084    0.00246762    0.01572746
     atom    2 type  1   force =     0.00213627   -0.00123275    0.01572879
     atom    3 type  1   force =    -0.00213947   -0.00123553    0.01572821
     atom    4 type  2   force =    -0.00000869    0.00000124    0.02194629
     atom    5 type  1   force =    -0.00001110   -0.00339041   -0.01681155
     atom    6 type  1   force =    -0.00293628    0.00169159   -0.01681913
     atom    7 type  1   force =     0.00293279    0.00170265   -0.01680852
     atom    8 type  2   force =     0.00002659   -0.00000752   -0.01877237
     atom    9 type  1   force =    -0.00000122   -0.00009125    0.00003170
     atom   10 type  1   force =    -0.00007967    0.00004590    0.00003648
     atom   11 type  1   force =     0.00007932    0.00004724    0.00003050
     atom   12 type  2   force =     0.00000061    0.00000122   -0.00001786

     Total force =     0.049769     Total SCF correction =     0.004076

     entering subroutine stress ...

     negative rho (up, down):  1.566E+00 0.000E+00
          total   stress  (Ry/bohr**3)                   (kbar)     P=  -25.01
  -0.00021217  -0.00000000  -0.00000000        -31.21     -0.00     -0.00
  -0.00000000  -0.00021216   0.00000000         -0.00    -31.21      0.00
  -0.00000000   0.00000000  -0.00008581         -0.00      0.00    -12.62

 !ASE

     Writing output data file calc.save

     General routines

     Parallel routines

   This run was terminated on:  21:28:25   1Jan2019

   JOB DONE.
Job  /afs/slac/g/suncat/bin/suncat-tsmpirun -x LD_LIBRARY_PATH -wdir /scratch/qe649166_Qqrtz pw.x -in pw.inp

TID   HOST_NAME   COMMAND_LINE            STATUS            TERMINATION_TIME
00000 suncat0024 pw.x -in pw.inp   Done                     01/01/2019 21:28:25
00001 suncat0024 pw.x -in pw.inp   Done                     01/01/2019 21:28:25
00002 suncat0024 pw.x -in pw.inp   Done                     01/01/2019 21:28:25
00003 suncat0024 pw.x -in pw.inp   Done                     01/01/2019 21:28:25
00004 suncat0024 pw.x -in pw.inp   Done                     01/01/2019 21:28:25
00005 suncat0024 pw.x -in pw.inp   Done                     01/01/2019 21:28:25
00006 suncat0024 pw.x -in pw.inp   Done                     01/01/2019 21:28:25
00007 suncat0024 pw.x -in pw.inp   Done                     01/01/2019 21:28:25
00008 suncat0023 pw.x -in pw.inp   Done                     01/01/2019 21:28:25
00009 suncat0023 pw.x -in pw.inp   Done                     01/01/2019 21:28:25
00010 suncat0023 pw.x -in pw.inp   Done                     01/01/2019 21:28:25
00011 suncat0023 pw.x -in pw.inp   Done                     01/01/2019 21:28:25
00012 suncat0023 pw.x -in pw.inp   Done                     01/01/2019 21:28:25
00013 suncat0023 pw.x -in pw.inp   Done                     01/01/2019 21:28:25
00014 suncat0023 pw.x -in pw.inp   Done                     01/01/2019 21:28:25
00015 suncat0023 pw.x -in pw.inp   Done                     01/01/2019 21:28:25
00016 suncat0190 pw.x -in pw.inp   Done                     01/01/2019 21:28:25
00017 suncat0190 pw.x -in pw.inp   Done                     01/01/2019 21:28:25
00018 suncat0190 pw.x -in pw.inp   Done                     01/01/2019 21:28:25
00019 suncat0190 pw.x -in pw.inp   Done                     01/01/2019 21:28:25
00020 suncat0190 pw.x -in pw.inp   Done                     01/01/2019 21:28:25
00021 suncat0190 pw.x -in pw.inp   Done                     01/01/2019 21:28:25
00022 suncat0190 pw.x -in pw.inp   Done                     01/01/2019 21:28:25
00023 suncat0190 pw.x -in pw.inp   Done                     01/01/2019 21:28:25
00024 suncat0009 pw.x -in pw.inp   Done                     01/01/2019 21:28:25
00025 suncat0009 pw.x -in pw.inp   Done                     01/01/2019 21:28:25
00026 suncat0009 pw.x -in pw.inp   Done                     01/01/2019 21:28:25
00027 suncat0009 pw.x -in pw.inp   Done                     01/01/2019 21:28:25
00028 suncat0009 pw.x -in pw.inp   Done                     01/01/2019 21:28:25
00029 suncat0009 pw.x -in pw.inp   Done                     01/01/2019 21:28:25
00030 suncat0009 pw.x -in pw.inp   Done                     01/01/2019 21:28:25
00031 suncat0009 pw.x -in pw.inp   Done                     01/01/2019 21:28:25
00032 suncat0166 pw.x -in pw.inp   Done                     01/01/2019 21:28:25
00033 suncat0166 pw.x -in pw.inp   Done                     01/01/2019 21:28:25
00034 suncat0166 pw.x -in pw.inp   Done                     01/01/2019 21:28:25
00035 suncat0166 pw.x -in pw.inp   Done                     01/01/2019 21:28:25
00036 suncat0166 pw.x -in pw.inp   Done                     01/01/2019 21:28:25
00037 suncat0166 pw.x -in pw.inp   Done                     01/01/2019 21:28:25
00038 suncat0166 pw.x -in pw.inp   Done                     01/01/2019 21:28:25
00039 suncat0166 pw.x -in pw.inp   Done                     01/01/2019 21:28:25
00040 suncat0149 pw.x -in pw.inp   Done                     01/01/2019 21:28:25
00041 suncat0149 pw.x -in pw.inp   Done                     01/01/2019 21:28:25
00042 suncat0149 pw.x -in pw.inp   Done                     01/01/2019 21:28:25
00043 suncat0149 pw.x -in pw.inp   Done                     01/01/2019 21:28:25
00044 suncat0149 pw.x -in pw.inp   Done                     01/01/2019 21:28:25
00045 suncat0149 pw.x -in pw.inp   Done                     01/01/2019 21:28:25
00046 suncat0149 pw.x -in pw.inp   Done                     01/01/2019 21:28:25
00047 suncat0149 pw.x -in pw.inp   Done                     01/01/2019 21:28:25
00048 suncat0148 pw.x -in pw.inp   Done                     01/01/2019 21:28:25
00049 suncat0148 pw.x -in pw.inp   Done                     01/01/2019 21:28:25
00050 suncat0148 pw.x -in pw.inp   Done                     01/01/2019 21:28:25
00051 suncat0148 pw.x -in pw.inp   Done                     01/01/2019 21:28:25
00052 suncat0148 pw.x -in pw.inp   Done                     01/01/2019 21:28:25
00053 suncat0148 pw.x -in pw.inp   Done                     01/01/2019 21:28:25
00054 suncat0148 pw.x -in pw.inp   Done                     01/01/2019 21:28:25
00055 suncat0148 pw.x -in pw.inp   Done                     01/01/2019 21:28:25
00056 suncat0142 pw.x -in pw.inp   Done                     01/01/2019 21:28:25
00057 suncat0142 pw.x -in pw.inp   Done                     01/01/2019 21:28:25
00058 suncat0142 pw.x -in pw.inp   Done                     01/01/2019 21:28:25
00059 suncat0142 pw.x -in pw.inp   Done                     01/01/2019 21:28:25
00060 suncat0142 pw.x -in pw.inp   Done                     01/01/2019 21:28:25
00061 suncat0142 pw.x -in pw.inp   Done                     01/01/2019 21:28:25
00062 suncat0142 pw.x -in pw.inp   Done                     01/01/2019 21:28:25
00063 suncat0142 pw.x -in pw.inp   Done                     01/01/2019 21:28:25