     Program PWSCF v.5.1rc2 (svn rev. 11289) starts on 19Dec2018 at 15: 8: 7

     Current dimensions of program PWSCF are:
     Max number of different atomic species (ntypx) = 10
     Max number of k-points (npk) =  40000
     Max angular momentum in pseudopotentials (lmaxx) =  3
     Presently stress not available with electric field

     IMPORTANT: XC functional enforced from input :
     Exchange-correlation      = BEEF-VDW ( 1  4 27 13 2)
     Any further DFT definition will be discarded
     Please, verify this is what you really want

     Subspace diagonalization in iterative solution of the eigenvalue problem:
     a serial algorithm will be used

     bravais-lattice index     =            0
     lattice parameter (alat)  =       1.8897  a.u.
     unit-cell volume          =    4846.3122 (a.u.)^3
     number of atoms/cell      =           12
     number of atomic types    =            2
     number of electrons       =       216.00
     number of Kohn-Sham states=          138
     kinetic-energy cutoff     =      36.7493  Ry
     charge density cutoff     =     367.4932  Ry
     convergence threshold     =      1.0E-06
     mixing beta               =       0.1000
     number of iterations used =           10  plain     mixing
     Exchange-correlation      = BEEF-VDW ( 1  4 27 13 2)
     nstep                     =           50

     celldm(1)=   1.889726  celldm(2)=   0.000000  celldm(3)=   0.000000
     celldm(4)=   0.000000  celldm(5)=   0.000000  celldm(6)=   0.000000

     crystal axes: (cart. coord. in units of alat)
               a(1) = (   5.790892   0.000000   0.000000 )
               a(2) = (  -2.895446   5.015059   0.000000 )
               a(3) = (   0.000000   0.000000  24.728243 )

     reciprocal axes: (cart. coord. in units 2 pi/alat)
               b(1) = (  0.172685  0.099700  0.000000 )
               b(2) = (  0.000000  0.199399  0.000000 )
               b(3) = (  0.000000  0.000000  0.040440 )

     PseudoPot. # 1 for Ag read from file:
     /afs/slac.stanford.edu/u/if/mamunm/psp/gbrv1.5pbe/Ag.UPF
     MD5 check sum: d66d668201baa78d5eb5b04ef7011058
     Pseudo is Ultrasoft + core correction, Zval = 19.0
     Generated by new atomic code, or converted to UPF format
     Using radial grid of  887 points,  6 beta functions with:
                l(1) =   0
                l(2) =   0
                l(3) =   1
                l(4) =   1
                l(5) =   2
                l(6) =   2
     Q(r) pseudized with  6 coefficients,  rinner =    1.300   1.300   1.300
                                                       1.300   1.300

     PseudoPot. # 2 for Ir read from file:
     /afs/slac.stanford.edu/u/if/mamunm/psp/gbrv1.5pbe/Ir.UPF
     MD5 check sum: 8836f839c3459d2b385c504ce6d91f2c
     Pseudo is Ultrasoft + core correction, Zval = 15.0
     Generated by new atomic code, or converted to UPF format
     Using radial grid of  983 points,  7 beta functions with:
                l(1) =   0
                l(2) =   0
                l(3) =   1
                l(4) =   1
                l(5) =   1
                l(6) =   2
                l(7) =   2
     Q(r) pseudized with  8 coefficients,  rinner =    1.400   1.400   1.400
                                                       1.400   1.400

     vdW kernel table read from file vdW_kernel_table
     MD5 check sum: 095c7af220d748ca6e76c0b4c6cfb241

     atomic species   valence    mass     pseudopotential
        Ag1           19.00   107.86820     Ag( 1.00)
        Ir1           15.00   192.21700     Ir( 1.00)

     No symmetry found

   Cartesian axes

     site n.     atom                  positions (alat units)
         1           Ag1 tau(   1) = (   0.0000000   0.0000000  10.0000000  )
         2           Ag1 tau(   2) = (  -1.4477229   2.5075297  10.0000000  )
         3           Ag1 tau(   3) = (   1.4477229   2.5075297  10.0000000  )
         4           Ir1 tau(   4) = (   2.8954459   0.0000000  10.0000000  )
         5           Ag1 tau(   5) = (   2.8954459   1.6716864  12.3641216  )
         6           Ag1 tau(   6) = (   1.4477229   4.1792161  12.3641216  )
         7           Ag1 tau(   7) = (  -1.4477229   4.1792161  12.3641216  )
         8           Ir1 tau(   8) = (   0.0000000   1.6716864  12.3641216  )
         9           Ag1 tau(   9) = (  -0.0000000   3.3433729  14.7282433  )
        10           Ag1 tau(  10) = (   1.4477229   0.8358432  14.7282433  )
        11           Ag1 tau(  11) = (   4.3431688   0.8358432  14.7282433  )
        12           Ir1 tau(  12) = (   2.8954459   3.3433729  14.7282433  )

     number of k points=    20  Fermi-Dirac smearing, width (Ry)=  0.0110
                       cart. coord. in units 2pi/alat
        k(    1) = (   0.0000000   0.0000000   0.0000000), wk =   0.0555556
        k(    2) = (   0.0000000   0.0332332   0.0000000), wk =   0.1111111
        k(    3) = (   0.0000000   0.0664665   0.0000000), wk =   0.1111111
        k(    4) = (   0.0000000  -0.0996997   0.0000000), wk =   0.0555556
        k(    5) = (   0.0287808   0.0166166   0.0000000), wk =   0.1111111
        k(    6) = (   0.0287808   0.0498499   0.0000000), wk =   0.1111111
        k(    7) = (   0.0287808   0.0830831   0.0000000), wk =   0.1111111
        k(    8) = (   0.0287808  -0.0830831   0.0000000), wk =   0.1111111
        k(    9) = (   0.0287808  -0.0498499   0.0000000), wk =   0.1111111
        k(   10) = (   0.0287808  -0.0166166   0.0000000), wk =   0.1111111
        k(   11) = (   0.0575617   0.0332332   0.0000000), wk =   0.1111111
        k(   12) = (   0.0575617   0.0664665   0.0000000), wk =   0.1111111
        k(   13) = (   0.0575617   0.0996997   0.0000000), wk =   0.1111111
        k(   14) = (   0.0575617  -0.0664665   0.0000000), wk =   0.1111111
        k(   15) = (   0.0575617  -0.0332332   0.0000000), wk =   0.1111111
        k(   16) = (   0.0575617   0.0000000   0.0000000), wk =   0.1111111
        k(   17) = (  -0.0863425  -0.0498499   0.0000000), wk =   0.0555556
        k(   18) = (  -0.0863425  -0.0166166   0.0000000), wk =   0.1111111
        k(   19) = (  -0.0863425   0.0166166   0.0000000), wk =   0.1111111
        k(   20) = (  -0.0863425  -0.1495496   0.0000000), wk =   0.0555556

     Largest allocated arrays     est. size (Mb)     dimensions
     Largest temporary arrays     est. size (Mb)     dimensions

     Initial potential from superposition of free atoms
     Check: negative starting charge=   -1.094437

     starting charge  209.99948, renormalised to  216.00000

     negative rho (up, down):  1.126E+00 0.000E+00

     *
     * You are using vdW-DF for exchange-correlation in this calculation.
     * Please cite the following three references that made this development
     * possible:
     *
     *   M. Dion, H. Rydberg, E. Schroder, D. C. Langreth, and
     *   B. I. Lundqvist, Phys. Rev. Lett. 92, 246401 (2004).
     *
     *   T. Thonhauser, V. R. Cooper, S. Li, A. Puzder, P. Hyldgaard, and
     *   D. C. Langreth, Phys. Rev. B 76, 125112 (2007).
     *
     *   G. Roman-Perez and J. M. Soler, Phys. Rev. Lett. 103, 096102 (2009).
     *
     *
     * If you are using vdW-DF2, please also cite:
     *
     *   K. Lee, E. D. Murray, L. Kong, B. I. Lundqvist, and
     *   D. C. Langreth, Phys. Rev. B 82, 081101(R) (2010).
     *
     *
     * If you are calculating the stress with vdW-DF, please also cite:
     *
     *   R. Sabatini, E. Kucukbenli, B. Kolb, T. Thonhauser, and
     *   S. de Gironcoli, J. Phys.: Condens. Matter 24, 424209 (2012).
     *

     Carrying out vdW-DF run using the following parameters:

     Nqs =      20    Nr_points =    1024   r_max =   100.000
     q_mesh =
               0.00001000     0.04494208     0.09755937     0.15916263
               0.23128650     0.31572767     0.41458969     0.53033537
               0.66584808     0.82450364     1.01025438     1.22772762
               1.48234092     1.78043706     2.12944203     2.53805004
               3.01644009     3.57652955     4.23227104     5.00000000

     Gradients computed in reciprocal space

     Adding external electric field

     Computed dipole along edir(3) :
        Dipole                0.0000 Ry au,          0.0000 Debye
        Dipole field          0.0000 Ry au

        Potential amp.       -0.0000 Ry
        Total length         45.5614 bohr

     Starting wfc are  153 randomized atomic wfcs

     Self-consistent Calculation

     iteration #  1     ecut=    36.75 Ry     beta=0.10
     Davidson diagonalization with overlap
     ethr =  1.00E-02,  avg # of iterations =  7.2

[...]

     total energy              =   -3219.95458384 Ry
     Harris-Foulkes estimate   =   -3222.91086470 Ry
     estimated scf accuracy    <      17.78324277 Ry

[...]

     End of self-consistent calculation

          k = 0.0000 0.0000 0.0000 ( 18271 PWs)   bands (ev):

   -90.3843 -90.3761 -90.3760 -90.2694 -90.2692 -90.2612 -90.2612 -90.2611
   -90.2611 -53.9348 -53.9063 -53.9063 -53.8875 -53.8775 -53.8775 -53.8534
   -53.8387 -53.8353 -53.8240 -53.8240 -53.7979 -53.7979 -53.7908 -53.7908
   -53.7446 -53.7431 -53.7318 -53.7307 -53.7307 -53.7302 -53.7302 -53.7220
   -53.7211 -53.7211 -53.7160 -53.7160 -46.6248 -46.5647 -46.5647 -46.4371
   -46.4371 -46.4368 -46.4368 -46.3717 -46.3708  -5.3951  -4.4562  -4.4072
    -4.2910  -4.1964  -4.1447  -4.1447  -4.0498  -4.0280  -3.9921  -3.9921
    -3.9194  -3.9194  -3.7417  -3.7417  -3.3361  -3.0693  -3.0693  -3.0397
    -3.0397  -2.8626  -2.7888  -2.7792  -2.6229  -2.6228  -2.5637  -2.5637
    -2.4465  -2.4465  -2.3265  -2.3230  -2.3230  -2.1867  -2.1867  -2.0833
    -1.9425  -1.9425  -1.8748  -1.8748  -1.6425  -1.6425  -1.4889  -1.3816
    -1.3816  -1.2688  -1.1683  -1.1339  -0.3104   0.0208   0.6025   0.6025
     0.6107   0.6645   0.6645   0.7316   0.7316   0.8815   0.8815   1.1150
     1.1150   1.2839   1.3788   1.3788   2.1949   2.5613   2.6554   2.6554
     3.6654   3.7301   3.7301   3.9409   3.9409   3.9462   5.3513   5.7567
     5.7874   6.1258   6.4998   6.7529   6.7529   7.0245   7.0245   7.0394
     7.3836   7.7262   8.0168   8.0168   9.3448   9.6623   9.9270  10.1621
    10.1621  10.1842

[...]

          k =-0.0863-0.0498 0.0000 ( 18208 PWs)   bands (ev):

[...]

     the Fermi energy is     1.2986 ev

!    total energy              =   -3219.45464841 Ry
     Harris-Foulkes estimate   =   -3219.45465074 Ry
     estimated scf accuracy    <       0.00000071 Ry

     The total energy is the sum of the following terms:

     one-electron contribution =  -24368.42281906 Ry
     hartree contribution      =   12187.92618958 Ry
     xc contribution           =    -426.65420112 Ry
     ewald contribution        =    9387.75808357 Ry
     electric field correction =       0.00000002 Ry
     smearing contrib. (-TS)   =      -0.06190141 Ry

     convergence has been achieved in  16 iterations

 BEEF-vdW xc energy contributions
           1 :   -372.682325677499
           2 :    340.913465540630
           3 :   -286.655759971089
           4 :    224.386428796549
           5 :   -168.053444091541
           6 :    126.416748412115
           7 :   -101.234197243511
[...]
                l(1) =   0
                l(2) =   0
                l(3) =   1
                l(4) =   1
                l(5) =   2
                l(6) =   2
     Q(r) pseudized with  6 coefficients,  rinner =    1.300   1.300   1.300
                                                       1.300   1.300

     PseudoPot. # 2 for Ir read from file:
     /afs/slac.stanford.edu/u/if/mamunm/psp/gbrv1.5pbe/Ir.UPF
     MD5 check sum: 8836f839c3459d2b385c504ce6d91f2c
     Pseudo is Ultrasoft + core correction, Zval = 15.0
     Generated by new atomic code, or converted to UPF format
     Using radial grid of  983 points,  7 beta functions with:
                l(1) =   0
                l(2) =   0
                l(3) =   1
                l(4) =   1
                l(5) =   1
                l(6) =   2
                l(7) =   2
     Q(r) pseudized with  8 coefficients,  rinner =    1.400   1.400   1.400
                                                       1.400   1.400

     vdW kernel table read from file vdW_kernel_table
     MD5 check sum: 095c7af220d748ca6e76c0b4c6cfb241

     atomic species   valence    mass     pseudopotential
        Ag1           19.00   107.86820     Ag( 1.00)
        Ir1           15.00   192.21700     Ir( 1.00)

     No symmetry found

   Cartesian axes

     site n.     atom                  positions (alat units)
         1           Ag1 tau(   1) = (   0.0000000   0.0000000  10.0000000  )
         2           Ag1 tau(   2) = (  -1.4477229   2.5075297  10.0000000  )
         3           Ag1 tau(   3) = (   1.4477229   2.5075297  10.0000000  )
         4           Ir1 tau(   4) = (   2.8954459   0.0000000  10.0000000  )
         5           Ag1 tau(   5) = (   2.8954459   1.6716864  12.3641216  )
         6           Ag1 tau(   6) = (   1.4477229   4.1792161  12.3641216  )
         7           Ag1 tau(   7) = (  -1.4477229   4.1792161  12.3641216  )
         8           Ir1 tau(   8) = (   0.0000000   1.6716864  12.3641216  )
         9           Ag1 tau(   9) = (  -0.0000007   3.3360401  14.8012372  )
        10           Ag1 tau(  10) = (   1.4413726   0.8395107  14.8012344  )
        11           Ag1 tau(  11) = (   4.3495209   0.8395106  14.8012359  )
        12           Ir1 tau(  12) = (   2.8954445   3.3433745  14.6019543  )

     number of k points=    20  Fermi-Dirac smearing, width (Ry)=  0.0110
                       cart. coord. in units 2pi/alat
        k(    1) = (   0.0000000   0.0000000   0.0000000), wk =   0.0555556
        k(    2) = (   0.0000000   0.0332332   0.0000000), wk =   0.1111111
        k(    3) = (   0.0000000   0.0664665   0.0000000), wk =   0.1111111
        k(    4) = (   0.0000000  -0.0996997   0.0000000), wk =   0.0555556
        k(    5) = (   0.0287808   0.0166166   0.0000000), wk =   0.1111111
        k(    6) = (   0.0287808   0.0498499   0.0000000), wk =   0.1111111
        k(    7) = (   0.0287808   0.0830831   0.0000000), wk =   0.1111111
        k(    8) = (   0.0287808  -0.0830831   0.0000000), wk =   0.1111111
        k(    9) = (   0.0287808  -0.0498499   0.0000000), wk =   0.1111111
        k(   10) = (   0.0287808  -0.0166166   0.0000000), wk =   0.1111111
        k(   11) = (   0.0575617   0.0332332   0.0000000), wk =   0.1111111
        k(   12) = (   0.0575617   0.0664665   0.0000000), wk =   0.1111111
        k(   13) = (   0.0575617   0.0996997   0.0000000), wk =   0.1111111
        k(   14) = (   0.0575617  -0.0664665   0.0000000), wk =   0.1111111
        k(   15) = (   0.0575617  -0.0332332   0.0000000), wk =   0.1111111
        k(   16) = (   0.0575617   0.0000000   0.0000000), wk =   0.1111111
        k(   17) = (  -0.0863425  -0.0498499   0.0000000), wk =   0.0555556
        k(   18) = (  -0.0863425  -0.0166166   0.0000000), wk =   0.1111111
        k(   19) = (  -0.0863425   0.0166166   0.0000000), wk =   0.1111111
        k(   20) = (  -0.0863425  -0.1495496   0.0000000), wk =   0.0555556

     Largest allocated arrays     est. size (Mb)     dimensions
     Largest temporary arrays     est. size (Mb)     dimensions

     Initial potential from superposition of free atoms
     Check: negative starting charge=   -1.098797

     starting charge  209.99948, renormalised to  216.00000

[...]

     *
     * You are using vdW-DF for exchange-correlation in this calculation.
     * Please cite the following three references that made this development
     * possible:
     *
     *   M. Dion, H. Rydberg, E. Schroder, D. C. Langreth, and
     *   B. I. Lundqvist, Phys. Rev. Lett. 92, 246401 (2004).
     *
     *   T. Thonhauser, V. R. Cooper, S. Li, A. Puzder, P. Hyldgaard, and
     *   D. C. Langreth, Phys. Rev. B 76, 125112 (2007).
     *
     *   G. Roman-Perez and J. M. Soler, Phys. Rev. Lett. 103, 096102 (2009).
     *
     *
     * If you are using vdW-DF2, please also cite:
     *
     *   K. Lee, E. D. Murray, L. Kong, B. I. Lundqvist, and
     *   D. C. Langreth, Phys. Rev. B 82, 081101(R) (2010).
     *
     *
     * If you are calculating the stress with vdW-DF, please also cite:
     *
     *   R. Sabatini, E. Kucukbenli, B. Kolb, T. Thonhauser, and
     *   S. de Gironcoli, J. Phys.: Condens. Matter 24, 424209 (2012).
     *

     Carrying out vdW-DF run using the following parameters:

     Nqs =      20    Nr_points =    1024   r_max =   100.000
     q_mesh =
               0.00001000     0.04494208     0.09755937     0.15916263
               0.23128650     0.31572767     0.41458969     0.53033537
               0.66584808     0.82450364     1.01025438     1.22772762
               1.48234092     1.78043706     2.12944203     2.53805004
               3.01644009     3.57652955     4.23227104     5.00000000

     Gradients computed in reciprocal space

[...]

     Starting wfc are  153 randomized atomic wfcs

     Self-consistent Calculation

[...]

     total energy              =   -3219.46411303 Ry
     Harris-Foulkes estimate   =   -3219.46411338 Ry
     estimated scf accuracy    <       0.00000804 Ry

     iteration # 17     ecut=    36.75 Ry     beta=0.10
     Davidson diagonalization with overlap
     ethr =  3.72E-09,  avg # of iterations =  2.2

[...]

     negative rho (up, down):  1.014E+00 0.000E+00

     Adding external electric field

     Computed dipole along edir(3) :
        Dipole                0.0097 Ry au,          0.0245 Debye
        Dipole field          0.0000 Ry au

        Potential amp.       -0.0023 Ry
        Total length         45.5614 bohr

     End of self-consistent calculation

[...]

          k = 0.0576 0.0000 0.0000 ( 18237 PWs)   bands (ev):

[...]

          k =-0.0863-0.1495 0.0000 ( 18208 PWs)   bands (ev):

   -90.3716 -90.3688 -90.3661 -90.2477 -90.2450 -90.2423 -90.2170 -90.2142
   -90.2115 -53.9010 -53.8732 -53.8697 -53.8675 -53.8672 -53.8643 -53.8612
   -53.8570 -53.8180 -53.7948 -53.7680 -53.7575 -53.7548 -53.7506 -53.7484
   -53.7310 -53.7252 -53.7225 -53.7187 -53.7157 -53.7045 -53.7014 -53.6985
   -53.6871 -53.6715 -53.6680 -53.6652 -46.6109 -46.5604 -46.5596 -46.4692
   -46.4685 -46.4246 -46.4238 -46.4195 -46.3593  -4.1596  -4.1164  -3.9023
    -3.8208  -3.7634  -3.6227  -3.5797  -3.5474  -3.5238  -3.5031  -3.4933
    -3.4511  -3.2809  -3.2476  -3.2014  -3.1432  -3.1043  -3.0463  -2.9945
    -2.8950  -2.7773  -2.7367  -2.7176  -2.6888  -2.6161  -2.6039  -2.5907
    -2.5311  -2.4469  -2.4219  -2.4114  -2.3999  -2.3586  -2.3566  -2.2331
    -2.2226  -2.2224  -2.1699  -2.1305  -2.1020  -2.0347  -1.9984  -1.9899
    -1.8092  -1.7922  -1.6390  -1.4554  -1.2606  -0.9265  -0.7387  -0.2204
    -0.1478   0.3388   0.3414   0.4120   0.4600   0.4791   0.5009   0.5813
     0.7218   0.7403   0.7866   0.9386   1.3470   1.9465   2.3751   2.4836
     3.3001   3.3994   3.8017   4.8867   5.0538   5.5518   5.6953   6.7539
     6.7653   7.3516   7.3693   7.4602   7.4675   8.0212   8.2681   8.4661
     8.5415   8.6071   8.6245   8.6743   9.0091   9.0214   9.0714   9.5225
     9.5976  10.1008

     the Fermi energy is     1.3088 ev

!    total energy              =   -3219.46411618 Ry
     Harris-Foulkes estimate   =   -3219.46411404 Ry
     estimated scf accuracy    <       0.00000075 Ry

     The total energy is the sum of the following terms:

     one-electron contribution =  -24260.60316956 Ry
     hartree contribution      =   12134.15829854 Ry
     xc contribution           =    -426.64454129 Ry
     ewald contribution        =    9333.68672288 Ry
     electric field correction =       0.00000024 Ry
     smearing contrib. (-TS)   =      -0.06142699 Ry

     convergence has been achieved in  17 iterations

 BEEF-vdW xc energy contributions
           1 :   -372.777827685203
           2 :    340.995866147026
           3 :   -286.724309995761
           4 :    224.453956283531
           5 :   -168.135146625857
           6 :    126.516974264346
           7 :   -101.342173752896
           8 :    88.6265806701878
           9 :   -81.9011387385052
          10 :    75.6055641216145
          11 :   -67.1064490254462
          12 :    56.7653464803194
          13 :   -46.5653753747999
          14 :    38.3926210425877
          15 :   -32.9669103545369
          16 :    29.7847868454631
          17 :   -27.7798848579147
          18 :    26.0763865118830
          19 :   -24.3499039239016
          20 :    22.7013367162002
          21 :   -21.2979491852791
          22 :    20.1120930186087
          23 :   -18.9302071198293
          24 :    17.5647860368886
          25 :   -16.0616311593798
          26 :    14.7183015878925
          27 :   -13.8907547018298
          28 :    13.7284690078299
          29 :   -14.0362031878593
          30 :    14.3668474068477
          31 :   -35.1718475949320
          32 :   -25.8282238451289

     Forces acting on atoms (Ry/au):

     negative rho (up, down):  1.014E+00 0.000E+00
     atom    1 type  1   force =    -0.00000056    0.00403458   -0.01053897
     atom    2 type  1   force =     0.00349374   -0.00201735   -0.01053928
     atom    3 type  1   force =    -0.00349380   -0.00201720   -0.01053928
     atom    4 type  2   force =     0.00000041   -0.00000004    0.02721630
     atom    5 type  1   force =    -0.00000009   -0.00828187   -0.00264057
     atom    6 type  1   force =    -0.00717235    0.00414092   -0.00264107
     atom    7 type  1   force =     0.00717258    0.00414079   -0.00264098
     atom    8 type  2   force =     0.00000058   -0.00000016    0.00836366
     atom    9 type  1   force =    -0.00000022   -0.00080434    0.00104466
     atom   10 type  1   force =    -0.00069667    0.00040240    0.00104488
     atom   11 type  1   force =     0.00069646    0.00040262    0.00104467
     atom   12 type  2   force =    -0.00000007   -0.00000036    0.00082599

     Total force =     0.037753     Total SCF correction =     0.005024
     SCF correction compared to forces is large: reduce conv_thr to get better values

     entering subroutine stress ...

     negative rho (up, down):  1.014E+00 0.000E+00
          total   stress  (Ry/bohr**3)                   (kbar)     P=   -8.13
  -0.00007321  -0.00000000  -0.00000000        -10.77     -0.00     -0.00
  -0.00000000  -0.00007321  -0.00000000         -0.00    -10.77     -0.00
  -0.00000000  -0.00000000  -0.00001937         -0.00     -0.00     -2.85

 !ASE

     Writing output data file calc.save

     General routines

     Parallel routines

   This run was terminated on:  16:20:28  19Dec2018

   JOB DONE.
Job  /afs/slac/g/suncat/bin/suncat-tsmpirun -x LD_LIBRARY_PATH -wdir /scratch/qe773169_x04x4 pw.x -in pw.inp

TID   HOST_NAME   COMMAND_LINE            STATUS            TERMINATION_TIME
00000 suncat0180 pw.x -in pw.inp   Done                     12/19/2018 16:20:28
00001 suncat0180 pw.x -in pw.inp   Done                     12/19/2018 16:20:28
00002 suncat0180 pw.x -in pw.inp   Done                     12/19/2018 16:20:28
00003 suncat0180 pw.x -in pw.inp   Done                     12/19/2018 16:20:28
00004 suncat0180 pw.x -in pw.inp   Done                     12/19/2018 16:20:28
00005 suncat0180 pw.x -in pw.inp   Done                     12/19/2018 16:20:28
00006 suncat0180 pw.x -in pw.inp   Done                     12/19/2018 16:20:28
00007 suncat0180 pw.x -in pw.inp   Done                     12/19/2018 16:20:28
00008 suncat0179 pw.x -in pw.inp   Done                     12/19/2018 16:20:28
00009 suncat0179 pw.x -in pw.inp   Done                     12/19/2018 16:20:28
00010 suncat0179 pw.x -in pw.inp   Done                     12/19/2018 16:20:28
00011 suncat0179 pw.x -in pw.inp   Done                     12/19/2018 16:20:28
00012 suncat0179 pw.x -in pw.inp   Done                     12/19/2018 16:20:28
00013 suncat0179 pw.x -in pw.inp   Done                     12/19/2018 16:20:28
00014 suncat0179 pw.x -in pw.inp   Done                     12/19/2018 16:20:28
00015 suncat0179 pw.x -in pw.inp   Done                     12/19/2018 16:20:28
00016 suncat0178 pw.x -in pw.inp   Done                     12/19/2018 16:20:28
00017 suncat0178 pw.x -in pw.inp   Done                     12/19/2018 16:20:28
00018 suncat0178 pw.x -in pw.inp   Done                     12/19/2018 16:20:28
00019 suncat0178 pw.x -in pw.inp   Done                     12/19/2018 16:20:28
00020 suncat0178 pw.x -in pw.inp   Done                     12/19/2018 16:20:28
00021 suncat0178 pw.x -in pw.inp   Done                     12/19/2018 16:20:28
00022 suncat0178 pw.x -in pw.inp   Done                     12/19/2018 16:20:28
00023 suncat0178 pw.x -in pw.inp   Done                     12/19/2018 16:20:28
00024 suncat0177 pw.x -in pw.inp   Done                     12/19/2018 16:20:28
00025 suncat0177 pw.x -in pw.inp   Done                     12/19/2018 16:20:28
00026 suncat0177 pw.x -in pw.inp   Done                     12/19/2018 16:20:28
00027 suncat0177 pw.x -in pw.inp   Done                     12/19/2018 16:20:28
00028 suncat0177 pw.x -in pw.inp   Done                     12/19/2018 16:20:28
00029 suncat0177 pw.x -in pw.inp   Done                     12/19/2018 16:20:28
00030 suncat0177 pw.x -in pw.inp   Done                     12/19/2018 16:20:28
00031 suncat0177 pw.x -in pw.inp   Done                     12/19/2018 16:20:28
00032 suncat0172 pw.x -in pw.inp   Done                     12/19/2018 16:20:28
00033 suncat0172 pw.x -in pw.inp   Done                     12/19/2018 16:20:28
00034 suncat0172 pw.x -in pw.inp   Done                     12/19/2018 16:20:28
00035 suncat0172 pw.x -in pw.inp   Done                     12/19/2018 16:20:28
00036 suncat0172 pw.x -in pw.inp   Done                     12/19/2018 16:20:28
00037 suncat0172 pw.x -in pw.inp   Done                     12/19/2018 16:20:28
00038 suncat0172 pw.x -in pw.inp   Done                     12/19/2018 16:20:28
00039 suncat0172 pw.x -in pw.inp   Done                     12/19/2018 16:20:28
00040 suncat0171 pw.x -in pw.inp   Done                     12/19/2018 16:20:28
00041 suncat0171 pw.x -in pw.inp   Done                     12/19/2018 16:20:28
00042 suncat0171 pw.x -in pw.inp   Done                     12/19/2018 16:20:28
00043 suncat0171 pw.x -in pw.inp   Done                     12/19/2018 16:20:28
00044 suncat0171 pw.x -in pw.inp   Done                     12/19/2018 16:20:28
00045 suncat0171 pw.x -in pw.inp   Done                     12/19/2018 16:20:28
00046 suncat0171 pw.x -in pw.inp   Done                     12/19/2018 16:20:28
00047 suncat0171 pw.x -in pw.inp   Done                     12/19/2018 16:20:28
00048 suncat0169 pw.x -in pw.inp   Done                     12/19/2018 16:20:28
00049 suncat0169 pw.x -in pw.inp   Done                     12/19/2018 16:20:28
00050 suncat0169 pw.x -in pw.inp   Done                     12/19/2018 16:20:28
00051 suncat0169 pw.x -in pw.inp   Done                     12/19/2018 16:20:28
00052 suncat0169 pw.x -in pw.inp   Done                     12/19/2018 16:20:28
00053 suncat0169 pw.x -in pw.inp   Done                     12/19/2018 16:20:28
00054 suncat0169 pw.x -in pw.inp   Done                     12/19/2018 16:20:28
00055 suncat0169 pw.x -in pw.inp   Done                     12/19/2018 16:20:28
00056 suncat0168 pw.x -in pw.inp   Done                     12/19/2018 16:20:28
00057 suncat0168 pw.x -in pw.inp   Done                     12/19/2018 16:20:28
00058 suncat0168 pw.x -in pw.inp   Done                     12/19/2018 16:20:28
00059 suncat0168 pw.x -in pw.inp   Done                     12/19/2018 16:20:28
00060 suncat0168 pw.x -in pw.inp   Done                     12/19/2018 16:20:28
00061 suncat0168 pw.x -in pw.inp   Done                     12/19/2018 16:20:28
00062 suncat0168 pw.x -in pw.inp   Done                     12/19/2018 16:20:28
00063 suncat0168 pw.x -in pw.inp   Done                     12/19/2018 16:20:28