     Program PWSCF v.5.1rc2 (svn rev. 11289) starts on 31Dec2018 at 18: 6:36

     Current dimensions of program PWSCF are:
     Max number of different atomic species (ntypx) = 10
     Max number of k-points (npk) =  40000
     Max angular momentum in pseudopotentials (lmaxx) =  3
     Presently stress not available with electric field

     IMPORTANT: XC functional enforced from input :
     Exchange-correlation      = BEEF-VDW ( 1  4 27 13 2)
     Any further DFT definition will be discarded
     Please, verify this is what you really want

     Subspace diagonalization in iterative solution of the eigenvalue problem:
     a serial algorithm will be used

     Generating pointlists ...
     new r_m :   0.4125 (alat units)  0.7795 (a.u.) for type    1
     new r_m :   0.4125 (alat units)  0.7795 (a.u.) for type    2

     bravais-lattice index     =            0
     lattice parameter (alat)  =       1.8897  a.u.
     unit-cell volume          =    4187.5760 (a.u.)^3
     number of atoms/cell      =           12
     number of atomic types    =            2
     number of electrons       =       183.00
     number of Kohn-Sham states=          121
     kinetic-energy cutoff     =      36.7493  Ry
     charge density cutoff     =     367.4932  Ry
     convergence threshold     =      1.0E-06
     mixing beta               =       0.1000
     number of iterations used =           10  plain     mixing
     Exchange-correlation      = BEEF-VDW ( 1  4 27 13 2)
     nstep                     =           50

     celldm(1)=   1.889726  celldm(2)=   0.000000  celldm(3)=   0.000000
     celldm(4)=   0.000000  celldm(5)=   0.000000  celldm(6)=   0.000000

     crystal axes: (cart. coord. in units of alat)
               a(1) = (   5.416539   0.000000   0.000000 )
               a(2) = (  -2.708270   4.690861   0.000000 )
               a(3) = (   0.000000   0.000000  24.422586 )

     reciprocal axes: (cart. coord. in units 2 pi/alat)
               b(1) = (  0.184620  0.106590  0.000000 )
               b(2) = (  0.000000  0.213180  0.000000 )
               b(3) = (  0.000000  0.000000  0.040946 )

     PseudoPot. # 1 for Re read from file:
     /afs/slac.stanford.edu/u/if/mamunm/psp/gbrv1.5pbe/Re.UPF
     MD5 check sum: 85f993410f3e006da9d71c142b4ad953
     Pseudo is Ultrasoft + core correction, Zval = 15.0
     Generated by new atomic code, or converted to UPF format
     Using radial grid of  981 points,  8 beta functions with:
                l(1) =   0
                l(2) =   0
                l(3) =   1
                l(4) =   1
                l(5) =   2
                l(6) =   2
                l(7) =   3
                l(8) =   3
     Q(r) pseudized with  8 coefficients,  rinner =    1.150   1.150   1.150
                                                       1.150   1.150   1.150
                                                       1.150

     PseudoPot. # 2 for Fe read from file:
     /afs/slac.stanford.edu/u/if/mamunm/psp/gbrv1.5pbe/Fe.UPF
     MD5 check sum: a130daea23fe5165f5d574ae7f82ed95
     Pseudo is Ultrasoft + core correction, Zval = 16.0
     Generated by new atomic code, or converted to UPF format
     Using radial grid of  861 points,  6 beta functions with:
                l(1) =   0
                l(2) =   0
                l(3) =   1
                l(4) =   1
                l(5) =   2
                l(6) =   2
     Q(r) pseudized with  8 coefficients,  rinner =    1.000   1.000   1.000
                                                       1.000   1.000

     vdW kernel table read from file vdW_kernel_table
     MD5 check sum: 095c7af220d748ca6e76c0b4c6cfb241

     atomic species   valence    mass     pseudopotential
        Re1           15.00   186.20700     Re( 1.00)
        Fe1           16.00    55.84500     Fe( 1.00)

     Starting magnetic structure
     atomic species   magnetization
        Re1          0.133
        Fe1          0.125

     No symmetry found

   Cartesian axes

     site n.     atom                  positions (alat units)
         1           Re1 tau(   1) = (   0.0000000   0.0000000  10.0000000  )
         2           Re1 tau(   2) = (  -1.3541349   2.3454304  10.0000000  )
         3           Re1 tau(   3) = (   1.3541349   2.3454304  10.0000000  )
         4           Fe1 tau(   4) = (   2.7082697   0.0000000  10.0000000  )
         5           Re1 tau(   5) = (   2.7082697   1.5636203  12.2112930  )
         6           Re1 tau(   6) = (   1.3541349   3.9090507  12.2112930  )
         7           Re1 tau(   7) = (  -1.3541349   3.9090507  12.2112930  )
         8           Fe1 tau(   8) = (   0.0000000   1.5636203  12.2112930  )
         9           Re1 tau(   9) = (  -0.0000000   3.1272405  14.4225860  )
        10           Re1 tau(  10) = (   1.3541349   0.7818101  14.4225860  )
        11           Re1 tau(  11) = (   4.0624046   0.7818101  14.4225860  )
        12           Fe1 tau(  12) = (   2.7082697   3.1272405  14.4225860  )

     number of k points=    40  Fermi-Dirac smearing, width (Ry)=  0.0110
                       cart. coord. in units 2pi/alat
        k(    1) = (   0.0000000   0.0000000   0.0000000), wk =   0.0277778
        k(    2) = (   0.0000000   0.0355301   0.0000000), wk =   0.0555556
        k(    3) = (   0.0000000   0.0710602   0.0000000), wk =   0.0555556
        k(    4) = (   0.0000000  -0.1065902   0.0000000), wk =   0.0277778
        k(    5) = (   0.0307700   0.0177650   0.0000000), wk =   0.0555556
        k(    6) = (   0.0307700   0.0532951   0.0000000), wk =   0.0555556
        k(    7) = (   0.0307700   0.0888252   0.0000000), wk =   0.0555556
        k(    8) = (   0.0307700  -0.0888252   0.0000000), wk =   0.0555556
        k(    9) = (   0.0307700  -0.0532951   0.0000000), wk =   0.0555556
        k(   10) = (   0.0307700  -0.0177650   0.0000000), wk =   0.0555556
        k(   11) = (   0.0615399   0.0355301   0.0000000), wk =   0.0555556
        k(   12) = (   0.0615399   0.0710602   0.0000000), wk =   0.0555556
        k(   13) = (   0.0615399   0.1065902   0.0000000), wk =   0.0555556
        k(   14) = (   0.0615399  -0.0710602   0.0000000), wk =   0.0555556
        k(   15) = (   0.0615399  -0.0355301   0.0000000), wk =   0.0555556
        k(   16) = (   0.0615399   0.0000000   0.0000000), wk =   0.0555556
        k(   17) = (  -0.0923099  -0.0532951   0.0000000), wk =   0.0277778
        k(   18) = (  -0.0923099  -0.0177650   0.0000000), wk =   0.0555556
        k(   19) = (  -0.0923099   0.0177650   0.0000000), wk =   0.0555556
        k(   20) = (  -0.0923099  -0.1598854   0.0000000), wk =   0.0277778
        k(   21) = (   0.0000000   0.0000000   0.0000000), wk =   0.0277778
        k(   22) = (   0.0000000   0.0355301   0.0000000), wk =   0.0555556
        k(   23) = (   0.0000000   0.0710602   0.0000000), wk =   0.0555556
        k(   24) = (   0.0000000  -0.1065902   0.0000000), wk =   0.0277778
        k(   25) = (   0.0307700   0.0177650   0.0000000), wk =   0.0555556
        k(   26) = (   0.0307700   0.0532951   0.0000000), wk =   0.0555556
        k(   27) = (   0.0307700   0.0888252   0.0000000), wk =   0.0555556
        k(   28) = (   0.0307700  -0.0888252   0.0000000), wk =   0.0555556
        k(   29) = (   0.0307700  -0.0532951   0.0000000), wk =   0.0555556
        k(   30) = (   0.0307700  -0.0177650   0.0000000), wk =   0.0555556
        k(   31) = (   0.0615399   0.0355301   0.0000000), wk =   0.0555556
        k(   32) = (   0.0615399   0.0710602   0.0000000), wk =   0.0555556
        k(   33) = (   0.0615399   0.1065902   0.0000000), wk =   0.0555556
        k(   34) = (   0.0615399  -0.0710602   0.0000000), wk =   0.0555556
        k(   35) = (   0.0615399  -0.0355301   0.0000000), wk =   0.0555556
        k(   36) = (   0.0615399   0.0000000   0.0000000), wk =   0.0555556
        k(   37) = (  -0.0923099  -0.0532951   0.0000000), wk =   0.0277778
        k(   38) = (  -0.0923099  -0.0177650   0.0000000), wk =   0.0555556
        k(   39) = (  -0.0923099   0.0177650   0.0000000), wk =   0.0555556
        k(   40) = (  -0.0923099  -0.1598854   0.0000000), wk =   0.0277778

     Largest allocated arrays     est. size (Mb)     dimensions
     Largest temporary arrays     est. size (Mb)     dimensions

     Check: negative/imaginary core charge=   -0.000002    0.000000

     Initial potential from superposition of free atoms
     Check: negative starting charge=(component1):   -0.658972
     Check: negative starting charge=(component2):   -0.503911

     starting charge  175.49958, renormalised to  183.00000

     negative rho (up, down):  6.871E-01 5.254E-01

     *
     * You are using vdW-DF for exchange-correlation in this calculation.
     * Please cite the following three references that made this development
     * possible:
     *
     *   M. Dion, H. Rydberg, E. Schroder, D. C. Langreth, and
     *   B. I. Lundqvist, Phys. Rev. Lett. 92, 246401 (2004).
     *
     *   T. Thonhauser, V. R. Cooper, S. Li, A. Puzder, P. Hyldgaard, and
     *   D. C. Langreth, Phys. Rev. B 76, 125112 (2007).
     *
     *   G. Roman-Perez and J. M. Soler, Phys. Rev. Lett. 103, 096102 (2009).
     *
     *
     * If you are using vdW-DF2, please also cite:
     *
     *   K. Lee, E. D. Murray, L. Kong, B. I. Lundqvist, and
     *   D. C. Langreth, Phys. Rev. B 82, 081101(R) (2010).
     *
     *
     * If you are calculating the stress with vdW-DF, please also cite:
     *
     *   R. Sabatini, E. Kucukbenli, B. Kolb, T. Thonhauser, and
     *   S. de Gironcoli, J. Phys.: Condens. Matter 24, 424209 (2012).
     *

     Carrying out vdW-DF run using the following parameters:

     Nqs =      20    Nr_points =    1024   r_max =   100.000
     q_mesh =
               0.00001000     0.04494208     0.09755937     0.15916263
               0.23128650     0.31572767     0.41458969     0.53033537
               0.66584808     0.82450364     1.01025438     1.22772762
               1.48234092     1.78043706     2.12944203     2.53805004
               3.01644009     3.57652955     4.23227104     5.00000000

     Gradients computed in reciprocal space

     Adding external electric field

     Computed dipole along edir(3) :
        Dipole               -0.0000 Ry au,         -0.0000 Debye
        Dipole field         -0.0000 Ry au

        Potential amp.        0.0000 Ry
        Total length         44.9982 bohr

[...]

     Starting wfc are  156 randomized atomic wfcs

     Self-consistent Calculation

     iteration #  1     ecut=    36.75 Ry     beta=0.10
     Davidson diagonalization with overlap
     ethr =  1.00E-02,  avg # of iterations =  5.2

[...]

     Magnetic moment per site:
     atom:    1    charge:    1.9335    magn:    0.2367    constr:    0.0000
     atom:    2    charge:    1.9335    magn:    0.2367    constr:    0.0000
     atom:    3    charge:    1.9335    magn:    0.2367    constr:    0.0000
     atom:    4    charge:    7.2820    magn:    0.8663    constr:    0.0000
     atom:    5    charge:    1.9255    magn:    0.2346    constr:    0.0000
     atom:    6    charge:    1.9255    magn:    0.2346    constr:    0.0000
[...]
        k(    6) = (   0.0307700   0.0532951   0.0000000), wk =   0.0555556
        k(    7) = (   0.0307700   0.0888252   0.0000000), wk =   0.0555556
        k(    8) = (   0.0307700  -0.0888252   0.0000000), wk =   0.0555556
        k(    9) = (   0.0307700  -0.0532951   0.0000000), wk =   0.0555556
        k(   10) = (   0.0307700  -0.0177650   0.0000000), wk =   0.0555556
        k(   11) = (   0.0615399   0.0355301   0.0000000), wk =   0.0555556
        k(   12) = (   0.0615399   0.0710602   0.0000000), wk =   0.0555556
        k(   13) = (   0.0615399   0.1065902   0.0000000), wk =   0.0555556
        k(   14) = (   0.0615399  -0.0710602   0.0000000), wk =   0.0555556
        k(   15) = (   0.0615399  -0.0355301   0.0000000), wk =   0.0555556
        k(   16) = (   0.0615399   0.0000000   0.0000000), wk =   0.0555556
        k(   17) = (  -0.0923099  -0.0532951   0.0000000), wk =   0.0277778
        k(   18) = (  -0.0923099  -0.0177650   0.0000000), wk =   0.0555556
        k(   19) = (  -0.0923099   0.0177650   0.0000000), wk =   0.0555556
        k(   20) = (  -0.0923099  -0.1598854   0.0000000), wk =   0.0277778
        k(   21) = (   0.0000000   0.0000000   0.0000000), wk =   0.0277778
        k(   22) = (   0.0000000   0.0355301   0.0000000), wk =   0.0555556
        k(   23) = (   0.0000000   0.0710602   0.0000000), wk =   0.0555556
        k(   24) = (   0.0000000  -0.1065902   0.0000000), wk =   0.0277778
        k(   25) = (   0.0307700   0.0177650   0.0000000), wk =   0.0555556
        k(   26) = (   0.0307700   0.0532951   0.0000000), wk =   0.0555556
        k(   27) = (   0.0307700   0.0888252   0.0000000), wk =   0.0555556
        k(   28) = (   0.0307700  -0.0888252   0.0000000), wk =   0.0555556
        k(   29) = (   0.0307700  -0.0532951   0.0000000), wk =   0.0555556
        k(   30) = (   0.0307700  -0.0177650   0.0000000), wk =   0.0555556
        k(   31) = (   0.0615399   0.0355301   0.0000000), wk =   0.0555556
        k(   32) = (   0.0615399   0.0710602   0.0000000), wk =   0.0555556
        k(   33) = (   0.0615399   0.1065902   0.0000000), wk =   0.0555556
        k(   34) = (   0.0615399  -0.0710602   0.0000000), wk =   0.0555556
        k(   35) = (   0.0615399  -0.0355301   0.0000000), wk =   0.0555556
        k(   36) = (   0.0615399   0.0000000   0.0000000), wk =   0.0555556
        k(   37) = (  -0.0923099  -0.0532951   0.0000000), wk =   0.0277778
        k(   38) = (  -0.0923099  -0.0177650   0.0000000), wk =   0.0555556
        k(   39) = (  -0.0923099   0.0177650   0.0000000), wk =   0.0555556
        k(   40) = (  -0.0923099  -0.1598854   0.0000000), wk =   0.0277778

     Largest allocated arrays     est. size (Mb)     dimensions
     Largest temporary arrays     est. size (Mb)     dimensions

     Check: negative/imaginary core charge=   -0.000002    0.000000

     Initial potential from superposition of free atoms
     Check: negative starting charge=(component1):   -0.658483
     Check: negative starting charge=(component2):   -0.503536

     starting charge  175.49958, renormalised to  183.00000

[...]

     *
     * You are using vdW-DF for exchange-correlation in this calculation.
     * Please cite the following three references that made this development
     * possible:
     *
     *   M. Dion, H. Rydberg, E. Schroder, D. C. Langreth, and
     *   B. I. Lundqvist, Phys. Rev. Lett. 92, 246401 (2004).
     *
     *   T. Thonhauser, V. R. Cooper, S. Li, A. Puzder, P. Hyldgaard, and
     *   D. C. Langreth, Phys. Rev. B 76, 125112 (2007).
     *
     *   G. Roman-Perez and J. M. Soler, Phys. Rev. Lett. 103, 096102 (2009).
     *
     *
     * If you are using vdW-DF2, please also cite:
     *
     *   K. Lee, E. D. Murray, L. Kong, B. I. Lundqvist, and
     *   D. C. Langreth, Phys. Rev. B 82, 081101(R) (2010).
     *
     *
     * If you are calculating the stress with vdW-DF, please also cite:
     *
     *   R. Sabatini, E. Kucukbenli, B. Kolb, T. Thonhauser, and
     *   S. de Gironcoli, J. Phys.: Condens. Matter 24, 424209 (2012).
     *

     Carrying out vdW-DF run using the following parameters:

     Nqs =      20    Nr_points =    1024   r_max =   100.000
     q_mesh =
               0.00001000     0.04494208     0.09755937     0.15916263
               0.23128650     0.31572767     0.41458969     0.53033537
               0.66584808     0.82450364     1.01025438     1.22772762
               1.48234092     1.78043706     2.12944203     2.53805004
               3.01644009     3.57652955     4.23227104     5.00000000

     Gradients computed in reciprocal space

[...]

     Starting wfc are  156 randomized atomic wfcs

     Self-consistent Calculation

[...]

     iteration # 19     ecut=    36.75 Ry     beta=0.10
     Davidson diagonalization with overlap
     c_bands:  1 eigenvalues not converged
     c_bands:  1 eigenvalues not converged
     ethr =  9.70E-08,  avg # of iterations =  3.0

[...]

     total energy              =   -2483.31319223 Ry
     Harris-Foulkes estimate   =   -2483.31319158 Ry
     estimated scf accuracy    <       0.00000115 Ry

[...]

     iteration # 32     ecut=    36.75 Ry     beta=0.10
     Davidson diagonalization with overlap
     ethr =  6.28E-10,  avg # of iterations =  2.1

[...]

     negative rho (up, down):  6.129E-01 6.061E-01

[...]

     Adding external electric field

     Computed dipole along edir(3) :
        Dipole                0.0241 Ry au,          0.0612 Debye
        Dipole field          0.0001 Ry au

        Potential amp.       -0.0065 Ry
        Total length         44.9982 bohr

     Magnetic moment per site:
     atom:    1    charge:    1.8721    magn:   -0.0009    constr:    0.0000
     atom:    2    charge:    1.8721    magn:   -0.0009    constr:    0.0000
     atom:    3    charge:    1.8721    magn:   -0.0009    constr:    0.0000
     atom:    4    charge:    7.0824    magn:    1.1181    constr:    0.0000
     atom:    5    charge:    1.8654    magn:   -0.0085    constr:    0.0000
     atom:    6    charge:    1.8654    magn:   -0.0085    constr:    0.0000
     atom:    7    charge:    1.8654    magn:   -0.0085    constr:    0.0000
     atom:    8    charge:    7.0596    magn:    0.6600    constr:    0.0000
     atom:    9    charge:    1.8629    magn:   -0.0027    constr:    0.0000
     atom:   10    charge:    1.8629    magn:   -0.0027    constr:    0.0000
     atom:   11    charge:    1.8629    magn:   -0.0027    constr:    0.0000
     atom:   12    charge:    7.0800    magn:    1.0418    constr:    0.0000

     End of self-consistent calculation

 ------ SPIN UP ------------

[...]

 ------ SPIN DOWN ----------

[...]

          k = 0.0615 0.0000 0.0000 ( 15744 PWs)   bands (ev):

[...]

          k =-0.0923-0.1599 0.0000 ( 15780 PWs)   bands (ev):

   -83.8886 -83.3995 -83.3881 -78.3767 -78.3527 -78.3281 -78.0961 -78.0741
   -78.0519 -78.0455 -78.0238 -78.0018 -49.9721 -49.9709 -49.9447 -49.4826
   -49.4809 -49.4796 -49.4734 -49.4671 -49.4658 -40.5489 -40.3762 -40.3175
   -40.2434 -40.2102 -40.1822 -40.1025 -40.0973 -40.0629 -39.9905 -39.8167
   -39.8011 -39.7705 -39.7684 -39.7360 -39.7293 -39.7222 -39.7051 -39.7040
   -39.6770 -39.6434 -39.6176 -39.5970 -39.5243 -39.5183 -39.3610 -39.3290
    -4.8168  -4.4080  -3.1209  -2.9189  -2.8628  -2.4427  -2.3664  -2.3378
    -1.9502  -1.9007  -1.8303  -1.5428  -1.3272  -1.1550  -1.0816  -0.9817
    -0.8210  -0.6242  -0.5535  -0.4095  -0.1729   0.2055   0.2321   0.4193
     0.4922   0.5587   0.5599   0.6786   0.7118   0.7385   0.8617   1.1355
     1.1481   1.2914   1.4229   1.5806   1.6595   1.7014   1.7355   1.7711
     2.3983   2.4187   2.4450   2.4453   2.7236   2.7720   2.8544   3.0767
     3.1440   3.1576   3.3060   3.4703   3.5338   3.5929   3.6007   3.8329
     4.0311   4.3459   4.3584   4.4482   4.6027   5.1552   5.3789   5.4511
     5.8729   6.2023   6.3643   6.8852   7.4142   7.9443   8.2860   8.3014
     8.4700

     the Fermi energy is     2.3296 ev

!    total energy              =   -2483.31319425 Ry
     Harris-Foulkes estimate   =   -2483.31319265 Ry
     estimated scf accuracy    <       0.00000083 Ry

     The total energy is the sum of the following terms:

     one-electron contribution =  -20198.80122474 Ry
     hartree contribution      =   10086.93916287 Ry
     xc contribution           =    -577.65141747 Ry
     ewald contribution        =    8206.26828106 Ry
     electric field correction =       0.00000174 Ry
     smearing contrib. (-TS)   =      -0.06799771 Ry

     total magnetization       =     5.28 Bohr mag/cell
     absolute magnetization    =     7.36 Bohr mag/cell

     convergence has been achieved in  32 iterations

 BEEF-vdW xc energy contributions
           1 :   -512.455096524942
           2 :    474.570414797966
           3 :   -407.369178399376
           4 :    324.829118804944
           5 :   -241.726725126924
           6 :    169.485978658786
           7 :   -113.900347692396
           8 :    75.1495886886714
           9 :   -49.6169442938046
          10 :    32.4107062212762
          11 :   -19.4895704948166
          12 :    8.70186548417462
          13 :   0.315193192980701
          14 :   -6.96035103224676
          15 :    10.6142536351317
          16 :   -11.2653292796515
          17 :    9.64904464372444
          18 :   -6.99700329531618
          19 :    4.59657242914614
          20 :   -3.37820009629900
          21 :    3.66936603527165
          22 :   -5.17920530232402
          23 :    7.18389603520041
          24 :   -8.83773714146230
          25 :    9.49488837048386
          26 :   -8.93658297971729
          27 :    7.41953010675149
          28 :   -5.53544521308856
          29 :    3.94101994613823
          30 :   -3.08485742792232
          31 :   -42.9631187402633
          32 :   -31.6420100578433

     Forces acting on atoms (Ry/au):

     negative rho (up, down):  6.129E-01 6.061E-01
     atom    1 type  1   force =    -0.00000542   -0.00666447    0.02433526
     atom    2 type  1   force =    -0.00577222    0.00332782    0.02433453
     atom    3 type  1   force =     0.00577437    0.00333432    0.02433373
     atom    4 type  2   force =    -0.00000506   -0.00000266    0.00093023
     atom    5 type  1   force =     0.00000099    0.00435569   -0.01985007
     atom    6 type  1   force =     0.00377332   -0.00217636   -0.01985086
     atom    7 type  1   force =    -0.00377155   -0.00217826   -0.01984830
     atom    8 type  2   force =     0.00000107    0.00000046   -0.01368674
     atom    9 type  1   force =     0.00000466   -0.00017959   -0.00006239
     atom   10 type  1   force =    -0.00015520    0.00009510   -0.00006105
     atom   11 type  1   force =     0.00015409    0.00008669   -0.00006209
     atom   12 type  2   force =     0.00000093    0.00000127   -0.00051226

     Total force =     0.057769     Total SCF correction =     0.001291

     entering subroutine stress ...

     negative rho (up, down):  6.129E-01 6.061E-01
          total   stress  (Ry/bohr**3)                   (kbar)     P=  -28.06
  -0.00023575  -0.00000000   0.00000000        -34.68     -0.00      0.00
  -0.00000000  -0.00023576  -0.00000000         -0.00    -34.68     -0.00
   0.00000000  -0.00000000  -0.00010073          0.00     -0.00    -14.82

 !ASE

     Writing output data file calc.save

     General routines

     Parallel routines

   This run was terminated on:  22:20:34  31Dec2018

   JOB DONE.
Job  /afs/slac/g/suncat/bin/suncat-tsmpirun -x LD_LIBRARY_PATH -wdir /scratch/qe648835_WaMtK pw.x -in pw.inp

TID   HOST_NAME   COMMAND_LINE            STATUS            TERMINATION_TIME
00000 suncat0271 pw.x -in pw.inp   Done                     12/31/2018 22:20:34
00001 suncat0271 pw.x -in pw.inp   Done                     12/31/2018 22:20:34
00002 suncat0271 pw.x -in pw.inp   Done                     12/31/2018 22:20:34
00003 suncat0271 pw.x -in pw.inp   Done                     12/31/2018 22:20:34
00004 suncat0271 pw.x -in pw.inp   Done                     12/31/2018 22:20:34
00005 suncat0271 pw.x -in pw.inp   Done                     12/31/2018 22:20:34
00006 suncat0271 pw.x -in pw.inp   Done                     12/31/2018 22:20:34
00007 suncat0271 pw.x -in pw.inp   Done                     12/31/2018 22:20:34
00008 suncat0266 pw.x -in pw.inp   Done                     12/31/2018 22:20:34
00009 suncat0266 pw.x -in pw.inp   Done                     12/31/2018 22:20:34
00010 suncat0266 pw.x -in pw.inp   Done                     12/31/2018 22:20:34
00011 suncat0266 pw.x -in pw.inp   Done                     12/31/2018 22:20:34
00012 suncat0266 pw.x -in pw.inp   Done                     12/31/2018 22:20:34
00013 suncat0266 pw.x -in pw.inp   Done                     12/31/2018 22:20:34
00014 suncat0266 pw.x -in pw.inp   Done                     12/31/2018 22:20:34
00015 suncat0266 pw.x -in pw.inp   Done                     12/31/2018 22:20:34
00016 suncat0264 pw.x -in pw.inp   Done                     12/31/2018 22:20:34
00017 suncat0264 pw.x -in pw.inp   Done                     12/31/2018 22:20:34
00018 suncat0264 pw.x -in pw.inp   Done                     12/31/2018 22:20:34
00019 suncat0264 pw.x -in pw.inp   Done                     12/31/2018 22:20:34
00020 suncat0264 pw.x -in pw.inp   Done                     12/31/2018 22:20:34
00021 suncat0264 pw.x -in pw.inp   Done                     12/31/2018 22:20:34
00022 suncat0264 pw.x -in pw.inp   Done                     12/31/2018 22:20:34
00023 suncat0264 pw.x -in pw.inp   Done                     12/31/2018 22:20:34
00024 suncat0260 pw.x -in pw.inp   Done                     12/31/2018 22:20:34
00025 suncat0260 pw.x -in pw.inp   Done                     12/31/2018 22:20:34
00026 suncat0260 pw.x -in pw.inp   Done                     12/31/2018 22:20:34
00027 suncat0260 pw.x -in pw.inp   Done                     12/31/2018 22:20:34
00028 suncat0260 pw.x -in pw.inp   Done                     12/31/2018 22:20:34
00029 suncat0260 pw.x -in pw.inp   Done                     12/31/2018 22:20:34
00030 suncat0260 pw.x -in pw.inp   Done                     12/31/2018 22:20:34
00031 suncat0260 pw.x -in pw.inp   Done                     12/31/2018 22:20:34
00032 suncat0241 pw.x -in pw.inp   Done                     12/31/2018 22:20:34
00033 suncat0241 pw.x -in pw.inp   Done                     12/31/2018 22:20:34
00034 suncat0241 pw.x -in pw.inp   Done                     12/31/2018 22:20:34
00035 suncat0241 pw.x -in pw.inp   Done                     12/31/2018 22:20:34
00036 suncat0241 pw.x -in pw.inp   Done                     12/31/2018 22:20:34
00037 suncat0241 pw.x -in pw.inp   Done                     12/31/2018 22:20:34
00038 suncat0241 pw.x -in pw.inp   Done                     12/31/2018 22:20:34
00039 suncat0241 pw.x -in pw.inp   Done                     12/31/2018 22:20:34
00040 suncat0240 pw.x -in pw.inp   Done                     12/31/2018 22:20:34
00041 suncat0240 pw.x -in pw.inp   Done                     12/31/2018 22:20:34
00042 suncat0240 pw.x -in pw.inp   Done                     12/31/2018 22:20:34
00043 suncat0240 pw.x -in pw.inp   Done                     12/31/2018 22:20:34
00044 suncat0240 pw.x -in pw.inp   Done                     12/31/2018 22:20:34
00045 suncat0240 pw.x -in pw.inp   Done                     12/31/2018 22:20:34
00046 suncat0240 pw.x -in pw.inp   Done                     12/31/2018 22:20:34
00047 suncat0240 pw.x -in pw.inp   Done                     12/31/2018 22:20:34
00048 suncat0239 pw.x -in pw.inp   Done                     12/31/2018 22:20:34
00049 suncat0239 pw.x -in pw.inp   Done                     12/31/2018 22:20:34
00050 suncat0239 pw.x -in pw.inp   Done                     12/31/2018 22:20:34
00051 suncat0239 pw.x -in pw.inp   Done                     12/31/2018 22:20:34
00052 suncat0239 pw.x -in pw.inp   Done                     12/31/2018 22:20:34
00053 suncat0239 pw.x -in pw.inp   Done                     12/31/2018 22:20:34
00054 suncat0239 pw.x -in pw.inp   Done                     12/31/2018 22:20:34
00055 suncat0239 pw.x -in pw.inp   Done                     12/31/2018 22:20:34
00056 suncat0098 pw.x -in pw.inp   Done                     12/31/2018 22:20:34
00057 suncat0098 pw.x -in pw.inp   Done                     12/31/2018 22:20:34
00058 suncat0098 pw.x -in pw.inp   Done                     12/31/2018 22:20:34
00059 suncat0098 pw.x -in pw.inp   Done                     12/31/2018 22:20:34
00060 suncat0098 pw.x -in pw.inp   Done                     12/31/2018 22:20:34
00061 suncat0098 pw.x -in pw.inp   Done                     12/31/2018 22:20:34
00062 suncat0098 pw.x -in pw.inp   Done                     12/31/2018 22:20:34
00063 suncat0098 pw.x -in pw.inp   Done                     12/31/2018 22:20:34