     Program PWSCF v.5.1rc2 (svn rev. 11289) starts on  1Jan2019 at 10:10:51

     Current dimensions of program PWSCF are:
     Max number of different atomic species (ntypx) = 10
     Max number of k-points (npk) =  40000
     Max angular momentum in pseudopotentials (lmaxx) =  3
     Presently stress not available with electric field

     IMPORTANT: XC functional enforced from input :
     Exchange-correlation      = BEEF-VDW ( 1  4 27 13 2)
     Any further DFT definition will be discarded
     Please, verify this is what you really want

     Subspace diagonalization in iterative solution of the eigenvalue problem:
     a serial algorithm will be used

     bravais-lattice index     =            0
     lattice parameter (alat)  =       1.8897  a.u.
     unit-cell volume          =    5375.6865 (a.u.)^3
     number of atoms/cell      =           12
     number of atomic types    =            2
     number of electrons       =       147.00
     number of Kohn-Sham states=          103
     kinetic-energy cutoff     =      36.7493  Ry
     charge density cutoff     =     367.4932  Ry
     convergence threshold     =      1.0E-06
     mixing beta               =       0.1000
     number of iterations used =           10  plain     mixing
     Exchange-correlation      = BEEF-VDW ( 1  4 27 13 2)
     nstep                     =           50

     celldm(1)=   1.889726  celldm(2)=   0.000000  celldm(3)=   0.000000
     celldm(4)=   0.000000  celldm(5)=   0.000000  celldm(6)=   0.000000

     crystal axes: (cart. coord. in units of alat)
               a(1) = (   6.070966   0.000000   0.000000 )
               a(2) = (  -3.035483   5.257611   0.000000 )
               a(3) = (   0.000000   0.000000  24.956923 )

     reciprocal axes: (cart. coord. in units 2 pi/alat)
               b(1) = (  0.164718  0.095100  0.000000 )
               b(2) = (  0.000000  0.190200  0.000000 )
               b(3) = (  0.000000  0.000000  0.040069 )

     PseudoPot. # 1 for Sc read from file:
     /afs/slac.stanford.edu/u/if/mamunm/psp/gbrv1.5pbe/Sc.UPF
     MD5 check sum: db30a2753ba66ef00f23801d899b7e7f
     Pseudo is Ultrasoft + core correction, Zval = 11.0
     Generated by new atomic code, or converted to UPF format
     Using radial grid of  849 points,  6 beta functions with:
                l(1) =   0
                l(2) =   0
                l(3) =   1
                l(4) =   1
                l(5) =   2
                l(6) =   2
     Q(r) pseudized with  6 coefficients,  rinner =    1.200   1.200   1.200
                                                       1.200   1.200

     PseudoPot. # 2 for Ru read from file:
     /afs/slac.stanford.edu/u/if/mamunm/psp/gbrv1.5pbe/Ru.UPF
     MD5 check sum: 7158a806dd851261a58e6920c40ebe78
     Pseudo is Ultrasoft + core correction, Zval = 16.0
     Generated by new atomic code, or converted to UPF format
     Using radial grid of  967 points,  6 beta functions with:
                l(1) =   0
                l(2) =   0
                l(3) =   1
                l(4) =   1
                l(5) =   2
                l(6) =   2
     Q(r) pseudized with  8 coefficients,  rinner =    1.300   1.300   1.300
                                                       1.300   1.300

     vdW kernel table read from file vdW_kernel_table
     MD5 check sum: 095c7af220d748ca6e76c0b4c6cfb241

     atomic species   valence    mass     pseudopotential
        Sc1           11.00    44.95591     Sc( 1.00)
        Ru1           16.00   101.07000     Ru( 1.00)

     No symmetry found

   Cartesian axes

     site n.     atom                  positions (alat units)
         1           Sc1 tau(   1) = (   0.0000000   0.0000000  10.0000000  )
         2           Sc1 tau(   2) = (  -1.5177416   2.6288056  10.0000000  )
         3           Sc1 tau(   3) = (   1.5177416   2.6288056  10.0000000  )
         4           Ru1 tau(   4) = (   3.0354832   0.0000000  10.0000000  )
         5           Sc1 tau(   5) = (   3.0354832   1.7525370  12.4784616  )
         6           Sc1 tau(   6) = (   1.5177416   4.3813426  12.4784616  )
         7           Sc1 tau(   7) = (  -1.5177416   4.3813426  12.4784616  )
         8           Ru1 tau(   8) = (   0.0000000   1.7525370  12.4784616  )
         9           Sc1 tau(   9) = (  -0.0000000   3.5050741  14.9569233  )
        10           Sc1 tau(  10) = (   1.5177416   0.8762685  14.9569233  )
        11           Sc1 tau(  11) = (   4.5532248   0.8762685  14.9569233  )
        12           Ru1 tau(  12) = (   3.0354832   3.5050741  14.9569233  )

     number of k points=    20  Fermi-Dirac smearing, width (Ry)=  0.0110
                       cart. coord. in units 2pi/alat
        k(    1) = (   0.0000000   0.0000000   0.0000000), wk =   0.0555556
        k(    2) = (   0.0000000   0.0317001   0.0000000), wk =   0.1111111
        k(    3) = (   0.0000000   0.0634001   0.0000000), wk =   0.1111111
        k(    4) = (   0.0000000  -0.0951002   0.0000000), wk =   0.0555556
        k(    5) = (   0.0274531   0.0158500   0.0000000), wk =   0.1111111
        k(    6) = (   0.0274531   0.0475501   0.0000000), wk =   0.1111111
        k(    7) = (   0.0274531   0.0792502   0.0000000), wk =   0.1111111
        k(    8) = (   0.0274531  -0.0792502   0.0000000), wk =   0.1111111
        k(    9) = (   0.0274531  -0.0475501   0.0000000), wk =   0.1111111
        k(   10) = (   0.0274531  -0.0158500   0.0000000), wk =   0.1111111
        k(   11) = (   0.0549061   0.0317001   0.0000000), wk =   0.1111111
        k(   12) = (   0.0549061   0.0634001   0.0000000), wk =   0.1111111
        k(   13) = (   0.0549061   0.0951002   0.0000000), wk =   0.1111111
        k(   14) = (   0.0549061  -0.0634001   0.0000000), wk =   0.1111111
        k(   15) = (   0.0549061  -0.0317001   0.0000000), wk =   0.1111111
        k(   16) = (   0.0549061   0.0000000   0.0000000), wk =   0.1111111
        k(   17) = (  -0.0823592  -0.0475501   0.0000000), wk =   0.0555556
        k(   18) = (  -0.0823592  -0.0158500   0.0000000), wk =   0.1111111
        k(   19) = (  -0.0823592   0.0158500   0.0000000), wk =   0.1111111
        k(   20) = (  -0.0823592  -0.1426503   0.0000000), wk =   0.0555556

     Largest allocated arrays     est. size (Mb)     dimensions
     Largest temporary arrays     est. size (Mb)     dimensions

     Initial potential from superposition of free atoms
     Check: negative starting charge=   -0.220499

     starting charge  143.97833, renormalised to  147.00000

     negative rho (up, down):  2.251E-01 0.000E+00

     *
     * You are using vdW-DF for exchange-correlation in this calculation.
     * Please cite the following three references that made this development
     * possible:
     *
     *   M. Dion, H. Rydberg, E. Schroder, D. C. Langreth, and
     *   B. I. Lundqvist, Phys. Rev. Lett. 92, 246401 (2004).
     *
     *   T. Thonhauser, V. R. Cooper, S. Li, A. Puzder, P. Hyldgaard, and
     *   D. C. Langreth, Phys. Rev. B 76, 125112 (2007).
     *
     *   G. Roman-Perez and J. M. Soler, Phys. Rev. Lett. 103, 096102 (2009).
     *
     *
     * If you are using vdW-DF2, please also cite:
     *
     *   K. Lee, E. D. Murray, L. Kong, B. I. Lundqvist, and
     *   D. C. Langreth, Phys. Rev. B 82, 081101(R) (2010).
     *
     *
     * If you are calculating the stress with vdW-DF, please also cite:
     *
     *   R. Sabatini, E. Kucukbenli, B. Kolb, T. Thonhauser, and
     *   S. de Gironcoli, J. Phys.: Condens. Matter 24, 424209 (2012).
     *

     Carrying out vdW-DF run using the following parameters:

     Nqs =      20    Nr_points =    1024   r_max =   100.000
     q_mesh =
               0.00001000     0.04494208     0.09755937     0.15916263
               0.23128650     0.31572767     0.41458969     0.53033537
               0.66584808     0.82450364     1.01025438     1.22772762
               1.48234092     1.78043706     2.12944203     2.53805004
               3.01644009     3.57652955     4.23227104     5.00000000

     Gradients computed in reciprocal space

     Adding external electric field

     Computed dipole along edir(3) :
        Dipole                0.0000 Ry au,          0.0000 Debye
        Dipole field          0.0000 Ry au

        Potential amp.       -0.0000 Ry
        Total length         45.9827 bohr

     Starting wfc are  156 randomized atomic wfcs

     Self-consistent Calculation

     iteration #  1     ecut=    36.75 Ry     beta=0.10
     Davidson diagonalization with overlap
     ethr =  1.00E-02,  avg # of iterations =  2.0

[...]

     total energy              =   -1438.50472424 Ry
     Harris-Foulkes estimate   =   -1439.71429757 Ry
     estimated scf accuracy    <       6.98027128 Ry

[...]

     End of self-consistent calculation

          k = 0.0000 0.0000 0.0000 ( 20191 PWs)   bands (ev):

   -71.1356 -70.8710 -70.8710 -48.9242 -48.9217 -48.8537 -48.8536 -48.8531
   -48.8531 -48.5319 -48.4649 -48.4648 -41.0995 -41.0893 -41.0893 -40.8731
   -40.8731 -40.8729 -40.8729 -40.7887 -40.7880 -27.7993 -27.7746 -27.6411
   -27.6083 -27.6083 -27.5754 -27.5754 -27.5686 -27.5460 -27.5460 -27.5021
   -27.5021 -27.3948 -27.3246 -27.3164 -27.2539 -27.2539 -27.2461 -27.2461
   -27.1573 -27.1573 -27.0849 -27.0513 -27.0512 -26.9239 -26.8836 -26.8836
    -4.0879  -2.8984  -1.9108  -1.5737  -1.5737  -1.4699  -1.4699  -1.1770
    -1.1094  -1.1094  -1.0716  -0.9393  -0.9393  -0.7132  -0.5949  -0.3731
    -0.3731   0.0425   0.1163   0.1163   0.4895   0.5432   1.2443   1.3893
     1.4445   1.5489   1.5489   1.5787   1.5787   1.6439   1.8119   1.8119
     1.9261   1.9402   1.9402   2.1815   2.1815   2.3435   2.3435   2.4743
     2.5386   2.5386   2.7331   2.8594   2.8594   2.9427   2.9427   3.2940
     3.5568   3.8819   3.8820   3.9022   3.9022   4.2870   4.2871

[...]

          k =-0.0824-0.0476 0.0000 ( 20276 PWs)   bands (ev):

[...]

     the Fermi energy is     1.0318 ev

!    total energy              =   -1438.68615482 Ry
     Harris-Foulkes estimate   =   -1438.68615661 Ry
     estimated scf accuracy    <       0.00000020 Ry

     The total energy is the sum of the following terms:

     one-electron contribution =  -10044.19862698 Ry
     hartree contribution      =    5009.60888375 Ry
     xc contribution           =    -205.53017271 Ry
     ewald contribution        =    3801.53526514 Ry
     electric field correction =       0.00000000 Ry
     smearing contrib. (-TS)   =      -0.10150401 Ry

     convergence has been achieved in  20 iterations

 BEEF-vdW xc energy contributions
           1 :   -175.797137548362
           2 :    157.285151459191
           3 :   -127.303202520380
           4 :    95.9568099897402
           5 :   -71.3181502924901
           6 :    56.3692539540309
           7 :   -49.2936964085747
           8 :    46.1000669502679
           9 :   -43.4334297058330
          10 :    39.9422425652284
          11 :   -35.9456079549540
          12 :    32.2529655316918
          13 :   -29.2340385385906
          14 :    26.6977728583721
          15 :   -24.3646089532868
          16 :    22.2910089844944
          17 :   -20.8041375836643
          18 :    20.0641835045132
[...]
     Pseudo is Ultrasoft + core correction, Zval = 11.0
     Generated by new atomic code, or converted to UPF format
     Using radial grid of  849 points,  6 beta functions with:
                l(1) =   0
                l(2) =   0
                l(3) =   1
                l(4) =   1
                l(5) =   2
                l(6) =   2
     Q(r) pseudized with  6 coefficients,  rinner =    1.200   1.200   1.200
                                                       1.200   1.200

     PseudoPot. # 2 for Ru read from file:
     /afs/slac.stanford.edu/u/if/mamunm/psp/gbrv1.5pbe/Ru.UPF
     MD5 check sum: 7158a806dd851261a58e6920c40ebe78
     Pseudo is Ultrasoft + core correction, Zval = 16.0
     Generated by new atomic code, or converted to UPF format
     Using radial grid of  967 points,  6 beta functions with:
                l(1) =   0
                l(2) =   0
                l(3) =   1
                l(4) =   1
                l(5) =   2
                l(6) =   2
     Q(r) pseudized with  8 coefficients,  rinner =    1.300   1.300   1.300
                                                       1.300   1.300

     vdW kernel table read from file vdW_kernel_table
     MD5 check sum: 095c7af220d748ca6e76c0b4c6cfb241

     atomic species   valence    mass     pseudopotential
        Sc1           11.00    44.95591     Sc( 1.00)
        Ru1           16.00   101.07000     Ru( 1.00)

     No symmetry found

   Cartesian axes

     site n.     atom                  positions (alat units)
         1           Sc1 tau(   1) = (   0.0000000   0.0000000  10.0000000  )
         2           Sc1 tau(   2) = (  -1.5177416   2.6288056  10.0000000  )
         3           Sc1 tau(   3) = (   1.5177416   2.6288056  10.0000000  )
         4           Ru1 tau(   4) = (   3.0354832   0.0000000  10.0000000  )
         5           Sc1 tau(   5) = (   3.0354832   1.7525370  12.4784616  )
         6           Sc1 tau(   6) = (   1.5177416   4.3813426  12.4784616  )
         7           Sc1 tau(   7) = (  -1.5177416   4.3813426  12.4784616  )
         8           Ru1 tau(   8) = (   0.0000000   1.7525370  12.4784616  )
         9           Sc1 tau(   9) = (  -0.0000335   3.4761080  14.9806239  )
        10           Sc1 tau(  10) = (   1.4926068   0.8907738  14.9805623  )
        11           Sc1 tau(  11) = (   4.5783160   0.8907837  14.9806087  )
        12           Ru1 tau(  12) = (   3.0354454   3.5051014  14.5104244  )

     number of k points=    20  Fermi-Dirac smearing, width (Ry)=  0.0110
                       cart. coord. in units 2pi/alat
        k(    1) = (   0.0000000   0.0000000   0.0000000), wk =   0.0555556
        k(    2) = (   0.0000000   0.0317001   0.0000000), wk =   0.1111111
        k(    3) = (   0.0000000   0.0634001   0.0000000), wk =   0.1111111
        k(    4) = (   0.0000000  -0.0951002   0.0000000), wk =   0.0555556
        k(    5) = (   0.0274531   0.0158500   0.0000000), wk =   0.1111111
        k(    6) = (   0.0274531   0.0475501   0.0000000), wk =   0.1111111
        k(    7) = (   0.0274531   0.0792502   0.0000000), wk =   0.1111111
        k(    8) = (   0.0274531  -0.0792502   0.0000000), wk =   0.1111111
        k(    9) = (   0.0274531  -0.0475501   0.0000000), wk =   0.1111111
        k(   10) = (   0.0274531  -0.0158500   0.0000000), wk =   0.1111111
        k(   11) = (   0.0549061   0.0317001   0.0000000), wk =   0.1111111
        k(   12) = (   0.0549061   0.0634001   0.0000000), wk =   0.1111111
        k(   13) = (   0.0549061   0.0951002   0.0000000), wk =   0.1111111
        k(   14) = (   0.0549061  -0.0634001   0.0000000), wk =   0.1111111
        k(   15) = (   0.0549061  -0.0317001   0.0000000), wk =   0.1111111
        k(   16) = (   0.0549061   0.0000000   0.0000000), wk =   0.1111111
        k(   17) = (  -0.0823592  -0.0475501   0.0000000), wk =   0.0555556
        k(   18) = (  -0.0823592  -0.0158500   0.0000000), wk =   0.1111111
        k(   19) = (  -0.0823592   0.0158500   0.0000000), wk =   0.1111111
        k(   20) = (  -0.0823592  -0.1426503   0.0000000), wk =   0.0555556

     Largest allocated arrays     est. size (Mb)     dimensions
     Largest temporary arrays     est. size (Mb)     dimensions

     Initial potential from superposition of free atoms
     Check: negative starting charge=   -0.220570

     starting charge  143.97833, renormalised to  147.00000

[...]

     *
     * You are using vdW-DF for exchange-correlation in this calculation.
     * Please cite the following three references that made this development
     * possible:
     *
     *   M. Dion, H. Rydberg, E. Schroder, D. C. Langreth, and
     *   B. I. Lundqvist, Phys. Rev. Lett. 92, 246401 (2004).
     *
     *   T. Thonhauser, V. R. Cooper, S. Li, A. Puzder, P. Hyldgaard, and
     *   D. C. Langreth, Phys. Rev. B 76, 125112 (2007).
     *
     *   G. Roman-Perez and J. M. Soler, Phys. Rev. Lett. 103, 096102 (2009).
     *
     *
     * If you are using vdW-DF2, please also cite:
     *
     *   K. Lee, E. D. Murray, L. Kong, B. I. Lundqvist, and
     *   D. C. Langreth, Phys. Rev. B 82, 081101(R) (2010).
     *
     *
     * If you are calculating the stress with vdW-DF, please also cite:
     *
     *   R. Sabatini, E. Kucukbenli, B. Kolb, T. Thonhauser, and
     *   S. de Gironcoli, J. Phys.: Condens. Matter 24, 424209 (2012).
     *

     Carrying out vdW-DF run using the following parameters:

     Nqs =      20    Nr_points =    1024   r_max =   100.000
     q_mesh =
               0.00001000     0.04494208     0.09755937     0.15916263
               0.23128650     0.31572767     0.41458969     0.53033537
               0.66584808     0.82450364     1.01025438     1.22772762
               1.48234092     1.78043706     2.12944203     2.53805004
               3.01644009     3.57652955     4.23227104     5.00000000

     Gradients computed in reciprocal space

[...]

     Starting wfc are  156 randomized atomic wfcs

     Self-consistent Calculation

[...]

     iteration # 10     ecut=    36.75 Ry     beta=0.10
     Davidson diagonalization with overlap
     c_bands:  2 eigenvalues not converged
     c_bands:  2 eigenvalues not converged
     ethr =  3.22E-05,  avg # of iterations =  9.8

[...]

     total energy              =   -1438.71547581 Ry
     Harris-Foulkes estimate   =   -1438.71547626 Ry
     estimated scf accuracy    <       0.00000157 Ry

     iteration # 21     ecut=    36.75 Ry     beta=0.10
     Davidson diagonalization with overlap
     ethr =  1.07E-09,  avg # of iterations =  2.2

[...]

     negative rho (up, down):  2.255E-01 0.000E+00

     Adding external electric field

     Computed dipole along edir(3) :
        Dipole                0.0814 Ry au,          0.2070 Debye
        Dipole field          0.0002 Ry au

        Potential amp.       -0.0175 Ry
        Total length         45.9827 bohr

     End of self-consistent calculation

[...]

          k = 0.0549 0.0000 0.0000 ( 20233 PWs)   bands (ev):

[...]

          k =-0.0824-0.1427 0.0000 ( 20276 PWs)   bands (ev):

   -71.0737 -70.8759 -70.7368 -48.8677 -48.8415 -48.8195 -48.8126 -48.7893
   -48.7662 -48.2847 -48.2615 -48.2384 -41.0412 -41.0268 -41.0261 -40.8764
   -40.8759 -40.8463 -40.7477 -40.7470 -40.6432 -27.6112 -27.5851 -27.5533
   -27.5387 -27.5020 -27.4870 -27.4629 -27.4583 -27.4414 -27.4391 -27.3969
   -27.3958 -27.3821 -27.3790 -27.3651 -27.3467 -27.2006 -27.1772 -27.0699
   -26.9057 -26.8887 -26.8528 -26.8517 -26.8490 -26.8353 -26.8257 -26.6780
    -2.6533  -2.5102  -1.6861  -1.4749  -1.2132  -1.1590  -0.9700  -0.8804
    -0.8189  -0.6892  -0.5897  -0.4962  -0.4819  -0.3483  -0.2501  -0.2212
    -0.1355  -0.0589   0.0456   0.1229   0.3552   0.4190   0.6020   0.8478
     0.8988   1.0002   1.1020   1.2211   1.2878   1.4191   1.5398   1.5517
     1.5590   1.6065   1.7485   1.8262   2.1858   2.2219   2.2655   2.3551
     2.3911   2.6404   2.7318   2.8579   2.8845   2.9103   3.0292   3.1544
     3.1833   3.5341   3.5875   3.6282   3.6646   3.7355   3.8026

     the Fermi energy is     1.1177 ev

!    total energy              =   -1438.71547337 Ry
     Harris-Foulkes estimate   =   -1438.71547541 Ry
     estimated scf accuracy    <       0.00000063 Ry

     The total energy is the sum of the following terms:

     one-electron contribution =  -10216.69799271 Ry
     hartree contribution      =    5096.37523225 Ry
     xc contribution           =    -205.66125829 Ry
     ewald contribution        =    3887.36734619 Ry
     electric field correction =       0.00001550 Ry
     smearing contrib. (-TS)   =      -0.09881632 Ry

     convergence has been achieved in  21 iterations

 BEEF-vdW xc energy contributions
           1 :   -175.969874242529
           2 :    157.506926114424
           3 :   -127.576197710992
           4 :    96.2186731725807
           5 :   -71.4709928401156
           6 :    56.3461893130368
           7 :   -49.1156838651380
           8 :    45.8692269415587
           9 :   -43.2621541851771
          10 :    39.8798227184776
          11 :   -35.9642361699223
          12 :    32.2936001125263
          13 :   -29.2596206203929
          14 :    26.7082512894250
          15 :   -24.3745515752305
          16 :    22.3031053003259
          17 :   -20.8063125266179
          18 :    20.0500790946226
          19 :   -19.7393081063130
          20 :    19.2529069309700
          21 :   -18.1226361155637
          22 :    16.4214037324143
          23 :   -14.7172134856444
          24 :    13.6312465599463
          25 :   -13.3646773027498
          26 :    13.5665351395972
          27 :   -13.6271262153707
          28 :    13.1410562202947
          29 :   -12.1706739035058
          30 :    11.1304137211748
          31 :   -19.7128148893857
          32 :   -14.3846710692821

     Forces acting on atoms (Ry/au):

     negative rho (up, down):  2.255E-01 0.000E+00
     atom    1 type  1   force =     0.00000009    0.01617506   -0.00710486
     atom    2 type  1   force =     0.01400875   -0.00808832   -0.00710476
     atom    3 type  1   force =    -0.01400739   -0.00808849   -0.00710267
     atom    4 type  2   force =    -0.00000178   -0.00000067    0.04389961
     atom    5 type  1   force =     0.00000145   -0.00744498   -0.00882767
     atom    6 type  1   force =    -0.00644842    0.00372406   -0.00882415
     atom    7 type  1   force =     0.00644577    0.00372117   -0.00882783
     atom    8 type  2   force =     0.00000086    0.00000153    0.00615303
     atom    9 type  1   force =     0.00000255   -0.00059213   -0.00045003
     atom   10 type  1   force =    -0.00051373    0.00029919   -0.00045262
     atom   11 type  1   force =     0.00050936    0.00029500   -0.00045216
     atom   12 type  2   force =     0.00000249   -0.00000144   -0.00090590

     Total force =     0.057479     Total SCF correction =     0.001197

     entering subroutine stress ...

     negative rho (up, down):  2.255E-01 0.000E+00
          total   stress  (Ry/bohr**3)                   (kbar)     P=   -5.71
  -0.00004656  -0.00000000   0.00000000         -6.85     -0.00      0.00
  -0.00000000  -0.00004657   0.00000000         -0.00     -6.85      0.00
   0.00000000   0.00000000  -0.00002332          0.00      0.00     -3.43

 !ASE

     Writing output data file calc.save

     General routines

     Parallel routines

   This run was terminated on:  11:31: 7   1Jan2019

   JOB DONE.
Job  /afs/slac/g/suncat/bin/suncat-tsmpirun -x LD_LIBRARY_PATH -wdir /scratch/qe648989_Pyv3P pw.x -in pw.inp

TID   HOST_NAME   COMMAND_LINE            STATUS            TERMINATION_TIME
00000 suncat0154 pw.x -in pw.inp   Done                     01/01/2019 11:31:07
00001 suncat0154 pw.x -in pw.inp   Done                     01/01/2019 11:31:07
00002 suncat0154 pw.x -in pw.inp   Done                     01/01/2019 11:31:07
00003 suncat0154 pw.x -in pw.inp   Done                     01/01/2019 11:31:07
00004 suncat0154 pw.x -in pw.inp   Done                     01/01/2019 11:31:07
00005 suncat0154 pw.x -in pw.inp   Done                     01/01/2019 11:31:07
00006 suncat0154 pw.x -in pw.inp   Done                     01/01/2019 11:31:07
00007 suncat0154 pw.x -in pw.inp   Done                     01/01/2019 11:31:07
00008 suncat0143 pw.x -in pw.inp   Done                     01/01/2019 11:31:07
00009 suncat0143 pw.x -in pw.inp   Done                     01/01/2019 11:31:07
00010 suncat0143 pw.x -in pw.inp   Done                     01/01/2019 11:31:07
00011 suncat0143 pw.x -in pw.inp   Done                     01/01/2019 11:31:07
00012 suncat0143 pw.x -in pw.inp   Done                     01/01/2019 11:31:07
00013 suncat0143 pw.x -in pw.inp   Done                     01/01/2019 11:31:07
00014 suncat0143 pw.x -in pw.inp   Done                     01/01/2019 11:31:07
00015 suncat0143 pw.x -in pw.inp   Done                     01/01/2019 11:31:07
00016 suncat0108 pw.x -in pw.inp   Done                     01/01/2019 11:31:07
00017 suncat0108 pw.x -in pw.inp   Done                     01/01/2019 11:31:07
00018 suncat0108 pw.x -in pw.inp   Done                     01/01/2019 11:31:07
00019 suncat0108 pw.x -in pw.inp   Done                     01/01/2019 11:31:07
00020 suncat0108 pw.x -in pw.inp   Done                     01/01/2019 11:31:07
00021 suncat0108 pw.x -in pw.inp   Done                     01/01/2019 11:31:07
00022 suncat0108 pw.x -in pw.inp   Done                     01/01/2019 11:31:07
00023 suncat0108 pw.x -in pw.inp   Done                     01/01/2019 11:31:07
00024 suncat0252 pw.x -in pw.inp   Done                     01/01/2019 11:31:07
00025 suncat0252 pw.x -in pw.inp   Done                     01/01/2019 11:31:07
00026 suncat0252 pw.x -in pw.inp   Done                     01/01/2019 11:31:07
00027 suncat0252 pw.x -in pw.inp   Done                     01/01/2019 11:31:07
00028 suncat0252 pw.x -in pw.inp   Done                     01/01/2019 11:31:07
00029 suncat0252 pw.x -in pw.inp   Done                     01/01/2019 11:31:07
00030 suncat0252 pw.x -in pw.inp   Done                     01/01/2019 11:31:07
00031 suncat0252 pw.x -in pw.inp   Done                     01/01/2019 11:31:07
00032 suncat0226 pw.x -in pw.inp   Done                     01/01/2019 11:31:07
00033 suncat0226 pw.x -in pw.inp   Done                     01/01/2019 11:31:07
00034 suncat0226 pw.x -in pw.inp   Done                     01/01/2019 11:31:07
00035 suncat0226 pw.x -in pw.inp   Done                     01/01/2019 11:31:07
00036 suncat0226 pw.x -in pw.inp   Done                     01/01/2019 11:31:07
00037 suncat0226 pw.x -in pw.inp   Done                     01/01/2019 11:31:07
00038 suncat0226 pw.x -in pw.inp   Done                     01/01/2019 11:31:07
00039 suncat0226 pw.x -in pw.inp   Done                     01/01/2019 11:31:07
00040 suncat0225 pw.x -in pw.inp   Done                     01/01/2019 11:31:07
00041 suncat0225 pw.x -in pw.inp   Done                     01/01/2019 11:31:07
00042 suncat0225 pw.x -in pw.inp   Done                     01/01/2019 11:31:07
00043 suncat0225 pw.x -in pw.inp   Done                     01/01/2019 11:31:07
00044 suncat0225 pw.x -in pw.inp   Done                     01/01/2019 11:31:07
00045 suncat0225 pw.x -in pw.inp   Done                     01/01/2019 11:31:07
00046 suncat0225 pw.x -in pw.inp   Done                     01/01/2019 11:31:07
00047 suncat0225 pw.x -in pw.inp   Done                     01/01/2019 11:31:07
00048 suncat0224 pw.x -in pw.inp   Done                     01/01/2019 11:31:07
00049 suncat0224 pw.x -in pw.inp   Done                     01/01/2019 11:31:07
00050 suncat0224 pw.x -in pw.inp   Done                     01/01/2019 11:31:07
00051 suncat0224 pw.x -in pw.inp   Done                     01/01/2019 11:31:07
00052 suncat0224 pw.x -in pw.inp   Done                     01/01/2019 11:31:07
00053 suncat0224 pw.x -in pw.inp   Done                     01/01/2019 11:31:07
00054 suncat0224 pw.x -in pw.inp   Done                     01/01/2019 11:31:07
00055 suncat0224 pw.x -in pw.inp   Done                     01/01/2019 11:31:07
00056 suncat0223 pw.x -in pw.inp   Done                     01/01/2019 11:31:07
00057 suncat0223 pw.x -in pw.inp   Done                     01/01/2019 11:31:07
00058 suncat0223 pw.x -in pw.inp   Done                     01/01/2019 11:31:07
00059 suncat0223 pw.x -in pw.inp   Done                     01/01/2019 11:31:07
00060 suncat0223 pw.x -in pw.inp   Done                     01/01/2019 11:31:07
00061 suncat0223 pw.x -in pw.inp   Done                     01/01/2019 11:31:07
00062 suncat0223 pw.x -in pw.inp   Done                     01/01/2019 11:31:07
00063 suncat0223 pw.x -in pw.inp   Done                     01/01/2019 11:31:07