     Program PWSCF v.5.1rc2 (svn rev. 11289) starts on 31Dec2018 at 22:26:50

     Current dimensions of program PWSCF are:
     Max number of different atomic species (ntypx) = 10
     Max number of k-points (npk) =  40000
     Max angular momentum in pseudopotentials (lmaxx) =  3
     Presently stress not available with electric field

     IMPORTANT: XC functional enforced from input :
     Exchange-correlation      = BEEF-VDW ( 1  4 27 13 2)
     Any further DFT definition will be discarded
     Please, verify this is what you really want

     Subspace diagonalization in iterative solution of the eigenvalue problem:
     a serial algorithm will be used

     bravais-lattice index     =            0
     lattice parameter (alat)  =       1.8897  a.u.
     unit-cell volume          =    4552.4688 (a.u.)^3
     number of atoms/cell      =           12
     number of atomic types    =            2
     number of electrons       =       174.00
     number of Kohn-Sham states=          117
     kinetic-energy cutoff     =      36.7493  Ry
     charge density cutoff     =     367.4932  Ry
     convergence threshold     =      1.0E-06
     mixing beta               =       0.1000
     number of iterations used =           10  plain     mixing
     Exchange-correlation      = BEEF-VDW ( 1  4 27 13 2)
     nstep                     =           50

     celldm(1)=   1.889726  celldm(2)=   0.000000  celldm(3)=   0.000000
     celldm(4)=   0.000000  celldm(5)=   0.000000  celldm(6)=   0.000000

     crystal axes: (cart. coord. in units of alat)
               a(1) = (   5.627766   0.000000   0.000000 )
               a(2) = (  -2.813883   4.873788   0.000000 )
               a(3) = (   0.000000   0.000000  24.595051 )

     reciprocal axes: (cart. coord. in units 2 pi/alat)
               b(1) = (  0.177690  0.102590  0.000000 )
               b(2) = (  0.000000  0.205179  0.000000 )
               b(3) = (  0.000000  0.000000  0.040659 )

     PseudoPot. # 1 for Rh read from file:
     /afs/slac.stanford.edu/u/if/mamunm/psp/gbrv1.5pbe/Rh.UPF
     MD5 check sum: 761627e959a2e3a1f56b0b5fe687810e
     Pseudo is Ultrasoft + core correction, Zval = 15.0
     Generated by new atomic code, or converted to UPF format
     Using radial grid of  969 points,  7 beta functions with:
                l(1) =   0
                l(2) =   0
                l(3) =   1
                l(4) =   1
                l(5) =   2
                l(6) =   2
                l(7) =   2
     Q(r) pseudized with  8 coefficients,  rinner =    1.200   1.200   1.200
                                                       1.200   1.200

     PseudoPot. # 2 for In read from file:
     /afs/slac.stanford.edu/u/if/mamunm/psp/gbrv1.5pbe/In.UPF
     MD5 check sum: 90777abd96fbb83f2e67db2a40c566b9
     Pseudo is Ultrasoft + core correction, Zval = 13.0
     Generated by new atomic code, or converted to UPF format
     Using radial grid of  889 points,  6 beta functions with:
                l(1) =   0
                l(2) =   0
                l(3) =   1
                l(4) =   1
                l(5) =   2
                l(6) =   2
     Q(r) pseudized with  6 coefficients,  rinner =    1.400   1.400   1.400
                                                       1.400   1.400

     vdW kernel table read from file vdW_kernel_table
     MD5 check sum: 095c7af220d748ca6e76c0b4c6cfb241

     atomic species   valence    mass     pseudopotential
        Rh1           15.00   102.90550     Rh( 1.00)
        In1           13.00   114.81800     In( 1.00)

     No symmetry found

   Cartesian axes

     site n.     atom                  positions (alat units)
         1           Rh1 tau(   1) = (   0.0000000   0.0000000  10.0000000  )
         2           Rh1 tau(   2) = (  -1.4069414   2.4368940  10.0000000  )
         3           Rh1 tau(   3) = (   1.4069414   2.4368940  10.0000000  )
         4           In1 tau(   4) = (   2.8138828   0.0000000  10.0000000  )
         5           Rh1 tau(   5) = (   2.8138828   1.6245960  12.2975257  )
         6           Rh1 tau(   6) = (   1.4069414   4.0614900  12.2975257  )
         7           Rh1 tau(   7) = (  -1.4069414   4.0614900  12.2975257  )
         8           In1 tau(   8) = (   0.0000000   1.6245960  12.2975257  )
         9           Rh1 tau(   9) = (  -0.0000000   3.2491920  14.5950514  )
        10           Rh1 tau(  10) = (   1.4069414   0.8122980  14.5950514  )
        11           Rh1 tau(  11) = (   4.2208242   0.8122980  14.5950514  )
        12           In1 tau(  12) = (   2.8138828   3.2491920  14.5950514  )

     number of k points=    20  Fermi-Dirac smearing, width (Ry)=  0.0110
                       cart. coord. in units 2pi/alat
        k(    1) = (   0.0000000   0.0000000   0.0000000), wk =   0.0555556
        k(    2) = (   0.0000000   0.0341965   0.0000000), wk =   0.1111111
        k(    3) = (   0.0000000   0.0683931   0.0000000), wk =   0.1111111
        k(    4) = (   0.0000000  -0.1025896   0.0000000), wk =   0.0555556
        k(    5) = (   0.0296151   0.0170983   0.0000000), wk =   0.1111111
        k(    6) = (   0.0296151   0.0512948   0.0000000), wk =   0.1111111
        k(    7) = (   0.0296151   0.0854913   0.0000000), wk =   0.1111111
        k(    8) = (   0.0296151  -0.0854913   0.0000000), wk =   0.1111111
        k(    9) = (   0.0296151  -0.0512948   0.0000000), wk =   0.1111111
        k(   10) = (   0.0296151  -0.0170983   0.0000000), wk =   0.1111111
        k(   11) = (   0.0592301   0.0341965   0.0000000), wk =   0.1111111
        k(   12) = (   0.0592301   0.0683931   0.0000000), wk =   0.1111111
        k(   13) = (   0.0592301   0.1025896   0.0000000), wk =   0.1111111
        k(   14) = (   0.0592301  -0.0683931   0.0000000), wk =   0.1111111
        k(   15) = (   0.0592301  -0.0341965   0.0000000), wk =   0.1111111
        k(   16) = (   0.0592301   0.0000000   0.0000000), wk =   0.1111111
        k(   17) = (  -0.0888452  -0.0512948   0.0000000), wk =   0.0555556
        k(   18) = (  -0.0888452  -0.0170983   0.0000000), wk =   0.1111111
        k(   19) = (  -0.0888452   0.0170983   0.0000000), wk =   0.1111111
        k(   20) = (  -0.0888452  -0.1538844   0.0000000), wk =   0.0555556

     Largest allocated arrays     est. size (Mb)     dimensions
     Largest temporary arrays     est. size (Mb)     dimensions

     Initial potential from superposition of free atoms
     Check: negative starting charge=   -0.491211

     starting charge  164.99911, renormalised to  174.00000

     negative rho (up, down):  5.180E-01 0.000E+00

     *
     * You are using vdW-DF for exchange-correlation in this calculation.
     * Please cite the following three references that made this development
     * possible:
     *
     *   M. Dion, H. Rydberg, E. Schroder, D. C. Langreth, and
     *   B. I. Lundqvist, Phys. Rev. Lett. 92, 246401 (2004).
     *
     *   T. Thonhauser, V. R. Cooper, S. Li, A. Puzder, P. Hyldgaard, and
     *   D. C. Langreth, Phys. Rev. B 76, 125112 (2007).
     *
     *   G. Roman-Perez and J. M. Soler, Phys. Rev. Lett. 103, 096102 (2009).
     *
     *
     * If you are using vdW-DF2, please also cite:
     *
     *   K. Lee, E. D. Murray, L. Kong, B. I. Lundqvist, and
     *   D. C. Langreth, Phys. Rev. B 82, 081101(R) (2010).
     *
     *
     * If you are calculating the stress with vdW-DF, please also cite:
     *
     *   R. Sabatini, E. Kucukbenli, B. Kolb, T. Thonhauser, and
     *   S. de Gironcoli, J. Phys.: Condens. Matter 24, 424209 (2012).
     *

     Carrying out vdW-DF run using the following parameters:

     Nqs =      20    Nr_points =    1024   r_max =   100.000
     q_mesh =
               0.00001000     0.04494208     0.09755937     0.15916263
               0.23128650     0.31572767     0.41458969     0.53033537
               0.66584808     0.82450364     1.01025438     1.22772762
               1.48234092     1.78043706     2.12944203     2.53805004
               3.01644009     3.57652955     4.23227104     5.00000000

     Gradients computed in reciprocal space

     Adding external electric field

     Computed dipole along edir(3) :
        Dipole                0.0000 Ry au,          0.0000 Debye
        Dipole field          0.0000 Ry au

        Potential amp.       -0.0000 Ry
        Total length         45.3160 bohr

     Starting wfc are  135 randomized atomic wfcs

     Self-consistent Calculation

     iteration #  1     ecut=    36.75 Ry     beta=0.10
     Davidson diagonalization with overlap
     ethr =  1.00E-02,  avg # of iterations =  7.3

[...]

     total energy              =   -1955.05959648 Ry
     Harris-Foulkes estimate   =   -1957.90660858 Ry
     estimated scf accuracy    <      17.40634553 Ry

[...]

     End of self-consistent calculation

          k = 0.0000 0.0000 0.0000 ( 17111 PWs)   bands (ev):

   -44.9773 -44.9353 -44.9353 -44.8814 -44.8498 -44.8498 -44.7834 -44.7290
   -44.7142 -44.6532 -44.6532 -44.6023 -44.6023 -44.5803 -44.5803 -44.4480
   -44.4406 -44.4363 -44.4268 -44.4267 -44.4188 -44.4177 -44.4177 -44.3957
   -44.3957 -44.3878 -44.3878 -13.0756 -13.0756 -13.0505 -13.0308 -13.0308
   -12.9641 -12.9464 -12.9332 -12.9332 -12.9235 -12.9235 -12.8906 -12.8906
   -12.8813 -12.8813  -6.7279  -5.2051  -5.0235  -3.2475  -2.8012  -2.7532
    -2.2495  -2.2495  -2.2040  -2.0788  -2.0788  -2.0022  -2.0022  -1.7362
    -1.7111  -1.7111  -1.1114  -1.1114  -0.9648  -0.9648  -0.7017  -0.6982
    -0.5635  -0.2301  -0.2301  -0.1552  -0.0315  -0.0315   0.3912   0.3912
     0.6601   0.6601   0.6783   0.7583   0.7637   0.7637   1.0210   1.0210
     1.1402   1.1402   1.2560   1.2560   1.3152   1.6417   1.6417   1.6627
     1.7786   1.7786   2.0445   2.3094   2.3520   2.8361   3.4526   3.4615
     3.4615   3.4880   3.5572   3.5572   5.1005   5.3582   5.7247   6.0645
     6.3215   6.8103   7.2683   7.7161   7.7161   7.8825   7.8825   8.1030
     8.5830   8.5830   9.3839   9.8135   9.8316

[...]

          k =-0.0888-0.0513 0.0000 ( 17160 PWs)   bands (ev):

[...]

     the Fermi energy is     1.3490 ev

!    total energy              =   -1954.23801318 Ry
     Harris-Foulkes estimate   =   -1954.23961541 Ry
     estimated scf accuracy    <       0.00000099 Ry

     The total energy is the sum of the following terms:

     one-electron contribution =  -16406.06494041 Ry
     hartree contribution      =    8256.36945619 Ry
     xc contribution           =    -397.04850080 Ry
     ewald contribution        =    6592.60175657 Ry
     electric field correction =       0.00000000 Ry
     smearing contrib. (-TS)   =      -0.09578473 Ry

     convergence has been achieved in  16 iterations

 BEEF-vdW xc energy contributions
           1 :   -346.371860711142
           2 :    317.723380188120
           3 :   -268.519583206479
           4 :    211.505419916245
           5 :   -159.164344936278
           6 :    119.588980920496
           7 :   -94.6797566058307
           8 :    81.0448545433736
           9 :   -72.7865851171209
          10 :    64.6513439881710
          11 :   -54.1076312631081
          12 :    41.6522740205743
          13 :   -29.6068969227900
[...]
     /afs/slac.stanford.edu/u/if/mamunm/psp/gbrv1.5pbe/Rh.UPF
     MD5 check sum: 761627e959a2e3a1f56b0b5fe687810e
     Pseudo is Ultrasoft + core correction, Zval = 15.0
     Generated by new atomic code, or converted to UPF format
     Using radial grid of  969 points,  7 beta functions with:
                l(1) =   0
                l(2) =   0
                l(3) =   1
                l(4) =   1
                l(5) =   2
                l(6) =   2
                l(7) =   2
     Q(r) pseudized with  8 coefficients,  rinner =    1.200   1.200   1.200
                                                       1.200   1.200

     PseudoPot. # 2 for In read from file:
     /afs/slac.stanford.edu/u/if/mamunm/psp/gbrv1.5pbe/In.UPF
     MD5 check sum: 90777abd96fbb83f2e67db2a40c566b9
     Pseudo is Ultrasoft + core correction, Zval = 13.0
     Generated by new atomic code, or converted to UPF format
     Using radial grid of  889 points,  6 beta functions with:
                l(1) =   0
                l(2) =   0
                l(3) =   1
                l(4) =   1
                l(5) =   2
                l(6) =   2
     Q(r) pseudized with  6 coefficients,  rinner =    1.400   1.400   1.400
                                                       1.400   1.400

     vdW kernel table read from file vdW_kernel_table
     MD5 check sum: 095c7af220d748ca6e76c0b4c6cfb241

     atomic species   valence    mass     pseudopotential
        Rh1           15.00   102.90550     Rh( 1.00)
        In1           13.00   114.81800     In( 1.00)

     No symmetry found

   Cartesian axes

     site n.     atom                  positions (alat units)
         1           Rh1 tau(   1) = (   0.0000000   0.0000000  10.0000000  )
         2           Rh1 tau(   2) = (  -1.4069414   2.4368940  10.0000000  )
         3           Rh1 tau(   3) = (   1.4069414   2.4368940  10.0000000  )
         4           In1 tau(   4) = (   2.8138828   0.0000000  10.0000000  )
         5           Rh1 tau(   5) = (   2.8138828   1.6245960  12.2975257  )
         6           Rh1 tau(   6) = (   1.4069414   4.0614900  12.2975257  )
         7           Rh1 tau(   7) = (  -1.4069414   4.0614900  12.2975257  )
         8           In1 tau(   8) = (   0.0000000   1.6245960  12.2975257  )
         9           Rh1 tau(   9) = (   0.0000093   3.2638280  14.4936197  )
        10           Rh1 tau(  10) = (   1.4196374   0.8049841  14.4936341  )
        11           Rh1 tau(  11) = (   4.2081564   0.8049903  14.4936248  )
        12           In1 tau(  12) = (   2.8138779   3.2492117  14.7852869  )

     number of k points=    20  Fermi-Dirac smearing, width (Ry)=  0.0110
                       cart. coord. in units 2pi/alat
        k(    1) = (   0.0000000   0.0000000   0.0000000), wk =   0.0555556
        k(    2) = (   0.0000000   0.0341965   0.0000000), wk =   0.1111111
        k(    3) = (   0.0000000   0.0683931   0.0000000), wk =   0.1111111
        k(    4) = (   0.0000000  -0.1025896   0.0000000), wk =   0.0555556
        k(    5) = (   0.0296151   0.0170983   0.0000000), wk =   0.1111111
        k(    6) = (   0.0296151   0.0512948   0.0000000), wk =   0.1111111
        k(    7) = (   0.0296151   0.0854913   0.0000000), wk =   0.1111111
        k(    8) = (   0.0296151  -0.0854913   0.0000000), wk =   0.1111111
        k(    9) = (   0.0296151  -0.0512948   0.0000000), wk =   0.1111111
        k(   10) = (   0.0296151  -0.0170983   0.0000000), wk =   0.1111111
        k(   11) = (   0.0592301   0.0341965   0.0000000), wk =   0.1111111
        k(   12) = (   0.0592301   0.0683931   0.0000000), wk =   0.1111111
        k(   13) = (   0.0592301   0.1025896   0.0000000), wk =   0.1111111
        k(   14) = (   0.0592301  -0.0683931   0.0000000), wk =   0.1111111
        k(   15) = (   0.0592301  -0.0341965   0.0000000), wk =   0.1111111
        k(   16) = (   0.0592301   0.0000000   0.0000000), wk =   0.1111111
        k(   17) = (  -0.0888452  -0.0512948   0.0000000), wk =   0.0555556
        k(   18) = (  -0.0888452  -0.0170983   0.0000000), wk =   0.1111111
        k(   19) = (  -0.0888452   0.0170983   0.0000000), wk =   0.1111111
        k(   20) = (  -0.0888452  -0.1538844   0.0000000), wk =   0.0555556

     Largest allocated arrays     est. size (Mb)     dimensions
     Largest temporary arrays     est. size (Mb)     dimensions

     Initial potential from superposition of free atoms
     Check: negative starting charge=   -0.493619

     starting charge  164.99911, renormalised to  174.00000

[...]

     *
     * You are using vdW-DF for exchange-correlation in this calculation.
     * Please cite the following three references that made this development
     * possible:
     *
     *   M. Dion, H. Rydberg, E. Schroder, D. C. Langreth, and
     *   B. I. Lundqvist, Phys. Rev. Lett. 92, 246401 (2004).
     *
     *   T. Thonhauser, V. R. Cooper, S. Li, A. Puzder, P. Hyldgaard, and
     *   D. C. Langreth, Phys. Rev. B 76, 125112 (2007).
     *
     *   G. Roman-Perez and J. M. Soler, Phys. Rev. Lett. 103, 096102 (2009).
     *
     *
     * If you are using vdW-DF2, please also cite:
     *
     *   K. Lee, E. D. Murray, L. Kong, B. I. Lundqvist, and
     *   D. C. Langreth, Phys. Rev. B 82, 081101(R) (2010).
     *
     *
     * If you are calculating the stress with vdW-DF, please also cite:
     *
     *   R. Sabatini, E. Kucukbenli, B. Kolb, T. Thonhauser, and
     *   S. de Gironcoli, J. Phys.: Condens. Matter 24, 424209 (2012).
     *

     Carrying out vdW-DF run using the following parameters:

     Nqs =      20    Nr_points =    1024   r_max =   100.000
     q_mesh =
               0.00001000     0.04494208     0.09755937     0.15916263
               0.23128650     0.31572767     0.41458969     0.53033537
               0.66584808     0.82450364     1.01025438     1.22772762
               1.48234092     1.78043706     2.12944203     2.53805004
               3.01644009     3.57652955     4.23227104     5.00000000

     Gradients computed in reciprocal space

[...]

     Starting wfc are  135 randomized atomic wfcs

     Self-consistent Calculation

[...]

     total energy              =   -1954.25339080 Ry
     Harris-Foulkes estimate   =   -1954.25339019 Ry
     estimated scf accuracy    <       0.00000453 Ry

     iteration # 18     ecut=    36.75 Ry     beta=0.10
     Davidson diagonalization with overlap
     ethr =  2.61E-09,  avg # of iterations =  1.1

[...]

     negative rho (up, down):  5.080E-01 0.000E+00

     Adding external electric field

     Computed dipole along edir(3) :
        Dipole                0.0293 Ry au,          0.0745 Debye
        Dipole field          0.0001 Ry au

        Potential amp.       -0.0073 Ry
        Total length         45.3160 bohr

     End of self-consistent calculation

[...]

          k = 0.0592 0.0000 0.0000 ( 17106 PWs)   bands (ev):

[...]

          k =-0.0888-0.1539 0.0000 ( 17160 PWs)   bands (ev):

   -44.9505 -44.8976 -44.8879 -44.8698 -44.8623 -44.8277 -44.7921 -44.7319
   -44.6561 -44.6344 -44.6009 -44.5528 -44.5352 -44.5213 -44.5158 -44.4941
   -44.4831 -44.4634 -44.4592 -44.4540 -44.4453 -44.4426 -44.4172 -44.3708
   -44.3689 -44.3565 -44.3430 -13.0155 -12.9903 -12.9782 -12.9713 -12.9583
   -12.9142 -12.8952 -12.8733 -12.8707 -12.8605 -12.8568 -12.8493 -12.8430
   -12.8415 -12.8218  -5.4136  -4.9065  -4.2305  -3.2692  -2.8512  -2.7728
    -2.4624  -2.3741  -1.9492  -1.8999  -1.8404  -1.8174  -1.6984  -1.6227
    -1.5940  -1.5181  -1.3775  -1.2722  -1.1567  -1.0782  -0.8638  -0.7943
    -0.6042  -0.4966  -0.4730  -0.4266  -0.3523  -0.2712  -0.2673  -0.1693
    -0.0744  -0.0588  -0.0210   0.2765   0.3164   0.4274   0.4511   0.4916
     0.5140   0.7106   0.7840   0.8006   0.8359   0.9307   0.9809   1.2478
     1.4438   1.7718   1.8695   2.1536   2.5526   2.6229   3.5442   3.6729
     4.0285   4.3103   4.9535   5.4757   5.5022   6.7245   6.7931   7.3765
     7.4041   7.5204   7.8159   7.8678   8.2640   8.3670   8.6362   8.7767
     8.8241   9.0135   9.1265   9.3450   9.3554

     the Fermi energy is     1.3936 ev

!    total energy              =   -1954.25339482 Ry
     Harris-Foulkes estimate   =   -1954.25339179 Ry
     estimated scf accuracy    <       0.00000072 Ry

     The total energy is the sum of the following terms:

     one-electron contribution =  -16485.51912636 Ry
     hartree contribution      =    8296.22753149 Ry
     xc contribution           =    -397.07600340 Ry
     ewald contribution        =    6632.20619273 Ry
     electric field correction =       0.00000237 Ry
     smearing contrib. (-TS)   =      -0.09199165 Ry

     convergence has been achieved in  18 iterations

 BEEF-vdW xc energy contributions
           1 :   -346.516459337690
           2 :    317.894463488602
           3 :   -268.720166969164
           4 :    211.709041339554
           5 :   -159.329275012101
           6 :    119.681746007406
           7 :   -94.6943939644418
           8 :    81.0086489895012
           9 :   -72.7500015784860
          10 :    64.6661561570035
          11 :   -54.2025525667499
          12 :    41.8179851708381
          13 :   -29.7995699477025
          14 :    20.4933098411491
          15 :   -14.9531387338597
          16 :    12.5809544651045
          17 :   -11.7124160546378
          18 :    10.6376117941147
          19 :   -8.44282571982251
          20 :    5.27726161921208
          21 :   -2.01804036345635
          22 :  -0.376931354462499
          23 :    1.42576132659701
          24 :   -1.31682852790738
          25 :   0.714682372953916
          26 :  -0.353946883121750
          27 :   0.661716085111891
          28 :   -1.59044632181326
          29 :    2.71294719475043
          30 :   -3.49932985462800
          31 :   -33.3469150732359
          32 :   -24.8066695869113

     Forces acting on atoms (Ry/au):

     negative rho (up, down):  5.080E-01 0.000E+00
     atom    1 type  1   force =     0.00000296   -0.00430991    0.01881127
     atom    2 type  1   force =    -0.00373262    0.00215594    0.01881552
     atom    3 type  1   force =     0.00373015    0.00215150    0.01879892
     atom    4 type  2   force =    -0.00000953   -0.00001480   -0.02747257
     atom    5 type  1   force =     0.00000565    0.01254851   -0.00299716
     atom    6 type  1   force =     0.01086646   -0.00627345   -0.00299347
     atom    7 type  1   force =    -0.01086507   -0.00627867   -0.00299232
     atom    8 type  2   force =    -0.00001262    0.00001198   -0.02175914
     atom    9 type  1   force =     0.00000079    0.00045190    0.00000645
     atom   10 type  1   force =     0.00038649   -0.00022375    0.00000904
     atom   11 type  1   force =    -0.00038949   -0.00022594    0.00000659
     atom   12 type  2   force =     0.00001683    0.00000668    0.00176687

     Total force =     0.053368     Total SCF correction =     0.002123

     entering subroutine stress ...

     negative rho (up, down):  5.080E-01 0.000E+00
          total   stress  (Ry/bohr**3)                   (kbar)     P=  -28.89
  -0.00022485  -0.00000001   0.00000000        -33.08     -0.00      0.00
  -0.00000001  -0.00022484   0.00000000         -0.00    -33.07      0.00
   0.00000000   0.00000000  -0.00013953          0.00      0.00    -20.53

 !ASE

     Writing output data file calc.save

     General routines

     Parallel routines

   This run was terminated on:  23:48:22  31Dec2018

   JOB DONE.
Job  /afs/slac/g/suncat/bin/suncat-tsmpirun -x LD_LIBRARY_PATH -wdir /scratch/qe648879_AkEcH pw.x -in pw.inp

TID   HOST_NAME   COMMAND_LINE            STATUS            TERMINATION_TIME
00000 suncat0121 pw.x -in pw.inp   Done                     12/31/2018 23:48:22
00001 suncat0121 pw.x -in pw.inp   Done                     12/31/2018 23:48:22
00002 suncat0121 pw.x -in pw.inp   Done                     12/31/2018 23:48:22
00003 suncat0121 pw.x -in pw.inp   Done                     12/31/2018 23:48:22
00004 suncat0121 pw.x -in pw.inp   Done                     12/31/2018 23:48:22
00005 suncat0121 pw.x -in pw.inp   Done                     12/31/2018 23:48:22
00006 suncat0121 pw.x -in pw.inp   Done                     12/31/2018 23:48:22
00007 suncat0121 pw.x -in pw.inp   Done                     12/31/2018 23:48:22
00008 suncat0115 pw.x -in pw.inp   Done                     12/31/2018 23:48:22
00009 suncat0115 pw.x -in pw.inp   Done                     12/31/2018 23:48:22
00010 suncat0115 pw.x -in pw.inp   Done                     12/31/2018 23:48:22
00011 suncat0115 pw.x -in pw.inp   Done                     12/31/2018 23:48:22
00012 suncat0115 pw.x -in pw.inp   Done                     12/31/2018 23:48:22
00013 suncat0115 pw.x -in pw.inp   Done                     12/31/2018 23:48:22
00014 suncat0115 pw.x -in pw.inp   Done                     12/31/2018 23:48:22
00015 suncat0115 pw.x -in pw.inp   Done                     12/31/2018 23:48:22
00016 suncat0228 pw.x -in pw.inp   Done                     12/31/2018 23:48:22
00017 suncat0228 pw.x -in pw.inp   Done                     12/31/2018 23:48:22
00018 suncat0228 pw.x -in pw.inp   Done                     12/31/2018 23:48:22
00019 suncat0228 pw.x -in pw.inp   Done                     12/31/2018 23:48:22
00020 suncat0228 pw.x -in pw.inp   Done                     12/31/2018 23:48:22
00021 suncat0228 pw.x -in pw.inp   Done                     12/31/2018 23:48:22
00022 suncat0228 pw.x -in pw.inp   Done                     12/31/2018 23:48:22
00023 suncat0228 pw.x -in pw.inp   Done                     12/31/2018 23:48:22
00024 suncat0227 pw.x -in pw.inp   Done                     12/31/2018 23:48:22
00025 suncat0227 pw.x -in pw.inp   Done                     12/31/2018 23:48:22
00026 suncat0227 pw.x -in pw.inp   Done                     12/31/2018 23:48:22
00027 suncat0227 pw.x -in pw.inp   Done                     12/31/2018 23:48:22
00028 suncat0227 pw.x -in pw.inp   Done                     12/31/2018 23:48:22
00029 suncat0227 pw.x -in pw.inp   Done                     12/31/2018 23:48:22
00030 suncat0227 pw.x -in pw.inp   Done                     12/31/2018 23:48:22
00031 suncat0227 pw.x -in pw.inp   Done                     12/31/2018 23:48:22
00032 suncat0217 pw.x -in pw.inp   Done                     12/31/2018 23:48:22
00033 suncat0217 pw.x -in pw.inp   Done                     12/31/2018 23:48:22
00034 suncat0217 pw.x -in pw.inp   Done                     12/31/2018 23:48:22
00035 suncat0217 pw.x -in pw.inp   Done                     12/31/2018 23:48:22
00036 suncat0217 pw.x -in pw.inp   Done                     12/31/2018 23:48:22
00037 suncat0217 pw.x -in pw.inp   Done                     12/31/2018 23:48:22
00038 suncat0217 pw.x -in pw.inp   Done                     12/31/2018 23:48:22
00039 suncat0217 pw.x -in pw.inp   Done                     12/31/2018 23:48:22
00040 suncat0216 pw.x -in pw.inp   Done                     12/31/2018 23:48:22
00041 suncat0216 pw.x -in pw.inp   Done                     12/31/2018 23:48:22
00042 suncat0216 pw.x -in pw.inp   Done                     12/31/2018 23:48:22
00043 suncat0216 pw.x -in pw.inp   Done                     12/31/2018 23:48:22
00044 suncat0216 pw.x -in pw.inp   Done                     12/31/2018 23:48:22
00045 suncat0216 pw.x -in pw.inp   Done                     12/31/2018 23:48:22
00046 suncat0216 pw.x -in pw.inp   Done                     12/31/2018 23:48:22
00047 suncat0216 pw.x -in pw.inp   Done                     12/31/2018 23:48:22
00048 suncat0215 pw.x -in pw.inp   Done                     12/31/2018 23:48:22
00049 suncat0215 pw.x -in pw.inp   Done                     12/31/2018 23:48:22
00050 suncat0215 pw.x -in pw.inp   Done                     12/31/2018 23:48:22
00051 suncat0215 pw.x -in pw.inp   Done                     12/31/2018 23:48:22
00052 suncat0215 pw.x -in pw.inp   Done                     12/31/2018 23:48:22
00053 suncat0215 pw.x -in pw.inp   Done                     12/31/2018 23:48:22
00054 suncat0215 pw.x -in pw.inp   Done                     12/31/2018 23:48:22
00055 suncat0215 pw.x -in pw.inp   Done                     12/31/2018 23:48:22
00056 suncat0210 pw.x -in pw.inp   Done                     12/31/2018 23:48:22
00057 suncat0210 pw.x -in pw.inp   Done                     12/31/2018 23:48:22
00058 suncat0210 pw.x -in pw.inp   Done                     12/31/2018 23:48:22
00059 suncat0210 pw.x -in pw.inp   Done                     12/31/2018 23:48:22
00060 suncat0210 pw.x -in pw.inp   Done                     12/31/2018 23:48:22
00061 suncat0210 pw.x -in pw.inp   Done                     12/31/2018 23:48:22
00062 suncat0210 pw.x -in pw.inp   Done                     12/31/2018 23:48:22
00063 suncat0210 pw.x -in pw.inp   Done                     12/31/2018 23:48:22