     Program PWSCF v.5.1rc2 (svn rev. 11289) starts on  1Jan2019 at 13: 6:38

     Current dimensions of program PWSCF are:
     Max number of different atomic species (ntypx) = 10
     Max number of k-points (npk) =  40000
     Max angular momentum in pseudopotentials (lmaxx) =  3
     Presently stress not available with electric field

     IMPORTANT: XC functional enforced from input :
     Exchange-correlation      = BEEF-VDW ( 1  4 27 13 2)
     Any further DFT definition will be discarded
     Please, verify this is what you really want

     Subspace diagonalization in iterative solution of the eigenvalue problem:
     a serial algorithm will be used

     bravais-lattice index     =            0
     lattice parameter (alat)  =       1.8897  a.u.
     unit-cell volume          =    5838.8734 (a.u.)^3
     number of atoms/cell      =           12
     number of atomic types    =            2
     number of electrons       =       174.00
     number of Kohn-Sham states=          117
     kinetic-energy cutoff     =      36.7493  Ry
     charge density cutoff     =     367.4932  Ry
     convergence threshold     =      1.0E-06
     mixing beta               =       0.1000
     number of iterations used =           10  plain     mixing
     Exchange-correlation      = BEEF-VDW ( 1  4 27 13 2)
     nstep                     =           50

     celldm(1)=   1.889726  celldm(2)=   0.000000  celldm(3)=   0.000000
     celldm(4)=   0.000000  celldm(5)=   0.000000  celldm(6)=   0.000000

     crystal axes: (cart. coord. in units of alat)
               a(1) = (   6.303209   0.000000   0.000000 )
               a(2) = (  -3.151605   5.458739   0.000000 )
               a(3) = (   0.000000   0.000000  25.146549 )

     reciprocal axes: (cart. coord. in units 2 pi/alat)
               b(1) = (  0.158649  0.091596  0.000000 )
               b(2) = (  0.000000  0.183192  0.000000 )
               b(3) = (  0.000000  0.000000  0.039767 )

     PseudoPot. # 1 for Sn read from file:
     /afs/slac.stanford.edu/u/if/mamunm/psp/gbrv1.5pbe/Sn.UPF
     MD5 check sum: 469debedee59599fedebd795477fea03
     Pseudo is Ultrasoft + core correction, Zval = 14.0
     Generated by new atomic code, or converted to UPF format
     Using radial grid of  891 points,  6 beta functions with:
                l(1) =   0
                l(2) =   0
                l(3) =   1
                l(4) =   1
                l(5) =   2
                l(6) =   2
     Q(r) pseudized with  8 coefficients,  rinner =    1.350   1.350   1.350
                                                       1.350   1.350

     PseudoPot. # 2 for Os read from file:
     /afs/slac.stanford.edu/u/if/mamunm/psp/gbrv1.5pbe/Os.UPF
     MD5 check sum: a3fb40a04f0c37c25c34bbc47164c9a8
     Pseudo is Ultrasoft + core correction, Zval = 16.0
     Generated by new atomic code, or converted to UPF format
     Using radial grid of  983 points,  8 beta functions with:
                l(1) =   0
                l(2) =   0
                l(3) =   1
                l(4) =   1
                l(5) =   2
                l(6) =   2
                l(7) =   3
                l(8) =   3
     Q(r) pseudized with  8 coefficients,  rinner =    1.150   1.150   1.150
                                                       1.150   1.150   1.150
                                                       1.150

     vdW kernel table read from file vdW_kernel_table
     MD5 check sum: 095c7af220d748ca6e76c0b4c6cfb241

     atomic species   valence    mass     pseudopotential
        Sn1           14.00   118.71000     Sn( 1.00)
        Os1           16.00   190.23000     Os( 1.00)

     No symmetry found

   Cartesian axes

     site n.     atom                  positions (alat units)
         1           Sn1 tau(   1) = (   0.0000000   0.0000000  10.0000000  )
         2           Sn1 tau(   2) = (  -1.5758023   2.7293696  10.0000000  )
         3           Sn1 tau(   3) = (   1.5758023   2.7293696  10.0000000  )
         4           Os1 tau(   4) = (   3.1516046   0.0000000  10.0000000  )
         5           Sn1 tau(   5) = (   3.1516046   1.8195798  12.5732744  )
         6           Sn1 tau(   6) = (   1.5758023   4.5489494  12.5732744  )
         7           Sn1 tau(   7) = (  -1.5758023   4.5489494  12.5732744  )
         8           Os1 tau(   8) = (   0.0000000   1.8195798  12.5732744  )
         9           Sn1 tau(   9) = (  -0.0000000   3.6391595  15.1465487  )
        10           Sn1 tau(  10) = (   1.5758023   0.9097899  15.1465487  )
        11           Sn1 tau(  11) = (   4.7274069   0.9097899  15.1465487  )
        12           Os1 tau(  12) = (   3.1516046   3.6391595  15.1465487  )

     number of k points=    20  Fermi-Dirac smearing, width (Ry)=  0.0110
                       cart. coord. in units 2pi/alat
        k(    1) = (   0.0000000   0.0000000   0.0000000), wk =   0.0555556
        k(    2) = (   0.0000000   0.0305321   0.0000000), wk =   0.1111111
        k(    3) = (   0.0000000   0.0610642   0.0000000), wk =   0.1111111
        k(    4) = (   0.0000000  -0.0915962   0.0000000), wk =   0.0555556
        k(    5) = (   0.0264416   0.0152660   0.0000000), wk =   0.1111111
        k(    6) = (   0.0264416   0.0457981   0.0000000), wk =   0.1111111
        k(    7) = (   0.0264416   0.0763302   0.0000000), wk =   0.1111111
        k(    8) = (   0.0264416  -0.0763302   0.0000000), wk =   0.1111111
        k(    9) = (   0.0264416  -0.0457981   0.0000000), wk =   0.1111111
        k(   10) = (   0.0264416  -0.0152660   0.0000000), wk =   0.1111111
        k(   11) = (   0.0528831   0.0305321   0.0000000), wk =   0.1111111
        k(   12) = (   0.0528831   0.0610642   0.0000000), wk =   0.1111111
        k(   13) = (   0.0528831   0.0915962   0.0000000), wk =   0.1111111
        k(   14) = (   0.0528831  -0.0610642   0.0000000), wk =   0.1111111
        k(   15) = (   0.0528831  -0.0305321   0.0000000), wk =   0.1111111
        k(   16) = (   0.0528831   0.0000000   0.0000000), wk =   0.1111111
        k(   17) = (  -0.0793247  -0.0457981   0.0000000), wk =   0.0555556
        k(   18) = (  -0.0793247  -0.0152660   0.0000000), wk =   0.1111111
        k(   19) = (  -0.0793247   0.0152660   0.0000000), wk =   0.1111111
        k(   20) = (  -0.0793247  -0.1373944   0.0000000), wk =   0.0555556

     Largest allocated arrays     est. size (Mb)     dimensions
     Largest temporary arrays     est. size (Mb)     dimensions

     Initial potential from superposition of free atoms
     Check: negative starting charge=   -0.376599

     starting charge  163.49948, renormalised to  174.00000

     negative rho (up, down):  4.008E-01 0.000E+00

     *
     * You are using vdW-DF for exchange-correlation in this calculation.
     * Please cite the following three references that made this development
     * possible:
     *
     *   M. Dion, H. Rydberg, E. Schroder, D. C. Langreth, and
     *   B. I. Lundqvist, Phys. Rev. Lett. 92, 246401 (2004).
     *
     *   T. Thonhauser, V. R. Cooper, S. Li, A. Puzder, P. Hyldgaard, and
     *   D. C. Langreth, Phys. Rev. B 76, 125112 (2007).
     *
     *   G. Roman-Perez and J. M. Soler, Phys. Rev. Lett. 103, 096102 (2009).
     *
     *
     * If you are using vdW-DF2, please also cite:
     *
     *   K. Lee, E. D. Murray, L. Kong, B. I. Lundqvist, and
     *   D. C. Langreth, Phys. Rev. B 82, 081101(R) (2010).
     *
     *
     * If you are calculating the stress with vdW-DF, please also cite:
     *
     *   R. Sabatini, E. Kucukbenli, B. Kolb, T. Thonhauser, and
     *   S. de Gironcoli, J. Phys.: Condens. Matter 24, 424209 (2012).
     *

     Carrying out vdW-DF run using the following parameters:

     Nqs =      20    Nr_points =    1024   r_max =   100.000
     q_mesh =
               0.00001000     0.04494208     0.09755937     0.15916263
               0.23128650     0.31572767     0.41458969     0.53033537
               0.66584808     0.82450364     1.01025438     1.22772762
               1.48234092     1.78043706     2.12944203     2.53805004
               3.01644009     3.57652955     4.23227104     5.00000000

     Gradients computed in reciprocal space

     Adding external electric field

     Computed dipole along edir(3) :
        Dipole                0.0000 Ry au,          0.0000 Debye
        Dipole field          0.0000 Ry au

        Potential amp.       -0.0000 Ry
        Total length         46.3321 bohr

     Starting wfc are  120 randomized atomic wfcs

     Self-consistent Calculation

     iteration #  1     ecut=    36.75 Ry     beta=0.10
     Davidson diagonalization with overlap
     ethr =  1.00E-02,  avg # of iterations =  8.1

[...]

     total energy              =   -2046.71891881 Ry
     Harris-Foulkes estimate   =   -2048.73902327 Ry
     estimated scf accuracy    <      12.00320815 Ry

[...]

     End of self-consistent calculation

          k = 0.0000 0.0000 0.0000 ( 22027 PWs)   bands (ev):

   -84.3528 -84.1508 -84.1506 -43.6876 -43.6876 -43.6100 -43.5185 -43.5185
   -43.5184 -43.5184 -43.3780 -43.3778 -20.9138 -20.8824 -20.8824 -20.8630
   -20.8148 -20.8067 -20.7784 -20.7784 -20.7614 -20.7614 -20.7574 -20.7574
   -20.7235 -20.7202 -20.7199 -20.6953 -20.6953 -20.6687 -20.6687 -20.6657
   -20.6481 -20.6481 -20.6265 -20.6224 -20.6224 -20.6062 -20.5999 -20.5999
   -20.5897 -20.5897 -20.5735 -20.5601 -20.5601 -20.5500 -20.5500 -20.5436
   -20.5399 -20.5399 -20.5357 -20.5357 -20.5112 -20.5112 -20.5082 -20.4510
   -20.4507  -9.9001  -8.4852  -6.6536  -5.6539  -5.6539  -4.8905  -4.8905
    -3.8899  -3.8899  -3.7381  -3.1247  -2.5026  -2.1780  -2.1780  -1.8479
    -0.7681  -0.7681  -0.7588  -0.7588  -0.6752   0.1856   0.1856   0.2668
     0.2668   0.4099   0.6646   0.6646   0.8356   0.8611   1.1321   1.1321
     1.1484   1.1484   1.4661   1.5753   1.5753   1.6930   2.9326   3.8291
     3.8291   3.9537   3.9537   4.4235   4.6638   4.7752   4.8284   5.3182
     5.9419   5.9419   6.0019   6.0326   6.3047   6.8074   6.8074   7.0359
     7.4853   7.7348   7.7348   8.1175   8.1560

[...]

          k =-0.0793-0.0458 0.0000 ( 21900 PWs)   bands (ev):

[...]

     the Fermi energy is     1.2513 ev

!    total energy              =   -2045.09157512 Ry
     Harris-Foulkes estimate   =   -2045.09300923 Ry
     estimated scf accuracy    <       0.00000029 Ry

     The total energy is the sum of the following terms:

     one-electron contribution =  -12756.13253870 Ry
     hartree contribution      =    6422.58981086 Ry
     xc contribution           =    -516.67755578 Ry
     ewald contribution        =    4805.19473715 Ry
     electric field correction =       0.00000000 Ry
     smearing contrib. (-TS)   =      -0.06602866 Ry

     convergence has been achieved in  17 iterations

 BEEF-vdW xc energy contributions
           1 :   -453.733725992050
           2 :    416.509937283891
           3 :   -352.842811000418
           4 :    279.678983392909
           5 :   -213.505133852739
           6 :    164.735609671207
           7 :   -135.338663474093
           8 :    120.259082792967
           9 :   -111.467163981851
          10 :    102.360868736396
[...]
     Pseudo is Ultrasoft + core correction, Zval = 14.0
     Generated by new atomic code, or converted to UPF format
     Using radial grid of  891 points,  6 beta functions with:
                l(1) =   0
                l(2) =   0
                l(3) =   1
                l(4) =   1
                l(5) =   2
                l(6) =   2
     Q(r) pseudized with  8 coefficients,  rinner =    1.350   1.350   1.350
                                                       1.350   1.350

     PseudoPot. # 2 for Os read from file:
     /afs/slac.stanford.edu/u/if/mamunm/psp/gbrv1.5pbe/Os.UPF
     MD5 check sum: a3fb40a04f0c37c25c34bbc47164c9a8
     Pseudo is Ultrasoft + core correction, Zval = 16.0
     Generated by new atomic code, or converted to UPF format
     Using radial grid of  983 points,  8 beta functions with:
                l(1) =   0
                l(2) =   0
                l(3) =   1
                l(4) =   1
                l(5) =   2
                l(6) =   2
                l(7) =   3
                l(8) =   3
     Q(r) pseudized with  8 coefficients,  rinner =    1.150   1.150   1.150
                                                       1.150   1.150   1.150
                                                       1.150

     vdW kernel table read from file vdW_kernel_table
     MD5 check sum: 095c7af220d748ca6e76c0b4c6cfb241

     atomic species   valence    mass     pseudopotential
        Sn1           14.00   118.71000     Sn( 1.00)
        Os1           16.00   190.23000     Os( 1.00)

     No symmetry found

   Cartesian axes

     site n.     atom                  positions (alat units)
         1           Sn1 tau(   1) = (   0.0000000   0.0000000  10.0000000  )
         2           Sn1 tau(   2) = (  -1.5758023   2.7293696  10.0000000  )
         3           Sn1 tau(   3) = (   1.5758023   2.7293696  10.0000000  )
         4           Os1 tau(   4) = (   3.1516046   0.0000000  10.0000000  )
         5           Sn1 tau(   5) = (   3.1516046   1.8195798  12.5732744  )
         6           Sn1 tau(   6) = (   1.5758023   4.5489494  12.5732744  )
         7           Sn1 tau(   7) = (  -1.5758023   4.5489494  12.5732744  )
         8           Os1 tau(   8) = (   0.0000000   1.8195798  12.5732744  )
         9           Sn1 tau(   9) = (  -0.0000057   3.5720166  15.2143111  )
        10           Sn1 tau(  10) = (   1.5176606   0.9434162  15.2142202  )
        11           Sn1 tau(  11) = (   4.7855750   0.9434055  15.2142963  )
        12           Os1 tau(  12) = (   3.1515820   3.6391160  14.5886845  )

     number of k points=    20  Fermi-Dirac smearing, width (Ry)=  0.0110
                       cart. coord. in units 2pi/alat
        k(    1) = (   0.0000000   0.0000000   0.0000000), wk =   0.0555556
        k(    2) = (   0.0000000   0.0305321   0.0000000), wk =   0.1111111
        k(    3) = (   0.0000000   0.0610642   0.0000000), wk =   0.1111111
        k(    4) = (   0.0000000  -0.0915962   0.0000000), wk =   0.0555556
        k(    5) = (   0.0264416   0.0152660   0.0000000), wk =   0.1111111
        k(    6) = (   0.0264416   0.0457981   0.0000000), wk =   0.1111111
        k(    7) = (   0.0264416   0.0763302   0.0000000), wk =   0.1111111
        k(    8) = (   0.0264416  -0.0763302   0.0000000), wk =   0.1111111
        k(    9) = (   0.0264416  -0.0457981   0.0000000), wk =   0.1111111
        k(   10) = (   0.0264416  -0.0152660   0.0000000), wk =   0.1111111
        k(   11) = (   0.0528831   0.0305321   0.0000000), wk =   0.1111111
        k(   12) = (   0.0528831   0.0610642   0.0000000), wk =   0.1111111
        k(   13) = (   0.0528831   0.0915962   0.0000000), wk =   0.1111111
        k(   14) = (   0.0528831  -0.0610642   0.0000000), wk =   0.1111111
        k(   15) = (   0.0528831  -0.0305321   0.0000000), wk =   0.1111111
        k(   16) = (   0.0528831   0.0000000   0.0000000), wk =   0.1111111
        k(   17) = (  -0.0793247  -0.0457981   0.0000000), wk =   0.0555556
        k(   18) = (  -0.0793247  -0.0152660   0.0000000), wk =   0.1111111
        k(   19) = (  -0.0793247   0.0152660   0.0000000), wk =   0.1111111
        k(   20) = (  -0.0793247  -0.1373944   0.0000000), wk =   0.0555556

     Largest allocated arrays     est. size (Mb)     dimensions
     Largest temporary arrays     est. size (Mb)     dimensions

     Initial potential from superposition of free atoms
     Check: negative starting charge=   -0.375864

     starting charge  163.49948, renormalised to  174.00000

[...]

     *
     * You are using vdW-DF for exchange-correlation in this calculation.
     * Please cite the following three references that made this development
     * possible:
     *
     *   M. Dion, H. Rydberg, E. Schroder, D. C. Langreth, and
     *   B. I. Lundqvist, Phys. Rev. Lett. 92, 246401 (2004).
     *
     *   T. Thonhauser, V. R. Cooper, S. Li, A. Puzder, P. Hyldgaard, and
     *   D. C. Langreth, Phys. Rev. B 76, 125112 (2007).
     *
     *   G. Roman-Perez and J. M. Soler, Phys. Rev. Lett. 103, 096102 (2009).
     *
     *
     * If you are using vdW-DF2, please also cite:
     *
     *   K. Lee, E. D. Murray, L. Kong, B. I. Lundqvist, and
     *   D. C. Langreth, Phys. Rev. B 82, 081101(R) (2010).
     *
     *
     * If you are calculating the stress with vdW-DF, please also cite:
     *
     *   R. Sabatini, E. Kucukbenli, B. Kolb, T. Thonhauser, and
     *   S. de Gironcoli, J. Phys.: Condens. Matter 24, 424209 (2012).
     *

     Carrying out vdW-DF run using the following parameters:

     Nqs =      20    Nr_points =    1024   r_max =   100.000
     q_mesh =
               0.00001000     0.04494208     0.09755937     0.15916263
               0.23128650     0.31572767     0.41458969     0.53033537
               0.66584808     0.82450364     1.01025438     1.22772762
               1.48234092     1.78043706     2.12944203     2.53805004
               3.01644009     3.57652955     4.23227104     5.00000000

     Gradients computed in reciprocal space

[...]

     Starting wfc are  120 randomized atomic wfcs

     Self-consistent Calculation

[...]

     total energy              =   -2045.14438048 Ry
     Harris-Foulkes estimate   =   -2045.14438055 Ry
     estimated scf accuracy    <       0.00000290 Ry

     iteration # 19     ecut=    36.75 Ry     beta=0.10
     Davidson diagonalization with overlap
     ethr =  1.67E-09,  avg # of iterations =  2.0

[...]

     negative rho (up, down):  3.455E-01 0.000E+00

     Adding external electric field

     Computed dipole along edir(3) :
        Dipole                0.0876 Ry au,          0.2227 Debye
        Dipole field          0.0002 Ry au

        Potential amp.       -0.0175 Ry
        Total length         46.3321 bohr

     End of self-consistent calculation

[...]

          k = 0.0529 0.0000 0.0000 ( 22021 PWs)   bands (ev):

[...]

          k =-0.0793-0.1374 0.0000 ( 21900 PWs)   bands (ev):

   -84.3475 -84.1952 -84.1888 -43.6771 -43.6770 -43.6085 -43.5458 -43.5449
   -43.5448 -43.5423 -43.5423 -43.4534 -20.8936 -20.8247 -20.8104 -20.7948
   -20.7940 -20.7674 -20.7666 -20.7590 -20.7392 -20.7213 -20.6946 -20.6889
   -20.6824 -20.6784 -20.6656 -20.6534 -20.6363 -20.6289 -20.6223 -20.6155
   -20.6108 -20.6005 -20.5919 -20.5873 -20.5736 -20.5663 -20.5641 -20.5600
   -20.5545 -20.5525 -20.5466 -20.5430 -20.5361 -20.5299 -20.5275 -20.5273
   -20.5223 -20.5138 -20.5098 -20.5017 -20.4918 -20.4913 -20.4862 -20.4452
   -20.4410  -8.8022  -8.4241  -7.2791  -6.9614  -6.1957  -6.1143  -5.3569
    -4.8180  -3.6536  -3.4070  -3.0301  -2.1390  -1.5620  -1.3415  -1.1013
    -1.0859  -1.0509  -0.5702  -0.4902  -0.2196  -0.0990   0.2364   0.4738
     0.5714   0.6395   0.6889   0.8725   0.9460   1.1459   1.2775   1.5110
     1.7029   1.7162   2.1727   2.5152   2.5482   2.8321   2.8771   3.1571
     3.6084   3.7344   4.1553   4.2108   4.3388   4.9123   5.0926   5.5176
     5.6810   5.7448   5.9186   6.1316   6.1497   6.1984   6.4998   6.7493
     6.8458   6.8843   6.9763   7.1502   7.2396

     the Fermi energy is     1.2790 ev

!    total energy              =   -2045.14438206 Ry
     Harris-Foulkes estimate   =   -2045.14438269 Ry
     estimated scf accuracy    <       0.00000073 Ry

     The total energy is the sum of the following terms:

     one-electron contribution =  -12927.73267782 Ry
     hartree contribution      =    6508.46144301 Ry
     xc contribution           =    -516.82145107 Ry
     ewald contribution        =    4891.00977925 Ry
     electric field correction =       0.00001653 Ry
     smearing contrib. (-TS)   =      -0.06149196 Ry

     convergence has been achieved in  19 iterations

 BEEF-vdW xc energy contributions
           1 :   -453.924892055921
           2 :    416.761665574309
           3 :   -353.173425487266
           4 :    280.044849206753
           5 :   -213.817489246914
           6 :    164.905739605607
           7 :   -135.324545008392
           8 :    120.088883682521
           9 :   -111.228738026075
          10 :    102.162465300127
          11 :   -90.3174035338848
          12 :    77.0699258903998
          13 :   -65.6193495107671
          14 :    58.3794542123818
          15 :   -55.4469959991338
          16 :    54.8069377842118
          17 :   -53.8270280858278
          18 :    50.9110096475679
          19 :   -46.2748633887236
          20 :    41.4903948151409
          21 :   -38.2505146576902
          22 :    37.2286320328511
          23 :   -37.7388269145199
          24 :    38.3088396739111
          25 :   -37.6921776023119
          26 :    35.6206240948841
          27 :   -32.8480116170867
          28 :    30.5367065760844
          29 :   -29.4569493804025
          30 :    29.5352758405332
          31 :   -40.3747463824229
          32 :   -29.7402350896715

     Forces acting on atoms (Ry/au):

     negative rho (up, down):  3.455E-01 0.000E+00
     atom    1 type  1   force =    -0.00000048    0.02426828   -0.00963036
     atom    2 type  1   force =     0.02101570   -0.01213648   -0.00961497
     atom    3 type  1   force =    -0.02101645   -0.01213903   -0.00961547
     atom    4 type  2   force =     0.00000124    0.00000106    0.07009800
     atom    5 type  1   force =     0.00000348   -0.02248309   -0.01360781
     atom    6 type  1   force =    -0.01946784    0.01124290   -0.01359966
     atom    7 type  1   force =     0.01946858    0.01124356   -0.01360325
     atom    8 type  2   force =    -0.00000153    0.00000563   -0.00041480
     atom    9 type  1   force =    -0.00000411   -0.00008438    0.00000603
     atom   10 type  1   force =    -0.00007442    0.00004460   -0.00000282
     atom   11 type  1   force =     0.00007513    0.00004647   -0.00000677
     atom   12 type  2   force =     0.00000070   -0.00000951   -0.00000813

     Total force =     0.095026     Total SCF correction =     0.004021

     entering subroutine stress ...

     negative rho (up, down):  3.455E-01 0.000E+00
          total   stress  (Ry/bohr**3)                   (kbar)     P=   -9.63
  -0.00007450  -0.00000000  -0.00000000        -10.96     -0.00     -0.00
  -0.00000000  -0.00007449   0.00000000         -0.00    -10.96      0.00
  -0.00000000   0.00000000  -0.00004732         -0.00      0.00     -6.96

 !ASE

     Writing output data file calc.save

     General routines

     Parallel routines

   This run was terminated on:  16:50:28   1Jan2019

   JOB DONE.
Job  /afs/slac/g/suncat/bin/suncat-tsmpirun -x LD_LIBRARY_PATH -wdir /scratch/qe649027_9655Z pw.x -in pw.inp

TID   HOST_NAME   COMMAND_LINE            STATUS            TERMINATION_TIME
00000 suncat0043 pw.x -in pw.inp   Done                     01/01/2019 16:50:28
00001 suncat0043 pw.x -in pw.inp   Done                     01/01/2019 16:50:28
00002 suncat0043 pw.x -in pw.inp   Done                     01/01/2019 16:50:28
00003 suncat0043 pw.x -in pw.inp   Done                     01/01/2019 16:50:28
00004 suncat0043 pw.x -in pw.inp   Done                     01/01/2019 16:50:28
00005 suncat0043 pw.x -in pw.inp   Done                     01/01/2019 16:50:28
00006 suncat0043 pw.x -in pw.inp   Done                     01/01/2019 16:50:28
00007 suncat0043 pw.x -in pw.inp   Done                     01/01/2019 16:50:28
00008 suncat0041 pw.x -in pw.inp   Done                     01/01/2019 16:50:28
00009 suncat0041 pw.x -in pw.inp   Done                     01/01/2019 16:50:28
00010 suncat0041 pw.x -in pw.inp   Done                     01/01/2019 16:50:28
00011 suncat0041 pw.x -in pw.inp   Done                     01/01/2019 16:50:28
00012 suncat0041 pw.x -in pw.inp   Done                     01/01/2019 16:50:28
00013 suncat0041 pw.x -in pw.inp   Done                     01/01/2019 16:50:28
00014 suncat0041 pw.x -in pw.inp   Done                     01/01/2019 16:50:28
00015 suncat0041 pw.x -in pw.inp   Done                     01/01/2019 16:50:28
00016 suncat0039 pw.x -in pw.inp   Done                     01/01/2019 16:50:28
00017 suncat0039 pw.x -in pw.inp   Done                     01/01/2019 16:50:28
00018 suncat0039 pw.x -in pw.inp   Done                     01/01/2019 16:50:28
00019 suncat0039 pw.x -in pw.inp   Done                     01/01/2019 16:50:28
00020 suncat0039 pw.x -in pw.inp   Done                     01/01/2019 16:50:28
00021 suncat0039 pw.x -in pw.inp   Done                     01/01/2019 16:50:28
00022 suncat0039 pw.x -in pw.inp   Done                     01/01/2019 16:50:28
00023 suncat0039 pw.x -in pw.inp   Done                     01/01/2019 16:50:28
00024 suncat0025 pw.x -in pw.inp   Done                     01/01/2019 16:50:28
00025 suncat0025 pw.x -in pw.inp   Done                     01/01/2019 16:50:28
00026 suncat0025 pw.x -in pw.inp   Done                     01/01/2019 16:50:28
00027 suncat0025 pw.x -in pw.inp   Done                     01/01/2019 16:50:28
00028 suncat0025 pw.x -in pw.inp   Done                     01/01/2019 16:50:28
00029 suncat0025 pw.x -in pw.inp   Done                     01/01/2019 16:50:28
00030 suncat0025 pw.x -in pw.inp   Done                     01/01/2019 16:50:28
00031 suncat0025 pw.x -in pw.inp   Done                     01/01/2019 16:50:28
00032 suncat0013 pw.x -in pw.inp   Done                     01/01/2019 16:50:28
00033 suncat0013 pw.x -in pw.inp   Done                     01/01/2019 16:50:28
00034 suncat0013 pw.x -in pw.inp   Done                     01/01/2019 16:50:28
00035 suncat0013 pw.x -in pw.inp   Done                     01/01/2019 16:50:28
00036 suncat0013 pw.x -in pw.inp   Done                     01/01/2019 16:50:28
00037 suncat0013 pw.x -in pw.inp   Done                     01/01/2019 16:50:28
00038 suncat0013 pw.x -in pw.inp   Done                     01/01/2019 16:50:28
00039 suncat0013 pw.x -in pw.inp   Done                     01/01/2019 16:50:28
00040 suncat0008 pw.x -in pw.inp   Done                     01/01/2019 16:50:28
00041 suncat0008 pw.x -in pw.inp   Done                     01/01/2019 16:50:28
00042 suncat0008 pw.x -in pw.inp   Done                     01/01/2019 16:50:28
00043 suncat0008 pw.x -in pw.inp   Done                     01/01/2019 16:50:28
00044 suncat0008 pw.x -in pw.inp   Done                     01/01/2019 16:50:28
00045 suncat0008 pw.x -in pw.inp   Done                     01/01/2019 16:50:28
00046 suncat0008 pw.x -in pw.inp   Done                     01/01/2019 16:50:28
00047 suncat0008 pw.x -in pw.inp   Done                     01/01/2019 16:50:28
00048 suncat0117 pw.x -in pw.inp   Done                     01/01/2019 16:50:28
00049 suncat0117 pw.x -in pw.inp   Done                     01/01/2019 16:50:28
00050 suncat0117 pw.x -in pw.inp   Done                     01/01/2019 16:50:28
00051 suncat0117 pw.x -in pw.inp   Done                     01/01/2019 16:50:28
00052 suncat0117 pw.x -in pw.inp   Done                     01/01/2019 16:50:28
00053 suncat0117 pw.x -in pw.inp   Done                     01/01/2019 16:50:28
00054 suncat0117 pw.x -in pw.inp   Done                     01/01/2019 16:50:28
00055 suncat0117 pw.x -in pw.inp   Done                     01/01/2019 16:50:28
00056 suncat0250 pw.x -in pw.inp   Done                     01/01/2019 16:50:28
00057 suncat0250 pw.x -in pw.inp   Done                     01/01/2019 16:50:28
00058 suncat0250 pw.x -in pw.inp   Done                     01/01/2019 16:50:28
00059 suncat0250 pw.x -in pw.inp   Done                     01/01/2019 16:50:28
00060 suncat0250 pw.x -in pw.inp   Done                     01/01/2019 16:50:28
00061 suncat0250 pw.x -in pw.inp   Done                     01/01/2019 16:50:28
00062 suncat0250 pw.x -in pw.inp   Done                     01/01/2019 16:50:28
00063 suncat0250 pw.x -in pw.inp   Done                     01/01/2019 16:50:28