     Program PWSCF v.5.1rc2 (svn rev. 11289) starts on 30Dec2018 at  4:46:44

     Current dimensions of program PWSCF are:
     Max number of different atomic species (ntypx) = 10
     Max number of k-points (npk) =  40000
     Max angular momentum in pseudopotentials (lmaxx) =  3
     Presently stress not available with electric field

     IMPORTANT: XC functional enforced from input :
     Exchange-correlation      = BEEF-VDW ( 1  4 27 13 2)
     Any further DFT definition will be discarded
     Please, verify this is what you really want

     Subspace diagonalization in iterative solution of the eigenvalue problem:
     a serial algorithm will be used

     Generating pointlists ...
     new r_m :   0.4125 (alat units)  0.7795 (a.u.) for type    1
     new r_m :   0.4125 (alat units)  0.7795 (a.u.) for type    2

     bravais-lattice index     =            0
     lattice parameter (alat)  =       1.8897  a.u.
     unit-cell volume          =    4201.0397 (a.u.)^3
     number of atoms/cell      =           12
     number of atomic types    =            2
     number of electrons       =       180.00
     number of Kohn-Sham states=          120
     kinetic-energy cutoff     =      36.7493  Ry
     charge density cutoff     =     367.4932  Ry
     convergence threshold     =      1.0E-06
     mixing beta               =       0.1000
     number of iterations used =           10  plain     mixing
     Exchange-correlation      = BEEF-VDW ( 1  4 27 13 2)
     nstep                     =           50

     celldm(1)=   1.889726  celldm(2)=   0.000000  celldm(3)=   0.000000
     celldm(4)=   0.000000  celldm(5)=   0.000000  celldm(6)=   0.000000

     crystal axes: (cart. coord. in units of alat)
               a(1) = (   5.424517   0.000000   0.000000 )
               a(2) = (  -2.712258   4.697769   0.000000 )
               a(3) = (   0.000000   0.000000  24.429099 )

     reciprocal axes: (cart. coord. in units 2 pi/alat)
               b(1) = (  0.184348  0.106433  0.000000 )
               b(2) = (  0.000000  0.212867  0.000000 )
               b(3) = (  0.000000  0.000000  0.040935 )

     PseudoPot. # 1 for Fe read from file:
     /afs/slac.stanford.edu/u/if/mamunm/psp/gbrv1.5pbe/Fe.UPF
     MD5 check sum: a130daea23fe5165f5d574ae7f82ed95
     Pseudo is Ultrasoft + core correction, Zval = 16.0
     Generated by new atomic code, or converted to UPF format
     Using radial grid of  861 points,  6 beta functions with:
                l(1) =   0
                l(2) =   0
                l(3) =   1
                l(4) =   1
                l(5) =   2
                l(6) =   2
     Q(r) pseudized with  8 coefficients,  rinner =    1.000   1.000   1.000
                                                       1.000   1.000

     PseudoPot. # 2 for Cd read from file:
     /afs/slac.stanford.edu/u/if/mamunm/psp/gbrv1.5pbe/Cd.UPF
     MD5 check sum: 17164a7926edb8e0dc231208abae86a6
     Pseudo is Ultrasoft + core correction, Zval = 12.0
     Generated by new atomic code, or converted to UPF format
     Using radial grid of  889 points,  6 beta functions with:
                l(1) =   0
                l(2) =   0
                l(3) =   1
                l(4) =   1
                l(5) =   2
                l(6) =   2
     Q(r) pseudized with  6 coefficients,  rinner =    1.000   1.000   1.000
                                                       1.000   1.000

     vdW kernel table read from file vdW_kernel_table
     MD5 check sum: 095c7af220d748ca6e76c0b4c6cfb241

     atomic species   valence    mass     pseudopotential
        Fe1           16.00    55.84500     Fe( 1.00)
        Cd1           12.00   112.41400     Cd( 1.00)

     Starting magnetic structure
     atomic species   magnetization
        Fe1          0.125
        Cd1          0.167

     No symmetry found

   Cartesian axes

     site n.     atom                  positions (alat units)
         1           Fe1 tau(   1) = (   0.0000000   0.0000000  10.0000000  )
         2           Fe1 tau(   2) = (  -1.3561292   2.3488846  10.0000000  )
         3           Fe1 tau(   3) = (   1.3561292   2.3488846  10.0000000  )
         4           Cd1 tau(   4) = (   2.7122583   0.0000000  10.0000000  )
         5           Fe1 tau(   5) = (   2.7122583   1.5659231  12.2145497  )
         6           Fe1 tau(   6) = (   1.3561292   3.9148077  12.2145497  )
         7           Fe1 tau(   7) = (  -1.3561292   3.9148077  12.2145497  )
         8           Cd1 tau(   8) = (   0.0000000   1.5659231  12.2145497  )
         9           Fe1 tau(   9) = (  -0.0000000   3.1318462  14.4290993  )
        10           Fe1 tau(  10) = (   1.3561292   0.7829615  14.4290993  )
        11           Fe1 tau(  11) = (   4.0683875   0.7829615  14.4290993  )
        12           Cd1 tau(  12) = (   2.7122583   3.1318462  14.4290993  )

     number of k points=    40  Fermi-Dirac smearing, width (Ry)=  0.0110
                       cart. coord. in units 2pi/alat
        k(    1) = (   0.0000000   0.0000000   0.0000000), wk =   0.0277778
        k(    2) = (   0.0000000   0.0354778   0.0000000), wk =   0.0555556
        k(    3) = (   0.0000000   0.0709557   0.0000000), wk =   0.0555556
        k(    4) = (   0.0000000  -0.1064335   0.0000000), wk =   0.0277778
        k(    5) = (   0.0307247   0.0177389   0.0000000), wk =   0.0555556
        k(    6) = (   0.0307247   0.0532167   0.0000000), wk =   0.0555556
        k(    7) = (   0.0307247   0.0886946   0.0000000), wk =   0.0555556
        k(    8) = (   0.0307247  -0.0886946   0.0000000), wk =   0.0555556
        k(    9) = (   0.0307247  -0.0532167   0.0000000), wk =   0.0555556
        k(   10) = (   0.0307247  -0.0177389   0.0000000), wk =   0.0555556
        k(   11) = (   0.0614494   0.0354778   0.0000000), wk =   0.0555556
        k(   12) = (   0.0614494   0.0709557   0.0000000), wk =   0.0555556
        k(   13) = (   0.0614494   0.1064335   0.0000000), wk =   0.0555556
        k(   14) = (   0.0614494  -0.0709557   0.0000000), wk =   0.0555556
        k(   15) = (   0.0614494  -0.0354778   0.0000000), wk =   0.0555556
        k(   16) = (   0.0614494   0.0000000   0.0000000), wk =   0.0555556
        k(   17) = (  -0.0921741  -0.0532167   0.0000000), wk =   0.0277778
        k(   18) = (  -0.0921741  -0.0177389   0.0000000), wk =   0.0555556
        k(   19) = (  -0.0921741   0.0177389   0.0000000), wk =   0.0555556
        k(   20) = (  -0.0921741  -0.1596502   0.0000000), wk =   0.0277778
        k(   21) = (   0.0000000   0.0000000   0.0000000), wk =   0.0277778
        k(   22) = (   0.0000000   0.0354778   0.0000000), wk =   0.0555556
        k(   23) = (   0.0000000   0.0709557   0.0000000), wk =   0.0555556
        k(   24) = (   0.0000000  -0.1064335   0.0000000), wk =   0.0277778
        k(   25) = (   0.0307247   0.0177389   0.0000000), wk =   0.0555556
        k(   26) = (   0.0307247   0.0532167   0.0000000), wk =   0.0555556
        k(   27) = (   0.0307247   0.0886946   0.0000000), wk =   0.0555556
        k(   28) = (   0.0307247  -0.0886946   0.0000000), wk =   0.0555556
        k(   29) = (   0.0307247  -0.0532167   0.0000000), wk =   0.0555556
        k(   30) = (   0.0307247  -0.0177389   0.0000000), wk =   0.0555556
        k(   31) = (   0.0614494   0.0354778   0.0000000), wk =   0.0555556
        k(   32) = (   0.0614494   0.0709557   0.0000000), wk =   0.0555556
        k(   33) = (   0.0614494   0.1064335   0.0000000), wk =   0.0555556
        k(   34) = (   0.0614494  -0.0709557   0.0000000), wk =   0.0555556
        k(   35) = (   0.0614494  -0.0354778   0.0000000), wk =   0.0555556
        k(   36) = (   0.0614494   0.0000000   0.0000000), wk =   0.0555556
        k(   37) = (  -0.0921741  -0.0532167   0.0000000), wk =   0.0277778
        k(   38) = (  -0.0921741  -0.0177389   0.0000000), wk =   0.0555556
        k(   39) = (  -0.0921741   0.0177389   0.0000000), wk =   0.0555556
        k(   40) = (  -0.0921741  -0.1596502   0.0000000), wk =   0.0277778

     Largest allocated arrays     est. size (Mb)     dimensions
     Largest temporary arrays     est. size (Mb)     dimensions

     Check: negative/imaginary core charge=   -0.000006    0.000000

     Initial potential from superposition of free atoms
     Check: negative starting charge=(component1):   -0.038714
     Check: negative starting charge=(component2):   -0.027643

     starting charge  169.49982, renormalised to  180.00000

     negative rho (up, down):  4.111E-02 2.936E-02

     *
     * You are using vdW-DF for exchange-correlation in this calculation.
     * Please cite the following three references that made this development
     * possible:
     *
     *   M. Dion, H. Rydberg, E. Schroder, D. C. Langreth, and
     *   B. I. Lundqvist, Phys. Rev. Lett. 92, 246401 (2004).
     *
     *   T. Thonhauser, V. R. Cooper, S. Li, A. Puzder, P. Hyldgaard, and
     *   D. C. Langreth, Phys. Rev. B 76, 125112 (2007).
     *
     *   G. Roman-Perez and J. M. Soler, Phys. Rev. Lett. 103, 096102 (2009).
     *
     *
     * If you are using vdW-DF2, please also cite:
     *
     *   K. Lee, E. D. Murray, L. Kong, B. I. Lundqvist, and
     *   D. C. Langreth, Phys. Rev. B 82, 081101(R) (2010).
     *
     *
     * If you are calculating the stress with vdW-DF, please also cite:
     *
     *   R. Sabatini, E. Kucukbenli, B. Kolb, T. Thonhauser, and
     *   S. de Gironcoli, J. Phys.: Condens. Matter 24, 424209 (2012).
     *

     Carrying out vdW-DF run using the following parameters:

     Nqs =      20    Nr_points =    1024   r_max =   100.000
     q_mesh =
               0.00001000     0.04494208     0.09755937     0.15916263
               0.23128650     0.31572767     0.41458969     0.53033537
               0.66584808     0.82450364     1.01025438     1.22772762
               1.48234092     1.78043706     2.12944203     2.53805004
               3.01644009     3.57652955     4.23227104     5.00000000

     Gradients computed in reciprocal space

     Adding external electric field

     Computed dipole along edir(3) :
        Dipole               -0.0000 Ry au,         -0.0000 Debye
        Dipole field         -0.0000 Ry au

        Potential amp.        0.0000 Ry
        Total length         45.0102 bohr

[...]

     Starting wfc are  144 randomized atomic wfcs

     Self-consistent Calculation

     iteration #  1     ecut=    36.75 Ry     beta=0.10
     Davidson diagonalization with overlap
     ethr =  1.00E-02,  avg # of iterations =  8.2

[...]

     Magnetic moment per site:
     atom:    1    charge:    7.2780    magn:    0.9079    constr:    0.0000
     atom:    2    charge:    7.2780    magn:    0.9079    constr:    0.0000
     atom:    3    charge:    7.2780    magn:    0.9079    constr:    0.0000
     atom:    4    charge:    2.3731    magn:    0.3644    constr:    0.0000
     atom:    5    charge:    7.2601    magn:    0.9022    constr:    0.0000
     atom:    6    charge:    7.2601    magn:    0.9022    constr:    0.0000
     atom:    7    charge:    7.2601    magn:    0.9022    constr:    0.0000
     atom:    8    charge:    2.3643    magn:    0.3631    constr:    0.0000
[...]
        k(    3) = (   0.0000000   0.0709557   0.0000000), wk =   0.0555556
        k(    4) = (   0.0000000  -0.1064335   0.0000000), wk =   0.0277778
        k(    5) = (   0.0307247   0.0177389   0.0000000), wk =   0.0555556
        k(    6) = (   0.0307247   0.0532167   0.0000000), wk =   0.0555556
        k(    7) = (   0.0307247   0.0886946   0.0000000), wk =   0.0555556
        k(    8) = (   0.0307247  -0.0886946   0.0000000), wk =   0.0555556
        k(    9) = (   0.0307247  -0.0532167   0.0000000), wk =   0.0555556
        k(   10) = (   0.0307247  -0.0177389   0.0000000), wk =   0.0555556
        k(   11) = (   0.0614494   0.0354778   0.0000000), wk =   0.0555556
        k(   12) = (   0.0614494   0.0709557   0.0000000), wk =   0.0555556
        k(   13) = (   0.0614494   0.1064335   0.0000000), wk =   0.0555556
        k(   14) = (   0.0614494  -0.0709557   0.0000000), wk =   0.0555556
        k(   15) = (   0.0614494  -0.0354778   0.0000000), wk =   0.0555556
        k(   16) = (   0.0614494   0.0000000   0.0000000), wk =   0.0555556
        k(   17) = (  -0.0921741  -0.0532167   0.0000000), wk =   0.0277778
        k(   18) = (  -0.0921741  -0.0177389   0.0000000), wk =   0.0555556
        k(   19) = (  -0.0921741   0.0177389   0.0000000), wk =   0.0555556
        k(   20) = (  -0.0921741  -0.1596502   0.0000000), wk =   0.0277778
        k(   21) = (   0.0000000   0.0000000   0.0000000), wk =   0.0277778
        k(   22) = (   0.0000000   0.0354778   0.0000000), wk =   0.0555556
        k(   23) = (   0.0000000   0.0709557   0.0000000), wk =   0.0555556
        k(   24) = (   0.0000000  -0.1064335   0.0000000), wk =   0.0277778
        k(   25) = (   0.0307247   0.0177389   0.0000000), wk =   0.0555556
        k(   26) = (   0.0307247   0.0532167   0.0000000), wk =   0.0555556
        k(   27) = (   0.0307247   0.0886946   0.0000000), wk =   0.0555556
        k(   28) = (   0.0307247  -0.0886946   0.0000000), wk =   0.0555556
        k(   29) = (   0.0307247  -0.0532167   0.0000000), wk =   0.0555556
        k(   30) = (   0.0307247  -0.0177389   0.0000000), wk =   0.0555556
        k(   31) = (   0.0614494   0.0354778   0.0000000), wk =   0.0555556
        k(   32) = (   0.0614494   0.0709557   0.0000000), wk =   0.0555556
        k(   33) = (   0.0614494   0.1064335   0.0000000), wk =   0.0555556
        k(   34) = (   0.0614494  -0.0709557   0.0000000), wk =   0.0555556
        k(   35) = (   0.0614494  -0.0354778   0.0000000), wk =   0.0555556
        k(   36) = (   0.0614494   0.0000000   0.0000000), wk =   0.0555556
        k(   37) = (  -0.0921741  -0.0532167   0.0000000), wk =   0.0277778
        k(   38) = (  -0.0921741  -0.0177389   0.0000000), wk =   0.0555556
        k(   39) = (  -0.0921741   0.0177389   0.0000000), wk =   0.0555556
        k(   40) = (  -0.0921741  -0.1596502   0.0000000), wk =   0.0277778

     Largest allocated arrays     est. size (Mb)     dimensions
     Largest temporary arrays     est. size (Mb)     dimensions

     Check: negative/imaginary core charge=   -0.000006    0.000000

     Initial potential from superposition of free atoms
     Check: negative starting charge=(component1):   -0.038770
     Check: negative starting charge=(component2):   -0.027685

     starting charge  169.49982, renormalised to  180.00000

[...]

     *
     * You are using vdW-DF for exchange-correlation in this calculation.
     * Please cite the following three references that made this development
     * possible:
     *
     *   M. Dion, H. Rydberg, E. Schroder, D. C. Langreth, and
     *   B. I. Lundqvist, Phys. Rev. Lett. 92, 246401 (2004).
     *
     *   T. Thonhauser, V. R. Cooper, S. Li, A. Puzder, P. Hyldgaard, and
     *   D. C. Langreth, Phys. Rev. B 76, 125112 (2007).
     *
     *   G. Roman-Perez and J. M. Soler, Phys. Rev. Lett. 103, 096102 (2009).
     *
     *
     * If you are using vdW-DF2, please also cite:
     *
     *   K. Lee, E. D. Murray, L. Kong, B. I. Lundqvist, and
     *   D. C. Langreth, Phys. Rev. B 82, 081101(R) (2010).
     *
     *
     * If you are calculating the stress with vdW-DF, please also cite:
     *
     *   R. Sabatini, E. Kucukbenli, B. Kolb, T. Thonhauser, and
     *   S. de Gironcoli, J. Phys.: Condens. Matter 24, 424209 (2012).
     *

     Carrying out vdW-DF run using the following parameters:

     Nqs =      20    Nr_points =    1024   r_max =   100.000
     q_mesh =
               0.00001000     0.04494208     0.09755937     0.15916263
               0.23128650     0.31572767     0.41458969     0.53033537
               0.66584808     0.82450364     1.01025438     1.22772762
               1.48234092     1.78043706     2.12944203     2.53805004
               3.01644009     3.57652955     4.23227104     5.00000000

     Gradients computed in reciprocal space

[...]

     Starting wfc are  144 randomized atomic wfcs

     Self-consistent Calculation

[...]

     total energy              =   -2610.02508676 Ry
     Harris-Foulkes estimate   =   -2610.02508349 Ry
     estimated scf accuracy    <       0.00000120 Ry

[...]

     iteration # 27     ecut=    36.75 Ry     beta=0.10
     Davidson diagonalization with overlap
     ethr =  6.69E-10,  avg # of iterations =  1.5

[...]

     negative rho (up, down):  3.476E-02 3.560E-02

[...]

     Adding external electric field

     Computed dipole along edir(3) :
        Dipole               -0.0111 Ry au,         -0.0283 Debye
        Dipole field         -0.0000 Ry au

        Potential amp.        0.0030 Ry
        Total length         45.0102 bohr

     Magnetic moment per site:
     atom:    1    charge:    7.0986    magn:    1.3471    constr:    0.0000
     atom:    2    charge:    7.0986    magn:    1.3471    constr:    0.0000
     atom:    3    charge:    7.0986    magn:    1.3472    constr:    0.0000
     atom:    4    charge:    2.2964    magn:    0.0064    constr:    0.0000
     atom:    5    charge:    7.0791    magn:    1.2857    constr:    0.0000
     atom:    6    charge:    7.0791    magn:    1.2857    constr:    0.0000
     atom:    7    charge:    7.0791    magn:    1.2857    constr:    0.0000
     atom:    8    charge:    2.2893    magn:    0.0056    constr:    0.0000
     atom:    9    charge:    7.0942    magn:    1.3105    constr:    0.0000
     atom:   10    charge:    7.0943    magn:    1.3104    constr:    0.0000
     atom:   11    charge:    7.0943    magn:    1.3104    constr:    0.0000
     atom:   12    charge:    2.2870    magn:    0.0033    constr:    0.0000

     End of self-consistent calculation

 ------ SPIN UP ------------

[...]

 ------ SPIN DOWN ----------

[...]

          k = 0.0614 0.0000 0.0000 ( 15780 PWs)   bands (ev):

[...]

          k =-0.0922-0.1597 0.0000 ( 15828 PWs)   bands (ev):

   -84.5408 -84.5357 -84.5303 -84.4907 -84.4800 -84.4737 -84.4671 -84.4540
   -84.4514 -50.7027 -50.6981 -50.6931 -50.6820 -50.6738 -50.6710 -50.6593
   -50.6589 -50.6481 -50.6367 -50.6348 -50.6332 -50.6200 -50.6166 -50.6089
   -50.5888 -50.5853 -50.5676 -50.5602 -50.5414 -50.5374 -50.5226 -50.5057
   -50.5012 -50.4907 -50.4820 -50.4809  -8.2578  -8.1997  -8.1675  -8.1457
    -8.1288  -8.0272  -7.9566  -7.9271  -7.9013  -7.8438  -7.7314  -7.6813
    -7.6374  -7.6311  -7.5911  -5.4406  -5.1148  -3.6062  -3.3960  -2.3628
    -2.2724  -1.9256  -1.2046  -1.0013  -0.7458  -0.6624  -0.4584  -0.4383
    -0.3163  -0.2411  -0.0842  -0.0465   0.0156   0.1175   0.1726   0.1929
     0.2894   0.3078   0.4475   0.5027   0.6148   0.6247   0.8145   0.8774
     1.0223   1.0471   1.0722   1.1581   1.5274   1.5664   1.6501   1.7407
     1.7774   1.7788   1.8186   1.8822   1.9378   2.0123   2.0873   2.1114
     2.2297   2.3898   2.4617   2.4959   2.6231   2.6629   2.6743   3.2538
     3.5110   3.6901   3.8467   4.3281   4.9762   5.0066   5.9542   6.0627
     6.4947   6.5752   6.7789   6.8602   7.2171   7.4586   7.8316   7.8912

     the Fermi energy is     0.7803 ev

!    total energy              =   -2610.02510041 Ry
     Harris-Foulkes estimate   =   -2610.02508704 Ry
     estimated scf accuracy    <       0.00000075 Ry

     The total energy is the sum of the following terms:

     one-electron contribution =  -20134.35390329 Ry
     hartree contribution      =   10089.75317135 Ry
     xc contribution           =    -395.24640851 Ry
     ewald contribution        =    7829.90181286 Ry
     electric field correction =       0.00000037 Ry
     smearing contrib. (-TS)   =      -0.07977319 Ry

     total magnetization       =    24.44 Bohr mag/cell
     absolute magnetization    =    26.49 Bohr mag/cell

     convergence has been achieved in  27 iterations

 BEEF-vdW xc energy contributions
           1 :   -346.152355620878
           2 :    314.158846843261
           3 :   -260.576000283688
           4 :    201.119100638516
           5 :   -149.855868304056
           6 :    114.086939524577
           7 :   -93.2990429326047
           8 :    81.8399622692183
           9 :   -73.1861687401704
          10 :    63.3168204240402
          11 :   -51.7866853075260
          12 :    40.5801525523682
          13 :   -31.9955426940476
          14 :    26.9890126866206
          15 :   -24.8031339258181
          16 :    23.7279384192396
          17 :   -22.2469657869589
          18 :    19.7882238146159
          19 :   -16.7684101395100
          20 :    14.0809674263168
          21 :   -12.4489834973074
          22 :    12.0050759042412
          23 :   -12.2773588196090
          24 :    12.5078908129196
          25 :   -12.0963727200322
          26 :    10.9128629576728
          27 :   -9.33237667772676
          28 :    7.98276943798567
          29 :   -7.36179613598512
          30 :    7.53497250647331
          31 :   -30.6239589582522
          32 :   -21.8350572771764

     Forces acting on atoms (Ry/au):

     negative rho (up, down):  3.476E-02 3.560E-02
     atom    1 type  1   force =     0.00000173   -0.01539165    0.01363565
     atom    2 type  1   force =    -0.01331531    0.00770340    0.01362894
     atom    3 type  1   force =     0.01330897    0.00769833    0.01362524
     atom    4 type  2   force =    -0.00000111   -0.00000522   -0.04716572
     atom    5 type  1   force =     0.00000071    0.01571033    0.00406152
     atom    6 type  1   force =     0.01357619   -0.00785676    0.00410596
     atom    7 type  1   force =    -0.01357682   -0.00785771    0.00408514
     atom    8 type  2   force =    -0.00000016    0.00002503   -0.00824874
     atom    9 type  1   force =     0.00005817    0.00031455    0.00048148
     atom   10 type  1   force =     0.00023823   -0.00018038    0.00050467
     atom   11 type  1   force =    -0.00022113   -0.00023820    0.00049826
     atom   12 type  2   force =    -0.00006946    0.00007828    0.00078760

     Total force =     0.065959     Total SCF correction =     0.003617

     entering subroutine stress ...

     negative rho (up, down):  3.476E-02 3.560E-02
          total   stress  (Ry/bohr**3)                   (kbar)     P=   -6.11
  -0.00005848  -0.00000001  -0.00000001         -8.60     -0.00     -0.00
  -0.00000001  -0.00005850   0.00000001         -0.00     -8.61      0.00
  -0.00000001   0.00000001  -0.00000756         -0.00      0.00     -1.11

 !ASE

     Writing output data file calc.save

     General routines

     Parallel routines

   This run was terminated on:  10:39:55  30Dec2018

   JOB DONE.
Job  /afs/slac/g/suncat/bin/suncat-tsmpirun -x LD_LIBRARY_PATH -wdir /scratch/qe648432_IHqsS pw.x -in pw.inp

TID   HOST_NAME   COMMAND_LINE            STATUS            TERMINATION_TIME
00000 suncat0097 pw.x -in pw.inp   Done                     12/30/2018 10:39:55
00001 suncat0097 pw.x -in pw.inp   Done                     12/30/2018 10:39:55
00002 suncat0097 pw.x -in pw.inp   Done                     12/30/2018 10:39:55
00003 suncat0097 pw.x -in pw.inp   Done                     12/30/2018 10:39:55
00004 suncat0097 pw.x -in pw.inp   Done                     12/30/2018 10:39:55
00005 suncat0097 pw.x -in pw.inp   Done                     12/30/2018 10:39:55
00006 suncat0097 pw.x -in pw.inp   Done                     12/30/2018 10:39:55
00007 suncat0097 pw.x -in pw.inp   Done                     12/30/2018 10:39:55
00008 suncat0096 pw.x -in pw.inp   Done                     12/30/2018 10:39:55
00009 suncat0096 pw.x -in pw.inp   Done                     12/30/2018 10:39:55
00010 suncat0096 pw.x -in pw.inp   Done                     12/30/2018 10:39:55
00011 suncat0096 pw.x -in pw.inp   Done                     12/30/2018 10:39:55
00012 suncat0096 pw.x -in pw.inp   Done                     12/30/2018 10:39:55
00013 suncat0096 pw.x -in pw.inp   Done                     12/30/2018 10:39:55
00014 suncat0096 pw.x -in pw.inp   Done                     12/30/2018 10:39:55
00015 suncat0096 pw.x -in pw.inp   Done                     12/30/2018 10:39:55
00016 suncat0093 pw.x -in pw.inp   Done                     12/30/2018 10:39:55
00017 suncat0093 pw.x -in pw.inp   Done                     12/30/2018 10:39:55
00018 suncat0093 pw.x -in pw.inp   Done                     12/30/2018 10:39:55
00019 suncat0093 pw.x -in pw.inp   Done                     12/30/2018 10:39:55
00020 suncat0093 pw.x -in pw.inp   Done                     12/30/2018 10:39:55
00021 suncat0093 pw.x -in pw.inp   Done                     12/30/2018 10:39:55
00022 suncat0093 pw.x -in pw.inp   Done                     12/30/2018 10:39:55
00023 suncat0093 pw.x -in pw.inp   Done                     12/30/2018 10:39:55
00024 suncat0092 pw.x -in pw.inp   Done                     12/30/2018 10:39:55
00025 suncat0092 pw.x -in pw.inp   Done                     12/30/2018 10:39:55
00026 suncat0092 pw.x -in pw.inp   Done                     12/30/2018 10:39:55
00027 suncat0092 pw.x -in pw.inp   Done                     12/30/2018 10:39:55
00028 suncat0092 pw.x -in pw.inp   Done                     12/30/2018 10:39:55
00029 suncat0092 pw.x -in pw.inp   Done                     12/30/2018 10:39:55
00030 suncat0092 pw.x -in pw.inp   Done                     12/30/2018 10:39:55
00031 suncat0092 pw.x -in pw.inp   Done                     12/30/2018 10:39:55
00032 suncat0089 pw.x -in pw.inp   Done                     12/30/2018 10:39:55
00033 suncat0089 pw.x -in pw.inp   Done                     12/30/2018 10:39:55
00034 suncat0089 pw.x -in pw.inp   Done                     12/30/2018 10:39:55
00035 suncat0089 pw.x -in pw.inp   Done                     12/30/2018 10:39:55
00036 suncat0089 pw.x -in pw.inp   Done                     12/30/2018 10:39:55
00037 suncat0089 pw.x -in pw.inp   Done                     12/30/2018 10:39:55
00038 suncat0089 pw.x -in pw.inp   Done                     12/30/2018 10:39:55
00039 suncat0089 pw.x -in pw.inp   Done                     12/30/2018 10:39:55
00040 suncat0088 pw.x -in pw.inp   Done                     12/30/2018 10:39:55
00041 suncat0088 pw.x -in pw.inp   Done                     12/30/2018 10:39:55
00042 suncat0088 pw.x -in pw.inp   Done                     12/30/2018 10:39:55
00043 suncat0088 pw.x -in pw.inp   Done                     12/30/2018 10:39:55
00044 suncat0088 pw.x -in pw.inp   Done                     12/30/2018 10:39:55
00045 suncat0088 pw.x -in pw.inp   Done                     12/30/2018 10:39:55
00046 suncat0088 pw.x -in pw.inp   Done                     12/30/2018 10:39:55
00047 suncat0088 pw.x -in pw.inp   Done                     12/30/2018 10:39:55
00048 suncat0087 pw.x -in pw.inp   Done                     12/30/2018 10:39:55
00049 suncat0087 pw.x -in pw.inp   Done                     12/30/2018 10:39:55
00050 suncat0087 pw.x -in pw.inp   Done                     12/30/2018 10:39:55
00051 suncat0087 pw.x -in pw.inp   Done                     12/30/2018 10:39:55
00052 suncat0087 pw.x -in pw.inp   Done                     12/30/2018 10:39:55
00053 suncat0087 pw.x -in pw.inp   Done                     12/30/2018 10:39:55
00054 suncat0087 pw.x -in pw.inp   Done                     12/30/2018 10:39:55
00055 suncat0087 pw.x -in pw.inp   Done                     12/30/2018 10:39:55
00056 suncat0086 pw.x -in pw.inp   Done                     12/30/2018 10:39:55
00057 suncat0086 pw.x -in pw.inp   Done                     12/30/2018 10:39:55
00058 suncat0086 pw.x -in pw.inp   Done                     12/30/2018 10:39:55
00059 suncat0086 pw.x -in pw.inp   Done                     12/30/2018 10:39:55
00060 suncat0086 pw.x -in pw.inp   Done                     12/30/2018 10:39:55
00061 suncat0086 pw.x -in pw.inp   Done                     12/30/2018 10:39:55
00062 suncat0086 pw.x -in pw.inp   Done                     12/30/2018 10:39:55
00063 suncat0086 pw.x -in pw.inp   Done                     12/30/2018 10:39:55