     Program PWSCF v.5.1rc2 (svn rev. 11289) starts on 27Dec2018 at  5:32:47

     Current dimensions of program PWSCF are:
     Max number of different atomic species (ntypx) = 10
     Max number of k-points (npk) =  40000
     Max angular momentum in pseudopotentials (lmaxx) =  3
     Presently stress not available with electric field

     IMPORTANT: XC functional enforced from input :
     Exchange-correlation      = BEEF-VDW ( 1  4 27 13 2)
     Any further DFT definition will be discarded
     Please, verify this is what you really want

     Subspace diagonalization in iterative solution of the eigenvalue problem:
     a serial algorithm will be used

     bravais-lattice index     =            0
     lattice parameter (alat)  =       1.8897  a.u.
     unit-cell volume          =    4908.5070 (a.u.)^3
     number of atoms/cell      =           12
     number of atomic types    =            2
     number of electrons       =       165.00
     number of Kohn-Sham states=          112
     kinetic-energy cutoff     =      36.7493  Ry
     charge density cutoff     =     367.4932  Ry
     convergence threshold     =      1.0E-06
     mixing beta               =       0.1000
     number of iterations used =           10  plain     mixing
     Exchange-correlation      = BEEF-VDW ( 1  4 27 13 2)
     nstep                     =           50

     celldm(1)=   1.889726  celldm(2)=   0.000000  celldm(3)=   0.000000
     celldm(4)=   0.000000  celldm(5)=   0.000000  celldm(6)=   0.000000

     crystal axes: (cart. coord. in units of alat)
               a(1) = (   5.824683   0.000000   0.000000 )
               a(2) = (  -2.912342   5.044324   0.000000 )
               a(3) = (   0.000000   0.000000  24.755834 )

     reciprocal axes: (cart. coord. in units 2 pi/alat)
               b(1) = (  0.171683  0.099121  0.000000 )
               b(2) = (  0.000000  0.198243  0.000000 )
               b(3) = (  0.000000  0.000000  0.040395 )

     PseudoPot. # 1 for Nb read from file:
     /afs/slac.stanford.edu/u/if/mamunm/psp/gbrv1.5pbe/Nb.UPF
     MD5 check sum: 573aab8a2fa660278ed4a62cd769473f
     Pseudo is Ultrasoft + core correction, Zval = 13.0
     Generated by new atomic code, or converted to UPF format
     Using radial grid of  887 points,  6 beta functions with:
                l(1) =   0
                l(2) =   0
                l(3) =   1
                l(4) =   1
                l(5) =   2
                l(6) =   2
     Q(r) pseudized with  6 coefficients,  rinner =    1.000   1.000   1.000
                                                       1.000   1.000

     PseudoPot. # 2 for Os read from file:
     /afs/slac.stanford.edu/u/if/mamunm/psp/gbrv1.5pbe/Os.UPF
     MD5 check sum: a3fb40a04f0c37c25c34bbc47164c9a8
     Pseudo is Ultrasoft + core correction, Zval = 16.0
     Generated by new atomic code, or converted to UPF format
     Using radial grid of  983 points,  8 beta functions with:
                l(1) =   0
                l(2) =   0
                l(3) =   1
                l(4) =   1
                l(5) =   2
                l(6) =   2
                l(7) =   3
                l(8) =   3
     Q(r) pseudized with  8 coefficients,  rinner =    1.150   1.150   1.150
                                                       1.150   1.150   1.150
                                                       1.150

     vdW kernel table read from file vdW_kernel_table
     MD5 check sum: 095c7af220d748ca6e76c0b4c6cfb241

     atomic species   valence    mass     pseudopotential
        Nb1           13.00    92.90637     Nb( 1.00)
        Os1           16.00   190.23000     Os( 1.00)

     No symmetry found

   Cartesian axes

     site n.     atom                  positions (alat units)
         1           Nb1 tau(   1) = (   0.0000000   0.0000000  10.0000000  )
         2           Nb1 tau(   2) = (  -1.4561708   2.5221618  10.0000000  )
         3           Nb1 tau(   3) = (   1.4561708   2.5221618  10.0000000  )
         4           Os1 tau(   4) = (   2.9123416   0.0000000  10.0000000  )
         5           Nb1 tau(   5) = (   2.9123416   1.6814412  12.3779170  )
         6           Nb1 tau(   6) = (   1.4561708   4.2036030  12.3779170  )
         7           Nb1 tau(   7) = (  -1.4561708   4.2036030  12.3779170  )
         8           Os1 tau(   8) = (   0.0000000   1.6814412  12.3779170  )
         9           Nb1 tau(   9) = (  -0.0000000   3.3628824  14.7558339  )
        10           Nb1 tau(  10) = (   1.4561708   0.8407206  14.7558339  )
        11           Nb1 tau(  11) = (   4.3685124   0.8407206  14.7558339  )
        12           Os1 tau(  12) = (   2.9123416   3.3628824  14.7558339  )

     number of k points=    20  Fermi-Dirac smearing, width (Ry)=  0.0110
                       cart. coord. in units 2pi/alat
        k(    1) = (   0.0000000   0.0000000   0.0000000), wk =   0.0555556
        k(    2) = (   0.0000000   0.0330404   0.0000000), wk =   0.1111111
        k(    3) = (   0.0000000   0.0660809   0.0000000), wk =   0.1111111
        k(    4) = (   0.0000000  -0.0991213   0.0000000), wk =   0.0555556
        k(    5) = (   0.0286139   0.0165202   0.0000000), wk =   0.1111111
        k(    6) = (   0.0286139   0.0495607   0.0000000), wk =   0.1111111
        k(    7) = (   0.0286139   0.0826011   0.0000000), wk =   0.1111111
        k(    8) = (   0.0286139  -0.0826011   0.0000000), wk =   0.1111111
        k(    9) = (   0.0286139  -0.0495607   0.0000000), wk =   0.1111111
        k(   10) = (   0.0286139  -0.0165202   0.0000000), wk =   0.1111111
        k(   11) = (   0.0572277   0.0330404   0.0000000), wk =   0.1111111
        k(   12) = (   0.0572277   0.0660809   0.0000000), wk =   0.1111111
        k(   13) = (   0.0572277   0.0991213   0.0000000), wk =   0.1111111
        k(   14) = (   0.0572277  -0.0660809   0.0000000), wk =   0.1111111
        k(   15) = (   0.0572277  -0.0330404   0.0000000), wk =   0.1111111
        k(   16) = (   0.0572277   0.0000000   0.0000000), wk =   0.1111111
        k(   17) = (  -0.0858416  -0.0495607   0.0000000), wk =   0.0555556
        k(   18) = (  -0.0858416  -0.0165202   0.0000000), wk =   0.1111111
        k(   19) = (  -0.0858416   0.0165202   0.0000000), wk =   0.1111111
        k(   20) = (  -0.0858416  -0.1486820   0.0000000), wk =   0.0555556

     Largest allocated arrays     est. size (Mb)     dimensions
     Largest temporary arrays     est. size (Mb)     dimensions

     Initial potential from superposition of free atoms
     Check: negative starting charge=   -0.376578

     starting charge  163.47529, renormalised to  165.00000

     negative rho (up, down):  3.801E-01 0.000E+00

     *
     * You are using vdW-DF for exchange-correlation in this calculation.
     * Please cite the following three references that made this development
     * possible:
     *
     *   M. Dion, H. Rydberg, E. Schroder, D. C. Langreth, and
     *   B. I. Lundqvist, Phys. Rev. Lett. 92, 246401 (2004).
     *
     *   T. Thonhauser, V. R. Cooper, S. Li, A. Puzder, P. Hyldgaard, and
     *   D. C. Langreth, Phys. Rev. B 76, 125112 (2007).
     *
     *   G. Roman-Perez and J. M. Soler, Phys. Rev. Lett. 103, 096102 (2009).
     *
     *
     * If you are using vdW-DF2, please also cite:
     *
     *   K. Lee, E. D. Murray, L. Kong, B. I. Lundqvist, and
     *   D. C. Langreth, Phys. Rev. B 82, 081101(R) (2010).
     *
     *
     * If you are calculating the stress with vdW-DF, please also cite:
     *
     *   R. Sabatini, E. Kucukbenli, B. Kolb, T. Thonhauser, and
     *   S. de Gironcoli, J. Phys.: Condens. Matter 24, 424209 (2012).
     *

     Carrying out vdW-DF run using the following parameters:

     Nqs =      20    Nr_points =    1024   r_max =   100.000
     q_mesh =
               0.00001000     0.04494208     0.09755937     0.15916263
               0.23128650     0.31572767     0.41458969     0.53033537
               0.66584808     0.82450364     1.01025438     1.22772762
               1.48234092     1.78043706     2.12944203     2.53805004
               3.01644009     3.57652955     4.23227104     5.00000000

     Gradients computed in reciprocal space

     Adding external electric field

     Computed dipole along edir(3) :
        Dipole                0.0000 Ry au,          0.0000 Debye
        Dipole field          0.0000 Ry au

        Potential amp.       -0.0000 Ry
        Total length         45.6122 bohr

     Starting wfc are  156 randomized atomic wfcs

     Self-consistent Calculation

     iteration #  1     ecut=    36.75 Ry     beta=0.10
     Davidson diagonalization with overlap
     ethr =  1.00E-02,  avg # of iterations =  2.0

[...]

     total energy              =   -1665.49773695 Ry
     Harris-Foulkes estimate   =   -1667.34419373 Ry
     estimated scf accuracy    <      10.56922442 Ry

[...]

     iteration # 11     ecut=    36.75 Ry     beta=0.10
     Davidson diagonalization with overlap
     c_bands:  2 eigenvalues not converged
     ethr =  2.79E-06,  avg # of iterations =  2.7

[...]

     End of self-consistent calculation

          k = 0.0000 0.0000 0.0000 ( 18511 PWs)   bands (ev):

   -83.9419 -83.6292 -83.6292 -52.9815 -52.9523 -52.8381 -52.8380 -52.8369
   -52.8298 -52.8298 -52.7340 -52.7340 -43.2216 -43.1874 -43.1873 -42.9156
   -42.9134 -42.8942 -42.8942 -42.8937 -42.8937 -29.5494 -29.4107 -29.3517
   -29.2540 -29.2489 -29.2489 -29.1987 -29.1987 -29.0920 -29.0920 -29.0679
   -28.9415 -28.9415 -28.8416 -28.8416 -28.7087 -28.6155 -28.6012 -28.5842
   -28.5842 -28.4817 -28.4350 -28.4350 -28.4299 -28.4299 -28.3969 -28.3969
    -4.2144  -2.8468  -2.6116  -2.0434  -2.0434  -1.9133  -1.7807  -1.6330
    -1.6330  -1.3641  -1.3641  -1.3290  -1.1868  -1.1868  -1.1011  -0.1396
    -0.1396   0.2016   0.6306   0.6306   0.7414   0.9446   1.2991   1.7823
     1.7823   1.8281   1.9632   1.9632   1.9897   1.9919   1.9919   2.1499
     2.1499   2.3794   2.3794   2.6175   3.0583   3.0976   3.2739   3.2739
     3.2743   3.2743   3.8884   3.8884   4.2025   4.2802   4.3978   4.3978
     4.6494   4.8817   4.8817   5.1026   5.1026   5.6404   5.6404   5.8433
     5.8433   6.0063   6.1871   6.1999   6.2379   6.2379   6.3318   6.3318

[...]

          k =-0.0858-0.0496 0.0000 ( 18412 PWs)   bands (ev):

[...]

     the Fermi energy is     2.1744 ev

!    total energy              =   -1666.01013253 Ry
     Harris-Foulkes estimate   =   -1666.01013124 Ry
     estimated scf accuracy    <       0.00000036 Ry

     The total energy is the sum of the following terms:

     one-electron contribution =  -13519.91947666 Ry
     hartree contribution      =    6750.33202246 Ry
     xc contribution           =    -287.22310326 Ry
     ewald contribution        =    5390.90977931 Ry
     electric field correction =       0.00000000 Ry
     smearing contrib. (-TS)   =      -0.10935439 Ry

     convergence has been achieved in  18 iterations

 BEEF-vdW xc energy contributions
           1 :   -248.425407218887
           2 :    227.663767256234
           3 :   -191.756581092220
           4 :    149.620713216109
           5 :   -110.226299566748
           6 :    79.7561922684095
[...]
     MD5 check sum: 573aab8a2fa660278ed4a62cd769473f
     Pseudo is Ultrasoft + core correction, Zval = 13.0
     Generated by new atomic code, or converted to UPF format
     Using radial grid of  887 points,  6 beta functions with:
                l(1) =   0
                l(2) =   0
                l(3) =   1
                l(4) =   1
                l(5) =   2
                l(6) =   2
     Q(r) pseudized with  6 coefficients,  rinner =    1.000   1.000   1.000
                                                       1.000   1.000

     PseudoPot. # 2 for Os read from file:
     /afs/slac.stanford.edu/u/if/mamunm/psp/gbrv1.5pbe/Os.UPF
     MD5 check sum: a3fb40a04f0c37c25c34bbc47164c9a8
     Pseudo is Ultrasoft + core correction, Zval = 16.0
     Generated by new atomic code, or converted to UPF format
     Using radial grid of  983 points,  8 beta functions with:
                l(1) =   0
                l(2) =   0
                l(3) =   1
                l(4) =   1
                l(5) =   2
                l(6) =   2
                l(7) =   3
                l(8) =   3
     Q(r) pseudized with  8 coefficients,  rinner =    1.150   1.150   1.150
                                                       1.150   1.150   1.150
                                                       1.150

     vdW kernel table read from file vdW_kernel_table
     MD5 check sum: 095c7af220d748ca6e76c0b4c6cfb241

     atomic species   valence    mass     pseudopotential
        Nb1           13.00    92.90637     Nb( 1.00)
        Os1           16.00   190.23000     Os( 1.00)

     No symmetry found

   Cartesian axes

     site n.     atom                  positions (alat units)
         1           Nb1 tau(   1) = (   0.0000000   0.0000000  10.0000000  )
         2           Nb1 tau(   2) = (  -1.4561708   2.5221618  10.0000000  )
         3           Nb1 tau(   3) = (   1.4561708   2.5221618  10.0000000  )
         4           Os1 tau(   4) = (   2.9123416   0.0000000  10.0000000  )
         5           Nb1 tau(   5) = (   2.9123416   1.6814412  12.3779170  )
         6           Nb1 tau(   6) = (   1.4561708   4.2036030  12.3779170  )
         7           Nb1 tau(   7) = (  -1.4561708   4.2036030  12.3779170  )
         8           Os1 tau(   8) = (   0.0000000   1.6814412  12.3779170  )
         9           Nb1 tau(   9) = (   0.0000025   3.3097195  14.7931542  )
        10           Nb1 tau(  10) = (   1.4101394   0.8673053  14.7931526  )
        11           Nb1 tau(  11) = (   4.4145477   0.8673062  14.7931569  )
        12           Os1 tau(  12) = (   2.9123711   3.3629127  14.6223605  )

     number of k points=    20  Fermi-Dirac smearing, width (Ry)=  0.0110
                       cart. coord. in units 2pi/alat
        k(    1) = (   0.0000000   0.0000000   0.0000000), wk =   0.0555556
        k(    2) = (   0.0000000   0.0330404   0.0000000), wk =   0.1111111
        k(    3) = (   0.0000000   0.0660809   0.0000000), wk =   0.1111111
        k(    4) = (   0.0000000  -0.0991213   0.0000000), wk =   0.0555556
        k(    5) = (   0.0286139   0.0165202   0.0000000), wk =   0.1111111
        k(    6) = (   0.0286139   0.0495607   0.0000000), wk =   0.1111111
        k(    7) = (   0.0286139   0.0826011   0.0000000), wk =   0.1111111
        k(    8) = (   0.0286139  -0.0826011   0.0000000), wk =   0.1111111
        k(    9) = (   0.0286139  -0.0495607   0.0000000), wk =   0.1111111
        k(   10) = (   0.0286139  -0.0165202   0.0000000), wk =   0.1111111
        k(   11) = (   0.0572277   0.0330404   0.0000000), wk =   0.1111111
        k(   12) = (   0.0572277   0.0660809   0.0000000), wk =   0.1111111
        k(   13) = (   0.0572277   0.0991213   0.0000000), wk =   0.1111111
        k(   14) = (   0.0572277  -0.0660809   0.0000000), wk =   0.1111111
        k(   15) = (   0.0572277  -0.0330404   0.0000000), wk =   0.1111111
        k(   16) = (   0.0572277   0.0000000   0.0000000), wk =   0.1111111
        k(   17) = (  -0.0858416  -0.0495607   0.0000000), wk =   0.0555556
        k(   18) = (  -0.0858416  -0.0165202   0.0000000), wk =   0.1111111
        k(   19) = (  -0.0858416   0.0165202   0.0000000), wk =   0.1111111
        k(   20) = (  -0.0858416  -0.1486820   0.0000000), wk =   0.0555556

     Largest allocated arrays     est. size (Mb)     dimensions
     Largest temporary arrays     est. size (Mb)     dimensions

     Initial potential from superposition of free atoms
     Check: negative starting charge=   -0.377315

     starting charge  163.47529, renormalised to  165.00000

[...]

     *
     * You are using vdW-DF for exchange-correlation in this calculation.
     * Please cite the following three references that made this development
     * possible:
     *
     *   M. Dion, H. Rydberg, E. Schroder, D. C. Langreth, and
     *   B. I. Lundqvist, Phys. Rev. Lett. 92, 246401 (2004).
     *
     *   T. Thonhauser, V. R. Cooper, S. Li, A. Puzder, P. Hyldgaard, and
     *   D. C. Langreth, Phys. Rev. B 76, 125112 (2007).
     *
     *   G. Roman-Perez and J. M. Soler, Phys. Rev. Lett. 103, 096102 (2009).
     *
     *
     * If you are using vdW-DF2, please also cite:
     *
     *   K. Lee, E. D. Murray, L. Kong, B. I. Lundqvist, and
     *   D. C. Langreth, Phys. Rev. B 82, 081101(R) (2010).
     *
     *
     * If you are calculating the stress with vdW-DF, please also cite:
     *
     *   R. Sabatini, E. Kucukbenli, B. Kolb, T. Thonhauser, and
     *   S. de Gironcoli, J. Phys.: Condens. Matter 24, 424209 (2012).
     *

     Carrying out vdW-DF run using the following parameters:

     Nqs =      20    Nr_points =    1024   r_max =   100.000
     q_mesh =
               0.00001000     0.04494208     0.09755937     0.15916263
               0.23128650     0.31572767     0.41458969     0.53033537
               0.66584808     0.82450364     1.01025438     1.22772762
               1.48234092     1.78043706     2.12944203     2.53805004
               3.01644009     3.57652955     4.23227104     5.00000000

     Gradients computed in reciprocal space

[...]

     Starting wfc are  156 randomized atomic wfcs

     Self-consistent Calculation

[...]

     total energy              =   -1666.02006675 Ry
     Harris-Foulkes estimate   =   -1666.02006725 Ry
     estimated scf accuracy    <       0.00000575 Ry

     iteration # 18     ecut=    36.75 Ry     beta=0.10
     Davidson diagonalization with overlap
     ethr =  1.26E-09,  avg # of iterations =  2.0

[...]

     negative rho (up, down):  3.754E-01 0.000E+00

     Adding external electric field

     Computed dipole along edir(3) :
        Dipole                0.0297 Ry au,          0.0756 Debye
        Dipole field          0.0001 Ry au

        Potential amp.       -0.0069 Ry
        Total length         45.6122 bohr

     End of self-consistent calculation

[...]

          k = 0.0572 0.0000 0.0000 ( 18477 PWs)   bands (ev):

[...]

          k =-0.0858-0.1487 0.0000 ( 18412 PWs)   bands (ev):

   -83.9030 -83.6106 -83.5961 -52.8937 -52.8812 -52.8504 -52.8276 -52.7981
   -52.7887 -52.7615 -52.7390 -52.7000 -43.1807 -43.1488 -43.1467 -42.9084
   -42.8873 -42.8819 -42.8798 -42.8562 -42.8541 -29.2902 -29.2733 -29.1994
   -29.1549 -29.0867 -29.0672 -29.0382 -29.0177 -28.9552 -28.9435 -28.9401
   -28.8978 -28.8700 -28.8164 -28.8097 -28.8009 -28.7691 -28.7416 -28.7061
   -28.6757 -28.6664 -28.5619 -28.5158 -28.5112 -28.4372 -28.4085 -28.3759
    -2.7642  -2.4615  -1.6530  -1.3215  -1.1938  -1.0016  -0.9133  -0.8728
    -0.8391  -0.6022  -0.4853  -0.4769  -0.2456  -0.1738  -0.1265   0.0109
     0.1498   0.3104   0.3794   0.5058   0.6988   0.7908   0.8020   0.9080
     0.9750   0.9835   1.3725   1.4209   1.5833   1.5950   1.7614   1.7901
     1.8898   1.9390   1.9985   1.9990   2.1036   2.1586   2.5607   2.6640
     2.7604   3.0414   3.1820   3.2911   3.4297   3.4825   3.5958   3.7717
     3.7737   4.0586   4.1038   4.2484   4.2878   4.4305   4.5753   4.7525
     4.8642   5.0294   5.1510   5.2918   5.6889   5.9002   6.0496   6.1469

     the Fermi energy is     2.2209 ev

!    total energy              =   -1666.02006853 Ry
     Harris-Foulkes estimate   =   -1666.02006694 Ry
     estimated scf accuracy    <       0.00000039 Ry

     The total energy is the sum of the following terms:

     one-electron contribution =  -13543.29753538 Ry
     hartree contribution      =    6762.18375553 Ry
     xc contribution           =    -287.24288277 Ry
     ewald contribution        =    5402.44377940 Ry
     electric field correction =       0.00000226 Ry
     smearing contrib. (-TS)   =      -0.10718758 Ry

     convergence has been achieved in  18 iterations

 BEEF-vdW xc energy contributions
           1 :   -248.529041501466
           2 :    227.776265581000
           3 :   -191.882080122998
           4 :    149.755464783341
           5 :   -110.357741816725
           6 :    79.8652455753851
           7 :   -60.3202479145458
           8 :    49.9845553220717
           9 :   -44.9478511274110
          10 :    41.1097735290264
          11 :   -35.7355794245979
          12 :    28.0900692525782
          13 :   -19.1322976970682
          14 :    10.5919743124412
          15 :   -3.94730206426021
          16 :  -0.245429498847614
          17 :    2.43319871885990
          18 :   -3.64136061029467
          19 :    4.84109663024515
          20 :   -6.47169215816916
          21 :    8.32797746705648
          22 :   -9.80733465348044
          23 :    10.3205430911385
          24 :   -9.63364234376149
          25 :    7.97720119870064
          26 :   -5.90893858548407
          27 :    4.03174123849556
          28 :   -2.72770729764079
          29 :    2.03430732573037
          30 :   -1.70591137551321
          31 :   -26.5242731445342
          32 :   -20.0990855065093

     Forces acting on atoms (Ry/au):

     negative rho (up, down):  3.754E-01 0.000E+00
     atom    1 type  1   force =     0.00000050    0.02177966   -0.00950366
     atom    2 type  1   force =     0.01886146   -0.01088977   -0.00950328
     atom    3 type  1   force =    -0.01886141   -0.01089031   -0.00950433
     atom    4 type  2   force =    -0.00000355    0.00000047    0.02236353
     atom    5 type  1   force =    -0.00000002   -0.00927108    0.00223976
     atom    6 type  1   force =    -0.00802902    0.00463554    0.00224065
     atom    7 type  1   force =     0.00802805    0.00463478    0.00223853
     atom    8 type  2   force =    -0.00000011    0.00000019    0.00067909
     atom    9 type  1   force =     0.00000188    0.00008897   -0.00023826
     atom   10 type  1   force =     0.00007747   -0.00004237   -0.00023803
     atom   11 type  1   force =    -0.00007693   -0.00004423   -0.00023899
     atom   12 type  2   force =     0.00000168   -0.00000185   -0.00053501

     Total force =     0.049679     Total SCF correction =     0.004723

     entering subroutine stress ...

     negative rho (up, down):  3.754E-01 0.000E+00
          total   stress  (Ry/bohr**3)                   (kbar)     P=  -28.23
  -0.00028660  -0.00000000   0.00000000        -42.16     -0.00      0.00
  -0.00000000  -0.00028659   0.00000000         -0.00    -42.16      0.00
   0.00000000   0.00000000  -0.00000256          0.00      0.00     -0.38

 !ASE

     Writing output data file calc.save

     General routines

     Parallel routines

   This run was terminated on:   6:23:28  27Dec2018

   JOB DONE.
Job  /afs/slac/g/suncat/bin/suncat-tsmpirun -x LD_LIBRARY_PATH -wdir /scratch/qe110198_Usy4J pw.x -in pw.inp

TID   HOST_NAME   COMMAND_LINE            STATUS            TERMINATION_TIME
00000 suncat0014 pw.x -in pw.inp   Done                     12/27/2018 06:23:28
00001 suncat0014 pw.x -in pw.inp   Done                     12/27/2018 06:23:28
00002 suncat0014 pw.x -in pw.inp   Done                     12/27/2018 06:23:28
00003 suncat0014 pw.x -in pw.inp   Done                     12/27/2018 06:23:28
00004 suncat0014 pw.x -in pw.inp   Done                     12/27/2018 06:23:28
00005 suncat0014 pw.x -in pw.inp   Done                     12/27/2018 06:23:28
00006 suncat0014 pw.x -in pw.inp   Done                     12/27/2018 06:23:28
00007 suncat0014 pw.x -in pw.inp   Done                     12/27/2018 06:23:28
00008 suncat0198 pw.x -in pw.inp   Done                     12/27/2018 06:23:28
00009 suncat0198 pw.x -in pw.inp   Done                     12/27/2018 06:23:28
00010 suncat0198 pw.x -in pw.inp   Done                     12/27/2018 06:23:28
00011 suncat0198 pw.x -in pw.inp   Done                     12/27/2018 06:23:28
00012 suncat0198 pw.x -in pw.inp   Done                     12/27/2018 06:23:28
00013 suncat0198 pw.x -in pw.inp   Done                     12/27/2018 06:23:28
00014 suncat0198 pw.x -in pw.inp   Done                     12/27/2018 06:23:28
00015 suncat0198 pw.x -in pw.inp   Done                     12/27/2018 06:23:28
00016 suncat0193 pw.x -in pw.inp   Done                     12/27/2018 06:23:28
00017 suncat0193 pw.x -in pw.inp   Done                     12/27/2018 06:23:28
00018 suncat0193 pw.x -in pw.inp   Done                     12/27/2018 06:23:28
00019 suncat0193 pw.x -in pw.inp   Done                     12/27/2018 06:23:28
00020 suncat0193 pw.x -in pw.inp   Done                     12/27/2018 06:23:28
00021 suncat0193 pw.x -in pw.inp   Done                     12/27/2018 06:23:28
00022 suncat0193 pw.x -in pw.inp   Done                     12/27/2018 06:23:28
00023 suncat0193 pw.x -in pw.inp   Done                     12/27/2018 06:23:28
00024 suncat0192 pw.x -in pw.inp   Done                     12/27/2018 06:23:28
00025 suncat0192 pw.x -in pw.inp   Done                     12/27/2018 06:23:28
00026 suncat0192 pw.x -in pw.inp   Done                     12/27/2018 06:23:28
00027 suncat0192 pw.x -in pw.inp   Done                     12/27/2018 06:23:28
00028 suncat0192 pw.x -in pw.inp   Done                     12/27/2018 06:23:28
00029 suncat0192 pw.x -in pw.inp   Done                     12/27/2018 06:23:28
00030 suncat0192 pw.x -in pw.inp   Done                     12/27/2018 06:23:28
00031 suncat0192 pw.x -in pw.inp   Done                     12/27/2018 06:23:28
00032 suncat0155 pw.x -in pw.inp   Done                     12/27/2018 06:23:28
00033 suncat0155 pw.x -in pw.inp   Done                     12/27/2018 06:23:28
00034 suncat0155 pw.x -in pw.inp   Done                     12/27/2018 06:23:28
00035 suncat0155 pw.x -in pw.inp   Done                     12/27/2018 06:23:28
00036 suncat0155 pw.x -in pw.inp   Done                     12/27/2018 06:23:28
00037 suncat0155 pw.x -in pw.inp   Done                     12/27/2018 06:23:28
00038 suncat0155 pw.x -in pw.inp   Done                     12/27/2018 06:23:28
00039 suncat0155 pw.x -in pw.inp   Done                     12/27/2018 06:23:28
00040 suncat0154 pw.x -in pw.inp   Done                     12/27/2018 06:23:28
00041 suncat0154 pw.x -in pw.inp   Done                     12/27/2018 06:23:28
00042 suncat0154 pw.x -in pw.inp   Done                     12/27/2018 06:23:28
00043 suncat0154 pw.x -in pw.inp   Done                     12/27/2018 06:23:28
00044 suncat0154 pw.x -in pw.inp   Done                     12/27/2018 06:23:28
00045 suncat0154 pw.x -in pw.inp   Done                     12/27/2018 06:23:28
00046 suncat0154 pw.x -in pw.inp   Done                     12/27/2018 06:23:28
00047 suncat0154 pw.x -in pw.inp   Done                     12/27/2018 06:23:28
00048 suncat0209 pw.x -in pw.inp   Done                     12/27/2018 06:23:28
00049 suncat0209 pw.x -in pw.inp   Done                     12/27/2018 06:23:28
00050 suncat0209 pw.x -in pw.inp   Done                     12/27/2018 06:23:28
00051 suncat0209 pw.x -in pw.inp   Done                     12/27/2018 06:23:28
00052 suncat0209 pw.x -in pw.inp   Done                     12/27/2018 06:23:28
00053 suncat0209 pw.x -in pw.inp   Done                     12/27/2018 06:23:28
00054 suncat0209 pw.x -in pw.inp   Done                     12/27/2018 06:23:28
00055 suncat0209 pw.x -in pw.inp   Done                     12/27/2018 06:23:28
00056 suncat0203 pw.x -in pw.inp   Done                     12/27/2018 06:23:28
00057 suncat0203 pw.x -in pw.inp   Done                     12/27/2018 06:23:28
00058 suncat0203 pw.x -in pw.inp   Done                     12/27/2018 06:23:28
00059 suncat0203 pw.x -in pw.inp   Done                     12/27/2018 06:23:28
00060 suncat0203 pw.x -in pw.inp   Done                     12/27/2018 06:23:28
00061 suncat0203 pw.x -in pw.inp   Done                     12/27/2018 06:23:28
00062 suncat0203 pw.x -in pw.inp   Done                     12/27/2018 06:23:28
00063 suncat0203 pw.x -in pw.inp   Done                     12/27/2018 06:23:28