     Program PWSCF v.5.1rc2 (svn rev. 11289) starts on 26Dec2018 at  9:58:41

     Current dimensions of program PWSCF are:
     Max number of different atomic species (ntypx) = 10
     Max number of k-points (npk) =  40000
     Max angular momentum in pseudopotentials (lmaxx) =  3
     Presently stress not available with electric field

     IMPORTANT: XC functional enforced from input :
     Exchange-correlation      = BEEF-VDW ( 1  4 27 13 2)
     Any further DFT definition will be discarded
     Please, verify this is what you really want

     Subspace diagonalization in iterative solution of the eigenvalue problem:
     a serial algorithm will be used

     bravais-lattice index     =            0
     lattice parameter (alat)  =       1.8897  a.u.
     unit-cell volume          =    5745.5085 (a.u.)^3
     number of atoms/cell      =           12
     number of atomic types    =            2
     number of electrons       =       156.00
     number of Kohn-Sham states=          108
     kinetic-energy cutoff     =      36.7493  Ry
     charge density cutoff     =     367.4932  Ry
     convergence threshold     =      1.0E-06
     mixing beta               =       0.1000
     number of iterations used =           10  plain     mixing
     Exchange-correlation      = BEEF-VDW ( 1  4 27 13 2)
     nstep                     =           50

     celldm(1)=   1.889726  celldm(2)=   0.000000  celldm(3)=   0.000000
     celldm(4)=   0.000000  celldm(5)=   0.000000  celldm(6)=   0.000000

     crystal axes: (cart. coord. in units of alat)
               a(1) = (   6.257279   0.000000   0.000000 )
               a(2) = (  -3.128639   5.418962   0.000000 )
               a(3) = (   0.000000   0.000000  25.109047 )

     reciprocal axes: (cart. coord. in units 2 pi/alat)
               b(1) = (  0.159814  0.092269  0.000000 )
               b(2) = (  0.000000  0.184537  0.000000 )
               b(3) = (  0.000000  0.000000  0.039826 )

     PseudoPot. # 1 for Hg read from file:
     /afs/slac.stanford.edu/u/if/mamunm/psp/gbrv1.5pbe/Hg.UPF
     MD5 check sum: 8f42caffe07f7fd9c0a564347f8c5498
     Pseudo is Ultrasoft + core correction, Zval = 12.0
     Generated by new atomic code, or converted to UPF format
     Using radial grid of  985 points,  6 beta functions with:
                l(1) =   0
                l(2) =   0
                l(3) =   1
                l(4) =   1
                l(5) =   2
                l(6) =   2
     Q(r) pseudized with  8 coefficients,  rinner =    2.000   2.000   2.000
                                                       2.000   2.000

     PseudoPot. # 2 for Pd read from file:
     /afs/slac.stanford.edu/u/if/mamunm/psp/gbrv1.5pbe/Pd.UPF
     MD5 check sum: 2d733d2bc2cbfd217af676df1668a4bc
     Pseudo is Ultrasoft + core correction, Zval = 16.0
     Generated by new atomic code, or converted to UPF format
     Using radial grid of  887 points,  6 beta functions with:
                l(1) =   0
                l(2) =   0
                l(3) =   1
                l(4) =   1
                l(5) =   2
                l(6) =   2
     Q(r) pseudized with  8 coefficients,  rinner =    1.130   1.130   1.130
                                                       1.130   1.130

     vdW kernel table read from file vdW_kernel_table
     MD5 check sum: 095c7af220d748ca6e76c0b4c6cfb241

     atomic species   valence    mass     pseudopotential
        Hg1           12.00   200.59200     Hg( 1.00)
        Pd1           16.00   106.42000     Pd( 1.00)

     No symmetry found

   Cartesian axes

     site n.     atom                  positions (alat units)
         1           Hg1 tau(   1) = (   0.0000000   0.0000000  10.0000000  )
         2           Hg1 tau(   2) = (  -1.5643197   2.7094812  10.0000000  )
         3           Hg1 tau(   3) = (   1.5643197   2.7094812  10.0000000  )
         4           Pd1 tau(   4) = (   3.1286394   0.0000000  10.0000000  )
         5           Hg1 tau(   5) = (   3.1286394   1.8063208  12.5545234  )
         6           Hg1 tau(   6) = (   1.5643197   4.5158020  12.5545234  )
         7           Hg1 tau(   7) = (  -1.5643197   4.5158020  12.5545234  )
         8           Pd1 tau(   8) = (  -0.0000000   1.8063208  12.5545234  )
         9           Hg1 tau(   9) = (  -0.0000000   3.6126416  15.1090467  )
        10           Hg1 tau(  10) = (   1.5643197   0.9031604  15.1090467  )
        11           Hg1 tau(  11) = (   4.6929591   0.9031604  15.1090467  )
        12           Pd1 tau(  12) = (   3.1286394   3.6126416  15.1090467  )

     number of k points=    20  Fermi-Dirac smearing, width (Ry)=  0.0110
                       cart. coord. in units 2pi/alat
        k(    1) = (   0.0000000   0.0000000   0.0000000), wk =   0.0555556
        k(    2) = (   0.0000000   0.0307562   0.0000000), wk =   0.1111111
        k(    3) = (   0.0000000   0.0615124   0.0000000), wk =   0.1111111
        k(    4) = (   0.0000000  -0.0922686   0.0000000), wk =   0.0555556
        k(    5) = (   0.0266356   0.0153781   0.0000000), wk =   0.1111111
        k(    6) = (   0.0266356   0.0461343   0.0000000), wk =   0.1111111
        k(    7) = (   0.0266356   0.0768905   0.0000000), wk =   0.1111111
        k(    8) = (   0.0266356  -0.0768905   0.0000000), wk =   0.1111111
        k(    9) = (   0.0266356  -0.0461343   0.0000000), wk =   0.1111111
        k(   10) = (   0.0266356  -0.0153781   0.0000000), wk =   0.1111111
        k(   11) = (   0.0532713   0.0307562   0.0000000), wk =   0.1111111
        k(   12) = (   0.0532713   0.0615124   0.0000000), wk =   0.1111111
        k(   13) = (   0.0532713   0.0922686   0.0000000), wk =   0.1111111
        k(   14) = (   0.0532713  -0.0615124   0.0000000), wk =   0.1111111
        k(   15) = (   0.0532713  -0.0307562   0.0000000), wk =   0.1111111
        k(   16) = (   0.0532713   0.0000000   0.0000000), wk =   0.1111111
        k(   17) = (  -0.0799069  -0.0461343   0.0000000), wk =   0.0555556
        k(   18) = (  -0.0799069  -0.0153781   0.0000000), wk =   0.1111111
        k(   19) = (  -0.0799069   0.0153781   0.0000000), wk =   0.1111111
        k(   20) = (  -0.0799069  -0.1384029   0.0000000), wk =   0.0555556

     Largest allocated arrays     est. size (Mb)     dimensions
     Largest temporary arrays     est. size (Mb)     dimensions

     Initial potential from superposition of free atoms
     Check: negative starting charge=   -0.228241

     starting charge  154.49946, renormalised to  156.00000

     negative rho (up, down):  2.305E-01 0.000E+00

     *
     * You are using vdW-DF for exchange-correlation in this calculation.
     * Please cite the following three references that made this development
     * possible:
     *
     *   M. Dion, H. Rydberg, E. Schroder, D. C. Langreth, and
     *   B. I. Lundqvist, Phys. Rev. Lett. 92, 246401 (2004).
     *
     *   T. Thonhauser, V. R. Cooper, S. Li, A. Puzder, P. Hyldgaard, and
     *   D. C. Langreth, Phys. Rev. B 76, 125112 (2007).
     *
     *   G. Roman-Perez and J. M. Soler, Phys. Rev. Lett. 103, 096102 (2009).
     *
     *
     * If you are using vdW-DF2, please also cite:
     *
     *   K. Lee, E. D. Murray, L. Kong, B. I. Lundqvist, and
     *   D. C. Langreth, Phys. Rev. B 82, 081101(R) (2010).
     *
     *
     * If you are calculating the stress with vdW-DF, please also cite:
     *
     *   R. Sabatini, E. Kucukbenli, B. Kolb, T. Thonhauser, and
     *   S. de Gironcoli, J. Phys.: Condens. Matter 24, 424209 (2012).
     *

     Carrying out vdW-DF run using the following parameters:

     Nqs =      20    Nr_points =    1024   r_max =   100.000
     q_mesh =
               0.00001000     0.04494208     0.09755937     0.15916263
               0.23128650     0.31572767     0.41458969     0.53033537
               0.66584808     0.82450364     1.01025438     1.22772762
               1.48234092     1.78043706     2.12944203     2.53805004
               3.01644009     3.57652955     4.23227104     5.00000000

     Gradients computed in reciprocal space

     Adding external electric field

     Computed dipole along edir(3) :
        Dipole                0.0000 Ry au,          0.0000 Debye
        Dipole field          0.0000 Ry au

        Potential amp.       -0.0000 Ry
        Total length         46.2630 bohr

     Starting wfc are  117 randomized atomic wfcs

     Self-consistent Calculation

     iteration #  1     ecut=    36.75 Ry     beta=0.10
     Davidson diagonalization with overlap
     ethr =  1.00E-02,  avg # of iterations =  8.2

     Threshold (ethr) on eigenvalues was too large:
     Diagonalizing with lowered threshold

     Davidson diagonalization with overlap
     ethr =  4.30E-04,  avg # of iterations =  2.9

[...]

     total energy              =   -1581.29511424 Ry
     Harris-Foulkes estimate   =   -1581.39822195 Ry
     estimated scf accuracy    <       0.70973291 Ry

[...]

     End of self-consistent calculation

          k = 0.0000 0.0000 0.0000 ( 21655 PWs)   bands (ev):

   -48.8913 -48.8913 -48.8155 -48.7902 -48.7902 -48.7900 -48.7900 -48.6382
   -48.6381  -8.0631  -7.6022  -7.4998  -7.4898  -7.4897  -7.3967  -7.3644
    -7.2913  -7.2913  -7.2294  -7.1254  -7.1253  -7.0467  -7.0467  -6.8149
    -6.7927  -6.7916  -6.7916  -6.6581  -6.5060  -6.5060  -6.4494  -6.3813
    -6.3546  -6.3544  -6.2983  -6.2982  -6.1138  -6.1138  -6.0397  -6.0397
    -5.9957  -5.9373  -5.9373  -5.8993  -5.8993  -5.8951  -5.8951  -5.7004
    -5.7004  -5.6495  -5.6347  -5.5606  -5.5072  -5.5072  -5.3080  -5.2965
    -3.4458  -2.3217  -2.3217  -1.9458  -1.9458  -1.6284  -1.6284  -1.4580
    -1.2766  -1.1655  -1.1655  -1.0692  -1.0692  -0.9176  -0.9176  -0.6677
    -0.2716  -0.1092  -0.1091   0.0688   0.0688   0.4746   0.6807   0.7724
     0.7724   0.9948   1.0302   1.0302   2.4385   2.4386   2.7440   3.0040
     3.0041   3.9252   3.9827   4.5984   4.6322   4.8977   5.8556   5.9975
     6.6105   6.6105   6.6514   6.6515   7.1169   7.4546   7.7364   8.0434
     8.5094   8.5097   8.5870   8.7494

[...]

          k =-0.0799-0.0461 0.0000 ( 21600 PWs)   bands (ev):

[...]

     the Fermi energy is     0.5268 ev

!    total energy              =   -1581.22363995 Ry
     Harris-Foulkes estimate   =   -1581.22363577 Ry
     estimated scf accuracy    <       0.00000097 Ry

     The total energy is the sum of the following terms:

     one-electron contribution =  -10273.07241470 Ry
     hartree contribution      =    5217.08055632 Ry
     xc contribution           =    -461.69141907 Ry
     ewald contribution        =    3936.49014235 Ry
     electric field correction =       0.00000000 Ry
     smearing contrib. (-TS)   =      -0.03050486 Ry

     convergence has been achieved in  13 iterations

 BEEF-vdW xc energy contributions
           1 :   -404.109109346378
           2 :    371.158241539813
           3 :   -314.257816771578
           4 :    247.540202807752
           5 :   -184.902507494890
           6 :    135.626402656695
           7 :   -102.503120896585
           8 :    82.7246372230473
           9 :   -70.6705336400712
          10 :    61.0507514361592
          11 :   -50.9793271503823
[...]
     Pseudo is Ultrasoft + core correction, Zval = 12.0
     Generated by new atomic code, or converted to UPF format
     Using radial grid of  985 points,  6 beta functions with:
                l(1) =   0
                l(2) =   0
                l(3) =   1
                l(4) =   1
                l(5) =   2
                l(6) =   2
     Q(r) pseudized with  8 coefficients,  rinner =    2.000   2.000   2.000
                                                       2.000   2.000

     PseudoPot. # 2 for Pd read from file:
     /afs/slac.stanford.edu/u/if/mamunm/psp/gbrv1.5pbe/Pd.UPF
     MD5 check sum: 2d733d2bc2cbfd217af676df1668a4bc
     Pseudo is Ultrasoft + core correction, Zval = 16.0
     Generated by new atomic code, or converted to UPF format
     Using radial grid of  887 points,  6 beta functions with:
                l(1) =   0
                l(2) =   0
                l(3) =   1
                l(4) =   1
                l(5) =   2
                l(6) =   2
     Q(r) pseudized with  8 coefficients,  rinner =    1.130   1.130   1.130
                                                       1.130   1.130

     vdW kernel table read from file vdW_kernel_table
     MD5 check sum: 095c7af220d748ca6e76c0b4c6cfb241

     atomic species   valence    mass     pseudopotential
        Hg1           12.00   200.59200     Hg( 1.00)
        Pd1           16.00   106.42000     Pd( 1.00)

     No symmetry found

   Cartesian axes

     site n.     atom                  positions (alat units)
         1           Hg1 tau(   1) = (   0.0000000   0.0000000  10.0000000  )
         2           Hg1 tau(   2) = (  -1.5643197   2.7094812  10.0000000  )
         3           Hg1 tau(   3) = (   1.5643197   2.7094812  10.0000000  )
         4           Pd1 tau(   4) = (   3.1286394   0.0000000  10.0000000  )
         5           Hg1 tau(   5) = (   3.1286394   1.8063208  12.5545234  )
         6           Hg1 tau(   6) = (   1.5643197   4.5158020  12.5545234  )
         7           Hg1 tau(   7) = (  -1.5643197   4.5158020  12.5545234  )
         8           Pd1 tau(   8) = (  -0.0000000   1.8063208  12.5545234  )
         9           Hg1 tau(   9) = (  -0.0000078   3.5974087  15.5187663  )
        10           Hg1 tau(  10) = (   1.5511027   0.9107968  15.5187082  )
        11           Hg1 tau(  11) = (   4.7061893   0.9107715  15.5187447  )
        12           Pd1 tau(  12) = (   3.1286419   3.6126143  14.7785383  )

     number of k points=    20  Fermi-Dirac smearing, width (Ry)=  0.0110
                       cart. coord. in units 2pi/alat
        k(    1) = (   0.0000000   0.0000000   0.0000000), wk =   0.0555556
        k(    2) = (   0.0000000   0.0307562   0.0000000), wk =   0.1111111
        k(    3) = (   0.0000000   0.0615124   0.0000000), wk =   0.1111111
        k(    4) = (   0.0000000  -0.0922686   0.0000000), wk =   0.0555556
        k(    5) = (   0.0266356   0.0153781   0.0000000), wk =   0.1111111
        k(    6) = (   0.0266356   0.0461343   0.0000000), wk =   0.1111111
        k(    7) = (   0.0266356   0.0768905   0.0000000), wk =   0.1111111
        k(    8) = (   0.0266356  -0.0768905   0.0000000), wk =   0.1111111
        k(    9) = (   0.0266356  -0.0461343   0.0000000), wk =   0.1111111
        k(   10) = (   0.0266356  -0.0153781   0.0000000), wk =   0.1111111
        k(   11) = (   0.0532713   0.0307562   0.0000000), wk =   0.1111111
        k(   12) = (   0.0532713   0.0615124   0.0000000), wk =   0.1111111
        k(   13) = (   0.0532713   0.0922686   0.0000000), wk =   0.1111111
        k(   14) = (   0.0532713  -0.0615124   0.0000000), wk =   0.1111111
        k(   15) = (   0.0532713  -0.0307562   0.0000000), wk =   0.1111111
        k(   16) = (   0.0532713   0.0000000   0.0000000), wk =   0.1111111
        k(   17) = (  -0.0799069  -0.0461343   0.0000000), wk =   0.0555556
        k(   18) = (  -0.0799069  -0.0153781   0.0000000), wk =   0.1111111
        k(   19) = (  -0.0799069   0.0153781   0.0000000), wk =   0.1111111
        k(   20) = (  -0.0799069  -0.1384029   0.0000000), wk =   0.0555556

     Largest allocated arrays     est. size (Mb)     dimensions
     Largest temporary arrays     est. size (Mb)     dimensions

     Initial potential from superposition of free atoms
     Check: negative starting charge=   -0.228042

     starting charge  154.49946, renormalised to  156.00000

[...]

     *
     * You are using vdW-DF for exchange-correlation in this calculation.
     * Please cite the following three references that made this development
     * possible:
     *
     *   M. Dion, H. Rydberg, E. Schroder, D. C. Langreth, and
     *   B. I. Lundqvist, Phys. Rev. Lett. 92, 246401 (2004).
     *
     *   T. Thonhauser, V. R. Cooper, S. Li, A. Puzder, P. Hyldgaard, and
     *   D. C. Langreth, Phys. Rev. B 76, 125112 (2007).
     *
     *   G. Roman-Perez and J. M. Soler, Phys. Rev. Lett. 103, 096102 (2009).
     *
     *
     * If you are using vdW-DF2, please also cite:
     *
     *   K. Lee, E. D. Murray, L. Kong, B. I. Lundqvist, and
     *   D. C. Langreth, Phys. Rev. B 82, 081101(R) (2010).
     *
     *
     * If you are calculating the stress with vdW-DF, please also cite:
     *
     *   R. Sabatini, E. Kucukbenli, B. Kolb, T. Thonhauser, and
     *   S. de Gironcoli, J. Phys.: Condens. Matter 24, 424209 (2012).
     *

     Carrying out vdW-DF run using the following parameters:

     Nqs =      20    Nr_points =    1024   r_max =   100.000
     q_mesh =
               0.00001000     0.04494208     0.09755937     0.15916263
               0.23128650     0.31572767     0.41458969     0.53033537
               0.66584808     0.82450364     1.01025438     1.22772762
               1.48234092     1.78043706     2.12944203     2.53805004
               3.01644009     3.57652955     4.23227104     5.00000000

     Gradients computed in reciprocal space

[...]

     Starting wfc are  117 randomized atomic wfcs

     Self-consistent Calculation

[...]

     Threshold (ethr) on eigenvalues was too large:
     Diagonalizing with lowered threshold

     Davidson diagonalization with overlap
     ethr =  7.99E-04,  avg # of iterations =  1.2

[...]

     total energy              =   -1581.25360754 Ry
     Harris-Foulkes estimate   =   -1581.25360600 Ry
     estimated scf accuracy    <       0.00000123 Ry

     iteration # 15     ecut=    36.75 Ry     beta=0.10
     Davidson diagonalization with overlap
     ethr =  7.86E-10,  avg # of iterations =  2.0

[...]

     negative rho (up, down):  2.346E-01 0.000E+00

     Adding external electric field

     Computed dipole along edir(3) :
        Dipole                0.0583 Ry au,          0.1482 Debye
        Dipole field          0.0001 Ry au

        Potential amp.       -0.0118 Ry
        Total length         46.2630 bohr

     End of self-consistent calculation

[...]

          k = 0.0533 0.0000 0.0000 ( 21631 PWs)   bands (ev):

[...]

          k =-0.0799-0.1384 0.0000 ( 21600 PWs)   bands (ev):

   -48.8870 -48.8870 -48.8733 -48.7531 -48.7531 -48.7195 -48.7195 -48.6115
   -48.6035  -7.3928  -7.1846  -7.1138  -7.0063  -6.9176  -6.8768  -6.8544
    -6.8282  -6.8085  -6.7777  -6.7029  -6.6944  -6.6623  -6.5512  -6.5359
    -6.4656  -6.4022  -6.4012  -6.3610  -6.3098  -6.3000  -6.2789  -6.2097
    -6.2042  -6.1901  -6.1605  -6.1520  -6.1432  -6.1196  -6.0950  -6.0789
    -6.0541  -6.0413  -6.0149  -5.9952  -5.9892  -5.9640  -5.8947  -5.8796
    -5.7819  -5.7256  -5.7040  -5.6942  -5.6534  -5.4996  -5.4177  -5.3703
    -4.2710  -4.1102  -3.3126  -2.5849  -2.5312  -1.8373  -1.6670  -1.5305
    -1.4354  -1.3688  -1.3590  -1.2938  -1.2275  -1.2256  -1.1987  -0.9961
    -0.9293  -0.8998  -0.6202  -0.3988  -0.1956   0.2354   0.8038   0.8755
     1.9740   2.3141   2.5982   3.9720   4.1616   4.2819   4.3779   4.5664
     4.8288   4.9038   5.3863   5.5245   5.6113   5.7081   5.8941   6.0480
     6.0866   6.5462   6.8018   6.9081   6.9092   6.9768   7.0108   7.1082
     7.3053   7.4720   7.6991   7.7185

     the Fermi energy is     0.5845 ev

!    total energy              =   -1581.25361129 Ry
     Harris-Foulkes estimate   =   -1581.25360834 Ry
     estimated scf accuracy    <       0.00000029 Ry

     The total energy is the sum of the following terms:

     one-electron contribution =   -9988.01186198 Ry
     hartree contribution      =    5075.06846538 Ry
     xc contribution           =    -461.59007058 Ry
     ewald contribution        =    3793.30773389 Ry
     electric field correction =       0.00000743 Ry
     smearing contrib. (-TS)   =      -0.02788543 Ry

     convergence has been achieved in  15 iterations

 BEEF-vdW xc energy contributions
           1 :   -404.029540658081
           2 :    370.936302076654
           3 :   -313.878963418710
           4 :    247.141421891458
           5 :   -184.676972100645
           6 :    135.682394731055
           7 :   -102.777490297003
           8 :    83.0148419265980
           9 :   -70.7676916060215
          10 :    60.8829979176088
          11 :   -50.6654732683880
          12 :    40.0800472238889
          13 :   -30.5646668153638
          14 :    23.4547789061180
          15 :   -18.9865970615242
          16 :    16.2825873606746
          17 :   -14.0693531483078
          18 :    11.5125317857800
          19 :   -8.62521109992622
          20 :    6.06436282444838
          21 :   -4.53846178111019
          22 :    4.25534932580399
          23 :   -4.76070379365854
          24 :    5.22600990094065
          25 :   -4.95940158861981
          26 :    3.80070121812298
          27 :   -2.17334596291983
          28 :   0.793362459366449
          29 :  -0.237784047476225
          30 :   0.630734133031410
          31 :   -37.8988493231475
          32 :   -27.8330061671663

     Forces acting on atoms (Ry/au):

     negative rho (up, down):  2.346E-01 0.000E+00
     atom    1 type  1   force =    -0.00000003    0.00897586   -0.02091585
     atom    2 type  1   force =     0.00777560   -0.00448952   -0.02091315
     atom    3 type  1   force =    -0.00777590   -0.00448990   -0.02091343
     atom    4 type  2   force =     0.00000020    0.00000494    0.02585157
     atom    5 type  1   force =     0.00000047   -0.01629759    0.01145565
     atom    6 type  1   force =    -0.01411302    0.00814729    0.01145702
     atom    7 type  1   force =     0.01411259    0.00814725    0.01145705
     atom    8 type  2   force =     0.00000007   -0.00000342    0.00199947
     atom    9 type  1   force =    -0.00000061   -0.00009000   -0.00003294
     atom   10 type  1   force =    -0.00007530    0.00004736   -0.00003353
     atom   11 type  1   force =     0.00007580    0.00004751   -0.00003351
     atom   12 type  2   force =     0.00000012    0.00000021    0.00062165

     Total force =     0.058457     Total SCF correction =     0.002281

     entering subroutine stress ...

     negative rho (up, down):  2.346E-01 0.000E+00
          total   stress  (Ry/bohr**3)                   (kbar)     P=   -2.95
  -0.00004514  -0.00000000  -0.00000000         -6.64     -0.00     -0.00
  -0.00000000  -0.00004514   0.00000000         -0.00     -6.64      0.00
  -0.00000000   0.00000000   0.00003004         -0.00      0.00      4.42

 !ASE

     Writing output data file calc.save

     General routines

     Parallel routines

   This run was terminated on:  12:50:12  26Dec2018

   JOB DONE.
Job  /afs/slac/g/suncat/bin/suncat-tsmpirun -x LD_LIBRARY_PATH -wdir /scratch/qe109822_edXBZ pw.x -in pw.inp

TID   HOST_NAME   COMMAND_LINE            STATUS            TERMINATION_TIME
00000 suncat0138 pw.x -in pw.inp   Done                     12/26/2018 12:50:12
00001 suncat0138 pw.x -in pw.inp   Done                     12/26/2018 12:50:12
00002 suncat0138 pw.x -in pw.inp   Done                     12/26/2018 12:50:12
00003 suncat0138 pw.x -in pw.inp   Done                     12/26/2018 12:50:12
00004 suncat0138 pw.x -in pw.inp   Done                     12/26/2018 12:50:12
00005 suncat0138 pw.x -in pw.inp   Done                     12/26/2018 12:50:12
00006 suncat0138 pw.x -in pw.inp   Done                     12/26/2018 12:50:12
00007 suncat0138 pw.x -in pw.inp   Done                     12/26/2018 12:50:12
00008 suncat0113 pw.x -in pw.inp   Done                     12/26/2018 12:50:12
00009 suncat0113 pw.x -in pw.inp   Done                     12/26/2018 12:50:12
00010 suncat0113 pw.x -in pw.inp   Done                     12/26/2018 12:50:12
00011 suncat0113 pw.x -in pw.inp   Done                     12/26/2018 12:50:12
00012 suncat0113 pw.x -in pw.inp   Done                     12/26/2018 12:50:12
00013 suncat0113 pw.x -in pw.inp   Done                     12/26/2018 12:50:12
00014 suncat0113 pw.x -in pw.inp   Done                     12/26/2018 12:50:12
00015 suncat0113 pw.x -in pw.inp   Done                     12/26/2018 12:50:12
00016 suncat0110 pw.x -in pw.inp   Done                     12/26/2018 12:50:12
00017 suncat0110 pw.x -in pw.inp   Done                     12/26/2018 12:50:12
00018 suncat0110 pw.x -in pw.inp   Done                     12/26/2018 12:50:12
00019 suncat0110 pw.x -in pw.inp   Done                     12/26/2018 12:50:12
00020 suncat0110 pw.x -in pw.inp   Done                     12/26/2018 12:50:12
00021 suncat0110 pw.x -in pw.inp   Done                     12/26/2018 12:50:12
00022 suncat0110 pw.x -in pw.inp   Done                     12/26/2018 12:50:12
00023 suncat0110 pw.x -in pw.inp   Done                     12/26/2018 12:50:12
00024 suncat0109 pw.x -in pw.inp   Done                     12/26/2018 12:50:12
00025 suncat0109 pw.x -in pw.inp   Done                     12/26/2018 12:50:12
00026 suncat0109 pw.x -in pw.inp   Done                     12/26/2018 12:50:12
00027 suncat0109 pw.x -in pw.inp   Done                     12/26/2018 12:50:12
00028 suncat0109 pw.x -in pw.inp   Done                     12/26/2018 12:50:12
00029 suncat0109 pw.x -in pw.inp   Done                     12/26/2018 12:50:12
00030 suncat0109 pw.x -in pw.inp   Done                     12/26/2018 12:50:12
00031 suncat0109 pw.x -in pw.inp   Done                     12/26/2018 12:50:12
00032 suncat0262 pw.x -in pw.inp   Done                     12/26/2018 12:50:12
00033 suncat0262 pw.x -in pw.inp   Done                     12/26/2018 12:50:12
00034 suncat0262 pw.x -in pw.inp   Done                     12/26/2018 12:50:12
00035 suncat0262 pw.x -in pw.inp   Done                     12/26/2018 12:50:12
00036 suncat0262 pw.x -in pw.inp   Done                     12/26/2018 12:50:12
00037 suncat0262 pw.x -in pw.inp   Done                     12/26/2018 12:50:12
00038 suncat0262 pw.x -in pw.inp   Done                     12/26/2018 12:50:12
00039 suncat0262 pw.x -in pw.inp   Done                     12/26/2018 12:50:12
00040 suncat0258 pw.x -in pw.inp   Done                     12/26/2018 12:50:12
00041 suncat0258 pw.x -in pw.inp   Done                     12/26/2018 12:50:12
00042 suncat0258 pw.x -in pw.inp   Done                     12/26/2018 12:50:12
00043 suncat0258 pw.x -in pw.inp   Done                     12/26/2018 12:50:12
00044 suncat0258 pw.x -in pw.inp   Done                     12/26/2018 12:50:12
00045 suncat0258 pw.x -in pw.inp   Done                     12/26/2018 12:50:12
00046 suncat0258 pw.x -in pw.inp   Done                     12/26/2018 12:50:12
00047 suncat0258 pw.x -in pw.inp   Done                     12/26/2018 12:50:12
00048 suncat0257 pw.x -in pw.inp   Done                     12/26/2018 12:50:12
00049 suncat0257 pw.x -in pw.inp   Done                     12/26/2018 12:50:12
00050 suncat0257 pw.x -in pw.inp   Done                     12/26/2018 12:50:12
00051 suncat0257 pw.x -in pw.inp   Done                     12/26/2018 12:50:12
00052 suncat0257 pw.x -in pw.inp   Done                     12/26/2018 12:50:12
00053 suncat0257 pw.x -in pw.inp   Done                     12/26/2018 12:50:12
00054 suncat0257 pw.x -in pw.inp   Done                     12/26/2018 12:50:12
00055 suncat0257 pw.x -in pw.inp   Done                     12/26/2018 12:50:12
00056 suncat0251 pw.x -in pw.inp   Done                     12/26/2018 12:50:12
00057 suncat0251 pw.x -in pw.inp   Done                     12/26/2018 12:50:12
00058 suncat0251 pw.x -in pw.inp   Done                     12/26/2018 12:50:12
00059 suncat0251 pw.x -in pw.inp   Done                     12/26/2018 12:50:12
00060 suncat0251 pw.x -in pw.inp   Done                     12/26/2018 12:50:12
00061 suncat0251 pw.x -in pw.inp   Done                     12/26/2018 12:50:12
00062 suncat0251 pw.x -in pw.inp   Done                     12/26/2018 12:50:12
00063 suncat0251 pw.x -in pw.inp   Done                     12/26/2018 12:50:12