     Program PWSCF v.5.1rc2 (svn rev. 11289) starts on  1Jan2019 at  6:11: 5

     Current dimensions of program PWSCF are:
     Max number of different atomic species (ntypx) = 10
     Max number of k-points (npk) =  40000
     Max angular momentum in pseudopotentials (lmaxx) =  3
     Presently stress not available with electric field

     IMPORTANT: XC functional enforced from input :
     Exchange-correlation      = BEEF-VDW ( 1  4 27 13 2)
     Any further DFT definition will be discarded
     Please, verify this is what you really want

     Subspace diagonalization in iterative solution of the eigenvalue problem:
     a serial algorithm will be used

     bravais-lattice index     =            0
     lattice parameter (alat)  =       1.8897  a.u.
     unit-cell volume          =    5423.1499 (a.u.)^3
     number of atoms/cell      =           12
     number of atomic types    =            2
     number of electrons       =       141.00
     number of Kohn-Sham states=          100
     kinetic-energy cutoff     =      36.7493  Ry
     charge density cutoff     =     367.4932  Ry
     convergence threshold     =      1.0E-06
     mixing beta               =       0.1000
     number of iterations used =           10  plain     mixing
     Exchange-correlation      = BEEF-VDW ( 1  4 27 13 2)
     nstep                     =           50

     celldm(1)=   1.889726  celldm(2)=   0.000000  celldm(3)=   0.000000
     celldm(4)=   0.000000  celldm(5)=   0.000000  celldm(6)=   0.000000

     crystal axes: (cart. coord. in units of alat)
               a(1) = (   6.095284   0.000000   0.000000 )
               a(2) = (  -3.047642   5.278671   0.000000 )
               a(3) = (   0.000000   0.000000  24.976779 )

     reciprocal axes: (cart. coord. in units 2 pi/alat)
               b(1) = (  0.164061  0.094721  0.000000 )
               b(2) = (  0.000000  0.189442  0.000000 )
               b(3) = (  0.000000  0.000000  0.040037 )

     PseudoPot. # 1 for Sc read from file:
     /afs/slac.stanford.edu/u/if/mamunm/psp/gbrv1.5pbe/Sc.UPF
     MD5 check sum: db30a2753ba66ef00f23801d899b7e7f
     Pseudo is Ultrasoft + core correction, Zval = 11.0
     Generated by new atomic code, or converted to UPF format
     Using radial grid of  849 points,  6 beta functions with:
                l(1) =   0
                l(2) =   0
                l(3) =   1
                l(4) =   1
                l(5) =   2
                l(6) =   2
     Q(r) pseudized with  6 coefficients,  rinner =    1.200   1.200   1.200
                                                       1.200   1.200

     PseudoPot. # 2 for Cr read from file:
     /afs/slac.stanford.edu/u/if/mamunm/psp/gbrv1.5pbe/Cr.UPF
     MD5 check sum: 0d52af634a40206e4dee301ad30da4bf
     Pseudo is Ultrasoft + core correction, Zval = 14.0
     Generated by new atomic code, or converted to UPF format
     Using radial grid of  857 points,  6 beta functions with:
                l(1) =   0
                l(2) =   0
                l(3) =   1
                l(4) =   1
                l(5) =   2
                l(6) =   2
     Q(r) pseudized with  8 coefficients,  rinner =    0.950   0.950   0.950
                                                       0.950   0.950

     vdW kernel table read from file vdW_kernel_table
     MD5 check sum: 095c7af220d748ca6e76c0b4c6cfb241

     atomic species   valence    mass     pseudopotential
        Sc1           11.00    44.95591     Sc( 1.00)
        Cr1           14.00    51.99610     Cr( 1.00)

     No symmetry found

   Cartesian axes

     site n.     atom                  positions (alat units)
         1           Sc1 tau(   1) = (   0.0000000   0.0000000  10.0000000  )
         2           Sc1 tau(   2) = (  -1.5238211   2.6393356  10.0000000  )
         3           Sc1 tau(   3) = (   1.5238211   2.6393356  10.0000000  )
         4           Cr1 tau(   4) = (   3.0476422   0.0000000  10.0000000  )
         5           Sc1 tau(   5) = (   3.0476422   1.7595570  12.4883894  )
         6           Sc1 tau(   6) = (   1.5238211   4.3988926  12.4883894  )
         7           Sc1 tau(   7) = (  -1.5238211   4.3988926  12.4883894  )
         8           Cr1 tau(   8) = (   0.0000000   1.7595570  12.4883894  )
         9           Sc1 tau(   9) = (  -0.0000000   3.5191141  14.9767788  )
        10           Sc1 tau(  10) = (   1.5238211   0.8797785  14.9767788  )
        11           Sc1 tau(  11) = (   4.5714633   0.8797785  14.9767788  )
        12           Cr1 tau(  12) = (   3.0476422   3.5191141  14.9767788  )

     number of k points=    20  Fermi-Dirac smearing, width (Ry)=  0.0110
                       cart. coord. in units 2pi/alat
        k(    1) = (   0.0000000   0.0000000   0.0000000), wk =   0.0555556
        k(    2) = (   0.0000000   0.0315736   0.0000000), wk =   0.1111111
        k(    3) = (   0.0000000   0.0631472   0.0000000), wk =   0.1111111
        k(    4) = (   0.0000000  -0.0947208   0.0000000), wk =   0.0555556
        k(    5) = (   0.0273435   0.0157868   0.0000000), wk =   0.1111111
        k(    6) = (   0.0273435   0.0473604   0.0000000), wk =   0.1111111
        k(    7) = (   0.0273435   0.0789340   0.0000000), wk =   0.1111111
        k(    8) = (   0.0273435  -0.0789340   0.0000000), wk =   0.1111111
        k(    9) = (   0.0273435  -0.0473604   0.0000000), wk =   0.1111111
        k(   10) = (   0.0273435  -0.0157868   0.0000000), wk =   0.1111111
        k(   11) = (   0.0546871   0.0315736   0.0000000), wk =   0.1111111
        k(   12) = (   0.0546871   0.0631472   0.0000000), wk =   0.1111111
        k(   13) = (   0.0546871   0.0947208   0.0000000), wk =   0.1111111
        k(   14) = (   0.0546871  -0.0631472   0.0000000), wk =   0.1111111
        k(   15) = (   0.0546871  -0.0315736   0.0000000), wk =   0.1111111
        k(   16) = (   0.0546871  -0.0000000   0.0000000), wk =   0.1111111
        k(   17) = (  -0.0820306  -0.0473604   0.0000000), wk =   0.0555556
        k(   18) = (  -0.0820306  -0.0157868   0.0000000), wk =   0.1111111
        k(   19) = (  -0.0820306   0.0157868   0.0000000), wk =   0.1111111
        k(   20) = (  -0.0820306  -0.1420812   0.0000000), wk =   0.0555556

     Largest allocated arrays     est. size (Mb)     dimensions
     Largest temporary arrays     est. size (Mb)     dimensions

     Check: negative/imaginary core charge=   -0.000002    0.000000

     Initial potential from superposition of free atoms
     Check: negative starting charge=   -0.004056

     starting charge  137.97833, renormalised to  141.00000

     negative rho (up, down):  4.145E-03 0.000E+00

     *
     * You are using vdW-DF for exchange-correlation in this calculation.
     * Please cite the following three references that made this development
     * possible:
     *
     *   M. Dion, H. Rydberg, E. Schroder, D. C. Langreth, and
     *   B. I. Lundqvist, Phys. Rev. Lett. 92, 246401 (2004).
     *
     *   T. Thonhauser, V. R. Cooper, S. Li, A. Puzder, P. Hyldgaard, and
     *   D. C. Langreth, Phys. Rev. B 76, 125112 (2007).
     *
     *   G. Roman-Perez and J. M. Soler, Phys. Rev. Lett. 103, 096102 (2009).
     *
     *
     * If you are using vdW-DF2, please also cite:
     *
     *   K. Lee, E. D. Murray, L. Kong, B. I. Lundqvist, and
     *   D. C. Langreth, Phys. Rev. B 82, 081101(R) (2010).
     *
     *
     * If you are calculating the stress with vdW-DF, please also cite:
     *
     *   R. Sabatini, E. Kucukbenli, B. Kolb, T. Thonhauser, and
     *   S. de Gironcoli, J. Phys.: Condens. Matter 24, 424209 (2012).
     *

     Carrying out vdW-DF run using the following parameters:

     Nqs =      20    Nr_points =    1024   r_max =   100.000
     q_mesh =
               0.00001000     0.04494208     0.09755937     0.15916263
               0.23128650     0.31572767     0.41458969     0.53033537
               0.66584808     0.82450364     1.01025438     1.22772762
               1.48234092     1.78043706     2.12944203     2.53805004
               3.01644009     3.57652955     4.23227104     5.00000000

     Gradients computed in reciprocal space

     Adding external electric field

     Computed dipole along edir(3) :
        Dipole                0.0000 Ry au,          0.0000 Debye
        Dipole field          0.0000 Ry au

        Potential amp.       -0.0000 Ry
        Total length         46.0193 bohr

     Starting wfc are  147 randomized atomic wfcs

     Self-consistent Calculation

     iteration #  1     ecut=    36.75 Ry     beta=0.10
     Davidson diagonalization with overlap
     ethr =  1.00E-02,  avg # of iterations =  3.0

[...]

     total energy              =   -1378.48758207 Ry
     Harris-Foulkes estimate   =   -1383.99966771 Ry
     estimated scf accuracy    <      30.52846833 Ry

[...]

     End of self-consistent calculation

          k = 0.0000 0.0000 0.0000 ( 20395 PWs)   bands (ev):

   -70.8401 -70.7279 -70.7279 -49.1890 -49.1870 -49.1216 -49.1216 -49.1211
   -49.1211 -48.7348 -48.6701 -48.6701 -42.1529 -42.1199 -42.1199 -42.0451
   -42.0448 -42.0348 -42.0348 -42.0347 -42.0347 -28.0810 -28.0604 -27.9006
   -27.8649 -27.8649 -27.8386 -27.8336 -27.8336 -27.8079 -27.8079 -27.7744
   -27.7744 -27.5997 -27.5755 -27.5684 -27.5413 -27.5413 -27.5363 -27.5363
   -27.3805 -27.3805 -27.2996 -27.2678 -27.2678 -27.1458 -27.0932 -27.0932
    -4.4592  -3.2848  -2.0300  -1.3752  -1.3106  -1.1248  -1.1248  -1.0742
    -1.0742  -0.9194  -0.7352  -0.7352  -0.4730  -0.4730  -0.4212  -0.0337
    -0.0337   0.0683   0.4793   0.5062   0.6378   0.6378   0.9136   1.0437
     1.1883   1.1883   1.1935   1.2766   1.3847   1.3847   1.6110   1.6110
     1.6329   1.6699   1.6699   1.7512   1.7512   2.0200   2.0251   2.0251
     2.1993   2.1993   2.2263   2.2263   2.4652   2.5519   2.5519   2.7938
     3.2572   3.5182   3.5182   3.5509

[...]

          k =-0.0820-0.0474 0.0000 ( 20404 PWs)   bands (ev):

[...]

     the Fermi energy is     0.5893 ev

!    total energy              =   -1381.73411135 Ry
     Harris-Foulkes estimate   =   -1381.73411464 Ry
     estimated scf accuracy    <       0.00000016 Ry

     The total energy is the sum of the following terms:

     one-electron contribution =   -9276.95053021 Ry
     hartree contribution      =    4623.25828494 Ry
     xc contribution           =    -194.58503566 Ry
     ewald contribution        =    3466.68438864 Ry
     electric field correction =       0.00000000 Ry
     smearing contrib. (-TS)   =      -0.14121906 Ry

     convergence has been achieved in  25 iterations

 BEEF-vdW xc energy contributions
           1 :   -166.167708400022
           2 :    147.358818206911
           3 :   -117.337039871857
           4 :    86.8847508784790
           5 :   -64.3050403868010
           6 :    52.0699804319519
           7 :   -47.3464875620325
           8 :    45.2505958180244
           9 :   -42.2537608053345
          10 :    37.6810001590143
          11 :   -32.9440401316424
          12 :    29.6582046269312
          13 :   -28.2162669583238
          14 :    27.6944309043396
          15 :   -26.8311710467491
          16 :    25.0833576924200
[...]
               b(3) = (  0.000000  0.000000  0.040037 )

     PseudoPot. # 1 for Sc read from file:
     /afs/slac.stanford.edu/u/if/mamunm/psp/gbrv1.5pbe/Sc.UPF
     MD5 check sum: db30a2753ba66ef00f23801d899b7e7f
     Pseudo is Ultrasoft + core correction, Zval = 11.0
     Generated by new atomic code, or converted to UPF format
     Using radial grid of  849 points,  6 beta functions with:
                l(1) =   0
                l(2) =   0
                l(3) =   1
                l(4) =   1
                l(5) =   2
                l(6) =   2
     Q(r) pseudized with  6 coefficients,  rinner =    1.200   1.200   1.200
                                                       1.200   1.200

     PseudoPot. # 2 for Cr read from file:
     /afs/slac.stanford.edu/u/if/mamunm/psp/gbrv1.5pbe/Cr.UPF
     MD5 check sum: 0d52af634a40206e4dee301ad30da4bf
     Pseudo is Ultrasoft + core correction, Zval = 14.0
     Generated by new atomic code, or converted to UPF format
     Using radial grid of  857 points,  6 beta functions with:
                l(1) =   0
                l(2) =   0
                l(3) =   1
                l(4) =   1
                l(5) =   2
                l(6) =   2
     Q(r) pseudized with  8 coefficients,  rinner =    0.950   0.950   0.950
                                                       0.950   0.950

     vdW kernel table read from file vdW_kernel_table
     MD5 check sum: 095c7af220d748ca6e76c0b4c6cfb241

     atomic species   valence    mass     pseudopotential
        Sc1           11.00    44.95591     Sc( 1.00)
        Cr1           14.00    51.99610     Cr( 1.00)

     No symmetry found

   Cartesian axes

     site n.     atom                  positions (alat units)
         1           Sc1 tau(   1) = (   0.0000000   0.0000000  10.0000000  )
         2           Sc1 tau(   2) = (  -1.5238211   2.6393356  10.0000000  )
         3           Sc1 tau(   3) = (   1.5238211   2.6393356  10.0000000  )
         4           Cr1 tau(   4) = (   3.0476422   0.0000000  10.0000000  )
         5           Sc1 tau(   5) = (   3.0476422   1.7595570  12.4883894  )
         6           Sc1 tau(   6) = (   1.5238211   4.3988926  12.4883894  )
         7           Sc1 tau(   7) = (  -1.5238211   4.3988926  12.4883894  )
         8           Cr1 tau(   8) = (   0.0000000   1.7595570  12.4883894  )
         9           Sc1 tau(   9) = (  -0.0000058   3.4849920  14.9512507  )
        10           Sc1 tau(  10) = (   1.4942980   0.8968162  14.9512789  )
        11           Sc1 tau(  11) = (   4.6009925   0.8968422  14.9512421  )
        12           Cr1 tau(  12) = (   3.0476336   3.5191061  14.5967491  )

     number of k points=    20  Fermi-Dirac smearing, width (Ry)=  0.0110
                       cart. coord. in units 2pi/alat
        k(    1) = (   0.0000000   0.0000000   0.0000000), wk =   0.0555556
        k(    2) = (   0.0000000   0.0315736   0.0000000), wk =   0.1111111
        k(    3) = (   0.0000000   0.0631472   0.0000000), wk =   0.1111111
        k(    4) = (   0.0000000  -0.0947208   0.0000000), wk =   0.0555556
        k(    5) = (   0.0273435   0.0157868   0.0000000), wk =   0.1111111
        k(    6) = (   0.0273435   0.0473604   0.0000000), wk =   0.1111111
        k(    7) = (   0.0273435   0.0789340   0.0000000), wk =   0.1111111
        k(    8) = (   0.0273435  -0.0789340   0.0000000), wk =   0.1111111
        k(    9) = (   0.0273435  -0.0473604   0.0000000), wk =   0.1111111
        k(   10) = (   0.0273435  -0.0157868   0.0000000), wk =   0.1111111
        k(   11) = (   0.0546871   0.0315736   0.0000000), wk =   0.1111111
        k(   12) = (   0.0546871   0.0631472   0.0000000), wk =   0.1111111
        k(   13) = (   0.0546871   0.0947208   0.0000000), wk =   0.1111111
        k(   14) = (   0.0546871  -0.0631472   0.0000000), wk =   0.1111111
        k(   15) = (   0.0546871  -0.0315736   0.0000000), wk =   0.1111111
        k(   16) = (   0.0546871  -0.0000000   0.0000000), wk =   0.1111111
        k(   17) = (  -0.0820306  -0.0473604   0.0000000), wk =   0.0555556
        k(   18) = (  -0.0820306  -0.0157868   0.0000000), wk =   0.1111111
        k(   19) = (  -0.0820306   0.0157868   0.0000000), wk =   0.1111111
        k(   20) = (  -0.0820306  -0.1420812   0.0000000), wk =   0.0555556

     Largest allocated arrays     est. size (Mb)     dimensions
     Largest temporary arrays     est. size (Mb)     dimensions

     Check: negative/imaginary core charge=   -0.000002    0.000000

     Initial potential from superposition of free atoms
     Check: negative starting charge=   -0.004038

     starting charge  137.97833, renormalised to  141.00000

[...]

     *
     * You are using vdW-DF for exchange-correlation in this calculation.
     * Please cite the following three references that made this development
     * possible:
     *
     *   M. Dion, H. Rydberg, E. Schroder, D. C. Langreth, and
     *   B. I. Lundqvist, Phys. Rev. Lett. 92, 246401 (2004).
     *
     *   T. Thonhauser, V. R. Cooper, S. Li, A. Puzder, P. Hyldgaard, and
     *   D. C. Langreth, Phys. Rev. B 76, 125112 (2007).
     *
     *   G. Roman-Perez and J. M. Soler, Phys. Rev. Lett. 103, 096102 (2009).
     *
     *
     * If you are using vdW-DF2, please also cite:
     *
     *   K. Lee, E. D. Murray, L. Kong, B. I. Lundqvist, and
     *   D. C. Langreth, Phys. Rev. B 82, 081101(R) (2010).
     *
     *
     * If you are calculating the stress with vdW-DF, please also cite:
     *
     *   R. Sabatini, E. Kucukbenli, B. Kolb, T. Thonhauser, and
     *   S. de Gironcoli, J. Phys.: Condens. Matter 24, 424209 (2012).
     *

     Carrying out vdW-DF run using the following parameters:

     Nqs =      20    Nr_points =    1024   r_max =   100.000
     q_mesh =
               0.00001000     0.04494208     0.09755937     0.15916263
               0.23128650     0.31572767     0.41458969     0.53033537
               0.66584808     0.82450364     1.01025438     1.22772762
               1.48234092     1.78043706     2.12944203     2.53805004
               3.01644009     3.57652955     4.23227104     5.00000000

     Gradients computed in reciprocal space

[...]

     Starting wfc are  147 randomized atomic wfcs

     Self-consistent Calculation

[...]

     total energy              =   -1381.75703014 Ry
     Harris-Foulkes estimate   =   -1381.75703154 Ry
     estimated scf accuracy    <       0.00000323 Ry

     iteration # 23     ecut=    36.75 Ry     beta=0.10
     Davidson diagonalization with overlap
     ethr =  2.29E-09,  avg # of iterations =  2.0

[...]

     negative rho (up, down):  3.382E-03 0.000E+00

     Adding external electric field

     Computed dipole along edir(3) :
        Dipole                0.0572 Ry au,          0.1453 Debye
        Dipole field          0.0001 Ry au

        Potential amp.       -0.0122 Ry
        Total length         46.0193 bohr

     End of self-consistent calculation

[...]

          k = 0.0547-0.0000 0.0000 ( 20381 PWs)   bands (ev):

[...]

          k =-0.0820-0.1421 0.0000 ( 20404 PWs)   bands (ev):

   -70.7901 -70.6746 -70.5852 -49.1268 -49.1209 -49.1006 -49.0985 -49.0795
   -49.0764 -48.5242 -48.5022 -48.4801 -42.1051 -42.0705 -42.0702 -41.9930
   -41.9825 -41.9821 -41.9217 -41.9215 -41.8611 -27.9141 -27.8996 -27.8246
   -27.8092 -27.7918 -27.7686 -27.7681 -27.7532 -27.7304 -27.7065 -27.6933
   -27.6800 -27.6738 -27.6625 -27.6499 -27.6374 -27.5011 -27.4976 -27.3123
   -27.1612 -27.1397 -27.1092 -27.0997 -27.0938 -27.0695 -27.0681 -26.9223
    -3.0349  -2.9476  -1.9285  -1.8758  -1.1705  -0.9235  -0.7888  -0.6979
    -0.6482  -0.6288  -0.1276  -0.0545  -0.0444  -0.0369   0.1143   0.1762
     0.2308   0.2825   0.2944   0.3139   0.3889   0.4623   0.4900   0.5599
     0.6329   0.7186   0.7754   0.9254   1.0576   1.0592   1.1305   1.2474
     1.2683   1.2751   1.3901   1.5219   1.8495   1.9050   1.9527   2.0552
     2.0787   2.3379   2.3820   2.4921   2.5203   2.5239   2.6501   2.7504
     2.7594   3.1696   3.2396   3.2709

     the Fermi energy is     0.6375 ev

!    total energy              =   -1381.75702269 Ry
     Harris-Foulkes estimate   =   -1381.75702943 Ry
     estimated scf accuracy    <       0.00000079 Ry

     The total energy is the sum of the following terms:

     one-electron contribution =   -9440.71946121 Ry
     hartree contribution      =    4705.58070445 Ry
     xc contribution           =    -194.71242975 Ry
     ewald contribution        =    3548.22920516 Ry
     electric field correction =       0.00000758 Ry
     smearing contrib. (-TS)   =      -0.13504893 Ry

     convergence has been achieved in  23 iterations

 BEEF-vdW xc energy contributions
           1 :   -166.335491272639
           2 :    147.571820938218
           3 :   -117.586123479319
           4 :    87.0991646957335
           5 :   -64.4022744371813
           6 :    52.0257009874140
           7 :   -47.2251279359491
           8 :    45.1626523361326
           9 :   -42.2694469556965
          10 :    37.7743150613468
          11 :   -33.0183700135443
          12 :    29.6307794248433
          13 :   -28.0864311498369
          14 :    27.5386702999616
          15 :   -26.7352088425810
          16 :    25.0738206324860
          17 :   -22.9374206797790
          18 :    21.1727847451405
          19 :   -20.2913689779161
          20 :    20.0894034399964
          21 :   -19.9186704252449
          22 :    19.2706819503733
          23 :   -18.1501362250361
          24 :    16.9762046335698
          25 :   -16.1725713757407
          26 :    15.8258944825603
          27 :   -15.6768022597616
          28 :    15.3943864622141
          29 :   -14.8597447661017
          30 :    14.2186088609004
          31 :   -18.4139886960749
          32 :   -13.1823184540951

     Forces acting on atoms (Ry/au):

     negative rho (up, down):  3.382E-03 0.000E+00
     atom    1 type  1   force =     0.00000175    0.01548752   -0.00527632
     atom    2 type  1   force =     0.01341668   -0.00774060   -0.00528532
     atom    3 type  1   force =    -0.01341767   -0.00774194   -0.00528277
     atom    4 type  2   force =    -0.00000125   -0.00000052    0.04133928
     atom    5 type  1   force =    -0.00000330   -0.00417285   -0.01015172
     atom    6 type  1   force =    -0.00361029    0.00208776   -0.01015066
     atom    7 type  1   force =     0.00361101    0.00208995   -0.01014721
     atom    8 type  2   force =     0.00000144   -0.00000267    0.00605443
     atom    9 type  1   force =     0.00000164   -0.00123551   -0.00044673
     atom   10 type  1   force =    -0.00107762    0.00061486   -0.00044793
     atom   11 type  1   force =     0.00107647    0.00061396   -0.00044264
     atom   12 type  2   force =     0.00000113    0.00000003    0.00023759

     Total force =     0.053996     Total SCF correction =     0.002811

     entering subroutine stress ...

     negative rho (up, down):  3.382E-03 0.000E+00
          total   stress  (Ry/bohr**3)                   (kbar)     P=   -3.72
  -0.00002377  -0.00000000   0.00000000         -3.50     -0.00      0.00
  -0.00000000  -0.00002377  -0.00000000         -0.00     -3.50     -0.00
   0.00000000  -0.00000000  -0.00002834          0.00     -0.00     -4.17

 !ASE

     Writing output data file calc.save

     General routines

     Parallel routines

   This run was terminated on:   8: 8:20   1Jan2019

   JOB DONE.
Job  /afs/slac/g/suncat/bin/suncat-tsmpirun -x LD_LIBRARY_PATH -wdir /scratch/qe648957_Q6CuI pw.x -in pw.inp

TID   HOST_NAME   COMMAND_LINE            STATUS            TERMINATION_TIME
00000 suncat0146 pw.x -in pw.inp   Done                     01/01/2019 08:08:20
00001 suncat0146 pw.x -in pw.inp   Done                     01/01/2019 08:08:20
00002 suncat0146 pw.x -in pw.inp   Done                     01/01/2019 08:08:20
00003 suncat0146 pw.x -in pw.inp   Done                     01/01/2019 08:08:20
00004 suncat0146 pw.x -in pw.inp   Done                     01/01/2019 08:08:20
00005 suncat0146 pw.x -in pw.inp   Done                     01/01/2019 08:08:20
00006 suncat0146 pw.x -in pw.inp   Done                     01/01/2019 08:08:20
00007 suncat0146 pw.x -in pw.inp   Done                     01/01/2019 08:08:20
00008 suncat0136 pw.x -in pw.inp   Done                     01/01/2019 08:08:20
00009 suncat0136 pw.x -in pw.inp   Done                     01/01/2019 08:08:20
00010 suncat0136 pw.x -in pw.inp   Done                     01/01/2019 08:08:20
00011 suncat0136 pw.x -in pw.inp   Done                     01/01/2019 08:08:20
00012 suncat0136 pw.x -in pw.inp   Done                     01/01/2019 08:08:20
00013 suncat0136 pw.x -in pw.inp   Done                     01/01/2019 08:08:20
00014 suncat0136 pw.x -in pw.inp   Done                     01/01/2019 08:08:20
00015 suncat0136 pw.x -in pw.inp   Done                     01/01/2019 08:08:20
00016 suncat0248 pw.x -in pw.inp   Done                     01/01/2019 08:08:20
00017 suncat0248 pw.x -in pw.inp   Done                     01/01/2019 08:08:20
00018 suncat0248 pw.x -in pw.inp   Done                     01/01/2019 08:08:20
00019 suncat0248 pw.x -in pw.inp   Done                     01/01/2019 08:08:20
00020 suncat0248 pw.x -in pw.inp   Done                     01/01/2019 08:08:20
00021 suncat0248 pw.x -in pw.inp   Done                     01/01/2019 08:08:20
00022 suncat0248 pw.x -in pw.inp   Done                     01/01/2019 08:08:20
00023 suncat0248 pw.x -in pw.inp   Done                     01/01/2019 08:08:20
00024 suncat0247 pw.x -in pw.inp   Done                     01/01/2019 08:08:20
00025 suncat0247 pw.x -in pw.inp   Done                     01/01/2019 08:08:20
00026 suncat0247 pw.x -in pw.inp   Done                     01/01/2019 08:08:20
00027 suncat0247 pw.x -in pw.inp   Done                     01/01/2019 08:08:20
00028 suncat0247 pw.x -in pw.inp   Done                     01/01/2019 08:08:20
00029 suncat0247 pw.x -in pw.inp   Done                     01/01/2019 08:08:20
00030 suncat0247 pw.x -in pw.inp   Done                     01/01/2019 08:08:20
00031 suncat0247 pw.x -in pw.inp   Done                     01/01/2019 08:08:20
00032 suncat0246 pw.x -in pw.inp   Done                     01/01/2019 08:08:20
00033 suncat0246 pw.x -in pw.inp   Done                     01/01/2019 08:08:20
00034 suncat0246 pw.x -in pw.inp   Done                     01/01/2019 08:08:20
00035 suncat0246 pw.x -in pw.inp   Done                     01/01/2019 08:08:20
00036 suncat0246 pw.x -in pw.inp   Done                     01/01/2019 08:08:20
00037 suncat0246 pw.x -in pw.inp   Done                     01/01/2019 08:08:20
00038 suncat0246 pw.x -in pw.inp   Done                     01/01/2019 08:08:20
00039 suncat0246 pw.x -in pw.inp   Done                     01/01/2019 08:08:20
00040 suncat0245 pw.x -in pw.inp   Done                     01/01/2019 08:08:20
00041 suncat0245 pw.x -in pw.inp   Done                     01/01/2019 08:08:20
00042 suncat0245 pw.x -in pw.inp   Done                     01/01/2019 08:08:20
00043 suncat0245 pw.x -in pw.inp   Done                     01/01/2019 08:08:20
00044 suncat0245 pw.x -in pw.inp   Done                     01/01/2019 08:08:20
00045 suncat0245 pw.x -in pw.inp   Done                     01/01/2019 08:08:20
00046 suncat0245 pw.x -in pw.inp   Done                     01/01/2019 08:08:20
00047 suncat0245 pw.x -in pw.inp   Done                     01/01/2019 08:08:20
00048 suncat0214 pw.x -in pw.inp   Done                     01/01/2019 08:08:20
00049 suncat0214 pw.x -in pw.inp   Done                     01/01/2019 08:08:20
00050 suncat0214 pw.x -in pw.inp   Done                     01/01/2019 08:08:20
00051 suncat0214 pw.x -in pw.inp   Done                     01/01/2019 08:08:20
00052 suncat0214 pw.x -in pw.inp   Done                     01/01/2019 08:08:20
00053 suncat0214 pw.x -in pw.inp   Done                     01/01/2019 08:08:20
00054 suncat0214 pw.x -in pw.inp   Done                     01/01/2019 08:08:20
00055 suncat0214 pw.x -in pw.inp   Done                     01/01/2019 08:08:20
00056 suncat0213 pw.x -in pw.inp   Done                     01/01/2019 08:08:20
00057 suncat0213 pw.x -in pw.inp   Done                     01/01/2019 08:08:20
00058 suncat0213 pw.x -in pw.inp   Done                     01/01/2019 08:08:20
00059 suncat0213 pw.x -in pw.inp   Done                     01/01/2019 08:08:20
00060 suncat0213 pw.x -in pw.inp   Done                     01/01/2019 08:08:20
00061 suncat0213 pw.x -in pw.inp   Done                     01/01/2019 08:08:20
00062 suncat0213 pw.x -in pw.inp   Done                     01/01/2019 08:08:20
00063 suncat0213 pw.x -in pw.inp   Done                     01/01/2019 08:08:20