     Program PWSCF v.5.1rc2 (svn rev. 11289) starts on 19Dec2018 at 16:41:56

     Current dimensions of program PWSCF are:
     Max number of different atomic species (ntypx) = 10
     Max number of k-points (npk) =  40000
     Max angular momentum in pseudopotentials (lmaxx) =  3
     Presently stress not available with electric field

     IMPORTANT: XC functional enforced from input :
     Exchange-correlation      = BEEF-VDW ( 1  4 27 13 2)
     Any further DFT definition will be discarded
     Please, verify this is what you really want

     Subspace diagonalization in iterative solution of the eigenvalue problem:
     a serial algorithm will be used

     bravais-lattice index     =            0
     lattice parameter (alat)  =       1.8897  a.u.
     unit-cell volume          =    4928.9477 (a.u.)^3
     number of atoms/cell      =           12
     number of atomic types    =            2
     number of electrons       =       231.00
     number of Kohn-Sham states=          145
     kinetic-energy cutoff     =      36.7493  Ry
     charge density cutoff     =     367.4932  Ry
     convergence threshold     =      1.0E-06
     mixing beta               =       0.1000
     number of iterations used =           10  plain     mixing
     Exchange-correlation      = BEEF-VDW ( 1  4 27 13 2)
     nstep                     =           50

     celldm(1)=   1.889726  celldm(2)=   0.000000  celldm(3)=   0.000000
     celldm(4)=   0.000000  celldm(5)=   0.000000  celldm(6)=   0.000000

     crystal axes: (cart. coord. in units of alat)
               a(1) = (   5.835735   0.000000   0.000000 )
               a(2) = (  -2.917868   5.053895   0.000000 )
               a(3) = (   0.000000   0.000000  24.764858 )

     reciprocal axes: (cart. coord. in units 2 pi/alat)
               b(1) = (  0.171358  0.098934  0.000000 )
               b(2) = (  0.000000  0.197867  0.000000 )
               b(3) = (  0.000000  0.000000  0.040380 )

     PseudoPot. # 1 for Ag read from file:
     /afs/slac.stanford.edu/u/if/mamunm/psp/gbrv1.5pbe/Ag.UPF
     MD5 check sum: d66d668201baa78d5eb5b04ef7011058
     Pseudo is Ultrasoft + core correction, Zval = 19.0
     Generated by new atomic code, or converted to UPF format
     Using radial grid of  887 points,  6 beta functions with:
                l(1) =   0
                l(2) =   0
                l(3) =   1
                l(4) =   1
                l(5) =   2
                l(6) =   2
     Q(r) pseudized with  6 coefficients,  rinner =    1.300   1.300   1.300
                                                       1.300   1.300

     PseudoPot. # 2 for Zn read from file:
     /afs/slac.stanford.edu/u/if/mamunm/psp/gbrv1.5pbe/Zn.UPF
     MD5 check sum: df62231357ef9e81f77b2b3087fa5675
     Pseudo is Ultrasoft, Zval = 20.0
     Generated by new atomic code, or converted to UPF format
     Using radial grid of  943 points,  6 beta functions with:
                l(1) =   0
                l(2) =   0
                l(3) =   1
                l(4) =   1
                l(5) =   2
                l(6) =   2
     Q(r) pseudized with  8 coefficients,  rinner =    1.100   1.100   1.100
                                                       1.100   1.100

     vdW kernel table read from file vdW_kernel_table
     MD5 check sum: 095c7af220d748ca6e76c0b4c6cfb241

     atomic species   valence    mass     pseudopotential
        Ag1           19.00   107.86820     Ag( 1.00)
        Zn1           20.00    65.38000     Zn( 1.00)

     No symmetry found

   Cartesian axes

     site n.     atom                  positions (alat units)
         1           Ag1 tau(   1) = (   0.0000000   0.0000000  10.0000000  )
         2           Ag1 tau(   2) = (  -1.4589338   2.5269474  10.0000000  )
         3           Ag1 tau(   3) = (   1.4589338   2.5269474  10.0000000  )
         4           Zn1 tau(   4) = (   2.9178676   0.0000000  10.0000000  )
         5           Ag1 tau(   5) = (   2.9178676   1.6846316  12.3824289  )
         6           Ag1 tau(   6) = (   1.4589338   4.2115790  12.3824289  )
         7           Ag1 tau(   7) = (  -1.4589338   4.2115790  12.3824289  )
         8           Zn1 tau(   8) = (   0.0000000   1.6846316  12.3824289  )
         9           Ag1 tau(   9) = (  -0.0000000   3.3692632  14.7648578  )
        10           Ag1 tau(  10) = (   1.4589338   0.8423158  14.7648578  )
        11           Ag1 tau(  11) = (   4.3768013   0.8423158  14.7648578  )
        12           Zn1 tau(  12) = (   2.9178676   3.3692632  14.7648578  )

     number of k points=    20  Fermi-Dirac smearing, width (Ry)=  0.0110
                       cart. coord. in units 2pi/alat
        k(    1) = (   0.0000000   0.0000000   0.0000000), wk =   0.0555556
        k(    2) = (   0.0000000   0.0329779   0.0000000), wk =   0.1111111
        k(    3) = (   0.0000000   0.0659557   0.0000000), wk =   0.1111111
        k(    4) = (   0.0000000  -0.0989336   0.0000000), wk =   0.0555556
        k(    5) = (   0.0285597   0.0164889   0.0000000), wk =   0.1111111
        k(    6) = (   0.0285597   0.0494668   0.0000000), wk =   0.1111111
        k(    7) = (   0.0285597   0.0824447   0.0000000), wk =   0.1111111
        k(    8) = (   0.0285597  -0.0824447   0.0000000), wk =   0.1111111
        k(    9) = (   0.0285597  -0.0494668   0.0000000), wk =   0.1111111
        k(   10) = (   0.0285597  -0.0164889   0.0000000), wk =   0.1111111
        k(   11) = (   0.0571193   0.0329779   0.0000000), wk =   0.1111111
        k(   12) = (   0.0571193   0.0659557   0.0000000), wk =   0.1111111
        k(   13) = (   0.0571193   0.0989336   0.0000000), wk =   0.1111111
        k(   14) = (   0.0571193  -0.0659557   0.0000000), wk =   0.1111111
        k(   15) = (   0.0571193  -0.0329779   0.0000000), wk =   0.1111111
        k(   16) = (   0.0571193  -0.0000000   0.0000000), wk =   0.1111111
        k(   17) = (  -0.0856790  -0.0494668   0.0000000), wk =   0.0555556
        k(   18) = (  -0.0856790  -0.0164889   0.0000000), wk =   0.1111111
        k(   19) = (  -0.0856790   0.0164889   0.0000000), wk =   0.1111111
        k(   20) = (  -0.0856790  -0.1484004   0.0000000), wk =   0.0555556

     Largest allocated arrays     est. size (Mb)     dimensions
     Largest temporary arrays     est. size (Mb)     dimensions

     Initial potential from superposition of free atoms
     Check: negative starting charge=   -0.001971

     starting charge  226.49915, renormalised to  231.00000

     negative rho (up, down):  2.010E-03 0.000E+00

     *
     * You are using vdW-DF for exchange-correlation in this calculation.
     * Please cite the following three references that made this development
     * possible:
     *
     *   M. Dion, H. Rydberg, E. Schroder, D. C. Langreth, and
     *   B. I. Lundqvist, Phys. Rev. Lett. 92, 246401 (2004).
     *
     *   T. Thonhauser, V. R. Cooper, S. Li, A. Puzder, P. Hyldgaard, and
     *   D. C. Langreth, Phys. Rev. B 76, 125112 (2007).
     *
     *   G. Roman-Perez and J. M. Soler, Phys. Rev. Lett. 103, 096102 (2009).
     *
     *
     * If you are using vdW-DF2, please also cite:
     *
     *   K. Lee, E. D. Murray, L. Kong, B. I. Lundqvist, and
     *   D. C. Langreth, Phys. Rev. B 82, 081101(R) (2010).
     *
     *
     * If you are calculating the stress with vdW-DF, please also cite:
     *
     *   R. Sabatini, E. Kucukbenli, B. Kolb, T. Thonhauser, and
     *   S. de Gironcoli, J. Phys.: Condens. Matter 24, 424209 (2012).
     *

     Carrying out vdW-DF run using the following parameters:

     Nqs =      20    Nr_points =    1024   r_max =   100.000
     q_mesh =
               0.00001000     0.04494208     0.09755937     0.15916263
               0.23128650     0.31572767     0.41458969     0.53033537
               0.66584808     0.82450364     1.01025438     1.22772762
               1.48234092     1.78043706     2.12944203     2.53805004
               3.01644009     3.57652955     4.23227104     5.00000000

     Gradients computed in reciprocal space

     Adding external electric field

     Computed dipole along edir(3) :
        Dipole               -0.0000 Ry au,         -0.0000 Debye
        Dipole field         -0.0000 Ry au

        Potential amp.        0.0000 Ry
        Total length         45.6288 bohr

     Starting wfc are  156 randomized atomic wfcs

     Self-consistent Calculation

     iteration #  1     ecut=    36.75 Ry     beta=0.10
     Davidson diagonalization with overlap
     ethr =  1.00E-02,  avg # of iterations =  7.2

[...]

     total energy              =   -4058.54931844 Ry
     Harris-Foulkes estimate   =   -4060.76717442 Ry
     estimated scf accuracy    <      12.98749827 Ry

[...]

     End of self-consistent calculation

          k = 0.0000 0.0000 0.0000 ( 18535 PWs)   bands (ev):

  -125.3703-125.2276-125.2276 -91.2827 -91.2753 -91.2753 -90.9648 -90.9647
   -90.9575 -90.9575 -90.9574 -90.9574 -79.5532 -79.5529 -79.5529 -79.4260
   -79.4260 -79.4028 -79.4028 -79.4027 -79.4027 -54.8348 -54.7995 -54.7995
   -54.7744 -54.7712 -54.7712 -54.7504 -54.7280 -54.7280 -54.5164 -54.5158
   -54.4977 -54.4977 -54.4959 -54.4959 -54.4535 -54.4530 -54.4297 -54.4256
   -54.4254 -54.4254 -54.4247 -54.4247 -54.4169 -54.4169 -54.4153 -54.4153
    -6.4983  -6.4498  -6.4498  -6.4002  -6.4002  -6.3474  -6.2761  -6.2677
    -6.2677  -6.2455  -6.2433  -6.2433  -6.1632  -6.1632  -6.1497  -6.1497
    -5.4098  -5.1255  -5.0273  -4.7072  -4.6680  -4.4957  -4.4957  -4.4507
    -4.2929  -4.2929  -4.1438  -4.1438  -4.0562  -4.0562  -4.0143  -3.7935
    -3.7935  -3.6087  -3.5373  -3.5373  -3.3182  -3.2192  -3.1470  -3.1470
    -3.1373  -3.0192  -3.0192  -2.9889  -2.9889  -2.8156  -2.7707  -2.7707
    -2.6444  -2.6444  -2.6237  -2.6237  -2.5786  -2.5786  -2.4354  -2.4354
    -2.3438  -2.1942  -2.1566  -2.1566  -1.9244  -1.9059  -0.8425   0.6997
     0.6997   0.7830   1.1199   1.2729   1.5704   1.5704   2.0091   2.0091
     2.0333   3.1051   4.2316   4.3671   4.3671   4.5343   4.9603   5.1148
     5.4423   5.4423   5.4605   6.1404   6.1404   6.4340   6.7770   7.8766
     7.9650   8.5012   8.5012   8.5013   8.6851   8.7380   8.7380   9.8906
     9.9124

[...]

          k =-0.0857-0.0495 0.0000 ( 18536 PWs)   bands (ev):

[...]

     the Fermi energy is     1.2003 ev

!    total energy              =   -4058.18253675 Ry
     Harris-Foulkes estimate   =   -4058.18253726 Ry
     estimated scf accuracy    <       0.00000073 Ry

     The total energy is the sum of the following terms:

     one-electron contribution =  -28331.40536059 Ry
     hartree contribution      =   14152.87825978 Ry
     xc contribution           =    -400.94880989 Ry
     ewald contribution        =   10521.31469502 Ry
     electric field correction =       0.00000000 Ry
     smearing contrib. (-TS)   =      -0.02132107 Ry

     convergence has been achieved in  14 iterations

 BEEF-vdW xc energy contributions
           1 :   -350.232289528424
           2 :    317.349737880564
           3 :   -262.317224028107
           4 :    201.473139681350
           5 :   -149.625922309830
           6 :    114.610154960619
           7 :   -95.9010132457954
[...]
                l(1) =   0
                l(2) =   0
                l(3) =   1
                l(4) =   1
                l(5) =   2
                l(6) =   2
     Q(r) pseudized with  6 coefficients,  rinner =    1.300   1.300   1.300
                                                       1.300   1.300

     PseudoPot. # 2 for Zn read from file:
     /afs/slac.stanford.edu/u/if/mamunm/psp/gbrv1.5pbe/Zn.UPF
     MD5 check sum: df62231357ef9e81f77b2b3087fa5675
     Pseudo is Ultrasoft, Zval = 20.0
     Generated by new atomic code, or converted to UPF format
     Using radial grid of  943 points,  6 beta functions with:
                l(1) =   0
                l(2) =   0
                l(3) =   1
                l(4) =   1
                l(5) =   2
                l(6) =   2
     Q(r) pseudized with  8 coefficients,  rinner =    1.100   1.100   1.100
                                                       1.100   1.100

     vdW kernel table read from file vdW_kernel_table
     MD5 check sum: 095c7af220d748ca6e76c0b4c6cfb241

     atomic species   valence    mass     pseudopotential
        Ag1           19.00   107.86820     Ag( 1.00)
        Zn1           20.00    65.38000     Zn( 1.00)

     No symmetry found

   Cartesian axes

     site n.     atom                  positions (alat units)
         1           Ag1 tau(   1) = (   0.0000000   0.0000000  10.0000000  )
         2           Ag1 tau(   2) = (  -1.4589338   2.5269474  10.0000000  )
         3           Ag1 tau(   3) = (   1.4589338   2.5269474  10.0000000  )
         4           Zn1 tau(   4) = (   2.9178676   0.0000000  10.0000000  )
         5           Ag1 tau(   5) = (   2.9178676   1.6846316  12.3824289  )
         6           Ag1 tau(   6) = (   1.4589338   4.2115790  12.3824289  )
         7           Ag1 tau(   7) = (  -1.4589338   4.2115790  12.3824289  )
         8           Zn1 tau(   8) = (   0.0000000   1.6846316  12.3824289  )
         9           Ag1 tau(   9) = (   0.0000001   3.3555303  14.8455471  )
        10           Ag1 tau(  10) = (   1.4470431   0.8491808  14.8455494  )
        11           Ag1 tau(  11) = (   4.3886920   0.8491811  14.8455513  )
        12           Zn1 tau(  12) = (   2.9178760   3.3692708  14.8238755  )

     number of k points=    20  Fermi-Dirac smearing, width (Ry)=  0.0110
                       cart. coord. in units 2pi/alat
        k(    1) = (   0.0000000   0.0000000   0.0000000), wk =   0.0555556
        k(    2) = (   0.0000000   0.0329779   0.0000000), wk =   0.1111111
        k(    3) = (   0.0000000   0.0659557   0.0000000), wk =   0.1111111
        k(    4) = (   0.0000000  -0.0989336   0.0000000), wk =   0.0555556
        k(    5) = (   0.0285597   0.0164889   0.0000000), wk =   0.1111111
        k(    6) = (   0.0285597   0.0494668   0.0000000), wk =   0.1111111
        k(    7) = (   0.0285597   0.0824447   0.0000000), wk =   0.1111111
        k(    8) = (   0.0285597  -0.0824447   0.0000000), wk =   0.1111111
        k(    9) = (   0.0285597  -0.0494668   0.0000000), wk =   0.1111111
        k(   10) = (   0.0285597  -0.0164889   0.0000000), wk =   0.1111111
        k(   11) = (   0.0571193   0.0329779   0.0000000), wk =   0.1111111
        k(   12) = (   0.0571193   0.0659557   0.0000000), wk =   0.1111111
        k(   13) = (   0.0571193   0.0989336   0.0000000), wk =   0.1111111
        k(   14) = (   0.0571193  -0.0659557   0.0000000), wk =   0.1111111
        k(   15) = (   0.0571193  -0.0329779   0.0000000), wk =   0.1111111
        k(   16) = (   0.0571193  -0.0000000   0.0000000), wk =   0.1111111
        k(   17) = (  -0.0856790  -0.0494668   0.0000000), wk =   0.0555556
        k(   18) = (  -0.0856790  -0.0164889   0.0000000), wk =   0.1111111
        k(   19) = (  -0.0856790   0.0164889   0.0000000), wk =   0.1111111
        k(   20) = (  -0.0856790  -0.1484004   0.0000000), wk =   0.0555556

     Largest allocated arrays     est. size (Mb)     dimensions
     Largest temporary arrays     est. size (Mb)     dimensions

     Initial potential from superposition of free atoms
     Check: negative starting charge=   -0.002006

     starting charge  226.49915, renormalised to  231.00000

[...]

     *
     * You are using vdW-DF for exchange-correlation in this calculation.
     * Please cite the following three references that made this development
     * possible:
     *
     *   M. Dion, H. Rydberg, E. Schroder, D. C. Langreth, and
     *   B. I. Lundqvist, Phys. Rev. Lett. 92, 246401 (2004).
     *
     *   T. Thonhauser, V. R. Cooper, S. Li, A. Puzder, P. Hyldgaard, and
     *   D. C. Langreth, Phys. Rev. B 76, 125112 (2007).
     *
     *   G. Roman-Perez and J. M. Soler, Phys. Rev. Lett. 103, 096102 (2009).
     *
     *
     * If you are using vdW-DF2, please also cite:
     *
     *   K. Lee, E. D. Murray, L. Kong, B. I. Lundqvist, and
     *   D. C. Langreth, Phys. Rev. B 82, 081101(R) (2010).
     *
     *
     * If you are calculating the stress with vdW-DF, please also cite:
     *
     *   R. Sabatini, E. Kucukbenli, B. Kolb, T. Thonhauser, and
     *   S. de Gironcoli, J. Phys.: Condens. Matter 24, 424209 (2012).
     *

     Carrying out vdW-DF run using the following parameters:

     Nqs =      20    Nr_points =    1024   r_max =   100.000
     q_mesh =
               0.00001000     0.04494208     0.09755937     0.15916263
               0.23128650     0.31572767     0.41458969     0.53033537
               0.66584808     0.82450364     1.01025438     1.22772762
               1.48234092     1.78043706     2.12944203     2.53805004
               3.01644009     3.57652955     4.23227104     5.00000000

     Gradients computed in reciprocal space

[...]

     Starting wfc are  156 randomized atomic wfcs

     Self-consistent Calculation

[...]

     total energy              =   -4058.19021971 Ry
     Harris-Foulkes estimate   =   -4058.19021940 Ry
     estimated scf accuracy    <       0.00000422 Ry

     iteration # 14     ecut=    36.75 Ry     beta=0.10
     Davidson diagonalization with overlap
     ethr =  1.83E-09,  avg # of iterations =  2.0

[...]

     negative rho (up, down):  1.940E-03 0.000E+00

     Adding external electric field

     Computed dipole along edir(3) :
        Dipole               -0.0043 Ry au,         -0.0108 Debye
        Dipole field         -0.0000 Ry au

        Potential amp.        0.0010 Ry
        Total length         45.6288 bohr

     End of self-consistent calculation

[...]

          k = 0.0571-0.0000 0.0000 ( 18535 PWs)   bands (ev):

[...]

          k =-0.0857-0.1484 0.0000 ( 18536 PWs)   bands (ev):

  -125.3459-125.2308-125.2093 -91.2341 -91.2317 -91.2292 -90.9597 -90.9573
   -90.9548 -90.9104 -90.9078 -90.9054 -79.5299 -79.5271 -79.5270 -79.4287
   -79.4072 -79.4061 -79.4060 -79.3846 -79.3845 -54.7684 -54.7399 -54.7355
   -54.7310 -54.7285 -54.7173 -54.7165 -54.7083 -54.6844 -54.4996 -54.4734
   -54.4711 -54.4675 -54.4581 -54.4530 -54.4279 -54.4261 -54.4255 -54.4213
   -54.4202 -54.4183 -54.4138 -54.4090 -54.3772 -54.3675 -54.3640 -54.3605
    -6.3689  -6.3312  -6.3101  -6.3008  -6.2950  -6.2323  -6.2049  -6.1919
    -6.1812  -6.1628  -6.1464  -6.1350  -6.1324  -6.1279  -6.1080  -5.0947
    -4.9945  -4.6751  -4.5629  -4.4261  -4.3556  -4.3063  -4.2830  -4.1457
    -4.0284  -4.0010  -3.9963  -3.9301  -3.9117  -3.8791  -3.8418  -3.7941
    -3.7005  -3.5959  -3.4277  -3.3936  -3.3712  -3.3410  -3.2839  -3.2479
    -3.2289  -3.1893  -3.1783  -3.1420  -3.1118  -3.0587  -3.0528  -3.0366
    -2.9972  -2.9542  -2.9485  -2.9354  -2.8885  -2.8630  -2.8087  -2.7280
    -2.6953  -2.5962  -2.5455  -2.4296  -2.2304  -2.1014  -2.0875  -1.6860
    -0.4274   0.4261   0.4782   0.5676   1.3155   1.5929   3.0657   3.3356
     3.5250   3.6493   5.5796   5.6246   5.9388   6.0508   6.4507   6.4838
     6.5374   6.5410   6.6196   6.8074   6.8449   6.8713   7.4263   7.7803
     7.8883   7.9432   7.9501   8.1176   8.2645   8.2782   8.3883   8.9602
     9.1293

     the Fermi energy is     1.1805 ev

!    total energy              =   -4058.19021909 Ry
     Harris-Foulkes estimate   =   -4058.19022073 Ry
     estimated scf accuracy    <       0.00000051 Ry

     The total energy is the sum of the following terms:

     one-electron contribution =  -28049.20871391 Ry
     hartree contribution      =   14012.03527261 Ry
     xc contribution           =    -400.91621868 Ry
     ewald contribution        =   10379.92011023 Ry
     electric field correction =       0.00000005 Ry
     smearing contrib. (-TS)   =      -0.02066940 Ry

     convergence has been achieved in  14 iterations

 BEEF-vdW xc energy contributions
           1 :   -350.362443978934
           2 :    317.431022124884
           3 :   -262.343351966940
           4 :    201.489130831201
           5 :   -149.697215377917
           6 :    114.775235836266
           7 :   -96.1422728953144
           8 :    87.5052305959508
           9 :   -81.5051601779295
          10 :    73.5828419385863
          11 :   -63.2549761890115
          12 :    52.7683003199155
          13 :   -44.5992861374939
          14 :    39.5975964390287
          15 :   -36.7617012013633
          16 :    34.3609397419396
          17 :   -31.3068041902546
          18 :    27.7475854722426
          19 :   -24.6231761338825
          20 :    22.7067035874115
          21 :   -21.9423312105650
          22 :    21.5311323904079
          23 :   -20.5941317952933
          24 :    18.8339952100735
          25 :   -16.7007620366343
          26 :    14.9930091135831
          27 :   -14.2485194180292
          28 :    14.3841165243694
          29 :   -14.8121965088054
          30 :    14.8930589297381
          31 :   -32.2837516702315
          32 :   -23.0870665744301

     Forces acting on atoms (Ry/au):

     negative rho (up, down):  1.940E-03 0.000E+00
     atom    1 type  1   force =     0.00000037    0.00453085   -0.00647341
     atom    2 type  1   force =     0.00392385   -0.00226532   -0.00647323
     atom    3 type  1   force =    -0.00392359   -0.00226553   -0.00647327
     atom    4 type  2   force =    -0.00000072    0.00000048   -0.00350510
     atom    5 type  1   force =    -0.00000004   -0.00148071    0.00631020
     atom    6 type  1   force =    -0.00128230    0.00074010    0.00631003
     atom    7 type  1   force =     0.00128242    0.00074022    0.00630962
     atom    8 type  2   force =     0.00000010    0.00000031    0.00305280
     atom    9 type  1   force =     0.00000012    0.00116605   -0.00016656
     atom   10 type  1   force =     0.00100980   -0.00058262   -0.00016666
     atom   11 type  1   force =    -0.00100985   -0.00058296   -0.00016678
     atom   12 type  2   force =    -0.00000016   -0.00000085    0.00144235

     Total force =     0.018471     Total SCF correction =     0.006536
     SCF correction compared to forces is large: reduce conv_thr to get better values

     entering subroutine stress ...

     negative rho (up, down):  1.940E-03 0.000E+00
          total   stress  (Ry/bohr**3)                   (kbar)     P=   -7.66
  -0.00007411   0.00000000  -0.00000000        -10.90      0.00     -0.00
   0.00000000  -0.00007411  -0.00000000          0.00    -10.90     -0.00
  -0.00000000  -0.00000000  -0.00000790         -0.00     -0.00     -1.16

 !ASE

     Writing output data file calc.save

     General routines

     Parallel routines

   This run was terminated on:  18:16:17  19Dec2018

   JOB DONE.
Job  /afs/slac/g/suncat/bin/suncat-tsmpirun -x LD_LIBRARY_PATH -wdir /scratch/qe773221_5Khzn pw.x -in pw.inp

TID   HOST_NAME   COMMAND_LINE            STATUS            TERMINATION_TIME
00000 suncat0234 pw.x -in pw.inp   Done                     12/19/2018 18:16:17
00001 suncat0234 pw.x -in pw.inp   Done                     12/19/2018 18:16:17
00002 suncat0234 pw.x -in pw.inp   Done                     12/19/2018 18:16:17
00003 suncat0234 pw.x -in pw.inp   Done                     12/19/2018 18:16:17
00004 suncat0234 pw.x -in pw.inp   Done                     12/19/2018 18:16:17
00005 suncat0234 pw.x -in pw.inp   Done                     12/19/2018 18:16:17
00006 suncat0234 pw.x -in pw.inp   Done                     12/19/2018 18:16:17
00007 suncat0234 pw.x -in pw.inp   Done                     12/19/2018 18:16:17
00008 suncat0233 pw.x -in pw.inp   Done                     12/19/2018 18:16:17
00009 suncat0233 pw.x -in pw.inp   Done                     12/19/2018 18:16:17
00010 suncat0233 pw.x -in pw.inp   Done                     12/19/2018 18:16:17
00011 suncat0233 pw.x -in pw.inp   Done                     12/19/2018 18:16:17
00012 suncat0233 pw.x -in pw.inp   Done                     12/19/2018 18:16:17
00013 suncat0233 pw.x -in pw.inp   Done                     12/19/2018 18:16:17
00014 suncat0233 pw.x -in pw.inp   Done                     12/19/2018 18:16:17
00015 suncat0233 pw.x -in pw.inp   Done                     12/19/2018 18:16:17
00016 suncat0232 pw.x -in pw.inp   Done                     12/19/2018 18:16:17
00017 suncat0232 pw.x -in pw.inp   Done                     12/19/2018 18:16:17
00018 suncat0232 pw.x -in pw.inp   Done                     12/19/2018 18:16:17
00019 suncat0232 pw.x -in pw.inp   Done                     12/19/2018 18:16:17
00020 suncat0232 pw.x -in pw.inp   Done                     12/19/2018 18:16:17
00021 suncat0232 pw.x -in pw.inp   Done                     12/19/2018 18:16:17
00022 suncat0232 pw.x -in pw.inp   Done                     12/19/2018 18:16:17
00023 suncat0232 pw.x -in pw.inp   Done                     12/19/2018 18:16:17
00024 suncat0231 pw.x -in pw.inp   Done                     12/19/2018 18:16:17
00025 suncat0231 pw.x -in pw.inp   Done                     12/19/2018 18:16:17
00026 suncat0231 pw.x -in pw.inp   Done                     12/19/2018 18:16:17
00027 suncat0231 pw.x -in pw.inp   Done                     12/19/2018 18:16:17
00028 suncat0231 pw.x -in pw.inp   Done                     12/19/2018 18:16:17
00029 suncat0231 pw.x -in pw.inp   Done                     12/19/2018 18:16:17
00030 suncat0231 pw.x -in pw.inp   Done                     12/19/2018 18:16:17
00031 suncat0231 pw.x -in pw.inp   Done                     12/19/2018 18:16:17
00032 suncat0230 pw.x -in pw.inp   Done                     12/19/2018 18:16:17
00033 suncat0230 pw.x -in pw.inp   Done                     12/19/2018 18:16:17
00034 suncat0230 pw.x -in pw.inp   Done                     12/19/2018 18:16:17
00035 suncat0230 pw.x -in pw.inp   Done                     12/19/2018 18:16:17
00036 suncat0230 pw.x -in pw.inp   Done                     12/19/2018 18:16:17
00037 suncat0230 pw.x -in pw.inp   Done                     12/19/2018 18:16:17
00038 suncat0230 pw.x -in pw.inp   Done                     12/19/2018 18:16:17
00039 suncat0230 pw.x -in pw.inp   Done                     12/19/2018 18:16:17
00040 suncat0229 pw.x -in pw.inp   Done                     12/19/2018 18:16:17
00041 suncat0229 pw.x -in pw.inp   Done                     12/19/2018 18:16:17
00042 suncat0229 pw.x -in pw.inp   Done                     12/19/2018 18:16:17
00043 suncat0229 pw.x -in pw.inp   Done                     12/19/2018 18:16:17
00044 suncat0229 pw.x -in pw.inp   Done                     12/19/2018 18:16:17
00045 suncat0229 pw.x -in pw.inp   Done                     12/19/2018 18:16:17
00046 suncat0229 pw.x -in pw.inp   Done                     12/19/2018 18:16:17
00047 suncat0229 pw.x -in pw.inp   Done                     12/19/2018 18:16:17
00048 suncat0228 pw.x -in pw.inp   Done                     12/19/2018 18:16:17
00049 suncat0228 pw.x -in pw.inp   Done                     12/19/2018 18:16:17
00050 suncat0228 pw.x -in pw.inp   Done                     12/19/2018 18:16:17
00051 suncat0228 pw.x -in pw.inp   Done                     12/19/2018 18:16:17
00052 suncat0228 pw.x -in pw.inp   Done                     12/19/2018 18:16:17
00053 suncat0228 pw.x -in pw.inp   Done                     12/19/2018 18:16:17
00054 suncat0228 pw.x -in pw.inp   Done                     12/19/2018 18:16:17
00055 suncat0228 pw.x -in pw.inp   Done                     12/19/2018 18:16:17
00056 suncat0227 pw.x -in pw.inp   Done                     12/19/2018 18:16:17
00057 suncat0227 pw.x -in pw.inp   Done                     12/19/2018 18:16:17
00058 suncat0227 pw.x -in pw.inp   Done                     12/19/2018 18:16:17
00059 suncat0227 pw.x -in pw.inp   Done                     12/19/2018 18:16:17
00060 suncat0227 pw.x -in pw.inp   Done                     12/19/2018 18:16:17
00061 suncat0227 pw.x -in pw.inp   Done                     12/19/2018 18:16:17
00062 suncat0227 pw.x -in pw.inp   Done                     12/19/2018 18:16:17
00063 suncat0227 pw.x -in pw.inp   Done                     12/19/2018 18:16:17