     Program PWSCF v.5.1rc2 (svn rev. 11289) starts on 19Dec2018 at 21: 3:15

     Current dimensions of program PWSCF are:
     Max number of different atomic species (ntypx) = 10
     Max number of k-points (npk) =  40000
     Max angular momentum in pseudopotentials (lmaxx) =  3
     Presently stress not available with electric field

     IMPORTANT: XC functional enforced from input :
     Exchange-correlation      = BEEF-VDW ( 1  4 27 13 2)
     Any further DFT definition will be discarded
     Please, verify this is what you really want

     Subspace diagonalization in iterative solution of the eigenvalue problem:
     a serial algorithm will be used

     bravais-lattice index     =            0
     lattice parameter (alat)  =       1.8897  a.u.
     unit-cell volume          =    5338.0947 (a.u.)^3
     number of atoms/cell      =           12
     number of atomic types    =            2
     number of electrons       =       150.00
     number of Kohn-Sham states=          105
     kinetic-energy cutoff     =      36.7493  Ry
     charge density cutoff     =     367.4932  Ry
     convergence threshold     =      1.0E-06
     mixing beta               =       0.1000
     number of iterations used =           10  plain     mixing
     Exchange-correlation      = BEEF-VDW ( 1  4 27 13 2)
     nstep                     =           50

     celldm(1)=   1.889726  celldm(2)=   0.000000  celldm(3)=   0.000000
     celldm(4)=   0.000000  celldm(5)=   0.000000  celldm(6)=   0.000000

     crystal axes: (cart. coord. in units of alat)
               a(1) = (   6.051618   0.000000   0.000000 )
               a(2) = (  -3.025809   5.240855   0.000000 )
               a(3) = (   0.000000   0.000000  24.941125 )

     reciprocal axes: (cart. coord. in units 2 pi/alat)
               b(1) = (  0.165245  0.095404  0.000000 )
               b(2) = (  0.000000  0.190809  0.000000 )
               b(3) = (  0.000000  0.000000  0.040094 )

     PseudoPot. # 1 for Cd read from file:
     /afs/slac.stanford.edu/u/if/mamunm/psp/gbrv1.5pbe/Cd.UPF
     MD5 check sum: 17164a7926edb8e0dc231208abae86a6
     Pseudo is Ultrasoft + core correction, Zval = 12.0
     Generated by new atomic code, or converted to UPF format
     Using radial grid of  889 points,  6 beta functions with:
                l(1) =   0
                l(2) =   0
                l(3) =   1
                l(4) =   1
                l(5) =   2
                l(6) =   2
     Q(r) pseudized with  6 coefficients,  rinner =    1.000   1.000   1.000
                                                       1.000   1.000

     PseudoPot. # 2 for Mo read from file:
     /afs/slac.stanford.edu/u/if/mamunm/psp/gbrv1.5pbe/Mo.UPF
     MD5 check sum: 30c4dcd161f5d35cd49bb5239c51a633
     Pseudo is Ultrasoft + core correction, Zval = 14.0
     Generated by new atomic code, or converted to UPF format
     Using radial grid of  889 points,  6 beta functions with:
                l(1) =   0
                l(2) =   0
                l(3) =   1
                l(4) =   1
                l(5) =   2
                l(6) =   2
     Q(r) pseudized with  6 coefficients,  rinner =    1.000   1.000   1.000
                                                       1.000   1.000

     vdW kernel table read from file vdW_kernel_table
     MD5 check sum: 095c7af220d748ca6e76c0b4c6cfb241

     atomic species   valence    mass     pseudopotential
        Cd1           12.00   112.41400     Cd( 1.00)
        Mo1           14.00    95.95000     Mo( 1.00)

     No symmetry found

   Cartesian axes

     site n.     atom                  positions (alat units)
         1           Cd1 tau(   1) = (   0.0000000   0.0000000  10.0000000  )
         2           Cd1 tau(   2) = (   4.5387134   2.6204274  10.0000000  )
         3           Cd1 tau(   3) = (   1.5129045   2.6204274  10.0000000  )
         4           Mo1 tau(   4) = (   3.0258089   0.0000000  10.0000000  )
         5           Cd1 tau(   5) = (   3.0258089   1.7469516  12.4705627  )
         6           Cd1 tau(   6) = (   1.5129045   4.3673790  12.4705627  )
         7           Cd1 tau(   7) = (  -1.5129045   4.3673790  12.4705627  )
         8           Mo1 tau(   8) = (   0.0000000   1.7469516  12.4705627  )
         9           Cd1 tau(   9) = (  -0.0000000   3.4939032  14.9411253  )
        10           Cd1 tau(  10) = (   1.5129045   0.8734758  14.9411253  )
        11           Cd1 tau(  11) = (   4.5387134   0.8734758  14.9411253  )
        12           Mo1 tau(  12) = (   3.0258089   3.4939032  14.9411253  )

     number of k points=    20  Fermi-Dirac smearing, width (Ry)=  0.0110
                       cart. coord. in units 2pi/alat
        k(    1) = (   0.0000000   0.0000000   0.0000000), wk =   0.0555556
        k(    2) = (   0.0000000   0.0318014   0.0000000), wk =   0.1111111
        k(    3) = (   0.0000000   0.0636029   0.0000000), wk =   0.1111111
        k(    4) = (   0.0000000  -0.0954043   0.0000000), wk =   0.0555556
        k(    5) = (   0.0275408   0.0159007   0.0000000), wk =   0.1111111
        k(    6) = (   0.0275408   0.0477021   0.0000000), wk =   0.1111111
        k(    7) = (   0.0275408   0.0795036   0.0000000), wk =   0.1111111
        k(    8) = (   0.0275408  -0.0795036   0.0000000), wk =   0.1111111
        k(    9) = (   0.0275408  -0.0477021   0.0000000), wk =   0.1111111
        k(   10) = (   0.0275408  -0.0159007   0.0000000), wk =   0.1111111
        k(   11) = (   0.0550817   0.0318014   0.0000000), wk =   0.1111111
        k(   12) = (   0.0550817   0.0636029   0.0000000), wk =   0.1111111
        k(   13) = (   0.0550817   0.0954043   0.0000000), wk =   0.1111111
        k(   14) = (   0.0550817  -0.0636029   0.0000000), wk =   0.1111111
        k(   15) = (   0.0550817  -0.0318014   0.0000000), wk =   0.1111111
        k(   16) = (   0.0550817   0.0000000   0.0000000), wk =   0.1111111
        k(   17) = (  -0.0826225  -0.0477021   0.0000000), wk =   0.0555556
        k(   18) = (  -0.0826225  -0.0159007   0.0000000), wk =   0.1111111
        k(   19) = (  -0.0826225   0.0159007   0.0000000), wk =   0.1111111
        k(   20) = (  -0.0826225  -0.1431064   0.0000000), wk =   0.0555556

     Largest allocated arrays     est. size (Mb)     dimensions
     Largest temporary arrays     est. size (Mb)     dimensions

     Initial potential from superposition of free atoms
     Check: negative starting charge=   -0.189741

     starting charge  145.49644, renormalised to  150.00000

     negative rho (up, down):  1.956E-01 0.000E+00

     *
     * You are using vdW-DF for exchange-correlation in this calculation.
     * Please cite the following three references that made this development
     * possible:
     *
     *   M. Dion, H. Rydberg, E. Schroder, D. C. Langreth, and
     *   B. I. Lundqvist, Phys. Rev. Lett. 92, 246401 (2004).
     *
     *   T. Thonhauser, V. R. Cooper, S. Li, A. Puzder, P. Hyldgaard, and
     *   D. C. Langreth, Phys. Rev. B 76, 125112 (2007).
     *
     *   G. Roman-Perez and J. M. Soler, Phys. Rev. Lett. 103, 096102 (2009).
     *
     *
     * If you are using vdW-DF2, please also cite:
     *
     *   K. Lee, E. D. Murray, L. Kong, B. I. Lundqvist, and
     *   D. C. Langreth, Phys. Rev. B 82, 081101(R) (2010).
     *
     *
     * If you are calculating the stress with vdW-DF, please also cite:
     *
     *   R. Sabatini, E. Kucukbenli, B. Kolb, T. Thonhauser, and
     *   S. de Gironcoli, J. Phys.: Condens. Matter 24, 424209 (2012).
     *

     Carrying out vdW-DF run using the following parameters:

     Nqs =      20    Nr_points =    1024   r_max =   100.000
     q_mesh =
               0.00001000     0.04494208     0.09755937     0.15916263
               0.23128650     0.31572767     0.41458969     0.53033537
               0.66584808     0.82450364     1.01025438     1.22772762
               1.48234092     1.78043706     2.12944203     2.53805004
               3.01644009     3.57652955     4.23227104     5.00000000

     Gradients computed in reciprocal space

     Adding external electric field

     Computed dipole along edir(3) :
        Dipole               -0.0000 Ry au,         -0.0000 Debye
        Dipole field         -0.0000 Ry au

        Potential amp.        0.0000 Ry
        Total length         45.9536 bohr

     Starting wfc are  120 randomized atomic wfcs

     Self-consistent Calculation

     iteration #  1     ecut=    36.75 Ry     beta=0.10
     Davidson diagonalization with overlap
     ethr =  1.00E-02,  avg # of iterations =  8.2

     Threshold (ethr) on eigenvalues was too large:
     Diagonalizing with lowered threshold

     Davidson diagonalization with overlap
     ethr =  5.37E-04,  avg # of iterations =  3.3

[...]

     total energy              =   -1464.29847340 Ry
     Harris-Foulkes estimate   =   -1464.41207326 Ry
     estimated scf accuracy    <       0.78809627 Ry

[...]

     End of self-consistent calculation

          k = 0.0000 0.0000 0.0000 ( 19951 PWs)   bands (ev):

   -59.9998 -59.8866 -59.8866 -34.0678 -34.0502 -34.0502 -34.0433 -34.0424
   -33.8791 -33.8791 -33.8789 -33.8789  -8.7210  -8.5555  -8.5320  -8.5320
    -8.4468  -8.4357  -8.3537  -8.3008  -8.3008  -8.2071  -8.2071  -8.1958
    -8.1957  -8.0781  -8.0109  -8.0109  -7.9495  -7.8972  -7.8160  -7.8160
    -7.7942  -7.7421  -7.6903  -7.6903  -7.6430  -7.6430  -7.5211  -7.5211
    -7.4705  -7.4705  -7.4317  -7.4009  -7.4009  -7.3972  -7.3972  -7.3587
    -7.3586  -7.1990  -7.1990  -7.1339  -7.0944  -7.0859  -7.0859  -6.9218
    -6.9160  -6.8632  -5.1317  -2.8172  -1.4694  -1.4694  -1.0500  -1.0500
    -1.0040  -0.4791  -0.4791  -0.4630   0.0925   0.1882   0.1883   0.6282
     0.9613   0.9613   1.0342   1.1524   1.1524   1.2273   1.2273   1.8889
     1.9827   1.9827   2.1010   2.1927   2.1927   4.0831   4.0831   4.1657
     4.2175   4.2175   4.3889   4.4596   4.9538   4.9538   4.9567   5.1424
     5.5218   5.9568   6.3702   7.2881   7.2881   7.4819   7.5803   7.7670
     7.7670

[...]

          k =-0.0826-0.0477 0.0000 ( 20100 PWs)   bands (ev):

[...]

     the Fermi energy is     0.9327 ev

!    total energy              =   -1464.21079842 Ry
     Harris-Foulkes estimate   =   -1464.21436023 Ry
     estimated scf accuracy    <       0.00000057 Ry

     The total energy is the sum of the following terms:

     one-electron contribution =  -10226.45693545 Ry
     hartree contribution      =    5182.28465795 Ry
     xc contribution           =    -427.23897201 Ry
     ewald contribution        =    4007.27426893 Ry
     electric field correction =       0.00000000 Ry
     smearing contrib. (-TS)   =      -0.07381784 Ry

     convergence has been achieved in  14 iterations

 BEEF-vdW xc energy contributions
           1 :   -373.296737222608
           2 :    341.521042202976
           3 :   -287.691616531075
           4 :    226.868195363358
           5 :   -173.247062816213
           6 :    135.149751046140
           7 :   -113.295791701460
           8 :    102.589388997770
           9 :   -96.0035010033444
          10 :    88.3501883192313
          11 :   -78.1687452194906
          12 :    67.2027796636578
[...]
               b(3) = (  0.000000  0.000000  0.040094 )

     PseudoPot. # 1 for Cd read from file:
     /afs/slac.stanford.edu/u/if/mamunm/psp/gbrv1.5pbe/Cd.UPF
     MD5 check sum: 17164a7926edb8e0dc231208abae86a6
     Pseudo is Ultrasoft + core correction, Zval = 12.0
     Generated by new atomic code, or converted to UPF format
     Using radial grid of  889 points,  6 beta functions with:
                l(1) =   0
                l(2) =   0
                l(3) =   1
                l(4) =   1
                l(5) =   2
                l(6) =   2
     Q(r) pseudized with  6 coefficients,  rinner =    1.000   1.000   1.000
                                                       1.000   1.000

     PseudoPot. # 2 for Mo read from file:
     /afs/slac.stanford.edu/u/if/mamunm/psp/gbrv1.5pbe/Mo.UPF
     MD5 check sum: 30c4dcd161f5d35cd49bb5239c51a633
     Pseudo is Ultrasoft + core correction, Zval = 14.0
     Generated by new atomic code, or converted to UPF format
     Using radial grid of  889 points,  6 beta functions with:
                l(1) =   0
                l(2) =   0
                l(3) =   1
                l(4) =   1
                l(5) =   2
                l(6) =   2
     Q(r) pseudized with  6 coefficients,  rinner =    1.000   1.000   1.000
                                                       1.000   1.000

     vdW kernel table read from file vdW_kernel_table
     MD5 check sum: 095c7af220d748ca6e76c0b4c6cfb241

     atomic species   valence    mass     pseudopotential
        Cd1           12.00   112.41400     Cd( 1.00)
        Mo1           14.00    95.95000     Mo( 1.00)

     No symmetry found

   Cartesian axes

     site n.     atom                  positions (alat units)
         1           Cd1 tau(   1) = (   0.0000000   0.0000000  10.0000000  )
         2           Cd1 tau(   2) = (   4.5387134   2.6204274  10.0000000  )
         3           Cd1 tau(   3) = (   1.5129045   2.6204274  10.0000000  )
         4           Mo1 tau(   4) = (   3.0258089   0.0000000  10.0000000  )
         5           Cd1 tau(   5) = (   3.0258089   1.7469516  12.4705627  )
         6           Cd1 tau(   6) = (   1.5129045   4.3673790  12.4705627  )
         7           Cd1 tau(   7) = (  -1.5129045   4.3673790  12.4705627  )
         8           Mo1 tau(   8) = (   0.0000000   1.7469516  12.4705627  )
         9           Cd1 tau(   9) = (   0.0000026   3.4931180  15.1297739  )
        10           Cd1 tau(  10) = (   1.5122363   0.8737785  15.1298774  )
        11           Cd1 tau(  11) = (   4.5393891   0.8738694  15.1298464  )
        12           Mo1 tau(  12) = (   3.0257797   3.4938742  14.7216224  )

     number of k points=    20  Fermi-Dirac smearing, width (Ry)=  0.0110
                       cart. coord. in units 2pi/alat
        k(    1) = (   0.0000000   0.0000000   0.0000000), wk =   0.0555556
        k(    2) = (   0.0000000   0.0318014   0.0000000), wk =   0.1111111
        k(    3) = (   0.0000000   0.0636029   0.0000000), wk =   0.1111111
        k(    4) = (   0.0000000  -0.0954043   0.0000000), wk =   0.0555556
        k(    5) = (   0.0275408   0.0159007   0.0000000), wk =   0.1111111
        k(    6) = (   0.0275408   0.0477021   0.0000000), wk =   0.1111111
        k(    7) = (   0.0275408   0.0795036   0.0000000), wk =   0.1111111
        k(    8) = (   0.0275408  -0.0795036   0.0000000), wk =   0.1111111
        k(    9) = (   0.0275408  -0.0477021   0.0000000), wk =   0.1111111
        k(   10) = (   0.0275408  -0.0159007   0.0000000), wk =   0.1111111
        k(   11) = (   0.0550817   0.0318014   0.0000000), wk =   0.1111111
        k(   12) = (   0.0550817   0.0636029   0.0000000), wk =   0.1111111
        k(   13) = (   0.0550817   0.0954043   0.0000000), wk =   0.1111111
        k(   14) = (   0.0550817  -0.0636029   0.0000000), wk =   0.1111111
        k(   15) = (   0.0550817  -0.0318014   0.0000000), wk =   0.1111111
        k(   16) = (   0.0550817   0.0000000   0.0000000), wk =   0.1111111
        k(   17) = (  -0.0826225  -0.0477021   0.0000000), wk =   0.0555556
        k(   18) = (  -0.0826225  -0.0159007   0.0000000), wk =   0.1111111
        k(   19) = (  -0.0826225   0.0159007   0.0000000), wk =   0.1111111
        k(   20) = (  -0.0826225  -0.1431064   0.0000000), wk =   0.0555556

     Largest allocated arrays     est. size (Mb)     dimensions
     Largest temporary arrays     est. size (Mb)     dimensions

     Initial potential from superposition of free atoms
     Check: negative starting charge=   -0.192006

     starting charge  145.49644, renormalised to  150.00000

[...]

     *
     * You are using vdW-DF for exchange-correlation in this calculation.
     * Please cite the following three references that made this development
     * possible:
     *
     *   M. Dion, H. Rydberg, E. Schroder, D. C. Langreth, and
     *   B. I. Lundqvist, Phys. Rev. Lett. 92, 246401 (2004).
     *
     *   T. Thonhauser, V. R. Cooper, S. Li, A. Puzder, P. Hyldgaard, and
     *   D. C. Langreth, Phys. Rev. B 76, 125112 (2007).
     *
     *   G. Roman-Perez and J. M. Soler, Phys. Rev. Lett. 103, 096102 (2009).
     *
     *
     * If you are using vdW-DF2, please also cite:
     *
     *   K. Lee, E. D. Murray, L. Kong, B. I. Lundqvist, and
     *   D. C. Langreth, Phys. Rev. B 82, 081101(R) (2010).
     *
     *
     * If you are calculating the stress with vdW-DF, please also cite:
     *
     *   R. Sabatini, E. Kucukbenli, B. Kolb, T. Thonhauser, and
     *   S. de Gironcoli, J. Phys.: Condens. Matter 24, 424209 (2012).
     *

     Carrying out vdW-DF run using the following parameters:

     Nqs =      20    Nr_points =    1024   r_max =   100.000
     q_mesh =
               0.00001000     0.04494208     0.09755937     0.15916263
               0.23128650     0.31572767     0.41458969     0.53033537
               0.66584808     0.82450364     1.01025438     1.22772762
               1.48234092     1.78043706     2.12944203     2.53805004
               3.01644009     3.57652955     4.23227104     5.00000000

     Gradients computed in reciprocal space

[...]

     Starting wfc are  120 randomized atomic wfcs

     Self-consistent Calculation

[...]

     total energy              =   -1464.23904472 Ry
     Harris-Foulkes estimate   =   -1464.23904505 Ry
     estimated scf accuracy    <       0.00000149 Ry

     iteration # 16     ecut=    36.75 Ry     beta=0.10
     Davidson diagonalization with overlap
     ethr =  9.93E-10,  avg # of iterations =  2.0

[...]

     negative rho (up, down):  1.994E-01 0.000E+00

     Adding external electric field

     Computed dipole along edir(3) :
        Dipole               -0.0325 Ry au,         -0.0825 Debye
        Dipole field         -0.0001 Ry au

        Potential amp.        0.0070 Ry
        Total length         45.9536 bohr

     End of self-consistent calculation

[...]

          k = 0.0551 0.0000 0.0000 ( 20089 PWs)   bands (ev):

[...]

          k =-0.0826-0.1431 0.0000 ( 20100 PWs)   bands (ev):

   -60.0580 -59.8899 -59.8543 -34.1120 -34.1021 -34.1014 -34.0330 -33.9977
   -33.8896 -33.8890 -33.8510 -33.8505  -8.3914  -8.2841  -8.2788  -8.1835
    -8.1469  -8.1046  -8.0746  -8.0317  -8.0091  -7.9821  -7.9808  -7.9783
    -7.9091  -7.8685  -7.8167  -7.8156  -7.7802  -7.7431  -7.7210  -7.6971
    -7.6935  -7.6790  -7.6505  -7.6269  -7.6023  -7.5884  -7.5859  -7.5463
    -7.5258  -7.5213  -7.5104  -7.5043  -7.5005  -7.4850  -7.4621  -7.4539
    -7.4418  -7.4141  -7.3938  -7.3208  -7.2783  -7.2770  -7.1761  -7.0816
    -6.9981  -5.2381  -5.0261  -3.7485  -3.4414  -2.5766  -1.8538  -1.5527
    -1.2746  -0.9071  -0.6753  -0.1154  -0.0399   0.2660   0.3263   0.3448
     0.3793   0.5517   0.7642   0.8502   1.2225   1.4087   1.7459   1.7916
     2.3092   2.4852   2.9317   3.1192   3.2773   3.4765   5.0130   5.0463
     5.1895   5.5160   5.6590   5.7602   5.8122   5.8233   5.8996   5.9381
     6.2051   6.2463   6.7796   6.7799   7.0094   7.1959   7.2405   7.2827
     7.3488

     the Fermi energy is     0.9010 ev

!    total energy              =   -1464.23904163 Ry
     Harris-Foulkes estimate   =   -1464.23904488 Ry
     estimated scf accuracy    <       0.00000057 Ry

     The total energy is the sum of the following terms:

     one-electron contribution =  -10111.51700234 Ry
     hartree contribution      =    5125.02248629 Ry
     xc contribution           =    -427.18023181 Ry
     ewald contribution        =    3949.50849158 Ry
     electric field correction =       0.00000248 Ry
     smearing contrib. (-TS)   =      -0.07278783 Ry

     convergence has been achieved in  16 iterations

 BEEF-vdW xc energy contributions
           1 :   -373.346292627584
           2 :    341.525933003897
           3 :   -287.648194009788
           4 :    226.818859475838
           5 :   -173.245451773508
           6 :    135.217358804366
           7 :   -113.404237296420
           8 :    102.681975081682
           9 :   -96.0389871955994
          10 :    88.3348808046085
          11 :   -78.1519386582323
          12 :    67.2395247795662
          13 :   -58.4039151848921
          14 :    53.3427887099934
          15 :   -51.6592672332637
          16 :    51.3659254910767
          17 :   -50.2825651417047
          18 :    47.3233130557701
          19 :   -42.9283779938121
          20 :    38.5239093713237
          21 :   -35.4888697876873
          22 :    34.3112924957579
          23 :   -34.4020306873038
          24 :    34.5742349301044
          25 :   -33.8127414850209
          26 :    31.8413028286860
          27 :   -29.1858486573174
          28 :    26.7599862953993
          29 :   -25.2750729408121
          30 :    24.8393071323088
          31 :   -34.8095611030412
          32 :   -25.6294754484868

     Forces acting on atoms (Ry/au):

     negative rho (up, down):  1.994E-01 0.000E+00
     atom    1 type  1   force =    -0.00000238    0.00186005   -0.02017882
     atom    2 type  1   force =     0.00161253   -0.00093340   -0.02018046
     atom    3 type  1   force =    -0.00161099   -0.00092608   -0.02017719
     atom    4 type  2   force =    -0.00000030    0.00000052    0.05384833
     atom    5 type  1   force =    -0.00000075   -0.01353369   -0.00146732
     atom    6 type  1   force =    -0.01172028    0.00676331   -0.00147075
     atom    7 type  1   force =     0.01171647    0.00676813   -0.00145654
     atom    8 type  2   force =     0.00000113   -0.00000013    0.01108267
     atom    9 type  1   force =     0.00000443   -0.00032661    0.00005928
     atom   10 type  1   force =    -0.00028296    0.00016409    0.00005087
     atom   11 type  1   force =     0.00027745    0.00016221    0.00005343
     atom   12 type  2   force =     0.00000565    0.00000161   -0.00016349

     Total force =     0.069358     Total SCF correction =     0.001744

     entering subroutine stress ...

     negative rho (up, down):  1.994E-01 0.000E+00
          total   stress  (Ry/bohr**3)                   (kbar)     P=   -8.58
  -0.00007862  -0.00000000   0.00000000        -11.57     -0.00      0.00
  -0.00000000  -0.00007862   0.00000000         -0.00    -11.57      0.00
   0.00000000   0.00000000  -0.00001773          0.00      0.00     -2.61

 !ASE

     Writing output data file calc.save

     General routines

     Parallel routines

   This run was terminated on:  22:47:11  19Dec2018

   JOB DONE.
Job  /afs/slac/g/suncat/bin/suncat-tsmpirun -x LD_LIBRARY_PATH -wdir /scratch/qe773440_RmksG pw.x -in pw.inp

TID   HOST_NAME   COMMAND_LINE            STATUS            TERMINATION_TIME
00000 suncat0046 pw.x -in pw.inp   Done                     12/19/2018 22:47:11
00001 suncat0046 pw.x -in pw.inp   Done                     12/19/2018 22:47:11
00002 suncat0046 pw.x -in pw.inp   Done                     12/19/2018 22:47:11
00003 suncat0046 pw.x -in pw.inp   Done                     12/19/2018 22:47:11
00004 suncat0046 pw.x -in pw.inp   Done                     12/19/2018 22:47:11
00005 suncat0046 pw.x -in pw.inp   Done                     12/19/2018 22:47:11
00006 suncat0046 pw.x -in pw.inp   Done                     12/19/2018 22:47:11
00007 suncat0046 pw.x -in pw.inp   Done                     12/19/2018 22:47:11
00008 suncat0044 pw.x -in pw.inp   Done                     12/19/2018 22:47:11
00009 suncat0044 pw.x -in pw.inp   Done                     12/19/2018 22:47:11
00010 suncat0044 pw.x -in pw.inp   Done                     12/19/2018 22:47:11
00011 suncat0044 pw.x -in pw.inp   Done                     12/19/2018 22:47:11
00012 suncat0044 pw.x -in pw.inp   Done                     12/19/2018 22:47:11
00013 suncat0044 pw.x -in pw.inp   Done                     12/19/2018 22:47:11
00014 suncat0044 pw.x -in pw.inp   Done                     12/19/2018 22:47:11
00015 suncat0044 pw.x -in pw.inp   Done                     12/19/2018 22:47:11
00016 suncat0043 pw.x -in pw.inp   Done                     12/19/2018 22:47:11
00017 suncat0043 pw.x -in pw.inp   Done                     12/19/2018 22:47:11
00018 suncat0043 pw.x -in pw.inp   Done                     12/19/2018 22:47:11
00019 suncat0043 pw.x -in pw.inp   Done                     12/19/2018 22:47:11
00020 suncat0043 pw.x -in pw.inp   Done                     12/19/2018 22:47:11
00021 suncat0043 pw.x -in pw.inp   Done                     12/19/2018 22:47:11
00022 suncat0043 pw.x -in pw.inp   Done                     12/19/2018 22:47:11
00023 suncat0043 pw.x -in pw.inp   Done                     12/19/2018 22:47:11
00024 suncat0042 pw.x -in pw.inp   Done                     12/19/2018 22:47:11
00025 suncat0042 pw.x -in pw.inp   Done                     12/19/2018 22:47:11
00026 suncat0042 pw.x -in pw.inp   Done                     12/19/2018 22:47:11
00027 suncat0042 pw.x -in pw.inp   Done                     12/19/2018 22:47:11
00028 suncat0042 pw.x -in pw.inp   Done                     12/19/2018 22:47:11
00029 suncat0042 pw.x -in pw.inp   Done                     12/19/2018 22:47:11
00030 suncat0042 pw.x -in pw.inp   Done                     12/19/2018 22:47:11
00031 suncat0042 pw.x -in pw.inp   Done                     12/19/2018 22:47:11
00032 suncat0041 pw.x -in pw.inp   Done                     12/19/2018 22:47:11
00033 suncat0041 pw.x -in pw.inp   Done                     12/19/2018 22:47:11
00034 suncat0041 pw.x -in pw.inp   Done                     12/19/2018 22:47:11
00035 suncat0041 pw.x -in pw.inp   Done                     12/19/2018 22:47:11
00036 suncat0041 pw.x -in pw.inp   Done                     12/19/2018 22:47:11
00037 suncat0041 pw.x -in pw.inp   Done                     12/19/2018 22:47:11
00038 suncat0041 pw.x -in pw.inp   Done                     12/19/2018 22:47:11
00039 suncat0041 pw.x -in pw.inp   Done                     12/19/2018 22:47:11
00040 suncat0036 pw.x -in pw.inp   Done                     12/19/2018 22:47:11
00041 suncat0036 pw.x -in pw.inp   Done                     12/19/2018 22:47:11
00042 suncat0036 pw.x -in pw.inp   Done                     12/19/2018 22:47:11
00043 suncat0036 pw.x -in pw.inp   Done                     12/19/2018 22:47:11
00044 suncat0036 pw.x -in pw.inp   Done                     12/19/2018 22:47:11
00045 suncat0036 pw.x -in pw.inp   Done                     12/19/2018 22:47:11
00046 suncat0036 pw.x -in pw.inp   Done                     12/19/2018 22:47:11
00047 suncat0036 pw.x -in pw.inp   Done                     12/19/2018 22:47:11
00048 suncat0035 pw.x -in pw.inp   Done                     12/19/2018 22:47:11
00049 suncat0035 pw.x -in pw.inp   Done                     12/19/2018 22:47:11
00050 suncat0035 pw.x -in pw.inp   Done                     12/19/2018 22:47:11
00051 suncat0035 pw.x -in pw.inp   Done                     12/19/2018 22:47:11
00052 suncat0035 pw.x -in pw.inp   Done                     12/19/2018 22:47:11
00053 suncat0035 pw.x -in pw.inp   Done                     12/19/2018 22:47:11
00054 suncat0035 pw.x -in pw.inp   Done                     12/19/2018 22:47:11
00055 suncat0035 pw.x -in pw.inp   Done                     12/19/2018 22:47:11
00056 suncat0034 pw.x -in pw.inp   Done                     12/19/2018 22:47:11
00057 suncat0034 pw.x -in pw.inp   Done                     12/19/2018 22:47:11
00058 suncat0034 pw.x -in pw.inp   Done                     12/19/2018 22:47:11
00059 suncat0034 pw.x -in pw.inp   Done                     12/19/2018 22:47:11
00060 suncat0034 pw.x -in pw.inp   Done                     12/19/2018 22:47:11
00061 suncat0034 pw.x -in pw.inp   Done                     12/19/2018 22:47:11
00062 suncat0034 pw.x -in pw.inp   Done                     12/19/2018 22:47:11
00063 suncat0034 pw.x -in pw.inp   Done                     12/19/2018 22:47:11