     Program PWSCF v.5.1rc2 (svn rev. 11289) starts on  1Jan2019 at  9:37:25

     Current dimensions of program PWSCF are:
     Max number of different atomic species (ntypx) = 10
     Max number of k-points (npk) =  40000
     Max angular momentum in pseudopotentials (lmaxx) =  3
     Presently stress not available with electric field

     IMPORTANT: XC functional enforced from input :
     Exchange-correlation      = BEEF-VDW ( 1  4 27 13 2)
     Any further DFT definition will be discarded
     Please, verify this is what you really want

     Subspace diagonalization in iterative solution of the eigenvalue problem:
     a serial algorithm will be used

     bravais-lattice index     =            0
     lattice parameter (alat)  =       1.8897  a.u.
     unit-cell volume          =    5464.5333 (a.u.)^3
     number of atoms/cell      =           12
     number of atomic types    =            2
     number of electrons       =       147.00
     number of Kohn-Sham states=          103
     kinetic-energy cutoff     =      36.7493  Ry
     charge density cutoff     =     367.4932  Ry
     convergence threshold     =      1.0E-06
     mixing beta               =       0.1000
     number of iterations used =           10  plain     mixing
     Exchange-correlation      = BEEF-VDW ( 1  4 27 13 2)
     nstep                     =           50

     celldm(1)=   1.889726  celldm(2)=   0.000000  celldm(3)=   0.000000
     celldm(4)=   0.000000  celldm(5)=   0.000000  celldm(6)=   0.000000

     crystal axes: (cart. coord. in units of alat)
               a(1) = (   6.116387   0.000000   0.000000 )
               a(2) = (  -3.058194   5.296947   0.000000 )
               a(3) = (   0.000000   0.000000  24.994009 )

     reciprocal axes: (cart. coord. in units 2 pi/alat)
               b(1) = (  0.163495  0.094394  0.000000 )
               b(2) = (  0.000000  0.188788  0.000000 )
               b(3) = (  0.000000  0.000000  0.040010 )

     PseudoPot. # 1 for Sc read from file:
     /afs/slac.stanford.edu/u/if/mamunm/psp/gbrv1.5pbe/Sc.UPF
     MD5 check sum: db30a2753ba66ef00f23801d899b7e7f
     Pseudo is Ultrasoft + core correction, Zval = 11.0
     Generated by new atomic code, or converted to UPF format
     Using radial grid of  849 points,  6 beta functions with:
                l(1) =   0
                l(2) =   0
                l(3) =   1
                l(4) =   1
                l(5) =   2
                l(6) =   2
     Q(r) pseudized with  6 coefficients,  rinner =    1.200   1.200   1.200
                                                       1.200   1.200

     PseudoPot. # 2 for Pt read from file:
     /afs/slac.stanford.edu/u/if/mamunm/psp/gbrv1.5pbe/Pt.UPF
     MD5 check sum: f09d6de1a584b5a045c4fc126da2d0c4
     Pseudo is Ultrasoft + core correction, Zval = 16.0
     Generated by new atomic code, or converted to UPF format
     Using radial grid of  985 points,  6 beta functions with:
                l(1) =   0
                l(2) =   0
                l(3) =   1
                l(4) =   1
                l(5) =   2
                l(6) =   2
     Q(r) pseudized with  8 coefficients,  rinner =    1.300   1.300   1.300
                                                       1.300   1.300

     vdW kernel table read from file vdW_kernel_table
     MD5 check sum: 095c7af220d748ca6e76c0b4c6cfb241

     atomic species   valence    mass     pseudopotential
        Sc1           11.00    44.95591     Sc( 1.00)
        Pt1           16.00   195.08400     Pt( 1.00)

     No symmetry found

   Cartesian axes

     site n.     atom                  positions (alat units)
         1           Sc1 tau(   1) = (   0.0000000   0.0000000  10.0000000  )
         2           Sc1 tau(   2) = (  -1.5290968   2.6484733  10.0000000  )
         3           Sc1 tau(   3) = (   1.5290968   2.6484733  10.0000000  )
         4           Pt1 tau(   4) = (   3.0581935   0.0000000  10.0000000  )
         5           Sc1 tau(   5) = (   3.0581935   1.7656489  12.4970046  )
         6           Sc1 tau(   6) = (   1.5290968   4.4141221  12.4970046  )
         7           Sc1 tau(   7) = (  -1.5290968   4.4141221  12.4970046  )
         8           Pt1 tau(   8) = (   0.0000000   1.7656489  12.4970046  )
         9           Sc1 tau(   9) = (  -0.0000000   3.5312977  14.9940091  )
        10           Sc1 tau(  10) = (   1.5290968   0.8828244  14.9940091  )
        11           Sc1 tau(  11) = (   4.5872903   0.8828244  14.9940091  )
        12           Pt1 tau(  12) = (   3.0581935   3.5312977  14.9940091  )

     number of k points=    20  Fermi-Dirac smearing, width (Ry)=  0.0110
                       cart. coord. in units 2pi/alat
        k(    1) = (   0.0000000   0.0000000   0.0000000), wk =   0.0555556
        k(    2) = (   0.0000000   0.0314647   0.0000000), wk =   0.1111111
        k(    3) = (   0.0000000   0.0629293   0.0000000), wk =   0.1111111
        k(    4) = (   0.0000000  -0.0943940   0.0000000), wk =   0.0555556
        k(    5) = (   0.0272492   0.0157323   0.0000000), wk =   0.1111111
        k(    6) = (   0.0272492   0.0471970   0.0000000), wk =   0.1111111
        k(    7) = (   0.0272492   0.0786617   0.0000000), wk =   0.1111111
        k(    8) = (   0.0272492  -0.0786617   0.0000000), wk =   0.1111111
        k(    9) = (   0.0272492  -0.0471970   0.0000000), wk =   0.1111111
        k(   10) = (   0.0272492  -0.0157323   0.0000000), wk =   0.1111111
        k(   11) = (   0.0544984   0.0314647   0.0000000), wk =   0.1111111
        k(   12) = (   0.0544984   0.0629293   0.0000000), wk =   0.1111111
        k(   13) = (   0.0544984   0.0943940   0.0000000), wk =   0.1111111
        k(   14) = (   0.0544984  -0.0629293   0.0000000), wk =   0.1111111
        k(   15) = (   0.0544984  -0.0314647   0.0000000), wk =   0.1111111
        k(   16) = (   0.0544984   0.0000000   0.0000000), wk =   0.1111111
        k(   17) = (  -0.0817476  -0.0471970   0.0000000), wk =   0.0555556
        k(   18) = (  -0.0817476  -0.0157323   0.0000000), wk =   0.1111111
        k(   19) = (  -0.0817476   0.0157323   0.0000000), wk =   0.1111111
        k(   20) = (  -0.0817476  -0.1415910   0.0000000), wk =   0.0555556

     Largest allocated arrays     est. size (Mb)     dimensions
     Largest temporary arrays     est. size (Mb)     dimensions

     Initial potential from superposition of free atoms
     Check: negative starting charge=   -0.545943

     starting charge  145.47834, renormalised to  147.00000

     negative rho (up, down):  5.517E-01 0.000E+00

     *
     * You are using vdW-DF for exchange-correlation in this calculation.
     * Please cite the following three references that made this development
     * possible:
     *
     *   M. Dion, H. Rydberg, E. Schroder, D. C. Langreth, and
     *   B. I. Lundqvist, Phys. Rev. Lett. 92, 246401 (2004).
     *
     *   T. Thonhauser, V. R. Cooper, S. Li, A. Puzder, P. Hyldgaard, and
     *   D. C. Langreth, Phys. Rev. B 76, 125112 (2007).
     *
     *   G. Roman-Perez and J. M. Soler, Phys. Rev. Lett. 103, 096102 (2009).
     *
     *
     * If you are using vdW-DF2, please also cite:
     *
     *   K. Lee, E. D. Murray, L. Kong, B. I. Lundqvist, and
     *   D. C. Langreth, Phys. Rev. B 82, 081101(R) (2010).
     *
     *
     * If you are calculating the stress with vdW-DF, please also cite:
     *
     *   R. Sabatini, E. Kucukbenli, B. Kolb, T. Thonhauser, and
     *   S. de Gironcoli, J. Phys.: Condens. Matter 24, 424209 (2012).
     *

     Carrying out vdW-DF run using the following parameters:

     Nqs =      20    Nr_points =    1024   r_max =   100.000
     q_mesh =
               0.00001000     0.04494208     0.09755937     0.15916263
               0.23128650     0.31572767     0.41458969     0.53033537
               0.66584808     0.82450364     1.01025438     1.22772762
               1.48234092     1.78043706     2.12944203     2.53805004
               3.01644009     3.57652955     4.23227104     5.00000000

     Gradients computed in reciprocal space

     Adding external electric field

     Computed dipole along edir(3) :
        Dipole                0.0000 Ry au,          0.0000 Debye
        Dipole field          0.0000 Ry au

        Potential amp.       -0.0000 Ry
        Total length         46.0510 bohr

     Starting wfc are  153 randomized atomic wfcs

     Self-consistent Calculation

     iteration #  1     ecut=    36.75 Ry     beta=0.10
     Davidson diagonalization with overlap
     ethr =  1.00E-02,  avg # of iterations =  2.0

[...]

     total energy              =   -1490.12312080 Ry
     Harris-Foulkes estimate   =   -1491.56505822 Ry
     estimated scf accuracy    <       8.33020791 Ry

[...]

     End of self-consistent calculation

          k = 0.0000 0.0000 0.0000 ( 20587 PWs)   bands (ev):

   -51.7670 -51.7670 -51.7645 -51.4645 -51.4645 -51.4644 -51.4644 -51.3900
   -51.3897 -48.9150 -48.9114 -48.8500 -48.8500 -48.8492 -48.8492 -48.6435
   -48.5830 -48.5830 -27.7352 -27.7065 -27.6412 -27.6036 -27.6036 -27.5719
   -27.5693 -27.5693 -27.5610 -27.5610 -27.5093 -27.5093 -27.5074 -27.3468
   -27.3370 -27.2874 -27.2874 -27.2253 -27.2253 -27.2142 -27.2142 -27.1770
   -27.1541 -27.1540 -27.0455 -27.0108 -27.0107  -4.8226  -3.6274  -2.8440
    -2.6042  -2.6042  -2.4960  -2.4960  -2.3167  -2.1946  -2.1946  -2.1115
    -2.1115  -1.9521  -1.6684  -1.6684  -1.4707  -1.4589  -1.4589  -1.1816
    -0.8730  -0.0643   0.5106   1.0055   1.0601   1.0601   1.1165   1.1165
     1.3369   1.3670   1.4959   1.4959   1.5465   1.6952   1.6952   1.7948
     1.7948   1.8450   2.1761   2.1761   2.3355   2.3355   2.3748   2.5703
     2.5703   2.5992   2.5992   2.6963   2.8935   3.5369   3.7854   3.7854
     3.8514   3.8514   4.0917   4.0918   4.1971   4.2697   4.2699

[...]

          k =-0.0817-0.0472 0.0000 ( 20592 PWs)   bands (ev):

[...]

     the Fermi energy is     1.1269 ev

!    total energy              =   -1490.71209158 Ry
     Harris-Foulkes estimate   =   -1490.71209386 Ry
     estimated scf accuracy    <       0.00000039 Ry

     The total energy is the sum of the following terms:

     one-electron contribution =   -9816.49719765 Ry
     hartree contribution      =    4904.35033888 Ry
     xc contribution           =    -300.82901133 Ry
     ewald contribution        =    3722.38890672 Ry
     electric field correction =       0.00000005 Ry
     smearing contrib. (-TS)   =      -0.12512825 Ry

     convergence has been achieved in  19 iterations

 BEEF-vdW xc energy contributions
           1 :   -262.413169628269
           2 :    238.806608684072
           3 :   -199.325043494352
           4 :    155.254331010259
           5 :   -116.109475530470
           6 :    86.3922660265416
           7 :   -65.7451651575470
           8 :    51.3701938422559
           9 :   -40.5823768296754
          10 :    32.0053810146525
          11 :   -25.3103513469331
          12 :    20.3536574446983
          13 :   -16.6653226481714
          14 :    13.6281777557071
          15 :   -10.9911118175601
          16 :    9.08301099749980
          17 :   -8.44825353985232
          18 :    9.21260568908991
[...]
               b(2) = (  0.000000  0.188788  0.000000 )
               b(3) = (  0.000000  0.000000  0.040010 )

     PseudoPot. # 1 for Sc read from file:
     /afs/slac.stanford.edu/u/if/mamunm/psp/gbrv1.5pbe/Sc.UPF
     MD5 check sum: db30a2753ba66ef00f23801d899b7e7f
     Pseudo is Ultrasoft + core correction, Zval = 11.0
     Generated by new atomic code, or converted to UPF format
     Using radial grid of  849 points,  6 beta functions with:
                l(1) =   0
                l(2) =   0
                l(3) =   1
                l(4) =   1
                l(5) =   2
                l(6) =   2
     Q(r) pseudized with  6 coefficients,  rinner =    1.200   1.200   1.200
                                                       1.200   1.200

     PseudoPot. # 2 for Pt read from file:
     /afs/slac.stanford.edu/u/if/mamunm/psp/gbrv1.5pbe/Pt.UPF
     MD5 check sum: f09d6de1a584b5a045c4fc126da2d0c4
     Pseudo is Ultrasoft + core correction, Zval = 16.0
     Generated by new atomic code, or converted to UPF format
     Using radial grid of  985 points,  6 beta functions with:
                l(1) =   0
                l(2) =   0
                l(3) =   1
                l(4) =   1
                l(5) =   2
                l(6) =   2
     Q(r) pseudized with  8 coefficients,  rinner =    1.300   1.300   1.300
                                                       1.300   1.300

     vdW kernel table read from file vdW_kernel_table
     MD5 check sum: 095c7af220d748ca6e76c0b4c6cfb241

     atomic species   valence    mass     pseudopotential
        Sc1           11.00    44.95591     Sc( 1.00)
        Pt1           16.00   195.08400     Pt( 1.00)

     No symmetry found

   Cartesian axes

     site n.     atom                  positions (alat units)
         1           Sc1 tau(   1) = (   0.0000000   0.0000000  10.0000000  )
         2           Sc1 tau(   2) = (  -1.5290968   2.6484733  10.0000000  )
         3           Sc1 tau(   3) = (   1.5290968   2.6484733  10.0000000  )
         4           Pt1 tau(   4) = (   3.0581935   0.0000000  10.0000000  )
         5           Sc1 tau(   5) = (   3.0581935   1.7656489  12.4970046  )
         6           Sc1 tau(   6) = (   1.5290968   4.4141221  12.4970046  )
         7           Sc1 tau(   7) = (  -1.5290968   4.4141221  12.4970046  )
         8           Pt1 tau(   8) = (   0.0000000   1.7656489  12.4970046  )
         9           Sc1 tau(   9) = (   0.0000011   3.4940121  15.0070459  )
        10           Sc1 tau(  10) = (   1.4968097   0.9014731  15.0070550  )
        11           Sc1 tau(  11) = (   4.6195664   0.9014789  15.0070509  )
        12           Pt1 tau(  12) = (   3.0581967   3.5312908  14.6572861  )

     number of k points=    20  Fermi-Dirac smearing, width (Ry)=  0.0110
                       cart. coord. in units 2pi/alat
        k(    1) = (   0.0000000   0.0000000   0.0000000), wk =   0.0555556
        k(    2) = (   0.0000000   0.0314647   0.0000000), wk =   0.1111111
        k(    3) = (   0.0000000   0.0629293   0.0000000), wk =   0.1111111
        k(    4) = (   0.0000000  -0.0943940   0.0000000), wk =   0.0555556
        k(    5) = (   0.0272492   0.0157323   0.0000000), wk =   0.1111111
        k(    6) = (   0.0272492   0.0471970   0.0000000), wk =   0.1111111
        k(    7) = (   0.0272492   0.0786617   0.0000000), wk =   0.1111111
        k(    8) = (   0.0272492  -0.0786617   0.0000000), wk =   0.1111111
        k(    9) = (   0.0272492  -0.0471970   0.0000000), wk =   0.1111111
        k(   10) = (   0.0272492  -0.0157323   0.0000000), wk =   0.1111111
        k(   11) = (   0.0544984   0.0314647   0.0000000), wk =   0.1111111
        k(   12) = (   0.0544984   0.0629293   0.0000000), wk =   0.1111111
        k(   13) = (   0.0544984   0.0943940   0.0000000), wk =   0.1111111
        k(   14) = (   0.0544984  -0.0629293   0.0000000), wk =   0.1111111
        k(   15) = (   0.0544984  -0.0314647   0.0000000), wk =   0.1111111
        k(   16) = (   0.0544984   0.0000000   0.0000000), wk =   0.1111111
        k(   17) = (  -0.0817476  -0.0471970   0.0000000), wk =   0.0555556
        k(   18) = (  -0.0817476  -0.0157323   0.0000000), wk =   0.1111111
        k(   19) = (  -0.0817476   0.0157323   0.0000000), wk =   0.1111111
        k(   20) = (  -0.0817476  -0.1415910   0.0000000), wk =   0.0555556

     Largest allocated arrays     est. size (Mb)     dimensions
     Largest temporary arrays     est. size (Mb)     dimensions

     Initial potential from superposition of free atoms
     Check: negative starting charge=   -0.546089

     starting charge  145.47834, renormalised to  147.00000

[...]

     *
     * You are using vdW-DF for exchange-correlation in this calculation.
     * Please cite the following three references that made this development
     * possible:
     *
     *   M. Dion, H. Rydberg, E. Schroder, D. C. Langreth, and
     *   B. I. Lundqvist, Phys. Rev. Lett. 92, 246401 (2004).
     *
     *   T. Thonhauser, V. R. Cooper, S. Li, A. Puzder, P. Hyldgaard, and
     *   D. C. Langreth, Phys. Rev. B 76, 125112 (2007).
     *
     *   G. Roman-Perez and J. M. Soler, Phys. Rev. Lett. 103, 096102 (2009).
     *
     *
     * If you are using vdW-DF2, please also cite:
     *
     *   K. Lee, E. D. Murray, L. Kong, B. I. Lundqvist, and
     *   D. C. Langreth, Phys. Rev. B 82, 081101(R) (2010).
     *
     *
     * If you are calculating the stress with vdW-DF, please also cite:
     *
     *   R. Sabatini, E. Kucukbenli, B. Kolb, T. Thonhauser, and
     *   S. de Gironcoli, J. Phys.: Condens. Matter 24, 424209 (2012).
     *

     Carrying out vdW-DF run using the following parameters:

     Nqs =      20    Nr_points =    1024   r_max =   100.000
     q_mesh =
               0.00001000     0.04494208     0.09755937     0.15916263
               0.23128650     0.31572767     0.41458969     0.53033537
               0.66584808     0.82450364     1.01025438     1.22772762
               1.48234092     1.78043706     2.12944203     2.53805004
               3.01644009     3.57652955     4.23227104     5.00000000

     Gradients computed in reciprocal space

[...]

     Starting wfc are  153 randomized atomic wfcs

     Self-consistent Calculation

[...]

     total energy              =   -1490.73665931 Ry
     Harris-Foulkes estimate   =   -1490.73666012 Ry
     estimated scf accuracy    <       0.00000110 Ry

     iteration # 19     ecut=    36.75 Ry     beta=0.10
     Davidson diagonalization with overlap
     ethr =  7.48E-10,  avg # of iterations =  3.0

[...]

     negative rho (up, down):  5.224E-01 0.000E+00

     Adding external electric field

     Computed dipole along edir(3) :
        Dipole                0.0516 Ry au,          0.1311 Debye
        Dipole field          0.0001 Ry au

        Potential amp.       -0.0109 Ry
        Total length         46.0510 bohr

     End of self-consistent calculation

[...]

          k = 0.0545 0.0000 0.0000 ( 20521 PWs)   bands (ev):

[...]

          k =-0.0817-0.1416 0.0000 ( 20592 PWs)   bands (ev):

   -51.6905 -51.6903 -51.6896 -51.6668 -51.6602 -51.6600 -51.4128 -51.4125
   -51.3425 -48.8502 -48.8331 -48.8252 -48.8125 -48.8052 -48.7911 -48.5356
   -48.5160 -48.4954 -27.5910 -27.5673 -27.5560 -27.5346 -27.5190 -27.4957
   -27.4822 -27.4765 -27.4500 -27.4436 -27.4218 -27.4148 -27.3905 -27.3782
   -27.3707 -27.3497 -27.3142 -27.1902 -27.1857 -27.1697 -27.1063 -27.1024
   -27.0768 -27.0725 -27.0652 -27.0485 -26.9416  -3.6871  -3.3734  -2.7567
    -2.4083  -2.3724  -2.2427  -2.1337  -2.0782  -2.0487  -1.9889  -1.9300
    -1.8655  -1.8024  -1.7087  -1.6899  -1.5925  -1.5332  -1.3773  -1.3683
    -0.7107  -0.5007  -0.1625   0.2915   0.5528   0.7608   0.9108   0.9911
     1.0182   1.0902   1.1379   1.2625   1.3450   1.4101   1.4316   1.5687
     1.7588   1.8887   1.9246   2.0970   2.1087   2.2138   2.5064   2.5980
     2.6434   2.6672   2.7302   2.7836   2.8660   2.8910   3.4175   3.4480
     3.4996   3.5560   3.6469   3.6801   3.7364   3.7843   3.8867

     the Fermi energy is     1.1860 ev

!    total energy              =   -1490.73665861 Ry
     Harris-Foulkes estimate   =   -1490.73665943 Ry
     estimated scf accuracy    <       0.00000037 Ry

     The total energy is the sum of the following terms:

     one-electron contribution =   -9950.42039410 Ry
     hartree contribution      =    4971.47157623 Ry
     xc contribution           =    -300.90106445 Ry
     ewald contribution        =    3789.23512291 Ry
     electric field correction =       0.00000612 Ry
     smearing contrib. (-TS)   =      -0.12190531 Ry

     convergence has been achieved in  19 iterations

 BEEF-vdW xc energy contributions
           1 :   -262.656335556611
           2 :    239.092572818027
           3 :   -199.655210736609
           4 :    155.579111614187
           5 :   -116.355601347648
           6 :    86.5088435971045
           7 :   -65.7372885261955
           8 :    51.2962435929209
           9 :   -40.5182640720741
          10 :    32.0054241024546
          11 :   -25.3931067507108
          12 :    20.5130890884998
          13 :   -16.8846271504812
          14 :    13.8801037608891
          15 :   -11.2334912405136
          16 :    9.26820591853703
          17 :   -8.54894753309679
          18 :    9.24418846993331
          19 :   -10.7878581915684
          20 :    12.1506123264994
          21 :   -12.4941955255863
          22 :    11.6741580399581
          23 :   -10.2305225800103
          24 :    8.93314667611980
          25 :   -8.26786360499239
          26 :    8.22270391416151
          27 :   -8.45412830832731
          28 :    8.62029375096108
          29 :   -8.59684074351264
          30 :    8.45157309829290
          31 :   -25.2934305418217
          32 :   -18.3740867704043

     Forces acting on atoms (Ry/au):

     negative rho (up, down):  5.224E-01 0.000E+00
     atom    1 type  1   force =    -0.00000163    0.01545296   -0.00893356
     atom    2 type  1   force =     0.01338556   -0.00772678   -0.00893361
     atom    3 type  1   force =    -0.01338536   -0.00772419   -0.00893403
     atom    4 type  2   force =     0.00000042   -0.00000041    0.04356480
     atom    5 type  1   force =    -0.00000205   -0.00210600   -0.00309581
     atom    6 type  1   force =    -0.00182367    0.00105148   -0.00309451
     atom    7 type  1   force =     0.00182523    0.00105396   -0.00309301
     atom    8 type  2   force =     0.00000120   -0.00000016   -0.00507574
     atom    9 type  1   force =    -0.00000038   -0.00143159   -0.00038632
     atom   10 type  1   force =    -0.00124352    0.00071444   -0.00038879
     atom   11 type  1   force =     0.00124433    0.00071525   -0.00038561
     atom   12 type  2   force =    -0.00000013    0.00000104   -0.00124380

     Total force =     0.054128     Total SCF correction =     0.000984

     entering subroutine stress ...

     negative rho (up, down):  5.224E-01 0.000E+00
          total   stress  (Ry/bohr**3)                   (kbar)     P=   -5.24
  -0.00004211   0.00000000   0.00000000         -6.19      0.00      0.00
   0.00000000  -0.00004211  -0.00000000          0.00     -6.19     -0.00
   0.00000000  -0.00000000  -0.00002267          0.00     -0.00     -3.34

 !ASE

     Writing output data file calc.save

     General routines

     Parallel routines

   This run was terminated on:  11:35:45   1Jan2019

   JOB DONE.
Job  /afs/slac/g/suncat/bin/suncat-tsmpirun -x LD_LIBRARY_PATH -wdir /scratch/qe648983_m0DBh pw.x -in pw.inp

TID   HOST_NAME   COMMAND_LINE            STATUS            TERMINATION_TIME
00000 suncat0056 pw.x -in pw.inp   Done                     01/01/2019 11:35:45
00001 suncat0056 pw.x -in pw.inp   Done                     01/01/2019 11:35:45
00002 suncat0056 pw.x -in pw.inp   Done                     01/01/2019 11:35:45
00003 suncat0056 pw.x -in pw.inp   Done                     01/01/2019 11:35:45
00004 suncat0056 pw.x -in pw.inp   Done                     01/01/2019 11:35:45
00005 suncat0056 pw.x -in pw.inp   Done                     01/01/2019 11:35:45
00006 suncat0056 pw.x -in pw.inp   Done                     01/01/2019 11:35:45
00007 suncat0056 pw.x -in pw.inp   Done                     01/01/2019 11:35:45
00008 suncat0052 pw.x -in pw.inp   Done                     01/01/2019 11:35:45
00009 suncat0052 pw.x -in pw.inp   Done                     01/01/2019 11:35:45
00010 suncat0052 pw.x -in pw.inp   Done                     01/01/2019 11:35:45
00011 suncat0052 pw.x -in pw.inp   Done                     01/01/2019 11:35:45
00012 suncat0052 pw.x -in pw.inp   Done                     01/01/2019 11:35:45
00013 suncat0052 pw.x -in pw.inp   Done                     01/01/2019 11:35:45
00014 suncat0052 pw.x -in pw.inp   Done                     01/01/2019 11:35:45
00015 suncat0052 pw.x -in pw.inp   Done                     01/01/2019 11:35:45
00016 suncat0048 pw.x -in pw.inp   Done                     01/01/2019 11:35:45
00017 suncat0048 pw.x -in pw.inp   Done                     01/01/2019 11:35:45
00018 suncat0048 pw.x -in pw.inp   Done                     01/01/2019 11:35:45
00019 suncat0048 pw.x -in pw.inp   Done                     01/01/2019 11:35:45
00020 suncat0048 pw.x -in pw.inp   Done                     01/01/2019 11:35:45
00021 suncat0048 pw.x -in pw.inp   Done                     01/01/2019 11:35:45
00022 suncat0048 pw.x -in pw.inp   Done                     01/01/2019 11:35:45
00023 suncat0048 pw.x -in pw.inp   Done                     01/01/2019 11:35:45
00024 suncat0047 pw.x -in pw.inp   Done                     01/01/2019 11:35:45
00025 suncat0047 pw.x -in pw.inp   Done                     01/01/2019 11:35:45
00026 suncat0047 pw.x -in pw.inp   Done                     01/01/2019 11:35:45
00027 suncat0047 pw.x -in pw.inp   Done                     01/01/2019 11:35:45
00028 suncat0047 pw.x -in pw.inp   Done                     01/01/2019 11:35:45
00029 suncat0047 pw.x -in pw.inp   Done                     01/01/2019 11:35:45
00030 suncat0047 pw.x -in pw.inp   Done                     01/01/2019 11:35:45
00031 suncat0047 pw.x -in pw.inp   Done                     01/01/2019 11:35:45
00032 suncat0046 pw.x -in pw.inp   Done                     01/01/2019 11:35:45
00033 suncat0046 pw.x -in pw.inp   Done                     01/01/2019 11:35:45
00034 suncat0046 pw.x -in pw.inp   Done                     01/01/2019 11:35:45
00035 suncat0046 pw.x -in pw.inp   Done                     01/01/2019 11:35:45
00036 suncat0046 pw.x -in pw.inp   Done                     01/01/2019 11:35:45
00037 suncat0046 pw.x -in pw.inp   Done                     01/01/2019 11:35:45
00038 suncat0046 pw.x -in pw.inp   Done                     01/01/2019 11:35:45
00039 suncat0046 pw.x -in pw.inp   Done                     01/01/2019 11:35:45
00040 suncat0044 pw.x -in pw.inp   Done                     01/01/2019 11:35:45
00041 suncat0044 pw.x -in pw.inp   Done                     01/01/2019 11:35:45
00042 suncat0044 pw.x -in pw.inp   Done                     01/01/2019 11:35:45
00043 suncat0044 pw.x -in pw.inp   Done                     01/01/2019 11:35:45
00044 suncat0044 pw.x -in pw.inp   Done                     01/01/2019 11:35:45
00045 suncat0044 pw.x -in pw.inp   Done                     01/01/2019 11:35:45
00046 suncat0044 pw.x -in pw.inp   Done                     01/01/2019 11:35:45
00047 suncat0044 pw.x -in pw.inp   Done                     01/01/2019 11:35:45
00048 suncat0215 pw.x -in pw.inp   Done                     01/01/2019 11:35:45
00049 suncat0215 pw.x -in pw.inp   Done                     01/01/2019 11:35:45
00050 suncat0215 pw.x -in pw.inp   Done                     01/01/2019 11:35:45
00051 suncat0215 pw.x -in pw.inp   Done                     01/01/2019 11:35:45
00052 suncat0215 pw.x -in pw.inp   Done                     01/01/2019 11:35:45
00053 suncat0215 pw.x -in pw.inp   Done                     01/01/2019 11:35:45
00054 suncat0215 pw.x -in pw.inp   Done                     01/01/2019 11:35:45
00055 suncat0215 pw.x -in pw.inp   Done                     01/01/2019 11:35:45
00056 suncat0210 pw.x -in pw.inp   Done                     01/01/2019 11:35:45
00057 suncat0210 pw.x -in pw.inp   Done                     01/01/2019 11:35:45
00058 suncat0210 pw.x -in pw.inp   Done                     01/01/2019 11:35:45
00059 suncat0210 pw.x -in pw.inp   Done                     01/01/2019 11:35:45
00060 suncat0210 pw.x -in pw.inp   Done                     01/01/2019 11:35:45
00061 suncat0210 pw.x -in pw.inp   Done                     01/01/2019 11:35:45
00062 suncat0210 pw.x -in pw.inp   Done                     01/01/2019 11:35:45
00063 suncat0210 pw.x -in pw.inp   Done                     01/01/2019 11:35:45