     Program PWSCF v.5.1rc2 (svn rev. 11289) starts on  1Jan2019 at 20:21:13

     Current dimensions of program PWSCF are:
     Max number of different atomic species (ntypx) = 10
     Max number of k-points (npk) =  40000
     Max angular momentum in pseudopotentials (lmaxx) =  3
     Presently stress not available with electric field

     IMPORTANT: XC functional enforced from input :
     Exchange-correlation      = BEEF-VDW ( 1  4 27 13 2)
     Any further DFT definition will be discarded
     Please, verify this is what you really want

     Subspace diagonalization in iterative solution of the eigenvalue problem:
     a serial algorithm will be used

     bravais-lattice index     =            0
     lattice parameter (alat)  =       1.8897  a.u.
     unit-cell volume          =    4503.6799 (a.u.)^3
     number of atoms/cell      =           12
     number of atomic types    =            2
     number of electrons       =       174.00
     number of Kohn-Sham states=          117
     kinetic-energy cutoff     =      36.7493  Ry
     charge density cutoff     =     367.4932  Ry
     convergence threshold     =      1.0E-06
     mixing beta               =       0.1000
     number of iterations used =           10  plain     mixing
     Exchange-correlation      = BEEF-VDW ( 1  4 27 13 2)
     nstep                     =           50

     celldm(1)=   1.889726  celldm(2)=   0.000000  celldm(3)=   0.000000
     celldm(4)=   0.000000  celldm(5)=   0.000000  celldm(6)=   0.000000

     crystal axes: (cart. coord. in units of alat)
               a(1) = (   5.600100   0.000000   0.000000 )
               a(2) = (  -2.800050   4.849829   0.000000 )
               a(3) = (   0.000000   0.000000  24.572463 )

     reciprocal axes: (cart. coord. in units 2 pi/alat)
               b(1) = (  0.178568  0.103096  0.000000 )
               b(2) = (  0.000000  0.206193  0.000000 )
               b(3) = (  0.000000  0.000000  0.040696 )

     PseudoPot. # 1 for Tc read from file:
     /afs/slac.stanford.edu/u/if/mamunm/psp/gbrv1.5pbe/Tc.UPF
     MD5 check sum: 9eb49e5b028550b2339a02317eb7b844
     Pseudo is Ultrasoft + core correction, Zval = 15.0
     Generated by new atomic code, or converted to UPF format
     Using radial grid of  965 points,  6 beta functions with:
                l(1) =   0
                l(2) =   0
                l(3) =   1
                l(4) =   1
                l(5) =   2
                l(6) =   2
     Q(r) pseudized with  8 coefficients,  rinner =    1.300   1.300   1.300
                                                       1.300   1.300

     PseudoPot. # 2 for Nb read from file:
     /afs/slac.stanford.edu/u/if/mamunm/psp/gbrv1.5pbe/Nb.UPF
     MD5 check sum: 573aab8a2fa660278ed4a62cd769473f
     Pseudo is Ultrasoft + core correction, Zval = 13.0
     Generated by new atomic code, or converted to UPF format
     Using radial grid of  887 points,  6 beta functions with:
                l(1) =   0
                l(2) =   0
                l(3) =   1
                l(4) =   1
                l(5) =   2
                l(6) =   2
     Q(r) pseudized with  6 coefficients,  rinner =    1.000   1.000   1.000
                                                       1.000   1.000

     vdW kernel table read from file vdW_kernel_table
     MD5 check sum: 095c7af220d748ca6e76c0b4c6cfb241

     atomic species   valence    mass     pseudopotential
        Tc1           15.00    97.90721     Tc( 1.00)
        Nb1           13.00    92.90637     Nb( 1.00)

     No symmetry found

   Cartesian axes

     site n.     atom                  positions (alat units)
         1           Tc1 tau(   1) = (   0.0000000   0.0000000  10.0000000  )
         2           Tc1 tau(   2) = (  -1.4000251   2.4249145  10.0000000  )
         3           Tc1 tau(   3) = (   1.4000251   2.4249145  10.0000000  )
         4           Nb1 tau(   4) = (   2.8000501   0.0000000  10.0000000  )
         5           Tc1 tau(   5) = (   2.8000501   1.6166097  12.2862313  )
         6           Tc1 tau(   6) = (   1.4000251   4.0415242  12.2862313  )
         7           Tc1 tau(   7) = (  -1.4000251   4.0415242  12.2862313  )
         8           Nb1 tau(   8) = (   0.0000000   1.6166097  12.2862313  )
         9           Tc1 tau(   9) = (  -0.0000000   3.2332194  14.5724627  )
        10           Tc1 tau(  10) = (   1.4000251   0.8083048  14.5724627  )
        11           Tc1 tau(  11) = (   4.2000752   0.8083048  14.5724627  )
        12           Nb1 tau(  12) = (   2.8000501   3.2332194  14.5724627  )

     number of k points=    20  Fermi-Dirac smearing, width (Ry)=  0.0110
                       cart. coord. in units 2pi/alat
        k(    1) = (   0.0000000   0.0000000   0.0000000), wk =   0.0555556
        k(    2) = (   0.0000000   0.0343655   0.0000000), wk =   0.1111111
        k(    3) = (   0.0000000   0.0687309   0.0000000), wk =   0.1111111
        k(    4) = (   0.0000000  -0.1030964   0.0000000), wk =   0.0555556
        k(    5) = (   0.0297614   0.0171827   0.0000000), wk =   0.1111111
        k(    6) = (   0.0297614   0.0515482   0.0000000), wk =   0.1111111
        k(    7) = (   0.0297614   0.0859137   0.0000000), wk =   0.1111111
        k(    8) = (   0.0297614  -0.0859137   0.0000000), wk =   0.1111111
        k(    9) = (   0.0297614  -0.0515482   0.0000000), wk =   0.1111111
        k(   10) = (   0.0297614  -0.0171827   0.0000000), wk =   0.1111111
        k(   11) = (   0.0595227   0.0343655   0.0000000), wk =   0.1111111
        k(   12) = (   0.0595227   0.0687309   0.0000000), wk =   0.1111111
        k(   13) = (   0.0595227   0.1030964   0.0000000), wk =   0.1111111
        k(   14) = (   0.0595227  -0.0687309   0.0000000), wk =   0.1111111
        k(   15) = (   0.0595227  -0.0343655   0.0000000), wk =   0.1111111
        k(   16) = (   0.0595227   0.0000000   0.0000000), wk =   0.1111111
        k(   17) = (  -0.0892841  -0.0515482   0.0000000), wk =   0.0555556
        k(   18) = (  -0.0892841  -0.0171827   0.0000000), wk =   0.1111111
        k(   19) = (  -0.0892841   0.0171827   0.0000000), wk =   0.1111111
        k(   20) = (  -0.0892841  -0.1546446   0.0000000), wk =   0.0555556

     Largest allocated arrays     est. size (Mb)     dimensions
     Largest temporary arrays     est. size (Mb)     dimensions

     Check: negative/imaginary core charge=   -0.000018    0.000000

     Initial potential from superposition of free atoms
     Check: negative starting charge=   -1.120544

     starting charge  164.99155, renormalised to  174.00000

     negative rho (up, down):  1.182E+00 0.000E+00

     *
     * You are using vdW-DF for exchange-correlation in this calculation.
     * Please cite the following three references that made this development
     * possible:
     *
     *   M. Dion, H. Rydberg, E. Schroder, D. C. Langreth, and
     *   B. I. Lundqvist, Phys. Rev. Lett. 92, 246401 (2004).
     *
     *   T. Thonhauser, V. R. Cooper, S. Li, A. Puzder, P. Hyldgaard, and
     *   D. C. Langreth, Phys. Rev. B 76, 125112 (2007).
     *
     *   G. Roman-Perez and J. M. Soler, Phys. Rev. Lett. 103, 096102 (2009).
     *
     *
     * If you are using vdW-DF2, please also cite:
     *
     *   K. Lee, E. D. Murray, L. Kong, B. I. Lundqvist, and
     *   D. C. Langreth, Phys. Rev. B 82, 081101(R) (2010).
     *
     *
     * If you are calculating the stress with vdW-DF, please also cite:
     *
     *   R. Sabatini, E. Kucukbenli, B. Kolb, T. Thonhauser, and
     *   S. de Gironcoli, J. Phys.: Condens. Matter 24, 424209 (2012).
     *

     Carrying out vdW-DF run using the following parameters:

     Nqs =      20    Nr_points =    1024   r_max =   100.000
     q_mesh =
               0.00001000     0.04494208     0.09755937     0.15916263
               0.23128650     0.31572767     0.41458969     0.53033537
               0.66584808     0.82450364     1.01025438     1.22772762
               1.48234092     1.78043706     2.12944203     2.53805004
               3.01644009     3.57652955     4.23227104     5.00000000

     Gradients computed in reciprocal space

     Adding external electric field

     Computed dipole along edir(3) :
        Dipole               -0.0000 Ry au,         -0.0000 Debye
        Dipole field         -0.0000 Ry au

        Potential amp.        0.0000 Ry
        Total length         45.2743 bohr

     Starting wfc are  156 randomized atomic wfcs

     Self-consistent Calculation

     iteration #  1     ecut=    36.75 Ry     beta=0.10
     Davidson diagonalization with overlap
     ethr =  1.00E-02,  avg # of iterations =  6.5

[...]

     total energy              =   -1934.71564913 Ry
     Harris-Foulkes estimate   =   -1935.88761079 Ry
     estimated scf accuracy    <       8.02897676 Ry

[...]

     End of self-consistent calculation

          k = 0.0000 0.0000 0.0000 ( 16883 PWs)   bands (ev):

   -64.6502 -64.5650 -64.5649 -64.4864 -64.4777 -64.4080 -64.4080 -64.4059
   -64.4059 -52.8840 -52.8832 -52.6193 -37.0383 -36.8560 -36.8559 -36.8535
   -36.8307 -36.7691 -36.7502 -36.7501 -36.5858 -36.5858 -36.5371 -36.4704
   -36.4704 -36.4630 -36.4585 -36.4585 -36.3496 -36.3421 -36.3421 -36.2928
   -36.2928 -36.2267 -36.2006 -36.1592 -36.1591 -36.1551 -36.1551 -29.0051
   -28.9769 -28.8309 -28.8309 -28.8239 -28.8239 -28.6445 -28.6445 -28.6414
    -3.7990  -2.4641  -2.3684  -2.3684  -2.3489  -2.3134  -1.9671  -1.9671
    -1.8623  -1.7475  -1.7475  -1.7267  -1.4722  -1.4722  -1.4536  -0.3794
    -0.3042  -0.3042   0.4586   0.4586   0.5639   0.7206   0.8201   1.1922
     1.1923   1.2162   1.4103   1.4103   1.6309   1.6309   1.7073   1.7074
     1.7453   1.7453   2.0834   2.3959   2.7125   2.9298   2.9298   3.0366
     3.0366   3.3273   3.3502   3.3502   3.3730   4.0812   4.0812   4.2894
     4.3638   4.3638   4.7918   4.9142   4.9142   4.9926   5.0406   5.2127
     5.2322   5.2322   5.3004   5.5033   5.5033   5.9821   6.0858   6.0858
     6.2101   6.2101   6.2603   6.4353   6.4353

[...]

          k =-0.0893-0.0515 0.0000 ( 16960 PWs)   bands (ev):

[...]

     the Fermi energy is     2.2613 ev

!    total energy              =   -1933.06882758 Ry
     Harris-Foulkes estimate   =   -1933.06882134 Ry
     estimated scf accuracy    <       0.00000053 Ry

     The total energy is the sum of the following terms:

     one-electron contribution =  -16515.07604574 Ry
     hartree contribution      =    8255.22087483 Ry
     xc contribution           =    -354.80631127 Ry
     ewald contribution        =    6681.68214878 Ry
     electric field correction =       0.00000001 Ry
     smearing contrib. (-TS)   =      -0.08949419 Ry

     convergence has been achieved in  17 iterations

 BEEF-vdW xc energy contributions
           1 :   -309.668426085705
           2 :    284.221528377341
           3 :   -239.249840998800
           4 :    184.266484887178
           5 :   -129.269477641278
           6 :    81.8183159582866
           7 :   -45.5078908943141
           8 :    20.0582152238626
           9 :   -2.73183625122869
          10 :   -9.79384565265570
          11 :    19.8589907898317
          12 :   -28.1233089675685
[...]
     MD5 check sum: 9eb49e5b028550b2339a02317eb7b844
     Pseudo is Ultrasoft + core correction, Zval = 15.0
     Generated by new atomic code, or converted to UPF format
     Using radial grid of  965 points,  6 beta functions with:
                l(1) =   0
                l(2) =   0
                l(3) =   1
                l(4) =   1
                l(5) =   2
                l(6) =   2
     Q(r) pseudized with  8 coefficients,  rinner =    1.300   1.300   1.300
                                                       1.300   1.300

     PseudoPot. # 2 for Nb read from file:
     /afs/slac.stanford.edu/u/if/mamunm/psp/gbrv1.5pbe/Nb.UPF
     MD5 check sum: 573aab8a2fa660278ed4a62cd769473f
     Pseudo is Ultrasoft + core correction, Zval = 13.0
     Generated by new atomic code, or converted to UPF format
     Using radial grid of  887 points,  6 beta functions with:
                l(1) =   0
                l(2) =   0
                l(3) =   1
                l(4) =   1
                l(5) =   2
                l(6) =   2
     Q(r) pseudized with  6 coefficients,  rinner =    1.000   1.000   1.000
                                                       1.000   1.000

     vdW kernel table read from file vdW_kernel_table
     MD5 check sum: 095c7af220d748ca6e76c0b4c6cfb241

     atomic species   valence    mass     pseudopotential
        Tc1           15.00    97.90721     Tc( 1.00)
        Nb1           13.00    92.90637     Nb( 1.00)

     No symmetry found

   Cartesian axes

     site n.     atom                  positions (alat units)
         1           Tc1 tau(   1) = (   0.0000000   0.0000000  10.0000000  )
         2           Tc1 tau(   2) = (  -1.4000251   2.4249145  10.0000000  )
         3           Tc1 tau(   3) = (   1.4000251   2.4249145  10.0000000  )
         4           Nb1 tau(   4) = (   2.8000501   0.0000000  10.0000000  )
         5           Tc1 tau(   5) = (   2.8000501   1.6166097  12.2862313  )
         6           Tc1 tau(   6) = (   1.4000251   4.0415242  12.2862313  )
         7           Tc1 tau(   7) = (  -1.4000251   4.0415242  12.2862313  )
         8           Nb1 tau(   8) = (   0.0000000   1.6166097  12.2862313  )
         9           Tc1 tau(   9) = (   0.0000097   3.2602457  14.4778149  )
        10           Tc1 tau(  10) = (   1.4234338   0.7947927  14.4778154  )
        11           Tc1 tau(  11) = (   4.1766699   0.7947835  14.4778138  )
        12           Nb1 tau(  12) = (   2.8000526   3.2332202  14.4635384  )

     number of k points=    20  Fermi-Dirac smearing, width (Ry)=  0.0110
                       cart. coord. in units 2pi/alat
        k(    1) = (   0.0000000   0.0000000   0.0000000), wk =   0.0555556
        k(    2) = (   0.0000000   0.0343655   0.0000000), wk =   0.1111111
        k(    3) = (   0.0000000   0.0687309   0.0000000), wk =   0.1111111
        k(    4) = (   0.0000000  -0.1030964   0.0000000), wk =   0.0555556
        k(    5) = (   0.0297614   0.0171827   0.0000000), wk =   0.1111111
        k(    6) = (   0.0297614   0.0515482   0.0000000), wk =   0.1111111
        k(    7) = (   0.0297614   0.0859137   0.0000000), wk =   0.1111111
        k(    8) = (   0.0297614  -0.0859137   0.0000000), wk =   0.1111111
        k(    9) = (   0.0297614  -0.0515482   0.0000000), wk =   0.1111111
        k(   10) = (   0.0297614  -0.0171827   0.0000000), wk =   0.1111111
        k(   11) = (   0.0595227   0.0343655   0.0000000), wk =   0.1111111
        k(   12) = (   0.0595227   0.0687309   0.0000000), wk =   0.1111111
        k(   13) = (   0.0595227   0.1030964   0.0000000), wk =   0.1111111
        k(   14) = (   0.0595227  -0.0687309   0.0000000), wk =   0.1111111
        k(   15) = (   0.0595227  -0.0343655   0.0000000), wk =   0.1111111
        k(   16) = (   0.0595227   0.0000000   0.0000000), wk =   0.1111111
        k(   17) = (  -0.0892841  -0.0515482   0.0000000), wk =   0.0555556
        k(   18) = (  -0.0892841  -0.0171827   0.0000000), wk =   0.1111111
        k(   19) = (  -0.0892841   0.0171827   0.0000000), wk =   0.1111111
        k(   20) = (  -0.0892841  -0.1546446   0.0000000), wk =   0.0555556

     Largest allocated arrays     est. size (Mb)     dimensions
     Largest temporary arrays     est. size (Mb)     dimensions

     Check: negative/imaginary core charge=   -0.000018    0.000000

     Initial potential from superposition of free atoms
     Check: negative starting charge=   -1.125857

     starting charge  164.99155, renormalised to  174.00000

[...]

     *
     * You are using vdW-DF for exchange-correlation in this calculation.
     * Please cite the following three references that made this development
     * possible:
     *
     *   M. Dion, H. Rydberg, E. Schroder, D. C. Langreth, and
     *   B. I. Lundqvist, Phys. Rev. Lett. 92, 246401 (2004).
     *
     *   T. Thonhauser, V. R. Cooper, S. Li, A. Puzder, P. Hyldgaard, and
     *   D. C. Langreth, Phys. Rev. B 76, 125112 (2007).
     *
     *   G. Roman-Perez and J. M. Soler, Phys. Rev. Lett. 103, 096102 (2009).
     *
     *
     * If you are using vdW-DF2, please also cite:
     *
     *   K. Lee, E. D. Murray, L. Kong, B. I. Lundqvist, and
     *   D. C. Langreth, Phys. Rev. B 82, 081101(R) (2010).
     *
     *
     * If you are calculating the stress with vdW-DF, please also cite:
     *
     *   R. Sabatini, E. Kucukbenli, B. Kolb, T. Thonhauser, and
     *   S. de Gironcoli, J. Phys.: Condens. Matter 24, 424209 (2012).
     *

     Carrying out vdW-DF run using the following parameters:

     Nqs =      20    Nr_points =    1024   r_max =   100.000
     q_mesh =
               0.00001000     0.04494208     0.09755937     0.15916263
               0.23128650     0.31572767     0.41458969     0.53033537
               0.66584808     0.82450364     1.01025438     1.22772762
               1.48234092     1.78043706     2.12944203     2.53805004
               3.01644009     3.57652955     4.23227104     5.00000000

     Gradients computed in reciprocal space

[...]

     Starting wfc are  156 randomized atomic wfcs

     Self-consistent Calculation

[...]

     total energy              =   -1933.08583194 Ry
     Harris-Foulkes estimate   =   -1933.08583042 Ry
     estimated scf accuracy    <       0.00000139 Ry

     iteration # 18     ecut=    36.75 Ry     beta=0.10
     Davidson diagonalization with overlap
     ethr =  7.97E-10,  avg # of iterations =  2.2

[...]

     negative rho (up, down):  1.179E+00 0.000E+00

     Adding external electric field

     Computed dipole along edir(3) :
        Dipole                0.0290 Ry au,          0.0737 Debye
        Dipole field          0.0001 Ry au

        Potential amp.       -0.0073 Ry
        Total length         45.2743 bohr

     End of self-consistent calculation

[...]

          k = 0.0595 0.0000 0.0000 ( 16934 PWs)   bands (ev):

[...]

          k =-0.0893-0.1546 0.0000 ( 16960 PWs)   bands (ev):

   -64.5939 -64.5664 -64.5354 -64.4631 -64.4395 -64.4141 -64.3837 -64.3578
   -64.3333 -52.8958 -52.7514 -52.5349 -36.9191 -36.8381 -36.7791 -36.7363
   -36.6911 -36.6812 -36.6609 -36.6138 -36.5984 -36.5585 -36.4769 -36.4567
   -36.4513 -36.4363 -36.4138 -36.4041 -36.3918 -36.3723 -36.3339 -36.3279
   -36.3068 -36.2735 -36.2735 -36.2386 -36.2292 -36.1761 -36.1068 -29.0071
   -28.8816 -28.8566 -28.8498 -28.7625 -28.7339 -28.6161 -28.5877 -28.5613
    -2.2834  -2.1897  -1.5528  -1.5357  -1.4754  -1.3813  -1.2277  -1.1650
    -1.0964  -0.9084  -0.8074  -0.6936  -0.6933  -0.4885  -0.4869  -0.3953
    -0.0526   0.0399   0.0472   0.1843   0.3755   0.3789   0.7461   0.8522
     0.9415   0.9962   1.1016   1.1146   1.1482   1.1742   1.3003   1.3026
     1.3236   1.5079   1.5743   1.6228   1.7036   1.7400   1.9285   2.1157
     2.3240   2.3358   2.4183   2.8117   2.9100   2.9400   2.9861   3.0439
     3.4342   3.5109   3.5761   3.6669   3.7565   4.0028   4.1022   4.2155
     4.4640   4.6331   4.8352   4.9107   4.9639   5.5939   5.7073   5.7865
     5.9436   6.3369   7.1874   7.2558   7.5054

     the Fermi energy is     2.2748 ev

!    total energy              =   -1933.08583696 Ry
     Harris-Foulkes estimate   =   -1933.08583220 Ry
     estimated scf accuracy    <       0.00000037 Ry

     The total energy is the sum of the following terms:

     one-electron contribution =  -16747.85441532 Ry
     hartree contribution      =    8371.85446377 Ry
     xc contribution           =    -355.04688011 Ry
     ewald contribution        =    6798.04696586 Ry
     electric field correction =       0.00000234 Ry
     smearing contrib. (-TS)   =      -0.08597351 Ry

     convergence has been achieved in  18 iterations

 BEEF-vdW xc energy contributions
           1 :   -310.131000573462
           2 :    284.762293729662
           3 :   -239.894813024268
           4 :    184.964989461091
           5 :   -129.912870621179
           6 :    82.2928282033506
           7 :   -45.7576723990841
           8 :    20.1210917833330
           9 :   -2.72600357431412
          10 :   -9.72450854155414
          11 :    19.6143643932846
          12 :   -27.6971438587528
          13 :    33.2708558455422
          14 :   -35.0160406567834
          15 :    32.0013939571514
          16 :   -24.4167110090648
          17 :    13.7256373257579
          18 :   -2.24622330556105
          19 :   -7.62242031333847
          20 :    14.1516091405891
          21 :   -16.7133875544018
          22 :    15.7435884721550
          23 :   -12.3323184651294
          24 :    7.67032374609272
          25 :   -2.62531832637194
          26 :   -2.39417260885000
          27 :    7.28348794305020
          28 :   -11.9466611493107
          29 :    16.0555824525461
          30 :   -19.0110553095412
          31 :   -30.4159866807259
          32 :   -22.4458069967664

     Forces acting on atoms (Ry/au):

     negative rho (up, down):  1.179E+00 0.000E+00
     atom    1 type  1   force =     0.00000072   -0.00940408    0.01623602
     atom    2 type  1   force =    -0.00814422    0.00470233    0.01623660
     atom    3 type  1   force =     0.00814443    0.00470174    0.01623618
     atom    4 type  2   force =     0.00000001    0.00000023    0.02287333
     atom    5 type  1   force =    -0.00000188   -0.00284413   -0.01836071
     atom    6 type  1   force =    -0.00246379    0.00142019   -0.01836122
     atom    7 type  1   force =     0.00246453    0.00142287   -0.01835814
     atom    8 type  2   force =     0.00000154    0.00000089   -0.01569357
     atom    9 type  1   force =    -0.00000259    0.00013706   -0.00036024
     atom   10 type  1   force =     0.00011912   -0.00006914   -0.00036082
     atom   11 type  1   force =    -0.00012036   -0.00006703   -0.00035974
     atom   12 type  2   force =     0.00000249   -0.00000093    0.00027230

     Total force =     0.053495     Total SCF correction =     0.003290

     entering subroutine stress ...

     negative rho (up, down):  1.179E+00 0.000E+00
          total   stress  (Ry/bohr**3)                   (kbar)     P=  -24.12
  -0.00020762   0.00000000  -0.00000000        -30.54      0.00     -0.00
   0.00000000  -0.00020762   0.00000000          0.00    -30.54      0.00
  -0.00000000   0.00000000  -0.00007668         -0.00      0.00    -11.28

 !ASE

     Writing output data file calc.save

     General routines

     Parallel routines

   This run was terminated on:  21:40: 9   1Jan2019

   JOB DONE.
Job  /afs/slac/g/suncat/bin/suncat-tsmpirun -x LD_LIBRARY_PATH -wdir /scratch/qe649162_MWs3E pw.x -in pw.inp

TID   HOST_NAME   COMMAND_LINE            STATUS            TERMINATION_TIME
00000 suncat0188 pw.x -in pw.inp   Done                     01/01/2019 21:40:09
00001 suncat0188 pw.x -in pw.inp   Done                     01/01/2019 21:40:09
00002 suncat0188 pw.x -in pw.inp   Done                     01/01/2019 21:40:09
00003 suncat0188 pw.x -in pw.inp   Done                     01/01/2019 21:40:09
00004 suncat0188 pw.x -in pw.inp   Done                     01/01/2019 21:40:09
00005 suncat0188 pw.x -in pw.inp   Done                     01/01/2019 21:40:09
00006 suncat0188 pw.x -in pw.inp   Done                     01/01/2019 21:40:09
00007 suncat0188 pw.x -in pw.inp   Done                     01/01/2019 21:40:09
00008 suncat0129 pw.x -in pw.inp   Done                     01/01/2019 21:40:09
00009 suncat0129 pw.x -in pw.inp   Done                     01/01/2019 21:40:09
00010 suncat0129 pw.x -in pw.inp   Done                     01/01/2019 21:40:09
00011 suncat0129 pw.x -in pw.inp   Done                     01/01/2019 21:40:09
00012 suncat0129 pw.x -in pw.inp   Done                     01/01/2019 21:40:09
00013 suncat0129 pw.x -in pw.inp   Done                     01/01/2019 21:40:09
00014 suncat0129 pw.x -in pw.inp   Done                     01/01/2019 21:40:09
00015 suncat0129 pw.x -in pw.inp   Done                     01/01/2019 21:40:09
00016 suncat0116 pw.x -in pw.inp   Done                     01/01/2019 21:40:09
00017 suncat0116 pw.x -in pw.inp   Done                     01/01/2019 21:40:09
00018 suncat0116 pw.x -in pw.inp   Done                     01/01/2019 21:40:09
00019 suncat0116 pw.x -in pw.inp   Done                     01/01/2019 21:40:09
00020 suncat0116 pw.x -in pw.inp   Done                     01/01/2019 21:40:09
00021 suncat0116 pw.x -in pw.inp   Done                     01/01/2019 21:40:09
00022 suncat0116 pw.x -in pw.inp   Done                     01/01/2019 21:40:09
00023 suncat0116 pw.x -in pw.inp   Done                     01/01/2019 21:40:09
00024 suncat0114 pw.x -in pw.inp   Done                     01/01/2019 21:40:09
00025 suncat0114 pw.x -in pw.inp   Done                     01/01/2019 21:40:09
00026 suncat0114 pw.x -in pw.inp   Done                     01/01/2019 21:40:09
00027 suncat0114 pw.x -in pw.inp   Done                     01/01/2019 21:40:09
00028 suncat0114 pw.x -in pw.inp   Done                     01/01/2019 21:40:09
00029 suncat0114 pw.x -in pw.inp   Done                     01/01/2019 21:40:09
00030 suncat0114 pw.x -in pw.inp   Done                     01/01/2019 21:40:09
00031 suncat0114 pw.x -in pw.inp   Done                     01/01/2019 21:40:09
00032 suncat0264 pw.x -in pw.inp   Done                     01/01/2019 21:40:09
00033 suncat0264 pw.x -in pw.inp   Done                     01/01/2019 21:40:09
00034 suncat0264 pw.x -in pw.inp   Done                     01/01/2019 21:40:09
00035 suncat0264 pw.x -in pw.inp   Done                     01/01/2019 21:40:09
00036 suncat0264 pw.x -in pw.inp   Done                     01/01/2019 21:40:09
00037 suncat0264 pw.x -in pw.inp   Done                     01/01/2019 21:40:09
00038 suncat0264 pw.x -in pw.inp   Done                     01/01/2019 21:40:09
00039 suncat0264 pw.x -in pw.inp   Done                     01/01/2019 21:40:09
00040 suncat0260 pw.x -in pw.inp   Done                     01/01/2019 21:40:09
00041 suncat0260 pw.x -in pw.inp   Done                     01/01/2019 21:40:09
00042 suncat0260 pw.x -in pw.inp   Done                     01/01/2019 21:40:09
00043 suncat0260 pw.x -in pw.inp   Done                     01/01/2019 21:40:09
00044 suncat0260 pw.x -in pw.inp   Done                     01/01/2019 21:40:09
00045 suncat0260 pw.x -in pw.inp   Done                     01/01/2019 21:40:09
00046 suncat0260 pw.x -in pw.inp   Done                     01/01/2019 21:40:09
00047 suncat0260 pw.x -in pw.inp   Done                     01/01/2019 21:40:09
00048 suncat0249 pw.x -in pw.inp   Done                     01/01/2019 21:40:09
00049 suncat0249 pw.x -in pw.inp   Done                     01/01/2019 21:40:09
00050 suncat0249 pw.x -in pw.inp   Done                     01/01/2019 21:40:09
00051 suncat0249 pw.x -in pw.inp   Done                     01/01/2019 21:40:09
00052 suncat0249 pw.x -in pw.inp   Done                     01/01/2019 21:40:09
00053 suncat0249 pw.x -in pw.inp   Done                     01/01/2019 21:40:09
00054 suncat0249 pw.x -in pw.inp   Done                     01/01/2019 21:40:09
00055 suncat0249 pw.x -in pw.inp   Done                     01/01/2019 21:40:09
00056 suncat0231 pw.x -in pw.inp   Done                     01/01/2019 21:40:09
00057 suncat0231 pw.x -in pw.inp   Done                     01/01/2019 21:40:09
00058 suncat0231 pw.x -in pw.inp   Done                     01/01/2019 21:40:09
00059 suncat0231 pw.x -in pw.inp   Done                     01/01/2019 21:40:09
00060 suncat0231 pw.x -in pw.inp   Done                     01/01/2019 21:40:09
00061 suncat0231 pw.x -in pw.inp   Done                     01/01/2019 21:40:09
00062 suncat0231 pw.x -in pw.inp   Done                     01/01/2019 21:40:09
00063 suncat0231 pw.x -in pw.inp   Done                     01/01/2019 21:40:09