     Program PWSCF v.5.1rc2 (svn rev. 11289) starts on 30Dec2018 at  4:45: 9

     Current dimensions of program PWSCF are:
     Max number of different atomic species (ntypx) = 10
     Max number of k-points (npk) =  40000
     Max angular momentum in pseudopotentials (lmaxx) =  3
     Presently stress not available with electric field

     IMPORTANT: XC functional enforced from input :
     Exchange-correlation      = BEEF-VDW ( 1  4 27 13 2)
     Any further DFT definition will be discarded
     Please, verify this is what you really want

     Subspace diagonalization in iterative solution of the eigenvalue problem:
     a serial algorithm will be used

     Generating pointlists ...
     new r_m :   0.4125 (alat units)  0.7795 (a.u.) for type    1
     new r_m :   0.4125 (alat units)  0.7795 (a.u.) for type    2

     bravais-lattice index     =            0
     lattice parameter (alat)  =       1.8897  a.u.
     unit-cell volume          =    4102.6667 (a.u.)^3
     number of atoms/cell      =           12
     number of atomic types    =            2
     number of electrons       =       177.00
     number of Kohn-Sham states=          118
     kinetic-energy cutoff     =      36.7493  Ry
     charge density cutoff     =     367.4932  Ry
     convergence threshold     =      1.0E-06
     mixing beta               =       0.1000
     number of iterations used =           10  plain     mixing
     Exchange-correlation      = BEEF-VDW ( 1  4 27 13 2)
     nstep                     =           50

     celldm(1)=   1.889726  celldm(2)=   0.000000  celldm(3)=   0.000000
     celldm(4)=   0.000000  celldm(5)=   0.000000  celldm(6)=   0.000000

     crystal axes: (cart. coord. in units of alat)
               a(1) = (   5.365889   0.000000   0.000000 )
               a(2) = (  -2.682945   4.646996   0.000000 )
               a(3) = (   0.000000   0.000000  24.381230 )

     reciprocal axes: (cart. coord. in units 2 pi/alat)
               b(1) = (  0.186362  0.107596  0.000000 )
               b(2) = (  0.000000  0.215193  0.000000 )
               b(3) = (  0.000000  0.000000  0.041015 )

     PseudoPot. # 1 for Fe read from file:
     /afs/slac.stanford.edu/u/if/mamunm/psp/gbrv1.5pbe/Fe.UPF
     MD5 check sum: a130daea23fe5165f5d574ae7f82ed95
     Pseudo is Ultrasoft + core correction, Zval = 16.0
     Generated by new atomic code, or converted to UPF format
     Using radial grid of  861 points,  6 beta functions with:
                l(1) =   0
                l(2) =   0
                l(3) =   1
                l(4) =   1
                l(5) =   2
                l(6) =   2
     Q(r) pseudized with  8 coefficients,  rinner =    1.000   1.000   1.000
                                                       1.000   1.000

     PseudoPot. # 2 for Au read from file:
     /afs/slac.stanford.edu/u/if/mamunm/psp/gbrv1.5pbe/Au.UPF
     MD5 check sum: 9d7f43293ad2c663164586bc4b293ffc
     Pseudo is Ultrasoft + core correction, Zval = 11.0
     Generated by new atomic code, or converted to UPF format
     Using radial grid of  985 points,  7 beta functions with:
                l(1) =   0
                l(2) =   0
                l(3) =   1
                l(4) =   1
                l(5) =   2
                l(6) =   2
                l(7) =   3
     Q(r) pseudized with  6 coefficients,  rinner =    1.900   1.900   1.900
                                                       1.900   1.900   1.900
                                                       1.900

     vdW kernel table read from file vdW_kernel_table
     MD5 check sum: 095c7af220d748ca6e76c0b4c6cfb241

     atomic species   valence    mass     pseudopotential
        Fe1           16.00    55.84500     Fe( 1.00)
        Au1           11.00   196.96657     Au( 1.00)

     Starting magnetic structure
     atomic species   magnetization
        Fe1          0.125
        Au1          0.182

     No symmetry found

   Cartesian axes

     site n.     atom                  positions (alat units)
         1           Fe1 tau(   1) = (   0.0000000   0.0000000  10.0000000  )
         2           Fe1 tau(   2) = (  -1.3414723   2.3234982  10.0000000  )
         3           Fe1 tau(   3) = (   1.3414723   2.3234982  10.0000000  )
         4           Au1 tau(   4) = (   2.6829446   0.0000000  10.0000000  )
         5           Fe1 tau(   5) = (   2.6829446   1.5489988  12.1906151  )
         6           Fe1 tau(   6) = (   1.3414723   3.8724969  12.1906151  )
         7           Fe1 tau(   7) = (  -1.3414723   3.8724969  12.1906151  )
         8           Au1 tau(   8) = (   0.0000000   1.5489988  12.1906151  )
         9           Fe1 tau(   9) = (  -0.0000000   3.0979975  14.3812301  )
        10           Fe1 tau(  10) = (   1.3414723   0.7744994  14.3812301  )
        11           Fe1 tau(  11) = (   4.0244169   0.7744994  14.3812301  )
        12           Au1 tau(  12) = (   2.6829446   3.0979975  14.3812301  )

     number of k points=    40  Fermi-Dirac smearing, width (Ry)=  0.0110
                       cart. coord. in units 2pi/alat
        k(    1) = (   0.0000000   0.0000000   0.0000000), wk =   0.0277778
        k(    2) = (   0.0000000   0.0358655   0.0000000), wk =   0.0555556
        k(    3) = (   0.0000000   0.0717309   0.0000000), wk =   0.0555556
        k(    4) = (   0.0000000  -0.1075964   0.0000000), wk =   0.0277778
        k(    5) = (   0.0310604   0.0179327   0.0000000), wk =   0.0555556
        k(    6) = (   0.0310604   0.0537982   0.0000000), wk =   0.0555556
        k(    7) = (   0.0310604   0.0896637   0.0000000), wk =   0.0555556
        k(    8) = (   0.0310604  -0.0896637   0.0000000), wk =   0.0555556
        k(    9) = (   0.0310604  -0.0537982   0.0000000), wk =   0.0555556
        k(   10) = (   0.0310604  -0.0179327   0.0000000), wk =   0.0555556
        k(   11) = (   0.0621208   0.0358655   0.0000000), wk =   0.0555556
        k(   12) = (   0.0621208   0.0717309   0.0000000), wk =   0.0555556
        k(   13) = (   0.0621208   0.1075964   0.0000000), wk =   0.0555556
        k(   14) = (   0.0621208  -0.0717309   0.0000000), wk =   0.0555556
        k(   15) = (   0.0621208  -0.0358655   0.0000000), wk =   0.0555556
        k(   16) = (   0.0621208   0.0000000   0.0000000), wk =   0.0555556
        k(   17) = (  -0.0931812  -0.0537982   0.0000000), wk =   0.0277778
        k(   18) = (  -0.0931812  -0.0179327   0.0000000), wk =   0.0555556
        k(   19) = (  -0.0931812   0.0179327   0.0000000), wk =   0.0555556
        k(   20) = (  -0.0931812  -0.1613946   0.0000000), wk =   0.0277778
        k(   21) = (   0.0000000   0.0000000   0.0000000), wk =   0.0277778
        k(   22) = (   0.0000000   0.0358655   0.0000000), wk =   0.0555556
        k(   23) = (   0.0000000   0.0717309   0.0000000), wk =   0.0555556
        k(   24) = (   0.0000000  -0.1075964   0.0000000), wk =   0.0277778
        k(   25) = (   0.0310604   0.0179327   0.0000000), wk =   0.0555556
        k(   26) = (   0.0310604   0.0537982   0.0000000), wk =   0.0555556
        k(   27) = (   0.0310604   0.0896637   0.0000000), wk =   0.0555556
        k(   28) = (   0.0310604  -0.0896637   0.0000000), wk =   0.0555556
        k(   29) = (   0.0310604  -0.0537982   0.0000000), wk =   0.0555556
        k(   30) = (   0.0310604  -0.0179327   0.0000000), wk =   0.0555556
        k(   31) = (   0.0621208   0.0358655   0.0000000), wk =   0.0555556
        k(   32) = (   0.0621208   0.0717309   0.0000000), wk =   0.0555556
        k(   33) = (   0.0621208   0.1075964   0.0000000), wk =   0.0555556
        k(   34) = (   0.0621208  -0.0717309   0.0000000), wk =   0.0555556
        k(   35) = (   0.0621208  -0.0358655   0.0000000), wk =   0.0555556
        k(   36) = (   0.0621208   0.0000000   0.0000000), wk =   0.0555556
        k(   37) = (  -0.0931812  -0.0537982   0.0000000), wk =   0.0277778
        k(   38) = (  -0.0931812  -0.0179327   0.0000000), wk =   0.0555556
        k(   39) = (  -0.0931812   0.0179327   0.0000000), wk =   0.0555556
        k(   40) = (  -0.0931812  -0.1613946   0.0000000), wk =   0.0277778

     Largest allocated arrays     est. size (Mb)     dimensions
     Largest temporary arrays     est. size (Mb)     dimensions

     Check: negative/imaginary core charge=   -0.000006    0.000000

     Initial potential from superposition of free atoms
     Check: negative starting charge=(component1):   -0.000101

     starting charge  167.99958, renormalised to  177.00000

     negative rho (up, down):  1.069E-04 8.336E-05

     *
     * You are using vdW-DF for exchange-correlation in this calculation.
     * Please cite the following three references that made this development
     * possible:
     *
     *   M. Dion, H. Rydberg, E. Schroder, D. C. Langreth, and
     *   B. I. Lundqvist, Phys. Rev. Lett. 92, 246401 (2004).
     *
     *   T. Thonhauser, V. R. Cooper, S. Li, A. Puzder, P. Hyldgaard, and
     *   D. C. Langreth, Phys. Rev. B 76, 125112 (2007).
     *
     *   G. Roman-Perez and J. M. Soler, Phys. Rev. Lett. 103, 096102 (2009).
     *
     *
     * If you are using vdW-DF2, please also cite:
     *
     *   K. Lee, E. D. Murray, L. Kong, B. I. Lundqvist, and
     *   D. C. Langreth, Phys. Rev. B 82, 081101(R) (2010).
     *
     *
     * If you are calculating the stress with vdW-DF, please also cite:
     *
     *   R. Sabatini, E. Kucukbenli, B. Kolb, T. Thonhauser, and
     *   S. de Gironcoli, J. Phys.: Condens. Matter 24, 424209 (2012).
     *

     Carrying out vdW-DF run using the following parameters:

     Nqs =      20    Nr_points =    1024   r_max =   100.000
     q_mesh =
               0.00001000     0.04494208     0.09755937     0.15916263
               0.23128650     0.31572767     0.41458969     0.53033537
               0.66584808     0.82450364     1.01025438     1.22772762
               1.48234092     1.78043706     2.12944203     2.53805004
               3.01644009     3.57652955     4.23227104     5.00000000

     Gradients computed in reciprocal space

     Adding external electric field

     Computed dipole along edir(3) :
        Dipole               -0.0000 Ry au,         -0.0000 Debye
        Dipole field         -0.0000 Ry au

        Potential amp.        0.0000 Ry
        Total length         44.9220 bohr

[...]

     Starting wfc are  144 randomized atomic wfcs

     Self-consistent Calculation

     iteration #  1     ecut=    36.75 Ry     beta=0.10
     Davidson diagonalization with overlap
     ethr =  1.00E-02,  avg # of iterations =  8.5

[...]

     Magnetic moment per site:
     atom:    1    charge:    7.2702    magn:    0.9105    constr:    0.0000
     atom:    2    charge:    7.2702    magn:    0.9105    constr:    0.0000
     atom:    3    charge:    7.2702    magn:    0.9105    constr:    0.0000
     atom:    4    charge:    1.4675    magn:    0.2616    constr:    0.0000
     atom:    5    charge:    7.2584    magn:    0.9044    constr:    0.0000
     atom:    6    charge:    7.2584    magn:    0.9044    constr:    0.0000
     atom:    7    charge:    7.2584    magn:    0.9044    constr:    0.0000
[...]
        k(    2) = (   0.0000000   0.0358655   0.0000000), wk =   0.0555556
        k(    3) = (   0.0000000   0.0717309   0.0000000), wk =   0.0555556
        k(    4) = (   0.0000000  -0.1075964   0.0000000), wk =   0.0277778
        k(    5) = (   0.0310604   0.0179327   0.0000000), wk =   0.0555556
        k(    6) = (   0.0310604   0.0537982   0.0000000), wk =   0.0555556
        k(    7) = (   0.0310604   0.0896637   0.0000000), wk =   0.0555556
        k(    8) = (   0.0310604  -0.0896637   0.0000000), wk =   0.0555556
        k(    9) = (   0.0310604  -0.0537982   0.0000000), wk =   0.0555556
        k(   10) = (   0.0310604  -0.0179327   0.0000000), wk =   0.0555556
        k(   11) = (   0.0621208   0.0358655   0.0000000), wk =   0.0555556
        k(   12) = (   0.0621208   0.0717309   0.0000000), wk =   0.0555556
        k(   13) = (   0.0621208   0.1075964   0.0000000), wk =   0.0555556
        k(   14) = (   0.0621208  -0.0717309   0.0000000), wk =   0.0555556
        k(   15) = (   0.0621208  -0.0358655   0.0000000), wk =   0.0555556
        k(   16) = (   0.0621208   0.0000000   0.0000000), wk =   0.0555556
        k(   17) = (  -0.0931812  -0.0537982   0.0000000), wk =   0.0277778
        k(   18) = (  -0.0931812  -0.0179327   0.0000000), wk =   0.0555556
        k(   19) = (  -0.0931812   0.0179327   0.0000000), wk =   0.0555556
        k(   20) = (  -0.0931812  -0.1613946   0.0000000), wk =   0.0277778
        k(   21) = (   0.0000000   0.0000000   0.0000000), wk =   0.0277778
        k(   22) = (   0.0000000   0.0358655   0.0000000), wk =   0.0555556
        k(   23) = (   0.0000000   0.0717309   0.0000000), wk =   0.0555556
        k(   24) = (   0.0000000  -0.1075964   0.0000000), wk =   0.0277778
        k(   25) = (   0.0310604   0.0179327   0.0000000), wk =   0.0555556
        k(   26) = (   0.0310604   0.0537982   0.0000000), wk =   0.0555556
        k(   27) = (   0.0310604   0.0896637   0.0000000), wk =   0.0555556
        k(   28) = (   0.0310604  -0.0896637   0.0000000), wk =   0.0555556
        k(   29) = (   0.0310604  -0.0537982   0.0000000), wk =   0.0555556
        k(   30) = (   0.0310604  -0.0179327   0.0000000), wk =   0.0555556
        k(   31) = (   0.0621208   0.0358655   0.0000000), wk =   0.0555556
        k(   32) = (   0.0621208   0.0717309   0.0000000), wk =   0.0555556
        k(   33) = (   0.0621208   0.1075964   0.0000000), wk =   0.0555556
        k(   34) = (   0.0621208  -0.0717309   0.0000000), wk =   0.0555556
        k(   35) = (   0.0621208  -0.0358655   0.0000000), wk =   0.0555556
        k(   36) = (   0.0621208   0.0000000   0.0000000), wk =   0.0555556
        k(   37) = (  -0.0931812  -0.0537982   0.0000000), wk =   0.0277778
        k(   38) = (  -0.0931812  -0.0179327   0.0000000), wk =   0.0555556
        k(   39) = (  -0.0931812   0.0179327   0.0000000), wk =   0.0555556
        k(   40) = (  -0.0931812  -0.1613946   0.0000000), wk =   0.0277778

     Largest allocated arrays     est. size (Mb)     dimensions
     Largest temporary arrays     est. size (Mb)     dimensions

     Check: negative/imaginary core charge=   -0.000006    0.000000

     Initial potential from superposition of free atoms
     Check: negative starting charge=(component1):   -0.000107

     starting charge  167.99958, renormalised to  177.00000

[...]

     *
     * You are using vdW-DF for exchange-correlation in this calculation.
     * Please cite the following three references that made this development
     * possible:
     *
     *   M. Dion, H. Rydberg, E. Schroder, D. C. Langreth, and
     *   B. I. Lundqvist, Phys. Rev. Lett. 92, 246401 (2004).
     *
     *   T. Thonhauser, V. R. Cooper, S. Li, A. Puzder, P. Hyldgaard, and
     *   D. C. Langreth, Phys. Rev. B 76, 125112 (2007).
     *
     *   G. Roman-Perez and J. M. Soler, Phys. Rev. Lett. 103, 096102 (2009).
     *
     *
     * If you are using vdW-DF2, please also cite:
     *
     *   K. Lee, E. D. Murray, L. Kong, B. I. Lundqvist, and
     *   D. C. Langreth, Phys. Rev. B 82, 081101(R) (2010).
     *
     *
     * If you are calculating the stress with vdW-DF, please also cite:
     *
     *   R. Sabatini, E. Kucukbenli, B. Kolb, T. Thonhauser, and
     *   S. de Gironcoli, J. Phys.: Condens. Matter 24, 424209 (2012).
     *

     Carrying out vdW-DF run using the following parameters:

     Nqs =      20    Nr_points =    1024   r_max =   100.000
     q_mesh =
               0.00001000     0.04494208     0.09755937     0.15916263
               0.23128650     0.31572767     0.41458969     0.53033537
               0.66584808     0.82450364     1.01025438     1.22772762
               1.48234092     1.78043706     2.12944203     2.53805004
               3.01644009     3.57652955     4.23227104     5.00000000

     Gradients computed in reciprocal space

[...]

     Starting wfc are  144 randomized atomic wfcs

     Self-consistent Calculation

[...]

     total energy              =   -2612.02726057 Ry
     Harris-Foulkes estimate   =   -2612.02725820 Ry
     estimated scf accuracy    <       0.00000127 Ry

[...]

     iteration # 26     ecut=    36.75 Ry     beta=0.10
     Davidson diagonalization with overlap
     ethr =  7.18E-10,  avg # of iterations =  1.2

[...]

     negative rho (up, down):  2.008E-04 8.476E-04

[...]

     Adding external electric field

     Computed dipole along edir(3) :
        Dipole               -0.0276 Ry au,         -0.0700 Debye
        Dipole field         -0.0001 Ry au

        Potential amp.        0.0076 Ry
        Total length         44.9220 bohr

     Magnetic moment per site:
     atom:    1    charge:    7.0959    magn:    1.3799    constr:    0.0000
     atom:    2    charge:    7.0959    magn:    1.3799    constr:    0.0000
     atom:    3    charge:    7.0958    magn:    1.3799    constr:    0.0000
     atom:    4    charge:    1.4489    magn:    0.0326    constr:    0.0000
     atom:    5    charge:    7.0858    magn:    1.3205    constr:    0.0000
     atom:    6    charge:    7.0858    magn:    1.3205    constr:    0.0000
     atom:    7    charge:    7.0857    magn:    1.3206    constr:    0.0000
     atom:    8    charge:    1.4507    magn:    0.0362    constr:    0.0000
     atom:    9    charge:    7.0925    magn:    1.3599    constr:    0.0000
     atom:   10    charge:    7.0925    magn:    1.3599    constr:    0.0000
     atom:   11    charge:    7.0925    magn:    1.3599    constr:    0.0000
     atom:   12    charge:    1.4479    magn:    0.0285    constr:    0.0000

     End of self-consistent calculation

 ------ SPIN UP ------------

[...]

 ------ SPIN DOWN ----------

[...]

          k = 0.0621 0.0000 0.0000 ( 15430 PWs)   bands (ev):

[...]

          k =-0.0932-0.1614 0.0000 ( 15418 PWs)   bands (ev):

   -84.4692 -84.4632 -84.4569 -84.4415 -84.4268 -84.4224 -84.4065 -84.4016
   -84.3961 -50.6325 -50.6310 -50.6272 -50.6130 -50.6029 -50.5987 -50.5954
   -50.5895 -50.5868 -50.5772 -50.5695 -50.5651 -50.5643 -50.5575 -50.5380
   -50.5278 -50.5241 -50.5137 -50.5120 -50.5020 -50.4843 -50.4791 -50.4646
   -50.4476 -50.4456 -50.4409 -50.4200  -6.0010  -5.3980  -5.0111  -4.8435
    -4.7415  -4.4971  -4.4263  -4.2624  -4.0740  -4.0671  -3.8994  -3.8466
    -3.7600  -3.7117  -3.6263  -3.3442  -3.3037  -3.0570  -2.9292  -2.0669
    -1.7339  -1.5779  -0.8971  -0.6369  -0.4453  -0.1842  -0.1639  -0.1631
    -0.1225  -0.0760   0.1268   0.2097   0.2527   0.3034   0.3497   0.4533
     0.5426   0.5760   0.6921   0.7649   0.8544   0.9314   1.0770   1.2061
     1.2578   1.2906   1.4182   1.4710   1.6002   1.6686   1.7363   1.8506
     1.8828   1.9643   2.0225   2.0844   2.1100   2.1796   2.2642   2.3066
     2.3192   2.5352   2.5931   2.7746   3.0027   3.0736   3.3292   3.7695
     3.8655   4.1125   4.6688   4.8478   5.6218   5.6971   6.4137   6.4302
     6.9216   6.9593   7.1255   7.1352   7.9423   8.1667

     the Fermi energy is     0.8720 ev

!    total energy              =   -2612.02726911 Ry
     Harris-Foulkes estimate   =   -2612.02726044 Ry
     estimated scf accuracy    <       0.00000061 Ry

     The total energy is the sum of the following terms:

     one-electron contribution =  -19937.94800027 Ry
     hartree contribution      =    9991.28936892 Ry
     xc contribution           =    -464.77789459 Ry
     ewald contribution        =    7799.48978857 Ry
     electric field correction =       0.00000233 Ry
     smearing contrib. (-TS)   =      -0.08053407 Ry

     total magnetization       =    25.50 Bohr mag/cell
     absolute magnetization    =    27.28 Bohr mag/cell

     convergence has been achieved in  26 iterations

 BEEF-vdW xc energy contributions
           1 :   -410.510986863472
           2 :    375.631166418981
           3 :   -315.973108555633
           4 :    247.017824975859
           5 :   -183.206336515276
           6 :    133.146355459397
           7 :   -98.4030186222494
           8 :    75.5216268140699
           9 :   -59.4799417914440
          10 :    46.5149196627195
          11 :   -35.1955350052062
          12 :    25.7922401778501
          13 :   -18.9198321758174
          14 :    14.5191738317238
          15 :   -11.7357579755186
          16 :    9.47223469789583
          17 :   -7.03164773740627
          18 :    4.36062087371357
          19 :   -1.84357398642692
          20 :  -0.108723201690054
          21 :    1.35094655388235
          22 :   -2.03775129964117
          23 :    2.44384180325585
          24 :   -2.75753494389363
          25 :    2.98503949261698
          26 :   -3.00851176884112
          27 :    2.71534024507628
          28 :   -2.11791998142144
          29 :    1.39742572899559
          30 :  -0.862432457607042
          31 :   -34.5012461776143
          32 :   -24.6600872400821

     Forces acting on atoms (Ry/au):

     negative rho (up, down):  2.008E-04 8.476E-04
     atom    1 type  1   force =     0.00000528   -0.01168866    0.00799613
     atom    2 type  1   force =    -0.01012744    0.00585247    0.00800076
     atom    3 type  1   force =     0.01013312    0.00584998    0.00797195
     atom    4 type  2   force =    -0.00000339   -0.00000034   -0.02819048
     atom    5 type  1   force =    -0.00000334    0.00963982    0.00326859
     atom    6 type  1   force =     0.00833527   -0.00482831    0.00330093
     atom    7 type  1   force =    -0.00833666   -0.00482418    0.00329192
     atom    8 type  2   force =     0.00000169    0.00000970   -0.00532052
     atom    9 type  1   force =     0.00003615    0.00041184    0.00018409
     atom   10 type  1   force =     0.00032672   -0.00022700    0.00018125
     atom   11 type  1   force =    -0.00031614   -0.00026294    0.00019068
     atom   12 type  2   force =    -0.00005127    0.00006761   -0.00087531

     Total force =     0.041679     Total SCF correction =     0.002508

     entering subroutine stress ...

     negative rho (up, down):  2.008E-04 8.476E-04
          total   stress  (Ry/bohr**3)                   (kbar)     P=   -8.10
  -0.00007960  -0.00000000  -0.00000002        -11.71     -0.00     -0.00
  -0.00000000  -0.00007959   0.00000000         -0.00    -11.71      0.00
  -0.00000002   0.00000000  -0.00000604         -0.00      0.00     -0.89

 !ASE

     Writing output data file calc.save

     General routines

     Parallel routines

   This run was terminated on:   9:32:30  30Dec2018

   JOB DONE.
Job  /afs/slac/g/suncat/bin/suncat-tsmpirun -x LD_LIBRARY_PATH -wdir /scratch/qe648430_E33Ek pw.x -in pw.inp

TID   HOST_NAME   COMMAND_LINE            STATUS            TERMINATION_TIME
00000 suncat0056 pw.x -in pw.inp   Done                     12/30/2018 09:32:30
00001 suncat0056 pw.x -in pw.inp   Done                     12/30/2018 09:32:30
00002 suncat0056 pw.x -in pw.inp   Done                     12/30/2018 09:32:30
00003 suncat0056 pw.x -in pw.inp   Done                     12/30/2018 09:32:30
00004 suncat0056 pw.x -in pw.inp   Done                     12/30/2018 09:32:30
00005 suncat0056 pw.x -in pw.inp   Done                     12/30/2018 09:32:30
00006 suncat0056 pw.x -in pw.inp   Done                     12/30/2018 09:32:30
00007 suncat0056 pw.x -in pw.inp   Done                     12/30/2018 09:32:30
00008 suncat0052 pw.x -in pw.inp   Done                     12/30/2018 09:32:30
00009 suncat0052 pw.x -in pw.inp   Done                     12/30/2018 09:32:30
00010 suncat0052 pw.x -in pw.inp   Done                     12/30/2018 09:32:30
00011 suncat0052 pw.x -in pw.inp   Done                     12/30/2018 09:32:30
00012 suncat0052 pw.x -in pw.inp   Done                     12/30/2018 09:32:30
00013 suncat0052 pw.x -in pw.inp   Done                     12/30/2018 09:32:30
00014 suncat0052 pw.x -in pw.inp   Done                     12/30/2018 09:32:30
00015 suncat0052 pw.x -in pw.inp   Done                     12/30/2018 09:32:30
00016 suncat0048 pw.x -in pw.inp   Done                     12/30/2018 09:32:30
00017 suncat0048 pw.x -in pw.inp   Done                     12/30/2018 09:32:30
00018 suncat0048 pw.x -in pw.inp   Done                     12/30/2018 09:32:30
00019 suncat0048 pw.x -in pw.inp   Done                     12/30/2018 09:32:30
00020 suncat0048 pw.x -in pw.inp   Done                     12/30/2018 09:32:30
00021 suncat0048 pw.x -in pw.inp   Done                     12/30/2018 09:32:30
00022 suncat0048 pw.x -in pw.inp   Done                     12/30/2018 09:32:30
00023 suncat0048 pw.x -in pw.inp   Done                     12/30/2018 09:32:30
00024 suncat0047 pw.x -in pw.inp   Done                     12/30/2018 09:32:30
00025 suncat0047 pw.x -in pw.inp   Done                     12/30/2018 09:32:30
00026 suncat0047 pw.x -in pw.inp   Done                     12/30/2018 09:32:30
00027 suncat0047 pw.x -in pw.inp   Done                     12/30/2018 09:32:30
00028 suncat0047 pw.x -in pw.inp   Done                     12/30/2018 09:32:30
00029 suncat0047 pw.x -in pw.inp   Done                     12/30/2018 09:32:30
00030 suncat0047 pw.x -in pw.inp   Done                     12/30/2018 09:32:30
00031 suncat0047 pw.x -in pw.inp   Done                     12/30/2018 09:32:30
00032 suncat0041 pw.x -in pw.inp   Done                     12/30/2018 09:32:30
00033 suncat0041 pw.x -in pw.inp   Done                     12/30/2018 09:32:30
00034 suncat0041 pw.x -in pw.inp   Done                     12/30/2018 09:32:30
00035 suncat0041 pw.x -in pw.inp   Done                     12/30/2018 09:32:30
00036 suncat0041 pw.x -in pw.inp   Done                     12/30/2018 09:32:30
00037 suncat0041 pw.x -in pw.inp   Done                     12/30/2018 09:32:30
00038 suncat0041 pw.x -in pw.inp   Done                     12/30/2018 09:32:30
00039 suncat0041 pw.x -in pw.inp   Done                     12/30/2018 09:32:30
00040 suncat0039 pw.x -in pw.inp   Done                     12/30/2018 09:32:30
00041 suncat0039 pw.x -in pw.inp   Done                     12/30/2018 09:32:30
00042 suncat0039 pw.x -in pw.inp   Done                     12/30/2018 09:32:30
00043 suncat0039 pw.x -in pw.inp   Done                     12/30/2018 09:32:30
00044 suncat0039 pw.x -in pw.inp   Done                     12/30/2018 09:32:30
00045 suncat0039 pw.x -in pw.inp   Done                     12/30/2018 09:32:30
00046 suncat0039 pw.x -in pw.inp   Done                     12/30/2018 09:32:30
00047 suncat0039 pw.x -in pw.inp   Done                     12/30/2018 09:32:30
00048 suncat0207 pw.x -in pw.inp   Done                     12/30/2018 09:32:30
00049 suncat0207 pw.x -in pw.inp   Done                     12/30/2018 09:32:30
00050 suncat0207 pw.x -in pw.inp   Done                     12/30/2018 09:32:30
00051 suncat0207 pw.x -in pw.inp   Done                     12/30/2018 09:32:30
00052 suncat0207 pw.x -in pw.inp   Done                     12/30/2018 09:32:30
00053 suncat0207 pw.x -in pw.inp   Done                     12/30/2018 09:32:30
00054 suncat0207 pw.x -in pw.inp   Done                     12/30/2018 09:32:30
00055 suncat0207 pw.x -in pw.inp   Done                     12/30/2018 09:32:30
00056 suncat0206 pw.x -in pw.inp   Done                     12/30/2018 09:32:30
00057 suncat0206 pw.x -in pw.inp   Done                     12/30/2018 09:32:30
00058 suncat0206 pw.x -in pw.inp   Done                     12/30/2018 09:32:30
00059 suncat0206 pw.x -in pw.inp   Done                     12/30/2018 09:32:30
00060 suncat0206 pw.x -in pw.inp   Done                     12/30/2018 09:32:30
00061 suncat0206 pw.x -in pw.inp   Done                     12/30/2018 09:32:30
00062 suncat0206 pw.x -in pw.inp   Done                     12/30/2018 09:32:30
00063 suncat0206 pw.x -in pw.inp   Done                     12/30/2018 09:32:30