     Program PWSCF v.5.1rc2 (svn rev. 11289) starts on 31Dec2018 at 17:37:59

     Current dimensions of program PWSCF are:
     Max number of different atomic species (ntypx) = 10
     Max number of k-points (npk) =  40000
     Max angular momentum in pseudopotentials (lmaxx) =  3
     Presently stress not available with electric field

     IMPORTANT: XC functional enforced from input :
     Exchange-correlation      = BEEF-VDW ( 1  4 27 13 2)
     Any further DFT definition will be discarded
     Please, verify this is what you really want

     Subspace diagonalization in iterative solution of the eigenvalue problem:
     a serial algorithm will be used

     bravais-lattice index     =            0
     lattice parameter (alat)  =       1.8897  a.u.
     unit-cell volume          =    4254.2345 (a.u.)^3
     number of atoms/cell      =           12
     number of atomic types    =            2
     number of electrons       =       177.00
     number of Kohn-Sham states=          118
     kinetic-energy cutoff     =      36.7493  Ry
     charge density cutoff     =     367.4932  Ry
     convergence threshold     =      1.0E-06
     mixing beta               =       0.1000
     number of iterations used =           10  plain     mixing
     Exchange-correlation      = BEEF-VDW ( 1  4 27 13 2)
     nstep                     =           50

     celldm(1)=   1.889726  celldm(2)=   0.000000  celldm(3)=   0.000000
     celldm(4)=   0.000000  celldm(5)=   0.000000  celldm(6)=   0.000000

     crystal axes: (cart. coord. in units of alat)
               a(1) = (   5.455892   0.000000   0.000000 )
               a(2) = (  -2.727946   4.724941   0.000000 )
               a(3) = (   0.000000   0.000000  24.454717 )

     reciprocal axes: (cart. coord. in units 2 pi/alat)
               b(1) = (  0.183288  0.105821  0.000000 )
               b(2) = (  0.000000  0.211643  0.000000 )
               b(3) = (  0.000000  0.000000  0.040892 )

     PseudoPot. # 1 for Re read from file:
     /afs/slac.stanford.edu/u/if/mamunm/psp/gbrv1.5pbe/Re.UPF
     MD5 check sum: 85f993410f3e006da9d71c142b4ad953
     Pseudo is Ultrasoft + core correction, Zval = 15.0
     Generated by new atomic code, or converted to UPF format
     Using radial grid of  981 points,  8 beta functions with:
                l(1) =   0
                l(2) =   0
                l(3) =   1
                l(4) =   1
                l(5) =   2
                l(6) =   2
                l(7) =   3
                l(8) =   3
     Q(r) pseudized with  8 coefficients,  rinner =    1.150   1.150   1.150
                                                       1.150   1.150   1.150
                                                       1.150

     PseudoPot. # 2 for Cr read from file:
     /afs/slac.stanford.edu/u/if/mamunm/psp/gbrv1.5pbe/Cr.UPF
     MD5 check sum: 0d52af634a40206e4dee301ad30da4bf
     Pseudo is Ultrasoft + core correction, Zval = 14.0
     Generated by new atomic code, or converted to UPF format
     Using radial grid of  857 points,  6 beta functions with:
                l(1) =   0
                l(2) =   0
                l(3) =   1
                l(4) =   1
                l(5) =   2
                l(6) =   2
     Q(r) pseudized with  8 coefficients,  rinner =    0.950   0.950   0.950
                                                       0.950   0.950

     vdW kernel table read from file vdW_kernel_table
     MD5 check sum: 095c7af220d748ca6e76c0b4c6cfb241

     atomic species   valence    mass     pseudopotential
        Re1           15.00   186.20700     Re( 1.00)
        Cr1           14.00    51.99610     Cr( 1.00)

     No symmetry found

   Cartesian axes

     site n.     atom                  positions (alat units)
         1           Re1 tau(   1) = (   0.0000000   0.0000000  10.0000000  )
         2           Re1 tau(   2) = (  -1.3639730   2.3624706  10.0000000  )
         3           Re1 tau(   3) = (   1.3639730   2.3624706  10.0000000  )
         4           Cr1 tau(   4) = (   2.7279461   0.0000000  10.0000000  )
         5           Re1 tau(   5) = (   2.7279461   1.5749804  12.2273586  )
         6           Re1 tau(   6) = (   1.3639730   3.9374510  12.2273586  )
         7           Re1 tau(   7) = (  -1.3639730   3.9374510  12.2273586  )
         8           Cr1 tau(   8) = (   0.0000000   1.5749804  12.2273586  )
         9           Re1 tau(   9) = (  -0.0000000   3.1499608  14.4547173  )
        10           Re1 tau(  10) = (   1.3639730   0.7874902  14.4547173  )
        11           Re1 tau(  11) = (   4.0919191   0.7874902  14.4547173  )
        12           Cr1 tau(  12) = (   2.7279461   3.1499608  14.4547173  )

     number of k points=    20  Fermi-Dirac smearing, width (Ry)=  0.0110
                       cart. coord. in units 2pi/alat
        k(    1) = (   0.0000000   0.0000000   0.0000000), wk =   0.0555556
        k(    2) = (   0.0000000   0.0352738   0.0000000), wk =   0.1111111
        k(    3) = (   0.0000000   0.0705476   0.0000000), wk =   0.1111111
        k(    4) = (   0.0000000  -0.1058214   0.0000000), wk =   0.0555556
        k(    5) = (   0.0305480   0.0176369   0.0000000), wk =   0.1111111
        k(    6) = (   0.0305480   0.0529107   0.0000000), wk =   0.1111111
        k(    7) = (   0.0305480   0.0881845   0.0000000), wk =   0.1111111
        k(    8) = (   0.0305480  -0.0881845   0.0000000), wk =   0.1111111
        k(    9) = (   0.0305480  -0.0529107   0.0000000), wk =   0.1111111
        k(   10) = (   0.0305480  -0.0176369   0.0000000), wk =   0.1111111
        k(   11) = (   0.0610960   0.0352738   0.0000000), wk =   0.1111111
        k(   12) = (   0.0610960   0.0705476   0.0000000), wk =   0.1111111
        k(   13) = (   0.0610960   0.1058214   0.0000000), wk =   0.1111111
        k(   14) = (   0.0610960  -0.0705476   0.0000000), wk =   0.1111111
        k(   15) = (   0.0610960  -0.0352738   0.0000000), wk =   0.1111111
        k(   16) = (   0.0610960   0.0000000   0.0000000), wk =   0.1111111
        k(   17) = (  -0.0916440  -0.0529107   0.0000000), wk =   0.0555556
        k(   18) = (  -0.0916440  -0.0176369   0.0000000), wk =   0.1111111
        k(   19) = (  -0.0916440   0.0176369   0.0000000), wk =   0.1111111
        k(   20) = (  -0.0916440  -0.1587321   0.0000000), wk =   0.0555556

     Largest allocated arrays     est. size (Mb)     dimensions
     Largest temporary arrays     est. size (Mb)     dimensions

     Check: negative/imaginary core charge=   -0.000001    0.000000

     Initial potential from superposition of free atoms
     Check: negative starting charge=   -1.165162

     starting charge  169.49955, renormalised to  177.00000

     negative rho (up, down):  1.217E+00 0.000E+00

     *
     * You are using vdW-DF for exchange-correlation in this calculation.
     * Please cite the following three references that made this development
     * possible:
     *
     *   M. Dion, H. Rydberg, E. Schroder, D. C. Langreth, and
     *   B. I. Lundqvist, Phys. Rev. Lett. 92, 246401 (2004).
     *
     *   T. Thonhauser, V. R. Cooper, S. Li, A. Puzder, P. Hyldgaard, and
     *   D. C. Langreth, Phys. Rev. B 76, 125112 (2007).
     *
     *   G. Roman-Perez and J. M. Soler, Phys. Rev. Lett. 103, 096102 (2009).
     *
     *
     * If you are using vdW-DF2, please also cite:
     *
     *   K. Lee, E. D. Murray, L. Kong, B. I. Lundqvist, and
     *   D. C. Langreth, Phys. Rev. B 82, 081101(R) (2010).
     *
     *
     * If you are calculating the stress with vdW-DF, please also cite:
     *
     *   R. Sabatini, E. Kucukbenli, B. Kolb, T. Thonhauser, and
     *   S. de Gironcoli, J. Phys.: Condens. Matter 24, 424209 (2012).
     *

     Carrying out vdW-DF run using the following parameters:

     Nqs =      20    Nr_points =    1024   r_max =   100.000
     q_mesh =
               0.00001000     0.04494208     0.09755937     0.15916263
               0.23128650     0.31572767     0.41458969     0.53033537
               0.66584808     0.82450364     1.01025438     1.22772762
               1.48234092     1.78043706     2.12944203     2.53805004
               3.01644009     3.57652955     4.23227104     5.00000000

     Gradients computed in reciprocal space

     Adding external electric field

     Computed dipole along edir(3) :
        Dipole               -0.0000 Ry au,         -0.0000 Debye
        Dipole field         -0.0000 Ry au

        Potential amp.        0.0000 Ry
        Total length         45.0574 bohr

     Starting wfc are  147 randomized atomic wfcs

     Self-consistent Calculation

     iteration #  1     ecut=    36.75 Ry     beta=0.10
     Davidson diagonalization with overlap
     ethr =  1.00E-02,  avg # of iterations =  3.4

[...]

     total energy              =   -2258.92765929 Ry
     Harris-Foulkes estimate   =   -2259.54981010 Ry
     estimated scf accuracy    <       4.16826648 Ry

[...]

     End of self-consistent calculation

          k = 0.0000 0.0000 0.0000 ( 15893 PWs)   bands (ev):

   -78.2146 -78.1475 -78.1475 -78.0575 -78.0518 -77.9957 -77.9957 -77.9943
   -77.9943 -69.4080 -69.3830 -69.3829 -40.8767 -40.8276 -40.8276 -40.8205
   -40.7324 -40.6868 -40.6868 -40.6657 -40.6657 -40.4781 -40.1786 -40.1724
   -40.1174 -40.1174 -40.0173 -39.9511 -39.9511 -39.8600 -39.7845 -39.7845
   -39.7575 -39.7575 -39.7218 -39.7218 -39.6966 -39.5567 -39.5505 -39.5505
   -39.5053 -39.5053 -39.4106 -39.3739 -39.2891 -39.2891 -39.2814 -39.2814
    -6.2383  -4.3748  -3.6986  -3.6022  -3.0543  -3.0543  -3.0328  -2.7036
    -2.7036  -2.3768  -2.2875  -2.2126  -2.2126  -1.9228  -1.9228  -1.1857
    -0.4919  -0.4919   0.2498   0.2498   0.2601   0.3150   0.7438   1.1162
     1.1162   1.1741   1.1741   1.1845   1.4465   1.4465   1.6454   1.6454
     1.7231   1.7231   1.7370   1.8270   2.6813   2.6813   2.7412   2.8023
     2.9765   2.9765   3.2224   3.4241   3.4241   3.9721   4.0585   4.0585
     4.1220   4.1220   4.1724   4.4266   4.4266   4.7425   4.7425   5.0332
     5.0332   5.2952   5.2952   5.4761   5.4761   5.4978   5.6748   5.6748
     6.2638   6.4903   6.6814   6.6814   6.6824   6.8888

[...]

          k =-0.0916-0.0529 0.0000 ( 16032 PWs)   bands (ev):

[...]

     the Fermi energy is     2.3336 ev

!    total energy              =   -2258.06088001 Ry
     Harris-Foulkes estimate   =   -2258.06088344 Ry
     estimated scf accuracy    <       0.00000024 Ry

     The total energy is the sum of the following terms:

     one-electron contribution =  -18218.14607823 Ry
     hartree contribution      =    9094.26182526 Ry
     xc contribution           =    -556.34551872 Ry
     ewald contribution        =    7422.24831572 Ry
     electric field correction =       0.00000000 Ry
     smearing contrib. (-TS)   =      -0.07942404 Ry

     convergence has been achieved in  18 iterations

 BEEF-vdW xc energy contributions
           1 :   -493.118674765600
           2 :    456.634637619456
           3 :   -391.891429579438
           4 :    312.331018022913
           5 :   -232.198212396555
           6 :    162.554946890277
           7 :   -109.058296045462
           8 :    71.9444494126188
[...]
     Generated by new atomic code, or converted to UPF format
     Using radial grid of  981 points,  8 beta functions with:
                l(1) =   0
                l(2) =   0
                l(3) =   1
                l(4) =   1
                l(5) =   2
                l(6) =   2
                l(7) =   3
                l(8) =   3
     Q(r) pseudized with  8 coefficients,  rinner =    1.150   1.150   1.150
                                                       1.150   1.150   1.150
                                                       1.150

     PseudoPot. # 2 for Cr read from file:
     /afs/slac.stanford.edu/u/if/mamunm/psp/gbrv1.5pbe/Cr.UPF
     MD5 check sum: 0d52af634a40206e4dee301ad30da4bf
     Pseudo is Ultrasoft + core correction, Zval = 14.0
     Generated by new atomic code, or converted to UPF format
     Using radial grid of  857 points,  6 beta functions with:
                l(1) =   0
                l(2) =   0
                l(3) =   1
                l(4) =   1
                l(5) =   2
                l(6) =   2
     Q(r) pseudized with  8 coefficients,  rinner =    0.950   0.950   0.950
                                                       0.950   0.950

     vdW kernel table read from file vdW_kernel_table
     MD5 check sum: 095c7af220d748ca6e76c0b4c6cfb241

     atomic species   valence    mass     pseudopotential
        Re1           15.00   186.20700     Re( 1.00)
        Cr1           14.00    51.99610     Cr( 1.00)

     No symmetry found

   Cartesian axes

     site n.     atom                  positions (alat units)
         1           Re1 tau(   1) = (   0.0000000   0.0000000  10.0000000  )
         2           Re1 tau(   2) = (  -1.3639730   2.3624706  10.0000000  )
         3           Re1 tau(   3) = (   1.3639730   2.3624706  10.0000000  )
         4           Cr1 tau(   4) = (   2.7279461   0.0000000  10.0000000  )
         5           Re1 tau(   5) = (   2.7279461   1.5749804  12.2273586  )
         6           Re1 tau(   6) = (   1.3639730   3.9374510  12.2273586  )
         7           Re1 tau(   7) = (  -1.3639730   3.9374510  12.2273586  )
         8           Cr1 tau(   8) = (   0.0000000   1.5749804  12.2273586  )
         9           Re1 tau(   9) = (   0.0000007   3.1402136  14.3553907  )
        10           Re1 tau(  10) = (   1.3555364   0.7923640  14.3553915  )
        11           Re1 tau(  11) = (   4.1003591   0.7923625  14.3553936  )
        12           Cr1 tau(  12) = (   2.7279470   3.1499619  14.3429206  )

     number of k points=    20  Fermi-Dirac smearing, width (Ry)=  0.0110
                       cart. coord. in units 2pi/alat
        k(    1) = (   0.0000000   0.0000000   0.0000000), wk =   0.0555556
        k(    2) = (   0.0000000   0.0352738   0.0000000), wk =   0.1111111
        k(    3) = (   0.0000000   0.0705476   0.0000000), wk =   0.1111111
        k(    4) = (   0.0000000  -0.1058214   0.0000000), wk =   0.0555556
        k(    5) = (   0.0305480   0.0176369   0.0000000), wk =   0.1111111
        k(    6) = (   0.0305480   0.0529107   0.0000000), wk =   0.1111111
        k(    7) = (   0.0305480   0.0881845   0.0000000), wk =   0.1111111
        k(    8) = (   0.0305480  -0.0881845   0.0000000), wk =   0.1111111
        k(    9) = (   0.0305480  -0.0529107   0.0000000), wk =   0.1111111
        k(   10) = (   0.0305480  -0.0176369   0.0000000), wk =   0.1111111
        k(   11) = (   0.0610960   0.0352738   0.0000000), wk =   0.1111111
        k(   12) = (   0.0610960   0.0705476   0.0000000), wk =   0.1111111
        k(   13) = (   0.0610960   0.1058214   0.0000000), wk =   0.1111111
        k(   14) = (   0.0610960  -0.0705476   0.0000000), wk =   0.1111111
        k(   15) = (   0.0610960  -0.0352738   0.0000000), wk =   0.1111111
        k(   16) = (   0.0610960   0.0000000   0.0000000), wk =   0.1111111
        k(   17) = (  -0.0916440  -0.0529107   0.0000000), wk =   0.0555556
        k(   18) = (  -0.0916440  -0.0176369   0.0000000), wk =   0.1111111
        k(   19) = (  -0.0916440   0.0176369   0.0000000), wk =   0.1111111
        k(   20) = (  -0.0916440  -0.1587321   0.0000000), wk =   0.0555556

     Largest allocated arrays     est. size (Mb)     dimensions
     Largest temporary arrays     est. size (Mb)     dimensions

     Check: negative/imaginary core charge=   -0.000001    0.000000

     Initial potential from superposition of free atoms
     Check: negative starting charge=   -1.164330

     starting charge  169.49955, renormalised to  177.00000

[...]

     *
     * You are using vdW-DF for exchange-correlation in this calculation.
     * Please cite the following three references that made this development
     * possible:
     *
     *   M. Dion, H. Rydberg, E. Schroder, D. C. Langreth, and
     *   B. I. Lundqvist, Phys. Rev. Lett. 92, 246401 (2004).
     *
     *   T. Thonhauser, V. R. Cooper, S. Li, A. Puzder, P. Hyldgaard, and
     *   D. C. Langreth, Phys. Rev. B 76, 125112 (2007).
     *
     *   G. Roman-Perez and J. M. Soler, Phys. Rev. Lett. 103, 096102 (2009).
     *
     *
     * If you are using vdW-DF2, please also cite:
     *
     *   K. Lee, E. D. Murray, L. Kong, B. I. Lundqvist, and
     *   D. C. Langreth, Phys. Rev. B 82, 081101(R) (2010).
     *
     *
     * If you are calculating the stress with vdW-DF, please also cite:
     *
     *   R. Sabatini, E. Kucukbenli, B. Kolb, T. Thonhauser, and
     *   S. de Gironcoli, J. Phys.: Condens. Matter 24, 424209 (2012).
     *

     Carrying out vdW-DF run using the following parameters:

     Nqs =      20    Nr_points =    1024   r_max =   100.000
     q_mesh =
               0.00001000     0.04494208     0.09755937     0.15916263
               0.23128650     0.31572767     0.41458969     0.53033537
               0.66584808     0.82450364     1.01025438     1.22772762
               1.48234092     1.78043706     2.12944203     2.53805004
               3.01644009     3.57652955     4.23227104     5.00000000

     Gradients computed in reciprocal space

[...]

     Starting wfc are  147 randomized atomic wfcs

     Self-consistent Calculation

[...]

     total energy              =   -2258.07313984 Ry
     Harris-Foulkes estimate   =   -2258.07314013 Ry
     estimated scf accuracy    <       0.00000112 Ry

     iteration # 20     ecut=    36.75 Ry     beta=0.10
     Davidson diagonalization with overlap
     ethr =  6.35E-10,  avg # of iterations =  2.2

[...]

     negative rho (up, down):  1.221E+00 0.000E+00

     Adding external electric field

     Computed dipole along edir(3) :
        Dipole                0.0264 Ry au,          0.0670 Debye
        Dipole field          0.0001 Ry au

        Potential amp.       -0.0070 Ry
        Total length         45.0574 bohr

     End of self-consistent calculation

[...]

          k = 0.0611 0.0000 0.0000 ( 16002 PWs)   bands (ev):

[...]

          k =-0.0916-0.1587 0.0000 ( 16032 PWs)   bands (ev):

   -78.1337 -78.1120 -78.0877 -78.0401 -78.0218 -78.0019 -77.9119 -77.8913
   -77.8720 -69.3869 -69.3542 -69.2659 -40.8551 -40.7544 -40.7300 -40.7031
   -40.6745 -40.6475 -40.6054 -40.5624 -40.5243 -40.2994 -40.1631 -40.0798
   -40.0157 -39.9673 -39.9339 -39.9128 -39.8330 -39.8328 -39.8019 -39.7481
   -39.6940 -39.6739 -39.6700 -39.6665 -39.6149 -39.5814 -39.5729 -39.5466
   -39.5438 -39.5055 -39.4462 -39.4361 -39.3831 -39.3570 -39.3212 -39.2145
    -4.5514  -4.1394  -2.8876  -2.6598  -2.5147  -2.2673  -2.1323  -2.0351
    -1.7679  -1.7241  -1.6792  -1.3694  -1.1064  -1.0527  -0.9148  -0.7603
    -0.7215  -0.4957  -0.4059  -0.3113  -0.0744   0.3004   0.3361   0.5202
     0.6010   0.6699   0.6945   0.7318   0.7318   0.8189   0.9701   1.2074
     1.2306   1.3653   1.5110   1.5564   1.6401   1.7611   1.7611   1.8235
     2.5393   2.5436   2.5704   2.5824   2.7717   2.7972   3.0175   3.2243
     3.2445   3.3974   3.4046   3.5065   3.5815   3.6597   3.7344   3.9905
     4.1456   4.4741   4.5119   4.6491   5.0894   5.3579   5.5382   5.5652
     5.9131   6.3802   6.5861   7.1189   7.5141   7.8507

     the Fermi energy is     2.3604 ev

!    total energy              =   -2258.07313847 Ry
     Harris-Foulkes estimate   =   -2258.07313974 Ry
     estimated scf accuracy    <       0.00000039 Ry

     The total energy is the sum of the following terms:

     one-electron contribution =  -18485.09599713 Ry
     hartree contribution      =    9228.03715955 Ry
     xc contribution           =    -556.62498214 Ry
     ewald contribution        =    7555.68517544 Ry
     electric field correction =       0.00000205 Ry
     smearing contrib. (-TS)   =      -0.07449625 Ry

     convergence has been achieved in  20 iterations

 BEEF-vdW xc energy contributions
           1 :   -493.400152529149
           2 :    457.004218319409
           3 :   -392.376961254252
           4 :    312.874871486711
           5 :   -232.682089267650
           6 :    162.862036501093
           7 :   -109.137818193083
           8 :    71.8415759510672
           9 :   -47.5887110804600
          10 :    31.6612462898510
          11 :   -20.0533644127230
          12 :    10.5242065442949
          13 :   -2.57366017914637
          14 :   -3.29429932941866
          15 :    6.47481459349103
          16 :   -6.89438580758417
          17 :    5.18682175737956
          18 :   -2.47946050273117
          19 :  -1.272932431106710E-002
          20 :    1.37660458142113
          21 :   -1.24042550660488
          22 :  -0.182459872488835
          23 :    2.22779048152279
          24 :   -4.04305698125495
          25 :    4.90209300844617
          26 :   -4.47274810501153
          27 :    2.93525019388369
          28 :  -0.895441792323481
          29 :  -0.880600289325457
          30 :    1.79861684815478
          31 :   -41.8818109338590
          32 :   -30.9318418552716

     Forces acting on atoms (Ry/au):

     negative rho (up, down):  1.221E+00 0.000E+00
     atom    1 type  1   force =     0.00000069    0.00491059    0.02401201
     atom    2 type  1   force =     0.00425354   -0.00245503    0.02401215
     atom    3 type  1   force =    -0.00425247   -0.00245431    0.02401387
     atom    4 type  2   force =    -0.00000019    0.00000011    0.02234614
     atom    5 type  1   force =     0.00000020    0.00194612   -0.02592726
     atom    6 type  1   force =     0.00168453   -0.00097282   -0.02592783
     atom    7 type  1   force =    -0.00168540   -0.00097275   -0.02592719
     atom    8 type  2   force =    -0.00000019   -0.00000015   -0.01918683
     atom    9 type  1   force =    -0.00000036    0.00056827    0.00091801
     atom   10 type  1   force =     0.00049169   -0.00028511    0.00091713
     atom   11 type  1   force =    -0.00049188   -0.00028496    0.00091704
     atom   12 type  2   force =    -0.00000015    0.00000004   -0.00016722

     Total force =     0.068565     Total SCF correction =     0.001947

     entering subroutine stress ...

     negative rho (up, down):  1.221E+00 0.000E+00
          total   stress  (Ry/bohr**3)                   (kbar)     P=  -32.62
  -0.00027403  -0.00000000  -0.00000000        -40.31     -0.00     -0.00
  -0.00000000  -0.00027403  -0.00000000         -0.00    -40.31     -0.00
  -0.00000000  -0.00000000  -0.00011716         -0.00     -0.00    -17.24

 !ASE

     Writing output data file calc.save

     General routines

     Parallel routines

   This run was terminated on:  18:49:26  31Dec2018

   JOB DONE.
Job  /afs/slac/g/suncat/bin/suncat-tsmpirun -x LD_LIBRARY_PATH -wdir /scratch/qe648832_SN7IK pw.x -in pw.inp

TID   HOST_NAME   COMMAND_LINE            STATUS            TERMINATION_TIME
00000 suncat0077 pw.x -in pw.inp   Done                     12/31/2018 18:49:26
00001 suncat0077 pw.x -in pw.inp   Done                     12/31/2018 18:49:26
00002 suncat0077 pw.x -in pw.inp   Done                     12/31/2018 18:49:26
00003 suncat0077 pw.x -in pw.inp   Done                     12/31/2018 18:49:26
00004 suncat0077 pw.x -in pw.inp   Done                     12/31/2018 18:49:26
00005 suncat0077 pw.x -in pw.inp   Done                     12/31/2018 18:49:26
00006 suncat0077 pw.x -in pw.inp   Done                     12/31/2018 18:49:26
00007 suncat0077 pw.x -in pw.inp   Done                     12/31/2018 18:49:26
00008 suncat0069 pw.x -in pw.inp   Done                     12/31/2018 18:49:26
00009 suncat0069 pw.x -in pw.inp   Done                     12/31/2018 18:49:26
00010 suncat0069 pw.x -in pw.inp   Done                     12/31/2018 18:49:26
00011 suncat0069 pw.x -in pw.inp   Done                     12/31/2018 18:49:26
00012 suncat0069 pw.x -in pw.inp   Done                     12/31/2018 18:49:26
00013 suncat0069 pw.x -in pw.inp   Done                     12/31/2018 18:49:26
00014 suncat0069 pw.x -in pw.inp   Done                     12/31/2018 18:49:26
00015 suncat0069 pw.x -in pw.inp   Done                     12/31/2018 18:49:26
00016 suncat0066 pw.x -in pw.inp   Done                     12/31/2018 18:49:26
00017 suncat0066 pw.x -in pw.inp   Done                     12/31/2018 18:49:26
00018 suncat0066 pw.x -in pw.inp   Done                     12/31/2018 18:49:26
00019 suncat0066 pw.x -in pw.inp   Done                     12/31/2018 18:49:26
00020 suncat0066 pw.x -in pw.inp   Done                     12/31/2018 18:49:26
00021 suncat0066 pw.x -in pw.inp   Done                     12/31/2018 18:49:26
00022 suncat0066 pw.x -in pw.inp   Done                     12/31/2018 18:49:26
00023 suncat0066 pw.x -in pw.inp   Done                     12/31/2018 18:49:26
00024 suncat0053 pw.x -in pw.inp   Done                     12/31/2018 18:49:26
00025 suncat0053 pw.x -in pw.inp   Done                     12/31/2018 18:49:26
00026 suncat0053 pw.x -in pw.inp   Done                     12/31/2018 18:49:26
00027 suncat0053 pw.x -in pw.inp   Done                     12/31/2018 18:49:26
00028 suncat0053 pw.x -in pw.inp   Done                     12/31/2018 18:49:26
00029 suncat0053 pw.x -in pw.inp   Done                     12/31/2018 18:49:26
00030 suncat0053 pw.x -in pw.inp   Done                     12/31/2018 18:49:26
00031 suncat0053 pw.x -in pw.inp   Done                     12/31/2018 18:49:26
00032 suncat0163 pw.x -in pw.inp   Done                     12/31/2018 18:49:26
00033 suncat0163 pw.x -in pw.inp   Done                     12/31/2018 18:49:26
00034 suncat0163 pw.x -in pw.inp   Done                     12/31/2018 18:49:26
00035 suncat0163 pw.x -in pw.inp   Done                     12/31/2018 18:49:26
00036 suncat0163 pw.x -in pw.inp   Done                     12/31/2018 18:49:26
00037 suncat0163 pw.x -in pw.inp   Done                     12/31/2018 18:49:26
00038 suncat0163 pw.x -in pw.inp   Done                     12/31/2018 18:49:26
00039 suncat0163 pw.x -in pw.inp   Done                     12/31/2018 18:49:26
00040 suncat0162 pw.x -in pw.inp   Done                     12/31/2018 18:49:26
00041 suncat0162 pw.x -in pw.inp   Done                     12/31/2018 18:49:26
00042 suncat0162 pw.x -in pw.inp   Done                     12/31/2018 18:49:26
00043 suncat0162 pw.x -in pw.inp   Done                     12/31/2018 18:49:26
00044 suncat0162 pw.x -in pw.inp   Done                     12/31/2018 18:49:26
00045 suncat0162 pw.x -in pw.inp   Done                     12/31/2018 18:49:26
00046 suncat0162 pw.x -in pw.inp   Done                     12/31/2018 18:49:26
00047 suncat0162 pw.x -in pw.inp   Done                     12/31/2018 18:49:26
00048 suncat0147 pw.x -in pw.inp   Done                     12/31/2018 18:49:26
00049 suncat0147 pw.x -in pw.inp   Done                     12/31/2018 18:49:26
00050 suncat0147 pw.x -in pw.inp   Done                     12/31/2018 18:49:26
00051 suncat0147 pw.x -in pw.inp   Done                     12/31/2018 18:49:26
00052 suncat0147 pw.x -in pw.inp   Done                     12/31/2018 18:49:26
00053 suncat0147 pw.x -in pw.inp   Done                     12/31/2018 18:49:26
00054 suncat0147 pw.x -in pw.inp   Done                     12/31/2018 18:49:26
00055 suncat0147 pw.x -in pw.inp   Done                     12/31/2018 18:49:26
00056 suncat0138 pw.x -in pw.inp   Done                     12/31/2018 18:49:26
00057 suncat0138 pw.x -in pw.inp   Done                     12/31/2018 18:49:26
00058 suncat0138 pw.x -in pw.inp   Done                     12/31/2018 18:49:26
00059 suncat0138 pw.x -in pw.inp   Done                     12/31/2018 18:49:26
00060 suncat0138 pw.x -in pw.inp   Done                     12/31/2018 18:49:26
00061 suncat0138 pw.x -in pw.inp   Done                     12/31/2018 18:49:26
00062 suncat0138 pw.x -in pw.inp   Done                     12/31/2018 18:49:26
00063 suncat0138 pw.x -in pw.inp   Done                     12/31/2018 18:49:26