     Program PWSCF v.5.1rc2 (svn rev. 11289) starts on 25Dec2018 at 19:27:36

     Current dimensions of program PWSCF are:
     Max number of different atomic species (ntypx) = 10
     Max number of k-points (npk) =  40000
     Max angular momentum in pseudopotentials (lmaxx) =  3
     Presently stress not available with electric field

     IMPORTANT: XC functional enforced from input :
     Exchange-correlation      = BEEF-VDW ( 1  4 27 13 2)
     Any further DFT definition will be discarded
     Please, verify this is what you really want

     Subspace diagonalization in iterative solution of the eigenvalue problem:
     a serial algorithm will be used

     Generating pointlists ...
     new r_m :   0.4125 (alat units)  0.7795 (a.u.) for type    1
     new r_m :   0.4125 (alat units)  0.7795 (a.u.) for type    2

     bravais-lattice index     =            0
     lattice parameter (alat)  =       1.8897  a.u.
     unit-cell volume          =    3832.3748 (a.u.)^3
     number of atoms/cell      =           12
     number of atomic types    =            2
     number of electrons       =       201.00
     number of Kohn-Sham states=          130
     kinetic-energy cutoff     =      36.7493  Ry
     charge density cutoff     =     367.4932  Ry
     convergence threshold     =      1.0E-06
     mixing beta               =       0.1000
     number of iterations used =           10  plain     mixing
     Exchange-correlation      = BEEF-VDW ( 1  4 27 13 2)
     nstep                     =           50

     celldm(1)=   1.889726  celldm(2)=   0.000000  celldm(3)=   0.000000
     celldm(4)=   0.000000  celldm(5)=   0.000000  celldm(6)=   0.000000

     crystal axes: (cart. coord. in units of alat)
               a(1) = (   5.200539   0.000000   0.000000 )
               a(2) = (  -2.600269   4.503799   0.000000 )
               a(3) = (   0.000000   0.000000  24.246222 )

     reciprocal axes: (cart. coord. in units 2 pi/alat)
               b(1) = (  0.192288  0.111017  0.000000 )
               b(2) = (  0.000000  0.222035  0.000000 )
               b(3) = (  0.000000  0.000000  0.041244 )

     PseudoPot. # 1 for Fe read from file:
     /afs/slac.stanford.edu/u/if/mamunm/psp/gbrv1.5pbe/Fe.UPF
     MD5 check sum: a130daea23fe5165f5d574ae7f82ed95
     Pseudo is Ultrasoft + core correction, Zval = 16.0
     Generated by new atomic code, or converted to UPF format
     Using radial grid of  861 points,  6 beta functions with:
                l(1) =   0
                l(2) =   0
                l(3) =   1
                l(4) =   1
                l(5) =   2
                l(6) =   2
     Q(r) pseudized with  8 coefficients,  rinner =    1.000   1.000   1.000
                                                       1.000   1.000

     PseudoPot. # 2 for Ga read from file:
     /afs/slac.stanford.edu/u/if/mamunm/psp/gbrv1.5pbe/Ga.UPF
     MD5 check sum: ccd671392a58a050fbb373893b4fcd66
     Pseudo is Ultrasoft + core correction, Zval = 19.0
     Generated by new atomic code, or converted to UPF format
     Using radial grid of  871 points,  6 beta functions with:
                l(1) =   0
                l(2) =   0
                l(3) =   1
                l(4) =   1
                l(5) =   2
                l(6) =   2
     Q(r) pseudized with  8 coefficients,  rinner =    1.250   1.250   1.250
                                                       1.250   1.250

     vdW kernel table read from file vdW_kernel_table
     MD5 check sum: 095c7af220d748ca6e76c0b4c6cfb241

     atomic species   valence    mass     pseudopotential
        Fe1           16.00    55.84500     Fe( 1.00)
        Ga1           19.00    69.72300     Ga( 1.00)

     Starting magnetic structure
     atomic species   magnetization
        Fe1          0.125
        Ga1          0.105

     No symmetry found

   Cartesian axes

     site n.     atom                  positions (alat units)
         1           Fe1 tau(   1) = (   0.0000000   0.0000000  10.0000000  )
         2           Fe1 tau(   2) = (  -1.3001347   2.2518993  10.0000000  )
         3           Fe1 tau(   3) = (   1.3001347   2.2518993  10.0000000  )
         4           Ga1 tau(   4) = (   2.6002693   0.0000000  10.0000000  )
         5           Fe1 tau(   5) = (   2.6002693   1.5012662  12.1231110  )
         6           Fe1 tau(   6) = (   1.3001347   3.7531655  12.1231110  )
         7           Fe1 tau(   7) = (  -1.3001347   3.7531655  12.1231110  )
         8           Ga1 tau(   8) = (   0.0000000   1.5012662  12.1231110  )
         9           Fe1 tau(   9) = (  -0.0000000   3.0025324  14.2462221  )
        10           Fe1 tau(  10) = (   1.3001347   0.7506331  14.2462221  )
        11           Fe1 tau(  11) = (   3.9004040   0.7506331  14.2462221  )
        12           Ga1 tau(  12) = (   2.6002693   3.0025324  14.2462221  )

     number of k points=    40  Fermi-Dirac smearing, width (Ry)=  0.0110
                       cart. coord. in units 2pi/alat
        k(    1) = (   0.0000000   0.0000000   0.0000000), wk =   0.0277778
        k(    2) = (   0.0000000   0.0370058   0.0000000), wk =   0.0555556
        k(    3) = (   0.0000000   0.0740116   0.0000000), wk =   0.0555556
        k(    4) = (   0.0000000  -0.1110174   0.0000000), wk =   0.0277778
        k(    5) = (   0.0320480   0.0185029   0.0000000), wk =   0.0555556
        k(    6) = (   0.0320480   0.0555087   0.0000000), wk =   0.0555556
        k(    7) = (   0.0320480   0.0925145   0.0000000), wk =   0.0555556
        k(    8) = (   0.0320480  -0.0925145   0.0000000), wk =   0.0555556
        k(    9) = (   0.0320480  -0.0555087   0.0000000), wk =   0.0555556
        k(   10) = (   0.0320480  -0.0185029   0.0000000), wk =   0.0555556
        k(   11) = (   0.0640959   0.0370058   0.0000000), wk =   0.0555556
        k(   12) = (   0.0640959   0.0740116   0.0000000), wk =   0.0555556
        k(   13) = (   0.0640959   0.1110174   0.0000000), wk =   0.0555556
        k(   14) = (   0.0640959  -0.0740116   0.0000000), wk =   0.0555556
        k(   15) = (   0.0640959  -0.0370058   0.0000000), wk =   0.0555556
        k(   16) = (   0.0640959  -0.0000000   0.0000000), wk =   0.0555556
        k(   17) = (  -0.0961439  -0.0555087   0.0000000), wk =   0.0277778
        k(   18) = (  -0.0961439  -0.0185029   0.0000000), wk =   0.0555556
        k(   19) = (  -0.0961439   0.0185029   0.0000000), wk =   0.0555556
        k(   20) = (  -0.0961439  -0.1665261   0.0000000), wk =   0.0277778
        k(   21) = (   0.0000000   0.0000000   0.0000000), wk =   0.0277778
        k(   22) = (   0.0000000   0.0370058   0.0000000), wk =   0.0555556
        k(   23) = (   0.0000000   0.0740116   0.0000000), wk =   0.0555556
        k(   24) = (   0.0000000  -0.1110174   0.0000000), wk =   0.0277778
        k(   25) = (   0.0320480   0.0185029   0.0000000), wk =   0.0555556
        k(   26) = (   0.0320480   0.0555087   0.0000000), wk =   0.0555556
        k(   27) = (   0.0320480   0.0925145   0.0000000), wk =   0.0555556
        k(   28) = (   0.0320480  -0.0925145   0.0000000), wk =   0.0555556
        k(   29) = (   0.0320480  -0.0555087   0.0000000), wk =   0.0555556
        k(   30) = (   0.0320480  -0.0185029   0.0000000), wk =   0.0555556
        k(   31) = (   0.0640959   0.0370058   0.0000000), wk =   0.0555556
        k(   32) = (   0.0640959   0.0740116   0.0000000), wk =   0.0555556
        k(   33) = (   0.0640959   0.1110174   0.0000000), wk =   0.0555556
        k(   34) = (   0.0640959  -0.0740116   0.0000000), wk =   0.0555556
        k(   35) = (   0.0640959  -0.0370058   0.0000000), wk =   0.0555556
        k(   36) = (   0.0640959  -0.0000000   0.0000000), wk =   0.0555556
        k(   37) = (  -0.0961439  -0.0555087   0.0000000), wk =   0.0277778
        k(   38) = (  -0.0961439  -0.0185029   0.0000000), wk =   0.0555556
        k(   39) = (  -0.0961439   0.0185029   0.0000000), wk =   0.0555556
        k(   40) = (  -0.0961439  -0.1665261   0.0000000), wk =   0.0277778

     Largest allocated arrays     est. size (Mb)     dimensions
     Largest temporary arrays     est. size (Mb)     dimensions

     Check: negative/imaginary core charge=   -0.000006    0.000000

     Initial potential from superposition of free atoms
     Check: negative starting charge=(component1):   -0.000323
     Check: negative starting charge=(component2):   -0.000261

     starting charge  188.99995, renormalised to  201.00000

     negative rho (up, down):  3.437E-04 2.770E-04

     *
     * You are using vdW-DF for exchange-correlation in this calculation.
     * Please cite the following three references that made this development
     * possible:
     *
     *   M. Dion, H. Rydberg, E. Schroder, D. C. Langreth, and
     *   B. I. Lundqvist, Phys. Rev. Lett. 92, 246401 (2004).
     *
     *   T. Thonhauser, V. R. Cooper, S. Li, A. Puzder, P. Hyldgaard, and
     *   D. C. Langreth, Phys. Rev. B 76, 125112 (2007).
     *
     *   G. Roman-Perez and J. M. Soler, Phys. Rev. Lett. 103, 096102 (2009).
     *
     *
     * If you are using vdW-DF2, please also cite:
     *
     *   K. Lee, E. D. Murray, L. Kong, B. I. Lundqvist, and
     *   D. C. Langreth, Phys. Rev. B 82, 081101(R) (2010).
     *
     *
     * If you are calculating the stress with vdW-DF, please also cite:
     *
     *   R. Sabatini, E. Kucukbenli, B. Kolb, T. Thonhauser, and
     *   S. de Gironcoli, J. Phys.: Condens. Matter 24, 424209 (2012).
     *

     Carrying out vdW-DF run using the following parameters:

     Nqs =      20    Nr_points =    1024   r_max =   100.000
     q_mesh =
               0.00001000     0.04494208     0.09755937     0.15916263
               0.23128650     0.31572767     0.41458969     0.53033537
               0.66584808     0.82450364     1.01025438     1.22772762
               1.48234092     1.78043706     2.12944203     2.53805004
               3.01644009     3.57652955     4.23227104     5.00000000

     Gradients computed in reciprocal space

     Adding external electric field

     Computed dipole along edir(3) :
        Dipole               -0.0000 Ry au,         -0.0000 Debye
        Dipole field         -0.0000 Ry au

        Potential amp.        0.0000 Ry
        Total length         44.6733 bohr

[...]

     Starting wfc are  153 randomized atomic wfcs

     Self-consistent Calculation

     iteration #  1     ecut=    36.75 Ry     beta=0.10
     Davidson diagonalization with overlap
     ethr =  1.00E-02,  avg # of iterations =  7.5

[...]

     Magnetic moment per site:
     atom:    1    charge:    7.3656    magn:    0.8778    constr:    0.0000
     atom:    2    charge:    7.3656    magn:    0.8778    constr:    0.0000
     atom:    3    charge:    7.3656    magn:    0.8778    constr:    0.0000
     atom:    4    charge:   11.0782    magn:    1.1320    constr:    0.0000
     atom:    5    charge:    7.3724    magn:    0.8800    constr:    0.0000
     atom:    6    charge:    7.3724    magn:    0.8800    constr:    0.0000
     atom:    7    charge:    7.3724    magn:    0.8799    constr:    0.0000
     atom:    8    charge:   11.1004    magn:    1.1335    constr:    0.0000
[...]
        k(    4) = (   0.0000000  -0.1110174   0.0000000), wk =   0.0277778
        k(    5) = (   0.0320480   0.0185029   0.0000000), wk =   0.0555556
        k(    6) = (   0.0320480   0.0555087   0.0000000), wk =   0.0555556
        k(    7) = (   0.0320480   0.0925145   0.0000000), wk =   0.0555556
        k(    8) = (   0.0320480  -0.0925145   0.0000000), wk =   0.0555556
        k(    9) = (   0.0320480  -0.0555087   0.0000000), wk =   0.0555556
        k(   10) = (   0.0320480  -0.0185029   0.0000000), wk =   0.0555556
        k(   11) = (   0.0640959   0.0370058   0.0000000), wk =   0.0555556
        k(   12) = (   0.0640959   0.0740116   0.0000000), wk =   0.0555556
        k(   13) = (   0.0640959   0.1110174   0.0000000), wk =   0.0555556
        k(   14) = (   0.0640959  -0.0740116   0.0000000), wk =   0.0555556
        k(   15) = (   0.0640959  -0.0370058   0.0000000), wk =   0.0555556
        k(   16) = (   0.0640959  -0.0000000   0.0000000), wk =   0.0555556
        k(   17) = (  -0.0961439  -0.0555087   0.0000000), wk =   0.0277778
        k(   18) = (  -0.0961439  -0.0185029   0.0000000), wk =   0.0555556
        k(   19) = (  -0.0961439   0.0185029   0.0000000), wk =   0.0555556
        k(   20) = (  -0.0961439  -0.1665261   0.0000000), wk =   0.0277778
        k(   21) = (   0.0000000   0.0000000   0.0000000), wk =   0.0277778
        k(   22) = (   0.0000000   0.0370058   0.0000000), wk =   0.0555556
        k(   23) = (   0.0000000   0.0740116   0.0000000), wk =   0.0555556
        k(   24) = (   0.0000000  -0.1110174   0.0000000), wk =   0.0277778
        k(   25) = (   0.0320480   0.0185029   0.0000000), wk =   0.0555556
        k(   26) = (   0.0320480   0.0555087   0.0000000), wk =   0.0555556
        k(   27) = (   0.0320480   0.0925145   0.0000000), wk =   0.0555556
        k(   28) = (   0.0320480  -0.0925145   0.0000000), wk =   0.0555556
        k(   29) = (   0.0320480  -0.0555087   0.0000000), wk =   0.0555556
        k(   30) = (   0.0320480  -0.0185029   0.0000000), wk =   0.0555556
        k(   31) = (   0.0640959   0.0370058   0.0000000), wk =   0.0555556
        k(   32) = (   0.0640959   0.0740116   0.0000000), wk =   0.0555556
        k(   33) = (   0.0640959   0.1110174   0.0000000), wk =   0.0555556
        k(   34) = (   0.0640959  -0.0740116   0.0000000), wk =   0.0555556
        k(   35) = (   0.0640959  -0.0370058   0.0000000), wk =   0.0555556
        k(   36) = (   0.0640959  -0.0000000   0.0000000), wk =   0.0555556
        k(   37) = (  -0.0961439  -0.0555087   0.0000000), wk =   0.0277778
        k(   38) = (  -0.0961439  -0.0185029   0.0000000), wk =   0.0555556
        k(   39) = (  -0.0961439   0.0185029   0.0000000), wk =   0.0555556
        k(   40) = (  -0.0961439  -0.1665261   0.0000000), wk =   0.0277778

     Largest allocated arrays     est. size (Mb)     dimensions
     Largest temporary arrays     est. size (Mb)     dimensions

     Check: negative/imaginary core charge=   -0.000006    0.000000

     Initial potential from superposition of free atoms
     Check: negative starting charge=(component1):   -0.000323
     Check: negative starting charge=(component2):   -0.000260

     starting charge  188.99995, renormalised to  201.00000

[...]

     *
     * You are using vdW-DF for exchange-correlation in this calculation.
     * Please cite the following three references that made this development
     * possible:
     *
     *   M. Dion, H. Rydberg, E. Schroder, D. C. Langreth, and
     *   B. I. Lundqvist, Phys. Rev. Lett. 92, 246401 (2004).
     *
     *   T. Thonhauser, V. R. Cooper, S. Li, A. Puzder, P. Hyldgaard, and
     *   D. C. Langreth, Phys. Rev. B 76, 125112 (2007).
     *
     *   G. Roman-Perez and J. M. Soler, Phys. Rev. Lett. 103, 096102 (2009).
     *
     *
     * If you are using vdW-DF2, please also cite:
     *
     *   K. Lee, E. D. Murray, L. Kong, B. I. Lundqvist, and
     *   D. C. Langreth, Phys. Rev. B 82, 081101(R) (2010).
     *
     *
     * If you are calculating the stress with vdW-DF, please also cite:
     *
     *   R. Sabatini, E. Kucukbenli, B. Kolb, T. Thonhauser, and
     *   S. de Gironcoli, J. Phys.: Condens. Matter 24, 424209 (2012).
     *

     Carrying out vdW-DF run using the following parameters:

     Nqs =      20    Nr_points =    1024   r_max =   100.000
     q_mesh =
               0.00001000     0.04494208     0.09755937     0.15916263
               0.23128650     0.31572767     0.41458969     0.53033537
               0.66584808     0.82450364     1.01025438     1.22772762
               1.48234092     1.78043706     2.12944203     2.53805004
               3.01644009     3.57652955     4.23227104     5.00000000

     Gradients computed in reciprocal space

[...]

     Starting wfc are  153 randomized atomic wfcs

     Self-consistent Calculation

[...]

     total energy              =   -3511.84932422 Ry
     Harris-Foulkes estimate   =   -3511.84932072 Ry
     estimated scf accuracy    <       0.00000195 Ry

[...]

     iteration # 29     ecut=    36.75 Ry     beta=0.10
     Davidson diagonalization with overlap
     ethr =  9.71E-10,  avg # of iterations =  2.0

[...]

     negative rho (up, down):  3.414E-04 1.053E-03

[...]

     Adding external electric field

     Computed dipole along edir(3) :
        Dipole               -0.0104 Ry au,         -0.0263 Debye
        Dipole field         -0.0000 Ry au

        Potential amp.        0.0030 Ry
        Total length         44.6733 bohr

     Magnetic moment per site:
     atom:    1    charge:    7.0927    magn:    1.2641    constr:    0.0000
     atom:    2    charge:    7.0926    magn:    1.2642    constr:    0.0000
     atom:    3    charge:    7.0925    magn:    1.2642    constr:    0.0000
     atom:    4    charge:   11.0390    magn:   -0.0001    constr:    0.0000
     atom:    5    charge:    7.0989    magn:    1.1948    constr:    0.0000
     atom:    6    charge:    7.0990    magn:    1.1947    constr:    0.0000
     atom:    7    charge:    7.0990    magn:    1.1947    constr:    0.0000
     atom:    8    charge:   11.0510    magn:   -0.0007    constr:    0.0000
     atom:    9    charge:    7.0900    magn:    1.2441    constr:    0.0000
     atom:   10    charge:    7.0900    magn:    1.2441    constr:    0.0000
     atom:   11    charge:    7.0901    magn:    1.2440    constr:    0.0000
     atom:   12    charge:   11.0489    magn:   -0.0008    constr:    0.0000

     End of self-consistent calculation

 ------ SPIN UP ------------

[...]

 ------ SPIN DOWN ----------

[...]

          k = 0.0641-0.0000 0.0000 ( 14431 PWs)   bands (ev):

[...]

          k =-0.0961-0.1665 0.0000 ( 14338 PWs)   bands (ev):

   -93.5572 -93.5572 -93.5529 -93.3233 -93.3197 -93.2805 -93.2805 -93.2669
   -93.2669 -84.5740 -84.5646 -84.5547 -84.4795 -84.4721 -84.4705 -84.4619
   -84.4608 -84.4529 -50.7833 -50.7305 -50.7250 -50.7206 -50.7104 -50.7007
   -50.6968 -50.6649 -50.6561 -50.6396 -50.6162 -50.6085 -50.6025 -50.5970
   -50.5908 -50.5894 -50.5801 -50.5643 -50.5631 -50.5571 -50.5274 -50.5148
   -50.5124 -50.5015 -50.4805 -50.4462 -50.4423 -13.9786 -13.9703 -13.9639
   -13.9509 -13.9507 -13.6923 -13.6752 -13.6714 -13.6707 -13.6636 -13.6563
   -13.6479 -13.6459 -13.6359 -13.6284  -7.3138  -6.6053  -5.6991  -4.3121
    -3.1202  -3.0979  -2.9852  -1.6884  -1.5718  -1.5458  -1.1855  -1.0051
    -0.8658  -0.8338  -0.5376  -0.3475  -0.3293  -0.2745  -0.1842  -0.0345
    -0.0150   0.1476   0.2267   0.2408   0.2698   0.4795   0.5092   0.6997
     0.7902   0.9242   0.9473   0.9611   1.0049   1.5467   1.6146   1.6213
     1.6831   1.7314   1.7856   1.8812   1.8870   1.9593   2.0536   2.0892
     2.1352   2.1963   2.2956   2.5530   2.5744   2.6236   2.6347   2.8724
     3.2226   3.6931   3.7151   3.7812   4.3108   4.6844   4.7897   6.1236
     6.2552   6.7404   6.8276   6.8506   7.1284   7.2082   7.4551   7.6677
     7.8055   8.0844

     the Fermi energy is     0.8631 ev

!    total energy              =   -3511.84933549 Ry
     Harris-Foulkes estimate   =   -3511.84932455 Ry
     estimated scf accuracy    <       0.00000069 Ry

     The total energy is the sum of the following terms:

     one-electron contribution =  -27875.85558109 Ry
     hartree contribution      =   13940.39964599 Ry
     xc contribution           =    -422.26808955 Ry
     ewald contribution        =   10845.94124122 Ry
     electric field correction =       0.00000035 Ry
     smearing contrib. (-TS)   =      -0.06655241 Ry

     total magnetization       =    22.38 Bohr mag/cell
     absolute magnetization    =    24.69 Bohr mag/cell

     convergence has been achieved in  29 iterations

 BEEF-vdW xc energy contributions
           1 :   -372.524263491612
           2 :    337.651402466742
           3 :   -279.214019417406
           4 :    214.309317715505
           5 :   -158.208070109782
           6 :    118.695145258272
           7 :   -94.9252816227103
           8 :    80.5167904998291
           9 :   -68.4699908716315
          10 :    54.9602333151182
          11 :   -40.2957830950389
          12 :    27.2168796119325
          13 :   -18.2034470282326
          14 :    13.6496714026993
          15 :   -11.8590977360278
          16 :    10.4463287668208
          17 :   -7.93361528445189
          18 :    4.43177749053109
          19 :   -1.14406525029312
          20 :  -0.753555500677351
          21 :   0.981550629635194
          22 :  -0.254494040716622
          23 :  -0.321732606732212
          24 :   1.752237226719444E-002
          25 :    1.12131995876047
          26 :   -2.45218688163447
          27 :    3.26747171354043
          28 :   -3.27412666488760
          29 :    2.71236558059940
          30 :   -2.11305863071840
          31 :   -30.8606630598168
          32 :   -21.5881326991587

     Forces acting on atoms (Ry/au):

     negative rho (up, down):  3.414E-04 1.053E-03
     atom    1 type  1   force =    -0.00001284   -0.00662338    0.01301611
     atom    2 type  1   force =    -0.00575297    0.00328462    0.01302448
     atom    3 type  1   force =     0.00574162    0.00329228    0.01303059
     atom    4 type  2   force =     0.00002183    0.00005273   -0.03430198
     atom    5 type  1   force =    -0.00004220    0.00934646    0.00007110
     atom    6 type  1   force =     0.00805865   -0.00473421    0.00009953
     atom    7 type  1   force =    -0.00806093   -0.00468676    0.00014454
     atom    8 type  2   force =     0.00009904    0.00011829   -0.00747101
     atom    9 type  1   force =    -0.00002632   -0.00006235    0.00044516
     atom   10 type  1   force =    -0.00005597   -0.00000319    0.00044439
     atom   11 type  1   force =     0.00003747    0.00001575    0.00043090
     atom   12 type  2   force =    -0.00000740   -0.00000024    0.00106619

     Total force =     0.046220     Total SCF correction =     0.001602

     entering subroutine stress ...

     negative rho (up, down):  3.414E-04 1.053E-03
          total   stress  (Ry/bohr**3)                   (kbar)     P=  -11.53
  -0.00011401   0.00000001  -0.00000001        -16.77      0.00     -0.00
   0.00000001  -0.00011401   0.00000001          0.00    -16.77      0.00
  -0.00000001   0.00000001  -0.00000710         -0.00      0.00     -1.04

 !ASE

     Writing output data file calc.save

     General routines

     Parallel routines

   This run was terminated on:   0:26: 9  26Dec2018

   JOB DONE.
Job  /afs/slac/g/suncat/bin/suncat-tsmpirun -x LD_LIBRARY_PATH -wdir /scratch/qe109618_zQj8I pw.x -in pw.inp

TID   HOST_NAME   COMMAND_LINE            STATUS            TERMINATION_TIME
00000 suncat0064 pw.x -in pw.inp   Done                     12/26/2018 00:26:09
00001 suncat0064 pw.x -in pw.inp   Done                     12/26/2018 00:26:09
00002 suncat0064 pw.x -in pw.inp   Done                     12/26/2018 00:26:09
00003 suncat0064 pw.x -in pw.inp   Done                     12/26/2018 00:26:09
00004 suncat0064 pw.x -in pw.inp   Done                     12/26/2018 00:26:09
00005 suncat0064 pw.x -in pw.inp   Done                     12/26/2018 00:26:09
00006 suncat0064 pw.x -in pw.inp   Done                     12/26/2018 00:26:09
00007 suncat0064 pw.x -in pw.inp   Done                     12/26/2018 00:26:09
00008 suncat0063 pw.x -in pw.inp   Done                     12/26/2018 00:26:09
00009 suncat0063 pw.x -in pw.inp   Done                     12/26/2018 00:26:09
00010 suncat0063 pw.x -in pw.inp   Done                     12/26/2018 00:26:09
00011 suncat0063 pw.x -in pw.inp   Done                     12/26/2018 00:26:09
00012 suncat0063 pw.x -in pw.inp   Done                     12/26/2018 00:26:09
00013 suncat0063 pw.x -in pw.inp   Done                     12/26/2018 00:26:09
00014 suncat0063 pw.x -in pw.inp   Done                     12/26/2018 00:26:09
00015 suncat0063 pw.x -in pw.inp   Done                     12/26/2018 00:26:09
00016 suncat0061 pw.x -in pw.inp   Done                     12/26/2018 00:26:09
00017 suncat0061 pw.x -in pw.inp   Done                     12/26/2018 00:26:09
00018 suncat0061 pw.x -in pw.inp   Done                     12/26/2018 00:26:09
00019 suncat0061 pw.x -in pw.inp   Done                     12/26/2018 00:26:09
00020 suncat0061 pw.x -in pw.inp   Done                     12/26/2018 00:26:09
00021 suncat0061 pw.x -in pw.inp   Done                     12/26/2018 00:26:09
00022 suncat0061 pw.x -in pw.inp   Done                     12/26/2018 00:26:09
00023 suncat0061 pw.x -in pw.inp   Done                     12/26/2018 00:26:09
00024 suncat0053 pw.x -in pw.inp   Done                     12/26/2018 00:26:09
00025 suncat0053 pw.x -in pw.inp   Done                     12/26/2018 00:26:09
00026 suncat0053 pw.x -in pw.inp   Done                     12/26/2018 00:26:09
00027 suncat0053 pw.x -in pw.inp   Done                     12/26/2018 00:26:09
00028 suncat0053 pw.x -in pw.inp   Done                     12/26/2018 00:26:09
00029 suncat0053 pw.x -in pw.inp   Done                     12/26/2018 00:26:09
00030 suncat0053 pw.x -in pw.inp   Done                     12/26/2018 00:26:09
00031 suncat0053 pw.x -in pw.inp   Done                     12/26/2018 00:26:09
00032 suncat0052 pw.x -in pw.inp   Done                     12/26/2018 00:26:09
00033 suncat0052 pw.x -in pw.inp   Done                     12/26/2018 00:26:09
00034 suncat0052 pw.x -in pw.inp   Done                     12/26/2018 00:26:09
00035 suncat0052 pw.x -in pw.inp   Done                     12/26/2018 00:26:09
00036 suncat0052 pw.x -in pw.inp   Done                     12/26/2018 00:26:09
00037 suncat0052 pw.x -in pw.inp   Done                     12/26/2018 00:26:09
00038 suncat0052 pw.x -in pw.inp   Done                     12/26/2018 00:26:09
00039 suncat0052 pw.x -in pw.inp   Done                     12/26/2018 00:26:09
00040 suncat0046 pw.x -in pw.inp   Done                     12/26/2018 00:26:09
00041 suncat0046 pw.x -in pw.inp   Done                     12/26/2018 00:26:09
00042 suncat0046 pw.x -in pw.inp   Done                     12/26/2018 00:26:09
00043 suncat0046 pw.x -in pw.inp   Done                     12/26/2018 00:26:09
00044 suncat0046 pw.x -in pw.inp   Done                     12/26/2018 00:26:09
00045 suncat0046 pw.x -in pw.inp   Done                     12/26/2018 00:26:09
00046 suncat0046 pw.x -in pw.inp   Done                     12/26/2018 00:26:09
00047 suncat0046 pw.x -in pw.inp   Done                     12/26/2018 00:26:09
00048 suncat0141 pw.x -in pw.inp   Done                     12/26/2018 00:26:09
00049 suncat0141 pw.x -in pw.inp   Done                     12/26/2018 00:26:09
00050 suncat0141 pw.x -in pw.inp   Done                     12/26/2018 00:26:09
00051 suncat0141 pw.x -in pw.inp   Done                     12/26/2018 00:26:09
00052 suncat0141 pw.x -in pw.inp   Done                     12/26/2018 00:26:09
00053 suncat0141 pw.x -in pw.inp   Done                     12/26/2018 00:26:09
00054 suncat0141 pw.x -in pw.inp   Done                     12/26/2018 00:26:09
00055 suncat0141 pw.x -in pw.inp   Done                     12/26/2018 00:26:09
00056 suncat0140 pw.x -in pw.inp   Done                     12/26/2018 00:26:09
00057 suncat0140 pw.x -in pw.inp   Done                     12/26/2018 00:26:09
00058 suncat0140 pw.x -in pw.inp   Done                     12/26/2018 00:26:09
00059 suncat0140 pw.x -in pw.inp   Done                     12/26/2018 00:26:09
00060 suncat0140 pw.x -in pw.inp   Done                     12/26/2018 00:26:09
00061 suncat0140 pw.x -in pw.inp   Done                     12/26/2018 00:26:09
00062 suncat0140 pw.x -in pw.inp   Done                     12/26/2018 00:26:09
00063 suncat0140 pw.x -in pw.inp   Done                     12/26/2018 00:26:09