     Program PWSCF v.5.1rc2 (svn rev. 11289) starts on 19Dec2018 at 18:25:53

     Current dimensions of program PWSCF are:
     Max number of different atomic species (ntypx) = 10
     Max number of k-points (npk) =  40000
     Max angular momentum in pseudopotentials (lmaxx) =  3
     Presently stress not available with electric field

     IMPORTANT: XC functional enforced from input :
     Exchange-correlation      = BEEF-VDW ( 1  4 27 13 2)
     Any further DFT definition will be discarded
     Please, verify this is what you really want

     Subspace diagonalization in iterative solution of the eigenvalue problem:
     a serial algorithm will be used

     bravais-lattice index     =            0
     lattice parameter (alat)  =       1.8897  a.u.
     unit-cell volume          =    5537.8746 (a.u.)^3
     number of atoms/cell      =           12
     number of atomic types    =            2
     number of electrons       =        66.00
     number of Kohn-Sham states=           63
     kinetic-energy cutoff     =      36.7493  Ry
     charge density cutoff     =     367.4932  Ry
     convergence threshold     =      1.0E-06
     mixing beta               =       0.1000
     number of iterations used =           10  plain     mixing
     Exchange-correlation      = BEEF-VDW ( 1  4 27 13 2)
     nstep                     =           50

     celldm(1)=   1.889726  celldm(2)=   0.000000  celldm(3)=   0.000000
     celldm(4)=   0.000000  celldm(5)=   0.000000  celldm(6)=   0.000000

     crystal axes: (cart. coord. in units of alat)
               a(1) = (   6.153560   0.000000   0.000000 )
               a(2) = (  -3.076780   5.329139   0.000000 )
               a(3) = (   0.000000   0.000000  25.024361 )

     reciprocal axes: (cart. coord. in units 2 pi/alat)
               b(1) = (  0.162508  0.093824  0.000000 )
               b(2) = (  0.000000  0.187648  0.000000 )
               b(3) = (  0.000000  0.000000  0.039961 )

     PseudoPot. # 1 for Al read from file:
     /afs/slac.stanford.edu/u/if/mamunm/psp/gbrv1.5pbe/Al.UPF
     MD5 check sum: 0a6289f5291fc8f409219462bc851e1f
     Pseudo is Ultrasoft + core correction, Zval =  3.0
     Generated by new atomic code, or converted to UPF format
     Using radial grid of  893 points,  3 beta functions with:
                l(1) =   0
                l(2) =   1
                l(3) =   2
     Q(r) pseudized with  8 coefficients,  rinner =    0.900   0.900   0.900
                                                       0.900   0.900

     PseudoPot. # 2 for Tl read from file:
     /afs/slac.stanford.edu/u/if/mamunm/psp/gbrv1.5pbe/Tl.UPF
     MD5 check sum: b76cf1f7e72655a2b2c53cf6385d7059
     Pseudo is Ultrasoft + core correction, Zval = 13.0
     Generated by new atomic code, or converted to UPF format
     Using radial grid of  899 points,  6 beta functions with:
                l(1) =   0
                l(2) =   0
                l(3) =   1
                l(4) =   1
                l(5) =   2
                l(6) =   2
     Q(r) pseudized with  6 coefficients,  rinner =    1.100   1.100   1.100
                                                       1.100   1.100

     vdW kernel table read from file vdW_kernel_table
     MD5 check sum: 095c7af220d748ca6e76c0b4c6cfb241

     atomic species   valence    mass     pseudopotential
        Al1            3.00    26.98154     Al( 1.00)
        Tl1           13.00   204.38000     Tl( 1.00)

     No symmetry found

   Cartesian axes

     site n.     atom                  positions (alat units)
         1           Al1 tau(   1) = (   0.0000000   0.0000000  10.0000000  )
         2           Al1 tau(   2) = (  -1.5383900   2.6645697  10.0000000  )
         3           Al1 tau(   3) = (   1.5383900   2.6645697  10.0000000  )
         4           Tl1 tau(   4) = (   3.0767801   0.0000000  10.0000000  )
         5           Al1 tau(   5) = (   3.0767801   1.7763798  12.5121804  )
         6           Al1 tau(   6) = (   1.5383900   4.4409495  12.5121804  )
         7           Al1 tau(   7) = (  -1.5383900   4.4409495  12.5121804  )
         8           Tl1 tau(   8) = (   0.0000000   1.7763798  12.5121804  )
         9           Al1 tau(   9) = (  -0.0000000   3.5527596  15.0243608  )
        10           Al1 tau(  10) = (   1.5383900   0.8881899  15.0243608  )
        11           Al1 tau(  11) = (   4.6151701   0.8881899  15.0243608  )
        12           Tl1 tau(  12) = (   3.0767801   3.5527596  15.0243608  )

     number of k points=    20  Fermi-Dirac smearing, width (Ry)=  0.0110
                       cart. coord. in units 2pi/alat
        k(    1) = (   0.0000000   0.0000000   0.0000000), wk =   0.0555556
        k(    2) = (   0.0000000   0.0312746   0.0000000), wk =   0.1111111
        k(    3) = (   0.0000000   0.0625492   0.0000000), wk =   0.1111111
        k(    4) = (   0.0000000  -0.0938238   0.0000000), wk =   0.0555556
        k(    5) = (   0.0270846   0.0156373   0.0000000), wk =   0.1111111
        k(    6) = (   0.0270846   0.0469119   0.0000000), wk =   0.1111111
        k(    7) = (   0.0270846   0.0781865   0.0000000), wk =   0.1111111
        k(    8) = (   0.0270846  -0.0781865   0.0000000), wk =   0.1111111
        k(    9) = (   0.0270846  -0.0469119   0.0000000), wk =   0.1111111
        k(   10) = (   0.0270846  -0.0156373   0.0000000), wk =   0.1111111
        k(   11) = (   0.0541692   0.0312746   0.0000000), wk =   0.1111111
        k(   12) = (   0.0541692   0.0625492   0.0000000), wk =   0.1111111
        k(   13) = (   0.0541692   0.0938238   0.0000000), wk =   0.1111111
        k(   14) = (   0.0541692  -0.0625492   0.0000000), wk =   0.1111111
        k(   15) = (   0.0541692  -0.0312746   0.0000000), wk =   0.1111111
        k(   16) = (   0.0541692   0.0000000   0.0000000), wk =   0.1111111
        k(   17) = (  -0.0812538  -0.0469119   0.0000000), wk =   0.0555556
        k(   18) = (  -0.0812538  -0.0156373   0.0000000), wk =   0.1111111
        k(   19) = (  -0.0812538   0.0156373   0.0000000), wk =   0.1111111
        k(   20) = (  -0.0812538  -0.1407357   0.0000000), wk =   0.0555556

     Largest allocated arrays     est. size (Mb)     dimensions
     Largest temporary arrays     est. size (Mb)     dimensions

     Initial potential from superposition of free atoms
     Check: negative starting charge=   -0.154624

     starting charge   65.96321, renormalised to   66.00000

     negative rho (up, down):  1.547E-01 0.000E+00

     *
     * You are using vdW-DF for exchange-correlation in this calculation.
     * Please cite the following three references that made this development
     * possible:
     *
     *   M. Dion, H. Rydberg, E. Schroder, D. C. Langreth, and
     *   B. I. Lundqvist, Phys. Rev. Lett. 92, 246401 (2004).
     *
     *   T. Thonhauser, V. R. Cooper, S. Li, A. Puzder, P. Hyldgaard, and
     *   D. C. Langreth, Phys. Rev. B 76, 125112 (2007).
     *
     *   G. Roman-Perez and J. M. Soler, Phys. Rev. Lett. 103, 096102 (2009).
     *
     *
     * If you are using vdW-DF2, please also cite:
     *
     *   K. Lee, E. D. Murray, L. Kong, B. I. Lundqvist, and
     *   D. C. Langreth, Phys. Rev. B 82, 081101(R) (2010).
     *
     *
     * If you are calculating the stress with vdW-DF, please also cite:
     *
     *   R. Sabatini, E. Kucukbenli, B. Kolb, T. Thonhauser, and
     *   S. de Gironcoli, J. Phys.: Condens. Matter 24, 424209 (2012).
     *

     Carrying out vdW-DF run using the following parameters:

     Nqs =      20    Nr_points =    1024   r_max =   100.000
     q_mesh =
               0.00001000     0.04494208     0.09755937     0.15916263
               0.23128650     0.31572767     0.41458969     0.53033537
               0.66584808     0.82450364     1.01025438     1.22772762
               1.48234092     1.78043706     2.12944203     2.53805004
               3.01644009     3.57652955     4.23227104     5.00000000

     Gradients computed in reciprocal space

     Adding external electric field

     Computed dipole along edir(3) :
        Dipole                0.0000 Ry au,          0.0000 Debye
        Dipole field          0.0000 Ry au

        Potential amp.       -0.0000 Ry
        Total length         46.1070 bohr

     Starting wfc are   63 randomized atomic wfcs

     Self-consistent Calculation

     iteration #  1     ecut=    36.75 Ry     beta=0.10
     Davidson diagonalization with overlap
     ethr =  1.00E-02,  avg # of iterations =  8.0

     Threshold (ethr) on eigenvalues was too large:
     Diagonalizing with lowered threshold

     Davidson diagonalization with overlap
     ethr =  6.27E-04,  avg # of iterations =  3.7

[...]

     total energy              =    -501.91340426 Ry
     Harris-Foulkes estimate   =    -501.97723737 Ry
     estimated scf accuracy    <       0.41797277 Ry

[...]

     End of self-consistent calculation

          k = 0.0000 0.0000 0.0000 ( 20851 PWs)   bands (ev):

   -12.3353 -12.3157 -12.3157 -12.2840 -12.2840 -12.1470 -12.1470 -12.1410
   -12.1334 -12.1334 -12.1271 -12.0849 -12.0849 -12.0668 -12.0668 -10.3836
    -8.8819  -6.9204  -5.1927  -5.0640  -4.4513  -4.4512  -4.4010  -4.4009
    -3.7971  -3.4099  -3.1712  -3.1712  -2.9428  -2.7155  -2.7155  -1.4626
    -1.3398  -0.9623  -0.9623  -0.6517  -0.6516   0.2627   2.2529   2.2530
     2.2569   2.2663   2.3101   2.3102   2.3827   3.0060   3.6277   3.8735
     4.2644   4.7477   4.7477   5.2065   5.3609   5.3651   5.3651   5.5212
     5.5328   5.8293   5.8949   5.8949   6.4348   6.4348   6.5750

[...]

          k =-0.0813-0.0469 0.0000 ( 20804 PWs)   bands (ev):

[...]

     the Fermi energy is    -0.4018 ev

!    total energy              =    -501.91659767 Ry
     Harris-Foulkes estimate   =    -501.91662492 Ry
     estimated scf accuracy    <       0.00000018 Ry

     The total energy is the sum of the following terms:

     one-electron contribution =   -1952.20899558 Ry
     hartree contribution      =    1000.14152824 Ry
     xc contribution           =    -231.26480083 Ry
     ewald contribution        =     681.44610798 Ry
     electric field correction =       0.00000000 Ry
     smearing contrib. (-TS)   =      -0.03043748 Ry

     convergence has been achieved in  13 iterations

 BEEF-vdW xc energy contributions
           1 :   -203.163133729690
           2 :    186.341673958479
           3 :   -157.723303611227
           4 :    124.732121774139
           5 :   -93.9158280438507
           6 :    68.8576558866156
           7 :   -50.0483679025256
           8 :    36.1588365234584
           9 :   -25.5404403731015
          10 :    17.0426750208075
          11 :   -10.0604103355591
          12 :    4.28623831128601
          13 :   0.386947347600710
          14 :   -3.82112480481271
          15 :    5.72115397127439
          16 :   -5.98051932367238
          17 :    5.02717685212400
          18 :   -3.79016453198852
          19 :    3.20192429517422
          20 :   -3.60654019976528
          21 :    4.57229448668605
          22 :   -5.28080956639201
          23 :    5.16658861966931
          24 :   -4.29357492605538
          25 :    3.21098467786618
[...]
               a(2) = (  -3.076780   5.329139   0.000000 )
               a(3) = (   0.000000   0.000000  25.024361 )

     reciprocal axes: (cart. coord. in units 2 pi/alat)
               b(1) = (  0.162508  0.093824  0.000000 )
               b(2) = (  0.000000  0.187648  0.000000 )
               b(3) = (  0.000000  0.000000  0.039961 )

     PseudoPot. # 1 for Al read from file:
     /afs/slac.stanford.edu/u/if/mamunm/psp/gbrv1.5pbe/Al.UPF
     MD5 check sum: 0a6289f5291fc8f409219462bc851e1f
     Pseudo is Ultrasoft + core correction, Zval =  3.0
     Generated by new atomic code, or converted to UPF format
     Using radial grid of  893 points,  3 beta functions with:
                l(1) =   0
                l(2) =   1
                l(3) =   2
     Q(r) pseudized with  8 coefficients,  rinner =    0.900   0.900   0.900
                                                       0.900   0.900

     PseudoPot. # 2 for Tl read from file:
     /afs/slac.stanford.edu/u/if/mamunm/psp/gbrv1.5pbe/Tl.UPF
     MD5 check sum: b76cf1f7e72655a2b2c53cf6385d7059
     Pseudo is Ultrasoft + core correction, Zval = 13.0
     Generated by new atomic code, or converted to UPF format
     Using radial grid of  899 points,  6 beta functions with:
                l(1) =   0
                l(2) =   0
                l(3) =   1
                l(4) =   1
                l(5) =   2
                l(6) =   2
     Q(r) pseudized with  6 coefficients,  rinner =    1.100   1.100   1.100
                                                       1.100   1.100

     vdW kernel table read from file vdW_kernel_table
     MD5 check sum: 095c7af220d748ca6e76c0b4c6cfb241

     atomic species   valence    mass     pseudopotential
        Al1            3.00    26.98154     Al( 1.00)
        Tl1           13.00   204.38000     Tl( 1.00)

     No symmetry found

   Cartesian axes

     site n.     atom                  positions (alat units)
         1           Al1 tau(   1) = (   0.0000000   0.0000000  10.0000000  )
         2           Al1 tau(   2) = (  -1.5383900   2.6645697  10.0000000  )
         3           Al1 tau(   3) = (   1.5383900   2.6645697  10.0000000  )
         4           Tl1 tau(   4) = (   3.0767801   0.0000000  10.0000000  )
         5           Al1 tau(   5) = (   3.0767801   1.7763798  12.5121804  )
         6           Al1 tau(   6) = (   1.5383900   4.4409495  12.5121804  )
         7           Al1 tau(   7) = (  -1.5383900   4.4409495  12.5121804  )
         8           Tl1 tau(   8) = (   0.0000000   1.7763798  12.5121804  )
         9           Al1 tau(   9) = (  -0.0001462   3.6782125  14.8116528  )
        10           Al1 tau(  10) = (   1.6468857   0.8252326  14.8116588  )
        11           Al1 tau(  11) = (   4.5066140   0.8253662  14.8116646  )
        12           Tl1 tau(  12) = (   3.0766163   3.5524649  15.5073544  )

     number of k points=    20  Fermi-Dirac smearing, width (Ry)=  0.0110
                       cart. coord. in units 2pi/alat
        k(    1) = (   0.0000000   0.0000000   0.0000000), wk =   0.0555556
        k(    2) = (   0.0000000   0.0312746   0.0000000), wk =   0.1111111
        k(    3) = (   0.0000000   0.0625492   0.0000000), wk =   0.1111111
        k(    4) = (   0.0000000  -0.0938238   0.0000000), wk =   0.0555556
        k(    5) = (   0.0270846   0.0156373   0.0000000), wk =   0.1111111
        k(    6) = (   0.0270846   0.0469119   0.0000000), wk =   0.1111111
        k(    7) = (   0.0270846   0.0781865   0.0000000), wk =   0.1111111
        k(    8) = (   0.0270846  -0.0781865   0.0000000), wk =   0.1111111
        k(    9) = (   0.0270846  -0.0469119   0.0000000), wk =   0.1111111
        k(   10) = (   0.0270846  -0.0156373   0.0000000), wk =   0.1111111
        k(   11) = (   0.0541692   0.0312746   0.0000000), wk =   0.1111111
        k(   12) = (   0.0541692   0.0625492   0.0000000), wk =   0.1111111
        k(   13) = (   0.0541692   0.0938238   0.0000000), wk =   0.1111111
        k(   14) = (   0.0541692  -0.0625492   0.0000000), wk =   0.1111111
        k(   15) = (   0.0541692  -0.0312746   0.0000000), wk =   0.1111111
        k(   16) = (   0.0541692   0.0000000   0.0000000), wk =   0.1111111
        k(   17) = (  -0.0812538  -0.0469119   0.0000000), wk =   0.0555556
        k(   18) = (  -0.0812538  -0.0156373   0.0000000), wk =   0.1111111
        k(   19) = (  -0.0812538   0.0156373   0.0000000), wk =   0.1111111
        k(   20) = (  -0.0812538  -0.1407357   0.0000000), wk =   0.0555556

     Largest allocated arrays     est. size (Mb)     dimensions
     Largest temporary arrays     est. size (Mb)     dimensions

     Initial potential from superposition of free atoms
     Check: negative starting charge=   -0.154720

     starting charge   65.96321, renormalised to   66.00000

[...]

     *
     * You are using vdW-DF for exchange-correlation in this calculation.
     * Please cite the following three references that made this development
     * possible:
     *
     *   M. Dion, H. Rydberg, E. Schroder, D. C. Langreth, and
     *   B. I. Lundqvist, Phys. Rev. Lett. 92, 246401 (2004).
     *
     *   T. Thonhauser, V. R. Cooper, S. Li, A. Puzder, P. Hyldgaard, and
     *   D. C. Langreth, Phys. Rev. B 76, 125112 (2007).
     *
     *   G. Roman-Perez and J. M. Soler, Phys. Rev. Lett. 103, 096102 (2009).
     *
     *
     * If you are using vdW-DF2, please also cite:
     *
     *   K. Lee, E. D. Murray, L. Kong, B. I. Lundqvist, and
     *   D. C. Langreth, Phys. Rev. B 82, 081101(R) (2010).
     *
     *
     * If you are calculating the stress with vdW-DF, please also cite:
     *
     *   R. Sabatini, E. Kucukbenli, B. Kolb, T. Thonhauser, and
     *   S. de Gironcoli, J. Phys.: Condens. Matter 24, 424209 (2012).
     *

     Carrying out vdW-DF run using the following parameters:

     Nqs =      20    Nr_points =    1024   r_max =   100.000
     q_mesh =
               0.00001000     0.04494208     0.09755937     0.15916263
               0.23128650     0.31572767     0.41458969     0.53033537
               0.66584808     0.82450364     1.01025438     1.22772762
               1.48234092     1.78043706     2.12944203     2.53805004
               3.01644009     3.57652955     4.23227104     5.00000000

     Gradients computed in reciprocal space

[...]

     Starting wfc are   63 randomized atomic wfcs

     Self-consistent Calculation

[...]

     Threshold (ethr) on eigenvalues was too large:
     Diagonalizing with lowered threshold

     Davidson diagonalization with overlap
     ethr =  7.76E-04,  avg # of iterations =  1.9

[...]

     total energy              =    -501.94325128 Ry
     Harris-Foulkes estimate   =    -501.94324950 Ry
     estimated scf accuracy    <       0.00000145 Ry

     iteration # 13     ecut=    36.75 Ry     beta=0.10
     Davidson diagonalization with overlap
     ethr =  2.19E-09,  avg # of iterations =  3.0

[...]

     negative rho (up, down):  1.644E-01 0.000E+00

     Adding external electric field

     Computed dipole along edir(3) :
        Dipole                0.0275 Ry au,          0.0700 Debye
        Dipole field          0.0001 Ry au

        Potential amp.       -0.0058 Ry
        Total length         46.1070 bohr

     End of self-consistent calculation

[...]

          k = 0.0542 0.0000 0.0000 ( 20821 PWs)   bands (ev):

[...]

          k =-0.0813-0.1407 0.0000 ( 20804 PWs)   bands (ev):

   -12.3871 -12.3670 -12.3605 -12.3185 -12.3134 -12.1395 -12.1255 -12.1098
   -12.0787 -12.0675 -12.0158 -12.0073 -12.0023 -11.9922 -11.9841  -9.2701
    -8.8071  -7.6973  -7.2020  -6.4431  -5.9650  -5.5056  -4.6875  -4.3130
    -4.3052  -2.7720  -2.1414  -1.7246  -1.5921  -0.8620  -0.8581  -0.6606
    -0.4166   0.1716   0.5643   0.6688   1.0365   1.1257   1.2901   1.5564
     1.7661   1.9052   1.9901   2.7894   2.9126   3.0247   3.2139   3.2725
     3.4243   3.5596   3.7104   3.9483   4.1527   4.2940   4.3284   4.8964
     4.9313   5.0451   5.2162   5.4139   5.6209   5.7402   5.7558

     the Fermi energy is    -0.4173 ev

!    total energy              =    -501.94323723 Ry
     Harris-Foulkes estimate   =    -501.94325188 Ry
     estimated scf accuracy    <       0.00000040 Ry

     The total energy is the sum of the following terms:

     one-electron contribution =   -1896.97343676 Ry
     hartree contribution      =     972.55594644 Ry
     xc contribution           =    -231.31618472 Ry
     ewald contribution        =     653.82298332 Ry
     electric field correction =       0.00000172 Ry
     smearing contrib. (-TS)   =      -0.03254723 Ry

     convergence has been achieved in  13 iterations

 BEEF-vdW xc energy contributions
           1 :   -203.361686817738
           2 :    186.508332928846
           3 :   -157.863072320334
           4 :    124.888375859478
           5 :   -94.1390920077070
           6 :    69.1681534936530
           7 :   -50.4155927217734
           8 :    36.5097306839375
           9 :   -25.7959791169172
          10 :    17.1672103632400
          11 :   -10.0930771364594
          12 :    4.32766613512612
          13 :   0.232009842985036
          14 :   -3.51006333393681
          15 :    5.30166231175448
          16 :   -5.55956750575589
          17 :    4.70209453295050
          18 :   -3.59050531009129
          19 :    3.08001925206904
          20 :   -3.47829826358597
          21 :    4.37642459331232
          22 :   -5.01632245298183
          23 :    4.88859669577829
          24 :   -4.07718943340649
          25 :    3.11003652179920
          26 :   -2.50575110230480
          27 :    2.41675952293917
          28 :   -2.62021360316106
          29 :    2.77521225580352
          30 :   -2.67846204919525
          31 :   -18.5707606061468
          32 :   -13.5611108503431

     Forces acting on atoms (Ry/au):

     negative rho (up, down):  1.644E-01 0.000E+00
     atom    1 type  1   force =     0.00000073   -0.00901588    0.00956252
     atom    2 type  1   force =    -0.00780662    0.00450790    0.00956273
     atom    3 type  1   force =     0.00780664    0.00450715    0.00956303
     atom    4 type  2   force =    -0.00000090    0.00000387   -0.02285953
     atom    5 type  1   force =    -0.00000100    0.01299569   -0.00029718
     atom    6 type  1   force =     0.01125663   -0.00650169   -0.00030367
     atom    7 type  1   force =    -0.01125973   -0.00650236   -0.00031139
     atom    8 type  2   force =     0.00000017    0.00000256   -0.00931982
     atom    9 type  1   force =     0.00000440    0.00006336    0.00097619
     atom   10 type  1   force =     0.00005996   -0.00002816    0.00097604
     atom   11 type  1   force =    -0.00006001   -0.00003323    0.00097561
     atom   12 type  2   force =    -0.00000028    0.00000079    0.00147547

     Total force =     0.040495     Total SCF correction =     0.003279

     entering subroutine stress ...

     negative rho (up, down):  1.644E-01 0.000E+00
          total   stress  (Ry/bohr**3)                   (kbar)     P=   -6.33
  -0.00005815  -0.00000001   0.00000000         -8.55     -0.00      0.00
  -0.00000001  -0.00005813   0.00000000         -0.00     -8.55      0.00
   0.00000000   0.00000000  -0.00001286          0.00      0.00     -1.89

 !ASE

     Writing output data file calc.save

     General routines

     Parallel routines

   This run was terminated on:  19:22:40  19Dec2018

   JOB DONE.
Job  /afs/slac/g/suncat/bin/suncat-tsmpirun -x LD_LIBRARY_PATH -wdir /scratch/qe773310_jZmux pw.x -in pw.inp

TID   HOST_NAME   COMMAND_LINE            STATUS            TERMINATION_TIME
00000 suncat0167 pw.x -in pw.inp   Done                     12/19/2018 19:22:40
00001 suncat0167 pw.x -in pw.inp   Done                     12/19/2018 19:22:40
00002 suncat0167 pw.x -in pw.inp   Done                     12/19/2018 19:22:40
00003 suncat0167 pw.x -in pw.inp   Done                     12/19/2018 19:22:40
00004 suncat0167 pw.x -in pw.inp   Done                     12/19/2018 19:22:40
00005 suncat0167 pw.x -in pw.inp   Done                     12/19/2018 19:22:40
00006 suncat0167 pw.x -in pw.inp   Done                     12/19/2018 19:22:40
00007 suncat0167 pw.x -in pw.inp   Done                     12/19/2018 19:22:40
00008 suncat0166 pw.x -in pw.inp   Done                     12/19/2018 19:22:40
00009 suncat0166 pw.x -in pw.inp   Done                     12/19/2018 19:22:40
00010 suncat0166 pw.x -in pw.inp   Done                     12/19/2018 19:22:40
00011 suncat0166 pw.x -in pw.inp   Done                     12/19/2018 19:22:40
00012 suncat0166 pw.x -in pw.inp   Done                     12/19/2018 19:22:40
00013 suncat0166 pw.x -in pw.inp   Done                     12/19/2018 19:22:40
00014 suncat0166 pw.x -in pw.inp   Done                     12/19/2018 19:22:40
00015 suncat0166 pw.x -in pw.inp   Done                     12/19/2018 19:22:40
00016 suncat0165 pw.x -in pw.inp   Done                     12/19/2018 19:22:40
00017 suncat0165 pw.x -in pw.inp   Done                     12/19/2018 19:22:40
00018 suncat0165 pw.x -in pw.inp   Done                     12/19/2018 19:22:40
00019 suncat0165 pw.x -in pw.inp   Done                     12/19/2018 19:22:40
00020 suncat0165 pw.x -in pw.inp   Done                     12/19/2018 19:22:40
00021 suncat0165 pw.x -in pw.inp   Done                     12/19/2018 19:22:40
00022 suncat0165 pw.x -in pw.inp   Done                     12/19/2018 19:22:40
00023 suncat0165 pw.x -in pw.inp   Done                     12/19/2018 19:22:40
00024 suncat0164 pw.x -in pw.inp   Done                     12/19/2018 19:22:40
00025 suncat0164 pw.x -in pw.inp   Done                     12/19/2018 19:22:40
00026 suncat0164 pw.x -in pw.inp   Done                     12/19/2018 19:22:40
00027 suncat0164 pw.x -in pw.inp   Done                     12/19/2018 19:22:40
00028 suncat0164 pw.x -in pw.inp   Done                     12/19/2018 19:22:40
00029 suncat0164 pw.x -in pw.inp   Done                     12/19/2018 19:22:40
00030 suncat0164 pw.x -in pw.inp   Done                     12/19/2018 19:22:40
00031 suncat0164 pw.x -in pw.inp   Done                     12/19/2018 19:22:40
00032 suncat0163 pw.x -in pw.inp   Done                     12/19/2018 19:22:40
00033 suncat0163 pw.x -in pw.inp   Done                     12/19/2018 19:22:40
00034 suncat0163 pw.x -in pw.inp   Done                     12/19/2018 19:22:40
00035 suncat0163 pw.x -in pw.inp   Done                     12/19/2018 19:22:40
00036 suncat0163 pw.x -in pw.inp   Done                     12/19/2018 19:22:40
00037 suncat0163 pw.x -in pw.inp   Done                     12/19/2018 19:22:40
00038 suncat0163 pw.x -in pw.inp   Done                     12/19/2018 19:22:40
00039 suncat0163 pw.x -in pw.inp   Done                     12/19/2018 19:22:40
00040 suncat0162 pw.x -in pw.inp   Done                     12/19/2018 19:22:40
00041 suncat0162 pw.x -in pw.inp   Done                     12/19/2018 19:22:40
00042 suncat0162 pw.x -in pw.inp   Done                     12/19/2018 19:22:40
00043 suncat0162 pw.x -in pw.inp   Done                     12/19/2018 19:22:40
00044 suncat0162 pw.x -in pw.inp   Done                     12/19/2018 19:22:40
00045 suncat0162 pw.x -in pw.inp   Done                     12/19/2018 19:22:40
00046 suncat0162 pw.x -in pw.inp   Done                     12/19/2018 19:22:40
00047 suncat0162 pw.x -in pw.inp   Done                     12/19/2018 19:22:40
00048 suncat0161 pw.x -in pw.inp   Done                     12/19/2018 19:22:40
00049 suncat0161 pw.x -in pw.inp   Done                     12/19/2018 19:22:40
00050 suncat0161 pw.x -in pw.inp   Done                     12/19/2018 19:22:40
00051 suncat0161 pw.x -in pw.inp   Done                     12/19/2018 19:22:40
00052 suncat0161 pw.x -in pw.inp   Done                     12/19/2018 19:22:40
00053 suncat0161 pw.x -in pw.inp   Done                     12/19/2018 19:22:40
00054 suncat0161 pw.x -in pw.inp   Done                     12/19/2018 19:22:40
00055 suncat0161 pw.x -in pw.inp   Done                     12/19/2018 19:22:40
00056 suncat0159 pw.x -in pw.inp   Done                     12/19/2018 19:22:40
00057 suncat0159 pw.x -in pw.inp   Done                     12/19/2018 19:22:40
00058 suncat0159 pw.x -in pw.inp   Done                     12/19/2018 19:22:40
00059 suncat0159 pw.x -in pw.inp   Done                     12/19/2018 19:22:40
00060 suncat0159 pw.x -in pw.inp   Done                     12/19/2018 19:22:40
00061 suncat0159 pw.x -in pw.inp   Done                     12/19/2018 19:22:40
00062 suncat0159 pw.x -in pw.inp   Done                     12/19/2018 19:22:40
00063 suncat0159 pw.x -in pw.inp   Done                     12/19/2018 19:22:40