     Program PWSCF v.5.1rc2 (svn rev. 11289) starts on 31Dec2018 at 16:38: 6

     Current dimensions of program PWSCF are:
     Max number of different atomic species (ntypx) = 10
     Max number of k-points (npk) =  40000
     Max angular momentum in pseudopotentials (lmaxx) =  3
     Presently stress not available with electric field

     IMPORTANT: XC functional enforced from input :
     Exchange-correlation      = BEEF-VDW ( 1  4 27 13 2)
     Any further DFT definition will be discarded
     Please, verify this is what you really want

     Subspace diagonalization in iterative solution of the eigenvalue problem:
     a serial algorithm will be used

     bravais-lattice index     =            0
     lattice parameter (alat)  =       1.8897  a.u.
     unit-cell volume          =    4476.0310 (a.u.)^3
     number of atoms/cell      =           12
     number of atomic types    =            2
     number of electrons       =       192.00
     number of Kohn-Sham states=          126
     kinetic-energy cutoff     =      36.7493  Ry
     charge density cutoff     =     367.4932  Ry
     convergence threshold     =      1.0E-06
     mixing beta               =       0.1000
     number of iterations used =           10  plain     mixing
     Exchange-correlation      = BEEF-VDW ( 1  4 27 13 2)
     nstep                     =           50

     celldm(1)=   1.889726  celldm(2)=   0.000000  celldm(3)=   0.000000
     celldm(4)=   0.000000  celldm(5)=   0.000000  celldm(6)=   0.000000

     crystal axes: (cart. coord. in units of alat)
               a(1) = (   5.584346   0.000000   0.000000 )
               a(2) = (  -2.792173   4.836185   0.000000 )
               a(3) = (   0.000000   0.000000  24.559599 )

     reciprocal axes: (cart. coord. in units 2 pi/alat)
               b(1) = (  0.179072  0.103387  0.000000 )
               b(2) = (  0.000000  0.206775  0.000000 )
               b(3) = (  0.000000  0.000000  0.040717 )

     PseudoPot. # 1 for Pt read from file:
     /afs/slac.stanford.edu/u/if/mamunm/psp/gbrv1.5pbe/Pt.UPF
     MD5 check sum: f09d6de1a584b5a045c4fc126da2d0c4
     Pseudo is Ultrasoft + core correction, Zval = 16.0
     Generated by new atomic code, or converted to UPF format
     Using radial grid of  985 points,  6 beta functions with:
                l(1) =   0
                l(2) =   0
                l(3) =   1
                l(4) =   1
                l(5) =   2
                l(6) =   2
     Q(r) pseudized with  8 coefficients,  rinner =    1.300   1.300   1.300
                                                       1.300   1.300

     PseudoPot. # 2 for Os read from file:
     /afs/slac.stanford.edu/u/if/mamunm/psp/gbrv1.5pbe/Os.UPF
     MD5 check sum: a3fb40a04f0c37c25c34bbc47164c9a8
     Pseudo is Ultrasoft + core correction, Zval = 16.0
     Generated by new atomic code, or converted to UPF format
     Using radial grid of  983 points,  8 beta functions with:
                l(1) =   0
                l(2) =   0
                l(3) =   1
                l(4) =   1
                l(5) =   2
                l(6) =   2
                l(7) =   3
                l(8) =   3
     Q(r) pseudized with  8 coefficients,  rinner =    1.150   1.150   1.150
                                                       1.150   1.150   1.150
                                                       1.150

     vdW kernel table read from file vdW_kernel_table
     MD5 check sum: 095c7af220d748ca6e76c0b4c6cfb241

     atomic species   valence    mass     pseudopotential
        Pt1           16.00   195.08400     Pt( 1.00)
        Os1           16.00   190.23000     Os( 1.00)

     No symmetry found

   Cartesian axes

     site n.     atom                  positions (alat units)
         1           Pt1 tau(   1) = (   0.0000000   0.0000000  10.0000000  )
         2           Pt1 tau(   2) = (  -1.3960864   2.4180926  10.0000000  )
         3           Pt1 tau(   3) = (   1.3960864   2.4180926  10.0000000  )
         4           Os1 tau(   4) = (   2.7921728   0.0000000  10.0000000  )
         5           Pt1 tau(   5) = (   2.7921728   1.6120617  12.2797996  )
         6           Pt1 tau(   6) = (   1.3960864   4.0301543  12.2797996  )
         7           Pt1 tau(   7) = (  -1.3960864   4.0301543  12.2797996  )
         8           Os1 tau(   8) = (   0.0000000   1.6120617  12.2797996  )
         9           Pt1 tau(   9) = (  -0.0000000   3.2241234  14.5595991  )
        10           Pt1 tau(  10) = (   1.3960864   0.8060309  14.5595991  )
        11           Pt1 tau(  11) = (   4.1882592   0.8060309  14.5595991  )
        12           Os1 tau(  12) = (   2.7921728   3.2241234  14.5595991  )

     number of k points=    20  Fermi-Dirac smearing, width (Ry)=  0.0110
                       cart. coord. in units 2pi/alat
        k(    1) = (   0.0000000   0.0000000   0.0000000), wk =   0.0555556
        k(    2) = (   0.0000000   0.0344624   0.0000000), wk =   0.1111111
        k(    3) = (   0.0000000   0.0689248   0.0000000), wk =   0.1111111
        k(    4) = (   0.0000000  -0.1033873   0.0000000), wk =   0.0555556
        k(    5) = (   0.0298453   0.0172312   0.0000000), wk =   0.1111111
        k(    6) = (   0.0298453   0.0516936   0.0000000), wk =   0.1111111
        k(    7) = (   0.0298453   0.0861561   0.0000000), wk =   0.1111111
        k(    8) = (   0.0298453  -0.0861561   0.0000000), wk =   0.1111111
        k(    9) = (   0.0298453  -0.0516936   0.0000000), wk =   0.1111111
        k(   10) = (   0.0298453  -0.0172312   0.0000000), wk =   0.1111111
        k(   11) = (   0.0596907   0.0344624   0.0000000), wk =   0.1111111
        k(   12) = (   0.0596907   0.0689248   0.0000000), wk =   0.1111111
        k(   13) = (   0.0596907   0.1033873   0.0000000), wk =   0.1111111
        k(   14) = (   0.0596907  -0.0689248   0.0000000), wk =   0.1111111
        k(   15) = (   0.0596907  -0.0344624   0.0000000), wk =   0.1111111
        k(   16) = (   0.0596907   0.0000000   0.0000000), wk =   0.1111111
        k(   17) = (  -0.0895360  -0.0516936   0.0000000), wk =   0.0555556
        k(   18) = (  -0.0895360  -0.0172312   0.0000000), wk =   0.1111111
        k(   19) = (  -0.0895360   0.0172312   0.0000000), wk =   0.1111111
        k(   20) = (  -0.0895360  -0.1550809   0.0000000), wk =   0.0555556

     Largest allocated arrays     est. size (Mb)     dimensions
     Largest temporary arrays     est. size (Mb)     dimensions

     Initial potential from superposition of free atoms
     Check: negative starting charge=   -2.021834

     starting charge  185.99979, renormalised to  192.00000

     negative rho (up, down):  2.087E+00 0.000E+00

     *
     * You are using vdW-DF for exchange-correlation in this calculation.
     * Please cite the following three references that made this development
     * possible:
     *
     *   M. Dion, H. Rydberg, E. Schroder, D. C. Langreth, and
     *   B. I. Lundqvist, Phys. Rev. Lett. 92, 246401 (2004).
     *
     *   T. Thonhauser, V. R. Cooper, S. Li, A. Puzder, P. Hyldgaard, and
     *   D. C. Langreth, Phys. Rev. B 76, 125112 (2007).
     *
     *   G. Roman-Perez and J. M. Soler, Phys. Rev. Lett. 103, 096102 (2009).
     *
     *
     * If you are using vdW-DF2, please also cite:
     *
     *   K. Lee, E. D. Murray, L. Kong, B. I. Lundqvist, and
     *   D. C. Langreth, Phys. Rev. B 82, 081101(R) (2010).
     *
     *
     * If you are calculating the stress with vdW-DF, please also cite:
     *
     *   R. Sabatini, E. Kucukbenli, B. Kolb, T. Thonhauser, and
     *   S. de Gironcoli, J. Phys.: Condens. Matter 24, 424209 (2012).
     *

     Carrying out vdW-DF run using the following parameters:

     Nqs =      20    Nr_points =    1024   r_max =   100.000
     q_mesh =
               0.00001000     0.04494208     0.09755937     0.15916263
               0.23128650     0.31572767     0.41458969     0.53033537
               0.66584808     0.82450364     1.01025438     1.22772762
               1.48234092     1.78043706     2.12944203     2.53805004
               3.01644009     3.57652955     4.23227104     5.00000000

     Gradients computed in reciprocal space

     Adding external electric field

     Computed dipole along edir(3) :
        Dipole                0.0000 Ry au,          0.0000 Debye
        Dipole field          0.0000 Ry au

        Potential amp.       -0.0000 Ry
        Total length         45.2506 bohr

     Starting wfc are  147 randomized atomic wfcs

     Self-consistent Calculation

     iteration #  1     ecut=    36.75 Ry     beta=0.10
     Davidson diagonalization with overlap
     ethr =  1.00E-02,  avg # of iterations =  7.5

[...]

     total energy              =   -2509.97667317 Ry
     Harris-Foulkes estimate   =   -2514.23004014 Ry
     estimated scf accuracy    <      24.97233285 Ry

[...]

     End of self-consistent calculation

          k = 0.0000 0.0000 0.0000 ( 16787 PWs)   bands (ev):

   -84.8331 -84.3348 -84.3347 -51.3102 -51.2095 -51.2094 -51.1454 -51.1336
   -51.1335 -51.0557 -50.9913 -50.9911 -50.9143 -50.9107 -50.8657 -50.8657
   -50.8445 -50.8445 -50.7284 -50.7246 -50.6381 -50.6381 -50.6375 -50.6375
   -50.5633 -50.5413 -50.5253 -50.5252 -50.5140 -50.5140 -44.1611 -44.0346
   -44.0346 -43.6088 -43.6088 -43.6076 -43.6076 -43.5443 -43.5396  -7.0163
    -5.2263  -4.7966  -4.4955  -4.4244  -4.4243  -4.2389  -4.1774  -4.1774
    -3.7576  -3.7250  -3.7250  -3.6023  -3.5043  -3.5043  -2.2587  -2.1025
    -2.1025  -1.8216  -1.8216  -1.6921  -1.5305  -1.3686  -1.3686  -1.2382
    -1.2182  -1.0758  -1.0758  -0.8176  -0.8176  -0.8175  -0.8174  -0.5611
    -0.5611   0.1409   0.3040   0.5954   0.5955   0.6074   0.6074   0.6887
     0.6888   0.9482   1.2837   1.4982   1.6432   1.6432   1.7741   1.7741
     1.9118   2.2517   2.2517   2.2592   2.3243   2.5654   2.5692   2.5693
     2.6813   2.8007   2.8008   3.0796   3.0796   3.2603   3.2821   3.2821
     3.3182   3.3182   4.9832   4.9832   5.0348   5.0348   5.1752   5.3438
     6.7501   7.0219   7.3631   8.1141   8.1141   8.1721   8.1721   8.2993
     8.3863   8.4490   9.0761   9.1950   9.1950   9.4001

[...]

          k =-0.0895-0.0517 0.0000 ( 16868 PWs)   bands (ev):

[...]

     the Fermi energy is     2.0428 ev

!    total energy              =   -2510.27283851 Ry
     Harris-Foulkes estimate   =   -2510.27282828 Ry
     estimated scf accuracy    <       0.00000082 Ry

     The total energy is the sum of the following terms:

     one-electron contribution =  -20179.41595717 Ry
     hartree contribution      =   10111.17861678 Ry
     xc contribution           =    -643.27639831 Ry
     ewald contribution        =    8201.34881854 Ry
     electric field correction =       0.00000001 Ry
     smearing contrib. (-TS)   =      -0.10791835 Ry

     convergence has been achieved in  17 iterations

 BEEF-vdW xc energy contributions
           1 :   -570.806966254552
           2 :    530.891838893199
           3 :   -459.441316280306
           4 :    370.350568122618
           5 :   -278.861860290736
           6 :    197.586075868912
           7 :   -133.897147926987
           8 :    89.2595463819486
[...]
                l(1) =   0
                l(2) =   0
                l(3) =   1
                l(4) =   1
                l(5) =   2
                l(6) =   2
     Q(r) pseudized with  8 coefficients,  rinner =    1.300   1.300   1.300
                                                       1.300   1.300

     PseudoPot. # 2 for Os read from file:
     /afs/slac.stanford.edu/u/if/mamunm/psp/gbrv1.5pbe/Os.UPF
     MD5 check sum: a3fb40a04f0c37c25c34bbc47164c9a8
     Pseudo is Ultrasoft + core correction, Zval = 16.0
     Generated by new atomic code, or converted to UPF format
     Using radial grid of  983 points,  8 beta functions with:
                l(1) =   0
                l(2) =   0
                l(3) =   1
                l(4) =   1
                l(5) =   2
                l(6) =   2
                l(7) =   3
                l(8) =   3
     Q(r) pseudized with  8 coefficients,  rinner =    1.150   1.150   1.150
                                                       1.150   1.150   1.150
                                                       1.150

     vdW kernel table read from file vdW_kernel_table
     MD5 check sum: 095c7af220d748ca6e76c0b4c6cfb241

     atomic species   valence    mass     pseudopotential
        Pt1           16.00   195.08400     Pt( 1.00)
        Os1           16.00   190.23000     Os( 1.00)

     No symmetry found

   Cartesian axes

     site n.     atom                  positions (alat units)
         1           Pt1 tau(   1) = (   0.0000000   0.0000000  10.0000000  )
         2           Pt1 tau(   2) = (  -1.3960864   2.4180926  10.0000000  )
         3           Pt1 tau(   3) = (   1.3960864   2.4180926  10.0000000  )
         4           Os1 tau(   4) = (   2.7921728   0.0000000  10.0000000  )
         5           Pt1 tau(   5) = (   2.7921728   1.6120617  12.2797996  )
         6           Pt1 tau(   6) = (   1.3960864   4.0301543  12.2797996  )
         7           Pt1 tau(   7) = (  -1.3960864   4.0301543  12.2797996  )
         8           Os1 tau(   8) = (   0.0000000   1.6120617  12.2797996  )
         9           Pt1 tau(   9) = (   0.0000029   3.2003997  14.5716936  )
        10           Pt1 tau(  10) = (   1.3755436   0.8178951  14.5716941  )
        11           Pt1 tau(  11) = (   4.2088040   0.8178929  14.5716939  )
        12           Os1 tau(  12) = (   2.7921806   3.2241310  14.4544893  )

     number of k points=    20  Fermi-Dirac smearing, width (Ry)=  0.0110
                       cart. coord. in units 2pi/alat
        k(    1) = (   0.0000000   0.0000000   0.0000000), wk =   0.0555556
        k(    2) = (   0.0000000   0.0344624   0.0000000), wk =   0.1111111
        k(    3) = (   0.0000000   0.0689248   0.0000000), wk =   0.1111111
        k(    4) = (   0.0000000  -0.1033873   0.0000000), wk =   0.0555556
        k(    5) = (   0.0298453   0.0172312   0.0000000), wk =   0.1111111
        k(    6) = (   0.0298453   0.0516936   0.0000000), wk =   0.1111111
        k(    7) = (   0.0298453   0.0861561   0.0000000), wk =   0.1111111
        k(    8) = (   0.0298453  -0.0861561   0.0000000), wk =   0.1111111
        k(    9) = (   0.0298453  -0.0516936   0.0000000), wk =   0.1111111
        k(   10) = (   0.0298453  -0.0172312   0.0000000), wk =   0.1111111
        k(   11) = (   0.0596907   0.0344624   0.0000000), wk =   0.1111111
        k(   12) = (   0.0596907   0.0689248   0.0000000), wk =   0.1111111
        k(   13) = (   0.0596907   0.1033873   0.0000000), wk =   0.1111111
        k(   14) = (   0.0596907  -0.0689248   0.0000000), wk =   0.1111111
        k(   15) = (   0.0596907  -0.0344624   0.0000000), wk =   0.1111111
        k(   16) = (   0.0596907   0.0000000   0.0000000), wk =   0.1111111
        k(   17) = (  -0.0895360  -0.0516936   0.0000000), wk =   0.0555556
        k(   18) = (  -0.0895360  -0.0172312   0.0000000), wk =   0.1111111
        k(   19) = (  -0.0895360   0.0172312   0.0000000), wk =   0.1111111
        k(   20) = (  -0.0895360  -0.1550809   0.0000000), wk =   0.0555556

     Largest allocated arrays     est. size (Mb)     dimensions
     Largest temporary arrays     est. size (Mb)     dimensions

     Initial potential from superposition of free atoms
     Check: negative starting charge=   -2.021915

     starting charge  185.99979, renormalised to  192.00000

[...]

     *
     * You are using vdW-DF for exchange-correlation in this calculation.
     * Please cite the following three references that made this development
     * possible:
     *
     *   M. Dion, H. Rydberg, E. Schroder, D. C. Langreth, and
     *   B. I. Lundqvist, Phys. Rev. Lett. 92, 246401 (2004).
     *
     *   T. Thonhauser, V. R. Cooper, S. Li, A. Puzder, P. Hyldgaard, and
     *   D. C. Langreth, Phys. Rev. B 76, 125112 (2007).
     *
     *   G. Roman-Perez and J. M. Soler, Phys. Rev. Lett. 103, 096102 (2009).
     *
     *
     * If you are using vdW-DF2, please also cite:
     *
     *   K. Lee, E. D. Murray, L. Kong, B. I. Lundqvist, and
     *   D. C. Langreth, Phys. Rev. B 82, 081101(R) (2010).
     *
     *
     * If you are calculating the stress with vdW-DF, please also cite:
     *
     *   R. Sabatini, E. Kucukbenli, B. Kolb, T. Thonhauser, and
     *   S. de Gironcoli, J. Phys.: Condens. Matter 24, 424209 (2012).
     *

     Carrying out vdW-DF run using the following parameters:

     Nqs =      20    Nr_points =    1024   r_max =   100.000
     q_mesh =
               0.00001000     0.04494208     0.09755937     0.15916263
               0.23128650     0.31572767     0.41458969     0.53033537
               0.66584808     0.82450364     1.01025438     1.22772762
               1.48234092     1.78043706     2.12944203     2.53805004
               3.01644009     3.57652955     4.23227104     5.00000000

     Gradients computed in reciprocal space

[...]

     Starting wfc are  147 randomized atomic wfcs

     Self-consistent Calculation

[...]

     total energy              =   -2510.29159737 Ry
     Harris-Foulkes estimate   =   -2510.29159568 Ry
     estimated scf accuracy    <       0.00000211 Ry

     iteration # 17     ecut=    36.75 Ry     beta=0.10
     Davidson diagonalization with overlap
     ethr =  1.10E-09,  avg # of iterations =  2.0

[...]

     negative rho (up, down):  1.947E+00 0.000E+00

     Adding external electric field

     Computed dipole along edir(3) :
        Dipole                0.0034 Ry au,          0.0087 Debye
        Dipole field          0.0000 Ry au

        Potential amp.       -0.0009 Ry
        Total length         45.2506 bohr

     End of self-consistent calculation

[...]

          k = 0.0597 0.0000 0.0000 ( 16820 PWs)   bands (ev):

[...]

          k =-0.0895-0.1551 0.0000 ( 16868 PWs)   bands (ev):

   -84.8196 -84.3804 -84.2990 -51.2858 -51.2142 -51.1815 -51.1721 -51.1411
   -51.1141 -51.1122 -51.0870 -51.0076 -50.8615 -50.8518 -50.7885 -50.7814
   -50.7794 -50.7766 -50.7658 -50.7506 -50.7371 -50.7186 -50.6390 -50.6281
   -50.5324 -50.5255 -50.5215 -50.5091 -50.5045 -50.4972 -44.1559 -44.0281
   -44.0232 -43.6538 -43.6491 -43.6182 -43.5851 -43.5804 -43.5000  -5.2760
    -5.2275  -3.8966  -3.8287  -3.5468  -3.5237  -3.5030  -3.4806  -3.3931
    -3.3526  -3.0467  -2.7992  -2.7562  -2.5273  -2.5179  -2.5020  -2.2870
    -2.2754  -2.2079  -2.0662  -1.9050  -1.7154  -1.4965  -1.4175  -1.2594
    -1.2199  -1.2136  -1.1168  -1.0980  -1.0445  -0.9035  -0.8853  -0.8386
    -0.7988  -0.7781  -0.6816  -0.5421  -0.4859  -0.3034  -0.2685  -0.1548
    -0.0765  -0.0141   0.1718   0.3696   0.3845   0.5758   0.7842   0.9077
     0.9909   1.0093   1.1293   1.3618   1.4433   1.5050   1.5399   1.5855
     1.8663   1.9584   1.9750   2.3010   2.4304   2.6144   3.0749   3.7394
     4.0020   4.0174   4.9913   4.9920   5.6101   6.5183   6.6958   7.0895
     7.2111   8.1944   8.2104   8.7921   8.8150   8.8753   8.8806   9.4526
     9.8395   9.9561   9.9793   9.9990  10.0294  10.1318

     the Fermi energy is     2.0507 ev

!    total energy              =   -2510.29160380 Ry
     Harris-Foulkes estimate   =   -2510.29159760 Ry
     estimated scf accuracy    <       0.00000075 Ry

     The total energy is the sum of the following terms:

     one-electron contribution =  -20228.36828326 Ry
     hartree contribution      =   10135.66003035 Ry
     xc contribution           =    -643.33913991 Ry
     ewald contribution        =    8225.86181899 Ry
     electric field correction =       0.00000003 Ry
     smearing contrib. (-TS)   =      -0.10603000 Ry

     convergence has been achieved in  17 iterations

 BEEF-vdW xc energy contributions
           1 :   -571.268239847242
           2 :    531.369769765751
           3 :   -459.943951286312
           4 :    370.871081302768
           5 :   -279.378535632912
           6 :    198.070684249784
           7 :   -134.328476115379
           8 :    89.6354063724842
           9 :   -60.7728027376685
          10 :    42.1858409785907
          11 :   -28.5164987432019
          12 :    16.3703810016532
          13 :   -4.85408973928054
          14 :   -5.03636229794108
          15 :    11.6592538975251
          16 :   -13.9599430827467
          17 :    12.1698326685037
          18 :   -7.77313267964837
          19 :    2.87787063307303
          20 :   0.632371188830007
          21 :   -1.76525007972475
          22 :   0.641119774358458
          23 :    1.75862248724445
          24 :   -4.14751927644102
          25 :    5.51783116994204
          26 :   -5.50870293848254
          27 :    4.43645253058708
          28 :   -3.02952037663920
          29 :    2.02853626378658
          30 :   -1.84830251287735
          31 :   -48.0600837435037
          32 :   -35.7720980030043

     Forces acting on atoms (Ry/au):

     negative rho (up, down):  1.947E+00 0.000E+00
     atom    1 type  1   force =     0.00000001    0.01504184   -0.00467326
     atom    2 type  1   force =     0.01302693   -0.00752164   -0.00467281
     atom    3 type  1   force =    -0.01302622   -0.00752121   -0.00467320
     atom    4 type  2   force =    -0.00000042    0.00000034    0.03034991
     atom    5 type  1   force =     0.00000054   -0.00690909   -0.00495464
     atom    6 type  1   force =    -0.00598285    0.00345460   -0.00495466
     atom    7 type  1   force =     0.00598418    0.00345464   -0.00495500
     atom    8 type  2   force =    -0.00000059    0.00000056   -0.00099874
     atom    9 type  1   force =     0.00000010   -0.00005914   -0.00012670
     atom   10 type  1   force =    -0.00005137    0.00002946   -0.00012703
     atom   11 type  1   force =     0.00005232    0.00002998   -0.00012657
     atom   12 type  2   force =    -0.00000262   -0.00000036   -0.00008730

     Total force =     0.043397     Total SCF correction =     0.005068
     SCF correction compared to forces is large: reduce conv_thr to get better values

     entering subroutine stress ...

     negative rho (up, down):  1.947E+00 0.000E+00
          total   stress  (Ry/bohr**3)                   (kbar)     P=  -24.25
  -0.00023169   0.00000000  -0.00000000        -34.08      0.00     -0.00
   0.00000000  -0.00023169  -0.00000000          0.00    -34.08     -0.00
  -0.00000000  -0.00000000  -0.00003118         -0.00     -0.00     -4.59

 !ASE

     Writing output data file calc.save

     General routines

     Parallel routines

   This run was terminated on:  17:56: 9  31Dec2018

   JOB DONE.
Job  /afs/slac/g/suncat/bin/suncat-tsmpirun -x LD_LIBRARY_PATH -wdir /scratch/qe648817_pUhNC pw.x -in pw.inp

TID   HOST_NAME   COMMAND_LINE            STATUS            TERMINATION_TIME
00000 suncat0056 pw.x -in pw.inp   Done                     12/31/2018 17:56:09
00001 suncat0056 pw.x -in pw.inp   Done                     12/31/2018 17:56:09
00002 suncat0056 pw.x -in pw.inp   Done                     12/31/2018 17:56:09
00003 suncat0056 pw.x -in pw.inp   Done                     12/31/2018 17:56:09
00004 suncat0056 pw.x -in pw.inp   Done                     12/31/2018 17:56:09
00005 suncat0056 pw.x -in pw.inp   Done                     12/31/2018 17:56:09
00006 suncat0056 pw.x -in pw.inp   Done                     12/31/2018 17:56:09
00007 suncat0056 pw.x -in pw.inp   Done                     12/31/2018 17:56:09
00008 suncat0052 pw.x -in pw.inp   Done                     12/31/2018 17:56:09
00009 suncat0052 pw.x -in pw.inp   Done                     12/31/2018 17:56:09
00010 suncat0052 pw.x -in pw.inp   Done                     12/31/2018 17:56:09
00011 suncat0052 pw.x -in pw.inp   Done                     12/31/2018 17:56:09
00012 suncat0052 pw.x -in pw.inp   Done                     12/31/2018 17:56:09
00013 suncat0052 pw.x -in pw.inp   Done                     12/31/2018 17:56:09
00014 suncat0052 pw.x -in pw.inp   Done                     12/31/2018 17:56:09
00015 suncat0052 pw.x -in pw.inp   Done                     12/31/2018 17:56:09
00016 suncat0048 pw.x -in pw.inp   Done                     12/31/2018 17:56:09
00017 suncat0048 pw.x -in pw.inp   Done                     12/31/2018 17:56:09
00018 suncat0048 pw.x -in pw.inp   Done                     12/31/2018 17:56:09
00019 suncat0048 pw.x -in pw.inp   Done                     12/31/2018 17:56:09
00020 suncat0048 pw.x -in pw.inp   Done                     12/31/2018 17:56:09
00021 suncat0048 pw.x -in pw.inp   Done                     12/31/2018 17:56:09
00022 suncat0048 pw.x -in pw.inp   Done                     12/31/2018 17:56:09
00023 suncat0048 pw.x -in pw.inp   Done                     12/31/2018 17:56:09
00024 suncat0047 pw.x -in pw.inp   Done                     12/31/2018 17:56:09
00025 suncat0047 pw.x -in pw.inp   Done                     12/31/2018 17:56:09
00026 suncat0047 pw.x -in pw.inp   Done                     12/31/2018 17:56:09
00027 suncat0047 pw.x -in pw.inp   Done                     12/31/2018 17:56:09
00028 suncat0047 pw.x -in pw.inp   Done                     12/31/2018 17:56:09
00029 suncat0047 pw.x -in pw.inp   Done                     12/31/2018 17:56:09
00030 suncat0047 pw.x -in pw.inp   Done                     12/31/2018 17:56:09
00031 suncat0047 pw.x -in pw.inp   Done                     12/31/2018 17:56:09
00032 suncat0041 pw.x -in pw.inp   Done                     12/31/2018 17:56:09
00033 suncat0041 pw.x -in pw.inp   Done                     12/31/2018 17:56:09
00034 suncat0041 pw.x -in pw.inp   Done                     12/31/2018 17:56:09
00035 suncat0041 pw.x -in pw.inp   Done                     12/31/2018 17:56:09
00036 suncat0041 pw.x -in pw.inp   Done                     12/31/2018 17:56:09
00037 suncat0041 pw.x -in pw.inp   Done                     12/31/2018 17:56:09
00038 suncat0041 pw.x -in pw.inp   Done                     12/31/2018 17:56:09
00039 suncat0041 pw.x -in pw.inp   Done                     12/31/2018 17:56:09
00040 suncat0039 pw.x -in pw.inp   Done                     12/31/2018 17:56:09
00041 suncat0039 pw.x -in pw.inp   Done                     12/31/2018 17:56:09
00042 suncat0039 pw.x -in pw.inp   Done                     12/31/2018 17:56:09
00043 suncat0039 pw.x -in pw.inp   Done                     12/31/2018 17:56:09
00044 suncat0039 pw.x -in pw.inp   Done                     12/31/2018 17:56:09
00045 suncat0039 pw.x -in pw.inp   Done                     12/31/2018 17:56:09
00046 suncat0039 pw.x -in pw.inp   Done                     12/31/2018 17:56:09
00047 suncat0039 pw.x -in pw.inp   Done                     12/31/2018 17:56:09
00048 suncat0207 pw.x -in pw.inp   Done                     12/31/2018 17:56:09
00049 suncat0207 pw.x -in pw.inp   Done                     12/31/2018 17:56:09
00050 suncat0207 pw.x -in pw.inp   Done                     12/31/2018 17:56:09
00051 suncat0207 pw.x -in pw.inp   Done                     12/31/2018 17:56:09
00052 suncat0207 pw.x -in pw.inp   Done                     12/31/2018 17:56:09
00053 suncat0207 pw.x -in pw.inp   Done                     12/31/2018 17:56:09
00054 suncat0207 pw.x -in pw.inp   Done                     12/31/2018 17:56:09
00055 suncat0207 pw.x -in pw.inp   Done                     12/31/2018 17:56:09
00056 suncat0206 pw.x -in pw.inp   Done                     12/31/2018 17:56:09
00057 suncat0206 pw.x -in pw.inp   Done                     12/31/2018 17:56:09
00058 suncat0206 pw.x -in pw.inp   Done                     12/31/2018 17:56:09
00059 suncat0206 pw.x -in pw.inp   Done                     12/31/2018 17:56:09
00060 suncat0206 pw.x -in pw.inp   Done                     12/31/2018 17:56:09
00061 suncat0206 pw.x -in pw.inp   Done                     12/31/2018 17:56:09
00062 suncat0206 pw.x -in pw.inp   Done                     12/31/2018 17:56:09
00063 suncat0206 pw.x -in pw.inp   Done                     12/31/2018 17:56:09