     Program PWSCF v.5.1rc2 (svn rev. 11289) starts on 18Dec2018 at 19:31:48

     Current dimensions of program PWSCF are:
     Max number of different atomic species (ntypx) = 10
     Max number of k-points (npk) =  40000
     Max angular momentum in pseudopotentials (lmaxx) =  3
     Presently stress not available with electric field

     IMPORTANT: XC functional enforced from input :
     Exchange-correlation      = BEEF-VDW ( 1  4 27 13 2)
     Any further DFT definition will be discarded
     Please, verify this is what you really want

     Subspace diagonalization in iterative solution of the eigenvalue problem:
     a serial algorithm will be used

     Found symmetry operation: I + (  0.5000  0.0000  0.0000)
     This is a supercell, fractional translations are disabled

     bravais-lattice index     =            0
     lattice parameter (alat)  =       1.8897  a.u.
     unit-cell volume          =    5059.1647 (a.u.)^3
     number of atoms/cell      =           12
     number of atomic types    =            2
     number of electrons       =       156.00
     number of Kohn-Sham states=          108
     kinetic-energy cutoff     =      36.7493  Ry
     charge density cutoff     =     367.4932  Ry
     convergence threshold     =      1.0E-06
     mixing beta               =       0.1000
     number of iterations used =           10  plain     mixing
     Exchange-correlation      = BEEF-VDW ( 1  4 27 13 2)
     nstep                     =           50

     celldm(1)=   1.889726  celldm(2)=   0.000000  celldm(3)=   0.000000
     celldm(4)=   0.000000  celldm(5)=   0.000000  celldm(6)=   0.000000

     crystal axes: (cart. coord. in units of alat)
               a(1) = (   5.542965   0.000000   0.000000 )
               a(2) = (  -2.771482   5.459057   0.000000 )
               a(3) = (   0.000000   0.000000  24.775501 )

     reciprocal axes: (cart. coord. in units 2 pi/alat)
               b(1) = (  0.180409  0.091591  0.000000 )
               b(2) = (  0.000000  0.183182  0.000000 )
               b(3) = (  0.000000  0.000000  0.040362 )

     PseudoPot. # 1 for Cd read from file:
     /afs/slac.stanford.edu/u/if/mamunm/psp/gbrv1.5pbe/Cd.UPF
     MD5 check sum: 17164a7926edb8e0dc231208abae86a6
     Pseudo is Ultrasoft + core correction, Zval = 12.0
     Generated by new atomic code, or converted to UPF format
     Using radial grid of  889 points,  6 beta functions with:
                l(1) =   0
                l(2) =   0
                l(3) =   1
                l(4) =   1
                l(5) =   2
                l(6) =   2
     Q(r) pseudized with  6 coefficients,  rinner =    1.000   1.000   1.000
                                                       1.000   1.000

     PseudoPot. # 2 for W  read from file:
     /afs/slac.stanford.edu/u/if/mamunm/psp/gbrv1.5pbe/W.UPF
     MD5 check sum: 9c083fa34c2a2ea0f02f1f893e16e1c8
     Pseudo is Ultrasoft + core correction, Zval = 14.0
     Generated by new atomic code, or converted to UPF format
     Using radial grid of  923 points,  8 beta functions with:
                l(1) =   0
                l(2) =   0
                l(3) =   0
                l(4) =   1
                l(5) =   1
                l(6) =   2
                l(7) =   2
                l(8) =   3
     Q(r) pseudized with  6 coefficients,  rinner =    1.350   1.350   1.350
                                                       1.350   1.350   1.350
                                                       1.350

     vdW kernel table read from file vdW_kernel_table
     MD5 check sum: 095c7af220d748ca6e76c0b4c6cfb241

     atomic species   valence    mass     pseudopotential
        Cd1           12.00   112.41400     Cd( 1.00)
        W1            14.00   183.84000     W ( 1.00)

     No symmetry found

   Cartesian axes

     site n.     atom                  positions (alat units)
         1           Cd1 tau(   1) = (   0.0000000   0.0000000  10.0000000  )
         2           Cd1 tau(   2) = (   2.7714825   0.0000000  10.0000000  )
         3           W1  tau(   3) = (   1.3857412   2.7295286  10.0000000  )
         4           W1  tau(   4) = (  -1.3857412   2.7295286  10.0000000  )
         5           Cd1 tau(   5) = (   2.7714825   1.4070406  12.3877504  )
         6           Cd1 tau(   6) = (   0.0000000   1.4070406  12.3877504  )
         7           W1  tau(   7) = (  -1.3857412   4.1365692  12.3877504  )
         8           W1  tau(   8) = (   1.3857412   4.1365692  12.3877504  )
         9           Cd1 tau(   9) = (  -0.0000000   2.8140812  14.7755007  )
        10           Cd1 tau(  10) = (   2.7714825   2.8140812  14.7755007  )
        11           W1  tau(  11) = (   4.1572237   0.0845526  14.7755007  )
        12           W1  tau(  12) = (   1.3857412   0.0845526  14.7755007  )

     number of k points=    20  Fermi-Dirac smearing, width (Ry)=  0.0110
                       cart. coord. in units 2pi/alat
        k(    1) = (   0.0000000   0.0000000   0.0000000), wk =   0.0555556
        k(    2) = (   0.0000000   0.0305303   0.0000000), wk =   0.1111111
        k(    3) = (   0.0000000   0.0610606   0.0000000), wk =   0.1111111
        k(    4) = (   0.0000000  -0.0915909   0.0000000), wk =   0.0555556
        k(    5) = (   0.0300681   0.0152652   0.0000000), wk =   0.1111111
        k(    6) = (   0.0300681   0.0457955   0.0000000), wk =   0.1111111
        k(    7) = (   0.0300681   0.0763258   0.0000000), wk =   0.1111111
        k(    8) = (   0.0300681  -0.0763258   0.0000000), wk =   0.1111111
        k(    9) = (   0.0300681  -0.0457955   0.0000000), wk =   0.1111111
        k(   10) = (   0.0300681  -0.0152652   0.0000000), wk =   0.1111111
        k(   11) = (   0.0601363   0.0305303   0.0000000), wk =   0.1111111
        k(   12) = (   0.0601363   0.0610606   0.0000000), wk =   0.1111111
        k(   13) = (   0.0601363   0.0915909   0.0000000), wk =   0.1111111
        k(   14) = (   0.0601363  -0.0610606   0.0000000), wk =   0.1111111
        k(   15) = (   0.0601363  -0.0305303   0.0000000), wk =   0.1111111
        k(   16) = (   0.0601363   0.0000000   0.0000000), wk =   0.1111111
        k(   17) = (  -0.0902044  -0.0457955   0.0000000), wk =   0.0555556
        k(   18) = (  -0.0902044  -0.0152652   0.0000000), wk =   0.1111111
        k(   19) = (  -0.0902044   0.0152652   0.0000000), wk =   0.1111111
        k(   20) = (  -0.0902044  -0.1373864   0.0000000), wk =   0.0555556

     Largest allocated arrays     est. size (Mb)     dimensions
     Largest temporary arrays     est. size (Mb)     dimensions

     Initial potential from superposition of free atoms
     Check: negative starting charge=   -0.510921

     starting charge  152.39771, renormalised to  156.00000

     negative rho (up, down):  5.230E-01 0.000E+00

     *
     * You are using vdW-DF for exchange-correlation in this calculation.
     * Please cite the following three references that made this development
     * possible:
     *
     *   M. Dion, H. Rydberg, E. Schroder, D. C. Langreth, and
     *   B. I. Lundqvist, Phys. Rev. Lett. 92, 246401 (2004).
     *
     *   T. Thonhauser, V. R. Cooper, S. Li, A. Puzder, P. Hyldgaard, and
     *   D. C. Langreth, Phys. Rev. B 76, 125112 (2007).
     *
     *   G. Roman-Perez and J. M. Soler, Phys. Rev. Lett. 103, 096102 (2009).
     *
     *
     * If you are using vdW-DF2, please also cite:
     *
     *   K. Lee, E. D. Murray, L. Kong, B. I. Lundqvist, and
     *   D. C. Langreth, Phys. Rev. B 82, 081101(R) (2010).
     *
     *
     * If you are calculating the stress with vdW-DF, please also cite:
     *
     *   R. Sabatini, E. Kucukbenli, B. Kolb, T. Thonhauser, and
     *   S. de Gironcoli, J. Phys.: Condens. Matter 24, 424209 (2012).
     *

     Carrying out vdW-DF run using the following parameters:

     Nqs =      20    Nr_points =    1024   r_max =   100.000
     q_mesh =
               0.00001000     0.04494208     0.09755937     0.15916263
               0.23128650     0.31572767     0.41458969     0.53033537
               0.66584808     0.82450364     1.01025438     1.22772762
               1.48234092     1.78043706     2.12944203     2.53805004
               3.01644009     3.57652955     4.23227104     5.00000000

     Gradients computed in reciprocal space

     Adding external electric field

     Computed dipole along edir(3) :
        Dipole               -0.0000 Ry au,         -0.0000 Debye
        Dipole field         -0.0000 Ry au

        Potential amp.        0.0000 Ry
        Total length         45.6484 bohr

     Starting wfc are  132 randomized atomic wfcs

     Self-consistent Calculation

     iteration #  1     ecut=    36.75 Ry     beta=0.10
     Davidson diagonalization with overlap
     ethr =  1.00E-02,  avg # of iterations =  7.7

     Threshold (ethr) on eigenvalues was too large:
     Diagonalizing with lowered threshold

     Davidson diagonalization with overlap
     ethr =  6.27E-04,  avg # of iterations =  4.8

[...]

     total energy              =   -1658.47893738 Ry
     Harris-Foulkes estimate   =   -1658.62063527 Ry
     estimated scf accuracy    <       1.03745313 Ry

[...]

     End of self-consistent calculation

          k = 0.0000 0.0000 0.0000 ( 19031 PWs)   bands (ev):

   -73.1443 -73.0957 -73.0766 -73.0722 -73.0288 -73.0245 -37.5448 -37.4574
   -37.3856 -37.3780 -37.3670 -37.2905 -37.2315 -37.2070 -37.2055 -37.1577
   -37.1510 -37.1266 -37.0780 -36.9150 -36.8449 -36.7912 -36.6448 -36.6412
    -8.6862  -8.4960  -8.2765  -8.2599  -8.2593  -8.1413  -8.1089  -8.0278
    -7.8772  -7.8762  -7.8592  -7.7428  -7.4763  -7.4763  -7.3465  -7.3403
    -7.3067  -7.2557  -7.2541  -7.1843  -7.1837  -7.1782  -7.0503  -7.0107
    -6.9698  -6.8573  -6.8283  -6.8230  -6.7444  -6.6846  -6.3356  -5.1356
    -3.0521  -2.2882  -2.1827  -2.0832  -2.0377  -1.7438  -1.3142  -1.2506
    -0.8839  -0.8767  -0.6232  -0.4738   0.1130   0.1490   0.1512   0.2405
     1.0175   1.0211   1.1665   1.3096   1.3461   1.4628   1.8204   2.0735
     2.0921   2.1119   2.2287   2.3474   2.8070   2.9119   3.1128   3.2671
     3.5190   3.5997   3.8109   3.9373   3.9835   3.9938   4.3662   4.9012
     5.0147   5.1385   5.2944   5.4593   5.5001   5.6521   5.8906   6.1316
     6.5843   6.8217   7.0646   7.9295

[...]

          k =-0.0902-0.0458 0.0000 ( 19098 PWs)   bands (ev):

[...]

     the Fermi energy is     1.3848 ev

!    total energy              =   -1658.35030353 Ry
     Harris-Foulkes estimate   =   -1658.35031373 Ry
     estimated scf accuracy    <       0.00000036 Ry

     The total energy is the sum of the following terms:

     one-electron contribution =  -11693.96729432 Ry
     hartree contribution      =    5883.85003969 Ry
     xc contribution           =    -499.80333404 Ry
     ewald contribution        =    4651.63888789 Ry
     electric field correction =       0.00000000 Ry
     smearing contrib. (-TS)   =      -0.06860274 Ry

     convergence has been achieved in  15 iterations

 BEEF-vdW xc energy contributions
           1 :   -439.025045452613
           2 :    404.190857593988
           3 :   -343.949235467259
           4 :    273.250221732894
[...]

[...]

     Program PWSCF v.5.1rc2 (svn rev. 11289) starts on 18Dec2018 at 20:45: 9

[...]

     Found symmetry operation: I + (  0.5000  0.0000  0.0000)
     This is a supercell, fractional translations are disabled

[...]

   This run was terminated on:  21: 0: 2  18Dec2018

[...]

     Program PWSCF v.5.1rc2 (svn rev. 11289) starts on 18Dec2018 at 21: 0: 8

[...]

     Program PWSCF v.5.1rc2 (svn rev. 11289) starts on 18Dec2018 at 21:45:28

[...]

   This run was terminated on:  22: 0:49  18Dec2018

[...]

     Program PWSCF v.5.1rc2 (svn rev. 11289) starts on 18Dec2018 at 22: 0:56

     Current dimensions of program PWSCF are:
     Max number of different atomic species (ntypx) = 10
     Max number of k-points (npk) =  40000
     Max angular momentum in pseudopotentials (lmaxx) =  3
     Presently stress not available with electric field

     IMPORTANT: XC functional enforced from input :
     Exchange-correlation      = BEEF-VDW ( 1  4 27 13 2)
     Any further DFT definition will be discarded
     Please, verify this is what you really want

     Subspace diagonalization in iterative solution of the eigenvalue problem:
     a serial algorithm will be used

     bravais-lattice index     =            0
     lattice parameter (alat)  =       1.8897  a.u.
     unit-cell volume          =    5059.1647 (a.u.)^3
     number of atoms/cell      =           12
     number of atomic types    =            2
     number of electrons       =       156.00
     number of Kohn-Sham states=          108
     kinetic-energy cutoff     =      36.7493  Ry
     charge density cutoff     =     367.4932  Ry
     convergence threshold     =      1.0E-06
     mixing beta               =       0.1000
     number of iterations used =           10  plain     mixing
     Exchange-correlation      = BEEF-VDW ( 1  4 27 13 2)
     nstep                     =           50

     celldm(1)=   1.889726  celldm(2)=   0.000000  celldm(3)=   0.000000
     celldm(4)=   0.000000  celldm(5)=   0.000000  celldm(6)=   0.000000

     crystal axes: (cart. coord. in units of alat)
               a(1) = (   5.542965   0.000000   0.000000 )
               a(2) = (  -2.771482   5.459057   0.000000 )
               a(3) = (   0.000000   0.000000  24.775501 )

     reciprocal axes: (cart. coord. in units 2 pi/alat)
               b(1) = (  0.180409  0.091591  0.000000 )
               b(2) = (  0.000000  0.183182  0.000000 )
               b(3) = (  0.000000  0.000000  0.040362 )

     PseudoPot. # 1 for Cd read from file:
     /afs/slac.stanford.edu/u/if/mamunm/psp/gbrv1.5pbe/Cd.UPF
     MD5 check sum: 17164a7926edb8e0dc231208abae86a6
     Pseudo is Ultrasoft + core correction, Zval = 12.0
     Generated by new atomic code, or converted to UPF format
     Using radial grid of  889 points,  6 beta functions with:
                l(1) =   0
                l(2) =   0
                l(3) =   1
                l(4) =   1
                l(5) =   2
                l(6) =   2
     Q(r) pseudized with  6 coefficients,  rinner =    1.000   1.000   1.000
                                                       1.000   1.000

     PseudoPot. # 2 for W  read from file:
     /afs/slac.stanford.edu/u/if/mamunm/psp/gbrv1.5pbe/W.UPF
     MD5 check sum: 9c083fa34c2a2ea0f02f1f893e16e1c8
     Pseudo is Ultrasoft + core correction, Zval = 14.0
     Generated by new atomic code, or converted to UPF format
     Using radial grid of  923 points,  8 beta functions with:
                l(1) =   0
                l(2) =   0
                l(3) =   0
                l(4) =   1
                l(5) =   1
                l(6) =   2
                l(7) =   2
                l(8) =   3
     Q(r) pseudized with  6 coefficients,  rinner =    1.350   1.350   1.350
                                                       1.350   1.350   1.350
                                                       1.350

     vdW kernel table read from file vdW_kernel_table
     MD5 check sum: 095c7af220d748ca6e76c0b4c6cfb241

     atomic species   valence    mass     pseudopotential
        Cd1           12.00   112.41400     Cd( 1.00)
        W1            14.00   183.84000     W ( 1.00)

     No symmetry found

   Cartesian axes

     site n.     atom                  positions (alat units)
         1           Cd1 tau(   1) = (   0.0000000   0.0000000  10.0000000  )
         2           Cd1 tau(   2) = (   2.7714825   0.0000000  10.0000000  )
         3           W1  tau(   3) = (   1.3857412   2.7295286  10.0000000  )
         4           W1  tau(   4) = (  -1.3857412   2.7295286  10.0000000  )
         5           Cd1 tau(   5) = (   2.7714825   1.4070406  12.3877504  )
         6           Cd1 tau(   6) = (   0.0000000   1.4070406  12.3877504  )
         7           W1  tau(   7) = (  -1.3857412   4.1365692  12.3877504  )
         8           W1  tau(   8) = (   1.3857412   4.1365692  12.3877504  )
         9           Cd1 tau(   9) = (  -0.0000277   2.6704223  15.1467873  )
        10           Cd1 tau(  10) = (   2.7715563   2.6704361  15.1467136  )
        11           W1  tau(  11) = (   1.3858295   5.3200424  14.6195964  )
        12           W1  tau(  12) = (  -1.3856625   5.3200277  14.6195819  )

     number of k points=    20  Fermi-Dirac smearing, width (Ry)=  0.0110
                       cart. coord. in units 2pi/alat
        k(    1) = (   0.0000000   0.0000000   0.0000000), wk =   0.0555556
        k(    2) = (   0.0000000   0.0305303   0.0000000), wk =   0.1111111
        k(    3) = (   0.0000000   0.0610606   0.0000000), wk =   0.1111111
        k(    4) = (   0.0000000  -0.0915909   0.0000000), wk =   0.0555556
        k(    5) = (   0.0300681   0.0152652   0.0000000), wk =   0.1111111
        k(    6) = (   0.0300681   0.0457955   0.0000000), wk =   0.1111111
        k(    7) = (   0.0300681   0.0763258   0.0000000), wk =   0.1111111
        k(    8) = (   0.0300681  -0.0763258   0.0000000), wk =   0.1111111
        k(    9) = (   0.0300681  -0.0457955   0.0000000), wk =   0.1111111
        k(   10) = (   0.0300681  -0.0152652   0.0000000), wk =   0.1111111
        k(   11) = (   0.0601363   0.0305303   0.0000000), wk =   0.1111111
        k(   12) = (   0.0601363   0.0610606   0.0000000), wk =   0.1111111
        k(   13) = (   0.0601363   0.0915909   0.0000000), wk =   0.1111111
        k(   14) = (   0.0601363  -0.0610606   0.0000000), wk =   0.1111111
        k(   15) = (   0.0601363  -0.0305303   0.0000000), wk =   0.1111111
        k(   16) = (   0.0601363   0.0000000   0.0000000), wk =   0.1111111
        k(   17) = (  -0.0902044  -0.0457955   0.0000000), wk =   0.0555556
        k(   18) = (  -0.0902044  -0.0152652   0.0000000), wk =   0.1111111
        k(   19) = (  -0.0902044   0.0152652   0.0000000), wk =   0.1111111
        k(   20) = (  -0.0902044  -0.1373864   0.0000000), wk =   0.0555556

     Largest allocated arrays     est. size (Mb)     dimensions
     Largest temporary arrays     est. size (Mb)     dimensions

     Initial potential from superposition of free atoms
     Check: negative starting charge=   -0.513183

     starting charge  152.39771, renormalised to  156.00000

[...]

     *
     * You are using vdW-DF for exchange-correlation in this calculation.
     * Please cite the following three references that made this development
     * possible:
     *
     *   M. Dion, H. Rydberg, E. Schroder, D. C. Langreth, and
     *   B. I. Lundqvist, Phys. Rev. Lett. 92, 246401 (2004).
     *
     *   T. Thonhauser, V. R. Cooper, S. Li, A. Puzder, P. Hyldgaard, and
     *   D. C. Langreth, Phys. Rev. B 76, 125112 (2007).
     *
     *   G. Roman-Perez and J. M. Soler, Phys. Rev. Lett. 103, 096102 (2009).
     *
     *
     * If you are using vdW-DF2, please also cite:
     *
     *   K. Lee, E. D. Murray, L. Kong, B. I. Lundqvist, and
     *   D. C. Langreth, Phys. Rev. B 82, 081101(R) (2010).
     *
     *
     * If you are calculating the stress with vdW-DF, please also cite:
     *
     *   R. Sabatini, E. Kucukbenli, B. Kolb, T. Thonhauser, and
     *   S. de Gironcoli, J. Phys.: Condens. Matter 24, 424209 (2012).
     *

     Carrying out vdW-DF run using the following parameters:

     Nqs =      20    Nr_points =    1024   r_max =   100.000
     q_mesh =
               0.00001000     0.04494208     0.09755937     0.15916263
               0.23128650     0.31572767     0.41458969     0.53033537
               0.66584808     0.82450364     1.01025438     1.22772762
               1.48234092     1.78043706     2.12944203     2.53805004
               3.01644009     3.57652955     4.23227104     5.00000000

     Gradients computed in reciprocal space

[...]

     Starting wfc are  132 randomized atomic wfcs

     Self-consistent Calculation

[...]

     total energy              =   -1658.40318206 Ry
     Harris-Foulkes estimate   =   -1658.40318451 Ry
     estimated scf accuracy    <       0.00000144 Ry

     iteration # 16     ecut=    36.75 Ry     beta=0.10
     Davidson diagonalization with overlap
     ethr =  9.26E-10,  avg # of iterations =  2.5

[...]

     negative rho (up, down):  5.335E-01 0.000E+00

     Adding external electric field

     Computed dipole along edir(3) :
        Dipole                0.0512 Ry au,          0.1300 Debye
        Dipole field          0.0001 Ry au

        Potential amp.       -0.0116 Ry
        Total length         45.6484 bohr

     End of self-consistent calculation

[...]

          k = 0.0601 0.0000 0.0000 ( 19038 PWs)   bands (ev):

[...]

          k =-0.0902-0.1374 0.0000 ( 19098 PWs)   bands (ev):

   -73.0318 -73.0318 -73.0021 -73.0021 -72.8990 -72.8990 -37.5158 -37.5158
   -37.1689 -37.1689 -37.1378 -37.1378 -37.0956 -37.0956 -37.0833 -37.0832
   -37.0166 -37.0166 -36.9951 -36.9951 -36.9182 -36.9182 -36.5858 -36.5858
    -7.9793  -7.9793  -7.8242  -7.8241  -7.7617  -7.7617  -7.6783  -7.6783
    -7.6325  -7.6325  -7.3367  -7.3367  -7.3057  -7.3057  -7.2463  -7.2460
    -7.2273  -7.2273  -7.1700  -7.1699  -7.1297  -7.1296  -7.1049  -7.1049
    -7.0552  -7.0551  -6.9901  -6.9901  -6.9463  -6.9463  -5.0653  -5.0653
    -3.4202  -3.4201  -2.4908  -2.4908  -1.8375  -1.8375  -1.0937  -1.0937
    -0.4075  -0.4074  -0.3509  -0.3509   0.2595   0.2595   0.3989   0.3989
     0.5450   0.5450   1.0089   1.0089   1.0804   1.0805   1.2950   1.2950
     1.6528   1.6528   1.8361   1.8361   2.4973   2.4973   2.9115   2.9115
     3.4614   3.4615   3.6105   3.6105   3.8322   3.8323   4.6678   4.6678
     5.1791   5.1791   6.3962   6.3962   6.7049   6.7049   7.1048   7.1048
     7.2935   7.2936   7.6091   7.6092

     the Fermi energy is     1.4262 ev

!    total energy              =   -1658.40317431 Ry
     Harris-Foulkes estimate   =   -1658.40318212 Ry
     estimated scf accuracy    <       0.00000044 Ry

     The total energy is the sum of the following terms:

     one-electron contribution =  -11537.75420983 Ry
     hartree contribution      =    5806.20168191 Ry
     xc contribution           =    -499.84503286 Ry
     ewald contribution        =    4573.05985469 Ry
     electric field correction =       0.00000650 Ry
     smearing contrib. (-TS)   =      -0.06547473 Ry

     convergence has been achieved in  16 iterations

 BEEF-vdW xc energy contributions
           1 :   -439.058053513035
           2 :    404.168856111758
           3 :   -343.863475616212
           4 :    273.138376966832
           5 :   -206.810600761749
           6 :    154.686992134776
           7 :   -119.458929340178
           8 :    97.7835397412962
           9 :   -83.5233999964233
          10 :    71.2872112412498
          11 :   -58.5933227835876
          12 :    45.9596565671270
          13 :   -35.4013391302242
          14 :    28.5309732279962
          15 :   -25.4006275141175
          16 :    24.5677056037975
          17 :   -24.0803464141057
          18 :    22.6187145314044
          19 :   -20.0875816873894
          20 :    17.3986579529227
          21 :   -15.6930702909179
          22 :    15.5430341003894
          23 :   -16.6093647349567
          24 :    17.9005113911804
          25 :   -18.4074507731375
          26 :    17.6948076126616
          27 :   -16.1005483113993
          28 :    14.4618436344995
          29 :   -13.5714180407946
          30 :    13.7100152009745
          31 :   -39.5772095104579
          32 :   -29.2889276337912

     Forces acting on atoms (Ry/au):

     negative rho (up, down):  5.335E-01 0.000E+00
     atom    1 type  1   force =     0.00000395   -0.01029206   -0.04500472
     atom    2 type  1   force =    -0.00000198   -0.01029370   -0.04500789
     atom    3 type  2   force =     0.00000067    0.01958800    0.04293703
     atom    4 type  2   force =     0.00000022    0.01958728    0.04293781
     atom    5 type  1   force =    -0.00001353    0.01528333    0.02050299
     atom    6 type  1   force =    -0.00000810    0.01528372    0.02050816
     atom    7 type  2   force =    -0.00000205   -0.02456097   -0.01787634
     atom    8 type  2   force =    -0.00000364   -0.02455443   -0.01786466
     atom    9 type  1   force =     0.00004369   -0.00022238   -0.00106500
     atom   10 type  1   force =    -0.00002075   -0.00022268   -0.00106398
     atom   11 type  2   force =    -0.00000002    0.00019655    0.00049449
     atom   12 type  2   force =     0.00000154    0.00020734    0.00050212

     Total force =     0.108966     Total SCF correction =     0.001679

     entering subroutine stress ...

     negative rho (up, down):  5.335E-01 0.000E+00
          total   stress  (Ry/bohr**3)                   (kbar)     P=  -22.44
  -0.00020161   0.00000000   0.00000001        -29.66      0.00      0.00
   0.00000000  -0.00020792  -0.00001676          0.00    -30.59     -2.47
   0.00000001  -0.00001676  -0.00004819          0.00     -2.47     -7.09

 !ASE

     Writing output data file calc.save

     General routines

     Parallel routines

   This run was terminated on:  22:16:19  18Dec2018

   JOB DONE.
Job  /afs/slac/g/suncat/bin/suncat-tsmpirun -x LD_LIBRARY_PATH -wdir /scratch/qe529660_xBlgR pw.x -in pw.inp

TID   HOST_NAME   COMMAND_LINE            STATUS            TERMINATION_TIME
00000 suncat0094 pw.x -in pw.inp   Done                     12/18/2018 22:16:19
00001 suncat0094 pw.x -in pw.inp   Done                     12/18/2018 22:16:19
00002 suncat0094 pw.x -in pw.inp   Done                     12/18/2018 22:16:19
00003 suncat0094 pw.x -in pw.inp   Done                     12/18/2018 22:16:19
00004 suncat0094 pw.x -in pw.inp   Done                     12/18/2018 22:16:19
00005 suncat0094 pw.x -in pw.inp   Done                     12/18/2018 22:16:19
00006 suncat0094 pw.x -in pw.inp   Done                     12/18/2018 22:16:19
00007 suncat0094 pw.x -in pw.inp   Done                     12/18/2018 22:16:19
00008 suncat0093 pw.x -in pw.inp   Done                     12/18/2018 22:16:19
00009 suncat0093 pw.x -in pw.inp   Done                     12/18/2018 22:16:19
00010 suncat0093 pw.x -in pw.inp   Done                     12/18/2018 22:16:19
00011 suncat0093 pw.x -in pw.inp   Done                     12/18/2018 22:16:19
00012 suncat0093 pw.x -in pw.inp   Done                     12/18/2018 22:16:19
00013 suncat0093 pw.x -in pw.inp   Done                     12/18/2018 22:16:19
00014 suncat0093 pw.x -in pw.inp   Done                     12/18/2018 22:16:19
00015 suncat0093 pw.x -in pw.inp   Done                     12/18/2018 22:16:19
00016 suncat0092 pw.x -in pw.inp   Done                     12/18/2018 22:16:19
00017 suncat0092 pw.x -in pw.inp   Done                     12/18/2018 22:16:19
00018 suncat0092 pw.x -in pw.inp   Done                     12/18/2018 22:16:19
00019 suncat0092 pw.x -in pw.inp   Done                     12/18/2018 22:16:19
00020 suncat0092 pw.x -in pw.inp   Done                     12/18/2018 22:16:19
00021 suncat0092 pw.x -in pw.inp   Done                     12/18/2018 22:16:19
00022 suncat0092 pw.x -in pw.inp   Done                     12/18/2018 22:16:19
00023 suncat0092 pw.x -in pw.inp   Done                     12/18/2018 22:16:19
00024 suncat0091 pw.x -in pw.inp   Done                     12/18/2018 22:16:19
00025 suncat0091 pw.x -in pw.inp   Done                     12/18/2018 22:16:19
00026 suncat0091 pw.x -in pw.inp   Done                     12/18/2018 22:16:19
00027 suncat0091 pw.x -in pw.inp   Done                     12/18/2018 22:16:19
00028 suncat0091 pw.x -in pw.inp   Done                     12/18/2018 22:16:19
00029 suncat0091 pw.x -in pw.inp   Done                     12/18/2018 22:16:19
00030 suncat0091 pw.x -in pw.inp   Done                     12/18/2018 22:16:19
00031 suncat0091 pw.x -in pw.inp   Done                     12/18/2018 22:16:19