     Program PWSCF v.5.1rc2 (svn rev. 11289) starts on 26Dec2018 at  4: 0:33

     Current dimensions of program PWSCF are:
     Max number of different atomic species (ntypx) = 10
     Max number of k-points (npk) =  40000
     Max angular momentum in pseudopotentials (lmaxx) =  3
     Presently stress not available with electric field

     IMPORTANT: XC functional enforced from input :
     Exchange-correlation      = BEEF-VDW ( 1  4 27 13 2)
     Any further DFT definition will be discarded
     Please, verify this is what you really want

     Subspace diagonalization in iterative solution of the eigenvalue problem:
     a serial algorithm will be used

     bravais-lattice index     =            0
     lattice parameter (alat)  =       1.8897  a.u.
     unit-cell volume          =    4716.6767 (a.u.)^3
     number of atoms/cell      =           12
     number of atomic types    =            2
     number of electrons       =       210.00
     number of Kohn-Sham states=          135
     kinetic-energy cutoff     =      36.7493  Ry
     charge density cutoff     =     367.4932  Ry
     convergence threshold     =      1.0E-06
     mixing beta               =       0.1000
     number of iterations used =           10  plain     mixing
     Exchange-correlation      = BEEF-VDW ( 1  4 27 13 2)
     nstep                     =           50

     celldm(1)=   1.889726  celldm(2)=   0.000000  celldm(3)=   0.000000
     celldm(4)=   0.000000  celldm(5)=   0.000000  celldm(6)=   0.000000

     crystal axes: (cart. coord. in units of alat)
               a(1) = (   5.719647   0.000000   0.000000 )
               a(2) = (  -2.859824   4.953360   0.000000 )
               a(3) = (   0.000000   0.000000  24.670072 )

     reciprocal axes: (cart. coord. in units 2 pi/alat)
               b(1) = (  0.174836  0.100942  0.000000 )
               b(2) = (  0.000000  0.201883  0.000000 )
               b(3) = (  0.000000  0.000000  0.040535 )

     PseudoPot. # 1 for Ga read from file:
     /afs/slac.stanford.edu/u/if/mamunm/psp/gbrv1.5pbe/Ga.UPF
     MD5 check sum: ccd671392a58a050fbb373893b4fcd66
     Pseudo is Ultrasoft + core correction, Zval = 19.0
     Generated by new atomic code, or converted to UPF format
     Using radial grid of  871 points,  6 beta functions with:
                l(1) =   0
                l(2) =   0
                l(3) =   1
                l(4) =   1
                l(5) =   2
                l(6) =   2
     Q(r) pseudized with  8 coefficients,  rinner =    1.250   1.250   1.250
                                                       1.250   1.250

     PseudoPot. # 2 for Ta read from file:
     /afs/slac.stanford.edu/u/if/mamunm/psp/gbrv1.5pbe/Ta.UPF
     MD5 check sum: f8bbe9446314a3b8ea5d9f3e3836c939
     Pseudo is Ultrasoft + core correction, Zval = 13.0
     Generated by new atomic code, or converted to UPF format
     Using radial grid of  921 points,  7 beta functions with:
                l(1) =   0
                l(2) =   0
                l(3) =   1
                l(4) =   1
                l(5) =   2
                l(6) =   2
                l(7) =   3
     Q(r) pseudized with  6 coefficients,  rinner =    1.300   1.300   1.300
                                                       1.300   1.300   1.300
                                                       1.300

     vdW kernel table read from file vdW_kernel_table
     MD5 check sum: 095c7af220d748ca6e76c0b4c6cfb241

     atomic species   valence    mass     pseudopotential
        Ga1           19.00    69.72300     Ga( 1.00)
        Ta1           13.00   180.94788     Ta( 1.00)

     No symmetry found

   Cartesian axes

     site n.     atom                  positions (alat units)
         1           Ga1 tau(   1) = (   0.0000000   0.0000000  10.0000000  )
         2           Ga1 tau(   2) = (  -1.4299118   2.4766798  10.0000000  )
         3           Ga1 tau(   3) = (   1.4299118   2.4766798  10.0000000  )
         4           Ta1 tau(   4) = (   2.8598235   0.0000000  10.0000000  )
         5           Ga1 tau(   5) = (   2.8598235   1.6511199  12.3350361  )
         6           Ga1 tau(   6) = (   1.4299118   4.1277997  12.3350361  )
         7           Ga1 tau(   7) = (  -1.4299118   4.1277997  12.3350361  )
         8           Ta1 tau(   8) = (   0.0000000   1.6511199  12.3350361  )
         9           Ga1 tau(   9) = (  -0.0000000   3.3022398  14.6700723  )
        10           Ga1 tau(  10) = (   1.4299118   0.8255599  14.6700723  )
        11           Ga1 tau(  11) = (   4.2897353   0.8255599  14.6700723  )
        12           Ta1 tau(  12) = (   2.8598235   3.3022398  14.6700723  )

     number of k points=    20  Fermi-Dirac smearing, width (Ry)=  0.0110
                       cart. coord. in units 2pi/alat
        k(    1) = (   0.0000000   0.0000000   0.0000000), wk =   0.0555556
        k(    2) = (   0.0000000   0.0336472   0.0000000), wk =   0.1111111
        k(    3) = (   0.0000000   0.0672944   0.0000000), wk =   0.1111111
        k(    4) = (   0.0000000  -0.1009416   0.0000000), wk =   0.0555556
        k(    5) = (   0.0291393   0.0168236   0.0000000), wk =   0.1111111
        k(    6) = (   0.0291393   0.0504708   0.0000000), wk =   0.1111111
        k(    7) = (   0.0291393   0.0841180   0.0000000), wk =   0.1111111
        k(    8) = (   0.0291393  -0.0841180   0.0000000), wk =   0.1111111
        k(    9) = (   0.0291393  -0.0504708   0.0000000), wk =   0.1111111
        k(   10) = (   0.0291393  -0.0168236   0.0000000), wk =   0.1111111
        k(   11) = (   0.0582787   0.0336472   0.0000000), wk =   0.1111111
        k(   12) = (   0.0582787   0.0672944   0.0000000), wk =   0.1111111
        k(   13) = (   0.0582787   0.1009416   0.0000000), wk =   0.1111111
        k(   14) = (   0.0582787  -0.0672944   0.0000000), wk =   0.1111111
        k(   15) = (   0.0582787  -0.0336472   0.0000000), wk =   0.1111111
        k(   16) = (   0.0582787   0.0000000   0.0000000), wk =   0.1111111
        k(   17) = (  -0.0874180  -0.0504708   0.0000000), wk =   0.0555556
        k(   18) = (  -0.0874180  -0.0168236   0.0000000), wk =   0.1111111
        k(   19) = (  -0.0874180   0.0168236   0.0000000), wk =   0.1111111
        k(   20) = (  -0.0874180  -0.1514124   0.0000000), wk =   0.0555556

     Largest allocated arrays     est. size (Mb)     dimensions
     Largest temporary arrays     est. size (Mb)     dimensions

     Initial potential from superposition of free atoms
     Check: negative starting charge=   -0.284398

     starting charge  200.99666, renormalised to  210.00000

     negative rho (up, down):  2.971E-01 0.000E+00

     *
     * You are using vdW-DF for exchange-correlation in this calculation.
     * Please cite the following three references that made this development
     * possible:
     *
     *   M. Dion, H. Rydberg, E. Schroder, D. C. Langreth, and
     *   B. I. Lundqvist, Phys. Rev. Lett. 92, 246401 (2004).
     *
     *   T. Thonhauser, V. R. Cooper, S. Li, A. Puzder, P. Hyldgaard, and
     *   D. C. Langreth, Phys. Rev. B 76, 125112 (2007).
     *
     *   G. Roman-Perez and J. M. Soler, Phys. Rev. Lett. 103, 096102 (2009).
     *
     *
     * If you are using vdW-DF2, please also cite:
     *
     *   K. Lee, E. D. Murray, L. Kong, B. I. Lundqvist, and
     *   D. C. Langreth, Phys. Rev. B 82, 081101(R) (2010).
     *
     *
     * If you are calculating the stress with vdW-DF, please also cite:
     *
     *   R. Sabatini, E. Kucukbenli, B. Kolb, T. Thonhauser, and
     *   S. de Gironcoli, J. Phys.: Condens. Matter 24, 424209 (2012).
     *

     Carrying out vdW-DF run using the following parameters:

     Nqs =      20    Nr_points =    1024   r_max =   100.000
     q_mesh =
               0.00001000     0.04494208     0.09755937     0.15916263
               0.23128650     0.31572767     0.41458969     0.53033537
               0.66584808     0.82450364     1.01025438     1.22772762
               1.48234092     1.78043706     2.12944203     2.53805004
               3.01644009     3.57652955     4.23227104     5.00000000

     Gradients computed in reciprocal space

     Adding external electric field

     Computed dipole along edir(3) :
        Dipole               -0.0000 Ry au,         -0.0000 Debye
        Dipole field         -0.0000 Ry au

        Potential amp.        0.0000 Ry
        Total length         45.4542 bohr

     Starting wfc are  147 randomized atomic wfcs

     Self-consistent Calculation

     iteration #  1     ecut=    36.75 Ry     beta=0.10
     Davidson diagonalization with overlap
     ethr =  1.00E-02,  avg # of iterations =  7.7

[...]

     total energy              =   -4180.21754234 Ry
     Harris-Foulkes estimate   =   -4190.41867672 Ry
     estimated scf accuracy    <      57.17466218 Ry

[...]

     End of self-consistent calculation

          k = 0.0000 0.0000 0.0000 ( 17801 PWs)   bands (ev):

   -93.9825 -93.9801 -93.9798 -93.9252 -93.9251 -93.9237 -93.9178 -93.9165
   -93.9163 -93.6947 -93.6947 -93.6926 -93.6925 -93.6925 -93.6925 -93.6572
   -93.6572 -93.6555 -93.6555 -93.6555 -93.6555 -93.6165 -93.6164 -93.6164
   -93.6164 -93.6151 -93.6151 -68.1534 -68.1533 -67.8699 -34.5323 -34.5315
   -34.4068 -34.4068 -34.4067 -34.4067 -34.2442 -34.2442 -34.1817 -14.5364
   -14.4851 -14.4850 -14.4714 -14.3880 -14.3677 -14.3676 -14.3031 -14.3030
   -14.2695 -14.2440 -14.2439 -14.2346 -14.2345 -14.2304 -14.2298 -14.1513
   -14.1513 -14.1263 -14.1263 -14.1252 -14.0977 -14.0830 -14.0585 -14.0448
   -14.0326 -14.0326 -13.9877 -13.9877 -13.9528 -13.9527 -13.9414 -13.9414
   -13.9349 -13.9349 -13.9276 -13.9276 -13.9272 -13.9075 -13.9075 -13.8882
   -13.8746 -13.8746 -13.7767 -13.7765 -10.1134  -8.2360  -6.0855  -5.0101
    -5.0101  -4.0817  -4.0817  -3.4030  -3.2008  -3.2008  -2.5572  -1.9298
    -1.8010  -1.8010  -1.1407  -0.0717   0.0148   0.0148   0.1741   0.1741
     0.9295   0.9295   1.0128   1.0128   1.6677   1.8389   2.3058   2.3058
     2.5440   3.1386   3.3869   3.3869   3.4722   3.4722   3.5341   4.2718
     4.2718   4.4334   4.8041   5.4157   5.8401   5.8401   5.8985   6.2794
     6.3903   6.4539   6.5005   6.5005   6.7415   7.9649   8.1389

[...]

          k =-0.0874-0.0505 0.0000 ( 17736 PWs)   bands (ev):

[...]

     the Fermi energy is     0.9444 ev

!    total energy              =   -4178.90076011 Ry
     Harris-Foulkes estimate   =   -4178.90075551 Ry
     estimated scf accuracy    <       0.00000034 Ry

     The total energy is the sum of the following terms:

     one-electron contribution =  -25538.08879519 Ry
     hartree contribution      =   12770.33152234 Ry
     xc contribution           =    -578.69204973 Ry
     ewald contribution        =    9167.58500135 Ry
     electric field correction =       0.00000000 Ry
     smearing contrib. (-TS)   =      -0.03643889 Ry

     convergence has been achieved in  17 iterations

 BEEF-vdW xc energy contributions
           1 :   -515.191088081491
           2 :    470.074632358714
           3 :   -393.599398566467
           4 :    306.820481769108
           5 :   -228.972483752765
           6 :    170.469108523104
[...]
     Using radial grid of  871 points,  6 beta functions with:
                l(1) =   0
                l(2) =   0
                l(3) =   1
                l(4) =   1
                l(5) =   2
                l(6) =   2
     Q(r) pseudized with  8 coefficients,  rinner =    1.250   1.250   1.250
                                                       1.250   1.250

     PseudoPot. # 2 for Ta read from file:
     /afs/slac.stanford.edu/u/if/mamunm/psp/gbrv1.5pbe/Ta.UPF
     MD5 check sum: f8bbe9446314a3b8ea5d9f3e3836c939
     Pseudo is Ultrasoft + core correction, Zval = 13.0
     Generated by new atomic code, or converted to UPF format
     Using radial grid of  921 points,  7 beta functions with:
                l(1) =   0
                l(2) =   0
                l(3) =   1
                l(4) =   1
                l(5) =   2
                l(6) =   2
                l(7) =   3
     Q(r) pseudized with  6 coefficients,  rinner =    1.300   1.300   1.300
                                                       1.300   1.300   1.300
                                                       1.300

     vdW kernel table read from file vdW_kernel_table
     MD5 check sum: 095c7af220d748ca6e76c0b4c6cfb241

     atomic species   valence    mass     pseudopotential
        Ga1           19.00    69.72300     Ga( 1.00)
        Ta1           13.00   180.94788     Ta( 1.00)

     No symmetry found

   Cartesian axes

     site n.     atom                  positions (alat units)
         1           Ga1 tau(   1) = (   0.0000000   0.0000000  10.0000000  )
         2           Ga1 tau(   2) = (  -1.4299118   2.4766798  10.0000000  )
         3           Ga1 tau(   3) = (   1.4299118   2.4766798  10.0000000  )
         4           Ta1 tau(   4) = (   2.8598235   0.0000000  10.0000000  )
         5           Ga1 tau(   5) = (   2.8598235   1.6511199  12.3350361  )
         6           Ga1 tau(   6) = (   1.4299118   4.1277997  12.3350361  )
         7           Ga1 tau(   7) = (  -1.4299118   4.1277997  12.3350361  )
         8           Ta1 tau(   8) = (   0.0000000   1.6511199  12.3350361  )
         9           Ga1 tau(   9) = (   0.0000004   3.2885997  14.8989353  )
        10           Ga1 tau(  10) = (   1.4180175   0.8324342  14.8990116  )
        11           Ga1 tau(  11) = (   4.3016076   0.8324333  14.8989879  )
        12           Ta1 tau(  12) = (   2.8598260   3.3022370  14.4537943  )

     number of k points=    20  Fermi-Dirac smearing, width (Ry)=  0.0110
                       cart. coord. in units 2pi/alat
        k(    1) = (   0.0000000   0.0000000   0.0000000), wk =   0.0555556
        k(    2) = (   0.0000000   0.0336472   0.0000000), wk =   0.1111111
        k(    3) = (   0.0000000   0.0672944   0.0000000), wk =   0.1111111
        k(    4) = (   0.0000000  -0.1009416   0.0000000), wk =   0.0555556
        k(    5) = (   0.0291393   0.0168236   0.0000000), wk =   0.1111111
        k(    6) = (   0.0291393   0.0504708   0.0000000), wk =   0.1111111
        k(    7) = (   0.0291393   0.0841180   0.0000000), wk =   0.1111111
        k(    8) = (   0.0291393  -0.0841180   0.0000000), wk =   0.1111111
        k(    9) = (   0.0291393  -0.0504708   0.0000000), wk =   0.1111111
        k(   10) = (   0.0291393  -0.0168236   0.0000000), wk =   0.1111111
        k(   11) = (   0.0582787   0.0336472   0.0000000), wk =   0.1111111
        k(   12) = (   0.0582787   0.0672944   0.0000000), wk =   0.1111111
        k(   13) = (   0.0582787   0.1009416   0.0000000), wk =   0.1111111
        k(   14) = (   0.0582787  -0.0672944   0.0000000), wk =   0.1111111
        k(   15) = (   0.0582787  -0.0336472   0.0000000), wk =   0.1111111
        k(   16) = (   0.0582787   0.0000000   0.0000000), wk =   0.1111111
        k(   17) = (  -0.0874180  -0.0504708   0.0000000), wk =   0.0555556
        k(   18) = (  -0.0874180  -0.0168236   0.0000000), wk =   0.1111111
        k(   19) = (  -0.0874180   0.0168236   0.0000000), wk =   0.1111111
        k(   20) = (  -0.0874180  -0.1514124   0.0000000), wk =   0.0555556

     Largest allocated arrays     est. size (Mb)     dimensions
     Largest temporary arrays     est. size (Mb)     dimensions

     Initial potential from superposition of free atoms
     Check: negative starting charge=   -0.284468

     starting charge  200.99666, renormalised to  210.00000

[...]

     *
     * You are using vdW-DF for exchange-correlation in this calculation.
     * Please cite the following three references that made this development
     * possible:
     *
     *   M. Dion, H. Rydberg, E. Schroder, D. C. Langreth, and
     *   B. I. Lundqvist, Phys. Rev. Lett. 92, 246401 (2004).
     *
     *   T. Thonhauser, V. R. Cooper, S. Li, A. Puzder, P. Hyldgaard, and
     *   D. C. Langreth, Phys. Rev. B 76, 125112 (2007).
     *
     *   G. Roman-Perez and J. M. Soler, Phys. Rev. Lett. 103, 096102 (2009).
     *
     *
     * If you are using vdW-DF2, please also cite:
     *
     *   K. Lee, E. D. Murray, L. Kong, B. I. Lundqvist, and
     *   D. C. Langreth, Phys. Rev. B 82, 081101(R) (2010).
     *
     *
     * If you are calculating the stress with vdW-DF, please also cite:
     *
     *   R. Sabatini, E. Kucukbenli, B. Kolb, T. Thonhauser, and
     *   S. de Gironcoli, J. Phys.: Condens. Matter 24, 424209 (2012).
     *

     Carrying out vdW-DF run using the following parameters:

     Nqs =      20    Nr_points =    1024   r_max =   100.000
     q_mesh =
               0.00001000     0.04494208     0.09755937     0.15916263
               0.23128650     0.31572767     0.41458969     0.53033537
               0.66584808     0.82450364     1.01025438     1.22772762
               1.48234092     1.78043706     2.12944203     2.53805004
               3.01644009     3.57652955     4.23227104     5.00000000

     Gradients computed in reciprocal space

[...]

     Starting wfc are  147 randomized atomic wfcs

     Self-consistent Calculation

[...]

     total energy              =   -4178.96645393 Ry
     Harris-Foulkes estimate   =   -4178.96645327 Ry
     estimated scf accuracy    <       0.00000144 Ry

     iteration # 17     ecut=    36.75 Ry     beta=0.10
     Davidson diagonalization with overlap
     ethr =  6.84E-10,  avg # of iterations =  2.0

[...]

     negative rho (up, down):  2.950E-01 0.000E+00

     Adding external electric field

     Computed dipole along edir(3) :
        Dipole                0.0519 Ry au,          0.1319 Debye
        Dipole field          0.0001 Ry au

        Potential amp.       -0.0126 Ry
        Total length         45.4542 bohr

     End of self-consistent calculation

[...]

          k = 0.0583 0.0000 0.0000 ( 17759 PWs)   bands (ev):

[...]

          k =-0.0874-0.1514 0.0000 ( 17736 PWs)   bands (ev):

   -93.8575 -93.8566 -93.8558 -93.7999 -93.7995 -93.7990 -93.7889 -93.7885
   -93.7880 -93.7547 -93.7541 -93.7537 -93.7264 -93.7256 -93.7249 -93.6734
   -93.6730 -93.6725 -93.6013 -93.6006 -93.5998 -93.5632 -93.5627 -93.5622
   -93.5246 -93.5241 -93.5236 -68.1138 -67.9521 -67.8661 -34.5144 -34.3526
   -34.3519 -34.2866 -34.2683 -34.2682 -34.2184 -34.2174 -34.1630 -14.3546
   -14.2920 -14.2753 -14.2442 -14.2267 -14.2255 -14.2185 -14.2040 -14.1978
   -14.1948 -14.1939 -14.1777 -14.1571 -14.1272 -14.1248 -14.1124 -14.1104
   -14.0853 -14.0732 -14.0720 -14.0607 -14.0459 -14.0440 -14.0342 -14.0327
   -14.0309 -14.0305 -14.0033 -13.9811 -13.9766 -13.9698 -13.9637 -13.9368
   -13.9209 -13.9084 -13.8971 -13.8965 -13.8939 -13.8844 -13.8804 -13.8788
   -13.8504 -13.8304 -13.8229 -13.7574  -8.3917  -8.0806  -6.5824  -6.5165
    -5.5396  -5.1696  -4.6019  -3.7639  -3.5162  -2.6889  -2.0199  -1.6744
    -1.3051  -0.9226  -0.7981  -0.6307  -0.4833   0.0434   0.3266   0.7820
     1.0823   1.6532   1.9724   2.1977   2.2524   2.3772   2.4301   2.5631
     2.7609   2.9962   3.5976   3.6768   3.8371   3.8680   4.0646   4.4805
     4.7027   4.9133   5.2903   5.3004   5.4412   5.8710   6.0000   6.0535
     6.2964   6.4590   6.8080   7.0824   7.1234   7.1300   7.5485

     the Fermi energy is     1.0046 ev

!    total energy              =   -4178.96645846 Ry
     Harris-Foulkes estimate   =   -4178.96645437 Ry
     estimated scf accuracy    <       0.00000031 Ry

     The total energy is the sum of the following terms:

     one-electron contribution =  -25052.75331154 Ry
     hartree contribution      =   12528.10331535 Ry
     xc contribution           =    -578.63478457 Ry
     ewald contribution        =    8924.35068616 Ry
     electric field correction =       0.00000718 Ry
     smearing contrib. (-TS)   =      -0.03237104 Ry

     convergence has been achieved in  17 iterations

 BEEF-vdW xc energy contributions
           1 :   -515.785392925281
           2 :    470.619901863076
           3 :   -394.082967298259
           4 :    307.274088796580
           5 :   -229.446783193596
           6 :    170.994625294954
           7 :   -131.747593480226
           8 :    104.585001292372
           9 :   -81.5297165052639
          10 :    58.5315955983747
          11 :   -36.5342621252305
          12 :    19.0405803848697
          13 :   -8.50667203937155
          14 :    4.20635108748627
          15 :   -2.77710014382853
          16 :   0.638248089788021
          17 :    3.69733933461214
          18 :   -9.05158920878148
          19 :    12.9431132539640
          20 :   -13.6886119125929
          21 :    11.6614741301884
          22 :   -8.90337654647601
          23 :    7.54684115655914
          24 :   -8.31675788678342
          25 :    10.1927373861264
          26 :   -11.3684753189813
          27 :    10.6837252165358
          28 :   -8.43758778704500
          29 :    6.04490876002376
          30 :   -4.89883643980113
          31 :   -39.7431698127153
          32 :   -27.7790121311547

     Forces acting on atoms (Ry/au):

     negative rho (up, down):  2.950E-01 0.000E+00
     atom    1 type  1   force =    -0.00000109    0.00320270   -0.03681216
     atom    2 type  1   force =     0.00277776   -0.00160408   -0.03681077
     atom    3 type  1   force =    -0.00277677   -0.00160184   -0.03681287
     atom    4 type  2   force =     0.00000053   -0.00000031    0.10310247
     atom    5 type  1   force =     0.00000151   -0.01361469   -0.00553441
     atom    6 type  1   force =    -0.01179230    0.00680799   -0.00553587
     atom    7 type  1   force =     0.01179124    0.00680585   -0.00553156
     atom    8 type  2   force =     0.00000075   -0.00000122    0.02338720
     atom    9 type  1   force =    -0.00000061   -0.00001665    0.00013235
     atom   10 type  1   force =    -0.00001476    0.00001124    0.00013436
     atom   11 type  1   force =     0.00001407    0.00000873    0.00013362
     atom   12 type  2   force =    -0.00000031    0.00000229    0.00014765

     Total force =     0.126180     Total SCF correction =     0.004201

     entering subroutine stress ...

     negative rho (up, down):  2.950E-01 0.000E+00
          total   stress  (Ry/bohr**3)                   (kbar)     P=  -22.58
  -0.00022661  -0.00000000   0.00000000        -33.34     -0.00      0.00
  -0.00000000  -0.00022661  -0.00000000         -0.00    -33.34     -0.00
   0.00000000  -0.00000000  -0.00000733          0.00     -0.00     -1.08

 !ASE

     Writing output data file calc.save

     General routines

     Parallel routines

   This run was terminated on:   1:39:14  27Dec2018

   JOB DONE.
Job  /afs/slac/g/suncat/bin/suncat-tsmpirun -x LD_LIBRARY_PATH -wdir /scratch/qe109706_gb0J6 pw.x -in pw.inp

TID   HOST_NAME   COMMAND_LINE            STATUS            TERMINATION_TIME
00000 suncat0152 pw.x -in pw.inp   Done                     12/27/2018 01:39:14
00001 suncat0152 pw.x -in pw.inp   Done                     12/27/2018 01:39:14
00002 suncat0152 pw.x -in pw.inp   Done                     12/27/2018 01:39:14
00003 suncat0152 pw.x -in pw.inp   Done                     12/27/2018 01:39:14
00004 suncat0152 pw.x -in pw.inp   Done                     12/27/2018 01:39:14
00005 suncat0152 pw.x -in pw.inp   Done                     12/27/2018 01:39:14
00006 suncat0152 pw.x -in pw.inp   Done                     12/27/2018 01:39:14
00007 suncat0152 pw.x -in pw.inp   Done                     12/27/2018 01:39:14
00008 suncat0150 pw.x -in pw.inp   Done                     12/27/2018 01:39:14
00009 suncat0150 pw.x -in pw.inp   Done                     12/27/2018 01:39:14
00010 suncat0150 pw.x -in pw.inp   Done                     12/27/2018 01:39:14
00011 suncat0150 pw.x -in pw.inp   Done                     12/27/2018 01:39:14
00012 suncat0150 pw.x -in pw.inp   Done                     12/27/2018 01:39:14
00013 suncat0150 pw.x -in pw.inp   Done                     12/27/2018 01:39:14
00014 suncat0150 pw.x -in pw.inp   Done                     12/27/2018 01:39:14
00015 suncat0150 pw.x -in pw.inp   Done                     12/27/2018 01:39:14
00016 suncat0248 pw.x -in pw.inp   Done                     12/27/2018 01:39:14
00017 suncat0248 pw.x -in pw.inp   Done                     12/27/2018 01:39:14
00018 suncat0248 pw.x -in pw.inp   Done                     12/27/2018 01:39:14
00019 suncat0248 pw.x -in pw.inp   Done                     12/27/2018 01:39:14
00020 suncat0248 pw.x -in pw.inp   Done                     12/27/2018 01:39:14
00021 suncat0248 pw.x -in pw.inp   Done                     12/27/2018 01:39:14
00022 suncat0248 pw.x -in pw.inp   Done                     12/27/2018 01:39:14
00023 suncat0248 pw.x -in pw.inp   Done                     12/27/2018 01:39:14
00024 suncat0247 pw.x -in pw.inp   Done                     12/27/2018 01:39:14
00025 suncat0247 pw.x -in pw.inp   Done                     12/27/2018 01:39:14
00026 suncat0247 pw.x -in pw.inp   Done                     12/27/2018 01:39:14
00027 suncat0247 pw.x -in pw.inp   Done                     12/27/2018 01:39:14
00028 suncat0247 pw.x -in pw.inp   Done                     12/27/2018 01:39:14
00029 suncat0247 pw.x -in pw.inp   Done                     12/27/2018 01:39:14
00030 suncat0247 pw.x -in pw.inp   Done                     12/27/2018 01:39:14
00031 suncat0247 pw.x -in pw.inp   Done                     12/27/2018 01:39:14
00032 suncat0246 pw.x -in pw.inp   Done                     12/27/2018 01:39:14
00033 suncat0246 pw.x -in pw.inp   Done                     12/27/2018 01:39:14
00034 suncat0246 pw.x -in pw.inp   Done                     12/27/2018 01:39:14
00035 suncat0246 pw.x -in pw.inp   Done                     12/27/2018 01:39:14
00036 suncat0246 pw.x -in pw.inp   Done                     12/27/2018 01:39:14
00037 suncat0246 pw.x -in pw.inp   Done                     12/27/2018 01:39:14
00038 suncat0246 pw.x -in pw.inp   Done                     12/27/2018 01:39:14
00039 suncat0246 pw.x -in pw.inp   Done                     12/27/2018 01:39:14
00040 suncat0245 pw.x -in pw.inp   Done                     12/27/2018 01:39:14
00041 suncat0245 pw.x -in pw.inp   Done                     12/27/2018 01:39:14
00042 suncat0245 pw.x -in pw.inp   Done                     12/27/2018 01:39:14
00043 suncat0245 pw.x -in pw.inp   Done                     12/27/2018 01:39:14
00044 suncat0245 pw.x -in pw.inp   Done                     12/27/2018 01:39:14
00045 suncat0245 pw.x -in pw.inp   Done                     12/27/2018 01:39:14
00046 suncat0245 pw.x -in pw.inp   Done                     12/27/2018 01:39:14
00047 suncat0245 pw.x -in pw.inp   Done                     12/27/2018 01:39:14
00048 suncat0214 pw.x -in pw.inp   Done                     12/27/2018 01:39:14
00049 suncat0214 pw.x -in pw.inp   Done                     12/27/2018 01:39:14
00050 suncat0214 pw.x -in pw.inp   Done                     12/27/2018 01:39:14
00051 suncat0214 pw.x -in pw.inp   Done                     12/27/2018 01:39:14
00052 suncat0214 pw.x -in pw.inp   Done                     12/27/2018 01:39:14
00053 suncat0214 pw.x -in pw.inp   Done                     12/27/2018 01:39:14
00054 suncat0214 pw.x -in pw.inp   Done                     12/27/2018 01:39:14
00055 suncat0214 pw.x -in pw.inp   Done                     12/27/2018 01:39:14
00056 suncat0213 pw.x -in pw.inp   Done                     12/27/2018 01:39:14
00057 suncat0213 pw.x -in pw.inp   Done                     12/27/2018 01:39:14
00058 suncat0213 pw.x -in pw.inp   Done                     12/27/2018 01:39:14
00059 suncat0213 pw.x -in pw.inp   Done                     12/27/2018 01:39:14
00060 suncat0213 pw.x -in pw.inp   Done                     12/27/2018 01:39:14
00061 suncat0213 pw.x -in pw.inp   Done                     12/27/2018 01:39:14
00062 suncat0213 pw.x -in pw.inp   Done                     12/27/2018 01:39:14
00063 suncat0213 pw.x -in pw.inp   Done                     12/27/2018 01:39:14