     Program PWSCF v.5.1rc2 (svn rev. 11289) starts on 27Dec2018 at  6:25:37

     Current dimensions of program PWSCF are:
     Max number of different atomic species (ntypx) = 10
     Max number of k-points (npk) =  40000
     Max angular momentum in pseudopotentials (lmaxx) =  3
     Presently stress not available with electric field

     IMPORTANT: XC functional enforced from input :
     Exchange-correlation      = BEEF-VDW ( 1  4 27 13 2)
     Any further DFT definition will be discarded
     Please, verify this is what you really want

     Subspace diagonalization in iterative solution of the eigenvalue problem:
     a serial algorithm will be used

     bravais-lattice index     =            0
     lattice parameter (alat)  =       1.8897  a.u.
     unit-cell volume          =    4889.5739 (a.u.)^3
     number of atoms/cell      =           12
     number of atomic types    =            2
     number of electrons       =       162.00
     number of Kohn-Sham states=          111
     kinetic-energy cutoff     =      36.7493  Ry
     charge density cutoff     =     367.4932  Ry
     convergence threshold     =      1.0E-06
     mixing beta               =       0.1000
     number of iterations used =           10  plain     mixing
     Exchange-correlation      = BEEF-VDW ( 1  4 27 13 2)
     nstep                     =           50

     celldm(1)=   1.889726  celldm(2)=   0.000000  celldm(3)=   0.000000
     celldm(4)=   0.000000  celldm(5)=   0.000000  celldm(6)=   0.000000

     crystal axes: (cart. coord. in units of alat)
               a(1) = (   5.814423   0.000000   0.000000 )
               a(2) = (  -2.907211   5.035438   0.000000 )
               a(3) = (   0.000000   0.000000  24.747456 )

     reciprocal axes: (cart. coord. in units 2 pi/alat)
               b(1) = (  0.171986  0.099296  0.000000 )
               b(2) = (  0.000000  0.198592  0.000000 )
               b(3) = (  0.000000  0.000000  0.040408 )

     PseudoPot. # 1 for Nb read from file:
     /afs/slac.stanford.edu/u/if/mamunm/psp/gbrv1.5pbe/Nb.UPF
     MD5 check sum: 573aab8a2fa660278ed4a62cd769473f
     Pseudo is Ultrasoft + core correction, Zval = 13.0
     Generated by new atomic code, or converted to UPF format
     Using radial grid of  887 points,  6 beta functions with:
                l(1) =   0
                l(2) =   0
                l(3) =   1
                l(4) =   1
                l(5) =   2
                l(6) =   2
     Q(r) pseudized with  6 coefficients,  rinner =    1.000   1.000   1.000
                                                       1.000   1.000

     PseudoPot. # 2 for Rh read from file:
     /afs/slac.stanford.edu/u/if/mamunm/psp/gbrv1.5pbe/Rh.UPF
     MD5 check sum: 761627e959a2e3a1f56b0b5fe687810e
     Pseudo is Ultrasoft + core correction, Zval = 15.0
     Generated by new atomic code, or converted to UPF format
     Using radial grid of  969 points,  7 beta functions with:
                l(1) =   0
                l(2) =   0
                l(3) =   1
                l(4) =   1
                l(5) =   2
                l(6) =   2
                l(7) =   2
     Q(r) pseudized with  8 coefficients,  rinner =    1.200   1.200   1.200
                                                       1.200   1.200

     vdW kernel table read from file vdW_kernel_table
     MD5 check sum: 095c7af220d748ca6e76c0b4c6cfb241

     atomic species   valence    mass     pseudopotential
        Nb1           13.00    92.90637     Nb( 1.00)
        Rh1           15.00   102.90550     Rh( 1.00)

     No symmetry found

   Cartesian axes

     site n.     atom                  positions (alat units)
         1           Nb1 tau(   1) = (   0.0000000   0.0000000  10.0000000  )
         2           Nb1 tau(   2) = (  -1.4536057   2.5177189  10.0000000  )
         3           Nb1 tau(   3) = (   1.4536057   2.5177189  10.0000000  )
         4           Rh1 tau(   4) = (   2.9072114   0.0000000  10.0000000  )
         5           Nb1 tau(   5) = (   2.9072114   1.6784793  12.3737282  )
         6           Nb1 tau(   6) = (   1.4536057   4.1961982  12.3737282  )
         7           Nb1 tau(   7) = (  -1.4536057   4.1961982  12.3737282  )
         8           Rh1 tau(   8) = (   0.0000000   1.6784793  12.3737282  )
         9           Nb1 tau(   9) = (  -0.0000000   3.3569586  14.7474563  )
        10           Nb1 tau(  10) = (   1.4536057   0.8392396  14.7474563  )
        11           Nb1 tau(  11) = (   4.3608171   0.8392396  14.7474563  )
        12           Rh1 tau(  12) = (   2.9072114   3.3569586  14.7474563  )

     number of k points=    20  Fermi-Dirac smearing, width (Ry)=  0.0110
                       cart. coord. in units 2pi/alat
        k(    1) = (   0.0000000   0.0000000   0.0000000), wk =   0.0555556
        k(    2) = (   0.0000000   0.0330987   0.0000000), wk =   0.1111111
        k(    3) = (   0.0000000   0.0661975   0.0000000), wk =   0.1111111
        k(    4) = (   0.0000000  -0.0992962   0.0000000), wk =   0.0555556
        k(    5) = (   0.0286644   0.0165494   0.0000000), wk =   0.1111111
        k(    6) = (   0.0286644   0.0496481   0.0000000), wk =   0.1111111
        k(    7) = (   0.0286644   0.0827469   0.0000000), wk =   0.1111111
        k(    8) = (   0.0286644  -0.0827469   0.0000000), wk =   0.1111111
        k(    9) = (   0.0286644  -0.0496481   0.0000000), wk =   0.1111111
        k(   10) = (   0.0286644  -0.0165494   0.0000000), wk =   0.1111111
        k(   11) = (   0.0573287   0.0330987   0.0000000), wk =   0.1111111
        k(   12) = (   0.0573287   0.0661975   0.0000000), wk =   0.1111111
        k(   13) = (   0.0573287   0.0992962   0.0000000), wk =   0.1111111
        k(   14) = (   0.0573287  -0.0661975   0.0000000), wk =   0.1111111
        k(   15) = (   0.0573287  -0.0330987   0.0000000), wk =   0.1111111
        k(   16) = (   0.0573287   0.0000000   0.0000000), wk =   0.1111111
        k(   17) = (  -0.0859931  -0.0496481   0.0000000), wk =   0.0555556
        k(   18) = (  -0.0859931  -0.0165494   0.0000000), wk =   0.1111111
        k(   19) = (  -0.0859931   0.0165494   0.0000000), wk =   0.1111111
        k(   20) = (  -0.0859931  -0.1489443   0.0000000), wk =   0.0555556

     Largest allocated arrays     est. size (Mb)     dimensions
     Largest temporary arrays     est. size (Mb)     dimensions

     Initial potential from superposition of free atoms
     Check: negative starting charge=   -0.168827

     starting charge  160.47511, renormalised to  162.00000

     negative rho (up, down):  1.704E-01 0.000E+00

     *
     * You are using vdW-DF for exchange-correlation in this calculation.
     * Please cite the following three references that made this development
     * possible:
     *
     *   M. Dion, H. Rydberg, E. Schroder, D. C. Langreth, and
     *   B. I. Lundqvist, Phys. Rev. Lett. 92, 246401 (2004).
     *
     *   T. Thonhauser, V. R. Cooper, S. Li, A. Puzder, P. Hyldgaard, and
     *   D. C. Langreth, Phys. Rev. B 76, 125112 (2007).
     *
     *   G. Roman-Perez and J. M. Soler, Phys. Rev. Lett. 103, 096102 (2009).
     *
     *
     * If you are using vdW-DF2, please also cite:
     *
     *   K. Lee, E. D. Murray, L. Kong, B. I. Lundqvist, and
     *   D. C. Langreth, Phys. Rev. B 82, 081101(R) (2010).
     *
     *
     * If you are calculating the stress with vdW-DF, please also cite:
     *
     *   R. Sabatini, E. Kucukbenli, B. Kolb, T. Thonhauser, and
     *   S. de Gironcoli, J. Phys.: Condens. Matter 24, 424209 (2012).
     *

     Carrying out vdW-DF run using the following parameters:

     Nqs =      20    Nr_points =    1024   r_max =   100.000
     q_mesh =
               0.00001000     0.04494208     0.09755937     0.15916263
               0.23128650     0.31572767     0.41458969     0.53033537
               0.66584808     0.82450364     1.01025438     1.22772762
               1.48234092     1.78043706     2.12944203     2.53805004
               3.01644009     3.57652955     4.23227104     5.00000000

     Gradients computed in reciprocal space

     Adding external electric field

     Computed dipole along edir(3) :
        Dipole               -0.0000 Ry au,         -0.0000 Debye
        Dipole field         -0.0000 Ry au

        Potential amp.        0.0000 Ry
        Total length         45.5968 bohr

     Starting wfc are  153 randomized atomic wfcs

     Self-consistent Calculation

     iteration #  1     ecut=    36.75 Ry     beta=0.10
     Davidson diagonalization with overlap
     ethr =  1.00E-02,  avg # of iterations =  2.0

[...]

     total energy              =   -1583.12822018 Ry
     Harris-Foulkes estimate   =   -1584.21672437 Ry
     estimated scf accuracy    <       6.38037990 Ry

[...]

     End of self-consistent calculation

          k = 0.0000 0.0000 0.0000 ( 18439 PWs)   bands (ev):

   -53.1795 -53.1592 -53.0397 -53.0397 -53.0346 -53.0346 -52.9890 -52.8778
   -52.8778 -44.5117 -44.4457 -44.4457 -44.1018 -44.1018 -44.1014 -44.1014
   -44.0984 -44.0970 -29.7220 -29.5992 -29.5288 -29.4461 -29.4331 -29.4331
   -29.3956 -29.3956 -29.3083 -29.3083 -29.2836 -29.1563 -29.1563 -29.0222
   -29.0222 -28.8988 -28.8302 -28.7586 -28.7441 -28.7441 -28.6462 -28.6169
   -28.6169 -28.6101 -28.6101 -28.5325 -28.5324  -3.7168  -2.4356  -2.1726
    -2.1279  -2.1279  -1.9688  -1.7818  -1.7818  -1.7500  -1.5385  -1.5385
    -1.5026  -1.3782  -1.3782  -1.1534  -0.4878  -0.4878  -0.0386  -0.0386
     0.0167   0.3451   0.4633   0.8411   1.2345   1.2345   1.4051   1.4051
     1.5800   1.6162   1.6162   1.7487   1.7487   1.8385   2.1365   2.1365
     2.4614   2.6079   2.6079   2.6487   2.6487   2.7426   2.9760   3.2888
     3.2888   3.6684   4.0109   4.3631   4.3631   4.4918   4.6510   4.6510
     4.6611   4.6611   5.1588   5.1588   5.3457   5.3457   5.4783   5.4783
     5.6014   5.6014   5.7341   5.8733   5.8733   5.9351   6.0190

[...]

          k =-0.0860-0.0496 0.0000 ( 18348 PWs)   bands (ev):

[...]

     the Fermi energy is     2.0008 ev

!    total energy              =   -1583.38125480 Ry
     Harris-Foulkes estimate   =   -1583.38125152 Ry
     estimated scf accuracy    <       0.00000051 Ry

     The total energy is the sum of the following terms:

     one-electron contribution =  -13098.50111940 Ry
     hartree contribution      =    6554.51689802 Ry
     xc contribution           =    -264.25900540 Ry
     ewald contribution        =    5224.96577480 Ry
     electric field correction =       0.00000002 Ry
     smearing contrib. (-TS)   =      -0.10380283 Ry

     convergence has been achieved in  17 iterations

 BEEF-vdW xc energy contributions
           1 :   -227.856199548466
           2 :    208.021657723107
           3 :   -173.969298554842
           4 :    134.537448119971
           5 :   -98.4325199861930
           6 :    71.3552687678019
           7 :   -54.7439154204119
           8 :    46.3291397838866
           9 :   -41.9578739038004
          10 :    37.6888959027882
          11 :   -31.2895511424411
          12 :    22.6615651877399
          13 :   -13.2744236883745
          14 :    5.05066080060053
          15 :   0.695159944972517
[...]

     PseudoPot. # 1 for Nb read from file:
     /afs/slac.stanford.edu/u/if/mamunm/psp/gbrv1.5pbe/Nb.UPF
     MD5 check sum: 573aab8a2fa660278ed4a62cd769473f
     Pseudo is Ultrasoft + core correction, Zval = 13.0
     Generated by new atomic code, or converted to UPF format
     Using radial grid of  887 points,  6 beta functions with:
                l(1) =   0
                l(2) =   0
                l(3) =   1
                l(4) =   1
                l(5) =   2
                l(6) =   2
     Q(r) pseudized with  6 coefficients,  rinner =    1.000   1.000   1.000
                                                       1.000   1.000

     PseudoPot. # 2 for Rh read from file:
     /afs/slac.stanford.edu/u/if/mamunm/psp/gbrv1.5pbe/Rh.UPF
     MD5 check sum: 761627e959a2e3a1f56b0b5fe687810e
     Pseudo is Ultrasoft + core correction, Zval = 15.0
     Generated by new atomic code, or converted to UPF format
     Using radial grid of  969 points,  7 beta functions with:
                l(1) =   0
                l(2) =   0
                l(3) =   1
                l(4) =   1
                l(5) =   2
                l(6) =   2
                l(7) =   2
     Q(r) pseudized with  8 coefficients,  rinner =    1.200   1.200   1.200
                                                       1.200   1.200

     vdW kernel table read from file vdW_kernel_table
     MD5 check sum: 095c7af220d748ca6e76c0b4c6cfb241

     atomic species   valence    mass     pseudopotential
        Nb1           13.00    92.90637     Nb( 1.00)
        Rh1           15.00   102.90550     Rh( 1.00)

     No symmetry found

   Cartesian axes

     site n.     atom                  positions (alat units)
         1           Nb1 tau(   1) = (   0.0000000   0.0000000  10.0000000  )
         2           Nb1 tau(   2) = (  -1.4536057   2.5177189  10.0000000  )
         3           Nb1 tau(   3) = (   1.4536057   2.5177189  10.0000000  )
         4           Rh1 tau(   4) = (   2.9072114   0.0000000  10.0000000  )
         5           Nb1 tau(   5) = (   2.9072114   1.6784793  12.3737282  )
         6           Nb1 tau(   6) = (   1.4536057   4.1961982  12.3737282  )
         7           Nb1 tau(   7) = (  -1.4536057   4.1961982  12.3737282  )
         8           Rh1 tau(   8) = (   0.0000000   1.6784793  12.3737282  )
         9           Nb1 tau(   9) = (   0.0000002   3.3027824  14.7192198  )
        10           Nb1 tau(  10) = (   1.4066874   0.8663267  14.7192186  )
        11           Nb1 tau(  11) = (   4.4077351   0.8663274  14.7192183  )
        12           Rh1 tau(  12) = (   2.9072120   3.3569592  14.6988148  )

     number of k points=    20  Fermi-Dirac smearing, width (Ry)=  0.0110
                       cart. coord. in units 2pi/alat
        k(    1) = (   0.0000000   0.0000000   0.0000000), wk =   0.0555556
        k(    2) = (   0.0000000   0.0330987   0.0000000), wk =   0.1111111
        k(    3) = (   0.0000000   0.0661975   0.0000000), wk =   0.1111111
        k(    4) = (   0.0000000  -0.0992962   0.0000000), wk =   0.0555556
        k(    5) = (   0.0286644   0.0165494   0.0000000), wk =   0.1111111
        k(    6) = (   0.0286644   0.0496481   0.0000000), wk =   0.1111111
        k(    7) = (   0.0286644   0.0827469   0.0000000), wk =   0.1111111
        k(    8) = (   0.0286644  -0.0827469   0.0000000), wk =   0.1111111
        k(    9) = (   0.0286644  -0.0496481   0.0000000), wk =   0.1111111
        k(   10) = (   0.0286644  -0.0165494   0.0000000), wk =   0.1111111
        k(   11) = (   0.0573287   0.0330987   0.0000000), wk =   0.1111111
        k(   12) = (   0.0573287   0.0661975   0.0000000), wk =   0.1111111
        k(   13) = (   0.0573287   0.0992962   0.0000000), wk =   0.1111111
        k(   14) = (   0.0573287  -0.0661975   0.0000000), wk =   0.1111111
        k(   15) = (   0.0573287  -0.0330987   0.0000000), wk =   0.1111111
        k(   16) = (   0.0573287   0.0000000   0.0000000), wk =   0.1111111
        k(   17) = (  -0.0859931  -0.0496481   0.0000000), wk =   0.0555556
        k(   18) = (  -0.0859931  -0.0165494   0.0000000), wk =   0.1111111
        k(   19) = (  -0.0859931   0.0165494   0.0000000), wk =   0.1111111
        k(   20) = (  -0.0859931  -0.1489443   0.0000000), wk =   0.0555556

     Largest allocated arrays     est. size (Mb)     dimensions
     Largest temporary arrays     est. size (Mb)     dimensions

     Initial potential from superposition of free atoms
     Check: negative starting charge=   -0.167524

     starting charge  160.47511, renormalised to  162.00000

[...]

     *
     * You are using vdW-DF for exchange-correlation in this calculation.
     * Please cite the following three references that made this development
     * possible:
     *
     *   M. Dion, H. Rydberg, E. Schroder, D. C. Langreth, and
     *   B. I. Lundqvist, Phys. Rev. Lett. 92, 246401 (2004).
     *
     *   T. Thonhauser, V. R. Cooper, S. Li, A. Puzder, P. Hyldgaard, and
     *   D. C. Langreth, Phys. Rev. B 76, 125112 (2007).
     *
     *   G. Roman-Perez and J. M. Soler, Phys. Rev. Lett. 103, 096102 (2009).
     *
     *
     * If you are using vdW-DF2, please also cite:
     *
     *   K. Lee, E. D. Murray, L. Kong, B. I. Lundqvist, and
     *   D. C. Langreth, Phys. Rev. B 82, 081101(R) (2010).
     *
     *
     * If you are calculating the stress with vdW-DF, please also cite:
     *
     *   R. Sabatini, E. Kucukbenli, B. Kolb, T. Thonhauser, and
     *   S. de Gironcoli, J. Phys.: Condens. Matter 24, 424209 (2012).
     *

     Carrying out vdW-DF run using the following parameters:

     Nqs =      20    Nr_points =    1024   r_max =   100.000
     q_mesh =
               0.00001000     0.04494208     0.09755937     0.15916263
               0.23128650     0.31572767     0.41458969     0.53033537
               0.66584808     0.82450364     1.01025438     1.22772762
               1.48234092     1.78043706     2.12944203     2.53805004
               3.01644009     3.57652955     4.23227104     5.00000000

     Gradients computed in reciprocal space

[...]

     Starting wfc are  153 randomized atomic wfcs

     Self-consistent Calculation

[...]

     total energy              =   -1583.38759737 Ry
     Harris-Foulkes estimate   =   -1583.38759671 Ry
     estimated scf accuracy    <       0.00000418 Ry

     iteration # 18     ecut=    36.75 Ry     beta=0.10
     Davidson diagonalization with overlap
     ethr =  1.18E-09,  avg # of iterations =  2.0

[...]

     negative rho (up, down):  1.772E-01 0.000E+00

     Adding external electric field

     Computed dipole along edir(3) :
        Dipole                0.0139 Ry au,          0.0353 Debye
        Dipole field          0.0000 Ry au

        Potential amp.       -0.0033 Ry
        Total length         45.5968 bohr

     End of self-consistent calculation

[...]

          k = 0.0573 0.0000 0.0000 ( 18405 PWs)   bands (ev):

[...]

          k =-0.0860-0.1489 0.0000 ( 18348 PWs)   bands (ev):

   -53.1137 -53.1025 -53.0724 -53.0445 -53.0254 -53.0021 -52.9244 -52.8939
   -52.8546 -44.5299 -44.4566 -44.4551 -44.1031 -44.1030 -44.1017 -44.0833
   -44.0818 -44.0806 -29.5032 -29.4895 -29.4239 -29.3672 -29.3144 -29.2876
   -29.2421 -29.2398 -29.1777 -29.1714 -29.1639 -29.1222 -29.0999 -29.0410
   -29.0278 -28.9998 -28.9869 -28.9453 -28.8718 -28.8534 -28.8356 -28.7032
   -28.6775 -28.6560 -28.6446 -28.6060 -28.5259  -2.2538  -2.1205  -1.4948
    -1.4523  -1.3780  -1.2276  -1.0715  -0.9859  -0.9532  -0.9176  -0.8158
    -0.7596  -0.5923  -0.5095  -0.3902  -0.2813  -0.2281  -0.1380  -0.0581
     0.1314   0.2184   0.3280   0.5032   0.5719   0.5965   0.7410   1.0601
     1.1583   1.1784   1.3288   1.4497   1.5173   1.5597   1.5984   1.6556
     1.6876   1.7443   1.9318   1.9779   2.2120   2.3592   2.6329   2.7061
     2.8152   2.9785   3.0213   3.1629   3.2965   3.3281   3.6986   3.8048
     3.9375   4.1512   4.2142   4.3328   4.5156   4.5185   4.6370   4.6971
     4.8909   5.0612   5.3738   5.6941   5.8083   5.8425   6.5805

     the Fermi energy is     2.0111 ev

!    total energy              =   -1583.38759838 Ry
     Harris-Foulkes estimate   =   -1583.38759739 Ry
     estimated scf accuracy    <       0.00000026 Ry

     The total energy is the sum of the following terms:

     one-electron contribution =  -13163.30547498 Ry
     hartree contribution      =    6587.01272775 Ry
     xc contribution           =    -264.32910271 Ry
     ewald contribution        =    5257.33725386 Ry
     electric field correction =       0.00000050 Ry
     smearing contrib. (-TS)   =      -0.10300279 Ry

     convergence has been achieved in  18 iterations

 BEEF-vdW xc energy contributions
           1 :   -228.001807835753
           2 :    208.192276582351
           3 :   -174.171537758334
           4 :    134.751890028765
           5 :   -98.6213608805848
           6 :    71.4826120174179
           7 :   -54.7973719163543
           8 :    46.3296432234559
           9 :   -41.9504592528417
          10 :    37.7192968658433
          11 :   -31.3803084645066
          12 :    22.8011197572441
          13 :   -13.4256931675572
          14 :    5.17332176291004
          15 :   0.622658981503065
          16 :   -3.77899307628630
          17 :    5.15294908270261
          18 :   -6.03379903498498
          19 :    7.41256621291322
          20 :   -9.52434395309260
          21 :    11.8526087907320
          22 :   -13.5272186772570
          23 :    13.8494145724518
          24 :   -12.6628649560276
          25 :    10.4035855378040
          26 :   -7.85165803312495
          27 :    5.74430512207795
          28 :   -4.45958813969165
          29 :    3.91360357086705
          30 :   -3.69605090695390
          31 :   -24.9069137811540
          32 :   -18.7874398459737

     Forces acting on atoms (Ry/au):

     negative rho (up, down):  1.772E-01 0.000E+00
     atom    1 type  1   force =     0.00000023    0.01677607    0.00636075
     atom    2 type  1   force =     0.01452842   -0.00838797    0.00636063
     atom    3 type  1   force =    -0.01452847   -0.00838813    0.00636049
     atom    4 type  2   force =    -0.00000025    0.00000021    0.01038022
     atom    5 type  1   force =    -0.00000006   -0.00214024   -0.00400650
     atom    6 type  1   force =    -0.00185343    0.00107007   -0.00400622
     atom    7 type  1   force =     0.00185348    0.00107009   -0.00400642
     atom    8 type  2   force =     0.00000024   -0.00000011   -0.01109792
     atom    9 type  1   force =     0.00000021    0.00119785   -0.00147414
     atom   10 type  1   force =     0.00103763   -0.00059888   -0.00147405
     atom   11 type  1   force =    -0.00103754   -0.00059890   -0.00147386
     atom   12 type  2   force =    -0.00000045   -0.00000005   -0.00192299

     Total force =     0.035679     Total SCF correction =     0.002274

     entering subroutine stress ...

     negative rho (up, down):  1.772E-01 0.000E+00
          total   stress  (Ry/bohr**3)                   (kbar)     P=  -26.19
  -0.00023234  -0.00000000  -0.00000000        -34.18     -0.00     -0.00
  -0.00000000  -0.00023234   0.00000000         -0.00    -34.18      0.00
  -0.00000000   0.00000000  -0.00006940         -0.00      0.00    -10.21

 !ASE

     Writing output data file calc.save

     General routines

     Parallel routines

   This run was terminated on:   6:59:16  27Dec2018

   JOB DONE.
Job  /afs/slac/g/suncat/bin/suncat-tsmpirun -x LD_LIBRARY_PATH -wdir /scratch/qe110207_oqRuu pw.x -in pw.inp

TID   HOST_NAME   COMMAND_LINE            STATUS            TERMINATION_TIME
00000 suncat0092 pw.x -in pw.inp   Done                     12/27/2018 06:59:16
00001 suncat0092 pw.x -in pw.inp   Done                     12/27/2018 06:59:16
00002 suncat0092 pw.x -in pw.inp   Done                     12/27/2018 06:59:16
00003 suncat0092 pw.x -in pw.inp   Done                     12/27/2018 06:59:16
00004 suncat0092 pw.x -in pw.inp   Done                     12/27/2018 06:59:16
00005 suncat0092 pw.x -in pw.inp   Done                     12/27/2018 06:59:16
00006 suncat0092 pw.x -in pw.inp   Done                     12/27/2018 06:59:16
00007 suncat0092 pw.x -in pw.inp   Done                     12/27/2018 06:59:16
00008 suncat0075 pw.x -in pw.inp   Done                     12/27/2018 06:59:16
00009 suncat0075 pw.x -in pw.inp   Done                     12/27/2018 06:59:16
00010 suncat0075 pw.x -in pw.inp   Done                     12/27/2018 06:59:16
00011 suncat0075 pw.x -in pw.inp   Done                     12/27/2018 06:59:16
00012 suncat0075 pw.x -in pw.inp   Done                     12/27/2018 06:59:16
00013 suncat0075 pw.x -in pw.inp   Done                     12/27/2018 06:59:16
00014 suncat0075 pw.x -in pw.inp   Done                     12/27/2018 06:59:16
00015 suncat0075 pw.x -in pw.inp   Done                     12/27/2018 06:59:16
00016 suncat0074 pw.x -in pw.inp   Done                     12/27/2018 06:59:16
00017 suncat0074 pw.x -in pw.inp   Done                     12/27/2018 06:59:16
00018 suncat0074 pw.x -in pw.inp   Done                     12/27/2018 06:59:16
00019 suncat0074 pw.x -in pw.inp   Done                     12/27/2018 06:59:16
00020 suncat0074 pw.x -in pw.inp   Done                     12/27/2018 06:59:16
00021 suncat0074 pw.x -in pw.inp   Done                     12/27/2018 06:59:16
00022 suncat0074 pw.x -in pw.inp   Done                     12/27/2018 06:59:16
00023 suncat0074 pw.x -in pw.inp   Done                     12/27/2018 06:59:16
00024 suncat0195 pw.x -in pw.inp   Done                     12/27/2018 06:59:16
00025 suncat0195 pw.x -in pw.inp   Done                     12/27/2018 06:59:16
00026 suncat0195 pw.x -in pw.inp   Done                     12/27/2018 06:59:16
00027 suncat0195 pw.x -in pw.inp   Done                     12/27/2018 06:59:16
00028 suncat0195 pw.x -in pw.inp   Done                     12/27/2018 06:59:16
00029 suncat0195 pw.x -in pw.inp   Done                     12/27/2018 06:59:16
00030 suncat0195 pw.x -in pw.inp   Done                     12/27/2018 06:59:16
00031 suncat0195 pw.x -in pw.inp   Done                     12/27/2018 06:59:16
00032 suncat0003 pw.x -in pw.inp   Done                     12/27/2018 06:59:16
00033 suncat0003 pw.x -in pw.inp   Done                     12/27/2018 06:59:16
00034 suncat0003 pw.x -in pw.inp   Done                     12/27/2018 06:59:16
00035 suncat0003 pw.x -in pw.inp   Done                     12/27/2018 06:59:16
00036 suncat0003 pw.x -in pw.inp   Done                     12/27/2018 06:59:16
00037 suncat0003 pw.x -in pw.inp   Done                     12/27/2018 06:59:16
00038 suncat0003 pw.x -in pw.inp   Done                     12/27/2018 06:59:16
00039 suncat0003 pw.x -in pw.inp   Done                     12/27/2018 06:59:16
00040 suncat0002 pw.x -in pw.inp   Done                     12/27/2018 06:59:16
00041 suncat0002 pw.x -in pw.inp   Done                     12/27/2018 06:59:16
00042 suncat0002 pw.x -in pw.inp   Done                     12/27/2018 06:59:16
00043 suncat0002 pw.x -in pw.inp   Done                     12/27/2018 06:59:16
00044 suncat0002 pw.x -in pw.inp   Done                     12/27/2018 06:59:16
00045 suncat0002 pw.x -in pw.inp   Done                     12/27/2018 06:59:16
00046 suncat0002 pw.x -in pw.inp   Done                     12/27/2018 06:59:16
00047 suncat0002 pw.x -in pw.inp   Done                     12/27/2018 06:59:16
00048 suncat0283 pw.x -in pw.inp   Done                     12/27/2018 06:59:16
00049 suncat0283 pw.x -in pw.inp   Done                     12/27/2018 06:59:16
00050 suncat0283 pw.x -in pw.inp   Done                     12/27/2018 06:59:16
00051 suncat0283 pw.x -in pw.inp   Done                     12/27/2018 06:59:16
00052 suncat0283 pw.x -in pw.inp   Done                     12/27/2018 06:59:16
00053 suncat0283 pw.x -in pw.inp   Done                     12/27/2018 06:59:16
00054 suncat0283 pw.x -in pw.inp   Done                     12/27/2018 06:59:16
00055 suncat0283 pw.x -in pw.inp   Done                     12/27/2018 06:59:16
00056 suncat0282 pw.x -in pw.inp   Done                     12/27/2018 06:59:16
00057 suncat0282 pw.x -in pw.inp   Done                     12/27/2018 06:59:16
00058 suncat0282 pw.x -in pw.inp   Done                     12/27/2018 06:59:16
00059 suncat0282 pw.x -in pw.inp   Done                     12/27/2018 06:59:16
00060 suncat0282 pw.x -in pw.inp   Done                     12/27/2018 06:59:16
00061 suncat0282 pw.x -in pw.inp   Done                     12/27/2018 06:59:16
00062 suncat0282 pw.x -in pw.inp   Done                     12/27/2018 06:59:16
00063 suncat0282 pw.x -in pw.inp   Done                     12/27/2018 06:59:16