     Program PWSCF v.5.1rc2 (svn rev. 11289) starts on 19Dec2018 at 16:20:50

     Current dimensions of program PWSCF are:
     Max number of different atomic species (ntypx) = 10
     Max number of k-points (npk) =  40000
     Max angular momentum in pseudopotentials (lmaxx) =  3
     Presently stress not available with electric field

     IMPORTANT: XC functional enforced from input :
     Exchange-correlation      = BEEF-VDW ( 1  4 27 13 2)
     Any further DFT definition will be discarded
     Please, verify this is what you really want

     Subspace diagonalization in iterative solution of the eigenvalue problem:
     a serial algorithm will be used

     bravais-lattice index     =            0
     lattice parameter (alat)  =       1.8897  a.u.
     unit-cell volume          =    5104.5628 (a.u.)^3
     number of atoms/cell      =           12
     number of atomic types    =            2
     number of electrons       =       207.00
     number of Kohn-Sham states=          133
     kinetic-energy cutoff     =      36.7493  Ry
     charge density cutoff     =     367.4932  Ry
     convergence threshold     =      1.0E-06
     mixing beta               =       0.1000
     number of iterations used =           10  plain     mixing
     Exchange-correlation      = BEEF-VDW ( 1  4 27 13 2)
     nstep                     =           50

     celldm(1)=   1.889726  celldm(2)=   0.000000  celldm(3)=   0.000000
     celldm(4)=   0.000000  celldm(5)=   0.000000  celldm(6)=   0.000000

     crystal axes: (cart. coord. in units of alat)
               a(1) = (   5.929617   0.000000   0.000000 )
               a(2) = (  -2.964809   5.135199   0.000000 )
               a(3) = (   0.000000   0.000000  24.841512 )

     reciprocal axes: (cart. coord. in units 2 pi/alat)
               b(1) = (  0.168645  0.097367  0.000000 )
               b(2) = (  0.000000  0.194734  0.000000 )
               b(3) = (  0.000000  0.000000  0.040255 )

     PseudoPot. # 1 for Ag read from file:
     /afs/slac.stanford.edu/u/if/mamunm/psp/gbrv1.5pbe/Ag.UPF
     MD5 check sum: d66d668201baa78d5eb5b04ef7011058
     Pseudo is Ultrasoft + core correction, Zval = 19.0
     Generated by new atomic code, or converted to UPF format
     Using radial grid of  887 points,  6 beta functions with:
                l(1) =   0
                l(2) =   0
                l(3) =   1
                l(4) =   1
                l(5) =   2
                l(6) =   2
     Q(r) pseudized with  6 coefficients,  rinner =    1.300   1.300   1.300
                                                       1.300   1.300

     PseudoPot. # 2 for Ti read from file:
     /afs/slac.stanford.edu/u/if/mamunm/psp/gbrv1.5pbe/Ti.UPF
     MD5 check sum: 88a00a6731bd790ddea75d31a80cb452
     Pseudo is Ultrasoft + core correction, Zval = 12.0
     Generated by new atomic code, or converted to UPF format
     Using radial grid of  851 points,  6 beta functions with:
                l(1) =   0
                l(2) =   0
                l(3) =   1
                l(4) =   1
                l(5) =   2
                l(6) =   2
     Q(r) pseudized with  6 coefficients,  rinner =    1.000   1.000   1.000
                                                       1.000   1.000

     vdW kernel table read from file vdW_kernel_table
     MD5 check sum: 095c7af220d748ca6e76c0b4c6cfb241

     atomic species   valence    mass     pseudopotential
        Ag1           19.00   107.86820     Ag( 1.00)
        Ti1           12.00    47.86700     Ti( 1.00)

     No symmetry found

   Cartesian axes

     site n.     atom                  positions (alat units)
         1           Ag1 tau(   1) = (   0.0000000   0.0000000  10.0000000  )
         2           Ag1 tau(   2) = (  -1.4824043   2.5675995  10.0000000  )
         3           Ag1 tau(   3) = (   1.4824043   2.5675995  10.0000000  )
         4           Ti1 tau(   4) = (   2.9648085   0.0000000  10.0000000  )
         5           Ag1 tau(   5) = (   2.9648085   1.7117330  12.4207560  )
         6           Ag1 tau(   6) = (   1.4824043   4.2793325  12.4207560  )
         7           Ag1 tau(   7) = (  -1.4824043   4.2793325  12.4207560  )
         8           Ti1 tau(   8) = (   0.0000000   1.7117330  12.4207560  )
         9           Ag1 tau(   9) = (  -0.0000000   3.4234660  14.8415120  )
        10           Ag1 tau(  10) = (   1.4824043   0.8558665  14.8415120  )
        11           Ag1 tau(  11) = (   4.4472128   0.8558665  14.8415120  )
        12           Ti1 tau(  12) = (   2.9648085   3.4234660  14.8415120  )

     number of k points=    20  Fermi-Dirac smearing, width (Ry)=  0.0110
                       cart. coord. in units 2pi/alat
        k(    1) = (   0.0000000   0.0000000   0.0000000), wk =   0.0555556
        k(    2) = (   0.0000000   0.0324557   0.0000000), wk =   0.1111111
        k(    3) = (   0.0000000   0.0649115   0.0000000), wk =   0.1111111
        k(    4) = (   0.0000000  -0.0973672   0.0000000), wk =   0.0555556
        k(    5) = (   0.0281075   0.0162279   0.0000000), wk =   0.1111111
        k(    6) = (   0.0281075   0.0486836   0.0000000), wk =   0.1111111
        k(    7) = (   0.0281075   0.0811393   0.0000000), wk =   0.1111111
        k(    8) = (   0.0281075  -0.0811393   0.0000000), wk =   0.1111111
        k(    9) = (   0.0281075  -0.0486836   0.0000000), wk =   0.1111111
        k(   10) = (   0.0281075  -0.0162279   0.0000000), wk =   0.1111111
        k(   11) = (   0.0562150   0.0324557   0.0000000), wk =   0.1111111
        k(   12) = (   0.0562150   0.0649115   0.0000000), wk =   0.1111111
        k(   13) = (   0.0562150   0.0973672   0.0000000), wk =   0.1111111
        k(   14) = (   0.0562150  -0.0649115   0.0000000), wk =   0.1111111
        k(   15) = (   0.0562150  -0.0324557   0.0000000), wk =   0.1111111
        k(   16) = (   0.0562150   0.0000000   0.0000000), wk =   0.1111111
        k(   17) = (  -0.0843225  -0.0486836   0.0000000), wk =   0.0555556
        k(   18) = (  -0.0843225  -0.0162279   0.0000000), wk =   0.1111111
        k(   19) = (  -0.0843225   0.0162279   0.0000000), wk =   0.1111111
        k(   20) = (  -0.0843225  -0.1460508   0.0000000), wk =   0.0555556

     Largest allocated arrays     est. size (Mb)     dimensions
     Largest temporary arrays     est. size (Mb)     dimensions

     Check: negative/imaginary core charge=   -0.000003    0.000000

     Initial potential from superposition of free atoms
     Check: negative starting charge=   -0.004580

     starting charge  199.49944, renormalised to  207.00000

     negative rho (up, down):  4.752E-03 0.000E+00

     *
     * You are using vdW-DF for exchange-correlation in this calculation.
     * Please cite the following three references that made this development
     * possible:
     *
     *   M. Dion, H. Rydberg, E. Schroder, D. C. Langreth, and
     *   B. I. Lundqvist, Phys. Rev. Lett. 92, 246401 (2004).
     *
     *   T. Thonhauser, V. R. Cooper, S. Li, A. Puzder, P. Hyldgaard, and
     *   D. C. Langreth, Phys. Rev. B 76, 125112 (2007).
     *
     *   G. Roman-Perez and J. M. Soler, Phys. Rev. Lett. 103, 096102 (2009).
     *
     *
     * If you are using vdW-DF2, please also cite:
     *
     *   K. Lee, E. D. Murray, L. Kong, B. I. Lundqvist, and
     *   D. C. Langreth, Phys. Rev. B 82, 081101(R) (2010).
     *
     *
     * If you are calculating the stress with vdW-DF, please also cite:
     *
     *   R. Sabatini, E. Kucukbenli, B. Kolb, T. Thonhauser, and
     *   S. de Gironcoli, J. Phys.: Condens. Matter 24, 424209 (2012).
     *

     Carrying out vdW-DF run using the following parameters:

     Nqs =      20    Nr_points =    1024   r_max =   100.000
     q_mesh =
               0.00001000     0.04494208     0.09755937     0.15916263
               0.23128650     0.31572767     0.41458969     0.53033537
               0.66584808     0.82450364     1.01025438     1.22772762
               1.48234092     1.78043706     2.12944203     2.53805004
               3.01644009     3.57652955     4.23227104     5.00000000

     Gradients computed in reciprocal space

     Adding external electric field

     Computed dipole along edir(3) :
        Dipole                0.0000 Ry au,          0.0000 Debye
        Dipole field          0.0000 Ry au

        Potential amp.       -0.0000 Ry
        Total length         45.7701 bohr

     Starting wfc are  147 randomized atomic wfcs

     Self-consistent Calculation

     iteration #  1     ecut=    36.75 Ry     beta=0.10
     Davidson diagonalization with overlap
     ethr =  1.00E-02,  avg # of iterations =  7.3

[...]

     total energy              =   -3013.36195595 Ry
     Harris-Foulkes estimate   =   -3042.79319028 Ry
     estimated scf accuracy    <     163.65943537 Ry

[...]

     End of self-consistent calculation

          k = 0.0000 0.0000 0.0000 ( 19219 PWs)   bands (ev):

   -90.8945 -90.8888 -90.8888 -90.7691 -90.7690 -90.7633 -90.7633 -90.7633
   -90.7633 -56.4810 -56.4806 -56.4674 -54.4247 -54.4178 -54.4178 -54.3952
   -54.3952 -54.3818 -54.3539 -54.3271 -54.3271 -54.3262 -54.3262 -54.2941
   -54.2938 -54.2938 -54.2931 -54.2760 -54.2757 -54.2297 -54.2297 -54.2279
   -54.2279 -54.2074 -54.2009 -54.1737 -54.1737 -54.1722 -54.1722 -32.7641
   -32.7631 -32.6961 -32.6601 -32.6601 -32.6597 -32.6597 -32.6533 -32.6533
    -5.1483  -4.4991  -4.4542  -4.3510  -4.2929  -4.2814  -4.2814  -4.1920
    -4.1291  -4.1291  -4.1234  -4.1113  -4.1113  -3.9549  -3.9549  -3.6196
    -3.4880  -3.4880  -3.4017  -3.4017  -3.2665  -3.1711  -3.0995  -2.9916
    -2.9916  -2.8831  -2.8831  -2.8688  -2.8688  -2.7481  -2.7481  -2.6629
    -2.6437  -2.5873  -2.5873  -2.4234  -2.4234  -2.3547  -2.3547  -2.2095
    -2.2095  -2.1313  -1.9380  -1.9380  -1.8875  -1.7909  -1.7538  -0.4099
     0.8381   1.1587   1.1587   1.2098   1.2098   1.2456   1.5304   1.5304
     1.6249   1.6906   1.6906   2.0308   2.0308   2.0384   2.2492   2.2492
     2.2688   2.2688   2.3185   3.2975   3.2975   3.4079   3.4079   3.6028
     3.6162   4.7509   5.0368   5.4031   5.6949   5.6949   6.0308   6.0308
     6.2534   6.3488   6.6223   6.8357   6.8357

[...]

          k =-0.0843-0.0487 0.0000 ( 19212 PWs)   bands (ev):

[...]

     the Fermi energy is     1.3818 ev

!    total energy              =   -3029.30986180 Ry
     Harris-Foulkes estimate   =   -3029.31060786 Ry
     estimated scf accuracy    <       0.00000036 Ry

     The total energy is the sum of the following terms:

     one-electron contribution =  -21488.31451493 Ry
     hartree contribution      =   10732.43470541 Ry
     xc contribution           =    -326.53409406 Ry
     ewald contribution        =    8053.20881239 Ry
     electric field correction =       0.00000000 Ry
     smearing contrib. (-TS)   =      -0.10477062 Ry

     convergence has been achieved in  30 iterations

 BEEF-vdW xc energy contributions
           1 :   -282.598164714356
           2 :    255.405226875112
           3 :   -210.111767968792
           4 :    160.443581682489
           5 :   -118.686237197780
           6 :    91.2068474365268
           7 :   -77.4648281120051
           8 :    72.2418830644493
[...]
     Using radial grid of  887 points,  6 beta functions with:
                l(1) =   0
                l(2) =   0
                l(3) =   1
                l(4) =   1
                l(5) =   2
                l(6) =   2
     Q(r) pseudized with  6 coefficients,  rinner =    1.300   1.300   1.300
                                                       1.300   1.300

     PseudoPot. # 2 for Ti read from file:
     /afs/slac.stanford.edu/u/if/mamunm/psp/gbrv1.5pbe/Ti.UPF
     MD5 check sum: 88a00a6731bd790ddea75d31a80cb452
     Pseudo is Ultrasoft + core correction, Zval = 12.0
     Generated by new atomic code, or converted to UPF format
     Using radial grid of  851 points,  6 beta functions with:
                l(1) =   0
                l(2) =   0
                l(3) =   1
                l(4) =   1
                l(5) =   2
                l(6) =   2
     Q(r) pseudized with  6 coefficients,  rinner =    1.000   1.000   1.000
                                                       1.000   1.000

     vdW kernel table read from file vdW_kernel_table
     MD5 check sum: 095c7af220d748ca6e76c0b4c6cfb241

     atomic species   valence    mass     pseudopotential
        Ag1           19.00   107.86820     Ag( 1.00)
        Ti1           12.00    47.86700     Ti( 1.00)

     No symmetry found

   Cartesian axes

     site n.     atom                  positions (alat units)
         1           Ag1 tau(   1) = (   0.0000000   0.0000000  10.0000000  )
         2           Ag1 tau(   2) = (  -1.4824043   2.5675995  10.0000000  )
         3           Ag1 tau(   3) = (   1.4824043   2.5675995  10.0000000  )
         4           Ti1 tau(   4) = (   2.9648085   0.0000000  10.0000000  )
         5           Ag1 tau(   5) = (   2.9648085   1.7117330  12.4207560  )
         6           Ag1 tau(   6) = (   1.4824043   4.2793325  12.4207560  )
         7           Ag1 tau(   7) = (  -1.4824043   4.2793325  12.4207560  )
         8           Ti1 tau(   8) = (   0.0000000   1.7117330  12.4207560  )
         9           Ag1 tau(   9) = (   0.0000003   3.4083289  14.8395890  )
        10           Ag1 tau(  10) = (   1.4692951   0.8634350  14.8395891  )
        11           Ag1 tau(  11) = (   4.4603220   0.8634348  14.8395889  )
        12           Ti1 tau(  12) = (   2.9648084   3.4234662  14.7178693  )

     number of k points=    20  Fermi-Dirac smearing, width (Ry)=  0.0110
                       cart. coord. in units 2pi/alat
        k(    1) = (   0.0000000   0.0000000   0.0000000), wk =   0.0555556
        k(    2) = (   0.0000000   0.0324557   0.0000000), wk =   0.1111111
        k(    3) = (   0.0000000   0.0649115   0.0000000), wk =   0.1111111
        k(    4) = (   0.0000000  -0.0973672   0.0000000), wk =   0.0555556
        k(    5) = (   0.0281075   0.0162279   0.0000000), wk =   0.1111111
        k(    6) = (   0.0281075   0.0486836   0.0000000), wk =   0.1111111
        k(    7) = (   0.0281075   0.0811393   0.0000000), wk =   0.1111111
        k(    8) = (   0.0281075  -0.0811393   0.0000000), wk =   0.1111111
        k(    9) = (   0.0281075  -0.0486836   0.0000000), wk =   0.1111111
        k(   10) = (   0.0281075  -0.0162279   0.0000000), wk =   0.1111111
        k(   11) = (   0.0562150   0.0324557   0.0000000), wk =   0.1111111
        k(   12) = (   0.0562150   0.0649115   0.0000000), wk =   0.1111111
        k(   13) = (   0.0562150   0.0973672   0.0000000), wk =   0.1111111
        k(   14) = (   0.0562150  -0.0649115   0.0000000), wk =   0.1111111
        k(   15) = (   0.0562150  -0.0324557   0.0000000), wk =   0.1111111
        k(   16) = (   0.0562150   0.0000000   0.0000000), wk =   0.1111111
        k(   17) = (  -0.0843225  -0.0486836   0.0000000), wk =   0.0555556
        k(   18) = (  -0.0843225  -0.0162279   0.0000000), wk =   0.1111111
        k(   19) = (  -0.0843225   0.0162279   0.0000000), wk =   0.1111111
        k(   20) = (  -0.0843225  -0.1460508   0.0000000), wk =   0.0555556

     Largest allocated arrays     est. size (Mb)     dimensions
     Largest temporary arrays     est. size (Mb)     dimensions

     Check: negative/imaginary core charge=   -0.000003    0.000000

     Initial potential from superposition of free atoms
     Check: negative starting charge=   -0.004846

     starting charge  199.49944, renormalised to  207.00000

[...]

     *
     * You are using vdW-DF for exchange-correlation in this calculation.
     * Please cite the following three references that made this development
     * possible:
     *
     *   M. Dion, H. Rydberg, E. Schroder, D. C. Langreth, and
     *   B. I. Lundqvist, Phys. Rev. Lett. 92, 246401 (2004).
     *
     *   T. Thonhauser, V. R. Cooper, S. Li, A. Puzder, P. Hyldgaard, and
     *   D. C. Langreth, Phys. Rev. B 76, 125112 (2007).
     *
     *   G. Roman-Perez and J. M. Soler, Phys. Rev. Lett. 103, 096102 (2009).
     *
     *
     * If you are using vdW-DF2, please also cite:
     *
     *   K. Lee, E. D. Murray, L. Kong, B. I. Lundqvist, and
     *   D. C. Langreth, Phys. Rev. B 82, 081101(R) (2010).
     *
     *
     * If you are calculating the stress with vdW-DF, please also cite:
     *
     *   R. Sabatini, E. Kucukbenli, B. Kolb, T. Thonhauser, and
     *   S. de Gironcoli, J. Phys.: Condens. Matter 24, 424209 (2012).
     *

     Carrying out vdW-DF run using the following parameters:

     Nqs =      20    Nr_points =    1024   r_max =   100.000
     q_mesh =
               0.00001000     0.04494208     0.09755937     0.15916263
               0.23128650     0.31572767     0.41458969     0.53033537
               0.66584808     0.82450364     1.01025438     1.22772762
               1.48234092     1.78043706     2.12944203     2.53805004
               3.01644009     3.57652955     4.23227104     5.00000000

     Gradients computed in reciprocal space

[...]

     Starting wfc are  147 randomized atomic wfcs

     Self-consistent Calculation

[...]

     total energy              =   -3029.31339841 Ry
     Harris-Foulkes estimate   =   -3029.31339866 Ry
     estimated scf accuracy    <       0.00000374 Ry

     iteration # 24     ecut=    36.75 Ry     beta=0.10
     Davidson diagonalization with overlap
     ethr =  1.17E-09,  avg # of iterations =  1.1

[...]

     negative rho (up, down):  3.680E-03 0.000E+00

     Adding external electric field

     Computed dipole along edir(3) :
        Dipole               -0.0166 Ry au,         -0.0423 Debye
        Dipole field         -0.0000 Ry au

        Potential amp.        0.0038 Ry
        Total length         45.7701 bohr

     End of self-consistent calculation

[...]

          k = 0.0562 0.0000 0.0000 ( 19201 PWs)   bands (ev):

[...]

          k =-0.0843-0.1461 0.0000 ( 19212 PWs)   bands (ev):

   -90.9614 -90.9595 -90.9576 -90.7938 -90.7918 -90.7899 -90.7887 -90.7868
   -90.7849 -56.5072 -56.4893 -56.4882 -54.4979 -54.4868 -54.4803 -54.4701
   -54.4617 -54.4523 -54.3998 -54.3856 -54.3663 -54.3495 -54.3441 -54.3400
   -54.3340 -54.3306 -54.3263 -54.2852 -54.2771 -54.2701 -54.2631 -54.2578
   -54.2507 -54.2243 -54.2192 -54.2147 -54.2096 -54.2007 -54.1959 -32.7906
   -32.7708 -32.7241 -32.6871 -32.6863 -32.6743 -32.6739 -32.6706 -32.6690
    -4.3300  -4.1972  -4.1807  -4.0586  -4.0258  -3.9667  -3.9116  -3.8903
    -3.8814  -3.8659  -3.8375  -3.7677  -3.6720  -3.6062  -3.5960  -3.5959
    -3.5212  -3.4882  -3.4299  -3.2482  -3.2246  -3.1786  -3.1540  -3.1468
    -3.0782  -3.0695  -3.0534  -2.9746  -2.9667  -2.9643  -2.8907  -2.8704
    -2.8563  -2.8288  -2.8022  -2.7811  -2.6727  -2.6521  -2.6486  -2.6165
    -2.6139  -2.5847  -2.5251  -2.3609  -2.2468  -2.0596  -1.8976  -1.7224
    -1.1253  -0.4710   0.4296   0.7014   0.7677   0.8178   1.2140   1.3242
     1.4681   1.5271   1.5586   1.6079   1.6231   1.8307   1.9096   2.0190
     2.2397   2.3221   2.7569   2.9695   3.4013   3.7102   4.2880   4.4070
     4.8369   5.0729   6.0214   6.0468   6.5682   6.5821   6.7668   6.7741
     7.1337   7.2770   7.3991   7.7000   7.8273

     the Fermi energy is     1.3564 ev

!    total energy              =   -3029.31339776 Ry
     Harris-Foulkes estimate   =   -3029.31339853 Ry
     estimated scf accuracy    <       0.00000033 Ry

     The total energy is the sum of the following terms:

     one-electron contribution =  -21554.87966918 Ry
     hartree contribution      =   10765.46790194 Ry
     xc contribution           =    -326.56187948 Ry
     ewald contribution        =    8086.76432245 Ry
     electric field correction =       0.00000068 Ry
     smearing contrib. (-TS)   =      -0.10407416 Ry

     convergence has been achieved in  24 iterations

 BEEF-vdW xc energy contributions
           1 :   -282.680257928763
           2 :    255.505307496945
           3 :   -210.231653416629
           4 :    160.565450542631
           5 :   -118.785541136887
           6 :    91.2704827479085
           7 :   -77.4998015704564
           8 :    72.2697735258920
           9 :   -69.3687955038000
          10 :    64.6299551593174
          11 :   -57.0918081602226
          12 :    48.2249762410355
          13 :   -40.1869956674706
          14 :    34.3165297642884
          15 :   -30.6215770054405
          16 :    28.2217974437672
          17 :   -26.1670054625691
          18 :    24.0101312305512
          19 :   -21.8754342873626
          20 :    20.1465798279765
          21 :   -19.0892872948486
          22 :    18.6556364346324
          23 :   -18.5420454933414
          24 :    18.4035942044992
          25 :   -18.0659534294172
          26 :    17.6073256417738
          27 :   -17.2805624003323
          28 :    17.3308351808519
          29 :   -17.8179017015349
          30 :    18.5445296585228
          31 :   -28.4596769668473
          32 :   -20.6383703281237

     Forces acting on atoms (Ry/au):

     negative rho (up, down):  3.680E-03 0.000E+00
     atom    1 type  1   force =     0.00000003    0.00250141   -0.00012007
     atom    2 type  1   force =     0.00216628   -0.00125073   -0.00011985
     atom    3 type  1   force =    -0.00216630   -0.00125080   -0.00011970
     atom    4 type  2   force =     0.00000004   -0.00000000    0.01079209
     atom    5 type  1   force =    -0.00000004   -0.00349214   -0.00333496
     atom    6 type  1   force =    -0.00302434    0.00174602   -0.00333494
     atom    7 type  1   force =     0.00302434    0.00174613   -0.00333499
     atom    8 type  2   force =     0.00000003   -0.00000001    0.00051870
     atom    9 type  1   force =    -0.00000011    0.00126299   -0.00008671
     atom   10 type  1   force =     0.00109376   -0.00063153   -0.00008666
     atom   11 type  1   force =    -0.00109374   -0.00063130   -0.00008653
     atom   12 type  2   force =     0.00000005   -0.00000004   -0.00068638

     Total force =     0.014518     Total SCF correction =     0.001128

     entering subroutine stress ...

     negative rho (up, down):  3.680E-03 0.000E+00
          total   stress  (Ry/bohr**3)                   (kbar)     P=   -7.01
  -0.00005949  -0.00000000   0.00000000         -8.75     -0.00      0.00
  -0.00000000  -0.00005949  -0.00000000         -0.00     -8.75     -0.00
   0.00000000  -0.00000000  -0.00002403          0.00     -0.00     -3.53

 !ASE

     Writing output data file calc.save

     General routines

     Parallel routines

   This run was terminated on:  17:46: 3  19Dec2018

   JOB DONE.
Job  /afs/slac/g/suncat/bin/suncat-tsmpirun -x LD_LIBRARY_PATH -wdir /scratch/qe773206_vhIL3 pw.x -in pw.inp

TID   HOST_NAME   COMMAND_LINE            STATUS            TERMINATION_TIME
00000 suncat0178 pw.x -in pw.inp   Done                     12/19/2018 17:46:03
00001 suncat0178 pw.x -in pw.inp   Done                     12/19/2018 17:46:03
00002 suncat0178 pw.x -in pw.inp   Done                     12/19/2018 17:46:03
00003 suncat0178 pw.x -in pw.inp   Done                     12/19/2018 17:46:03
00004 suncat0178 pw.x -in pw.inp   Done                     12/19/2018 17:46:03
00005 suncat0178 pw.x -in pw.inp   Done                     12/19/2018 17:46:03
00006 suncat0178 pw.x -in pw.inp   Done                     12/19/2018 17:46:03
00007 suncat0178 pw.x -in pw.inp   Done                     12/19/2018 17:46:03
00008 suncat0177 pw.x -in pw.inp   Done                     12/19/2018 17:46:03
00009 suncat0177 pw.x -in pw.inp   Done                     12/19/2018 17:46:03
00010 suncat0177 pw.x -in pw.inp   Done                     12/19/2018 17:46:03
00011 suncat0177 pw.x -in pw.inp   Done                     12/19/2018 17:46:03
00012 suncat0177 pw.x -in pw.inp   Done                     12/19/2018 17:46:03
00013 suncat0177 pw.x -in pw.inp   Done                     12/19/2018 17:46:03
00014 suncat0177 pw.x -in pw.inp   Done                     12/19/2018 17:46:03
00015 suncat0177 pw.x -in pw.inp   Done                     12/19/2018 17:46:03
00016 suncat0172 pw.x -in pw.inp   Done                     12/19/2018 17:46:03
00017 suncat0172 pw.x -in pw.inp   Done                     12/19/2018 17:46:03
00018 suncat0172 pw.x -in pw.inp   Done                     12/19/2018 17:46:03
00019 suncat0172 pw.x -in pw.inp   Done                     12/19/2018 17:46:03
00020 suncat0172 pw.x -in pw.inp   Done                     12/19/2018 17:46:03
00021 suncat0172 pw.x -in pw.inp   Done                     12/19/2018 17:46:03
00022 suncat0172 pw.x -in pw.inp   Done                     12/19/2018 17:46:03
00023 suncat0172 pw.x -in pw.inp   Done                     12/19/2018 17:46:03
00024 suncat0171 pw.x -in pw.inp   Done                     12/19/2018 17:46:03
00025 suncat0171 pw.x -in pw.inp   Done                     12/19/2018 17:46:03
00026 suncat0171 pw.x -in pw.inp   Done                     12/19/2018 17:46:03
00027 suncat0171 pw.x -in pw.inp   Done                     12/19/2018 17:46:03
00028 suncat0171 pw.x -in pw.inp   Done                     12/19/2018 17:46:03
00029 suncat0171 pw.x -in pw.inp   Done                     12/19/2018 17:46:03
00030 suncat0171 pw.x -in pw.inp   Done                     12/19/2018 17:46:03
00031 suncat0171 pw.x -in pw.inp   Done                     12/19/2018 17:46:03
00032 suncat0169 pw.x -in pw.inp   Done                     12/19/2018 17:46:03
00033 suncat0169 pw.x -in pw.inp   Done                     12/19/2018 17:46:03
00034 suncat0169 pw.x -in pw.inp   Done                     12/19/2018 17:46:03
00035 suncat0169 pw.x -in pw.inp   Done                     12/19/2018 17:46:03
00036 suncat0169 pw.x -in pw.inp   Done                     12/19/2018 17:46:03
00037 suncat0169 pw.x -in pw.inp   Done                     12/19/2018 17:46:03
00038 suncat0169 pw.x -in pw.inp   Done                     12/19/2018 17:46:03
00039 suncat0169 pw.x -in pw.inp   Done                     12/19/2018 17:46:03
00040 suncat0168 pw.x -in pw.inp   Done                     12/19/2018 17:46:03
00041 suncat0168 pw.x -in pw.inp   Done                     12/19/2018 17:46:03
00042 suncat0168 pw.x -in pw.inp   Done                     12/19/2018 17:46:03
00043 suncat0168 pw.x -in pw.inp   Done                     12/19/2018 17:46:03
00044 suncat0168 pw.x -in pw.inp   Done                     12/19/2018 17:46:03
00045 suncat0168 pw.x -in pw.inp   Done                     12/19/2018 17:46:03
00046 suncat0168 pw.x -in pw.inp   Done                     12/19/2018 17:46:03
00047 suncat0168 pw.x -in pw.inp   Done                     12/19/2018 17:46:03
00048 suncat0110 pw.x -in pw.inp   Done                     12/19/2018 17:46:03
00049 suncat0110 pw.x -in pw.inp   Done                     12/19/2018 17:46:03
00050 suncat0110 pw.x -in pw.inp   Done                     12/19/2018 17:46:03
00051 suncat0110 pw.x -in pw.inp   Done                     12/19/2018 17:46:03
00052 suncat0110 pw.x -in pw.inp   Done                     12/19/2018 17:46:03
00053 suncat0110 pw.x -in pw.inp   Done                     12/19/2018 17:46:03
00054 suncat0110 pw.x -in pw.inp   Done                     12/19/2018 17:46:03
00055 suncat0110 pw.x -in pw.inp   Done                     12/19/2018 17:46:03
00056 suncat0105 pw.x -in pw.inp   Done                     12/19/2018 17:46:03
00057 suncat0105 pw.x -in pw.inp   Done                     12/19/2018 17:46:03
00058 suncat0105 pw.x -in pw.inp   Done                     12/19/2018 17:46:03
00059 suncat0105 pw.x -in pw.inp   Done                     12/19/2018 17:46:03
00060 suncat0105 pw.x -in pw.inp   Done                     12/19/2018 17:46:03
00061 suncat0105 pw.x -in pw.inp   Done                     12/19/2018 17:46:03
00062 suncat0105 pw.x -in pw.inp   Done                     12/19/2018 17:46:03
00063 suncat0105 pw.x -in pw.inp   Done                     12/19/2018 17:46:03