     Program PWSCF v.5.1rc2 (svn rev. 11289) starts on 20Dec2018 at  9:17:22

     Current dimensions of program PWSCF are:
     Max number of different atomic species (ntypx) = 10
     Max number of k-points (npk) =  40000
     Max angular momentum in pseudopotentials (lmaxx) =  3
     Presently stress not available with electric field

     IMPORTANT: XC functional enforced from input :
     Exchange-correlation      = BEEF-VDW ( 1  4 27 13 2)
     Any further DFT definition will be discarded
     Please, verify this is what you really want

     Subspace diagonalization in iterative solution of the eigenvalue problem:
     a serial algorithm will be used

     Generating pointlists ...
     new r_m :   0.4125 (alat units)  0.7795 (a.u.) for type    1
     new r_m :   0.4125 (alat units)  0.7795 (a.u.) for type    2

     bravais-lattice index     =            0
     lattice parameter (alat)  =       1.8897  a.u.
     unit-cell volume          =    3605.7920 (a.u.)^3
     number of atoms/cell      =           12
     number of atomic types    =            2
     number of electrons       =       198.00
     number of Kohn-Sham states=          129
     kinetic-energy cutoff     =      36.7493  Ry
     charge density cutoff     =     367.4932  Ry
     convergence threshold     =      1.0E-06
     mixing beta               =       0.1000
     number of iterations used =           10  plain     mixing
     Exchange-correlation      = BEEF-VDW ( 1  4 27 13 2)
     nstep                     =           50

     celldm(1)=   1.889726  celldm(2)=   0.000000  celldm(3)=   0.000000
     celldm(4)=   0.000000  celldm(5)=   0.000000  celldm(6)=   0.000000

     crystal axes: (cart. coord. in units of alat)
               a(1) = (   5.056720   0.000000   0.000000 )
               a(2) = (  -2.528360   4.379248   0.000000 )
               a(3) = (   0.000000   0.000000  24.128795 )

     reciprocal axes: (cart. coord. in units 2 pi/alat)
               b(1) = (  0.197757  0.114175  0.000000 )
               b(2) = (  0.000000  0.228350  0.000000 )
               b(3) = (  0.000000  0.000000  0.041444 )

     PseudoPot. # 1 for Co read from file:
     /afs/slac.stanford.edu/u/if/mamunm/psp/gbrv1.5pbe/Co.UPF
     MD5 check sum: 5f91765df6ddd3222702df6e7b74a16d
     Pseudo is Ultrasoft + core correction, Zval = 17.0
     Generated by new atomic code, or converted to UPF format
     Using radial grid of  863 points,  6 beta functions with:
                l(1) =   0
                l(2) =   0
                l(3) =   1
                l(4) =   1
                l(5) =   2
                l(6) =   2
     Q(r) pseudized with  8 coefficients,  rinner =    1.200   1.200   1.200
                                                       1.200   1.200

     PseudoPot. # 2 for Tc read from file:
     /afs/slac.stanford.edu/u/if/mamunm/psp/gbrv1.5pbe/Tc.UPF
     MD5 check sum: 9eb49e5b028550b2339a02317eb7b844
     Pseudo is Ultrasoft + core correction, Zval = 15.0
     Generated by new atomic code, or converted to UPF format
     Using radial grid of  965 points,  6 beta functions with:
                l(1) =   0
                l(2) =   0
                l(3) =   1
                l(4) =   1
                l(5) =   2
                l(6) =   2
     Q(r) pseudized with  8 coefficients,  rinner =    1.300   1.300   1.300
                                                       1.300   1.300

     vdW kernel table read from file vdW_kernel_table
     MD5 check sum: 095c7af220d748ca6e76c0b4c6cfb241

     atomic species   valence    mass     pseudopotential
        Co1           17.00    58.93319     Co( 1.00)
        Tc1           15.00    97.90721     Tc( 1.00)

     Starting magnetic structure
     atomic species   magnetization
        Co1          0.118
        Tc1          0.133

     No symmetry found

   Cartesian axes

     site n.     atom                  positions (alat units)
         1           Co1 tau(   1) = (   0.0000000   0.0000000  10.0000000  )
         2           Co1 tau(   2) = (  -1.2641800   2.1896240  10.0000000  )
         3           Co1 tau(   3) = (   1.2641800   2.1896240  10.0000000  )
         4           Tc1 tau(   4) = (   2.5283600   0.0000000  10.0000000  )
         5           Co1 tau(   5) = (   2.5283600   1.4597493  12.0643973  )
         6           Co1 tau(   6) = (   1.2641800   3.6493733  12.0643973  )
         7           Co1 tau(   7) = (  -1.2641800   3.6493733  12.0643973  )
         8           Tc1 tau(   8) = (   0.0000000   1.4597493  12.0643973  )
         9           Co1 tau(   9) = (  -0.0000000   2.9194986  14.1287946  )
        10           Co1 tau(  10) = (   1.2641800   0.7298747  14.1287946  )
        11           Co1 tau(  11) = (   3.7925400   0.7298747  14.1287946  )
        12           Tc1 tau(  12) = (   2.5283600   2.9194986  14.1287946  )

     number of k points=    40  Fermi-Dirac smearing, width (Ry)=  0.0110
                       cart. coord. in units 2pi/alat
        k(    1) = (   0.0000000   0.0000000   0.0000000), wk =   0.0277778
        k(    2) = (   0.0000000   0.0380583   0.0000000), wk =   0.0555556
        k(    3) = (   0.0000000   0.0761166   0.0000000), wk =   0.0555556
        k(    4) = (   0.0000000  -0.1141749   0.0000000), wk =   0.0277778
        k(    5) = (   0.0329594   0.0190291   0.0000000), wk =   0.0555556
        k(    6) = (   0.0329594   0.0570874   0.0000000), wk =   0.0555556
        k(    7) = (   0.0329594   0.0951457   0.0000000), wk =   0.0555556
        k(    8) = (   0.0329594  -0.0951457   0.0000000), wk =   0.0555556
        k(    9) = (   0.0329594  -0.0570874   0.0000000), wk =   0.0555556
        k(   10) = (   0.0329594  -0.0190291   0.0000000), wk =   0.0555556
        k(   11) = (   0.0659189   0.0380583   0.0000000), wk =   0.0555556
        k(   12) = (   0.0659189   0.0761166   0.0000000), wk =   0.0555556
        k(   13) = (   0.0659189   0.1141749   0.0000000), wk =   0.0555556
        k(   14) = (   0.0659189  -0.0761166   0.0000000), wk =   0.0555556
        k(   15) = (   0.0659189  -0.0380583   0.0000000), wk =   0.0555556
        k(   16) = (   0.0659189   0.0000000   0.0000000), wk =   0.0555556
        k(   17) = (  -0.0988783  -0.0570874   0.0000000), wk =   0.0277778
        k(   18) = (  -0.0988783  -0.0190291   0.0000000), wk =   0.0555556
        k(   19) = (  -0.0988783   0.0190291   0.0000000), wk =   0.0555556
        k(   20) = (  -0.0988783  -0.1712623   0.0000000), wk =   0.0277778
        k(   21) = (   0.0000000   0.0000000   0.0000000), wk =   0.0277778
        k(   22) = (   0.0000000   0.0380583   0.0000000), wk =   0.0555556
        k(   23) = (   0.0000000   0.0761166   0.0000000), wk =   0.0555556
        k(   24) = (   0.0000000  -0.1141749   0.0000000), wk =   0.0277778
        k(   25) = (   0.0329594   0.0190291   0.0000000), wk =   0.0555556
        k(   26) = (   0.0329594   0.0570874   0.0000000), wk =   0.0555556
        k(   27) = (   0.0329594   0.0951457   0.0000000), wk =   0.0555556
        k(   28) = (   0.0329594  -0.0951457   0.0000000), wk =   0.0555556
        k(   29) = (   0.0329594  -0.0570874   0.0000000), wk =   0.0555556
        k(   30) = (   0.0329594  -0.0190291   0.0000000), wk =   0.0555556
        k(   31) = (   0.0659189   0.0380583   0.0000000), wk =   0.0555556
        k(   32) = (   0.0659189   0.0761166   0.0000000), wk =   0.0555556
        k(   33) = (   0.0659189   0.1141749   0.0000000), wk =   0.0555556
        k(   34) = (   0.0659189  -0.0761166   0.0000000), wk =   0.0555556
        k(   35) = (   0.0659189  -0.0380583   0.0000000), wk =   0.0555556
        k(   36) = (   0.0659189   0.0000000   0.0000000), wk =   0.0555556
        k(   37) = (  -0.0988783  -0.0570874   0.0000000), wk =   0.0277778
        k(   38) = (  -0.0988783  -0.0190291   0.0000000), wk =   0.0555556
        k(   39) = (  -0.0988783   0.0190291   0.0000000), wk =   0.0555556
        k(   40) = (  -0.0988783  -0.1712623   0.0000000), wk =   0.0277778

     Largest allocated arrays     est. size (Mb)     dimensions
     Largest temporary arrays     est. size (Mb)     dimensions

     Check: negative/imaginary core charge=   -0.000014    0.000000

     Initial potential from superposition of free atoms
     Check: negative starting charge=(component1):   -0.216722
     Check: negative starting charge=(component2):   -0.165713

     starting charge  185.99985, renormalised to  198.00000

     negative rho (up, down):  2.307E-01 1.764E-01

     *
     * You are using vdW-DF for exchange-correlation in this calculation.
     * Please cite the following three references that made this development
     * possible:
     *
     *   M. Dion, H. Rydberg, E. Schroder, D. C. Langreth, and
     *   B. I. Lundqvist, Phys. Rev. Lett. 92, 246401 (2004).
     *
     *   T. Thonhauser, V. R. Cooper, S. Li, A. Puzder, P. Hyldgaard, and
     *   D. C. Langreth, Phys. Rev. B 76, 125112 (2007).
     *
     *   G. Roman-Perez and J. M. Soler, Phys. Rev. Lett. 103, 096102 (2009).
     *
     *
     * If you are using vdW-DF2, please also cite:
     *
     *   K. Lee, E. D. Murray, L. Kong, B. I. Lundqvist, and
     *   D. C. Langreth, Phys. Rev. B 82, 081101(R) (2010).
     *
     *
     * If you are calculating the stress with vdW-DF, please also cite:
     *
     *   R. Sabatini, E. Kucukbenli, B. Kolb, T. Thonhauser, and
     *   S. de Gironcoli, J. Phys.: Condens. Matter 24, 424209 (2012).
     *

     Carrying out vdW-DF run using the following parameters:

     Nqs =      20    Nr_points =    1024   r_max =   100.000
     q_mesh =
               0.00001000     0.04494208     0.09755937     0.15916263
               0.23128650     0.31572767     0.41458969     0.53033537
               0.66584808     0.82450364     1.01025438     1.22772762
               1.48234092     1.78043706     2.12944203     2.53805004
               3.01644009     3.57652955     4.23227104     5.00000000

     Gradients computed in reciprocal space

     Adding external electric field

     Computed dipole along edir(3) :
        Dipole                0.0000 Ry au,          0.0000 Debye
        Dipole field          0.0000 Ry au

        Potential amp.       -0.0000 Ry
        Total length         44.4569 bohr

[...]

     Starting wfc are  156 randomized atomic wfcs

     Self-consistent Calculation

     iteration #  1     ecut=    36.75 Ry     beta=0.10
     Davidson diagonalization with overlap
     ethr =  1.00E-02,  avg # of iterations =  7.8

[...]

     Magnetic moment per site:
     atom:    1    charge:    8.4657    magn:    0.9558    constr:    0.0000
     atom:    2    charge:    8.4657    magn:    0.9558    constr:    0.0000
     atom:    3    charge:    8.4657    magn:    0.9558    constr:    0.0000
     atom:    4    charge:    2.3986    magn:    0.2933    constr:    0.0000
     atom:    5    charge:    8.4746    magn:    0.9565    constr:    0.0000
     atom:    6    charge:    8.4746    magn:    0.9565    constr:    0.0000
     atom:    7    charge:    8.4746    magn:    0.9565    constr:    0.0000
     atom:    8    charge:    2.4006    magn:    0.2937    constr:    0.0000
[...]
        k(    5) = (   0.0329594   0.0190291   0.0000000), wk =   0.0555556
        k(    6) = (   0.0329594   0.0570874   0.0000000), wk =   0.0555556
        k(    7) = (   0.0329594   0.0951457   0.0000000), wk =   0.0555556
        k(    8) = (   0.0329594  -0.0951457   0.0000000), wk =   0.0555556
        k(    9) = (   0.0329594  -0.0570874   0.0000000), wk =   0.0555556
        k(   10) = (   0.0329594  -0.0190291   0.0000000), wk =   0.0555556
        k(   11) = (   0.0659189   0.0380583   0.0000000), wk =   0.0555556
        k(   12) = (   0.0659189   0.0761166   0.0000000), wk =   0.0555556
        k(   13) = (   0.0659189   0.1141749   0.0000000), wk =   0.0555556
        k(   14) = (   0.0659189  -0.0761166   0.0000000), wk =   0.0555556
        k(   15) = (   0.0659189  -0.0380583   0.0000000), wk =   0.0555556
        k(   16) = (   0.0659189   0.0000000   0.0000000), wk =   0.0555556
        k(   17) = (  -0.0988783  -0.0570874   0.0000000), wk =   0.0277778
        k(   18) = (  -0.0988783  -0.0190291   0.0000000), wk =   0.0555556
        k(   19) = (  -0.0988783   0.0190291   0.0000000), wk =   0.0555556
        k(   20) = (  -0.0988783  -0.1712623   0.0000000), wk =   0.0277778
        k(   21) = (   0.0000000   0.0000000   0.0000000), wk =   0.0277778
        k(   22) = (   0.0000000   0.0380583   0.0000000), wk =   0.0555556
        k(   23) = (   0.0000000   0.0761166   0.0000000), wk =   0.0555556
        k(   24) = (   0.0000000  -0.1141749   0.0000000), wk =   0.0277778
        k(   25) = (   0.0329594   0.0190291   0.0000000), wk =   0.0555556
        k(   26) = (   0.0329594   0.0570874   0.0000000), wk =   0.0555556
        k(   27) = (   0.0329594   0.0951457   0.0000000), wk =   0.0555556
        k(   28) = (   0.0329594  -0.0951457   0.0000000), wk =   0.0555556
        k(   29) = (   0.0329594  -0.0570874   0.0000000), wk =   0.0555556
        k(   30) = (   0.0329594  -0.0190291   0.0000000), wk =   0.0555556
        k(   31) = (   0.0659189   0.0380583   0.0000000), wk =   0.0555556
        k(   32) = (   0.0659189   0.0761166   0.0000000), wk =   0.0555556
        k(   33) = (   0.0659189   0.1141749   0.0000000), wk =   0.0555556
        k(   34) = (   0.0659189  -0.0761166   0.0000000), wk =   0.0555556
        k(   35) = (   0.0659189  -0.0380583   0.0000000), wk =   0.0555556
        k(   36) = (   0.0659189   0.0000000   0.0000000), wk =   0.0555556
        k(   37) = (  -0.0988783  -0.0570874   0.0000000), wk =   0.0277778
        k(   38) = (  -0.0988783  -0.0190291   0.0000000), wk =   0.0555556
        k(   39) = (  -0.0988783   0.0190291   0.0000000), wk =   0.0555556
        k(   40) = (  -0.0988783  -0.1712623   0.0000000), wk =   0.0277778

     Largest allocated arrays     est. size (Mb)     dimensions
     Largest temporary arrays     est. size (Mb)     dimensions

     Check: negative/imaginary core charge=   -0.000014    0.000000

     Initial potential from superposition of free atoms
     Check: negative starting charge=(component1):   -0.216807
     Check: negative starting charge=(component2):   -0.165779

     starting charge  185.99985, renormalised to  198.00000

[...]

     *
     * You are using vdW-DF for exchange-correlation in this calculation.
     * Please cite the following three references that made this development
     * possible:
     *
     *   M. Dion, H. Rydberg, E. Schroder, D. C. Langreth, and
     *   B. I. Lundqvist, Phys. Rev. Lett. 92, 246401 (2004).
     *
     *   T. Thonhauser, V. R. Cooper, S. Li, A. Puzder, P. Hyldgaard, and
     *   D. C. Langreth, Phys. Rev. B 76, 125112 (2007).
     *
     *   G. Roman-Perez and J. M. Soler, Phys. Rev. Lett. 103, 096102 (2009).
     *
     *
     * If you are using vdW-DF2, please also cite:
     *
     *   K. Lee, E. D. Murray, L. Kong, B. I. Lundqvist, and
     *   D. C. Langreth, Phys. Rev. B 82, 081101(R) (2010).
     *
     *
     * If you are calculating the stress with vdW-DF, please also cite:
     *
     *   R. Sabatini, E. Kucukbenli, B. Kolb, T. Thonhauser, and
     *   S. de Gironcoli, J. Phys.: Condens. Matter 24, 424209 (2012).
     *

     Carrying out vdW-DF run using the following parameters:

     Nqs =      20    Nr_points =    1024   r_max =   100.000
     q_mesh =
               0.00001000     0.04494208     0.09755937     0.15916263
               0.23128650     0.31572767     0.41458969     0.53033537
               0.66584808     0.82450364     1.01025438     1.22772762
               1.48234092     1.78043706     2.12944203     2.53805004
               3.01644009     3.57652955     4.23227104     5.00000000

     Gradients computed in reciprocal space

[...]

     Starting wfc are  156 randomized atomic wfcs

     Self-consistent Calculation

[...]

     total energy              =   -3221.43666285 Ry
     Harris-Foulkes estimate   =   -3221.43666237 Ry
     estimated scf accuracy    <       0.00000118 Ry

[...]

     iteration # 50     ecut=    36.75 Ry     beta=0.10
     Davidson diagonalization with overlap
     ethr =  5.95E-10,  avg # of iterations =  1.4

[...]

     negative rho (up, down):  2.008E-01 2.017E-01

[...]

     Adding external electric field

     Computed dipole along edir(3) :
        Dipole                0.0039 Ry au,          0.0100 Debye
        Dipole field          0.0000 Ry au

        Potential amp.       -0.0012 Ry
        Total length         44.4569 bohr

     Magnetic moment per site:
     atom:    1    charge:    8.2806    magn:    0.6106    constr:    0.0000
     atom:    2    charge:    8.2806    magn:    0.6106    constr:    0.0000
     atom:    3    charge:    8.2806    magn:    0.6105    constr:    0.0000
     atom:    4    charge:    2.2629    magn:    0.0010    constr:    0.0000
     atom:    5    charge:    8.2766    magn:    0.5291    constr:    0.0000
     atom:    6    charge:    8.2766    magn:    0.5292    constr:    0.0000
     atom:    7    charge:    8.2765    magn:    0.5291    constr:    0.0000
     atom:    8    charge:    2.2662    magn:   -0.0056    constr:    0.0000
     atom:    9    charge:    8.2827    magn:    0.5739    constr:    0.0000
     atom:   10    charge:    8.2828    magn:    0.5739    constr:    0.0000
     atom:   11    charge:    8.2828    magn:    0.5739    constr:    0.0000
     atom:   12    charge:    2.2670    magn:   -0.0015    constr:    0.0000

     End of self-consistent calculation

 ------ SPIN UP ------------

[...]

 ------ SPIN DOWN ----------

[...]

          k = 0.0659 0.0000 0.0000 ( 13551 PWs)   bands (ev):

[...]

          k =-0.0989-0.1713 0.0000 ( 13590 PWs)   bands (ev):

   -93.2599 -93.2521 -93.2444 -92.9516 -92.9440 -92.9365 -92.9049 -92.8973
   -92.8897 -66.1591 -65.7480 -65.7228 -56.7089 -56.6675 -56.6459 -56.6363
   -56.6191 -56.5909 -56.5038 -56.4812 -56.4414 -56.4162 -56.3919 -56.3807
   -56.3764 -56.3528 -56.3356 -56.3051 -56.2642 -56.2557 -56.2228 -56.2126
   -56.1693 -56.1648 -56.1513 -56.1240 -56.1220 -56.1077 -56.0839 -38.2250
   -38.1548 -38.1474 -37.7829 -37.7757 -37.7591 -37.7518 -37.7356 -37.7040
    -4.6361  -4.5484  -3.3854  -2.9534  -2.9472  -2.9442  -2.5670  -2.2724
    -2.2328  -2.0987  -1.8546  -1.7363  -1.7055  -1.5847  -1.4589  -1.2580
    -1.1917  -1.1256  -1.0625  -0.8787  -0.8131  -0.6236  -0.5506  -0.3236
    -0.2920  -0.2415  -0.2025  -0.0993  -0.0514  -0.0086   0.0267   0.0525
     0.1454   0.1717   0.2081   0.2313   0.3002   0.3542   0.3908   0.4445
     0.7539   0.8558   0.8823   1.0455   1.0464   1.1162   1.1309   1.1862
     1.4241   1.4967   1.5041   1.5409   1.6831   1.7141   1.7918   1.8418
     1.9573   2.1299   2.1778   2.1900   2.3835   2.5321   2.5479   3.0718
     3.6573   3.8431   4.0397   4.9944   5.2870   5.7374   5.9112   6.1033
     7.3150   7.3514   7.4454   7.4558   7.9160   7.9495   8.0482   8.0505
     9.1405

     the Fermi energy is     1.3348 ev

!    total energy              =   -3221.43666424 Ry
     Harris-Foulkes estimate   =   -3221.43666297 Ry
     estimated scf accuracy    <       0.00000096 Ry

     The total energy is the sum of the following terms:

     one-electron contribution =  -28494.94443102 Ry
     hartree contribution      =   14252.74661718 Ry
     xc contribution           =    -403.04388632 Ry
     ewald contribution        =   11423.91555323 Ry
     electric field correction =       0.00000005 Ry
     smearing contrib. (-TS)   =      -0.11051736 Ry

     total magnetization       =     8.83 Bohr mag/cell
     absolute magnetization    =    10.35 Bohr mag/cell

     convergence has been achieved in  50 iterations

 BEEF-vdW xc energy contributions
           1 :   -354.599247900940
           2 :    322.813118416470
           3 :   -268.013650711975
           4 :    203.875361646002
           5 :   -143.595197721211
           6 :    95.4161773983047
           7 :   -61.0678185282497
           8 :    37.2592204903135
           9 :   -19.0071409134977
          10 :    2.75469016050255
          11 :    12.1593299756015
          12 :   -24.0868139507809
          13 :    30.8632754689789
          14 :   -31.5766608609490
          15 :    27.2606834712645
          16 :   -20.3482626620568
          17 :    13.3868628864826
          18 :   -7.92141420921320
          19 :    4.13072873745779
          20 :   -1.32168762225473
          21 :   -1.20902272558493
          22 :    3.52607237251181
          23 :   -5.03220311109629
          24 :    4.97128160799127
          25 :   -3.07273903291548
          26 :  -0.148564161181127
          27 :    3.60501275199272
          28 :   -6.21826840811485
          29 :    7.45528880402219
          30 :   -7.50388798283882
          31 :   -30.9504638678360
          32 :   -21.8374659819772

     Forces acting on atoms (Ry/au):

     negative rho (up, down):  2.008E-01 2.017E-01
     atom    1 type  1   force =     0.00000225   -0.00239876    0.00635343
     atom    2 type  1   force =    -0.00206339    0.00121037    0.00634426
     atom    3 type  1   force =     0.00206064    0.00120599    0.00633709
     atom    4 type  2   force =     0.00000075    0.00000506    0.00020580
     atom    5 type  1   force =     0.00001136    0.00031000   -0.00423656
     atom    6 type  1   force =     0.00025962   -0.00015219   -0.00421229
     atom    7 type  1   force =    -0.00025361   -0.00016194   -0.00422754
     atom    8 type  2   force =     0.00000338    0.00000014   -0.00583057
     atom    9 type  1   force =    -0.00000128    0.00037580   -0.00034768
     atom   10 type  1   force =     0.00031428   -0.00020790   -0.00036126
     atom   11 type  1   force =    -0.00030460   -0.00020091   -0.00033495
     atom   12 type  2   force =    -0.00002940    0.00001434    0.00031027

     Total force =     0.015057     Total SCF correction =     0.001849
     SCF correction compared to forces is large: reduce conv_thr to get better values

     entering subroutine stress ...

     negative rho (up, down):  2.008E-01 2.017E-01
          total   stress  (Ry/bohr**3)                   (kbar)     P=  -18.10
  -0.00015144   0.00000001  -0.00000002        -22.28      0.00     -0.00
   0.00000001  -0.00015146  -0.00000000          0.00    -22.28     -0.00
  -0.00000002  -0.00000000  -0.00006625         -0.00     -0.00     -9.75

 !ASE

     Writing output data file calc.save

     General routines

     Parallel routines

   This run was terminated on:  13:56: 4  20Dec2018

   JOB DONE.
Job  /afs/slac/g/suncat/bin/suncat-tsmpirun -x LD_LIBRARY_PATH -wdir /scratch/qe773546_Br5lJ pw.x -in pw.inp

TID   HOST_NAME   COMMAND_LINE            STATUS            TERMINATION_TIME
00000 suncat0038 pw.x -in pw.inp   Done                     12/20/2018 13:56:04
00001 suncat0038 pw.x -in pw.inp   Done                     12/20/2018 13:56:04
00002 suncat0038 pw.x -in pw.inp   Done                     12/20/2018 13:56:04
00003 suncat0038 pw.x -in pw.inp   Done                     12/20/2018 13:56:04
00004 suncat0038 pw.x -in pw.inp   Done                     12/20/2018 13:56:04
00005 suncat0038 pw.x -in pw.inp   Done                     12/20/2018 13:56:04
00006 suncat0038 pw.x -in pw.inp   Done                     12/20/2018 13:56:04
00007 suncat0038 pw.x -in pw.inp   Done                     12/20/2018 13:56:04
00008 suncat0037 pw.x -in pw.inp   Done                     12/20/2018 13:56:04
00009 suncat0037 pw.x -in pw.inp   Done                     12/20/2018 13:56:04
00010 suncat0037 pw.x -in pw.inp   Done                     12/20/2018 13:56:04
00011 suncat0037 pw.x -in pw.inp   Done                     12/20/2018 13:56:04
00012 suncat0037 pw.x -in pw.inp   Done                     12/20/2018 13:56:04
00013 suncat0037 pw.x -in pw.inp   Done                     12/20/2018 13:56:04
00014 suncat0037 pw.x -in pw.inp   Done                     12/20/2018 13:56:04
00015 suncat0037 pw.x -in pw.inp   Done                     12/20/2018 13:56:04
00016 suncat0033 pw.x -in pw.inp   Done                     12/20/2018 13:56:04
00017 suncat0033 pw.x -in pw.inp   Done                     12/20/2018 13:56:04
00018 suncat0033 pw.x -in pw.inp   Done                     12/20/2018 13:56:04
00019 suncat0033 pw.x -in pw.inp   Done                     12/20/2018 13:56:04
00020 suncat0033 pw.x -in pw.inp   Done                     12/20/2018 13:56:04
00021 suncat0033 pw.x -in pw.inp   Done                     12/20/2018 13:56:04
00022 suncat0033 pw.x -in pw.inp   Done                     12/20/2018 13:56:04
00023 suncat0033 pw.x -in pw.inp   Done                     12/20/2018 13:56:04
00024 suncat0032 pw.x -in pw.inp   Done                     12/20/2018 13:56:04
00025 suncat0032 pw.x -in pw.inp   Done                     12/20/2018 13:56:04
00026 suncat0032 pw.x -in pw.inp   Done                     12/20/2018 13:56:04
00027 suncat0032 pw.x -in pw.inp   Done                     12/20/2018 13:56:04
00028 suncat0032 pw.x -in pw.inp   Done                     12/20/2018 13:56:04
00029 suncat0032 pw.x -in pw.inp   Done                     12/20/2018 13:56:04
00030 suncat0032 pw.x -in pw.inp   Done                     12/20/2018 13:56:04
00031 suncat0032 pw.x -in pw.inp   Done                     12/20/2018 13:56:04
00032 suncat0147 pw.x -in pw.inp   Done                     12/20/2018 13:56:04
00033 suncat0147 pw.x -in pw.inp   Done                     12/20/2018 13:56:04
00034 suncat0147 pw.x -in pw.inp   Done                     12/20/2018 13:56:04
00035 suncat0147 pw.x -in pw.inp   Done                     12/20/2018 13:56:04
00036 suncat0147 pw.x -in pw.inp   Done                     12/20/2018 13:56:04
00037 suncat0147 pw.x -in pw.inp   Done                     12/20/2018 13:56:04
00038 suncat0147 pw.x -in pw.inp   Done                     12/20/2018 13:56:04
00039 suncat0147 pw.x -in pw.inp   Done                     12/20/2018 13:56:04
00040 suncat0146 pw.x -in pw.inp   Done                     12/20/2018 13:56:04
00041 suncat0146 pw.x -in pw.inp   Done                     12/20/2018 13:56:04
00042 suncat0146 pw.x -in pw.inp   Done                     12/20/2018 13:56:04
00043 suncat0146 pw.x -in pw.inp   Done                     12/20/2018 13:56:04
00044 suncat0146 pw.x -in pw.inp   Done                     12/20/2018 13:56:04
00045 suncat0146 pw.x -in pw.inp   Done                     12/20/2018 13:56:04
00046 suncat0146 pw.x -in pw.inp   Done                     12/20/2018 13:56:04
00047 suncat0146 pw.x -in pw.inp   Done                     12/20/2018 13:56:04
00048 suncat0260 pw.x -in pw.inp   Done                     12/20/2018 13:56:04
00049 suncat0260 pw.x -in pw.inp   Done                     12/20/2018 13:56:04
00050 suncat0260 pw.x -in pw.inp   Done                     12/20/2018 13:56:04
00051 suncat0260 pw.x -in pw.inp   Done                     12/20/2018 13:56:04
00052 suncat0260 pw.x -in pw.inp   Done                     12/20/2018 13:56:04
00053 suncat0260 pw.x -in pw.inp   Done                     12/20/2018 13:56:04
00054 suncat0260 pw.x -in pw.inp   Done                     12/20/2018 13:56:04
00055 suncat0260 pw.x -in pw.inp   Done                     12/20/2018 13:56:04
00056 suncat0259 pw.x -in pw.inp   Done                     12/20/2018 13:56:04
00057 suncat0259 pw.x -in pw.inp   Done                     12/20/2018 13:56:04
00058 suncat0259 pw.x -in pw.inp   Done                     12/20/2018 13:56:04
00059 suncat0259 pw.x -in pw.inp   Done                     12/20/2018 13:56:04
00060 suncat0259 pw.x -in pw.inp   Done                     12/20/2018 13:56:04
00061 suncat0259 pw.x -in pw.inp   Done                     12/20/2018 13:56:04
00062 suncat0259 pw.x -in pw.inp   Done                     12/20/2018 13:56:04
00063 suncat0259 pw.x -in pw.inp   Done                     12/20/2018 13:56:04