     Program PWSCF v.5.1rc2 (svn rev. 11289) starts on 30Dec2018 at 19:33:15

     Current dimensions of program PWSCF are:
     Max number of different atomic species (ntypx) = 10
     Max number of k-points (npk) =  40000
     Max angular momentum in pseudopotentials (lmaxx) =  3
     Presently stress not available with electric field

     IMPORTANT: XC functional enforced from input :
     Exchange-correlation      = BEEF-VDW ( 1  4 27 13 2)
     Any further DFT definition will be discarded
     Please, verify this is what you really want

     Subspace diagonalization in iterative solution of the eigenvalue problem:
     a serial algorithm will be used

     bravais-lattice index     =            0
     lattice parameter (alat)  =       1.8897  a.u.
     unit-cell volume          =    4800.0587 (a.u.)^3
     number of atoms/cell      =           12
     number of atomic types    =            2
     number of electrons       =       165.00
     number of Kohn-Sham states=          112
     kinetic-energy cutoff     =      36.7493  Ry
     charge density cutoff     =     367.4932  Ry
     convergence threshold     =      1.0E-06
     mixing beta               =       0.1000
     number of iterations used =           10  plain     mixing
     Exchange-correlation      = BEEF-VDW ( 1  4 27 13 2)
     nstep                     =           50

     celldm(1)=   1.889726  celldm(2)=   0.000000  celldm(3)=   0.000000
     celldm(4)=   0.000000  celldm(5)=   0.000000  celldm(6)=   0.000000

     crystal axes: (cart. coord. in units of alat)
               a(1) = (   5.765599   0.000000   0.000000 )
               a(2) = (  -2.882800   4.993155   0.000000 )
               a(3) = (   0.000000   0.000000  24.707592 )

     reciprocal axes: (cart. coord. in units 2 pi/alat)
               b(1) = (  0.173443  0.100137  0.000000 )
               b(2) = (  0.000000  0.200274  0.000000 )
               b(3) = (  0.000000  0.000000  0.040473 )

     PseudoPot. # 1 for Mo read from file:
     /afs/slac.stanford.edu/u/if/mamunm/psp/gbrv1.5pbe/Mo.UPF
     MD5 check sum: 30c4dcd161f5d35cd49bb5239c51a633
     Pseudo is Ultrasoft + core correction, Zval = 14.0
     Generated by new atomic code, or converted to UPF format
     Using radial grid of  889 points,  6 beta functions with:
                l(1) =   0
                l(2) =   0
                l(3) =   1
                l(4) =   1
                l(5) =   2
                l(6) =   2
     Q(r) pseudized with  6 coefficients,  rinner =    1.000   1.000   1.000
                                                       1.000   1.000

     PseudoPot. # 2 for In read from file:
     /afs/slac.stanford.edu/u/if/mamunm/psp/gbrv1.5pbe/In.UPF
     MD5 check sum: 90777abd96fbb83f2e67db2a40c566b9
     Pseudo is Ultrasoft + core correction, Zval = 13.0
     Generated by new atomic code, or converted to UPF format
     Using radial grid of  889 points,  6 beta functions with:
                l(1) =   0
                l(2) =   0
                l(3) =   1
                l(4) =   1
                l(5) =   2
                l(6) =   2
     Q(r) pseudized with  6 coefficients,  rinner =    1.400   1.400   1.400
                                                       1.400   1.400

     vdW kernel table read from file vdW_kernel_table
     MD5 check sum: 095c7af220d748ca6e76c0b4c6cfb241

     atomic species   valence    mass     pseudopotential
        Mo1           14.00    95.95000     Mo( 1.00)
        In1           13.00   114.81800     In( 1.00)

     No symmetry found

   Cartesian axes

     site n.     atom                  positions (alat units)
         1           Mo1 tau(   1) = (   0.0000000   0.0000000  10.0000000  )
         2           Mo1 tau(   2) = (  -1.4413998   2.4965777  10.0000000  )
         3           Mo1 tau(   3) = (   1.4413998   2.4965777  10.0000000  )
         4           In1 tau(   4) = (   2.8827996   0.0000000  10.0000000  )
         5           Mo1 tau(   5) = (   2.8827996   1.6643851  12.3537960  )
         6           Mo1 tau(   6) = (   1.4413998   4.1609628  12.3537960  )
         7           Mo1 tau(   7) = (  -1.4413998   4.1609628  12.3537960  )
         8           In1 tau(   8) = (   0.0000000   1.6643851  12.3537960  )
         9           Mo1 tau(   9) = (  -0.0000000   3.3287702  14.7075920  )
        10           Mo1 tau(  10) = (   1.4413998   0.8321926  14.7075920  )
        11           Mo1 tau(  11) = (   4.3241994   0.8321926  14.7075920  )
        12           In1 tau(  12) = (   2.8827996   3.3287702  14.7075920  )

     number of k points=    20  Fermi-Dirac smearing, width (Ry)=  0.0110
                       cart. coord. in units 2pi/alat
        k(    1) = (   0.0000000   0.0000000   0.0000000), wk =   0.0555556
        k(    2) = (   0.0000000   0.0333790   0.0000000), wk =   0.1111111
        k(    3) = (   0.0000000   0.0667581   0.0000000), wk =   0.1111111
        k(    4) = (   0.0000000  -0.1001371   0.0000000), wk =   0.0555556
        k(    5) = (   0.0289071   0.0166895   0.0000000), wk =   0.1111111
        k(    6) = (   0.0289071   0.0500685   0.0000000), wk =   0.1111111
        k(    7) = (   0.0289071   0.0834476   0.0000000), wk =   0.1111111
        k(    8) = (   0.0289071  -0.0834476   0.0000000), wk =   0.1111111
        k(    9) = (   0.0289071  -0.0500685   0.0000000), wk =   0.1111111
        k(   10) = (   0.0289071  -0.0166895   0.0000000), wk =   0.1111111
        k(   11) = (   0.0578142   0.0333790   0.0000000), wk =   0.1111111
        k(   12) = (   0.0578142   0.0667581   0.0000000), wk =   0.1111111
        k(   13) = (   0.0578142   0.1001371   0.0000000), wk =   0.1111111
        k(   14) = (   0.0578142  -0.0667581   0.0000000), wk =   0.1111111
        k(   15) = (   0.0578142  -0.0333790   0.0000000), wk =   0.1111111
        k(   16) = (   0.0578142   0.0000000   0.0000000), wk =   0.1111111
        k(   17) = (  -0.0867213  -0.0500685   0.0000000), wk =   0.0555556
        k(   18) = (  -0.0867213  -0.0166895   0.0000000), wk =   0.1111111
        k(   19) = (  -0.0867213   0.0166895   0.0000000), wk =   0.1111111
        k(   20) = (  -0.0867213  -0.1502056   0.0000000), wk =   0.0555556

     Largest allocated arrays     est. size (Mb)     dimensions
     Largest temporary arrays     est. size (Mb)     dimensions

     Initial potential from superposition of free atoms
     Check: negative starting charge=   -0.004272

     starting charge  160.49043, renormalised to  165.00000

     negative rho (up, down):  4.392E-03 0.000E+00

     *
     * You are using vdW-DF for exchange-correlation in this calculation.
     * Please cite the following three references that made this development
     * possible:
     *
     *   M. Dion, H. Rydberg, E. Schroder, D. C. Langreth, and
     *   B. I. Lundqvist, Phys. Rev. Lett. 92, 246401 (2004).
     *
     *   T. Thonhauser, V. R. Cooper, S. Li, A. Puzder, P. Hyldgaard, and
     *   D. C. Langreth, Phys. Rev. B 76, 125112 (2007).
     *
     *   G. Roman-Perez and J. M. Soler, Phys. Rev. Lett. 103, 096102 (2009).
     *
     *
     * If you are using vdW-DF2, please also cite:
     *
     *   K. Lee, E. D. Murray, L. Kong, B. I. Lundqvist, and
     *   D. C. Langreth, Phys. Rev. B 82, 081101(R) (2010).
     *
     *
     * If you are calculating the stress with vdW-DF, please also cite:
     *
     *   R. Sabatini, E. Kucukbenli, B. Kolb, T. Thonhauser, and
     *   S. de Gironcoli, J. Phys.: Condens. Matter 24, 424209 (2012).
     *

     Carrying out vdW-DF run using the following parameters:

     Nqs =      20    Nr_points =    1024   r_max =   100.000
     q_mesh =
               0.00001000     0.04494208     0.09755937     0.15916263
               0.23128650     0.31572767     0.41458969     0.53033537
               0.66584808     0.82450364     1.01025438     1.22772762
               1.48234092     1.78043706     2.12944203     2.53805004
               3.01644009     3.57652955     4.23227104     5.00000000

     Gradients computed in reciprocal space

     Adding external electric field

     Computed dipole along edir(3) :
        Dipole               -0.0000 Ry au,         -0.0000 Debye
        Dipole field         -0.0000 Ry au

        Potential amp.        0.0000 Ry
        Total length         45.5233 bohr

     Starting wfc are  144 randomized atomic wfcs

     Self-consistent Calculation

     iteration #  1     ecut=    36.75 Ry     beta=0.10
     Davidson diagonalization with overlap
     ethr =  1.00E-02,  avg # of iterations =  3.1

[...]

     total energy              =   -1663.98796899 Ry
     Harris-Foulkes estimate   =   -1664.42361631 Ry
     estimated scf accuracy    <       2.89907544 Ry

[...]

     End of self-consistent calculation

          k = 0.0000 0.0000 0.0000 ( 18067 PWs)   bands (ev):

   -59.5100 -59.4174 -59.4174 -59.3026 -59.2944 -59.2170 -59.2170 -59.2150
   -59.2150 -33.9159 -33.7588 -33.7588 -33.7166 -33.6288 -33.6184 -33.6184
   -33.6068 -33.4637 -33.4637 -33.3770 -33.3692 -33.3474 -33.3474 -33.2939
   -33.2939 -33.1662 -33.1662 -33.1515 -33.1405 -33.1405 -33.1139 -33.0854
   -32.9090 -32.9090 -32.9044 -32.9044 -12.8609 -12.8609 -12.8437 -12.7997
   -12.7997 -12.4797 -12.4654 -12.4654 -12.4573 -12.4563 -12.4563 -12.4146
   -12.4146 -12.3989 -12.3989  -6.3765  -4.8121  -4.8017  -2.6725  -2.1207
    -1.9571  -1.3273  -1.3273  -1.1945  -0.9875  -0.9875  -0.9664  -0.9664
    -0.8830  -0.7166  -0.7166  -0.0762  -0.0762   0.4588   0.4997   0.5731
     0.5731   1.0942   1.0942   1.2059   1.4304   1.4304   1.4817   1.5950
     1.8740   2.1751   2.1751   2.5124   2.5124   2.7589   2.8024   2.8024
     3.0255   3.0255   3.3053   3.3053   3.3570   3.3570   3.6070   3.7898
     3.7898   4.0009   4.2807   4.2807   4.3857   4.5023   4.7800   4.7800
     5.1190   5.4159   5.5030   5.6126   5.6126   5.7048   5.8266   6.2079

[...]

          k =-0.0867-0.0501 0.0000 ( 18028 PWs)   bands (ev):

[...]

     the Fermi energy is     1.7374 ev

!    total energy              =   -1663.62499484 Ry
     Harris-Foulkes estimate   =   -1663.62499105 Ry
     estimated scf accuracy    <       0.00000064 Ry

     The total energy is the sum of the following terms:

     one-electron contribution =  -13860.95999883 Ry
     hartree contribution      =    6945.14517270 Ry
     xc contribution           =    -297.47633924 Ry
     ewald contribution        =    5549.73841785 Ry
     electric field correction =       0.00000000 Ry
     smearing contrib. (-TS)   =      -0.07224732 Ry

     convergence has been achieved in  16 iterations

 BEEF-vdW xc energy contributions
           1 :   -257.499849422912
           2 :    235.472319905131
           3 :   -197.859720716566
           4 :    154.778261811112
           5 :   -116.112648820640
           6 :    88.1721783964800
           7 :   -72.2436950600049
           8 :    65.3270334622745
           9 :   -62.4102397739329
          10 :    59.0357395724594
          11 :   -53.0178688958017
          12 :    44.7270752626594
          13 :   -36.1353460995498
          14 :    29.3284313055542
          15 :   -25.3162757140052
[...]

     PseudoPot. # 1 for Mo read from file:
     /afs/slac.stanford.edu/u/if/mamunm/psp/gbrv1.5pbe/Mo.UPF
     MD5 check sum: 30c4dcd161f5d35cd49bb5239c51a633
     Pseudo is Ultrasoft + core correction, Zval = 14.0
     Generated by new atomic code, or converted to UPF format
     Using radial grid of  889 points,  6 beta functions with:
                l(1) =   0
                l(2) =   0
                l(3) =   1
                l(4) =   1
                l(5) =   2
                l(6) =   2
     Q(r) pseudized with  6 coefficients,  rinner =    1.000   1.000   1.000
                                                       1.000   1.000

     PseudoPot. # 2 for In read from file:
     /afs/slac.stanford.edu/u/if/mamunm/psp/gbrv1.5pbe/In.UPF
     MD5 check sum: 90777abd96fbb83f2e67db2a40c566b9
     Pseudo is Ultrasoft + core correction, Zval = 13.0
     Generated by new atomic code, or converted to UPF format
     Using radial grid of  889 points,  6 beta functions with:
                l(1) =   0
                l(2) =   0
                l(3) =   1
                l(4) =   1
                l(5) =   2
                l(6) =   2
     Q(r) pseudized with  6 coefficients,  rinner =    1.400   1.400   1.400
                                                       1.400   1.400

     vdW kernel table read from file vdW_kernel_table
     MD5 check sum: 095c7af220d748ca6e76c0b4c6cfb241

     atomic species   valence    mass     pseudopotential
        Mo1           14.00    95.95000     Mo( 1.00)
        In1           13.00   114.81800     In( 1.00)

     No symmetry found

   Cartesian axes

     site n.     atom                  positions (alat units)
         1           Mo1 tau(   1) = (   0.0000000   0.0000000  10.0000000  )
         2           Mo1 tau(   2) = (  -1.4413998   2.4965777  10.0000000  )
         3           Mo1 tau(   3) = (   1.4413998   2.4965777  10.0000000  )
         4           In1 tau(   4) = (   2.8827996   0.0000000  10.0000000  )
         5           Mo1 tau(   5) = (   2.8827996   1.6643851  12.3537960  )
         6           Mo1 tau(   6) = (   1.4413998   4.1609628  12.3537960  )
         7           Mo1 tau(   7) = (  -1.4413998   4.1609628  12.3537960  )
         8           In1 tau(   8) = (   0.0000000   1.6643851  12.3537960  )
         9           Mo1 tau(   9) = (   0.0000021   3.5318972  14.5914650  )
        10           Mo1 tau(  10) = (   1.6173082   0.7306340  14.5914662  )
        11           Mo1 tau(  11) = (   4.1482926   0.7306330  14.5914678  )
        12           In1 tau(  12) = (   2.8828023   3.3287687  15.1251408  )

     number of k points=    20  Fermi-Dirac smearing, width (Ry)=  0.0110
                       cart. coord. in units 2pi/alat
        k(    1) = (   0.0000000   0.0000000   0.0000000), wk =   0.0555556
        k(    2) = (   0.0000000   0.0333790   0.0000000), wk =   0.1111111
        k(    3) = (   0.0000000   0.0667581   0.0000000), wk =   0.1111111
        k(    4) = (   0.0000000  -0.1001371   0.0000000), wk =   0.0555556
        k(    5) = (   0.0289071   0.0166895   0.0000000), wk =   0.1111111
        k(    6) = (   0.0289071   0.0500685   0.0000000), wk =   0.1111111
        k(    7) = (   0.0289071   0.0834476   0.0000000), wk =   0.1111111
        k(    8) = (   0.0289071  -0.0834476   0.0000000), wk =   0.1111111
        k(    9) = (   0.0289071  -0.0500685   0.0000000), wk =   0.1111111
        k(   10) = (   0.0289071  -0.0166895   0.0000000), wk =   0.1111111
        k(   11) = (   0.0578142   0.0333790   0.0000000), wk =   0.1111111
        k(   12) = (   0.0578142   0.0667581   0.0000000), wk =   0.1111111
        k(   13) = (   0.0578142   0.1001371   0.0000000), wk =   0.1111111
        k(   14) = (   0.0578142  -0.0667581   0.0000000), wk =   0.1111111
        k(   15) = (   0.0578142  -0.0333790   0.0000000), wk =   0.1111111
        k(   16) = (   0.0578142   0.0000000   0.0000000), wk =   0.1111111
        k(   17) = (  -0.0867213  -0.0500685   0.0000000), wk =   0.0555556
        k(   18) = (  -0.0867213  -0.0166895   0.0000000), wk =   0.1111111
        k(   19) = (  -0.0867213   0.0166895   0.0000000), wk =   0.1111111
        k(   20) = (  -0.0867213  -0.1502056   0.0000000), wk =   0.0555556

     Largest allocated arrays     est. size (Mb)     dimensions
     Largest temporary arrays     est. size (Mb)     dimensions

     Initial potential from superposition of free atoms
     Check: negative starting charge=   -0.004361

     starting charge  160.49043, renormalised to  165.00000

[...]

     *
     * You are using vdW-DF for exchange-correlation in this calculation.
     * Please cite the following three references that made this development
     * possible:
     *
     *   M. Dion, H. Rydberg, E. Schroder, D. C. Langreth, and
     *   B. I. Lundqvist, Phys. Rev. Lett. 92, 246401 (2004).
     *
     *   T. Thonhauser, V. R. Cooper, S. Li, A. Puzder, P. Hyldgaard, and
     *   D. C. Langreth, Phys. Rev. B 76, 125112 (2007).
     *
     *   G. Roman-Perez and J. M. Soler, Phys. Rev. Lett. 103, 096102 (2009).
     *
     *
     * If you are using vdW-DF2, please also cite:
     *
     *   K. Lee, E. D. Murray, L. Kong, B. I. Lundqvist, and
     *   D. C. Langreth, Phys. Rev. B 82, 081101(R) (2010).
     *
     *
     * If you are calculating the stress with vdW-DF, please also cite:
     *
     *   R. Sabatini, E. Kucukbenli, B. Kolb, T. Thonhauser, and
     *   S. de Gironcoli, J. Phys.: Condens. Matter 24, 424209 (2012).
     *

     Carrying out vdW-DF run using the following parameters:

     Nqs =      20    Nr_points =    1024   r_max =   100.000
     q_mesh =
               0.00001000     0.04494208     0.09755937     0.15916263
               0.23128650     0.31572767     0.41458969     0.53033537
               0.66584808     0.82450364     1.01025438     1.22772762
               1.48234092     1.78043706     2.12944203     2.53805004
               3.01644009     3.57652955     4.23227104     5.00000000

     Gradients computed in reciprocal space

[...]

     Starting wfc are  144 randomized atomic wfcs

     Self-consistent Calculation

[...]

     total energy              =   -1663.69540288 Ry
     Harris-Foulkes estimate   =   -1663.69540187 Ry
     estimated scf accuracy    <       0.00000100 Ry

     iteration # 17     ecut=    36.75 Ry     beta=0.10
     Davidson diagonalization with overlap
     ethr =  6.08E-10,  avg # of iterations =  2.0

[...]

     negative rho (up, down):  4.174E-03 0.000E+00

     Adding external electric field

     Computed dipole along edir(3) :
        Dipole                0.0277 Ry au,          0.0703 Debye
        Dipole field          0.0001 Ry au

        Potential amp.       -0.0066 Ry
        Total length         45.5233 bohr

     End of self-consistent calculation

[...]

          k = 0.0578 0.0000 0.0000 ( 18079 PWs)   bands (ev):

[...]

          k =-0.0867-0.1502 0.0000 ( 18028 PWs)   bands (ev):

   -59.4067 -59.3715 -59.3360 -59.2233 -59.2128 -59.1856 -59.1584 -59.0585
   -59.0493 -33.8939 -33.7514 -33.6741 -33.6345 -33.6286 -33.5465 -33.5167
   -33.4736 -33.4414 -33.4043 -33.3699 -33.3096 -33.2738 -33.2445 -33.2113
   -33.2034 -33.1455 -33.1432 -33.1377 -33.1069 -33.0057 -32.9800 -32.9798
   -32.8775 -32.8678 -32.7477 -32.6559 -12.8092 -12.7810 -12.7687 -12.7440
   -12.7436 -12.4071 -12.3781 -12.3700 -12.3685 -12.3482 -12.3472 -12.3453
   -12.3344 -12.3323 -12.3241  -5.0383  -4.3980  -3.7155  -2.6929  -2.1824
    -1.9894  -1.8519  -1.6188  -1.1022  -0.9116  -0.8573  -0.7987  -0.6450
    -0.6125  -0.4914  -0.2567  -0.0753  -0.0228  -0.0183   0.0838   0.3531
     0.4477   0.6678   0.7215   0.8469   0.9776   1.0506   1.1248   1.2744
     1.4499   1.4599   1.6008   1.6262   2.1673   2.3505   2.4564   2.5708
     2.5986   2.7523   2.8389   2.9013   3.1377   3.1439   3.2597   3.4048
     3.5956   3.8112   3.9991   4.1035   4.1592   4.4090   4.9492   5.1947
     5.2567   6.0334   6.2518   6.3371   6.4365   6.9930   7.1346   7.2015

     the Fermi energy is     1.8025 ev

!    total energy              =   -1663.69540579 Ry
     Harris-Foulkes estimate   =   -1663.69540313 Ry
     estimated scf accuracy    <       0.00000059 Ry

     The total energy is the sum of the following terms:

     one-electron contribution =  -13841.25579291 Ry
     hartree contribution      =    6935.66777980 Ry
     xc contribution           =    -297.66703188 Ry
     ewald contribution        =    5539.62297907 Ry
     electric field correction =       0.00000200 Ry
     smearing contrib. (-TS)   =      -0.06334187 Ry

     convergence has been achieved in  17 iterations

 BEEF-vdW xc energy contributions
           1 :   -257.766576796094
           2 :    235.755965469503
           3 :   -198.168770866319
           4 :    155.096974934332
           5 :   -116.385073167275
           6 :    88.3028949101271
           7 :   -72.1282844704003
           8 :    64.9079210203818
           9 :   -61.7316243935011
          10 :    58.2597611837366
          11 :   -52.3746457517622
          12 :    44.4088354320392
          13 :   -36.1883478076011
          14 :    29.6115416756088
          15 :   -25.5633048726381
          16 :    23.6130308179006
          17 :   -22.4793443469301
          18 :    20.8564633530020
          19 :   -18.1038285232611
          20 :    14.4559165897472
          21 :   -10.7296630612864
          22 :    7.76855220025834
          23 :   -5.97081398582452
          24 :    5.13827226396518
          25 :   -4.67428047588766
          26 :    3.95984157936584
          27 :   -2.67608069530422
          28 :   0.907174364186176
          29 :   0.988829994647915
          30 :   -2.63120038156586
          31 :   -26.9581981096640
          32 :   -20.3467825115890

     Forces acting on atoms (Ry/au):

     negative rho (up, down):  4.174E-03 0.000E+00
     atom    1 type  1   force =     0.00000003   -0.02710204    0.03135721
     atom    2 type  1   force =    -0.02347091    0.01355115    0.03135650
     atom    3 type  1   force =     0.02347157    0.01355142    0.03135672
     atom    4 type  2   force =     0.00000055    0.00000000   -0.06769140
     atom    5 type  1   force =     0.00000031    0.02155154   -0.00902427
     atom    6 type  1   force =     0.01866442   -0.01077571   -0.00902410
     atom    7 type  1   force =    -0.01866442   -0.01077598   -0.00902445
     atom    8 type  2   force =    -0.00000165    0.00000016    0.00020585
     atom    9 type  1   force =     0.00000000   -0.00158067   -0.00018606
     atom   10 type  1   force =    -0.00136785    0.00078960   -0.00018695
     atom   11 type  1   force =     0.00136837    0.00078949   -0.00018656
     atom   12 type  2   force =    -0.00000042    0.00000102    0.00104752

     Total force =     0.106686     Total SCF correction =     0.003060

     entering subroutine stress ...

     negative rho (up, down):  4.174E-03 0.000E+00
          total   stress  (Ry/bohr**3)                   (kbar)     P=  -16.47
  -0.00015522   0.00000000  -0.00000000        -22.83      0.00     -0.00
   0.00000000  -0.00015522  -0.00000000          0.00    -22.83     -0.00
  -0.00000000  -0.00000000  -0.00002541         -0.00     -0.00     -3.74

 !ASE

     Writing output data file calc.save

     General routines

     Parallel routines

   This run was terminated on:  21:28:51  30Dec2018

   JOB DONE.
Job  /afs/slac/g/suncat/bin/suncat-tsmpirun -x LD_LIBRARY_PATH -wdir /scratch/qe648606_oBLGb pw.x -in pw.inp

TID   HOST_NAME   COMMAND_LINE            STATUS            TERMINATION_TIME
00000 suncat0028 pw.x -in pw.inp   Done                     12/30/2018 21:28:51
00001 suncat0028 pw.x -in pw.inp   Done                     12/30/2018 21:28:51
00002 suncat0028 pw.x -in pw.inp   Done                     12/30/2018 21:28:51
00003 suncat0028 pw.x -in pw.inp   Done                     12/30/2018 21:28:51
00004 suncat0028 pw.x -in pw.inp   Done                     12/30/2018 21:28:51
00005 suncat0028 pw.x -in pw.inp   Done                     12/30/2018 21:28:51
00006 suncat0028 pw.x -in pw.inp   Done                     12/30/2018 21:28:51
00007 suncat0028 pw.x -in pw.inp   Done                     12/30/2018 21:28:51
00008 suncat0027 pw.x -in pw.inp   Done                     12/30/2018 21:28:51
00009 suncat0027 pw.x -in pw.inp   Done                     12/30/2018 21:28:51
00010 suncat0027 pw.x -in pw.inp   Done                     12/30/2018 21:28:51
00011 suncat0027 pw.x -in pw.inp   Done                     12/30/2018 21:28:51
00012 suncat0027 pw.x -in pw.inp   Done                     12/30/2018 21:28:51
00013 suncat0027 pw.x -in pw.inp   Done                     12/30/2018 21:28:51
00014 suncat0027 pw.x -in pw.inp   Done                     12/30/2018 21:28:51
00015 suncat0027 pw.x -in pw.inp   Done                     12/30/2018 21:28:51
00016 suncat0026 pw.x -in pw.inp   Done                     12/30/2018 21:28:51
00017 suncat0026 pw.x -in pw.inp   Done                     12/30/2018 21:28:51
00018 suncat0026 pw.x -in pw.inp   Done                     12/30/2018 21:28:51
00019 suncat0026 pw.x -in pw.inp   Done                     12/30/2018 21:28:51
00020 suncat0026 pw.x -in pw.inp   Done                     12/30/2018 21:28:51
00021 suncat0026 pw.x -in pw.inp   Done                     12/30/2018 21:28:51
00022 suncat0026 pw.x -in pw.inp   Done                     12/30/2018 21:28:51
00023 suncat0026 pw.x -in pw.inp   Done                     12/30/2018 21:28:51
00024 suncat0021 pw.x -in pw.inp   Done                     12/30/2018 21:28:51
00025 suncat0021 pw.x -in pw.inp   Done                     12/30/2018 21:28:51
00026 suncat0021 pw.x -in pw.inp   Done                     12/30/2018 21:28:51
00027 suncat0021 pw.x -in pw.inp   Done                     12/30/2018 21:28:51
00028 suncat0021 pw.x -in pw.inp   Done                     12/30/2018 21:28:51
00029 suncat0021 pw.x -in pw.inp   Done                     12/30/2018 21:28:51
00030 suncat0021 pw.x -in pw.inp   Done                     12/30/2018 21:28:51
00031 suncat0021 pw.x -in pw.inp   Done                     12/30/2018 21:28:51
00032 suncat0010 pw.x -in pw.inp   Done                     12/30/2018 21:28:51
00033 suncat0010 pw.x -in pw.inp   Done                     12/30/2018 21:28:51
00034 suncat0010 pw.x -in pw.inp   Done                     12/30/2018 21:28:51
00035 suncat0010 pw.x -in pw.inp   Done                     12/30/2018 21:28:51
00036 suncat0010 pw.x -in pw.inp   Done                     12/30/2018 21:28:51
00037 suncat0010 pw.x -in pw.inp   Done                     12/30/2018 21:28:51
00038 suncat0010 pw.x -in pw.inp   Done                     12/30/2018 21:28:51
00039 suncat0010 pw.x -in pw.inp   Done                     12/30/2018 21:28:51
00040 suncat0191 pw.x -in pw.inp   Done                     12/30/2018 21:28:51
00041 suncat0191 pw.x -in pw.inp   Done                     12/30/2018 21:28:51
00042 suncat0191 pw.x -in pw.inp   Done                     12/30/2018 21:28:51
00043 suncat0191 pw.x -in pw.inp   Done                     12/30/2018 21:28:51
00044 suncat0191 pw.x -in pw.inp   Done                     12/30/2018 21:28:51
00045 suncat0191 pw.x -in pw.inp   Done                     12/30/2018 21:28:51
00046 suncat0191 pw.x -in pw.inp   Done                     12/30/2018 21:28:51
00047 suncat0191 pw.x -in pw.inp   Done                     12/30/2018 21:28:51
00048 suncat0007 pw.x -in pw.inp   Done                     12/30/2018 21:28:51
00049 suncat0007 pw.x -in pw.inp   Done                     12/30/2018 21:28:51
00050 suncat0007 pw.x -in pw.inp   Done                     12/30/2018 21:28:51
00051 suncat0007 pw.x -in pw.inp   Done                     12/30/2018 21:28:51
00052 suncat0007 pw.x -in pw.inp   Done                     12/30/2018 21:28:51
00053 suncat0007 pw.x -in pw.inp   Done                     12/30/2018 21:28:51
00054 suncat0007 pw.x -in pw.inp   Done                     12/30/2018 21:28:51
00055 suncat0007 pw.x -in pw.inp   Done                     12/30/2018 21:28:51
00056 suncat0100 pw.x -in pw.inp   Done                     12/30/2018 21:28:51
00057 suncat0100 pw.x -in pw.inp   Done                     12/30/2018 21:28:51
00058 suncat0100 pw.x -in pw.inp   Done                     12/30/2018 21:28:51
00059 suncat0100 pw.x -in pw.inp   Done                     12/30/2018 21:28:51
00060 suncat0100 pw.x -in pw.inp   Done                     12/30/2018 21:28:51
00061 suncat0100 pw.x -in pw.inp   Done                     12/30/2018 21:28:51
00062 suncat0100 pw.x -in pw.inp   Done                     12/30/2018 21:28:51
00063 suncat0100 pw.x -in pw.inp   Done                     12/30/2018 21:28:51