     Program PWSCF v.5.1rc2 (svn rev. 11289) starts on 31Dec2018 at 14:36:52

     Current dimensions of program PWSCF are:
     Max number of different atomic species (ntypx) = 10
     Max number of k-points (npk) =  40000
     Max angular momentum in pseudopotentials (lmaxx) =  3
     Presently stress not available with electric field

     IMPORTANT: XC functional enforced from input :
     Exchange-correlation      = BEEF-VDW ( 1  4 27 13 2)
     Any further DFT definition will be discarded
     Please, verify this is what you really want

     Subspace diagonalization in iterative solution of the eigenvalue problem:
     a serial algorithm will be used

     bravais-lattice index     =            0
     lattice parameter (alat)  =       1.8897  a.u.
     unit-cell volume          =    4386.2667 (a.u.)^3
     number of atoms/cell      =           12
     number of atomic types    =            2
     number of electrons       =       201.00
     number of Kohn-Sham states=          130
     kinetic-energy cutoff     =      36.7493  Ry
     charge density cutoff     =     367.4932  Ry
     convergence threshold     =      1.0E-06
     mixing beta               =       0.1000
     number of iterations used =           10  plain     mixing
     Exchange-correlation      = BEEF-VDW ( 1  4 27 13 2)
     nstep                     =           50

     celldm(1)=   1.889726  celldm(2)=   0.000000  celldm(3)=   0.000000
     celldm(4)=   0.000000  celldm(5)=   0.000000  celldm(6)=   0.000000

     crystal axes: (cart. coord. in units of alat)
               a(1) = (   5.532808   0.000000   0.000000 )
               a(2) = (  -2.766404   4.791553   0.000000 )
               a(3) = (   0.000000   0.000000  24.517519 )

     reciprocal axes: (cart. coord. in units 2 pi/alat)
               b(1) = (  0.180740  0.104350  0.000000 )
               b(2) = (  0.000000  0.208701  0.000000 )
               b(3) = (  0.000000  0.000000  0.040787 )

     PseudoPot. # 1 for Pt read from file:
     /afs/slac.stanford.edu/u/if/mamunm/psp/gbrv1.5pbe/Pt.UPF
     MD5 check sum: f09d6de1a584b5a045c4fc126da2d0c4
     Pseudo is Ultrasoft + core correction, Zval = 16.0
     Generated by new atomic code, or converted to UPF format
     Using radial grid of  985 points,  6 beta functions with:
                l(1) =   0
                l(2) =   0
                l(3) =   1
                l(4) =   1
                l(5) =   2
                l(6) =   2
     Q(r) pseudized with  8 coefficients,  rinner =    1.300   1.300   1.300
                                                       1.300   1.300

     PseudoPot. # 2 for Cu read from file:
     /afs/slac.stanford.edu/u/if/mamunm/psp/gbrv1.5pbe/Cu.UPF
     MD5 check sum: 6e991ff952a84172a2a52a1c1e996048
     Pseudo is Ultrasoft + core correction, Zval = 19.0
     Generated by new atomic code, or converted to UPF format
     Using radial grid of  867 points,  6 beta functions with:
                l(1) =   0
                l(2) =   0
                l(3) =   1
                l(4) =   1
                l(5) =   2
                l(6) =   2
     Q(r) pseudized with  8 coefficients,  rinner =    1.150   1.150   1.150
                                                       1.150   1.150

     vdW kernel table read from file vdW_kernel_table
     MD5 check sum: 095c7af220d748ca6e76c0b4c6cfb241

     atomic species   valence    mass     pseudopotential
        Pt1           16.00   195.08400     Pt( 1.00)
        Cu1           19.00    63.54600     Cu( 1.00)

     No symmetry found

   Cartesian axes

     site n.     atom                  positions (alat units)
         1           Pt1 tau(   1) = (   0.0000000   0.0000000  10.0000000  )
         2           Pt1 tau(   2) = (  -1.3832021   2.3957763  10.0000000  )
         3           Pt1 tau(   3) = (   1.3832021   2.3957763  10.0000000  )
         4           Cu1 tau(   4) = (   2.7664042   0.0000000  10.0000000  )
         5           Pt1 tau(   5) = (   2.7664042   1.5971842  12.2587596  )
         6           Pt1 tau(   6) = (   1.3832021   3.9929606  12.2587596  )
         7           Pt1 tau(   7) = (  -1.3832021   3.9929606  12.2587596  )
         8           Cu1 tau(   8) = (   0.0000000   1.5971842  12.2587596  )
         9           Pt1 tau(   9) = (  -0.0000000   3.1943685  14.5175192  )
        10           Pt1 tau(  10) = (   1.3832021   0.7985921  14.5175192  )
        11           Pt1 tau(  11) = (   4.1496064   0.7985921  14.5175192  )
        12           Cu1 tau(  12) = (   2.7664042   3.1943685  14.5175192  )

     number of k points=    20  Fermi-Dirac smearing, width (Ry)=  0.0110
                       cart. coord. in units 2pi/alat
        k(    1) = (   0.0000000   0.0000000   0.0000000), wk =   0.0555556
        k(    2) = (   0.0000000   0.0347834   0.0000000), wk =   0.1111111
        k(    3) = (   0.0000000   0.0695669   0.0000000), wk =   0.1111111
        k(    4) = (   0.0000000  -0.1043503   0.0000000), wk =   0.0555556
        k(    5) = (   0.0301233   0.0173917   0.0000000), wk =   0.1111111
        k(    6) = (   0.0301233   0.0521752   0.0000000), wk =   0.1111111
        k(    7) = (   0.0301233   0.0869586   0.0000000), wk =   0.1111111
        k(    8) = (   0.0301233  -0.0869586   0.0000000), wk =   0.1111111
        k(    9) = (   0.0301233  -0.0521752   0.0000000), wk =   0.1111111
        k(   10) = (   0.0301233  -0.0173917   0.0000000), wk =   0.1111111
        k(   11) = (   0.0602467   0.0347834   0.0000000), wk =   0.1111111
        k(   12) = (   0.0602467   0.0695669   0.0000000), wk =   0.1111111
        k(   13) = (   0.0602467   0.1043503   0.0000000), wk =   0.1111111
        k(   14) = (   0.0602467  -0.0695669   0.0000000), wk =   0.1111111
        k(   15) = (   0.0602467  -0.0347834   0.0000000), wk =   0.1111111
        k(   16) = (   0.0602467   0.0000000   0.0000000), wk =   0.1111111
        k(   17) = (  -0.0903700  -0.0521752   0.0000000), wk =   0.0555556
        k(   18) = (  -0.0903700  -0.0173917   0.0000000), wk =   0.1111111
        k(   19) = (  -0.0903700   0.0173917   0.0000000), wk =   0.1111111
        k(   20) = (  -0.0903700  -0.1565255   0.0000000), wk =   0.0555556

     Largest allocated arrays     est. size (Mb)     dimensions
     Largest temporary arrays     est. size (Mb)     dimensions

     Check: negative/imaginary core charge=   -0.000001    0.000000

     Initial potential from superposition of free atoms
     Check: negative starting charge=   -1.651470

     starting charge  193.49989, renormalised to  201.00000

     negative rho (up, down):  1.715E+00 0.000E+00

     *
     * You are using vdW-DF for exchange-correlation in this calculation.
     * Please cite the following three references that made this development
     * possible:
     *
     *   M. Dion, H. Rydberg, E. Schroder, D. C. Langreth, and
     *   B. I. Lundqvist, Phys. Rev. Lett. 92, 246401 (2004).
     *
     *   T. Thonhauser, V. R. Cooper, S. Li, A. Puzder, P. Hyldgaard, and
     *   D. C. Langreth, Phys. Rev. B 76, 125112 (2007).
     *
     *   G. Roman-Perez and J. M. Soler, Phys. Rev. Lett. 103, 096102 (2009).
     *
     *
     * If you are using vdW-DF2, please also cite:
     *
     *   K. Lee, E. D. Murray, L. Kong, B. I. Lundqvist, and
     *   D. C. Langreth, Phys. Rev. B 82, 081101(R) (2010).
     *
     *
     * If you are calculating the stress with vdW-DF, please also cite:
     *
     *   R. Sabatini, E. Kucukbenli, B. Kolb, T. Thonhauser, and
     *   S. de Gironcoli, J. Phys.: Condens. Matter 24, 424209 (2012).
     *

     Carrying out vdW-DF run using the following parameters:

     Nqs =      20    Nr_points =    1024   r_max =   100.000
     q_mesh =
               0.00001000     0.04494208     0.09755937     0.15916263
               0.23128650     0.31572767     0.41458969     0.53033537
               0.66584808     0.82450364     1.01025438     1.22772762
               1.48234092     1.78043706     2.12944203     2.53805004
               3.01644009     3.57652955     4.23227104     5.00000000

     Gradients computed in reciprocal space

     Adding external electric field

     Computed dipole along edir(3) :
        Dipole                0.0000 Ry au,          0.0000 Debye
        Dipole field          0.0000 Ry au

        Potential amp.       -0.0000 Ry
        Total length         45.1731 bohr

     Starting wfc are  147 randomized atomic wfcs

     Self-consistent Calculation

     iteration #  1     ecut=    36.75 Ry     beta=0.10
     Davidson diagonalization with overlap
     ethr =  1.00E-02,  avg # of iterations =  7.2

[...]

     total energy              =   -3126.33239729 Ry
     Harris-Foulkes estimate   =   -3130.54544573 Ry
     estimated scf accuracy    <      25.40307520 Ry

[...]

     End of self-consistent calculation

          k = 0.0000 0.0000 0.0000 ( 16463 PWs)   bands (ev):

  -110.6740-110.5733-110.5732 -68.0898 -68.0898 -68.0612 -68.0233 -68.0233
   -68.0232 -68.0232 -67.8857 -67.8857 -51.6391 -51.4699 -51.4699 -51.4225
   -51.3891 -51.3891 -51.2955 -51.2756 -51.2661 -51.2546 -51.2546 -51.1299
   -51.1299 -51.1102 -51.1102 -50.9589 -50.9589 -50.9550 -50.9550 -50.9525
   -50.9477 -50.8842 -50.8604 -50.8419 -50.8418 -50.8297 -50.8297  -7.0957
    -5.3874  -4.7999  -4.7324  -4.5086  -4.2210  -4.2210  -3.8919  -3.8919
    -3.8529  -3.8262  -3.6075  -3.6075  -3.3926  -3.3926  -2.7392  -2.1362
    -2.1362  -2.0714  -2.0714  -1.8394  -1.6087  -1.5818  -1.4877  -1.4620
    -1.4620  -1.3024  -1.3024  -1.1303  -1.1303  -1.0712  -1.0712  -0.9370
    -0.9370  -0.6839  -0.2941  -0.2941  -0.2317  -0.2317  -0.1473   0.0009
     0.0009   0.0477   0.2764   0.4920   0.4920   0.6018   0.6018   0.6236
     0.6857   0.6857   0.8656   0.8656   0.9417   0.9417   1.0377   1.0377
     1.3307   1.4332   1.4332   1.7407   2.0548   2.1111   2.1134   2.5286
     2.5286   2.5422   3.7945   3.9048   4.1339   4.1339   4.2300   4.2300
     5.9318   6.2402   6.5278   6.9964   6.9964   7.0655   7.2580   7.3230
     7.3230   7.4940   8.1953   8.2834   8.2834   8.3631   9.7877  10.2641
    10.7103  11.0261

[...]

          k =-0.0904-0.0522 0.0000 ( 16504 PWs)   bands (ev):

[...]

     the Fermi energy is     1.2834 ev

!    total energy              =   -3125.98966832 Ry
     Harris-Foulkes estimate   =   -3125.98966063 Ry
     estimated scf accuracy    <       0.00000085 Ry

     The total energy is the sum of the following terms:

     one-electron contribution =  -23443.39299901 Ry
     hartree contribution      =   11753.79224450 Ry
     xc contribution           =    -647.57506468 Ry
     ewald contribution        =    9211.26102088 Ry
     electric field correction =       0.00000000 Ry
     smearing contrib. (-TS)   =      -0.07487002 Ry

     convergence has been achieved in  17 iterations

 BEEF-vdW xc energy contributions
           1 :   -576.199020632179
           2 :    533.707213614314
           3 :   -458.504788806749
           4 :    366.360946905090
           5 :   -273.643370021449
           6 :    192.656662954816
           7 :   -129.327107910828
           8 :    83.5764846864892
[...]
                l(1) =   0
                l(2) =   0
                l(3) =   1
                l(4) =   1
                l(5) =   2
                l(6) =   2
     Q(r) pseudized with  8 coefficients,  rinner =    1.300   1.300   1.300
                                                       1.300   1.300

     PseudoPot. # 2 for Cu read from file:
     /afs/slac.stanford.edu/u/if/mamunm/psp/gbrv1.5pbe/Cu.UPF
     MD5 check sum: 6e991ff952a84172a2a52a1c1e996048
     Pseudo is Ultrasoft + core correction, Zval = 19.0
     Generated by new atomic code, or converted to UPF format
     Using radial grid of  867 points,  6 beta functions with:
                l(1) =   0
                l(2) =   0
                l(3) =   1
                l(4) =   1
                l(5) =   2
                l(6) =   2
     Q(r) pseudized with  8 coefficients,  rinner =    1.150   1.150   1.150
                                                       1.150   1.150

     vdW kernel table read from file vdW_kernel_table
     MD5 check sum: 095c7af220d748ca6e76c0b4c6cfb241

     atomic species   valence    mass     pseudopotential
        Pt1           16.00   195.08400     Pt( 1.00)
        Cu1           19.00    63.54600     Cu( 1.00)

     No symmetry found

   Cartesian axes

     site n.     atom                  positions (alat units)
         1           Pt1 tau(   1) = (   0.0000000   0.0000000  10.0000000  )
         2           Pt1 tau(   2) = (  -1.3832021   2.3957763  10.0000000  )
         3           Pt1 tau(   3) = (   1.3832021   2.3957763  10.0000000  )
         4           Cu1 tau(   4) = (   2.7664042   0.0000000  10.0000000  )
         5           Pt1 tau(   5) = (   2.7664042   1.5971842  12.2587596  )
         6           Pt1 tau(   6) = (   1.3832021   3.9929606  12.2587596  )
         7           Pt1 tau(   7) = (  -1.3832021   3.9929606  12.2587596  )
         8           Cu1 tau(   8) = (   0.0000000   1.5971842  12.2587596  )
         9           Pt1 tau(   9) = (   0.0000017   3.1755018  14.5151891  )
        10           Pt1 tau(  10) = (   1.3668618   0.8080245  14.5151905  )
        11           Pt1 tau(  11) = (   4.1659469   0.8080246  14.5151895  )
        12           Cu1 tau(  12) = (   2.7663968   3.1943739  14.5539197  )

     number of k points=    20  Fermi-Dirac smearing, width (Ry)=  0.0110
                       cart. coord. in units 2pi/alat
        k(    1) = (   0.0000000   0.0000000   0.0000000), wk =   0.0555556
        k(    2) = (   0.0000000   0.0347834   0.0000000), wk =   0.1111111
        k(    3) = (   0.0000000   0.0695669   0.0000000), wk =   0.1111111
        k(    4) = (   0.0000000  -0.1043503   0.0000000), wk =   0.0555556
        k(    5) = (   0.0301233   0.0173917   0.0000000), wk =   0.1111111
        k(    6) = (   0.0301233   0.0521752   0.0000000), wk =   0.1111111
        k(    7) = (   0.0301233   0.0869586   0.0000000), wk =   0.1111111
        k(    8) = (   0.0301233  -0.0869586   0.0000000), wk =   0.1111111
        k(    9) = (   0.0301233  -0.0521752   0.0000000), wk =   0.1111111
        k(   10) = (   0.0301233  -0.0173917   0.0000000), wk =   0.1111111
        k(   11) = (   0.0602467   0.0347834   0.0000000), wk =   0.1111111
        k(   12) = (   0.0602467   0.0695669   0.0000000), wk =   0.1111111
        k(   13) = (   0.0602467   0.1043503   0.0000000), wk =   0.1111111
        k(   14) = (   0.0602467  -0.0695669   0.0000000), wk =   0.1111111
        k(   15) = (   0.0602467  -0.0347834   0.0000000), wk =   0.1111111
        k(   16) = (   0.0602467   0.0000000   0.0000000), wk =   0.1111111
        k(   17) = (  -0.0903700  -0.0521752   0.0000000), wk =   0.0555556
        k(   18) = (  -0.0903700  -0.0173917   0.0000000), wk =   0.1111111
        k(   19) = (  -0.0903700   0.0173917   0.0000000), wk =   0.1111111
        k(   20) = (  -0.0903700  -0.1565255   0.0000000), wk =   0.0555556

     Largest allocated arrays     est. size (Mb)     dimensions
     Largest temporary arrays     est. size (Mb)     dimensions

     Check: negative/imaginary core charge=   -0.000001    0.000000

     Initial potential from superposition of free atoms
     Check: negative starting charge=   -1.656055

     starting charge  193.49989, renormalised to  201.00000

[...]

     *
     * You are using vdW-DF for exchange-correlation in this calculation.
     * Please cite the following three references that made this development
     * possible:
     *
     *   M. Dion, H. Rydberg, E. Schroder, D. C. Langreth, and
     *   B. I. Lundqvist, Phys. Rev. Lett. 92, 246401 (2004).
     *
     *   T. Thonhauser, V. R. Cooper, S. Li, A. Puzder, P. Hyldgaard, and
     *   D. C. Langreth, Phys. Rev. B 76, 125112 (2007).
     *
     *   G. Roman-Perez and J. M. Soler, Phys. Rev. Lett. 103, 096102 (2009).
     *
     *
     * If you are using vdW-DF2, please also cite:
     *
     *   K. Lee, E. D. Murray, L. Kong, B. I. Lundqvist, and
     *   D. C. Langreth, Phys. Rev. B 82, 081101(R) (2010).
     *
     *
     * If you are calculating the stress with vdW-DF, please also cite:
     *
     *   R. Sabatini, E. Kucukbenli, B. Kolb, T. Thonhauser, and
     *   S. de Gironcoli, J. Phys.: Condens. Matter 24, 424209 (2012).
     *

     Carrying out vdW-DF run using the following parameters:

     Nqs =      20    Nr_points =    1024   r_max =   100.000
     q_mesh =
               0.00001000     0.04494208     0.09755937     0.15916263
               0.23128650     0.31572767     0.41458969     0.53033537
               0.66584808     0.82450364     1.01025438     1.22772762
               1.48234092     1.78043706     2.12944203     2.53805004
               3.01644009     3.57652955     4.23227104     5.00000000

     Gradients computed in reciprocal space

[...]

     Starting wfc are  147 randomized atomic wfcs

     Self-consistent Calculation

[...]

     total energy              =   -3125.99049101 Ry
     Harris-Foulkes estimate   =   -3125.99048876 Ry
     estimated scf accuracy    <       0.00000103 Ry

     iteration # 18     ecut=    36.75 Ry     beta=0.10
     Davidson diagonalization with overlap
     ethr =  5.10E-10,  avg # of iterations =  3.2

[...]

     negative rho (up, down):  1.591E+00 0.000E+00

     Adding external electric field

     Computed dipole along edir(3) :
        Dipole                0.0010 Ry au,          0.0026 Debye
        Dipole field          0.0000 Ry au

        Potential amp.       -0.0003 Ry
        Total length         45.1731 bohr

     End of self-consistent calculation

[...]

          k = 0.0602 0.0000 0.0000 ( 16482 PWs)   bands (ev):

[...]

          k =-0.0904-0.1565 0.0000 ( 16504 PWs)   bands (ev):

  -110.6840-110.5739-110.5568 -68.0990 -68.0990 -68.0727 -68.0242 -68.0241
   -68.0095 -68.0095 -67.8862 -67.8645 -51.5596 -51.4760 -51.4268 -51.3999
   -51.3635 -51.3542 -51.3473 -51.3357 -51.2556 -51.2258 -51.2077 -51.1190
   -51.1075 -51.0652 -51.0562 -51.0513 -51.0502 -51.0345 -51.0210 -50.9635
   -50.9561 -50.8693 -50.8628 -50.8612 -50.8453 -50.8420 -50.8378  -5.4988
    -5.2092  -4.1418  -3.9469  -3.8274  -3.6164  -3.5525  -3.5226  -3.2875
    -3.2064  -3.0980  -3.0828  -2.8330  -2.6366  -2.6119  -2.5419  -2.4857
    -2.4519  -2.2095  -2.1797  -1.8384  -1.7934  -1.7171  -1.6265  -1.6146
    -1.5578  -1.5392  -1.4448  -1.3938  -1.3278  -1.2503  -1.2211  -1.1771
    -1.1538  -0.9922  -0.9608  -0.9347  -0.9292  -0.8728  -0.8562  -0.5943
    -0.5300  -0.4684  -0.4553  -0.3405  -0.3294  -0.2854  -0.2619  -0.2367
    -0.0087   0.0111   0.0669   0.1232   0.2040   0.4139   0.4163   0.4332
     0.6375   0.6479   0.7312   0.7633   1.0256   1.3263   1.7431   2.2191
     2.7982   2.9746   3.6302   3.7095   4.4056   5.4750   5.6631   5.9622
     6.1825   7.4024   7.4095   7.9976   8.0061   8.0778   8.0794   8.5963
     8.9233   9.0495   9.0577   9.2054   9.2073   9.3080   9.3511   9.5984
     9.6462  10.3511

     the Fermi energy is     1.2805 ev

!    total energy              =   -3125.99049867 Ry
     Harris-Foulkes estimate   =   -3125.99049114 Ry
     estimated scf accuracy    <       0.00000026 Ry

     The total energy is the sum of the following terms:

     one-electron contribution =  -23415.79010007 Ry
     hartree contribution      =   11740.00709078 Ry
     xc contribution           =    -647.56694117 Ry
     ewald contribution        =    9197.43386545 Ry
     electric field correction =       0.00000000 Ry
     smearing contrib. (-TS)   =      -0.07441367 Ry

     convergence has been achieved in  18 iterations

 BEEF-vdW xc energy contributions
           1 :   -576.190431379103
           2 :    533.693746457966
           3 :   -458.484829246715
           4 :    366.337153340676
           5 :   -273.620974904798
           6 :    192.640247434815
           7 :   -129.318263841843
           8 :    83.5735706081799
           9 :   -51.6134776756111
          10 :    28.7261116797656
          11 :   -11.3155378206257
          12 :   -2.39931847277217
          13 :    12.7888703737393
          14 :   -19.6634207147616
          15 :    22.9610589458447
          16 :   -23.0333529238354
          17 :    20.6118730403098
          18 :   -16.6699088730477
          19 :    12.2947403268086
          20 :   -8.55365098077937
          21 :    6.28307552338072
          22 :   -5.82675539890465
          23 :    6.86763370158087
          24 :   -8.52115790698747
          25 :    9.71898136646689
          26 :   -9.72100503237232
          27 :    8.47428518775621
          28 :   -6.60176524125200
          29 :    5.01393012576978
          30 :   -4.37242596961312
          31 :   -46.8945875285659
          32 :   -34.1764905912781

     Forces acting on atoms (Ry/au):

     negative rho (up, down):  1.591E+00 0.000E+00
     atom    1 type  1   force =    -0.00000002    0.01264987   -0.00063547
     atom    2 type  1   force =     0.01095524   -0.00632495   -0.00063555
     atom    3 type  1   force =    -0.01095507   -0.00632488   -0.00063568
     atom    4 type  2   force =     0.00000036    0.00000024   -0.00479688
     atom    5 type  1   force =     0.00000000    0.00046050    0.00245812
     atom    6 type  1   force =     0.00039864   -0.00023017    0.00245720
     atom    7 type  1   force =    -0.00039884   -0.00023024    0.00245783
     atom    8 type  2   force =    -0.00000005    0.00000015   -0.00152364
     atom    9 type  1   force =    -0.00000120    0.00037495    0.00014732
     atom   10 type  1   force =     0.00032542   -0.00018729    0.00014686
     atom   11 type  1   force =    -0.00032579   -0.00018647    0.00014714
     atom   12 type  2   force =     0.00000131   -0.00000170    0.00041274

     Total force =     0.022935     Total SCF correction =     0.003601
     SCF correction compared to forces is large: reduce conv_thr to get better values

     entering subroutine stress ...

     negative rho (up, down):  1.591E+00 0.000E+00
          total   stress  (Ry/bohr**3)                   (kbar)     P=  -20.49
  -0.00019484  -0.00000000   0.00000000        -28.66     -0.00      0.00
  -0.00000000  -0.00019484  -0.00000000         -0.00    -28.66     -0.00
   0.00000000  -0.00000000  -0.00002825          0.00     -0.00     -4.16

 !ASE

     Writing output data file calc.save

     General routines

     Parallel routines

   This run was terminated on:  21:23:53  31Dec2018

   JOB DONE.
Job  /afs/slac/g/suncat/bin/suncat-tsmpirun -x LD_LIBRARY_PATH -wdir /scratch/qe648795_cM0il pw.x -in pw.inp

TID   HOST_NAME   COMMAND_LINE            STATUS            TERMINATION_TIME
00000 suncat0139 pw.x -in pw.inp   Done                     12/31/2018 21:23:53
00001 suncat0139 pw.x -in pw.inp   Done                     12/31/2018 21:23:53
00002 suncat0139 pw.x -in pw.inp   Done                     12/31/2018 21:23:53
00003 suncat0139 pw.x -in pw.inp   Done                     12/31/2018 21:23:53
00004 suncat0139 pw.x -in pw.inp   Done                     12/31/2018 21:23:53
00005 suncat0139 pw.x -in pw.inp   Done                     12/31/2018 21:23:53
00006 suncat0139 pw.x -in pw.inp   Done                     12/31/2018 21:23:53
00007 suncat0139 pw.x -in pw.inp   Done                     12/31/2018 21:23:53
00008 suncat0133 pw.x -in pw.inp   Done                     12/31/2018 21:23:53
00009 suncat0133 pw.x -in pw.inp   Done                     12/31/2018 21:23:53
00010 suncat0133 pw.x -in pw.inp   Done                     12/31/2018 21:23:53
00011 suncat0133 pw.x -in pw.inp   Done                     12/31/2018 21:23:53
00012 suncat0133 pw.x -in pw.inp   Done                     12/31/2018 21:23:53
00013 suncat0133 pw.x -in pw.inp   Done                     12/31/2018 21:23:53
00014 suncat0133 pw.x -in pw.inp   Done                     12/31/2018 21:23:53
00015 suncat0133 pw.x -in pw.inp   Done                     12/31/2018 21:23:53
00016 suncat0132 pw.x -in pw.inp   Done                     12/31/2018 21:23:53
00017 suncat0132 pw.x -in pw.inp   Done                     12/31/2018 21:23:53
00018 suncat0132 pw.x -in pw.inp   Done                     12/31/2018 21:23:53
00019 suncat0132 pw.x -in pw.inp   Done                     12/31/2018 21:23:53
00020 suncat0132 pw.x -in pw.inp   Done                     12/31/2018 21:23:53
00021 suncat0132 pw.x -in pw.inp   Done                     12/31/2018 21:23:53
00022 suncat0132 pw.x -in pw.inp   Done                     12/31/2018 21:23:53
00023 suncat0132 pw.x -in pw.inp   Done                     12/31/2018 21:23:53
00024 suncat0131 pw.x -in pw.inp   Done                     12/31/2018 21:23:53
00025 suncat0131 pw.x -in pw.inp   Done                     12/31/2018 21:23:53
00026 suncat0131 pw.x -in pw.inp   Done                     12/31/2018 21:23:53
00027 suncat0131 pw.x -in pw.inp   Done                     12/31/2018 21:23:53
00028 suncat0131 pw.x -in pw.inp   Done                     12/31/2018 21:23:53
00029 suncat0131 pw.x -in pw.inp   Done                     12/31/2018 21:23:53
00030 suncat0131 pw.x -in pw.inp   Done                     12/31/2018 21:23:53
00031 suncat0131 pw.x -in pw.inp   Done                     12/31/2018 21:23:53
00032 suncat0130 pw.x -in pw.inp   Done                     12/31/2018 21:23:53
00033 suncat0130 pw.x -in pw.inp   Done                     12/31/2018 21:23:54
00034 suncat0130 pw.x -in pw.inp   Done                     12/31/2018 21:23:53
00035 suncat0130 pw.x -in pw.inp   Done                     12/31/2018 21:23:53
00036 suncat0130 pw.x -in pw.inp   Done                     12/31/2018 21:23:53
00037 suncat0130 pw.x -in pw.inp   Done                     12/31/2018 21:23:53
00038 suncat0130 pw.x -in pw.inp   Done                     12/31/2018 21:23:53
00039 suncat0130 pw.x -in pw.inp   Done                     12/31/2018 21:23:53
00040 suncat0124 pw.x -in pw.inp   Done                     12/31/2018 21:23:53
00041 suncat0124 pw.x -in pw.inp   Done                     12/31/2018 21:23:53
00042 suncat0124 pw.x -in pw.inp   Done                     12/31/2018 21:23:53
00043 suncat0124 pw.x -in pw.inp   Done                     12/31/2018 21:23:53
00044 suncat0124 pw.x -in pw.inp   Done                     12/31/2018 21:23:53
00045 suncat0124 pw.x -in pw.inp   Done                     12/31/2018 21:23:53
00046 suncat0124 pw.x -in pw.inp   Done                     12/31/2018 21:23:53
00047 suncat0124 pw.x -in pw.inp   Done                     12/31/2018 21:23:53
00048 suncat0123 pw.x -in pw.inp   Done                     12/31/2018 21:23:53
00049 suncat0123 pw.x -in pw.inp   Done                     12/31/2018 21:23:53
00050 suncat0123 pw.x -in pw.inp   Done                     12/31/2018 21:23:53
00051 suncat0123 pw.x -in pw.inp   Done                     12/31/2018 21:23:53
00052 suncat0123 pw.x -in pw.inp   Done                     12/31/2018 21:23:53
00053 suncat0123 pw.x -in pw.inp   Done                     12/31/2018 21:23:53
00054 suncat0123 pw.x -in pw.inp   Done                     12/31/2018 21:23:53
00055 suncat0123 pw.x -in pw.inp   Done                     12/31/2018 21:23:53
00056 suncat0122 pw.x -in pw.inp   Done                     12/31/2018 21:23:53
00057 suncat0122 pw.x -in pw.inp   Done                     12/31/2018 21:23:53
00058 suncat0122 pw.x -in pw.inp   Done                     12/31/2018 21:23:53
00059 suncat0122 pw.x -in pw.inp   Done                     12/31/2018 21:23:53
00060 suncat0122 pw.x -in pw.inp   Done                     12/31/2018 21:23:53
00061 suncat0122 pw.x -in pw.inp   Done                     12/31/2018 21:23:53
00062 suncat0122 pw.x -in pw.inp   Done                     12/31/2018 21:23:53
00063 suncat0122 pw.x -in pw.inp   Done                     12/31/2018 21:23:53