     Program PWSCF v.5.1rc2 (svn rev. 11289) starts on 18Dec2018 at 23:37:20

     Current dimensions of program PWSCF are:
     Max number of different atomic species (ntypx) = 10
     Max number of k-points (npk) =  40000
     Max angular momentum in pseudopotentials (lmaxx) =  3
     Presently stress not available with electric field

     IMPORTANT: XC functional enforced from input :
     Exchange-correlation      = BEEF-VDW ( 1  4 27 13 2)
     Any further DFT definition will be discarded
     Please, verify this is what you really want

     Subspace diagonalization in iterative solution of the eigenvalue problem:
     a serial algorithm will be used

     Found symmetry operation: I + ( -0.5000 -0.5000  0.0000)
     This is a supercell, fractional translations are disabled

     Generating pointlists ...
     new r_m :   0.4125 (alat units)  0.7795 (a.u.) for type    1
     new r_m :   0.4125 (alat units)  0.7795 (a.u.) for type    2

     bravais-lattice index     =            0
     lattice parameter (alat)  =       1.8897  a.u.
     unit-cell volume          =    4065.8586 (a.u.)^3
     number of atoms/cell      =           12
     number of atomic types    =            2
     number of electrons       =       192.00
     number of Kohn-Sham states=          126
     kinetic-energy cutoff     =      36.7493  Ry
     charge density cutoff     =     367.4932  Ry
     convergence threshold     =      1.0E-06
     mixing beta               =       0.1000
     number of iterations used =           10  plain     mixing
     Exchange-correlation      = BEEF-VDW ( 1  4 27 13 2)
     nstep                     =           50

     celldm(1)=   1.889726  celldm(2)=   0.000000  celldm(3)=   0.000000
     celldm(4)=   0.000000  celldm(5)=   0.000000  celldm(6)=   0.000000

     crystal axes: (cart. coord. in units of alat)
               a(1) = (   5.340788   0.000000   0.000000 )
               a(2) = (   2.661495   4.630385   0.000000 )
               a(3) = (   0.000000   0.000000  24.363135 )

     reciprocal axes: (cart. coord. in units 2 pi/alat)
               b(1) = (  0.187238 -0.107623  0.000000 )
               b(2) = (  0.000000  0.215965  0.000000 )
               b(3) = (  0.000000  0.000000  0.041046 )

     PseudoPot. # 1 for Ni read from file:
     /afs/slac.stanford.edu/u/if/mamunm/psp/gbrv1.5pbe/Ni.UPF
     MD5 check sum: 1ee80287db30b12d2bc1f57a5b5d6409
     Pseudo is Ultrasoft + core correction, Zval = 18.0
     Generated by new atomic code, or converted to UPF format
     Using radial grid of  865 points,  6 beta functions with:
                l(1) =   0
                l(2) =   0
                l(3) =   1
                l(4) =   1
                l(5) =   2
                l(6) =   2
     Q(r) pseudized with 10 coefficients,  rinner =    0.980   0.980   0.980
                                                       0.980   0.980

     PseudoPot. # 2 for W  read from file:
     /afs/slac.stanford.edu/u/if/mamunm/psp/gbrv1.5pbe/W.UPF
     MD5 check sum: 9c083fa34c2a2ea0f02f1f893e16e1c8
     Pseudo is Ultrasoft + core correction, Zval = 14.0
     Generated by new atomic code, or converted to UPF format
     Using radial grid of  923 points,  8 beta functions with:
                l(1) =   0
                l(2) =   0
                l(3) =   0
                l(4) =   1
                l(5) =   1
                l(6) =   2
                l(7) =   2
                l(8) =   3
     Q(r) pseudized with  6 coefficients,  rinner =    1.350   1.350   1.350
                                                       1.350   1.350   1.350
                                                       1.350

     vdW kernel table read from file vdW_kernel_table
     MD5 check sum: 095c7af220d748ca6e76c0b4c6cfb241

     atomic species   valence    mass     pseudopotential
        Ni1           18.00    58.69340     Ni( 1.00)
        W1            14.00   183.84000     W ( 1.00)

     Starting magnetic structure
     atomic species   magnetization
        Ni1          0.111
        W1           0.143

     No symmetry found

   Cartesian axes

     site n.     atom                  positions (alat units)
         1           Ni1 tau(   1) = (   0.0000000   0.0000000  10.0000000  )
         2           Ni1 tau(   2) = (   4.0011416   2.3151926  10.0000000  )
         3           W1  tau(   3) = (   2.6703942   0.0000000  10.0000000  )
         4           W1  tau(   4) = (   1.3307474   2.3151926  10.0000000  )
         5           Ni1 tau(   5) = (   5.3407884   3.0903564  12.1815677  )
         6           Ni1 tau(   6) = (   1.3396468   0.7751638  12.1815677  )
         7           W1  tau(   7) = (   2.6703942   3.0903564  12.1815677  )
         8           W1  tau(   8) = (   4.0100410   0.7751638  12.1815677  )
         9           Ni1 tau(   9) = (   2.6792936   1.5503277  14.3631354  )
        10           Ni1 tau(  10) = (   6.6804352   3.8655202  14.3631354  )
        11           W1  tau(  11) = (   5.3496878   1.5503277  14.3631354  )
        12           W1  tau(  12) = (   4.0100410   3.8655202  14.3631354  )

     number of k points=    40  Fermi-Dirac smearing, width (Ry)=  0.0110
                       cart. coord. in units 2pi/alat
        k(    1) = (   0.0000000   0.0000000   0.0000000), wk =   0.0277778
        k(    2) = (   0.0000000   0.0359941   0.0000000), wk =   0.0555556
        k(    3) = (   0.0000000   0.0719883   0.0000000), wk =   0.0555556
        k(    4) = (   0.0000000  -0.1079824   0.0000000), wk =   0.0277778
        k(    5) = (   0.0312064  -0.0179371   0.0000000), wk =   0.0555556
        k(    6) = (   0.0312064   0.0180570   0.0000000), wk =   0.0555556
        k(    7) = (   0.0312064   0.0540512   0.0000000), wk =   0.0555556
        k(    8) = (   0.0312064  -0.1259195   0.0000000), wk =   0.0555556
        k(    9) = (   0.0312064  -0.0899253   0.0000000), wk =   0.0555556
        k(   10) = (   0.0312064  -0.0539312   0.0000000), wk =   0.0555556
        k(   11) = (   0.0624128  -0.0358742   0.0000000), wk =   0.0555556
        k(   12) = (   0.0624128   0.0001200   0.0000000), wk =   0.0555556
        k(   13) = (   0.0624128   0.0361141   0.0000000), wk =   0.0555556
        k(   14) = (   0.0624128  -0.1438566   0.0000000), wk =   0.0555556
        k(   15) = (   0.0624128  -0.1078624   0.0000000), wk =   0.0555556
        k(   16) = (   0.0624128  -0.0718683   0.0000000), wk =   0.0555556
        k(   17) = (  -0.0936191   0.0538113   0.0000000), wk =   0.0277778
        k(   18) = (  -0.0936191   0.0898054   0.0000000), wk =   0.0555556
        k(   19) = (  -0.0936191   0.1257995   0.0000000), wk =   0.0555556
        k(   20) = (  -0.0936191  -0.0541711   0.0000000), wk =   0.0277778
        k(   21) = (   0.0000000   0.0000000   0.0000000), wk =   0.0277778
        k(   22) = (   0.0000000   0.0359941   0.0000000), wk =   0.0555556
        k(   23) = (   0.0000000   0.0719883   0.0000000), wk =   0.0555556
        k(   24) = (   0.0000000  -0.1079824   0.0000000), wk =   0.0277778
        k(   25) = (   0.0312064  -0.0179371   0.0000000), wk =   0.0555556
        k(   26) = (   0.0312064   0.0180570   0.0000000), wk =   0.0555556
        k(   27) = (   0.0312064   0.0540512   0.0000000), wk =   0.0555556
        k(   28) = (   0.0312064  -0.1259195   0.0000000), wk =   0.0555556
        k(   29) = (   0.0312064  -0.0899253   0.0000000), wk =   0.0555556
        k(   30) = (   0.0312064  -0.0539312   0.0000000), wk =   0.0555556
        k(   31) = (   0.0624128  -0.0358742   0.0000000), wk =   0.0555556
        k(   32) = (   0.0624128   0.0001200   0.0000000), wk =   0.0555556
        k(   33) = (   0.0624128   0.0361141   0.0000000), wk =   0.0555556
        k(   34) = (   0.0624128  -0.1438566   0.0000000), wk =   0.0555556
        k(   35) = (   0.0624128  -0.1078624   0.0000000), wk =   0.0555556
        k(   36) = (   0.0624128  -0.0718683   0.0000000), wk =   0.0555556
        k(   37) = (  -0.0936191   0.0538113   0.0000000), wk =   0.0277778
        k(   38) = (  -0.0936191   0.0898054   0.0000000), wk =   0.0555556
        k(   39) = (  -0.0936191   0.1257995   0.0000000), wk =   0.0555556
        k(   40) = (  -0.0936191  -0.0541711   0.0000000), wk =   0.0277778

     Largest allocated arrays     est. size (Mb)     dimensions
     Largest temporary arrays     est. size (Mb)     dimensions

     Initial potential from superposition of free atoms
     Check: negative starting charge=(component1):   -0.217346
     Check: negative starting charge=(component2):   -0.163018

     starting charge  179.39796, renormalised to  192.00000

     negative rho (up, down):  2.326E-01 1.745E-01

     *
     * You are using vdW-DF for exchange-correlation in this calculation.
     * Please cite the following three references that made this development
     * possible:
     *
     *   M. Dion, H. Rydberg, E. Schroder, D. C. Langreth, and
     *   B. I. Lundqvist, Phys. Rev. Lett. 92, 246401 (2004).
     *
     *   T. Thonhauser, V. R. Cooper, S. Li, A. Puzder, P. Hyldgaard, and
     *   D. C. Langreth, Phys. Rev. B 76, 125112 (2007).
     *
     *   G. Roman-Perez and J. M. Soler, Phys. Rev. Lett. 103, 096102 (2009).
     *
     *
     * If you are using vdW-DF2, please also cite:
     *
     *   K. Lee, E. D. Murray, L. Kong, B. I. Lundqvist, and
     *   D. C. Langreth, Phys. Rev. B 82, 081101(R) (2010).
     *
     *
     * If you are calculating the stress with vdW-DF, please also cite:
     *
     *   R. Sabatini, E. Kucukbenli, B. Kolb, T. Thonhauser, and
     *   S. de Gironcoli, J. Phys.: Condens. Matter 24, 424209 (2012).
     *

     Carrying out vdW-DF run using the following parameters:

     Nqs =      20    Nr_points =    1024   r_max =   100.000
     q_mesh =
               0.00001000     0.04494208     0.09755937     0.15916263
               0.23128650     0.31572767     0.41458969     0.53033537
               0.66584808     0.82450364     1.01025438     1.22772762
               1.48234092     1.78043706     2.12944203     2.53805004
               3.01644009     3.57652955     4.23227104     5.00000000

     Gradients computed in reciprocal space

     Adding external electric field

     Computed dipole along edir(3) :
        Dipole                0.0000 Ry au,          0.0000 Debye
        Dipole field          0.0000 Ry au

        Potential amp.       -0.0000 Ry
        Total length         44.8887 bohr

[...]

     Starting wfc are  156 randomized atomic wfcs

     Self-consistent Calculation

     iteration #  1     ecut=    36.75 Ry     beta=0.10
     Davidson diagonalization with overlap
     ethr =  1.00E-02,  avg # of iterations =  7.7

[...]

     Magnetic moment per site:
     atom:    1    charge:    9.5579    magn:    1.0155    constr:    0.0000
     atom:    2    charge:    9.5579    magn:    1.0155    constr:    0.0000
     atom:    3    charge:    1.7334    magn:    0.2253    constr:    0.0000
     atom:    4    charge:    1.7334    magn:    0.2253    constr:    0.0000
     atom:    5    charge:    9.5651    magn:    1.0183    constr:    0.0000
[...]
     Pseudo is Ultrasoft + core correction, Zval = 14.0
     Generated by new atomic code, or converted to UPF format
     Using radial grid of  923 points,  8 beta functions with:
                l(1) =   0
                l(2) =   0
                l(3) =   0
                l(4) =   1
                l(5) =   1
                l(6) =   2
                l(7) =   2
                l(8) =   3
     Q(r) pseudized with  6 coefficients,  rinner =    1.350   1.350   1.350
                                                       1.350   1.350   1.350
                                                       1.350

     vdW kernel table read from file vdW_kernel_table
     MD5 check sum: 095c7af220d748ca6e76c0b4c6cfb241

     atomic species   valence    mass     pseudopotential
        Ni1           18.00    58.69340     Ni( 1.00)
        W1            14.00   183.84000     W ( 1.00)

     Starting magnetic structure
     atomic species   magnetization
        Ni1          0.111
        W1           0.143

     No symmetry found

   Cartesian axes

     site n.     atom                  positions (alat units)
         1           Ni1 tau(   1) = (   0.0000000   0.0000000  10.0000000  )
         2           Ni1 tau(   2) = (   4.0011416   2.3151926  10.0000000  )
         3           W1  tau(   3) = (   2.6703942   0.0000000  10.0000000  )
         4           W1  tau(   4) = (   1.3307474   2.3151926  10.0000000  )
         5           Ni1 tau(   5) = (   5.3407884   3.0903564  12.1815677  )
         6           Ni1 tau(   6) = (   1.3396468   0.7751638  12.1815677  )
         7           W1  tau(   7) = (   2.6703942   3.0903564  12.1815677  )
         8           W1  tau(   8) = (   4.0100410   0.7751638  12.1815677  )
         9           Ni1 tau(   9) = (   2.7050446   1.5652276  14.3163419  )
        10           Ni1 tau(  10) = (   6.7062661   3.8804669  14.3164556  )
        11           W1  tau(  11) = (   5.3783828   1.5669631  14.2827507  )
        12           W1  tau(  12) = (   4.0387640   3.8821084  14.2827505  )

     number of k points=    40  Fermi-Dirac smearing, width (Ry)=  0.0110
                       cart. coord. in units 2pi/alat
        k(    1) = (   0.0000000   0.0000000   0.0000000), wk =   0.0277778
        k(    2) = (   0.0000000   0.0359941   0.0000000), wk =   0.0555556
        k(    3) = (   0.0000000   0.0719883   0.0000000), wk =   0.0555556
        k(    4) = (   0.0000000  -0.1079824   0.0000000), wk =   0.0277778
        k(    5) = (   0.0312064  -0.0179371   0.0000000), wk =   0.0555556
        k(    6) = (   0.0312064   0.0180570   0.0000000), wk =   0.0555556
        k(    7) = (   0.0312064   0.0540512   0.0000000), wk =   0.0555556
        k(    8) = (   0.0312064  -0.1259195   0.0000000), wk =   0.0555556
        k(    9) = (   0.0312064  -0.0899253   0.0000000), wk =   0.0555556
        k(   10) = (   0.0312064  -0.0539312   0.0000000), wk =   0.0555556
        k(   11) = (   0.0624128  -0.0358742   0.0000000), wk =   0.0555556
        k(   12) = (   0.0624128   0.0001200   0.0000000), wk =   0.0555556
        k(   13) = (   0.0624128   0.0361141   0.0000000), wk =   0.0555556
        k(   14) = (   0.0624128  -0.1438566   0.0000000), wk =   0.0555556
        k(   15) = (   0.0624128  -0.1078624   0.0000000), wk =   0.0555556
        k(   16) = (   0.0624128  -0.0718683   0.0000000), wk =   0.0555556
        k(   17) = (  -0.0936191   0.0538113   0.0000000), wk =   0.0277778
        k(   18) = (  -0.0936191   0.0898054   0.0000000), wk =   0.0555556
        k(   19) = (  -0.0936191   0.1257995   0.0000000), wk =   0.0555556
        k(   20) = (  -0.0936191  -0.0541711   0.0000000), wk =   0.0277778
        k(   21) = (   0.0000000   0.0000000   0.0000000), wk =   0.0277778
        k(   22) = (   0.0000000   0.0359941   0.0000000), wk =   0.0555556
        k(   23) = (   0.0000000   0.0719883   0.0000000), wk =   0.0555556
        k(   24) = (   0.0000000  -0.1079824   0.0000000), wk =   0.0277778
        k(   25) = (   0.0312064  -0.0179371   0.0000000), wk =   0.0555556
        k(   26) = (   0.0312064   0.0180570   0.0000000), wk =   0.0555556
        k(   27) = (   0.0312064   0.0540512   0.0000000), wk =   0.0555556
        k(   28) = (   0.0312064  -0.1259195   0.0000000), wk =   0.0555556
        k(   29) = (   0.0312064  -0.0899253   0.0000000), wk =   0.0555556
        k(   30) = (   0.0312064  -0.0539312   0.0000000), wk =   0.0555556
        k(   31) = (   0.0624128  -0.0358742   0.0000000), wk =   0.0555556
        k(   32) = (   0.0624128   0.0001200   0.0000000), wk =   0.0555556
        k(   33) = (   0.0624128   0.0361141   0.0000000), wk =   0.0555556
        k(   34) = (   0.0624128  -0.1438566   0.0000000), wk =   0.0555556
        k(   35) = (   0.0624128  -0.1078624   0.0000000), wk =   0.0555556
        k(   36) = (   0.0624128  -0.0718683   0.0000000), wk =   0.0555556
        k(   37) = (  -0.0936191   0.0538113   0.0000000), wk =   0.0277778
        k(   38) = (  -0.0936191   0.0898054   0.0000000), wk =   0.0555556
        k(   39) = (  -0.0936191   0.1257995   0.0000000), wk =   0.0555556
        k(   40) = (  -0.0936191  -0.0541711   0.0000000), wk =   0.0277778

     Largest allocated arrays     est. size (Mb)     dimensions
     Largest temporary arrays     est. size (Mb)     dimensions

     Initial potential from superposition of free atoms
     Check: negative starting charge=(component1):   -0.216768
     Check: negative starting charge=(component2):   -0.162585

     starting charge  179.39796, renormalised to  192.00000

[...]

     *
     * You are using vdW-DF for exchange-correlation in this calculation.
     * Please cite the following three references that made this development
     * possible:
     *
     *   M. Dion, H. Rydberg, E. Schroder, D. C. Langreth, and
     *   B. I. Lundqvist, Phys. Rev. Lett. 92, 246401 (2004).
     *
     *   T. Thonhauser, V. R. Cooper, S. Li, A. Puzder, P. Hyldgaard, and
     *   D. C. Langreth, Phys. Rev. B 76, 125112 (2007).
     *
     *   G. Roman-Perez and J. M. Soler, Phys. Rev. Lett. 103, 096102 (2009).
     *
     *
     * If you are using vdW-DF2, please also cite:
     *
     *   K. Lee, E. D. Murray, L. Kong, B. I. Lundqvist, and
     *   D. C. Langreth, Phys. Rev. B 82, 081101(R) (2010).
     *
     *
     * If you are calculating the stress with vdW-DF, please also cite:
     *
     *   R. Sabatini, E. Kucukbenli, B. Kolb, T. Thonhauser, and
     *   S. de Gironcoli, J. Phys.: Condens. Matter 24, 424209 (2012).
     *

     Carrying out vdW-DF run using the following parameters:

     Nqs =      20    Nr_points =    1024   r_max =   100.000
     q_mesh =
               0.00001000     0.04494208     0.09755937     0.15916263
               0.23128650     0.31572767     0.41458969     0.53033537
               0.66584808     0.82450364     1.01025438     1.22772762
               1.48234092     1.78043706     2.12944203     2.53805004
               3.01644009     3.57652955     4.23227104     5.00000000

     Gradients computed in reciprocal space

[...]

     Starting wfc are  156 randomized atomic wfcs

     Self-consistent Calculation

[...]

     iteration # 18     ecut=    36.75 Ry     beta=0.10
     Davidson diagonalization with overlap
     c_bands:  1 eigenvalues not converged
     ethr =  3.45E-06,  avg # of iterations =  4.8

[...]

     total energy              =   -3028.95737652 Ry
     Harris-Foulkes estimate   =   -3028.95737217 Ry
     estimated scf accuracy    <       0.00000277 Ry

[...]

     iteration # 30     ecut=    36.75 Ry     beta=0.10
     Davidson diagonalization with overlap
     ethr =  1.44E-09,  avg # of iterations =  2.1

[...]

     negative rho (up, down):  1.959E-01 1.960E-01

[...]

     Adding external electric field

     Computed dipole along edir(3) :
        Dipole                0.0091 Ry au,          0.0231 Debye
        Dipole field          0.0000 Ry au

        Potential amp.       -0.0025 Ry
        Total length         44.8887 bohr

     Magnetic moment per site:
     atom:    1    charge:    9.3368    magn:    0.0011    constr:    0.0000
     atom:    2    charge:    9.3368    magn:    0.0011    constr:    0.0000
     atom:    3    charge:    1.6371    magn:   -0.0000    constr:    0.0000
     atom:    4    charge:    1.6371    magn:   -0.0000    constr:    0.0000
     atom:    5    charge:    9.3333    magn:    0.0003    constr:    0.0000
     atom:    6    charge:    9.3335    magn:    0.0003    constr:    0.0000
     atom:    7    charge:    1.6400    magn:   -0.0000    constr:    0.0000
     atom:    8    charge:    1.6400    magn:   -0.0000    constr:    0.0000
     atom:    9    charge:    9.3417    magn:    0.0007    constr:    0.0000
     atom:   10    charge:    9.3416    magn:    0.0007    constr:    0.0000
     atom:   11    charge:    1.6378    magn:   -0.0001    constr:    0.0000
     atom:   12    charge:    1.6378    magn:   -0.0001    constr:    0.0000

     End of self-consistent calculation

 ------ SPIN UP ------------

[...]

 ------ SPIN DOWN ----------

[...]

          k = 0.0624-0.0719 0.0000 ( 15297 PWs)   bands (ev):

[...]

          k =-0.0936-0.0542 0.0000 ( 15318 PWs)   bands (ev):

  -102.0189-102.0148-101.7447-101.7406-101.7204-101.7164 -72.8692 -72.8357
   -72.7949 -72.7928 -72.7599 -72.7190 -62.4651 -62.4606 -62.3905 -62.3403
   -62.3390 -62.3344 -62.2525 -62.2482 -62.2306 -62.2262 -62.0993 -62.0701
   -62.0495 -62.0204 -62.0185 -62.0139 -61.9935 -61.9889 -37.4928 -37.3666
   -37.3010 -37.2756 -37.2280 -37.0617 -37.0231 -36.9550 -36.9367 -36.9146
   -36.9068 -36.8431 -36.8326 -36.5406 -36.4397 -36.4310 -36.2676 -36.2424
    -5.1262  -4.6686  -3.5941  -3.1526  -2.9196  -2.6404  -2.6230  -2.3422
    -2.2052  -2.0424  -1.8604  -1.6991  -1.6227  -1.4709  -1.4071  -1.2578
    -1.1594  -1.0841  -1.0052  -0.9903  -0.8978  -0.7488  -0.5336  -0.4058
    -0.4039  -0.3864  -0.3404  -0.2895  -0.2436  -0.2180  -0.1489  -0.1247
    -0.0876  -0.0618   0.0135   0.0920   0.1424   0.2036   0.2456   0.2871
     0.3065   0.3430   0.3885   0.4068   0.4570   0.6283   0.7928   0.9483
     1.1976   1.7337   1.7728   2.2296   2.3164   2.7482   2.7659   3.0423
     3.1942   3.3539   3.6287   3.8397   4.2375   4.2382   4.6708   4.7265
     4.7570   4.9282   5.7152   5.8505   6.4180   7.3116   7.4233   7.6671
     7.8355   8.2438   8.4198   8.4461   8.6149   8.8832

     the Fermi energy is     1.6661 ev

!    total energy              =   -3028.95738970 Ry
     Harris-Foulkes estimate   =   -3028.95737741 Ry
     estimated scf accuracy    <       0.00000099 Ry

     The total energy is the sum of the following terms:

     one-electron contribution =  -23738.13115348 Ry
     hartree contribution      =   11865.71938240 Ry
     xc contribution           =    -475.76343830 Ry
     ewald contribution        =    9319.28151376 Ry
     electric field correction =       0.00000026 Ry
     smearing contrib. (-TS)   =      -0.06369434 Ry

     total magnetization       =    -0.01 Bohr mag/cell
     absolute magnetization    =     0.02 Bohr mag/cell

     convergence has been achieved in  30 iterations

 BEEF-vdW xc energy contributions
           1 :   -418.979908635378
           2 :    384.237112370076
           3 :   -324.315605886897
           4 :    254.318340046893
           5 :   -189.060389275761
           6 :    138.150796847811
           7 :   -103.969519921850
           8 :    82.9347114076348
           9 :   -68.8989412189737
          10 :    56.6774410479126
          11 :   -44.0365925571372
          12 :    31.5759931276161
          13 :   -21.1603043322818
          14 :    14.1494144379668
          15 :   -10.4777321100300
          16 :    8.87326601734816
          17 :   -7.78416256625087
          18 :    6.26525145101050
          19 :   -4.29672731398415
          20 :    2.46997944734710
          21 :   -1.38445442948569
          22 :    1.19167297903834
          23 :   -1.54433927542118
          24 :    1.89182404083908
          25 :   -1.85940117107771
          26 :    1.43874045222731
          27 :  -0.901811360686395
          28 :   0.545256930348955
          29 :  -0.473987463161166
          30 :   0.565276212418553
          31 :   -36.4114152570761
          32 :   -26.5031881113513

     Forces acting on atoms (Ry/au):

     negative rho (up, down):  1.959E-01 1.960E-01
     atom    1 type  1   force =    -0.00213458   -0.00123520    0.00674888
     atom    2 type  1   force =    -0.00210382   -0.00121712    0.00676513
     atom    3 type  2   force =     0.00031264    0.00019346    0.02062149
     atom    4 type  2   force =     0.00032346    0.00017456    0.02062145
     atom    5 type  1   force =     0.00220173    0.00127406   -0.01174948
     atom    6 type  1   force =     0.00216723    0.00125404   -0.01177972
     atom    7 type  2   force =    -0.00130273   -0.00076320   -0.01657039
     atom    8 type  2   force =    -0.00131082   -0.00074912   -0.01657046
     atom    9 type  1   force =     0.00006296    0.00003651    0.00189275
     atom   10 type  1   force =     0.00001633    0.00000917    0.00184895
     atom   11 type  2   force =     0.00089449    0.00049307   -0.00091436
     atom   12 type  2   force =     0.00087311    0.00052976   -0.00091423

     Total force =     0.042522     Total SCF correction =     0.005604
     SCF correction compared to forces is large: reduce conv_thr to get better values

     entering subroutine stress ...

     negative rho (up, down):  1.959E-01 1.960E-01
          total   stress  (Ry/bohr**3)                   (kbar)     P=  -56.30
  -0.00042387   0.00000526   0.00000389        -62.35      0.77      0.57
   0.00000526  -0.00042991   0.00000225          0.77    -63.24      0.33
   0.00000389   0.00000225  -0.00029434          0.57      0.33    -43.30

 !ASE

     Writing output data file calc.save

     General routines

     Parallel routines

   This run was terminated on:   5:16: 9  19Dec2018

   JOB DONE.
Job  /afs/slac/g/suncat/bin/suncat-tsmpirun -x LD_LIBRARY_PATH -wdir /scratch/qe530391_QNJC9 pw.x -in pw.inp

TID   HOST_NAME   COMMAND_LINE            STATUS            TERMINATION_TIME
00000 suncat2028 pw.x -in pw.inp   Done                     12/19/2018 05:16:09
00001 suncat2028 pw.x -in pw.inp   Done                     12/19/2018 05:16:09
00002 suncat2028 pw.x -in pw.inp   Done                     12/19/2018 05:16:09
00003 suncat2028 pw.x -in pw.inp   Done                     12/19/2018 05:16:09
00004 suncat2028 pw.x -in pw.inp   Done                     12/19/2018 05:16:09
00005 suncat2028 pw.x -in pw.inp   Done                     12/19/2018 05:16:09
00006 suncat2028 pw.x -in pw.inp   Done                     12/19/2018 05:16:09
00007 suncat2028 pw.x -in pw.inp   Done                     12/19/2018 05:16:09
00008 suncat2028 pw.x -in pw.inp   Done                     12/19/2018 05:16:09
00009 suncat2028 pw.x -in pw.inp   Done                     12/19/2018 05:16:09
00010 suncat2028 pw.x -in pw.inp   Done                     12/19/2018 05:16:09
00011 suncat2028 pw.x -in pw.inp   Done                     12/19/2018 05:16:09
00012 suncat2028 pw.x -in pw.inp   Done                     12/19/2018 05:16:09
00013 suncat2028 pw.x -in pw.inp   Done                     12/19/2018 05:16:09
00014 suncat2028 pw.x -in pw.inp   Done                     12/19/2018 05:16:09
00015 suncat2028 pw.x -in pw.inp   Done                     12/19/2018 05:16:09
00016 suncat2027 pw.x -in pw.inp   Done                     12/19/2018 05:16:09
00017 suncat2027 pw.x -in pw.inp   Done                     12/19/2018 05:16:09
00018 suncat2027 pw.x -in pw.inp   Done                     12/19/2018 05:16:09
00019 suncat2027 pw.x -in pw.inp   Done                     12/19/2018 05:16:09
00020 suncat2027 pw.x -in pw.inp   Done                     12/19/2018 05:16:09
00021 suncat2027 pw.x -in pw.inp   Done                     12/19/2018 05:16:09
00022 suncat2027 pw.x -in pw.inp   Done                     12/19/2018 05:16:09
00023 suncat2027 pw.x -in pw.inp   Done                     12/19/2018 05:16:09
00024 suncat2027 pw.x -in pw.inp   Done                     12/19/2018 05:16:09
00025 suncat2027 pw.x -in pw.inp   Done                     12/19/2018 05:16:09
00026 suncat2027 pw.x -in pw.inp   Done                     12/19/2018 05:16:09
00027 suncat2027 pw.x -in pw.inp   Done                     12/19/2018 05:16:09
00028 suncat2027 pw.x -in pw.inp   Done                     12/19/2018 05:16:09
00029 suncat2027 pw.x -in pw.inp   Done                     12/19/2018 05:16:09
00030 suncat2027 pw.x -in pw.inp   Done                     12/19/2018 05:16:09
00031 suncat2027 pw.x -in pw.inp   Done                     12/19/2018 05:16:09