     Program PWSCF v.5.1rc2 (svn rev. 11289) starts on 26Dec2018 at 16:51:25

     Current dimensions of program PWSCF are:
     Max number of different atomic species (ntypx) = 10
     Max number of k-points (npk) =  40000
     Max angular momentum in pseudopotentials (lmaxx) =  3
     Presently stress not available with electric field

     IMPORTANT: XC functional enforced from input :
     Exchange-correlation      = BEEF-VDW ( 1  4 27 13 2)
     Any further DFT definition will be discarded
     Please, verify this is what you really want

     Subspace diagonalization in iterative solution of the eigenvalue problem:
     a serial algorithm will be used

     Generating pointlists ...
     new r_m :   0.4125 (alat units)  0.7795 (a.u.) for type    1
     new r_m :   0.4125 (alat units)  0.7795 (a.u.) for type    2

     bravais-lattice index     =            0
     lattice parameter (alat)  =       1.8897  a.u.
     unit-cell volume          =    7687.8785 (a.u.)^3
     number of atoms/cell      =           12
     number of atomic types    =            2
     number of electrons       =       144.00
     number of Kohn-Sham states=          102
     kinetic-energy cutoff     =      36.7493  Ry
     charge density cutoff     =     367.4932  Ry
     convergence threshold     =      1.0E-06
     mixing beta               =       0.1000
     number of iterations used =           10  plain     mixing
     Exchange-correlation      = BEEF-VDW ( 1  4 27 13 2)
     nstep                     =           50

     celldm(1)=   1.889726  celldm(2)=   0.000000  celldm(3)=   0.000000
     celldm(4)=   0.000000  celldm(5)=   0.000000  celldm(6)=   0.000000

     crystal axes: (cart. coord. in units of alat)
               a(1) = (   7.136766   0.000000   0.000000 )
               a(2) = (  -3.568383   6.180620   0.000000 )
               a(3) = (   0.000000   0.000000  25.827145 )

     reciprocal axes: (cart. coord. in units 2 pi/alat)
               b(1) = (  0.140119  0.080898  0.000000 )
               b(2) = (  0.000000  0.161796  0.000000 )
               b(3) = (  0.000000  0.000000  0.038719 )

     PseudoPot. # 1 for La read from file:
     /afs/slac.stanford.edu/u/if/mamunm/psp/gbrv1.5pbe/La.UPF
     MD5 check sum: 5937b0c7494ba0601a847275249473aa
     Pseudo is Ultrasoft + core correction, Zval = 11.0
     Generated by new atomic code, or converted to UPF format
     Using radial grid of  995 points,  8 beta functions with:
                l(1) =   0
                l(2) =   0
                l(3) =   1
                l(4) =   1
                l(5) =   2
                l(6) =   2
                l(7) =   3
                l(8) =   3
     Q(r) pseudized with  8 coefficients,  rinner =    1.700   1.700   1.700
                                                       1.700   1.700   1.700
                                                       1.700

     PseudoPot. # 2 for Mn read from file:
     /afs/slac.stanford.edu/u/if/mamunm/psp/gbrv1.5pbe/Mn.UPF
     MD5 check sum: 82ef2b46521d7a7d9e736dc3972e4928
     Pseudo is Ultrasoft + core correction, Zval = 15.0
     Generated by new atomic code, or converted to UPF format
     Using radial grid of  859 points,  6 beta functions with:
                l(1) =   0
                l(2) =   0
                l(3) =   1
                l(4) =   1
                l(5) =   2
                l(6) =   2
     Q(r) pseudized with  8 coefficients,  rinner =    0.950   0.950   0.950
                                                       0.950   0.950

     vdW kernel table read from file vdW_kernel_table
     MD5 check sum: 095c7af220d748ca6e76c0b4c6cfb241

     atomic species   valence    mass     pseudopotential
        La1           11.00   138.90547     La( 1.00)
        Mn1           15.00    54.93804     Mn( 1.00)

     Starting magnetic structure
     atomic species   magnetization
        La1          0.182
        Mn1          0.133

     No symmetry found

   Cartesian axes

     site n.     atom                  positions (alat units)
         1           La1 tau(   1) = (   0.0000000   0.0000000  10.0000000  )
         2           La1 tau(   2) = (  -1.7841914   3.0903102  10.0000000  )
         3           La1 tau(   3) = (   1.7841914   3.0903102  10.0000000  )
         4           Mn1 tau(   4) = (   3.5683829   0.0000000  10.0000000  )
         5           La1 tau(   5) = (   3.5683829   2.0602068  12.9135724  )
         6           La1 tau(   6) = (   1.7841914   5.1505170  12.9135724  )
         7           La1 tau(   7) = (  -1.7841914   5.1505170  12.9135724  )
         8           Mn1 tau(   8) = (   0.0000000   2.0602068  12.9135724  )
         9           La1 tau(   9) = (   0.0000000   4.1204136  15.8271448  )
        10           La1 tau(  10) = (   1.7841914   1.0301034  15.8271448  )
        11           La1 tau(  11) = (   5.3525743   1.0301034  15.8271448  )
        12           Mn1 tau(  12) = (   3.5683829   4.1204136  15.8271448  )

     number of k points=    40  Fermi-Dirac smearing, width (Ry)=  0.0110
                       cart. coord. in units 2pi/alat
        k(    1) = (   0.0000000   0.0000000   0.0000000), wk =   0.0277778
        k(    2) = (   0.0000000   0.0269660   0.0000000), wk =   0.0555556
        k(    3) = (   0.0000000   0.0539320   0.0000000), wk =   0.0555556
        k(    4) = (   0.0000000  -0.0808980   0.0000000), wk =   0.0277778
        k(    5) = (   0.0233532   0.0134830   0.0000000), wk =   0.0555556
        k(    6) = (   0.0233532   0.0404490   0.0000000), wk =   0.0555556
        k(    7) = (   0.0233532   0.0674150   0.0000000), wk =   0.0555556
        k(    8) = (   0.0233532  -0.0674150   0.0000000), wk =   0.0555556
        k(    9) = (   0.0233532  -0.0404490   0.0000000), wk =   0.0555556
        k(   10) = (   0.0233532  -0.0134830   0.0000000), wk =   0.0555556
        k(   11) = (   0.0467065   0.0269660   0.0000000), wk =   0.0555556
        k(   12) = (   0.0467065   0.0539320   0.0000000), wk =   0.0555556
        k(   13) = (   0.0467065   0.0808980   0.0000000), wk =   0.0555556
        k(   14) = (   0.0467065  -0.0539320   0.0000000), wk =   0.0555556
        k(   15) = (   0.0467065  -0.0269660   0.0000000), wk =   0.0555556
        k(   16) = (   0.0467065   0.0000000   0.0000000), wk =   0.0555556
        k(   17) = (  -0.0700597  -0.0404490   0.0000000), wk =   0.0277778
        k(   18) = (  -0.0700597  -0.0134830   0.0000000), wk =   0.0555556
        k(   19) = (  -0.0700597   0.0134830   0.0000000), wk =   0.0555556
        k(   20) = (  -0.0700597  -0.1213470   0.0000000), wk =   0.0277778
        k(   21) = (   0.0000000   0.0000000   0.0000000), wk =   0.0277778
        k(   22) = (   0.0000000   0.0269660   0.0000000), wk =   0.0555556
        k(   23) = (   0.0000000   0.0539320   0.0000000), wk =   0.0555556
        k(   24) = (   0.0000000  -0.0808980   0.0000000), wk =   0.0277778
        k(   25) = (   0.0233532   0.0134830   0.0000000), wk =   0.0555556
        k(   26) = (   0.0233532   0.0404490   0.0000000), wk =   0.0555556
        k(   27) = (   0.0233532   0.0674150   0.0000000), wk =   0.0555556
        k(   28) = (   0.0233532  -0.0674150   0.0000000), wk =   0.0555556
        k(   29) = (   0.0233532  -0.0404490   0.0000000), wk =   0.0555556
        k(   30) = (   0.0233532  -0.0134830   0.0000000), wk =   0.0555556
        k(   31) = (   0.0467065   0.0269660   0.0000000), wk =   0.0555556
        k(   32) = (   0.0467065   0.0539320   0.0000000), wk =   0.0555556
        k(   33) = (   0.0467065   0.0808980   0.0000000), wk =   0.0555556
        k(   34) = (   0.0467065  -0.0539320   0.0000000), wk =   0.0555556
        k(   35) = (   0.0467065  -0.0269660   0.0000000), wk =   0.0555556
        k(   36) = (   0.0467065   0.0000000   0.0000000), wk =   0.0555556
        k(   37) = (  -0.0700597  -0.0404490   0.0000000), wk =   0.0277778
        k(   38) = (  -0.0700597  -0.0134830   0.0000000), wk =   0.0555556
        k(   39) = (  -0.0700597   0.0134830   0.0000000), wk =   0.0555556
        k(   40) = (  -0.0700597  -0.1213470   0.0000000), wk =   0.0277778

     Largest allocated arrays     est. size (Mb)     dimensions
     Largest temporary arrays     est. size (Mb)     dimensions

     Check: negative/imaginary core charge=   -0.000002    0.000000

     Initial potential from superposition of free atoms
     Check: negative starting charge=(component1):   -0.373315
     Check: negative starting charge=(component2):   -0.258483

     starting charge  142.21113, renormalised to  144.00000

     negative rho (up, down):  3.780E-01 2.617E-01

     *
     * You are using vdW-DF for exchange-correlation in this calculation.
     * Please cite the following three references that made this development
     * possible:
     *
     *   M. Dion, H. Rydberg, E. Schroder, D. C. Langreth, and
     *   B. I. Lundqvist, Phys. Rev. Lett. 92, 246401 (2004).
     *
     *   T. Thonhauser, V. R. Cooper, S. Li, A. Puzder, P. Hyldgaard, and
     *   D. C. Langreth, Phys. Rev. B 76, 125112 (2007).
     *
     *   G. Roman-Perez and J. M. Soler, Phys. Rev. Lett. 103, 096102 (2009).
     *
     *
     * If you are using vdW-DF2, please also cite:
     *
     *   K. Lee, E. D. Murray, L. Kong, B. I. Lundqvist, and
     *   D. C. Langreth, Phys. Rev. B 82, 081101(R) (2010).
     *
     *
     * If you are calculating the stress with vdW-DF, please also cite:
     *
     *   R. Sabatini, E. Kucukbenli, B. Kolb, T. Thonhauser, and
     *   S. de Gironcoli, J. Phys.: Condens. Matter 24, 424209 (2012).
     *

     Carrying out vdW-DF run using the following parameters:

     Nqs =      20    Nr_points =    1024   r_max =   100.000
     q_mesh =
               0.00001000     0.04494208     0.09755937     0.15916263
               0.23128650     0.31572767     0.41458969     0.53033537
               0.66584808     0.82450364     1.01025438     1.22772762
               1.48234092     1.78043706     2.12944203     2.53805004
               3.01644009     3.57652955     4.23227104     5.00000000

     Gradients computed in reciprocal space

     Adding external electric field

     Computed dipole along edir(3) :
        Dipole                0.0000 Ry au,          0.0000 Debye
        Dipole field          0.0000 Ry au

        Potential amp.       -0.0000 Ry
        Total length         47.5861 bohr

[...]

     Starting wfc are  219 randomized atomic wfcs

     Self-consistent Calculation

     iteration #  1     ecut=    36.75 Ry     beta=0.10
     Davidson diagonalization with overlap
     ethr =  1.00E-02,  avg # of iterations =  1.8

[...]

     Magnetic moment per site:
     atom:    1    charge:    0.1233    magn:    0.0219    constr:    0.0000
     atom:    2    charge:    0.1233    magn:    0.0219    constr:    0.0000
     atom:    3    charge:    0.1233    magn:    0.0219    constr:    0.0000
     atom:    4    charge:    6.0026    magn:    0.8513    constr:    0.0000
     atom:    5    charge:    0.1329    magn:    0.0247    constr:    0.0000
     atom:    6    charge:    0.1329    magn:    0.0247    constr:    0.0000
[...]
        k(    3) = (   0.0000000   0.0539320   0.0000000), wk =   0.0555556
        k(    4) = (   0.0000000  -0.0808980   0.0000000), wk =   0.0277778
        k(    5) = (   0.0233532   0.0134830   0.0000000), wk =   0.0555556
        k(    6) = (   0.0233532   0.0404490   0.0000000), wk =   0.0555556
        k(    7) = (   0.0233532   0.0674150   0.0000000), wk =   0.0555556
        k(    8) = (   0.0233532  -0.0674150   0.0000000), wk =   0.0555556
        k(    9) = (   0.0233532  -0.0404490   0.0000000), wk =   0.0555556
        k(   10) = (   0.0233532  -0.0134830   0.0000000), wk =   0.0555556
        k(   11) = (   0.0467065   0.0269660   0.0000000), wk =   0.0555556
        k(   12) = (   0.0467065   0.0539320   0.0000000), wk =   0.0555556
        k(   13) = (   0.0467065   0.0808980   0.0000000), wk =   0.0555556
        k(   14) = (   0.0467065  -0.0539320   0.0000000), wk =   0.0555556
        k(   15) = (   0.0467065  -0.0269660   0.0000000), wk =   0.0555556
        k(   16) = (   0.0467065   0.0000000   0.0000000), wk =   0.0555556
        k(   17) = (  -0.0700597  -0.0404490   0.0000000), wk =   0.0277778
        k(   18) = (  -0.0700597  -0.0134830   0.0000000), wk =   0.0555556
        k(   19) = (  -0.0700597   0.0134830   0.0000000), wk =   0.0555556
        k(   20) = (  -0.0700597  -0.1213470   0.0000000), wk =   0.0277778
        k(   21) = (   0.0000000   0.0000000   0.0000000), wk =   0.0277778
        k(   22) = (   0.0000000   0.0269660   0.0000000), wk =   0.0555556
        k(   23) = (   0.0000000   0.0539320   0.0000000), wk =   0.0555556
        k(   24) = (   0.0000000  -0.0808980   0.0000000), wk =   0.0277778
        k(   25) = (   0.0233532   0.0134830   0.0000000), wk =   0.0555556
        k(   26) = (   0.0233532   0.0404490   0.0000000), wk =   0.0555556
        k(   27) = (   0.0233532   0.0674150   0.0000000), wk =   0.0555556
        k(   28) = (   0.0233532  -0.0674150   0.0000000), wk =   0.0555556
        k(   29) = (   0.0233532  -0.0404490   0.0000000), wk =   0.0555556
        k(   30) = (   0.0233532  -0.0134830   0.0000000), wk =   0.0555556
        k(   31) = (   0.0467065   0.0269660   0.0000000), wk =   0.0555556
        k(   32) = (   0.0467065   0.0539320   0.0000000), wk =   0.0555556
        k(   33) = (   0.0467065   0.0808980   0.0000000), wk =   0.0555556
        k(   34) = (   0.0467065  -0.0539320   0.0000000), wk =   0.0555556
        k(   35) = (   0.0467065  -0.0269660   0.0000000), wk =   0.0555556
        k(   36) = (   0.0467065   0.0000000   0.0000000), wk =   0.0555556
        k(   37) = (  -0.0700597  -0.0404490   0.0000000), wk =   0.0277778
        k(   38) = (  -0.0700597  -0.0134830   0.0000000), wk =   0.0555556
        k(   39) = (  -0.0700597   0.0134830   0.0000000), wk =   0.0555556
        k(   40) = (  -0.0700597  -0.1213470   0.0000000), wk =   0.0277778

     Largest allocated arrays     est. size (Mb)     dimensions
     Largest temporary arrays     est. size (Mb)     dimensions

     Check: negative/imaginary core charge=   -0.000002    0.000000

     Initial potential from superposition of free atoms
     Check: negative starting charge=(component1):   -0.372693
     Check: negative starting charge=(component2):   -0.258049

     starting charge  142.21113, renormalised to  144.00000

[...]

     *
     * You are using vdW-DF for exchange-correlation in this calculation.
     * Please cite the following three references that made this development
     * possible:
     *
     *   M. Dion, H. Rydberg, E. Schroder, D. C. Langreth, and
     *   B. I. Lundqvist, Phys. Rev. Lett. 92, 246401 (2004).
     *
     *   T. Thonhauser, V. R. Cooper, S. Li, A. Puzder, P. Hyldgaard, and
     *   D. C. Langreth, Phys. Rev. B 76, 125112 (2007).
     *
     *   G. Roman-Perez and J. M. Soler, Phys. Rev. Lett. 103, 096102 (2009).
     *
     *
     * If you are using vdW-DF2, please also cite:
     *
     *   K. Lee, E. D. Murray, L. Kong, B. I. Lundqvist, and
     *   D. C. Langreth, Phys. Rev. B 82, 081101(R) (2010).
     *
     *
     * If you are calculating the stress with vdW-DF, please also cite:
     *
     *   R. Sabatini, E. Kucukbenli, B. Kolb, T. Thonhauser, and
     *   S. de Gironcoli, J. Phys.: Condens. Matter 24, 424209 (2012).
     *

     Carrying out vdW-DF run using the following parameters:

     Nqs =      20    Nr_points =    1024   r_max =   100.000
     q_mesh =
               0.00001000     0.04494208     0.09755937     0.15916263
               0.23128650     0.31572767     0.41458969     0.53033537
               0.66584808     0.82450364     1.01025438     1.22772762
               1.48234092     1.78043706     2.12944203     2.53805004
               3.01644009     3.57652955     4.23227104     5.00000000

     Gradients computed in reciprocal space

[...]

     Starting wfc are  219 randomized atomic wfcs

     Self-consistent Calculation

[...]

     iteration # 17     ecut=    36.75 Ry     beta=0.10
     Davidson diagonalization with overlap
     c_bands:  1 eigenvalues not converged
     ethr =  7.63E-07,  avg # of iterations =  5.2

[...]

     total energy              =   -1572.32408753 Ry
     Harris-Foulkes estimate   =   -1572.32408260 Ry
     estimated scf accuracy    <       0.00000345 Ry

[...]

     iteration # 33     ecut=    36.75 Ry     beta=0.10
     Davidson diagonalization with overlap
     ethr =  1.00E-09,  avg # of iterations =  6.0

[...]

     negative rho (up, down):  2.369E-01 1.904E-01

[...]

     Adding external electric field

     Computed dipole along edir(3) :
        Dipole                0.0436 Ry au,          0.1109 Debye
        Dipole field          0.0001 Ry au

        Potential amp.       -0.0068 Ry
        Total length         47.5861 bohr

     Magnetic moment per site:
     atom:    1    charge:    0.1552    magn:   -0.0084    constr:    0.0000
     atom:    2    charge:    0.1552    magn:   -0.0084    constr:    0.0000
     atom:    3    charge:    0.1552    magn:   -0.0084    constr:    0.0000
     atom:    4    charge:    6.0048    magn:    1.6131    constr:    0.0000
     atom:    5    charge:    0.1551    magn:   -0.0142    constr:    0.0000
     atom:    6    charge:    0.1551    magn:   -0.0142    constr:    0.0000
     atom:    7    charge:    0.1551    magn:   -0.0142    constr:    0.0000
     atom:    8    charge:    5.9972    magn:    1.5724    constr:    0.0000
     atom:    9    charge:    0.1575    magn:   -0.0095    constr:    0.0000
     atom:   10    charge:    0.1575    magn:   -0.0095    constr:    0.0000
     atom:   11    charge:    0.1575    magn:   -0.0095    constr:    0.0000
     atom:   12    charge:    6.0156    magn:    1.5593    constr:    0.0000

     End of self-consistent calculation

 ------ SPIN UP ------------

[...]

 ------ SPIN DOWN ----------

[...]

          k = 0.0467 0.0000 0.0000 ( 28911 PWs)   bands (ev):

[...]

          k =-0.0701-0.1213 0.0000 ( 28936 PWs)   bands (ev):

   -75.7069 -75.6464 -75.5916 -44.4970 -44.4762 -44.4762 -44.4497 -44.4114
   -44.4114 -44.3587 -44.3587 -44.3476 -31.6370 -31.6169 -31.5638 -31.5473
   -31.5071 -31.5008 -31.1676 -31.1178 -31.0642 -15.8075 -15.7279 -15.6417
   -15.4991 -15.4595 -15.3873 -15.3755 -15.3103 -15.2825 -15.2730 -15.2412
   -15.2032 -15.2016 -15.1781 -15.1190 -15.0659 -15.0639 -14.8367 -14.7204
   -14.7093 -14.6573 -14.6313 -14.5793 -14.5551 -14.5313 -14.4913 -14.2551
    -0.6866  -0.6706  -0.1165   0.1312   0.2855   0.4214   0.6972   0.9033
     0.9659   0.9942   1.0819   1.0991   1.1735   1.2947   1.4349   1.4788
     1.5177   1.6543   1.7154   1.7268   1.7926   1.9125   2.0422   2.0452
     2.1348   2.1365   2.1807   2.1835   2.2348   2.3178   2.3935   2.4149
     2.4868   2.4971   2.5180   2.5402   2.6758   2.6878   2.8366   2.8636
     2.9173   2.9254   2.9777   2.9779   3.0419   3.0516   3.0797   3.0848
     3.1083   3.1201   3.1257   3.1540   3.2191   3.2275

     the Fermi energy is     1.7016 ev

!    total energy              =   -1572.32409602 Ry
     Harris-Foulkes estimate   =   -1572.32409007 Ry
     estimated scf accuracy    <       0.00000060 Ry

     The total energy is the sum of the following terms:

     one-electron contribution =   -6742.26549530 Ry
     hartree contribution      =    3378.32181821 Ry
     xc contribution           =    -539.37204324 Ry
     ewald contribution        =    2331.11681981 Ry
     electric field correction =       0.00000311 Ry
     smearing contrib. (-TS)   =      -0.12519861 Ry

     total magnetization       =    10.13 Bohr mag/cell
     absolute magnetization    =    15.94 Bohr mag/cell

     convergence has been achieved in  33 iterations

 BEEF-vdW xc energy contributions
           1 :   -476.961228077331
           2 :    437.421281881750
           3 :   -368.453193476003
           4 :    285.930615975175
           5 :   -205.619847880298
           6 :    138.823314226746
           7 :   -90.8384858734859
           8 :    61.6126194097137
           9 :   -47.3870748726663
          10 :    42.5610041225327
          11 :   -41.4734954776736
          12 :    39.7994783298208
          13 :   -35.2203011163074
          14 :    27.2941080045268
          15 :   -16.8676422001138
          16 :    5.47828759369440
          17 :    5.05277400060100
          18 :   -12.9546604153205
          19 :    16.9283119759122
          20 :   -16.6129492732863
          21 :    12.8357653782311
          22 :   -7.40801530767646
          23 :    2.47717231001315
          24 :   0.271444960383576
          25 :  -0.190021289132233
          26 :   -2.21478005518634
          27 :    5.61737164064243
          28 :   -8.48300673933079
          29 :    9.69613614489128
          30 :   -8.96828231036670
          31 :   -40.7248692603176
          32 :   -29.1082724197829

     Forces acting on atoms (Ry/au):

     negative rho (up, down):  2.369E-01 1.904E-01
     atom    1 type  1   force =    -0.00000081    0.01165924   -0.00186883
     atom    2 type  1   force =     0.01009604   -0.00583016   -0.00186790
     atom    3 type  1   force =    -0.01009496   -0.00582942   -0.00186791
     atom    4 type  2   force =    -0.00000083   -0.00000113    0.01732631
     atom    5 type  1   force =    -0.00000031   -0.00312636   -0.00257240
     atom    6 type  1   force =    -0.00270693    0.00156424   -0.00257089
     atom    7 type  1   force =     0.00270680    0.00156467   -0.00256873
     atom    8 type  2   force =     0.00000079    0.00000135   -0.00008063
     atom    9 type  1   force =    -0.00000015   -0.00062410   -0.00147729
     atom   10 type  1   force =    -0.00054178    0.00031052   -0.00147865
     atom   11 type  1   force =     0.00054248    0.00031131   -0.00147661
     atom   12 type  2   force =    -0.00000033   -0.00000015    0.00050353

     Total force =     0.027849     Total SCF correction =     0.001144

     entering subroutine stress ...

     negative rho (up, down):  2.369E-01 1.904E-01
          total   stress  (Ry/bohr**3)                   (kbar)     P=   -3.14
  -0.00002467  -0.00000000   0.00000000         -3.63     -0.00      0.00
  -0.00000000  -0.00002467   0.00000000         -0.00     -3.63      0.00
   0.00000000   0.00000000  -0.00001465          0.00      0.00     -2.15

 !ASE

     Writing output data file calc.save

     General routines

     Parallel routines

   This run was terminated on:   2:54:39  27Dec2018

   JOB DONE.
Job  /afs/slac/g/suncat/bin/suncat-tsmpirun -x LD_LIBRARY_PATH -wdir /scratch/qe110007_mrphu pw.x -in pw.inp

TID   HOST_NAME   COMMAND_LINE            STATUS            TERMINATION_TIME
00000 suncat0108 pw.x -in pw.inp   Done                     12/27/2018 02:54:39
00001 suncat0108 pw.x -in pw.inp   Done                     12/27/2018 02:54:39
00002 suncat0108 pw.x -in pw.inp   Done                     12/27/2018 02:54:39
00003 suncat0108 pw.x -in pw.inp   Done                     12/27/2018 02:54:39
00004 suncat0108 pw.x -in pw.inp   Done                     12/27/2018 02:54:39
00005 suncat0108 pw.x -in pw.inp   Done                     12/27/2018 02:54:39
00006 suncat0108 pw.x -in pw.inp   Done                     12/27/2018 02:54:39
00007 suncat0108 pw.x -in pw.inp   Done                     12/27/2018 02:54:39
00008 suncat0107 pw.x -in pw.inp   Done                     12/27/2018 02:54:39
00009 suncat0107 pw.x -in pw.inp   Done                     12/27/2018 02:54:39
00010 suncat0107 pw.x -in pw.inp   Done                     12/27/2018 02:54:39
00011 suncat0107 pw.x -in pw.inp   Done                     12/27/2018 02:54:39
00012 suncat0107 pw.x -in pw.inp   Done                     12/27/2018 02:54:39
00013 suncat0107 pw.x -in pw.inp   Done                     12/27/2018 02:54:39
00014 suncat0107 pw.x -in pw.inp   Done                     12/27/2018 02:54:39
00015 suncat0107 pw.x -in pw.inp   Done                     12/27/2018 02:54:39
00016 suncat0106 pw.x -in pw.inp   Done                     12/27/2018 02:54:39
00017 suncat0106 pw.x -in pw.inp   Done                     12/27/2018 02:54:39
00018 suncat0106 pw.x -in pw.inp   Done                     12/27/2018 02:54:39
00019 suncat0106 pw.x -in pw.inp   Done                     12/27/2018 02:54:39
00020 suncat0106 pw.x -in pw.inp   Done                     12/27/2018 02:54:39
00021 suncat0106 pw.x -in pw.inp   Done                     12/27/2018 02:54:39
00022 suncat0106 pw.x -in pw.inp   Done                     12/27/2018 02:54:39
00023 suncat0106 pw.x -in pw.inp   Done                     12/27/2018 02:54:39
00024 suncat0105 pw.x -in pw.inp   Done                     12/27/2018 02:54:39
00025 suncat0105 pw.x -in pw.inp   Done                     12/27/2018 02:54:39
00026 suncat0105 pw.x -in pw.inp   Done                     12/27/2018 02:54:39
00027 suncat0105 pw.x -in pw.inp   Done                     12/27/2018 02:54:39
00028 suncat0105 pw.x -in pw.inp   Done                     12/27/2018 02:54:39
00029 suncat0105 pw.x -in pw.inp   Done                     12/27/2018 02:54:39
00030 suncat0105 pw.x -in pw.inp   Done                     12/27/2018 02:54:39
00031 suncat0105 pw.x -in pw.inp   Done                     12/27/2018 02:54:39
00032 suncat0238 pw.x -in pw.inp   Done                     12/27/2018 02:54:39
00033 suncat0238 pw.x -in pw.inp   Done                     12/27/2018 02:54:39
00034 suncat0238 pw.x -in pw.inp   Done                     12/27/2018 02:54:39
00035 suncat0238 pw.x -in pw.inp   Done                     12/27/2018 02:54:39
00036 suncat0238 pw.x -in pw.inp   Done                     12/27/2018 02:54:39
00037 suncat0238 pw.x -in pw.inp   Done                     12/27/2018 02:54:39
00038 suncat0238 pw.x -in pw.inp   Done                     12/27/2018 02:54:39
00039 suncat0238 pw.x -in pw.inp   Done                     12/27/2018 02:54:39
00040 suncat0237 pw.x -in pw.inp   Done                     12/27/2018 02:54:39
00041 suncat0237 pw.x -in pw.inp   Done                     12/27/2018 02:54:39
00042 suncat0237 pw.x -in pw.inp   Done                     12/27/2018 02:54:39
00043 suncat0237 pw.x -in pw.inp   Done                     12/27/2018 02:54:39
00044 suncat0237 pw.x -in pw.inp   Done                     12/27/2018 02:54:39
00045 suncat0237 pw.x -in pw.inp   Done                     12/27/2018 02:54:39
00046 suncat0237 pw.x -in pw.inp   Done                     12/27/2018 02:54:39
00047 suncat0237 pw.x -in pw.inp   Done                     12/27/2018 02:54:39
00048 suncat0236 pw.x -in pw.inp   Done                     12/27/2018 02:54:39
00049 suncat0236 pw.x -in pw.inp   Done                     12/27/2018 02:54:39
00050 suncat0236 pw.x -in pw.inp   Done                     12/27/2018 02:54:39
00051 suncat0236 pw.x -in pw.inp   Done                     12/27/2018 02:54:39
00052 suncat0236 pw.x -in pw.inp   Done                     12/27/2018 02:54:39
00053 suncat0236 pw.x -in pw.inp   Done                     12/27/2018 02:54:39
00054 suncat0236 pw.x -in pw.inp   Done                     12/27/2018 02:54:39
00055 suncat0236 pw.x -in pw.inp   Done                     12/27/2018 02:54:39
00056 suncat0235 pw.x -in pw.inp   Done                     12/27/2018 02:54:39
00057 suncat0235 pw.x -in pw.inp   Done                     12/27/2018 02:54:39
00058 suncat0235 pw.x -in pw.inp   Done                     12/27/2018 02:54:39
00059 suncat0235 pw.x -in pw.inp   Done                     12/27/2018 02:54:39
00060 suncat0235 pw.x -in pw.inp   Done                     12/27/2018 02:54:39
00061 suncat0235 pw.x -in pw.inp   Done                     12/27/2018 02:54:39
00062 suncat0235 pw.x -in pw.inp   Done                     12/27/2018 02:54:39
00063 suncat0235 pw.x -in pw.inp   Done                     12/27/2018 02:54:39