     Program PWSCF v.5.1rc2 (svn rev. 11289) starts on  1Jan2019 at 20:30:21

     Current dimensions of program PWSCF are:
     Max number of different atomic species (ntypx) = 10
     Max number of k-points (npk) =  40000
     Max angular momentum in pseudopotentials (lmaxx) =  3
     Presently stress not available with electric field

     IMPORTANT: XC functional enforced from input :
     Exchange-correlation      = BEEF-VDW ( 1  4 27 13 2)
     Any further DFT definition will be discarded
     Please, verify this is what you really want

     Subspace diagonalization in iterative solution of the eigenvalue problem:
     a serial algorithm will be used

     bravais-lattice index     =            0
     lattice parameter (alat)  =       1.8897  a.u.
     unit-cell volume          =    4742.1654 (a.u.)^3
     number of atoms/cell      =           12
     number of atomic types    =            2
     number of electrons       =       177.00
     number of Kohn-Sham states=          118
     kinetic-energy cutoff     =      36.7493  Ry
     charge density cutoff     =     367.4932  Ry
     convergence threshold     =      1.0E-06
     mixing beta               =       0.1000
     number of iterations used =           10  plain     mixing
     Exchange-correlation      = BEEF-VDW ( 1  4 27 13 2)
     nstep                     =           50

     celldm(1)=   1.889726  celldm(2)=   0.000000  celldm(3)=   0.000000
     celldm(4)=   0.000000  celldm(5)=   0.000000  celldm(6)=   0.000000

     crystal axes: (cart. coord. in units of alat)
               a(1) = (   5.733743   0.000000   0.000000 )
               a(2) = (  -2.866872   4.965567   0.000000 )
               a(3) = (   0.000000   0.000000  24.681582 )

     reciprocal axes: (cart. coord. in units 2 pi/alat)
               b(1) = (  0.174406  0.100693  0.000000 )
               b(2) = (  0.000000  0.201387  0.000000 )
               b(3) = (  0.000000  0.000000  0.040516 )

     PseudoPot. # 1 for Tc read from file:
     /afs/slac.stanford.edu/u/if/mamunm/psp/gbrv1.5pbe/Tc.UPF
     MD5 check sum: 9eb49e5b028550b2339a02317eb7b844
     Pseudo is Ultrasoft + core correction, Zval = 15.0
     Generated by new atomic code, or converted to UPF format
     Using radial grid of  965 points,  6 beta functions with:
                l(1) =   0
                l(2) =   0
                l(3) =   1
                l(4) =   1
                l(5) =   2
                l(6) =   2
     Q(r) pseudized with  8 coefficients,  rinner =    1.300   1.300   1.300
                                                       1.300   1.300

     PseudoPot. # 2 for Pb read from file:
     /afs/slac.stanford.edu/u/if/mamunm/psp/gbrv1.5pbe/Pb.UPF
     MD5 check sum: 3d1c1779aa92214d1e8f3a7db79003e2
     Pseudo is Ultrasoft + core correction, Zval = 14.0
     Generated by new atomic code, or converted to UPF format
     Using radial grid of  899 points,  6 beta functions with:
                l(1) =   0
                l(2) =   0
                l(3) =   1
                l(4) =   1
                l(5) =   2
                l(6) =   2
     Q(r) pseudized with  6 coefficients,  rinner =    1.000   1.000   1.000
                                                       1.000   1.000

     vdW kernel table read from file vdW_kernel_table
     MD5 check sum: 095c7af220d748ca6e76c0b4c6cfb241

     atomic species   valence    mass     pseudopotential
        Tc1           15.00    97.90721     Tc( 1.00)
        Pb1           14.00   207.20000     Pb( 1.00)

     No symmetry found

   Cartesian axes

     site n.     atom                  positions (alat units)
         1           Tc1 tau(   1) = (   0.0000000   0.0000000  10.0000000  )
         2           Tc1 tau(   2) = (  -1.4334358   2.4827836  10.0000000  )
         3           Tc1 tau(   3) = (   1.4334358   2.4827836  10.0000000  )
         4           Pb1 tau(   4) = (   2.8668716   0.0000000  10.0000000  )
         5           Tc1 tau(   5) = (   2.8668716   1.6551891  12.3407909  )
         6           Tc1 tau(   6) = (   1.4334358   4.1379727  12.3407909  )
         7           Tc1 tau(   7) = (  -1.4334358   4.1379727  12.3407909  )
         8           Pb1 tau(   8) = (   0.0000000   1.6551891  12.3407909  )
         9           Tc1 tau(   9) = (  -0.0000000   3.3103782  14.6815817  )
        10           Tc1 tau(  10) = (   1.4334358   0.8275945  14.6815817  )
        11           Tc1 tau(  11) = (   4.3003074   0.8275945  14.6815817  )
        12           Pb1 tau(  12) = (   2.8668716   3.3103782  14.6815817  )

     number of k points=    20  Fermi-Dirac smearing, width (Ry)=  0.0110
                       cart. coord. in units 2pi/alat
        k(    1) = (   0.0000000   0.0000000   0.0000000), wk =   0.0555556
        k(    2) = (   0.0000000   0.0335645   0.0000000), wk =   0.1111111
        k(    3) = (   0.0000000   0.0671290   0.0000000), wk =   0.1111111
        k(    4) = (   0.0000000  -0.1006934   0.0000000), wk =   0.0555556
        k(    5) = (   0.0290677   0.0167822   0.0000000), wk =   0.1111111
        k(    6) = (   0.0290677   0.0503467   0.0000000), wk =   0.1111111
        k(    7) = (   0.0290677   0.0839112   0.0000000), wk =   0.1111111
        k(    8) = (   0.0290677  -0.0839112   0.0000000), wk =   0.1111111
        k(    9) = (   0.0290677  -0.0503467   0.0000000), wk =   0.1111111
        k(   10) = (   0.0290677  -0.0167822   0.0000000), wk =   0.1111111
        k(   11) = (   0.0581354   0.0335645   0.0000000), wk =   0.1111111
        k(   12) = (   0.0581354   0.0671290   0.0000000), wk =   0.1111111
        k(   13) = (   0.0581354   0.1006934   0.0000000), wk =   0.1111111
        k(   14) = (   0.0581354  -0.0671290   0.0000000), wk =   0.1111111
        k(   15) = (   0.0581354  -0.0335645   0.0000000), wk =   0.1111111
        k(   16) = (   0.0581354   0.0000000   0.0000000), wk =   0.1111111
        k(   17) = (  -0.0872031  -0.0503467   0.0000000), wk =   0.0555556
        k(   18) = (  -0.0872031  -0.0167822   0.0000000), wk =   0.1111111
        k(   19) = (  -0.0872031   0.0167822   0.0000000), wk =   0.1111111
        k(   20) = (  -0.0872031  -0.1510401   0.0000000), wk =   0.0555556

     Largest allocated arrays     est. size (Mb)     dimensions
     Largest temporary arrays     est. size (Mb)     dimensions

     Check: negative/imaginary core charge=   -0.000016    0.000000

     Initial potential from superposition of free atoms
     Check: negative starting charge=   -1.182356

     starting charge  167.99270, renormalised to  177.00000

     negative rho (up, down):  1.246E+00 0.000E+00

     *
     * You are using vdW-DF for exchange-correlation in this calculation.
     * Please cite the following three references that made this development
     * possible:
     *
     *   M. Dion, H. Rydberg, E. Schroder, D. C. Langreth, and
     *   B. I. Lundqvist, Phys. Rev. Lett. 92, 246401 (2004).
     *
     *   T. Thonhauser, V. R. Cooper, S. Li, A. Puzder, P. Hyldgaard, and
     *   D. C. Langreth, Phys. Rev. B 76, 125112 (2007).
     *
     *   G. Roman-Perez and J. M. Soler, Phys. Rev. Lett. 103, 096102 (2009).
     *
     *
     * If you are using vdW-DF2, please also cite:
     *
     *   K. Lee, E. D. Murray, L. Kong, B. I. Lundqvist, and
     *   D. C. Langreth, Phys. Rev. B 82, 081101(R) (2010).
     *
     *
     * If you are calculating the stress with vdW-DF, please also cite:
     *
     *   R. Sabatini, E. Kucukbenli, B. Kolb, T. Thonhauser, and
     *   S. de Gironcoli, J. Phys.: Condens. Matter 24, 424209 (2012).
     *

     Carrying out vdW-DF run using the following parameters:

     Nqs =      20    Nr_points =    1024   r_max =   100.000
     q_mesh =
               0.00001000     0.04494208     0.09755937     0.15916263
               0.23128650     0.31572767     0.41458969     0.53033537
               0.66584808     0.82450364     1.01025438     1.22772762
               1.48234092     1.78043706     2.12944203     2.53805004
               3.01644009     3.57652955     4.23227104     5.00000000

     Gradients computed in reciprocal space

     Adding external electric field

     Computed dipole along edir(3) :
        Dipole               -0.0000 Ry au,         -0.0000 Debye
        Dipole field         -0.0000 Ry au

        Potential amp.        0.0000 Ry
        Total length         45.4754 bohr

     Starting wfc are  144 randomized atomic wfcs

     Self-consistent Calculation

     iteration #  1     ecut=    36.75 Ry     beta=0.10
     Davidson diagonalization with overlap
     ethr =  1.00E-02,  avg # of iterations =  7.8

[...]

     total energy              =   -2076.39341310 Ry
     Harris-Foulkes estimate   =   -2077.57577261 Ry
     estimated scf accuracy    <       7.83457135 Ry

[...]

     End of self-consistent calculation

          k = 0.0000 0.0000 0.0000 ( 17911 PWs)   bands (ev):

   -64.9102 -64.8479 -64.8478 -64.7539 -64.7489 -64.6956 -64.6956 -64.6944
   -64.6943 -37.1948 -37.0743 -37.0687 -37.0687 -37.0363 -37.0082 -37.0082
   -36.9874 -36.8928 -36.8927 -36.7937 -36.7884 -36.7884 -36.7264 -36.6652
   -36.6651 -36.6346 -36.6345 -36.6328 -36.6081 -36.6020 -36.5973 -36.5973
   -36.5113 -36.5113 -36.5069 -36.5069 -15.2529 -15.2526 -15.2526 -15.2104
   -15.2104 -14.8747 -14.8747 -14.8690 -14.8690 -14.8673 -14.8480 -14.8093
   -14.8093 -14.7943 -14.7943  -8.5196  -7.2607  -7.2265  -2.5330  -2.3518
    -1.9958  -1.4302  -1.4302  -1.2257  -1.0521  -1.0520  -1.0513  -1.0513
    -1.0390  -1.0390  -0.9942  -0.3522  -0.3522   0.0334   0.2892   0.3411
     0.3411   0.8280   0.8280   0.8966   0.9230   0.9231   1.2184   1.2225
     1.4896   1.4896   1.7450   2.0767   2.0767   2.2718   2.2719   2.2898
     2.4325   2.4325   2.7646   2.7646   2.8109   2.8109   3.1414   3.1414
     3.1547   3.5151   3.6960   3.7042   3.7042   3.7426   4.1546   4.1547
     4.3234   4.4302   4.5033   4.5992   4.7535   4.7535   4.8215   5.8282
     6.1689   6.2079   6.6998   7.4032   8.3046   8.8688

[...]

          k =-0.0872-0.0503 0.0000 ( 17816 PWs)   bands (ev):

[...]

     the Fermi energy is     2.1890 ev

!    total energy              =   -2075.08748703 Ry
     Harris-Foulkes estimate   =   -2075.08746801 Ry
     estimated scf accuracy    <       0.00000095 Ry

     The total energy is the sum of the following terms:

     one-electron contribution =  -16165.94194562 Ry
     hartree contribution      =    8100.53811708 Ry
     xc contribution           =    -493.99563765 Ry
     ewald contribution        =    6484.41619325 Ry
     electric field correction =       0.00000000 Ry
     smearing contrib. (-TS)   =      -0.10421409 Ry

     convergence has been achieved in  19 iterations

 BEEF-vdW xc energy contributions
           1 :   -435.582697666701
           2 :    402.277068390200
           3 :   -343.178692744984
           4 :    270.464925142877
           5 :   -197.063771837960
           6 :    132.928435759170
           7 :   -82.9701615280936
           8 :    47.0419702490003
           9 :   -21.6958995913826
          10 :    2.65346744604057
          11 :    13.0769167089203
          12 :   -26.2505907994663
[...]
     MD5 check sum: 9eb49e5b028550b2339a02317eb7b844
     Pseudo is Ultrasoft + core correction, Zval = 15.0
     Generated by new atomic code, or converted to UPF format
     Using radial grid of  965 points,  6 beta functions with:
                l(1) =   0
                l(2) =   0
                l(3) =   1
                l(4) =   1
                l(5) =   2
                l(6) =   2
     Q(r) pseudized with  8 coefficients,  rinner =    1.300   1.300   1.300
                                                       1.300   1.300

     PseudoPot. # 2 for Pb read from file:
     /afs/slac.stanford.edu/u/if/mamunm/psp/gbrv1.5pbe/Pb.UPF
     MD5 check sum: 3d1c1779aa92214d1e8f3a7db79003e2
     Pseudo is Ultrasoft + core correction, Zval = 14.0
     Generated by new atomic code, or converted to UPF format
     Using radial grid of  899 points,  6 beta functions with:
                l(1) =   0
                l(2) =   0
                l(3) =   1
                l(4) =   1
                l(5) =   2
                l(6) =   2
     Q(r) pseudized with  6 coefficients,  rinner =    1.000   1.000   1.000
                                                       1.000   1.000

     vdW kernel table read from file vdW_kernel_table
     MD5 check sum: 095c7af220d748ca6e76c0b4c6cfb241

     atomic species   valence    mass     pseudopotential
        Tc1           15.00    97.90721     Tc( 1.00)
        Pb1           14.00   207.20000     Pb( 1.00)

     No symmetry found

   Cartesian axes

     site n.     atom                  positions (alat units)
         1           Tc1 tau(   1) = (   0.0000000   0.0000000  10.0000000  )
         2           Tc1 tau(   2) = (  -1.4334358   2.4827836  10.0000000  )
         3           Tc1 tau(   3) = (   1.4334358   2.4827836  10.0000000  )
         4           Pb1 tau(   4) = (   2.8668716   0.0000000  10.0000000  )
         5           Tc1 tau(   5) = (   2.8668716   1.6551891  12.3407909  )
         6           Tc1 tau(   6) = (   1.4334358   4.1379727  12.3407909  )
         7           Tc1 tau(   7) = (  -1.4334358   4.1379727  12.3407909  )
         8           Pb1 tau(   8) = (   0.0000000   1.6551891  12.3407909  )
         9           Tc1 tau(   9) = (   0.0000755   3.5133683  14.4760409  )
        10           Tc1 tau(  10) = (   1.6092695   0.7261385  14.4760217  )
        11           Tc1 tau(  11) = (   4.1245228   0.7260740  14.4760526  )
        12           Pb1 tau(  12) = (   2.8669183   3.3103878  15.1967825  )

     number of k points=    20  Fermi-Dirac smearing, width (Ry)=  0.0110
                       cart. coord. in units 2pi/alat
        k(    1) = (   0.0000000   0.0000000   0.0000000), wk =   0.0555556
        k(    2) = (   0.0000000   0.0335645   0.0000000), wk =   0.1111111
        k(    3) = (   0.0000000   0.0671290   0.0000000), wk =   0.1111111
        k(    4) = (   0.0000000  -0.1006934   0.0000000), wk =   0.0555556
        k(    5) = (   0.0290677   0.0167822   0.0000000), wk =   0.1111111
        k(    6) = (   0.0290677   0.0503467   0.0000000), wk =   0.1111111
        k(    7) = (   0.0290677   0.0839112   0.0000000), wk =   0.1111111
        k(    8) = (   0.0290677  -0.0839112   0.0000000), wk =   0.1111111
        k(    9) = (   0.0290677  -0.0503467   0.0000000), wk =   0.1111111
        k(   10) = (   0.0290677  -0.0167822   0.0000000), wk =   0.1111111
        k(   11) = (   0.0581354   0.0335645   0.0000000), wk =   0.1111111
        k(   12) = (   0.0581354   0.0671290   0.0000000), wk =   0.1111111
        k(   13) = (   0.0581354   0.1006934   0.0000000), wk =   0.1111111
        k(   14) = (   0.0581354  -0.0671290   0.0000000), wk =   0.1111111
        k(   15) = (   0.0581354  -0.0335645   0.0000000), wk =   0.1111111
        k(   16) = (   0.0581354   0.0000000   0.0000000), wk =   0.1111111
        k(   17) = (  -0.0872031  -0.0503467   0.0000000), wk =   0.0555556
        k(   18) = (  -0.0872031  -0.0167822   0.0000000), wk =   0.1111111
        k(   19) = (  -0.0872031   0.0167822   0.0000000), wk =   0.1111111
        k(   20) = (  -0.0872031  -0.1510401   0.0000000), wk =   0.0555556

     Largest allocated arrays     est. size (Mb)     dimensions
     Largest temporary arrays     est. size (Mb)     dimensions

     Check: negative/imaginary core charge=   -0.000017    0.000000

     Initial potential from superposition of free atoms
     Check: negative starting charge=   -1.179769

     starting charge  167.99270, renormalised to  177.00000

[...]

     *
     * You are using vdW-DF for exchange-correlation in this calculation.
     * Please cite the following three references that made this development
     * possible:
     *
     *   M. Dion, H. Rydberg, E. Schroder, D. C. Langreth, and
     *   B. I. Lundqvist, Phys. Rev. Lett. 92, 246401 (2004).
     *
     *   T. Thonhauser, V. R. Cooper, S. Li, A. Puzder, P. Hyldgaard, and
     *   D. C. Langreth, Phys. Rev. B 76, 125112 (2007).
     *
     *   G. Roman-Perez and J. M. Soler, Phys. Rev. Lett. 103, 096102 (2009).
     *
     *
     * If you are using vdW-DF2, please also cite:
     *
     *   K. Lee, E. D. Murray, L. Kong, B. I. Lundqvist, and
     *   D. C. Langreth, Phys. Rev. B 82, 081101(R) (2010).
     *
     *
     * If you are calculating the stress with vdW-DF, please also cite:
     *
     *   R. Sabatini, E. Kucukbenli, B. Kolb, T. Thonhauser, and
     *   S. de Gironcoli, J. Phys.: Condens. Matter 24, 424209 (2012).
     *

     Carrying out vdW-DF run using the following parameters:

     Nqs =      20    Nr_points =    1024   r_max =   100.000
     q_mesh =
               0.00001000     0.04494208     0.09755937     0.15916263
               0.23128650     0.31572767     0.41458969     0.53033537
               0.66584808     0.82450364     1.01025438     1.22772762
               1.48234092     1.78043706     2.12944203     2.53805004
               3.01644009     3.57652955     4.23227104     5.00000000

     Gradients computed in reciprocal space

[...]

     Starting wfc are  144 randomized atomic wfcs

     Self-consistent Calculation

[...]

     total energy              =   -2075.17833437 Ry
     Harris-Foulkes estimate   =   -2075.17833027 Ry
     estimated scf accuracy    <       0.00000120 Ry

     iteration # 20     ecut=    36.75 Ry     beta=0.10
     Davidson diagonalization with overlap
     ethr =  6.75E-10,  avg # of iterations =  3.8

[...]

     negative rho (up, down):  1.231E+00 0.000E+00

     Adding external electric field

     Computed dipole along edir(3) :
        Dipole                0.1720 Ry au,          0.4371 Debye
        Dipole field          0.0005 Ry au

        Potential amp.       -0.0414 Ry
        Total length         45.4754 bohr

     End of self-consistent calculation

[...]

          k = 0.0581 0.0000 0.0000 ( 17845 PWs)   bands (ev):

[...]

          k =-0.0872-0.1510 0.0000 ( 17816 PWs)   bands (ev):

   -64.8297 -64.7516 -64.7254 -64.7143 -64.6581 -64.6501 -64.5134 -64.4944
   -64.4753 -37.3035 -37.1365 -37.0924 -37.0865 -37.0039 -36.9176 -36.8350
   -36.8005 -36.7645 -36.7326 -36.7092 -36.7066 -36.5841 -36.5614 -36.5565
   -36.5477 -36.5387 -36.5232 -36.4918 -36.4778 -36.4561 -36.4361 -36.4103
   -36.3924 -36.3752 -36.3704 -36.3166 -15.1033 -15.0837 -15.0702 -15.0457
   -15.0413 -14.7149 -14.6876 -14.6800 -14.6721 -14.6635 -14.6540 -14.6369
   -14.6362 -14.6107 -14.6096  -7.5448  -6.7663  -6.3411  -3.1227  -2.4495
    -2.2086  -1.9971  -1.9695  -1.3697  -1.1362  -1.1202  -0.9757  -0.8605
    -0.7750  -0.7596  -0.4205  -0.3229  -0.2357  -0.1671  -0.1254  -0.0781
     0.2087   0.3642   0.5015   0.6505   0.7869   0.9085   1.0275   1.1134
     1.1323   1.2988   1.4300   1.5254   1.9286   1.9721   2.0614   2.1381
     2.2373   2.4100   2.4236   2.5311   2.6824   2.7722   2.7737   2.8159
     2.9420   3.3527   3.4516   3.5945   3.7806   3.9660   4.2668   4.5565
     4.7145   5.3740   5.4446   5.5409   5.8213   6.2873   6.9005   6.9500
     7.2977   7.4778   7.6595   7.7068   7.8480   8.0568

     the Fermi energy is     2.3902 ev

!    total energy              =   -2075.17835266 Ry
     Harris-Foulkes estimate   =   -2075.17833574 Ry
     estimated scf accuracy    <       0.00000040 Ry

     The total energy is the sum of the following terms:

     one-electron contribution =  -16233.95040705 Ry
     hartree contribution      =    8135.19314393 Ry
     xc contribution           =    -494.19605954 Ry
     ewald contribution        =    6517.87185003 Ry
     electric field correction =       0.00007836 Ry
     smearing contrib. (-TS)   =      -0.09695838 Ry

     convergence has been achieved in  20 iterations

 BEEF-vdW xc energy contributions
           1 :   -436.140784476580
           2 :    402.880320285272
           3 :   -343.840654997336
           4 :    271.144598160696
           5 :   -197.666329412950
           6 :    133.337852278386
           7 :   -83.1001051567538
           8 :    46.8822692245497
           9 :   -21.3336226160562
          10 :    2.25743147261687
          11 :    13.3076736945220
          12 :   -26.1641163193577
          13 :    35.2928451934773
          14 :   -39.0558482611494
          15 :    36.5143813030253
          16 :   -28.2456471827653
          17 :    16.3360106834011
          18 :   -3.68372493045825
          19 :   -7.00249856986801
          20 :    14.0156164440269
          21 :   -16.9595545611909
          22 :    16.4967679317778
          23 :   -13.7596794890738
          24 :    9.75297674483119
          25 :   -5.03617799635407
          26 :  -0.224510912950052
          27 :    5.94376631270381
          28 :   -11.7846502407406
          29 :    17.0224146071146
          30 :   -20.6959142525283
          31 :   -38.7496619107366
          32 :   -28.4668314299631

     Forces acting on atoms (Ry/au):

     negative rho (up, down):  1.231E+00 0.000E+00
     atom    1 type  1   force =    -0.00000107   -0.03163725    0.01758134
     atom    2 type  1   force =    -0.02739263    0.01581522    0.01757628
     atom    3 type  1   force =     0.02739698    0.01581844    0.01758366
     atom    4 type  2   force =    -0.00001171    0.00001125   -0.07505198
     atom    5 type  1   force =    -0.00000395    0.02931047    0.01146562
     atom    6 type  1   force =     0.02538690   -0.01466174    0.01146353
     atom    7 type  1   force =    -0.02538554   -0.01465717    0.01147415
     atom    8 type  2   force =    -0.00001324   -0.00000356   -0.01491869
     atom    9 type  1   force =     0.00000107    0.00059687    0.00097306
     atom   10 type  1   force =     0.00050582   -0.00029563    0.00098602
     atom   11 type  1   force =    -0.00050160   -0.00029391    0.00098553
     atom   12 type  2   force =     0.00001897   -0.00000299   -0.00011852

     Total force =     0.112965     Total SCF correction =     0.002323

     entering subroutine stress ...

     negative rho (up, down):  1.231E+00 0.000E+00
          total   stress  (Ry/bohr**3)                   (kbar)     P=  -15.93
  -0.00016909   0.00000000   0.00000001        -24.87      0.00      0.00
   0.00000000  -0.00016910   0.00000000          0.00    -24.88      0.00
   0.00000001   0.00000000   0.00001337          0.00      0.00      1.97

 !ASE

     Writing output data file calc.save

     General routines

     Parallel routines

   This run was terminated on:  22:44:30   1Jan2019

   JOB DONE.
Job  /afs/slac/g/suncat/bin/suncat-tsmpirun -x LD_LIBRARY_PATH -wdir /scratch/qe649167_3CpT5 pw.x -in pw.inp

TID   HOST_NAME   COMMAND_LINE            STATUS            TERMINATION_TIME
00000 suncat0010 pw.x -in pw.inp   Done                     01/01/2019 22:44:30
00001 suncat0010 pw.x -in pw.inp   Done                     01/01/2019 22:44:30
00002 suncat0010 pw.x -in pw.inp   Done                     01/01/2019 22:44:30
00003 suncat0010 pw.x -in pw.inp   Done                     01/01/2019 22:44:30
00004 suncat0010 pw.x -in pw.inp   Done                     01/01/2019 22:44:30
00005 suncat0010 pw.x -in pw.inp   Done                     01/01/2019 22:44:30
00006 suncat0010 pw.x -in pw.inp   Done                     01/01/2019 22:44:30
00007 suncat0010 pw.x -in pw.inp   Done                     01/01/2019 22:44:30
00008 suncat0191 pw.x -in pw.inp   Done                     01/01/2019 22:44:30
00009 suncat0191 pw.x -in pw.inp   Done                     01/01/2019 22:44:30
00010 suncat0191 pw.x -in pw.inp   Done                     01/01/2019 22:44:30
00011 suncat0191 pw.x -in pw.inp   Done                     01/01/2019 22:44:30
00012 suncat0191 pw.x -in pw.inp   Done                     01/01/2019 22:44:30
00013 suncat0191 pw.x -in pw.inp   Done                     01/01/2019 22:44:30
00014 suncat0191 pw.x -in pw.inp   Done                     01/01/2019 22:44:30
00015 suncat0191 pw.x -in pw.inp   Done                     01/01/2019 22:44:30
00016 suncat0007 pw.x -in pw.inp   Done                     01/01/2019 22:44:30
00017 suncat0007 pw.x -in pw.inp   Done                     01/01/2019 22:44:30
00018 suncat0007 pw.x -in pw.inp   Done                     01/01/2019 22:44:30
00019 suncat0007 pw.x -in pw.inp   Done                     01/01/2019 22:44:30
00020 suncat0007 pw.x -in pw.inp   Done                     01/01/2019 22:44:30
00021 suncat0007 pw.x -in pw.inp   Done                     01/01/2019 22:44:30
00022 suncat0007 pw.x -in pw.inp   Done                     01/01/2019 22:44:30
00023 suncat0007 pw.x -in pw.inp   Done                     01/01/2019 22:44:30
00024 suncat0180 pw.x -in pw.inp   Done                     01/01/2019 22:44:30
00025 suncat0180 pw.x -in pw.inp   Done                     01/01/2019 22:44:30
00026 suncat0180 pw.x -in pw.inp   Done                     01/01/2019 22:44:30
00027 suncat0180 pw.x -in pw.inp   Done                     01/01/2019 22:44:30
00028 suncat0180 pw.x -in pw.inp   Done                     01/01/2019 22:44:30
00029 suncat0180 pw.x -in pw.inp   Done                     01/01/2019 22:44:30
00030 suncat0180 pw.x -in pw.inp   Done                     01/01/2019 22:44:30
00031 suncat0180 pw.x -in pw.inp   Done                     01/01/2019 22:44:30
00032 suncat0167 pw.x -in pw.inp   Done                     01/01/2019 22:44:30
00033 suncat0167 pw.x -in pw.inp   Done                     01/01/2019 22:44:30
00034 suncat0167 pw.x -in pw.inp   Done                     01/01/2019 22:44:30
00035 suncat0167 pw.x -in pw.inp   Done                     01/01/2019 22:44:30
00036 suncat0167 pw.x -in pw.inp   Done                     01/01/2019 22:44:30
00037 suncat0167 pw.x -in pw.inp   Done                     01/01/2019 22:44:30
00038 suncat0167 pw.x -in pw.inp   Done                     01/01/2019 22:44:30
00039 suncat0167 pw.x -in pw.inp   Done                     01/01/2019 22:44:30
00040 suncat0161 pw.x -in pw.inp   Done                     01/01/2019 22:44:30
00041 suncat0161 pw.x -in pw.inp   Done                     01/01/2019 22:44:30
00042 suncat0161 pw.x -in pw.inp   Done                     01/01/2019 22:44:30
00043 suncat0161 pw.x -in pw.inp   Done                     01/01/2019 22:44:30
00044 suncat0161 pw.x -in pw.inp   Done                     01/01/2019 22:44:30
00045 suncat0161 pw.x -in pw.inp   Done                     01/01/2019 22:44:30
00046 suncat0161 pw.x -in pw.inp   Done                     01/01/2019 22:44:30
00047 suncat0161 pw.x -in pw.inp   Done                     01/01/2019 22:44:30
00048 suncat0137 pw.x -in pw.inp   Done                     01/01/2019 22:44:30
00049 suncat0137 pw.x -in pw.inp   Done                     01/01/2019 22:44:30
00050 suncat0137 pw.x -in pw.inp   Done                     01/01/2019 22:44:30
00051 suncat0137 pw.x -in pw.inp   Done                     01/01/2019 22:44:30
00052 suncat0137 pw.x -in pw.inp   Done                     01/01/2019 22:44:30
00053 suncat0137 pw.x -in pw.inp   Done                     01/01/2019 22:44:30
00054 suncat0137 pw.x -in pw.inp   Done                     01/01/2019 22:44:30
00055 suncat0137 pw.x -in pw.inp   Done                     01/01/2019 22:44:30
00056 suncat0100 pw.x -in pw.inp   Done                     01/01/2019 22:44:30
00057 suncat0100 pw.x -in pw.inp   Done                     01/01/2019 22:44:30
00058 suncat0100 pw.x -in pw.inp   Done                     01/01/2019 22:44:30
00059 suncat0100 pw.x -in pw.inp   Done                     01/01/2019 22:44:30
00060 suncat0100 pw.x -in pw.inp   Done                     01/01/2019 22:44:30
00061 suncat0100 pw.x -in pw.inp   Done                     01/01/2019 22:44:30
00062 suncat0100 pw.x -in pw.inp   Done                     01/01/2019 22:44:30
00063 suncat0100 pw.x -in pw.inp   Done                     01/01/2019 22:44:30