     Program PWSCF v.5.1rc2 (svn rev. 11289) starts on 19Dec2018 at 19: 6: 5

     Current dimensions of program PWSCF are:
     Max number of different atomic species (ntypx) = 10
     Max number of k-points (npk) =  40000
     Max angular momentum in pseudopotentials (lmaxx) =  3
     Presently stress not available with electric field

     IMPORTANT: XC functional enforced from input :
     Exchange-correlation      = BEEF-VDW ( 1  4 27 13 2)
     Any further DFT definition will be discarded
     Please, verify this is what you really want

     Subspace diagonalization in iterative solution of the eigenvalue problem:
     a serial algorithm will be used

     bravais-lattice index     =            0
     lattice parameter (alat)  =       1.8897  a.u.
     unit-cell volume          =    5009.5198 (a.u.)^3
     number of atoms/cell      =           12
     number of atomic types    =            2
     number of electrons       =       141.00
     number of Kohn-Sham states=          100
     kinetic-energy cutoff     =      36.7493  Ry
     charge density cutoff     =     367.4932  Ry
     convergence threshold     =      1.0E-06
     mixing beta               =       0.1000
     number of iterations used =           10  plain     mixing
     Exchange-correlation      = BEEF-VDW ( 1  4 27 13 2)
     nstep                     =           50

     celldm(1)=   1.889726  celldm(2)=   0.000000  celldm(3)=   0.000000
     celldm(4)=   0.000000  celldm(5)=   0.000000  celldm(6)=   0.000000

     crystal axes: (cart. coord. in units of alat)
               a(1) = (   5.879043   0.000000   0.000000 )
               a(2) = (  -2.939522   5.091401   0.000000 )
               a(3) = (   0.000000   0.000000  24.800219 )

     reciprocal axes: (cart. coord. in units 2 pi/alat)
               b(1) = (  0.170096  0.098205  0.000000 )
               b(2) = (  0.000000  0.196410  0.000000 )
               b(3) = (  0.000000  0.000000  0.040322 )

     PseudoPot. # 1 for Au read from file:
     /afs/slac.stanford.edu/u/if/mamunm/psp/gbrv1.5pbe/Au.UPF
     MD5 check sum: 9d7f43293ad2c663164586bc4b293ffc
     Pseudo is Ultrasoft + core correction, Zval = 11.0
     Generated by new atomic code, or converted to UPF format
     Using radial grid of  985 points,  7 beta functions with:
                l(1) =   0
                l(2) =   0
                l(3) =   1
                l(4) =   1
                l(5) =   2
                l(6) =   2
                l(7) =   3
     Q(r) pseudized with  6 coefficients,  rinner =    1.900   1.900   1.900
                                                       1.900   1.900   1.900
                                                       1.900

     PseudoPot. # 2 for Mo read from file:
     /afs/slac.stanford.edu/u/if/mamunm/psp/gbrv1.5pbe/Mo.UPF
     MD5 check sum: 30c4dcd161f5d35cd49bb5239c51a633
     Pseudo is Ultrasoft + core correction, Zval = 14.0
     Generated by new atomic code, or converted to UPF format
     Using radial grid of  889 points,  6 beta functions with:
                l(1) =   0
                l(2) =   0
                l(3) =   1
                l(4) =   1
                l(5) =   2
                l(6) =   2
     Q(r) pseudized with  6 coefficients,  rinner =    1.000   1.000   1.000
                                                       1.000   1.000

     vdW kernel table read from file vdW_kernel_table
     MD5 check sum: 095c7af220d748ca6e76c0b4c6cfb241

     atomic species   valence    mass     pseudopotential
        Au1           11.00   196.96657     Au( 1.00)
        Mo1           14.00    95.95000     Mo( 1.00)

     No symmetry found

   Cartesian axes

     site n.     atom                  positions (alat units)
         1           Au1 tau(   1) = (   0.0000000   0.0000000  10.0000000  )
         2           Au1 tau(   2) = (  -1.4697609   2.5457005  10.0000000  )
         3           Au1 tau(   3) = (   1.4697609   2.5457005  10.0000000  )
         4           Mo1 tau(   4) = (   2.9395217   0.0000000  10.0000000  )
         5           Au1 tau(   5) = (   2.9395217   1.6971337  12.4001095  )
         6           Au1 tau(   6) = (   1.4697609   4.2428342  12.4001095  )
         7           Au1 tau(   7) = (  -1.4697609   4.2428342  12.4001095  )
         8           Mo1 tau(   8) = (   0.0000000   1.6971337  12.4001095  )
         9           Au1 tau(   9) = (  -0.0000000   3.3942673  14.8002189  )
        10           Au1 tau(  10) = (   1.4697609   0.8485668  14.8002189  )
        11           Au1 tau(  11) = (   4.4092826   0.8485668  14.8002189  )
        12           Mo1 tau(  12) = (   2.9395217   3.3942673  14.8002189  )

     number of k points=    20  Fermi-Dirac smearing, width (Ry)=  0.0110
                       cart. coord. in units 2pi/alat
        k(    1) = (   0.0000000   0.0000000   0.0000000), wk =   0.0555556
        k(    2) = (   0.0000000   0.0327349   0.0000000), wk =   0.1111111
        k(    3) = (   0.0000000   0.0654699   0.0000000), wk =   0.1111111
        k(    4) = (   0.0000000  -0.0982048   0.0000000), wk =   0.0555556
        k(    5) = (   0.0283493   0.0163675   0.0000000), wk =   0.1111111
        k(    6) = (   0.0283493   0.0491024   0.0000000), wk =   0.1111111
        k(    7) = (   0.0283493   0.0818373   0.0000000), wk =   0.1111111
        k(    8) = (   0.0283493  -0.0818373   0.0000000), wk =   0.1111111
        k(    9) = (   0.0283493  -0.0491024   0.0000000), wk =   0.1111111
        k(   10) = (   0.0283493  -0.0163675   0.0000000), wk =   0.1111111
        k(   11) = (   0.0566986   0.0327349   0.0000000), wk =   0.1111111
        k(   12) = (   0.0566986   0.0654699   0.0000000), wk =   0.1111111
        k(   13) = (   0.0566986   0.0982048   0.0000000), wk =   0.1111111
        k(   14) = (   0.0566986  -0.0654699   0.0000000), wk =   0.1111111
        k(   15) = (   0.0566986  -0.0327349   0.0000000), wk =   0.1111111
        k(   16) = (   0.0566986   0.0000000   0.0000000), wk =   0.1111111
        k(   17) = (  -0.0850478  -0.0491024   0.0000000), wk =   0.0555556
        k(   18) = (  -0.0850478  -0.0163675   0.0000000), wk =   0.1111111
        k(   19) = (  -0.0850478   0.0163675   0.0000000), wk =   0.1111111
        k(   20) = (  -0.0850478  -0.1473072   0.0000000), wk =   0.0555556

     Largest allocated arrays     est. size (Mb)     dimensions
     Largest temporary arrays     est. size (Mb)     dimensions

     Check: negative/imaginary core charge=   -0.000002    0.000000

     Initial potential from superposition of free atoms
     Check: negative starting charge=   -0.002594

     starting charge  140.99571, renormalised to  141.00000

     negative rho (up, down):  2.594E-03 0.000E+00

     *
     * You are using vdW-DF for exchange-correlation in this calculation.
     * Please cite the following three references that made this development
     * possible:
     *
     *   M. Dion, H. Rydberg, E. Schroder, D. C. Langreth, and
     *   B. I. Lundqvist, Phys. Rev. Lett. 92, 246401 (2004).
     *
     *   T. Thonhauser, V. R. Cooper, S. Li, A. Puzder, P. Hyldgaard, and
     *   D. C. Langreth, Phys. Rev. B 76, 125112 (2007).
     *
     *   G. Roman-Perez and J. M. Soler, Phys. Rev. Lett. 103, 096102 (2009).
     *
     *
     * If you are using vdW-DF2, please also cite:
     *
     *   K. Lee, E. D. Murray, L. Kong, B. I. Lundqvist, and
     *   D. C. Langreth, Phys. Rev. B 82, 081101(R) (2010).
     *
     *
     * If you are calculating the stress with vdW-DF, please also cite:
     *
     *   R. Sabatini, E. Kucukbenli, B. Kolb, T. Thonhauser, and
     *   S. de Gironcoli, J. Phys.: Condens. Matter 24, 424209 (2012).
     *

     Carrying out vdW-DF run using the following parameters:

     Nqs =      20    Nr_points =    1024   r_max =   100.000
     q_mesh =
               0.00001000     0.04494208     0.09755937     0.15916263
               0.23128650     0.31572767     0.41458969     0.53033537
               0.66584808     0.82450364     1.01025438     1.22772762
               1.48234092     1.78043706     2.12944203     2.53805004
               3.01644009     3.57652955     4.23227104     5.00000000

     Gradients computed in reciprocal space

     Adding external electric field

     Computed dipole along edir(3) :
        Dipole                0.0000 Ry au,          0.0000 Debye
        Dipole field          0.0000 Ry au

        Potential amp.       -0.0000 Ry
        Total length         45.6940 bohr

     Starting wfc are  120 randomized atomic wfcs

     Self-consistent Calculation

     iteration #  1     ecut=    36.75 Ry     beta=0.10
     Davidson diagonalization with overlap
     ethr =  1.00E-02,  avg # of iterations =  8.2

[...]

     total energy              =   -1469.39906285 Ry
     Harris-Foulkes estimate   =   -1470.29407704 Ry
     estimated scf accuracy    <       5.04879366 Ry

[...]

     End of self-consistent calculation

          k = 0.0000 0.0000 0.0000 ( 18955 PWs)   bands (ev):

   -60.6759 -60.4185 -60.4184 -34.7960 -34.6202 -34.6202 -34.4449 -34.4428
   -34.4350 -34.4350 -34.4343 -34.4343  -7.1069  -5.7830  -5.4991  -5.1733
    -5.1733  -5.1496  -5.0611  -5.0611  -5.0275  -4.8248  -4.7621  -4.7621
    -4.6805  -4.6473  -4.6473  -3.8802  -3.6770  -3.6770  -3.6335  -3.6335
    -3.3385  -3.3139  -3.2434  -3.0891  -3.0478  -3.0478  -2.9674  -2.9674
    -2.8413  -2.8413  -2.6849  -2.6848  -2.6367  -2.6367  -2.3585  -2.0627
    -2.0627  -1.9737  -1.9737  -1.7558  -1.7558  -1.5539  -1.3257  -1.3257
    -1.1857  -1.0675  -0.9929  -0.9904  -0.1717   0.3852   0.7426   0.7426
     0.7710   0.7710   0.8780   0.8780   0.9948   0.9948   1.3614   1.4101
     1.4101   1.5250   1.7641   1.7771   1.7771   1.9406   1.9406   3.1566
     3.1566   3.1925   3.1925   3.4911   3.5301   4.8557   5.0467   5.0467
     5.1785   5.3026   5.3026   5.4426   6.2710   6.2710   6.3936   6.6028
     6.9260   7.2195   7.6514   8.7766

[...]

          k =-0.0850-0.0491 0.0000 ( 18848 PWs)   bands (ev):

[...]

     the Fermi energy is     0.8849 ev

!    total energy              =   -1469.80192141 Ry
     Harris-Foulkes estimate   =   -1469.80192123 Ry
     estimated scf accuracy    <       0.00000023 Ry

     The total energy is the sum of the following terms:

     one-electron contribution =   -9477.34106482 Ry
     hartree contribution      =    4808.00026375 Ry
     xc contribution           =    -635.55440032 Ry
     ewald contribution        =    3835.20542990 Ry
     electric field correction =       0.00000000 Ry
     smearing contrib. (-TS)   =      -0.11214992 Ry

     convergence has been achieved in  16 iterations

 BEEF-vdW xc energy contributions
           1 :   -565.614026190821
           2 :    525.012289789117
           3 :   -452.626821207029
           4 :    362.919192068442
           5 :   -271.463034252476
           6 :    190.795086498704
           7 :   -127.964484387143
           8 :    84.2038148016941
           9 :   -56.4156633465597
          10 :    39.5614163135889
          11 :   -28.9174499252259
          12 :    21.3964923959587
          13 :   -15.7111357129281
          14 :    11.6817743848276
[...]
     /afs/slac.stanford.edu/u/if/mamunm/psp/gbrv1.5pbe/Au.UPF
     MD5 check sum: 9d7f43293ad2c663164586bc4b293ffc
     Pseudo is Ultrasoft + core correction, Zval = 11.0
     Generated by new atomic code, or converted to UPF format
     Using radial grid of  985 points,  7 beta functions with:
                l(1) =   0
                l(2) =   0
                l(3) =   1
                l(4) =   1
                l(5) =   2
                l(6) =   2
                l(7) =   3
     Q(r) pseudized with  6 coefficients,  rinner =    1.900   1.900   1.900
                                                       1.900   1.900   1.900
                                                       1.900

     PseudoPot. # 2 for Mo read from file:
     /afs/slac.stanford.edu/u/if/mamunm/psp/gbrv1.5pbe/Mo.UPF
     MD5 check sum: 30c4dcd161f5d35cd49bb5239c51a633
     Pseudo is Ultrasoft + core correction, Zval = 14.0
     Generated by new atomic code, or converted to UPF format
     Using radial grid of  889 points,  6 beta functions with:
                l(1) =   0
                l(2) =   0
                l(3) =   1
                l(4) =   1
                l(5) =   2
                l(6) =   2
     Q(r) pseudized with  6 coefficients,  rinner =    1.000   1.000   1.000
                                                       1.000   1.000

     vdW kernel table read from file vdW_kernel_table
     MD5 check sum: 095c7af220d748ca6e76c0b4c6cfb241

     atomic species   valence    mass     pseudopotential
        Au1           11.00   196.96657     Au( 1.00)
        Mo1           14.00    95.95000     Mo( 1.00)

     No symmetry found

   Cartesian axes

     site n.     atom                  positions (alat units)
         1           Au1 tau(   1) = (   0.0000000   0.0000000  10.0000000  )
         2           Au1 tau(   2) = (  -1.4697609   2.5457005  10.0000000  )
         3           Au1 tau(   3) = (   1.4697609   2.5457005  10.0000000  )
         4           Mo1 tau(   4) = (   2.9395217   0.0000000  10.0000000  )
         5           Au1 tau(   5) = (   2.9395217   1.6971337  12.4001095  )
         6           Au1 tau(   6) = (   1.4697609   4.2428342  12.4001095  )
         7           Au1 tau(   7) = (  -1.4697609   4.2428342  12.4001095  )
         8           Mo1 tau(   8) = (   0.0000000   1.6971337  12.4001095  )
         9           Au1 tau(   9) = (  -0.0000015   3.3791879  14.8273932  )
        10           Au1 tau(  10) = (   1.4566859   0.8561032  14.8273912  )
        11           Au1 tau(  11) = (   4.4223538   0.8561143  14.8273762  )
        12           Mo1 tau(  12) = (   2.9395167   3.3942667  14.6319363  )

     number of k points=    20  Fermi-Dirac smearing, width (Ry)=  0.0110
                       cart. coord. in units 2pi/alat
        k(    1) = (   0.0000000   0.0000000   0.0000000), wk =   0.0555556
        k(    2) = (   0.0000000   0.0327349   0.0000000), wk =   0.1111111
        k(    3) = (   0.0000000   0.0654699   0.0000000), wk =   0.1111111
        k(    4) = (   0.0000000  -0.0982048   0.0000000), wk =   0.0555556
        k(    5) = (   0.0283493   0.0163675   0.0000000), wk =   0.1111111
        k(    6) = (   0.0283493   0.0491024   0.0000000), wk =   0.1111111
        k(    7) = (   0.0283493   0.0818373   0.0000000), wk =   0.1111111
        k(    8) = (   0.0283493  -0.0818373   0.0000000), wk =   0.1111111
        k(    9) = (   0.0283493  -0.0491024   0.0000000), wk =   0.1111111
        k(   10) = (   0.0283493  -0.0163675   0.0000000), wk =   0.1111111
        k(   11) = (   0.0566986   0.0327349   0.0000000), wk =   0.1111111
        k(   12) = (   0.0566986   0.0654699   0.0000000), wk =   0.1111111
        k(   13) = (   0.0566986   0.0982048   0.0000000), wk =   0.1111111
        k(   14) = (   0.0566986  -0.0654699   0.0000000), wk =   0.1111111
        k(   15) = (   0.0566986  -0.0327349   0.0000000), wk =   0.1111111
        k(   16) = (   0.0566986   0.0000000   0.0000000), wk =   0.1111111
        k(   17) = (  -0.0850478  -0.0491024   0.0000000), wk =   0.0555556
        k(   18) = (  -0.0850478  -0.0163675   0.0000000), wk =   0.1111111
        k(   19) = (  -0.0850478   0.0163675   0.0000000), wk =   0.1111111
        k(   20) = (  -0.0850478  -0.1473072   0.0000000), wk =   0.0555556

     Largest allocated arrays     est. size (Mb)     dimensions
     Largest temporary arrays     est. size (Mb)     dimensions

     Check: negative/imaginary core charge=   -0.000002    0.000000

     Initial potential from superposition of free atoms
     Check: negative starting charge=   -0.002742

     starting charge  140.99571, renormalised to  141.00000

[...]

     *
     * You are using vdW-DF for exchange-correlation in this calculation.
     * Please cite the following three references that made this development
     * possible:
     *
     *   M. Dion, H. Rydberg, E. Schroder, D. C. Langreth, and
     *   B. I. Lundqvist, Phys. Rev. Lett. 92, 246401 (2004).
     *
     *   T. Thonhauser, V. R. Cooper, S. Li, A. Puzder, P. Hyldgaard, and
     *   D. C. Langreth, Phys. Rev. B 76, 125112 (2007).
     *
     *   G. Roman-Perez and J. M. Soler, Phys. Rev. Lett. 103, 096102 (2009).
     *
     *
     * If you are using vdW-DF2, please also cite:
     *
     *   K. Lee, E. D. Murray, L. Kong, B. I. Lundqvist, and
     *   D. C. Langreth, Phys. Rev. B 82, 081101(R) (2010).
     *
     *
     * If you are calculating the stress with vdW-DF, please also cite:
     *
     *   R. Sabatini, E. Kucukbenli, B. Kolb, T. Thonhauser, and
     *   S. de Gironcoli, J. Phys.: Condens. Matter 24, 424209 (2012).
     *

     Carrying out vdW-DF run using the following parameters:

     Nqs =      20    Nr_points =    1024   r_max =   100.000
     q_mesh =
               0.00001000     0.04494208     0.09755937     0.15916263
               0.23128650     0.31572767     0.41458969     0.53033537
               0.66584808     0.82450364     1.01025438     1.22772762
               1.48234092     1.78043706     2.12944203     2.53805004
               3.01644009     3.57652955     4.23227104     5.00000000

     Gradients computed in reciprocal space

[...]

     Starting wfc are  120 randomized atomic wfcs

     Self-consistent Calculation

[...]

     total energy              =   -1469.82520909 Ry
     Harris-Foulkes estimate   =   -1469.82520923 Ry
     estimated scf accuracy    <       0.00000195 Ry

     iteration # 17     ecut=    36.75 Ry     beta=0.10
     Davidson diagonalization with overlap
     ethr =  1.38E-09,  avg # of iterations =  1.0

[...]

     negative rho (up, down):  2.683E-03 0.000E+00

     Adding external electric field

     Computed dipole along edir(3) :
        Dipole               -0.0240 Ry au,         -0.0610 Debye
        Dipole field         -0.0001 Ry au

        Potential amp.        0.0055 Ry
        Total length         45.6940 bohr

     End of self-consistent calculation

[...]

          k = 0.0567 0.0000 0.0000 ( 18853 PWs)   bands (ev):

[...]

          k =-0.0850-0.1473 0.0000 ( 18848 PWs)   bands (ev):

   -60.7160 -60.4695 -60.4441 -34.8394 -34.6623 -34.6603 -34.5078 -34.4909
   -34.4889 -34.4693 -34.4672 -34.4614  -5.8403  -5.5977  -4.8739  -4.7368
    -4.7269  -4.6518  -4.5932  -4.4731  -4.4425  -4.3854  -4.3038  -4.2606
    -4.0117  -3.9891  -3.9680  -3.8771  -3.8729  -3.8367  -3.7917  -3.6724
    -3.3554  -3.3265  -3.2429  -3.2065  -3.1915  -3.1653  -3.1606  -3.1146
    -3.0833  -3.0581  -3.0268  -2.9707  -2.9637  -2.8763  -2.8259  -2.7973
    -2.6293  -2.6254  -2.6097  -2.5005  -2.4964  -2.4339  -2.3089  -2.2512
    -1.9298  -1.7892  -1.4971  -1.4854  -1.2517  -1.2178  -0.6253  -0.3724
     0.0936   0.2518   0.4563   0.5582   0.5794   0.6213   0.7098   0.7146
     0.7242   0.9293   1.1395   1.3343   1.7427   1.9578   2.4563   2.4609
     3.3916   3.7597   4.3938   4.4552   4.7016   5.0945   6.1283   6.1543
     6.5580   6.7495   6.7821   6.8132   6.8242   7.1424   7.5415   7.6108
     7.6881   7.8585   7.9939   8.0230

     the Fermi energy is     0.8407 ev

!    total energy              =   -1469.82520927 Ry
     Harris-Foulkes estimate   =   -1469.82520904 Ry
     estimated scf accuracy    <       0.00000033 Ry

     The total energy is the sum of the following terms:

     one-electron contribution =   -9518.09083515 Ry
     hartree contribution      =    4828.16349312 Ry
     xc contribution           =    -635.61116266 Ry
     ewald contribution        =    3855.82587361 Ry
     electric field correction =       0.00000144 Ry
     smearing contrib. (-TS)   =      -0.11257964 Ry

     convergence has been achieved in  17 iterations

 BEEF-vdW xc energy contributions
           1 :   -566.192178274017
           2 :    525.605479920829
           3 :   -453.242185047853
           4 :    363.547041390157
           5 :   -272.077486347086
           6 :    191.366983437509
           7 :   -128.479351059870
           8 :    84.6718921522815
           9 :   -56.8678428386595
          10 :    40.0348678316144
          11 :   -29.4386984890970
          12 :    21.9698965311790
          13 :   -16.3178516043566
          14 :    12.2882677471068
          15 :   -9.87386997799592
          16 :    8.61855829450030
          17 :   -7.54953879997959
          18 :    5.58718997044184
          19 :   -2.11919535534730
          20 :   -2.62994342429693
          21 :    7.64652258572471
          22 :   -11.5748541095593
          23 :    13.3309645659421
          24 :   -12.5835891922130
          25 :    9.87901848001923
          26 :   -6.37872865752286
          27 :    3.35744734372304
          28 :   -1.70749666215670
          29 :    1.66205177736811
          30 :   -2.83225778328472
          31 :   -46.4711922896103
          32 :   -34.0905464374420

     Forces acting on atoms (Ry/au):

     negative rho (up, down):  2.683E-03 0.000E+00
     atom    1 type  1   force =    -0.00000078    0.00496035   -0.00478028
     atom    2 type  1   force =     0.00429554   -0.00247975   -0.00478046
     atom    3 type  1   force =    -0.00429770   -0.00248096   -0.00477922
     atom    4 type  2   force =     0.00000003    0.00000011    0.02295675
     atom    5 type  1   force =    -0.00000010   -0.00926998   -0.00492465
     atom    6 type  1   force =    -0.00802733    0.00463313   -0.00492249
     atom    7 type  1   force =     0.00802761    0.00463377   -0.00492271
     atom    8 type  2   force =     0.00000054    0.00000069    0.00203936
     atom    9 type  1   force =     0.00000138    0.00073953    0.00139786
     atom   10 type  1   force =     0.00064146   -0.00036745    0.00139664
     atom   11 type  1   force =    -0.00064087   -0.00036889    0.00139876
     atom   12 type  2   force =     0.00000022   -0.00000055   -0.00007956

     Total force =     0.031804     Total SCF correction =     0.002635

     entering subroutine stress ...

     negative rho (up, down):  2.683E-03 0.000E+00
          total   stress  (Ry/bohr**3)                   (kbar)     P=  -12.01
  -0.00012038   0.00000000   0.00000000        -17.71      0.00      0.00
   0.00000000  -0.00012038   0.00000000          0.00    -17.71      0.00
   0.00000000   0.00000000  -0.00000416          0.00      0.00     -0.61

 !ASE

     Writing output data file calc.save

     General routines

     Parallel routines

   This run was terminated on:  19:45:46  19Dec2018

   JOB DONE.
Job  /afs/slac/g/suncat/bin/suncat-tsmpirun -x LD_LIBRARY_PATH -wdir /scratch/qe773364_JCHrv pw.x -in pw.inp

TID   HOST_NAME   COMMAND_LINE            STATUS            TERMINATION_TIME
00000 suncat0277 pw.x -in pw.inp   Done                     12/19/2018 19:45:46
00001 suncat0277 pw.x -in pw.inp   Done                     12/19/2018 19:45:46
00002 suncat0277 pw.x -in pw.inp   Done                     12/19/2018 19:45:46
00003 suncat0277 pw.x -in pw.inp   Done                     12/19/2018 19:45:46
00004 suncat0277 pw.x -in pw.inp   Done                     12/19/2018 19:45:46
00005 suncat0277 pw.x -in pw.inp   Done                     12/19/2018 19:45:46
00006 suncat0277 pw.x -in pw.inp   Done                     12/19/2018 19:45:46
00007 suncat0277 pw.x -in pw.inp   Done                     12/19/2018 19:45:46
00008 suncat0276 pw.x -in pw.inp   Done                     12/19/2018 19:45:46
00009 suncat0276 pw.x -in pw.inp   Done                     12/19/2018 19:45:46
00010 suncat0276 pw.x -in pw.inp   Done                     12/19/2018 19:45:46
00011 suncat0276 pw.x -in pw.inp   Done                     12/19/2018 19:45:46
00012 suncat0276 pw.x -in pw.inp   Done                     12/19/2018 19:45:46
00013 suncat0276 pw.x -in pw.inp   Done                     12/19/2018 19:45:46
00014 suncat0276 pw.x -in pw.inp   Done                     12/19/2018 19:45:46
00015 suncat0276 pw.x -in pw.inp   Done                     12/19/2018 19:45:46
00016 suncat0274 pw.x -in pw.inp   Done                     12/19/2018 19:45:46
00017 suncat0274 pw.x -in pw.inp   Done                     12/19/2018 19:45:46
00018 suncat0274 pw.x -in pw.inp   Done                     12/19/2018 19:45:46
00019 suncat0274 pw.x -in pw.inp   Done                     12/19/2018 19:45:46
00020 suncat0274 pw.x -in pw.inp   Done                     12/19/2018 19:45:46
00021 suncat0274 pw.x -in pw.inp   Done                     12/19/2018 19:45:46
00022 suncat0274 pw.x -in pw.inp   Done                     12/19/2018 19:45:46
00023 suncat0274 pw.x -in pw.inp   Done                     12/19/2018 19:45:46
00024 suncat0273 pw.x -in pw.inp   Done                     12/19/2018 19:45:46
00025 suncat0273 pw.x -in pw.inp   Done                     12/19/2018 19:45:46
00026 suncat0273 pw.x -in pw.inp   Done                     12/19/2018 19:45:46
00027 suncat0273 pw.x -in pw.inp   Done                     12/19/2018 19:45:46
00028 suncat0273 pw.x -in pw.inp   Done                     12/19/2018 19:45:46
00029 suncat0273 pw.x -in pw.inp   Done                     12/19/2018 19:45:46
00030 suncat0273 pw.x -in pw.inp   Done                     12/19/2018 19:45:46
00031 suncat0273 pw.x -in pw.inp   Done                     12/19/2018 19:45:46
00032 suncat0272 pw.x -in pw.inp   Done                     12/19/2018 19:45:46
00033 suncat0272 pw.x -in pw.inp   Done                     12/19/2018 19:45:46
00034 suncat0272 pw.x -in pw.inp   Done                     12/19/2018 19:45:46
00035 suncat0272 pw.x -in pw.inp   Done                     12/19/2018 19:45:46
00036 suncat0272 pw.x -in pw.inp   Done                     12/19/2018 19:45:46
00037 suncat0272 pw.x -in pw.inp   Done                     12/19/2018 19:45:46
00038 suncat0272 pw.x -in pw.inp   Done                     12/19/2018 19:45:46
00039 suncat0272 pw.x -in pw.inp   Done                     12/19/2018 19:45:46
00040 suncat0271 pw.x -in pw.inp   Done                     12/19/2018 19:45:46
00041 suncat0271 pw.x -in pw.inp   Done                     12/19/2018 19:45:46
00042 suncat0271 pw.x -in pw.inp   Done                     12/19/2018 19:45:46
00043 suncat0271 pw.x -in pw.inp   Done                     12/19/2018 19:45:46
00044 suncat0271 pw.x -in pw.inp   Done                     12/19/2018 19:45:46
00045 suncat0271 pw.x -in pw.inp   Done                     12/19/2018 19:45:46
00046 suncat0271 pw.x -in pw.inp   Done                     12/19/2018 19:45:46
00047 suncat0271 pw.x -in pw.inp   Done                     12/19/2018 19:45:46
00048 suncat0270 pw.x -in pw.inp   Done                     12/19/2018 19:45:46
00049 suncat0270 pw.x -in pw.inp   Done                     12/19/2018 19:45:46
00050 suncat0270 pw.x -in pw.inp   Done                     12/19/2018 19:45:46
00051 suncat0270 pw.x -in pw.inp   Done                     12/19/2018 19:45:46
00052 suncat0270 pw.x -in pw.inp   Done                     12/19/2018 19:45:46
00053 suncat0270 pw.x -in pw.inp   Done                     12/19/2018 19:45:46
00054 suncat0270 pw.x -in pw.inp   Done                     12/19/2018 19:45:46
00055 suncat0270 pw.x -in pw.inp   Done                     12/19/2018 19:45:46
00056 suncat0268 pw.x -in pw.inp   Done                     12/19/2018 19:45:46
00057 suncat0268 pw.x -in pw.inp   Done                     12/19/2018 19:45:46
00058 suncat0268 pw.x -in pw.inp   Done                     12/19/2018 19:45:46
00059 suncat0268 pw.x -in pw.inp   Done                     12/19/2018 19:45:46
00060 suncat0268 pw.x -in pw.inp   Done                     12/19/2018 19:45:46
00061 suncat0268 pw.x -in pw.inp   Done                     12/19/2018 19:45:46
00062 suncat0268 pw.x -in pw.inp   Done                     12/19/2018 19:45:46
00063 suncat0268 pw.x -in pw.inp   Done                     12/19/2018 19:45:46