     Program PWSCF v.5.1rc2 (svn rev. 11289) starts on 26Dec2018 at  2: 8: 2

     Current dimensions of program PWSCF are:
     Max number of different atomic species (ntypx) = 10
     Max number of k-points (npk) =  40000
     Max angular momentum in pseudopotentials (lmaxx) =  3
     Presently stress not available with electric field

     IMPORTANT: XC functional enforced from input :
     Exchange-correlation      = BEEF-VDW ( 1  4 27 13 2)
     Any further DFT definition will be discarded
     Please, verify this is what you really want

     Subspace diagonalization in iterative solution of the eigenvalue problem:
     a serial algorithm will be used

     Generating pointlists ...
     new r_m :   0.4125 (alat units)  0.7795 (a.u.) for type    1
     new r_m :   0.4125 (alat units)  0.7795 (a.u.) for type    2

     bravais-lattice index     =            0
     lattice parameter (alat)  =       1.8897  a.u.
     unit-cell volume          =    4466.9282 (a.u.)^3
     number of atoms/cell      =           12
     number of atomic types    =            2
     number of electrons       =       225.00
     number of Kohn-Sham states=          142
     kinetic-energy cutoff     =      36.7493  Ry
     charge density cutoff     =     367.4932  Ry
     convergence threshold     =      1.0E-06
     mixing beta               =       0.1000
     number of iterations used =           10  plain     mixing
     Exchange-correlation      = BEEF-VDW ( 1  4 27 13 2)
     nstep                     =           50

     celldm(1)=   1.889726  celldm(2)=   0.000000  celldm(3)=   0.000000
     celldm(4)=   0.000000  celldm(5)=   0.000000  celldm(6)=   0.000000

     crystal axes: (cart. coord. in units of alat)
               a(1) = (   5.579147   0.000000   0.000000 )
               a(2) = (  -2.789573   4.831683   0.000000 )
               a(3) = (   0.000000   0.000000  24.555354 )

     reciprocal axes: (cart. coord. in units 2 pi/alat)
               b(1) = (  0.179239  0.103484  0.000000 )
               b(2) = (  0.000000  0.206967  0.000000 )
               b(3) = (  0.000000  0.000000  0.040724 )

     PseudoPot. # 1 for Ga read from file:
     /afs/slac.stanford.edu/u/if/mamunm/psp/gbrv1.5pbe/Ga.UPF
     MD5 check sum: ccd671392a58a050fbb373893b4fcd66
     Pseudo is Ultrasoft + core correction, Zval = 19.0
     Generated by new atomic code, or converted to UPF format
     Using radial grid of  871 points,  6 beta functions with:
                l(1) =   0
                l(2) =   0
                l(3) =   1
                l(4) =   1
                l(5) =   2
                l(6) =   2
     Q(r) pseudized with  8 coefficients,  rinner =    1.250   1.250   1.250
                                                       1.250   1.250

     PseudoPot. # 2 for Ni read from file:
     /afs/slac.stanford.edu/u/if/mamunm/psp/gbrv1.5pbe/Ni.UPF
     MD5 check sum: 1ee80287db30b12d2bc1f57a5b5d6409
     Pseudo is Ultrasoft + core correction, Zval = 18.0
     Generated by new atomic code, or converted to UPF format
     Using radial grid of  865 points,  6 beta functions with:
                l(1) =   0
                l(2) =   0
                l(3) =   1
                l(4) =   1
                l(5) =   2
                l(6) =   2
     Q(r) pseudized with 10 coefficients,  rinner =    0.980   0.980   0.980
                                                       0.980   0.980

     vdW kernel table read from file vdW_kernel_table
     MD5 check sum: 095c7af220d748ca6e76c0b4c6cfb241

     atomic species   valence    mass     pseudopotential
        Ga1           19.00    69.72300     Ga( 1.00)
        Ni1           18.00    58.69340     Ni( 1.00)

     Starting magnetic structure
     atomic species   magnetization
        Ga1          0.105
        Ni1          0.111

     No symmetry found

   Cartesian axes

     site n.     atom                  positions (alat units)
         1           Ga1 tau(   1) = (   0.0000000   0.0000000  10.0000000  )
         2           Ga1 tau(   2) = (  -1.3947866   2.4158413  10.0000000  )
         3           Ga1 tau(   3) = (   1.3947866   2.4158413  10.0000000  )
         4           Ni1 tau(   4) = (   2.7895733   0.0000000  10.0000000  )
         5           Ga1 tau(   5) = (   2.7895733   1.6105609  12.2776770  )
         6           Ga1 tau(   6) = (   1.3947866   4.0264022  12.2776770  )
         7           Ga1 tau(   7) = (  -1.3947866   4.0264022  12.2776770  )
         8           Ni1 tau(   8) = (   0.0000000   1.6105609  12.2776770  )
         9           Ga1 tau(   9) = (  -0.0000000   3.2211218  14.5553541  )
        10           Ga1 tau(  10) = (   1.3947866   0.8052804  14.5553541  )
        11           Ga1 tau(  11) = (   4.1843599   0.8052804  14.5553541  )
        12           Ni1 tau(  12) = (   2.7895733   3.2211218  14.5553541  )

     number of k points=    40  Fermi-Dirac smearing, width (Ry)=  0.0110
                       cart. coord. in units 2pi/alat
        k(    1) = (   0.0000000   0.0000000   0.0000000), wk =   0.0277778
        k(    2) = (   0.0000000   0.0344945   0.0000000), wk =   0.0555556
        k(    3) = (   0.0000000   0.0689891   0.0000000), wk =   0.0555556
        k(    4) = (   0.0000000  -0.1034836   0.0000000), wk =   0.0277778
        k(    5) = (   0.0298731   0.0172473   0.0000000), wk =   0.0555556
        k(    6) = (   0.0298731   0.0517418   0.0000000), wk =   0.0555556
        k(    7) = (   0.0298731   0.0862363   0.0000000), wk =   0.0555556
        k(    8) = (   0.0298731  -0.0862363   0.0000000), wk =   0.0555556
        k(    9) = (   0.0298731  -0.0517418   0.0000000), wk =   0.0555556
        k(   10) = (   0.0298731  -0.0172473   0.0000000), wk =   0.0555556
        k(   11) = (   0.0597463   0.0344945   0.0000000), wk =   0.0555556
        k(   12) = (   0.0597463   0.0689891   0.0000000), wk =   0.0555556
        k(   13) = (   0.0597463   0.1034836   0.0000000), wk =   0.0555556
        k(   14) = (   0.0597463  -0.0689891   0.0000000), wk =   0.0555556
        k(   15) = (   0.0597463  -0.0344945   0.0000000), wk =   0.0555556
        k(   16) = (   0.0597463   0.0000000   0.0000000), wk =   0.0555556
        k(   17) = (  -0.0896194  -0.0517418   0.0000000), wk =   0.0277778
        k(   18) = (  -0.0896194  -0.0172473   0.0000000), wk =   0.0555556
        k(   19) = (  -0.0896194   0.0172473   0.0000000), wk =   0.0555556
        k(   20) = (  -0.0896194  -0.1552254   0.0000000), wk =   0.0277778
        k(   21) = (   0.0000000   0.0000000   0.0000000), wk =   0.0277778
        k(   22) = (   0.0000000   0.0344945   0.0000000), wk =   0.0555556
        k(   23) = (   0.0000000   0.0689891   0.0000000), wk =   0.0555556
        k(   24) = (   0.0000000  -0.1034836   0.0000000), wk =   0.0277778
        k(   25) = (   0.0298731   0.0172473   0.0000000), wk =   0.0555556
        k(   26) = (   0.0298731   0.0517418   0.0000000), wk =   0.0555556
        k(   27) = (   0.0298731   0.0862363   0.0000000), wk =   0.0555556
        k(   28) = (   0.0298731  -0.0862363   0.0000000), wk =   0.0555556
        k(   29) = (   0.0298731  -0.0517418   0.0000000), wk =   0.0555556
        k(   30) = (   0.0298731  -0.0172473   0.0000000), wk =   0.0555556
        k(   31) = (   0.0597463   0.0344945   0.0000000), wk =   0.0555556
        k(   32) = (   0.0597463   0.0689891   0.0000000), wk =   0.0555556
        k(   33) = (   0.0597463   0.1034836   0.0000000), wk =   0.0555556
        k(   34) = (   0.0597463  -0.0689891   0.0000000), wk =   0.0555556
        k(   35) = (   0.0597463  -0.0344945   0.0000000), wk =   0.0555556
        k(   36) = (   0.0597463   0.0000000   0.0000000), wk =   0.0555556
        k(   37) = (  -0.0896194  -0.0517418   0.0000000), wk =   0.0277778
        k(   38) = (  -0.0896194  -0.0172473   0.0000000), wk =   0.0555556
        k(   39) = (  -0.0896194   0.0172473   0.0000000), wk =   0.0555556
        k(   40) = (  -0.0896194  -0.1552254   0.0000000), wk =   0.0277778

     Largest allocated arrays     est. size (Mb)     dimensions
     Largest temporary arrays     est. size (Mb)     dimensions

     Initial potential from superposition of free atoms
     Check: negative starting charge=(component1):   -0.000661
     Check: negative starting charge=(component2):   -0.000534

     starting charge  209.99999, renormalised to  225.00000

     negative rho (up, down):  7.081E-04 5.722E-04

     *
     * You are using vdW-DF for exchange-correlation in this calculation.
     * Please cite the following three references that made this development
     * possible:
     *
     *   M. Dion, H. Rydberg, E. Schroder, D. C. Langreth, and
     *   B. I. Lundqvist, Phys. Rev. Lett. 92, 246401 (2004).
     *
     *   T. Thonhauser, V. R. Cooper, S. Li, A. Puzder, P. Hyldgaard, and
     *   D. C. Langreth, Phys. Rev. B 76, 125112 (2007).
     *
     *   G. Roman-Perez and J. M. Soler, Phys. Rev. Lett. 103, 096102 (2009).
     *
     *
     * If you are using vdW-DF2, please also cite:
     *
     *   K. Lee, E. D. Murray, L. Kong, B. I. Lundqvist, and
     *   D. C. Langreth, Phys. Rev. B 82, 081101(R) (2010).
     *
     *
     * If you are calculating the stress with vdW-DF, please also cite:
     *
     *   R. Sabatini, E. Kucukbenli, B. Kolb, T. Thonhauser, and
     *   S. de Gironcoli, J. Phys.: Condens. Matter 24, 424209 (2012).
     *

     Carrying out vdW-DF run using the following parameters:

     Nqs =      20    Nr_points =    1024   r_max =   100.000
     q_mesh =
               0.00001000     0.04494208     0.09755937     0.15916263
               0.23128650     0.31572767     0.41458969     0.53033537
               0.66584808     0.82450364     1.01025438     1.22772762
               1.48234092     1.78043706     2.12944203     2.53805004
               3.01644009     3.57652955     4.23227104     5.00000000

     Gradients computed in reciprocal space

     Adding external electric field

     Computed dipole along edir(3) :
        Dipole               -0.0000 Ry au,         -0.0000 Debye
        Dipole field         -0.0000 Ry au

        Potential amp.        0.0000 Ry
        Total length         45.2428 bohr

[...]

     Starting wfc are  147 randomized atomic wfcs

     Self-consistent Calculation

     iteration #  1     ecut=    36.75 Ry     beta=0.10
     Davidson diagonalization with overlap
     ethr =  1.00E-02,  avg # of iterations =  7.0

[...]

     Magnetic moment per site:
     atom:    1    charge:   11.3070    magn:    1.2098    constr:    0.0000
     atom:    2    charge:   11.3070    magn:    1.2098    constr:    0.0000
     atom:    3    charge:   11.3071    magn:    1.2098    constr:    0.0000
     atom:    4    charge:    9.6479    magn:    1.0503    constr:    0.0000
     atom:    5    charge:   11.3059    magn:    1.2027    constr:    0.0000
     atom:    6    charge:   11.3059    magn:    1.2027    constr:    0.0000
     atom:    7    charge:   11.3058    magn:    1.2027    constr:    0.0000
     atom:    8    charge:    9.6119    magn:    1.0342    constr:    0.0000
[...]
        k(    5) = (   0.0298731   0.0172473   0.0000000), wk =   0.0555556
        k(    6) = (   0.0298731   0.0517418   0.0000000), wk =   0.0555556
        k(    7) = (   0.0298731   0.0862363   0.0000000), wk =   0.0555556
        k(    8) = (   0.0298731  -0.0862363   0.0000000), wk =   0.0555556
        k(    9) = (   0.0298731  -0.0517418   0.0000000), wk =   0.0555556
        k(   10) = (   0.0298731  -0.0172473   0.0000000), wk =   0.0555556
        k(   11) = (   0.0597463   0.0344945   0.0000000), wk =   0.0555556
        k(   12) = (   0.0597463   0.0689891   0.0000000), wk =   0.0555556
        k(   13) = (   0.0597463   0.1034836   0.0000000), wk =   0.0555556
        k(   14) = (   0.0597463  -0.0689891   0.0000000), wk =   0.0555556
        k(   15) = (   0.0597463  -0.0344945   0.0000000), wk =   0.0555556
        k(   16) = (   0.0597463   0.0000000   0.0000000), wk =   0.0555556
        k(   17) = (  -0.0896194  -0.0517418   0.0000000), wk =   0.0277778
        k(   18) = (  -0.0896194  -0.0172473   0.0000000), wk =   0.0555556
        k(   19) = (  -0.0896194   0.0172473   0.0000000), wk =   0.0555556
        k(   20) = (  -0.0896194  -0.1552254   0.0000000), wk =   0.0277778
        k(   21) = (   0.0000000   0.0000000   0.0000000), wk =   0.0277778
        k(   22) = (   0.0000000   0.0344945   0.0000000), wk =   0.0555556
        k(   23) = (   0.0000000   0.0689891   0.0000000), wk =   0.0555556
        k(   24) = (   0.0000000  -0.1034836   0.0000000), wk =   0.0277778
        k(   25) = (   0.0298731   0.0172473   0.0000000), wk =   0.0555556
        k(   26) = (   0.0298731   0.0517418   0.0000000), wk =   0.0555556
        k(   27) = (   0.0298731   0.0862363   0.0000000), wk =   0.0555556
        k(   28) = (   0.0298731  -0.0862363   0.0000000), wk =   0.0555556
        k(   29) = (   0.0298731  -0.0517418   0.0000000), wk =   0.0555556
        k(   30) = (   0.0298731  -0.0172473   0.0000000), wk =   0.0555556
        k(   31) = (   0.0597463   0.0344945   0.0000000), wk =   0.0555556
        k(   32) = (   0.0597463   0.0689891   0.0000000), wk =   0.0555556
        k(   33) = (   0.0597463   0.1034836   0.0000000), wk =   0.0555556
        k(   34) = (   0.0597463  -0.0689891   0.0000000), wk =   0.0555556
        k(   35) = (   0.0597463  -0.0344945   0.0000000), wk =   0.0555556
        k(   36) = (   0.0597463   0.0000000   0.0000000), wk =   0.0555556
        k(   37) = (  -0.0896194  -0.0517418   0.0000000), wk =   0.0277778
        k(   38) = (  -0.0896194  -0.0172473   0.0000000), wk =   0.0555556
        k(   39) = (  -0.0896194   0.0172473   0.0000000), wk =   0.0555556
        k(   40) = (  -0.0896194  -0.1552254   0.0000000), wk =   0.0277778

     Largest allocated arrays     est. size (Mb)     dimensions
     Largest temporary arrays     est. size (Mb)     dimensions

     Initial potential from superposition of free atoms
     Check: negative starting charge=(component1):   -0.000642
     Check: negative starting charge=(component2):   -0.000519

     starting charge  209.99999, renormalised to  225.00000

[...]

     *
     * You are using vdW-DF for exchange-correlation in this calculation.
     * Please cite the following three references that made this development
     * possible:
     *
     *   M. Dion, H. Rydberg, E. Schroder, D. C. Langreth, and
     *   B. I. Lundqvist, Phys. Rev. Lett. 92, 246401 (2004).
     *
     *   T. Thonhauser, V. R. Cooper, S. Li, A. Puzder, P. Hyldgaard, and
     *   D. C. Langreth, Phys. Rev. B 76, 125112 (2007).
     *
     *   G. Roman-Perez and J. M. Soler, Phys. Rev. Lett. 103, 096102 (2009).
     *
     *
     * If you are using vdW-DF2, please also cite:
     *
     *   K. Lee, E. D. Murray, L. Kong, B. I. Lundqvist, and
     *   D. C. Langreth, Phys. Rev. B 82, 081101(R) (2010).
     *
     *
     * If you are calculating the stress with vdW-DF, please also cite:
     *
     *   R. Sabatini, E. Kucukbenli, B. Kolb, T. Thonhauser, and
     *   S. de Gironcoli, J. Phys.: Condens. Matter 24, 424209 (2012).
     *

     Carrying out vdW-DF run using the following parameters:

     Nqs =      20    Nr_points =    1024   r_max =   100.000
     q_mesh =
               0.00001000     0.04494208     0.09755937     0.15916263
               0.23128650     0.31572767     0.41458969     0.53033537
               0.66584808     0.82450364     1.01025438     1.22772762
               1.48234092     1.78043706     2.12944203     2.53805004
               3.01644009     3.57652955     4.23227104     5.00000000

     Gradients computed in reciprocal space

[...]

     Starting wfc are  147 randomized atomic wfcs

     Self-consistent Calculation

[...]

     total energy              =   -4782.60320439 Ry
     Harris-Foulkes estimate   =   -4782.60320287 Ry
     estimated scf accuracy    <       0.00000137 Ry

[...]

     iteration # 33     ecut=    36.75 Ry     beta=0.10
     Davidson diagonalization with overlap
     ethr =  6.10E-10,  avg # of iterations =  2.0

[...]

     negative rho (up, down):  6.296E-04 6.296E-04

[...]

     Adding external electric field

     Computed dipole along edir(3) :
        Dipole                0.0561 Ry au,          0.1426 Debye
        Dipole field          0.0002 Ry au

        Potential amp.       -0.0143 Ry
        Total length         45.2428 bohr

     Magnetic moment per site:
     atom:    1    charge:   11.0421    magn:    0.0000    constr:    0.0000
     atom:    2    charge:   11.0421    magn:    0.0000    constr:    0.0000
     atom:    3    charge:   11.0421    magn:    0.0000    constr:    0.0000
     atom:    4    charge:    9.3690    magn:    0.0028    constr:    0.0000
     atom:    5    charge:   11.0344    magn:    0.0000    constr:    0.0000
     atom:    6    charge:   11.0344    magn:    0.0000    constr:    0.0000
     atom:    7    charge:   11.0344    magn:    0.0000    constr:    0.0000
     atom:    8    charge:    9.3543    magn:   -0.0007    constr:    0.0000
     atom:    9    charge:   11.0395    magn:    0.0000    constr:    0.0000
     atom:   10    charge:   11.0395    magn:    0.0000    constr:    0.0000
     atom:   11    charge:   11.0395    magn:    0.0000    constr:    0.0000
     atom:   12    charge:    9.3749    magn:   -0.0014    constr:    0.0000

     End of self-consistent calculation

 ------ SPIN UP ------------

[...]

 ------ SPIN DOWN ----------

[...]

          k = 0.0597 0.0000 0.0000 ( 16778 PWs)   bands (ev):

[...]

          k =-0.0896-0.1552 0.0000 ( 16824 PWs)   bands (ev):

  -102.3760-102.3120-102.1986 -94.3182 -94.3167 -94.3153 -94.2829 -94.2820
   -94.2816 -94.2815 -94.2811 -94.2800 -94.2313 -94.2307 -94.2301 -94.2207
   -94.2204 -94.2201 -94.2176 -94.2161 -94.2146 -94.2024 -94.2000 -94.1984
   -94.1896 -94.1889 -94.1881 -94.1764 -94.1758 -94.1747 -62.8093 -62.8091
   -62.7465 -62.7462 -62.7149 -62.6760 -62.6757 -62.6649 -62.4652 -14.8618
   -14.8023 -14.7744 -14.7692 -14.7398 -14.7299 -14.7278 -14.7102 -14.7006
   -14.6993 -14.6848 -14.6756 -14.6458 -14.6450 -14.6229 -14.6134 -14.6029
   -14.5970 -14.5738 -14.5708 -14.5634 -14.5507 -14.5496 -14.5489 -14.5430
   -14.5400 -14.5397 -14.5253 -14.5243 -14.5237 -14.5162 -14.5128 -14.5060
   -14.5058 -14.5025 -14.5004 -14.4907 -14.4760 -14.4562 -14.4492 -14.4403
   -14.4345 -14.4219 -14.3679 -14.3543  -8.9466  -8.5125  -7.0466  -6.8351
    -5.5992  -5.5219  -4.7351  -3.9258  -3.4735  -2.7622  -1.9444  -1.8294
    -1.5614  -1.3506  -1.2581  -1.2554  -1.2282  -0.9486  -0.9367  -0.7868
    -0.6041  -0.5655  -0.5399  -0.3805  -0.3461   0.0299   0.1658   0.4081
     0.7939   1.7986   2.2337   2.3292   2.3586   2.7125   3.2946   3.5125
     3.6251   3.7213   3.8909   4.3666   4.4315   4.8739   5.1901   5.4147
     5.4678   5.4691   6.0318   6.0856   6.2215   6.3150   6.5393   6.6233
     6.7715   6.9680   7.0002   7.1039   7.3221   7.7964

     the Fermi energy is     0.5490 ev

!    total energy              =   -4782.60321217 Ry
     Harris-Foulkes estimate   =   -4782.60320427 Ry
     estimated scf accuracy    <       0.00000072 Ry

     The total energy is the sum of the following terms:

     one-electron contribution =  -30804.07473545 Ry
     hartree contribution      =   15410.47521143 Ry
     xc contribution           =    -558.27250994 Ry
     ewald contribution        =   11169.30456160 Ry
     electric field correction =       0.00000885 Ry
     smearing contrib. (-TS)   =      -0.03574866 Ry

     total magnetization       =     0.00 Bohr mag/cell
     absolute magnetization    =     0.01 Bohr mag/cell

     convergence has been achieved in  33 iterations

 BEEF-vdW xc energy contributions
           1 :   -497.842671790641
           2 :    452.191196563942
           3 :   -375.536131587684
           4 :    290.082132665129
           5 :   -215.659729166001
           6 :    162.261929668007
           7 :   -128.514639307041
           8 :    105.947260545811
           9 :   -85.7946585872891
          10 :    64.0906528142170
          11 :   -42.4990842084928
          12 :    25.3090191479970
          13 :   -15.3402492209982
          14 :    11.7048808367776
          15 :   -10.6457678570039
          16 :    8.36416540965911
          17 :   -3.53594102735178
          18 :   -2.25747735618324
          19 :    6.23294682738310
          20 :   -6.76516716042681
          21 :    4.60613306339360
          22 :   -2.19321142164404
          23 :    1.73897687598333
          24 :   -3.63699634217619
          25 :    6.34341492836575
          26 :   -7.71347078446786
          27 :    6.68385340330758
          28 :   -4.02354799656916
          29 :    1.65323726368774
          30 :   -1.14171815625809
          31 :   -37.5313610857411
          32 :   -25.7383478113304

     Forces acting on atoms (Ry/au):

     negative rho (up, down):  6.296E-04 6.296E-04
     atom    1 type  1   force =     0.00000015    0.01383879   -0.01349002
     atom    2 type  1   force =     0.01198468   -0.00691936   -0.01349061
     atom    3 type  1   force =    -0.01198475   -0.00691948   -0.01349010
     atom    4 type  2   force =    -0.00000011   -0.00000007    0.02613871
     atom    5 type  1   force =     0.00000001   -0.01031965    0.00567898
     atom    6 type  1   force =    -0.00893681    0.00516005    0.00567950
     atom    7 type  1   force =     0.00893690    0.00516015    0.00567868
     atom    8 type  2   force =     0.00000006   -0.00000004   -0.00254907
     atom    9 type  1   force =    -0.00000038   -0.00041003    0.00000690
     atom   10 type  1   force =    -0.00035441    0.00020447    0.00000593
     atom   11 type  1   force =     0.00035460    0.00020521    0.00000665
     atom   12 type  2   force =     0.00000007   -0.00000004   -0.00017556

     Total force =     0.047191     Total SCF correction =     0.002572

     entering subroutine stress ...

     negative rho (up, down):  6.296E-04 6.296E-04
          total   stress  (Ry/bohr**3)                   (kbar)     P=  -28.26
  -0.00024362  -0.00000000   0.00000000        -35.84     -0.00      0.00
  -0.00000000  -0.00024362  -0.00000000         -0.00    -35.84     -0.00
   0.00000000  -0.00000000  -0.00008910          0.00     -0.00    -13.11

 !ASE

     Writing output data file calc.save

     General routines

     Parallel routines

   This run was terminated on:  11:47:58  26Dec2018

   JOB DONE.
Job  /afs/slac/g/suncat/bin/suncat-tsmpirun -x LD_LIBRARY_PATH -wdir /scratch/qe109688_Uo7cu pw.x -in pw.inp

TID   HOST_NAME   COMMAND_LINE            STATUS            TERMINATION_TIME
00000 suncat0042 pw.x -in pw.inp   Done                     12/26/2018 11:47:58
00001 suncat0042 pw.x -in pw.inp   Done                     12/26/2018 11:47:58
00002 suncat0042 pw.x -in pw.inp   Done                     12/26/2018 11:47:58
00003 suncat0042 pw.x -in pw.inp   Done                     12/26/2018 11:47:58
00004 suncat0042 pw.x -in pw.inp   Done                     12/26/2018 11:47:58
00005 suncat0042 pw.x -in pw.inp   Done                     12/26/2018 11:47:58
00006 suncat0042 pw.x -in pw.inp   Done                     12/26/2018 11:47:58
00007 suncat0042 pw.x -in pw.inp   Done                     12/26/2018 11:47:58
00008 suncat0020 pw.x -in pw.inp   Done                     12/26/2018 11:47:58
00009 suncat0020 pw.x -in pw.inp   Done                     12/26/2018 11:47:58
00010 suncat0020 pw.x -in pw.inp   Done                     12/26/2018 11:47:58
00011 suncat0020 pw.x -in pw.inp   Done                     12/26/2018 11:47:58
00012 suncat0020 pw.x -in pw.inp   Done                     12/26/2018 11:47:58
00013 suncat0020 pw.x -in pw.inp   Done                     12/26/2018 11:47:58
00014 suncat0020 pw.x -in pw.inp   Done                     12/26/2018 11:47:58
00015 suncat0020 pw.x -in pw.inp   Done                     12/26/2018 11:47:58
00016 suncat0196 pw.x -in pw.inp   Done                     12/26/2018 11:47:58
00017 suncat0196 pw.x -in pw.inp   Done                     12/26/2018 11:47:58
00018 suncat0196 pw.x -in pw.inp   Done                     12/26/2018 11:47:58
00019 suncat0196 pw.x -in pw.inp   Done                     12/26/2018 11:47:58
00020 suncat0196 pw.x -in pw.inp   Done                     12/26/2018 11:47:58
00021 suncat0196 pw.x -in pw.inp   Done                     12/26/2018 11:47:58
00022 suncat0196 pw.x -in pw.inp   Done                     12/26/2018 11:47:58
00023 suncat0196 pw.x -in pw.inp   Done                     12/26/2018 11:47:58
00024 suncat0194 pw.x -in pw.inp   Done                     12/26/2018 11:47:58
00025 suncat0194 pw.x -in pw.inp   Done                     12/26/2018 11:47:58
00026 suncat0194 pw.x -in pw.inp   Done                     12/26/2018 11:47:58
00027 suncat0194 pw.x -in pw.inp   Done                     12/26/2018 11:47:58
00028 suncat0194 pw.x -in pw.inp   Done                     12/26/2018 11:47:58
00029 suncat0194 pw.x -in pw.inp   Done                     12/26/2018 11:47:58
00030 suncat0194 pw.x -in pw.inp   Done                     12/26/2018 11:47:58
00031 suncat0194 pw.x -in pw.inp   Done                     12/26/2018 11:47:58
00032 suncat0121 pw.x -in pw.inp   Done                     12/26/2018 11:47:58
00033 suncat0121 pw.x -in pw.inp   Done                     12/26/2018 11:47:58
00034 suncat0121 pw.x -in pw.inp   Done                     12/26/2018 11:47:58
00035 suncat0121 pw.x -in pw.inp   Done                     12/26/2018 11:47:58
00036 suncat0121 pw.x -in pw.inp   Done                     12/26/2018 11:47:58
00037 suncat0121 pw.x -in pw.inp   Done                     12/26/2018 11:47:58
00038 suncat0121 pw.x -in pw.inp   Done                     12/26/2018 11:47:58
00039 suncat0121 pw.x -in pw.inp   Done                     12/26/2018 11:47:58
00040 suncat0115 pw.x -in pw.inp   Done                     12/26/2018 11:47:58
00041 suncat0115 pw.x -in pw.inp   Done                     12/26/2018 11:47:58
00042 suncat0115 pw.x -in pw.inp   Done                     12/26/2018 11:47:58
00043 suncat0115 pw.x -in pw.inp   Done                     12/26/2018 11:47:58
00044 suncat0115 pw.x -in pw.inp   Done                     12/26/2018 11:47:58
00045 suncat0115 pw.x -in pw.inp   Done                     12/26/2018 11:47:58
00046 suncat0115 pw.x -in pw.inp   Done                     12/26/2018 11:47:58
00047 suncat0115 pw.x -in pw.inp   Done                     12/26/2018 11:47:58
00048 suncat0228 pw.x -in pw.inp   Done                     12/26/2018 11:47:58
00049 suncat0228 pw.x -in pw.inp   Done                     12/26/2018 11:47:58
00050 suncat0228 pw.x -in pw.inp   Done                     12/26/2018 11:47:58
00051 suncat0228 pw.x -in pw.inp   Done                     12/26/2018 11:47:58
00052 suncat0228 pw.x -in pw.inp   Done                     12/26/2018 11:47:58
00053 suncat0228 pw.x -in pw.inp   Done                     12/26/2018 11:47:58
00054 suncat0228 pw.x -in pw.inp   Done                     12/26/2018 11:47:58
00055 suncat0228 pw.x -in pw.inp   Done                     12/26/2018 11:47:58
00056 suncat0227 pw.x -in pw.inp   Done                     12/26/2018 11:47:58
00057 suncat0227 pw.x -in pw.inp   Done                     12/26/2018 11:47:58
00058 suncat0227 pw.x -in pw.inp   Done                     12/26/2018 11:47:58
00059 suncat0227 pw.x -in pw.inp   Done                     12/26/2018 11:47:58
00060 suncat0227 pw.x -in pw.inp   Done                     12/26/2018 11:47:58
00061 suncat0227 pw.x -in pw.inp   Done                     12/26/2018 11:47:58
00062 suncat0227 pw.x -in pw.inp   Done                     12/26/2018 11:47:58
00063 suncat0227 pw.x -in pw.inp   Done                     12/26/2018 11:47:58