     Program PWSCF v.5.1rc2 (svn rev. 11289) starts on 30Dec2018 at 19:53:46

     Current dimensions of program PWSCF are:
     Max number of different atomic species (ntypx) = 10
     Max number of k-points (npk) =  40000
     Max angular momentum in pseudopotentials (lmaxx) =  3
     Presently stress not available with electric field

     IMPORTANT: XC functional enforced from input :
     Exchange-correlation      = BEEF-VDW ( 1  4 27 13 2)
     Any further DFT definition will be discarded
     Please, verify this is what you really want

     Subspace diagonalization in iterative solution of the eigenvalue problem:
     a serial algorithm will be used

     bravais-lattice index     =            0
     lattice parameter (alat)  =       1.8897  a.u.
     unit-cell volume          =    5024.7139 (a.u.)^3
     number of atoms/cell      =           12
     number of atomic types    =            2
     number of electrons       =       150.00
     number of Kohn-Sham states=          105
     kinetic-energy cutoff     =      36.7493  Ry
     charge density cutoff     =     367.4932  Ry
     convergence threshold     =      1.0E-06
     mixing beta               =       0.1000
     number of iterations used =           10  plain     mixing
     Exchange-correlation      = BEEF-VDW ( 1  4 27 13 2)
     nstep                     =           50

     celldm(1)=   1.889726  celldm(2)=   0.000000  celldm(3)=   0.000000
     celldm(4)=   0.000000  celldm(5)=   0.000000  celldm(6)=   0.000000

     crystal axes: (cart. coord. in units of alat)
               a(1) = (   5.887165   0.000000   0.000000 )
               a(2) = (  -2.943583   5.098435   0.000000 )
               a(3) = (   0.000000   0.000000  24.806850 )

     reciprocal axes: (cart. coord. in units 2 pi/alat)
               b(1) = (  0.169861  0.098069  0.000000 )
               b(2) = (  0.000000  0.196139  0.000000 )
               b(3) = (  0.000000  0.000000  0.040311 )

     PseudoPot. # 1 for Nb read from file:
     /afs/slac.stanford.edu/u/if/mamunm/psp/gbrv1.5pbe/Nb.UPF
     MD5 check sum: 573aab8a2fa660278ed4a62cd769473f
     Pseudo is Ultrasoft + core correction, Zval = 13.0
     Generated by new atomic code, or converted to UPF format
     Using radial grid of  887 points,  6 beta functions with:
                l(1) =   0
                l(2) =   0
                l(3) =   1
                l(4) =   1
                l(5) =   2
                l(6) =   2
     Q(r) pseudized with  6 coefficients,  rinner =    1.000   1.000   1.000
                                                       1.000   1.000

     PseudoPot. # 2 for Au read from file:
     /afs/slac.stanford.edu/u/if/mamunm/psp/gbrv1.5pbe/Au.UPF
     MD5 check sum: 9d7f43293ad2c663164586bc4b293ffc
     Pseudo is Ultrasoft + core correction, Zval = 11.0
     Generated by new atomic code, or converted to UPF format
     Using radial grid of  985 points,  7 beta functions with:
                l(1) =   0
                l(2) =   0
                l(3) =   1
                l(4) =   1
                l(5) =   2
                l(6) =   2
                l(7) =   3
     Q(r) pseudized with  6 coefficients,  rinner =    1.900   1.900   1.900
                                                       1.900   1.900   1.900
                                                       1.900

     vdW kernel table read from file vdW_kernel_table
     MD5 check sum: 095c7af220d748ca6e76c0b4c6cfb241

     atomic species   valence    mass     pseudopotential
        Nb1           13.00    92.90637     Nb( 1.00)
        Au1           11.00   196.96657     Au( 1.00)

     No symmetry found

   Cartesian axes

     site n.     atom                  positions (alat units)
         1           Nb1 tau(   1) = (   0.0000000   0.0000000  10.0000000  )
         2           Nb1 tau(   2) = (  -1.4717914   2.5492174  10.0000000  )
         3           Nb1 tau(   3) = (   1.4717914   2.5492174  10.0000000  )
         4           Au1 tau(   4) = (   2.9435827   0.0000000  10.0000000  )
         5           Nb1 tau(   5) = (   2.9435827   1.6994783  12.4034252  )
         6           Nb1 tau(   6) = (   1.4717914   4.2486957  12.4034252  )
         7           Nb1 tau(   7) = (  -1.4717914   4.2486957  12.4034252  )
         8           Au1 tau(   8) = (   0.0000000   1.6994783  12.4034252  )
         9           Nb1 tau(   9) = (  -0.0000000   3.3989565  14.8068504  )
        10           Nb1 tau(  10) = (   1.4717914   0.8497391  14.8068504  )
        11           Nb1 tau(  11) = (   4.4153741   0.8497391  14.8068504  )
        12           Au1 tau(  12) = (   2.9435827   3.3989565  14.8068504  )

     number of k points=    20  Fermi-Dirac smearing, width (Ry)=  0.0110
                       cart. coord. in units 2pi/alat
        k(    1) = (   0.0000000   0.0000000   0.0000000), wk =   0.0555556
        k(    2) = (   0.0000000   0.0326898   0.0000000), wk =   0.1111111
        k(    3) = (   0.0000000   0.0653795   0.0000000), wk =   0.1111111
        k(    4) = (   0.0000000  -0.0980693   0.0000000), wk =   0.0555556
        k(    5) = (   0.0283102   0.0163449   0.0000000), wk =   0.1111111
        k(    6) = (   0.0283102   0.0490347   0.0000000), wk =   0.1111111
        k(    7) = (   0.0283102   0.0817244   0.0000000), wk =   0.1111111
        k(    8) = (   0.0283102  -0.0817244   0.0000000), wk =   0.1111111
        k(    9) = (   0.0283102  -0.0490347   0.0000000), wk =   0.1111111
        k(   10) = (   0.0283102  -0.0163449   0.0000000), wk =   0.1111111
        k(   11) = (   0.0566203   0.0326898   0.0000000), wk =   0.1111111
        k(   12) = (   0.0566203   0.0653795   0.0000000), wk =   0.1111111
        k(   13) = (   0.0566203   0.0980693   0.0000000), wk =   0.1111111
        k(   14) = (   0.0566203  -0.0653795   0.0000000), wk =   0.1111111
        k(   15) = (   0.0566203  -0.0326898   0.0000000), wk =   0.1111111
        k(   16) = (   0.0566203   0.0000000   0.0000000), wk =   0.1111111
        k(   17) = (  -0.0849305  -0.0490347   0.0000000), wk =   0.0555556
        k(   18) = (  -0.0849305  -0.0163449   0.0000000), wk =   0.1111111
        k(   19) = (  -0.0849305   0.0163449   0.0000000), wk =   0.1111111
        k(   20) = (  -0.0849305  -0.1471040   0.0000000), wk =   0.0555556

     Largest allocated arrays     est. size (Mb)     dimensions
     Largest temporary arrays     est. size (Mb)     dimensions

     Check: negative/imaginary core charge=   -0.000001    0.000000

     Initial potential from superposition of free atoms
     Check: negative starting charge=   -0.004498

     starting charge  149.97503, renormalised to  150.00000

     negative rho (up, down):  4.499E-03 0.000E+00

     *
     * You are using vdW-DF for exchange-correlation in this calculation.
     * Please cite the following three references that made this development
     * possible:
     *
     *   M. Dion, H. Rydberg, E. Schroder, D. C. Langreth, and
     *   B. I. Lundqvist, Phys. Rev. Lett. 92, 246401 (2004).
     *
     *   T. Thonhauser, V. R. Cooper, S. Li, A. Puzder, P. Hyldgaard, and
     *   D. C. Langreth, Phys. Rev. B 76, 125112 (2007).
     *
     *   G. Roman-Perez and J. M. Soler, Phys. Rev. Lett. 103, 096102 (2009).
     *
     *
     * If you are using vdW-DF2, please also cite:
     *
     *   K. Lee, E. D. Murray, L. Kong, B. I. Lundqvist, and
     *   D. C. Langreth, Phys. Rev. B 82, 081101(R) (2010).
     *
     *
     * If you are calculating the stress with vdW-DF, please also cite:
     *
     *   R. Sabatini, E. Kucukbenli, B. Kolb, T. Thonhauser, and
     *   S. de Gironcoli, J. Phys.: Condens. Matter 24, 424209 (2012).
     *

     Carrying out vdW-DF run using the following parameters:

     Nqs =      20    Nr_points =    1024   r_max =   100.000
     q_mesh =
               0.00001000     0.04494208     0.09755937     0.15916263
               0.23128650     0.31572767     0.41458969     0.53033537
               0.66584808     0.82450364     1.01025438     1.22772762
               1.48234092     1.78043706     2.12944203     2.53805004
               3.01644009     3.57652955     4.23227104     5.00000000

     Gradients computed in reciprocal space

     Adding external electric field

     Computed dipole along edir(3) :
        Dipole               -0.0000 Ry au,         -0.0000 Debye
        Dipole field         -0.0000 Ry au

        Potential amp.        0.0000 Ry
        Total length         45.7062 bohr

     Starting wfc are  144 randomized atomic wfcs

     Self-consistent Calculation

     iteration #  1     ecut=    36.75 Ry     beta=0.10
     Davidson diagonalization with overlap
     ethr =  1.00E-02,  avg # of iterations =  2.0

[...]

     total energy              =   -1416.68879821 Ry
     Harris-Foulkes estimate   =   -1417.22082907 Ry
     estimated scf accuracy    <       3.29659108 Ry

[...]

     End of self-consistent calculation

          k = 0.0000 0.0000 0.0000 ( 18967 PWs)   bands (ev):

   -53.3491 -53.3360 -53.2317 -53.2317 -53.2285 -53.2285 -53.1367 -53.0368
   -53.0368 -29.8012 -29.7151 -29.6554 -29.5992 -29.5706 -29.5706 -29.5395
   -29.5395 -29.4831 -29.4831 -29.4506 -29.3382 -29.3382 -29.2010 -29.2009
   -29.1010 -29.0548 -28.9369 -28.9369 -28.9338 -28.8407 -28.8407 -28.8361
   -28.8331 -28.8331 -28.7208 -28.7208  -4.9681  -3.8986  -3.7705  -3.7705
    -3.7277  -3.5474  -3.5474  -3.3422  -3.3422  -3.3297  -3.3297  -3.3256
    -3.1434  -2.7383  -2.7383  -2.6074  -2.6074  -2.3258  -2.0242  -1.3895
    -0.5230  -0.0637   0.0870   0.4228   0.4228   0.6050   0.6050   0.8293
     0.8293   1.2586   1.3152   1.3152   1.3920   1.3920   1.4525   1.5617
     1.5617   2.1557   2.1557   2.2769   2.3842   2.4708   2.7271   2.7271
     2.8830   3.5622   3.5622   3.7379   4.0692   4.1952   4.1952   4.3406
     4.3406   4.5412   4.5412   4.7784   4.7784   4.9122   4.9123   5.1330
     5.1330   5.4059   5.4059   5.4144   5.4827   5.6612   5.7559   5.9963
     5.9963

[...]

          k =-0.0849-0.0490 0.0000 ( 18900 PWs)   bands (ev):

[...]

     the Fermi energy is     1.8643 ev

!    total energy              =   -1416.79677360 Ry
     Harris-Foulkes estimate   =   -1416.79677333 Ry
     estimated scf accuracy    <       0.00000069 Ry

     The total energy is the sum of the following terms:

     one-electron contribution =  -10799.36510773 Ry
     hartree contribution      =    5418.11778333 Ry
     xc contribution           =    -363.10644527 Ry
     ewald contribution        =    4327.65069556 Ry
     electric field correction =       0.00000000 Ry
     smearing contrib. (-TS)   =      -0.09369948 Ry

     convergence has been achieved in  16 iterations

 BEEF-vdW xc energy contributions
           1 :   -318.268896959689
           2 :    293.172893338307
           3 :   -249.200373585566
           4 :    196.312600127905
           5 :   -144.730350148433
           6 :    101.876634964726
           7 :   -70.8825545682633
           8 :    50.8616452728845
           9 :   -38.4729210671555
          10 :    29.8658874537377
          11 :   -22.2119151353186
          12 :    14.3511236902148
[...]
     MD5 check sum: 573aab8a2fa660278ed4a62cd769473f
     Pseudo is Ultrasoft + core correction, Zval = 13.0
     Generated by new atomic code, or converted to UPF format
     Using radial grid of  887 points,  6 beta functions with:
                l(1) =   0
                l(2) =   0
                l(3) =   1
                l(4) =   1
                l(5) =   2
                l(6) =   2
     Q(r) pseudized with  6 coefficients,  rinner =    1.000   1.000   1.000
                                                       1.000   1.000

     PseudoPot. # 2 for Au read from file:
     /afs/slac.stanford.edu/u/if/mamunm/psp/gbrv1.5pbe/Au.UPF
     MD5 check sum: 9d7f43293ad2c663164586bc4b293ffc
     Pseudo is Ultrasoft + core correction, Zval = 11.0
     Generated by new atomic code, or converted to UPF format
     Using radial grid of  985 points,  7 beta functions with:
                l(1) =   0
                l(2) =   0
                l(3) =   1
                l(4) =   1
                l(5) =   2
                l(6) =   2
                l(7) =   3
     Q(r) pseudized with  6 coefficients,  rinner =    1.900   1.900   1.900
                                                       1.900   1.900   1.900
                                                       1.900

     vdW kernel table read from file vdW_kernel_table
     MD5 check sum: 095c7af220d748ca6e76c0b4c6cfb241

     atomic species   valence    mass     pseudopotential
        Nb1           13.00    92.90637     Nb( 1.00)
        Au1           11.00   196.96657     Au( 1.00)

     No symmetry found

   Cartesian axes

     site n.     atom                  positions (alat units)
         1           Nb1 tau(   1) = (   0.0000000   0.0000000  10.0000000  )
         2           Nb1 tau(   2) = (  -1.4717914   2.5492174  10.0000000  )
         3           Nb1 tau(   3) = (   1.4717914   2.5492174  10.0000000  )
         4           Au1 tau(   4) = (   2.9435827   0.0000000  10.0000000  )
         5           Nb1 tau(   5) = (   2.9435827   1.6994783  12.4034252  )
         6           Nb1 tau(   6) = (   1.4717914   4.2486957  12.4034252  )
         7           Nb1 tau(   7) = (  -1.4717914   4.2486957  12.4034252  )
         8           Au1 tau(   8) = (   0.0000000   1.6994783  12.4034252  )
         9           Nb1 tau(   9) = (   0.0000046   3.3852092  14.7041982  )
        10           Nb1 tau(  10) = (   1.4598935   0.8566110  14.7041950  )
        11           Nb1 tau(  11) = (   4.4272789   0.8566106  14.7041971  )
        12           Au1 tau(  12) = (   2.9435888   3.3989563  14.8565873  )

     number of k points=    20  Fermi-Dirac smearing, width (Ry)=  0.0110
                       cart. coord. in units 2pi/alat
        k(    1) = (   0.0000000   0.0000000   0.0000000), wk =   0.0555556
        k(    2) = (   0.0000000   0.0326898   0.0000000), wk =   0.1111111
        k(    3) = (   0.0000000   0.0653795   0.0000000), wk =   0.1111111
        k(    4) = (   0.0000000  -0.0980693   0.0000000), wk =   0.0555556
        k(    5) = (   0.0283102   0.0163449   0.0000000), wk =   0.1111111
        k(    6) = (   0.0283102   0.0490347   0.0000000), wk =   0.1111111
        k(    7) = (   0.0283102   0.0817244   0.0000000), wk =   0.1111111
        k(    8) = (   0.0283102  -0.0817244   0.0000000), wk =   0.1111111
        k(    9) = (   0.0283102  -0.0490347   0.0000000), wk =   0.1111111
        k(   10) = (   0.0283102  -0.0163449   0.0000000), wk =   0.1111111
        k(   11) = (   0.0566203   0.0326898   0.0000000), wk =   0.1111111
        k(   12) = (   0.0566203   0.0653795   0.0000000), wk =   0.1111111
        k(   13) = (   0.0566203   0.0980693   0.0000000), wk =   0.1111111
        k(   14) = (   0.0566203  -0.0653795   0.0000000), wk =   0.1111111
        k(   15) = (   0.0566203  -0.0326898   0.0000000), wk =   0.1111111
        k(   16) = (   0.0566203   0.0000000   0.0000000), wk =   0.1111111
        k(   17) = (  -0.0849305  -0.0490347   0.0000000), wk =   0.0555556
        k(   18) = (  -0.0849305  -0.0163449   0.0000000), wk =   0.1111111
        k(   19) = (  -0.0849305   0.0163449   0.0000000), wk =   0.1111111
        k(   20) = (  -0.0849305  -0.1471040   0.0000000), wk =   0.0555556

     Largest allocated arrays     est. size (Mb)     dimensions
     Largest temporary arrays     est. size (Mb)     dimensions

     Check: negative/imaginary core charge=   -0.000001    0.000000

     Initial potential from superposition of free atoms
     Check: negative starting charge=   -0.004536

     starting charge  149.97503, renormalised to  150.00000

[...]

     *
     * You are using vdW-DF for exchange-correlation in this calculation.
     * Please cite the following three references that made this development
     * possible:
     *
     *   M. Dion, H. Rydberg, E. Schroder, D. C. Langreth, and
     *   B. I. Lundqvist, Phys. Rev. Lett. 92, 246401 (2004).
     *
     *   T. Thonhauser, V. R. Cooper, S. Li, A. Puzder, P. Hyldgaard, and
     *   D. C. Langreth, Phys. Rev. B 76, 125112 (2007).
     *
     *   G. Roman-Perez and J. M. Soler, Phys. Rev. Lett. 103, 096102 (2009).
     *
     *
     * If you are using vdW-DF2, please also cite:
     *
     *   K. Lee, E. D. Murray, L. Kong, B. I. Lundqvist, and
     *   D. C. Langreth, Phys. Rev. B 82, 081101(R) (2010).
     *
     *
     * If you are calculating the stress with vdW-DF, please also cite:
     *
     *   R. Sabatini, E. Kucukbenli, B. Kolb, T. Thonhauser, and
     *   S. de Gironcoli, J. Phys.: Condens. Matter 24, 424209 (2012).
     *

     Carrying out vdW-DF run using the following parameters:

     Nqs =      20    Nr_points =    1024   r_max =   100.000
     q_mesh =
               0.00001000     0.04494208     0.09755937     0.15916263
               0.23128650     0.31572767     0.41458969     0.53033537
               0.66584808     0.82450364     1.01025438     1.22772762
               1.48234092     1.78043706     2.12944203     2.53805004
               3.01644009     3.57652955     4.23227104     5.00000000

     Gradients computed in reciprocal space

[...]

     Starting wfc are  144 randomized atomic wfcs

     Self-consistent Calculation

[...]

     total energy              =   -1416.81103945 Ry
     Harris-Foulkes estimate   =   -1416.81103924 Ry
     estimated scf accuracy    <       0.00000301 Ry

     iteration # 16     ecut=    36.75 Ry     beta=0.10
     Davidson diagonalization with overlap
     ethr =  2.00E-09,  avg # of iterations =  2.0

[...]

     negative rho (up, down):  4.149E-03 0.000E+00

     Adding external electric field

     Computed dipole along edir(3) :
        Dipole               -0.0080 Ry au,         -0.0204 Debye
        Dipole field         -0.0000 Ry au

        Potential amp.        0.0018 Ry
        Total length         45.7062 bohr

     End of self-consistent calculation

[...]

          k = 0.0566 0.0000 0.0000 ( 18913 PWs)   bands (ev):

[...]

          k =-0.0849-0.1471 0.0000 ( 18900 PWs)   bands (ev):

   -53.3346 -53.2987 -53.2700 -53.2603 -53.2332 -53.1920 -53.0784 -53.0497
   -53.0160 -29.6638 -29.6506 -29.5976 -29.5308 -29.4962 -29.4848 -29.4393
   -29.4170 -29.3799 -29.3724 -29.3365 -29.3096 -29.2833 -29.2693 -29.2435
   -29.2351 -29.2024 -29.1659 -29.0356 -29.0283 -29.0134 -28.9030 -28.8613
   -28.8515 -28.8370 -28.8168 -28.7137  -3.9410  -3.5446  -3.4970  -3.4844
    -3.4017  -3.2326  -3.1549  -3.0871  -3.0379  -3.0069  -2.8252  -2.7501
    -2.7194  -2.6495  -2.5708  -2.4899  -2.4793  -2.1443  -1.5501  -1.1457
    -0.9873  -0.6436  -0.1483   0.0299   0.0525   0.3636   0.5346   0.6089
     0.6514   0.6630   0.9403   0.9747   1.0449   1.0787   1.2662   1.3792
     1.3880   1.4448   1.5941   1.6467   1.9422   2.1184   2.2311   2.3147
     2.4574   2.5409   2.6377   2.6746   3.0632   3.4153   3.4668   3.6282
     3.8570   3.9115   3.9601   4.0008   4.1506   4.2419   4.2948   4.3227
     4.7427   4.8672   5.2937   5.3756   5.4812   5.5948   5.9944   6.3043
     6.3580

     the Fermi energy is     1.8396 ev

!    total energy              =   -1416.81104006 Ry
     Harris-Foulkes estimate   =   -1416.81103983 Ry
     estimated scf accuracy    <       0.00000043 Ry

     The total energy is the sum of the following terms:

     one-electron contribution =  -10906.42661269 Ry
     hartree contribution      =    5471.65731344 Ry
     xc contribution           =    -363.25257753 Ry
     ewald contribution        =    4381.30161322 Ry
     electric field correction =       0.00000016 Ry
     smearing contrib. (-TS)   =      -0.09077665 Ry

     convergence has been achieved in  16 iterations

 BEEF-vdW xc energy contributions
           1 :   -318.638207330338
           2 :    293.582435129681
           3 :   -249.661877690458
           4 :    196.795116334869
           5 :   -145.171378928362
           6 :    102.216082132428
           7 :   -71.0993260614191
           8 :    50.9896240799864
           9 :   -38.5846033929354
          10 :    30.0332102940233
          11 :   -22.4691883391540
          12 :    14.6809742672378
          13 :   -6.90922145035495
          14 :   8.157989778328556E-002
          15 :    5.02685081632296
          16 :   -8.30681704773178
          17 :    10.3187682778113
          18 :   -11.9058045809167
          19 :    13.6976619216879
          20 :   -15.8025370000217
          21 :    17.8163869014963
          22 :   -19.0970403043864
          23 :    19.1182944524595
          24 :   -17.7266067742129
          25 :    15.1964901602958
          26 :   -12.0985049048897
          27 :    9.06638135541311
          28 :   -6.58215934971190
          29 :    4.86138894851524
          30 :   -3.86326645625491
          31 :   -30.4585800816356
          32 :   -22.7161551786142

     Forces acting on atoms (Ry/au):

     negative rho (up, down):  4.149E-03 0.000E+00
     atom    1 type  1   force =    -0.00000029    0.00383707    0.01812877
     atom    2 type  1   force =     0.00332344   -0.00191859    0.01812876
     atom    3 type  1   force =    -0.00332199   -0.00191794    0.01812975
     atom    4 type  2   force =    -0.00000126    0.00000023   -0.01052412
     atom    5 type  1   force =    -0.00000095    0.00591675   -0.00538684
     atom    6 type  1   force =     0.00512357   -0.00295947   -0.00538667
     atom    7 type  1   force =    -0.00512247   -0.00295753   -0.00538531
     atom    8 type  2   force =    -0.00000498   -0.00000225   -0.02493243
     atom    9 type  1   force =     0.00000147    0.00115698   -0.00092513
     atom   10 type  1   force =     0.00100232   -0.00057806   -0.00092479
     atom   11 type  1   force =    -0.00100063   -0.00057846   -0.00092507
     atom   12 type  2   force =     0.00000179    0.00000129    0.00000310

     Total force =     0.044285     Total SCF correction =     0.001933

     entering subroutine stress ...

     negative rho (up, down):  4.149E-03 0.000E+00
          total   stress  (Ry/bohr**3)                   (kbar)     P=  -13.48
  -0.00011578   0.00000000   0.00000000        -17.03      0.00      0.00
   0.00000000  -0.00011578  -0.00000000          0.00    -17.03     -0.00
   0.00000000  -0.00000000  -0.00004328          0.00     -0.00     -6.37

 !ASE

     Writing output data file calc.save

     General routines

     Parallel routines

   This run was terminated on:  21: 4:53  30Dec2018

   JOB DONE.
Job  /afs/slac/g/suncat/bin/suncat-tsmpirun -x LD_LIBRARY_PATH -wdir /scratch/qe648616_NDwmY pw.x -in pw.inp

TID   HOST_NAME   COMMAND_LINE            STATUS            TERMINATION_TIME
00000 suncat0154 pw.x -in pw.inp   Done                     12/30/2018 21:04:53
00001 suncat0154 pw.x -in pw.inp   Done                     12/30/2018 21:04:53
00002 suncat0154 pw.x -in pw.inp   Done                     12/30/2018 21:04:53
00003 suncat0154 pw.x -in pw.inp   Done                     12/30/2018 21:04:53
00004 suncat0154 pw.x -in pw.inp   Done                     12/30/2018 21:04:53
00005 suncat0154 pw.x -in pw.inp   Done                     12/30/2018 21:04:53
00006 suncat0154 pw.x -in pw.inp   Done                     12/30/2018 21:04:53
00007 suncat0154 pw.x -in pw.inp   Done                     12/30/2018 21:04:53
00008 suncat0143 pw.x -in pw.inp   Done                     12/30/2018 21:04:53
00009 suncat0143 pw.x -in pw.inp   Done                     12/30/2018 21:04:53
00010 suncat0143 pw.x -in pw.inp   Done                     12/30/2018 21:04:53
00011 suncat0143 pw.x -in pw.inp   Done                     12/30/2018 21:04:53
00012 suncat0143 pw.x -in pw.inp   Done                     12/30/2018 21:04:53
00013 suncat0143 pw.x -in pw.inp   Done                     12/30/2018 21:04:53
00014 suncat0143 pw.x -in pw.inp   Done                     12/30/2018 21:04:53
00015 suncat0143 pw.x -in pw.inp   Done                     12/30/2018 21:04:53
00016 suncat0108 pw.x -in pw.inp   Done                     12/30/2018 21:04:53
00017 suncat0108 pw.x -in pw.inp   Done                     12/30/2018 21:04:53
00018 suncat0108 pw.x -in pw.inp   Done                     12/30/2018 21:04:53
00019 suncat0108 pw.x -in pw.inp   Done                     12/30/2018 21:04:53
00020 suncat0108 pw.x -in pw.inp   Done                     12/30/2018 21:04:53
00021 suncat0108 pw.x -in pw.inp   Done                     12/30/2018 21:04:53
00022 suncat0108 pw.x -in pw.inp   Done                     12/30/2018 21:04:53
00023 suncat0108 pw.x -in pw.inp   Done                     12/30/2018 21:04:53
00024 suncat0252 pw.x -in pw.inp   Done                     12/30/2018 21:04:53
00025 suncat0252 pw.x -in pw.inp   Done                     12/30/2018 21:04:53
00026 suncat0252 pw.x -in pw.inp   Done                     12/30/2018 21:04:53
00027 suncat0252 pw.x -in pw.inp   Done                     12/30/2018 21:04:53
00028 suncat0252 pw.x -in pw.inp   Done                     12/30/2018 21:04:53
00029 suncat0252 pw.x -in pw.inp   Done                     12/30/2018 21:04:53
00030 suncat0252 pw.x -in pw.inp   Done                     12/30/2018 21:04:53
00031 suncat0252 pw.x -in pw.inp   Done                     12/30/2018 21:04:53
00032 suncat0226 pw.x -in pw.inp   Done                     12/30/2018 21:04:53
00033 suncat0226 pw.x -in pw.inp   Done                     12/30/2018 21:04:53
00034 suncat0226 pw.x -in pw.inp   Done                     12/30/2018 21:04:53
00035 suncat0226 pw.x -in pw.inp   Done                     12/30/2018 21:04:53
00036 suncat0226 pw.x -in pw.inp   Done                     12/30/2018 21:04:53
00037 suncat0226 pw.x -in pw.inp   Done                     12/30/2018 21:04:53
00038 suncat0226 pw.x -in pw.inp   Done                     12/30/2018 21:04:53
00039 suncat0226 pw.x -in pw.inp   Done                     12/30/2018 21:04:53
00040 suncat0225 pw.x -in pw.inp   Done                     12/30/2018 21:04:53
00041 suncat0225 pw.x -in pw.inp   Done                     12/30/2018 21:04:53
00042 suncat0225 pw.x -in pw.inp   Done                     12/30/2018 21:04:53
00043 suncat0225 pw.x -in pw.inp   Done                     12/30/2018 21:04:53
00044 suncat0225 pw.x -in pw.inp   Done                     12/30/2018 21:04:53
00045 suncat0225 pw.x -in pw.inp   Done                     12/30/2018 21:04:53
00046 suncat0225 pw.x -in pw.inp   Done                     12/30/2018 21:04:53
00047 suncat0225 pw.x -in pw.inp   Done                     12/30/2018 21:04:53
00048 suncat0224 pw.x -in pw.inp   Done                     12/30/2018 21:04:53
00049 suncat0224 pw.x -in pw.inp   Done                     12/30/2018 21:04:53
00050 suncat0224 pw.x -in pw.inp   Done                     12/30/2018 21:04:53
00051 suncat0224 pw.x -in pw.inp   Done                     12/30/2018 21:04:53
00052 suncat0224 pw.x -in pw.inp   Done                     12/30/2018 21:04:53
00053 suncat0224 pw.x -in pw.inp   Done                     12/30/2018 21:04:53
00054 suncat0224 pw.x -in pw.inp   Done                     12/30/2018 21:04:53
00055 suncat0224 pw.x -in pw.inp   Done                     12/30/2018 21:04:53
00056 suncat0223 pw.x -in pw.inp   Done                     12/30/2018 21:04:53
00057 suncat0223 pw.x -in pw.inp   Done                     12/30/2018 21:04:53
00058 suncat0223 pw.x -in pw.inp   Done                     12/30/2018 21:04:53
00059 suncat0223 pw.x -in pw.inp   Done                     12/30/2018 21:04:53
00060 suncat0223 pw.x -in pw.inp   Done                     12/30/2018 21:04:53
00061 suncat0223 pw.x -in pw.inp   Done                     12/30/2018 21:04:53
00062 suncat0223 pw.x -in pw.inp   Done                     12/30/2018 21:04:53
00063 suncat0223 pw.x -in pw.inp   Done                     12/30/2018 21:04:53