     Program PWSCF v.5.1rc2 (svn rev. 11289) starts on 31Dec2018 at 23: 4:44

     Current dimensions of program PWSCF are:
     Max number of different atomic species (ntypx) = 10
     Max number of k-points (npk) =  40000
     Max angular momentum in pseudopotentials (lmaxx) =  3
     Presently stress not available with electric field

     IMPORTANT: XC functional enforced from input :
     Exchange-correlation      = BEEF-VDW ( 1  4 27 13 2)
     Any further DFT definition will be discarded
     Please, verify this is what you really want

     Subspace diagonalization in iterative solution of the eigenvalue problem:
     a serial algorithm will be used

     Generating pointlists ...
     new r_m :   0.4125 (alat units)  0.7795 (a.u.) for type    1
     new r_m :   0.4125 (alat units)  0.7795 (a.u.) for type    2

     bravais-lattice index     =            0
     lattice parameter (alat)  =       1.8897  a.u.
     unit-cell volume          =    4111.8056 (a.u.)^3
     number of atoms/cell      =           12
     number of atomic types    =            2
     number of electrons       =       189.00
     number of Kohn-Sham states=          124
     kinetic-energy cutoff     =      36.7493  Ry
     charge density cutoff     =     367.4932  Ry
     convergence threshold     =      1.0E-06
     mixing beta               =       0.1000
     number of iterations used =           10  plain     mixing
     Exchange-correlation      = BEEF-VDW ( 1  4 27 13 2)
     nstep                     =           50

     celldm(1)=   1.889726  celldm(2)=   0.000000  celldm(3)=   0.000000
     celldm(4)=   0.000000  celldm(5)=   0.000000  celldm(6)=   0.000000

     crystal axes: (cart. coord. in units of alat)
               a(1) = (   5.371369   0.000000   0.000000 )
               a(2) = (  -2.685685   4.651742   0.000000 )
               a(3) = (   0.000000   0.000000  24.385705 )

     reciprocal axes: (cart. coord. in units 2 pi/alat)
               b(1) = (  0.186172  0.107487  0.000000 )
               b(2) = (  0.000000  0.214973  0.000000 )
               b(3) = (  0.000000  0.000000  0.041008 )

     PseudoPot. # 1 for Rh read from file:
     /afs/slac.stanford.edu/u/if/mamunm/psp/gbrv1.5pbe/Rh.UPF
     MD5 check sum: 761627e959a2e3a1f56b0b5fe687810e
     Pseudo is Ultrasoft + core correction, Zval = 15.0
     Generated by new atomic code, or converted to UPF format
     Using radial grid of  969 points,  7 beta functions with:
                l(1) =   0
                l(2) =   0
                l(3) =   1
                l(4) =   1
                l(5) =   2
                l(6) =   2
                l(7) =   2
     Q(r) pseudized with  8 coefficients,  rinner =    1.200   1.200   1.200
                                                       1.200   1.200

     PseudoPot. # 2 for Ni read from file:
     /afs/slac.stanford.edu/u/if/mamunm/psp/gbrv1.5pbe/Ni.UPF
     MD5 check sum: 1ee80287db30b12d2bc1f57a5b5d6409
     Pseudo is Ultrasoft + core correction, Zval = 18.0
     Generated by new atomic code, or converted to UPF format
     Using radial grid of  865 points,  6 beta functions with:
                l(1) =   0
                l(2) =   0
                l(3) =   1
                l(4) =   1
                l(5) =   2
                l(6) =   2
     Q(r) pseudized with 10 coefficients,  rinner =    0.980   0.980   0.980
                                                       0.980   0.980

     vdW kernel table read from file vdW_kernel_table
     MD5 check sum: 095c7af220d748ca6e76c0b4c6cfb241

     atomic species   valence    mass     pseudopotential
        Rh1           15.00   102.90550     Rh( 1.00)
        Ni1           18.00    58.69340     Ni( 1.00)

     Starting magnetic structure
     atomic species   magnetization
        Rh1          0.133
        Ni1          0.111

     No symmetry found

   Cartesian axes

     site n.     atom                  positions (alat units)
         1           Rh1 tau(   1) = (   0.0000000   0.0000000  10.0000000  )
         2           Rh1 tau(   2) = (  -1.3428423   2.3258711  10.0000000  )
         3           Rh1 tau(   3) = (   1.3428423   2.3258711  10.0000000  )
         4           Ni1 tau(   4) = (   2.6856847   0.0000000  10.0000000  )
         5           Rh1 tau(   5) = (   2.6856847   1.5505808  12.1928523  )
         6           Rh1 tau(   6) = (   1.3428423   3.8764519  12.1928523  )
         7           Rh1 tau(   7) = (  -1.3428423   3.8764519  12.1928523  )
         8           Ni1 tau(   8) = (   0.0000000   1.5505808  12.1928523  )
         9           Rh1 tau(   9) = (  -0.0000000   3.1011615  14.3857047  )
        10           Rh1 tau(  10) = (   1.3428423   0.7752904  14.3857047  )
        11           Rh1 tau(  11) = (   4.0285270   0.7752904  14.3857047  )
        12           Ni1 tau(  12) = (   2.6856847   3.1011615  14.3857047  )

     number of k points=    40  Fermi-Dirac smearing, width (Ry)=  0.0110
                       cart. coord. in units 2pi/alat
        k(    1) = (   0.0000000   0.0000000   0.0000000), wk =   0.0277778
        k(    2) = (   0.0000000   0.0358289   0.0000000), wk =   0.0555556
        k(    3) = (   0.0000000   0.0716577   0.0000000), wk =   0.0555556
        k(    4) = (   0.0000000  -0.1074866   0.0000000), wk =   0.0277778
        k(    5) = (   0.0310287   0.0179144   0.0000000), wk =   0.0555556
        k(    6) = (   0.0310287   0.0537433   0.0000000), wk =   0.0555556
        k(    7) = (   0.0310287   0.0895722   0.0000000), wk =   0.0555556
        k(    8) = (   0.0310287  -0.0895722   0.0000000), wk =   0.0555556
        k(    9) = (   0.0310287  -0.0537433   0.0000000), wk =   0.0555556
        k(   10) = (   0.0310287  -0.0179144   0.0000000), wk =   0.0555556
        k(   11) = (   0.0620574   0.0358289   0.0000000), wk =   0.0555556
        k(   12) = (   0.0620574   0.0716577   0.0000000), wk =   0.0555556
        k(   13) = (   0.0620574   0.1074866   0.0000000), wk =   0.0555556
        k(   14) = (   0.0620574  -0.0716577   0.0000000), wk =   0.0555556
        k(   15) = (   0.0620574  -0.0358289   0.0000000), wk =   0.0555556
        k(   16) = (   0.0620574   0.0000000   0.0000000), wk =   0.0555556
        k(   17) = (  -0.0930861  -0.0537433   0.0000000), wk =   0.0277778
        k(   18) = (  -0.0930861  -0.0179144   0.0000000), wk =   0.0555556
        k(   19) = (  -0.0930861   0.0179144   0.0000000), wk =   0.0555556
        k(   20) = (  -0.0930861  -0.1612299   0.0000000), wk =   0.0277778
        k(   21) = (   0.0000000   0.0000000   0.0000000), wk =   0.0277778
        k(   22) = (   0.0000000   0.0358289   0.0000000), wk =   0.0555556
        k(   23) = (   0.0000000   0.0716577   0.0000000), wk =   0.0555556
        k(   24) = (   0.0000000  -0.1074866   0.0000000), wk =   0.0277778
        k(   25) = (   0.0310287   0.0179144   0.0000000), wk =   0.0555556
        k(   26) = (   0.0310287   0.0537433   0.0000000), wk =   0.0555556
        k(   27) = (   0.0310287   0.0895722   0.0000000), wk =   0.0555556
        k(   28) = (   0.0310287  -0.0895722   0.0000000), wk =   0.0555556
        k(   29) = (   0.0310287  -0.0537433   0.0000000), wk =   0.0555556
        k(   30) = (   0.0310287  -0.0179144   0.0000000), wk =   0.0555556
        k(   31) = (   0.0620574   0.0358289   0.0000000), wk =   0.0555556
        k(   32) = (   0.0620574   0.0716577   0.0000000), wk =   0.0555556
        k(   33) = (   0.0620574   0.1074866   0.0000000), wk =   0.0555556
        k(   34) = (   0.0620574  -0.0716577   0.0000000), wk =   0.0555556
        k(   35) = (   0.0620574  -0.0358289   0.0000000), wk =   0.0555556
        k(   36) = (   0.0620574   0.0000000   0.0000000), wk =   0.0555556
        k(   37) = (  -0.0930861  -0.0537433   0.0000000), wk =   0.0277778
        k(   38) = (  -0.0930861  -0.0179144   0.0000000), wk =   0.0555556
        k(   39) = (  -0.0930861   0.0179144   0.0000000), wk =   0.0555556
        k(   40) = (  -0.0930861  -0.1612299   0.0000000), wk =   0.0277778

     Largest allocated arrays     est. size (Mb)     dimensions
     Largest temporary arrays     est. size (Mb)     dimensions

     Initial potential from superposition of free atoms
     Check: negative starting charge=(component1):   -0.277659
     Check: negative starting charge=(component2):   -0.212334

     starting charge  178.49911, renormalised to  189.00000

     negative rho (up, down):  2.940E-01 2.248E-01

     *
     * You are using vdW-DF for exchange-correlation in this calculation.
     * Please cite the following three references that made this development
     * possible:
     *
     *   M. Dion, H. Rydberg, E. Schroder, D. C. Langreth, and
     *   B. I. Lundqvist, Phys. Rev. Lett. 92, 246401 (2004).
     *
     *   T. Thonhauser, V. R. Cooper, S. Li, A. Puzder, P. Hyldgaard, and
     *   D. C. Langreth, Phys. Rev. B 76, 125112 (2007).
     *
     *   G. Roman-Perez and J. M. Soler, Phys. Rev. Lett. 103, 096102 (2009).
     *
     *
     * If you are using vdW-DF2, please also cite:
     *
     *   K. Lee, E. D. Murray, L. Kong, B. I. Lundqvist, and
     *   D. C. Langreth, Phys. Rev. B 82, 081101(R) (2010).
     *
     *
     * If you are calculating the stress with vdW-DF, please also cite:
     *
     *   R. Sabatini, E. Kucukbenli, B. Kolb, T. Thonhauser, and
     *   S. de Gironcoli, J. Phys.: Condens. Matter 24, 424209 (2012).
     *

     Carrying out vdW-DF run using the following parameters:

     Nqs =      20    Nr_points =    1024   r_max =   100.000
     q_mesh =
               0.00001000     0.04494208     0.09755937     0.15916263
               0.23128650     0.31572767     0.41458969     0.53033537
               0.66584808     0.82450364     1.01025438     1.22772762
               1.48234092     1.78043706     2.12944203     2.53805004
               3.01644009     3.57652955     4.23227104     5.00000000

     Gradients computed in reciprocal space

     Adding external electric field

     Computed dipole along edir(3) :
        Dipole                0.0000 Ry au,          0.0000 Debye
        Dipole field          0.0000 Ry au

        Potential amp.       -0.0000 Ry
        Total length         44.9302 bohr

[...]

     Starting wfc are  147 randomized atomic wfcs

     Self-consistent Calculation

     iteration #  1     ecut=    36.75 Ry     beta=0.10
     Davidson diagonalization with overlap
     ethr =  1.00E-02,  avg # of iterations =  7.1

[...]

     Magnetic moment per site:
     atom:    1    charge:    2.8211    magn:    0.3505    constr:    0.0000
     atom:    2    charge:    2.8211    magn:    0.3505    constr:    0.0000
     atom:    3    charge:    2.8211    magn:    0.3505    constr:    0.0000
     atom:    4    charge:    9.4891    magn:    1.0155    constr:    0.0000
     atom:    5    charge:    2.8147    magn:    0.3496    constr:    0.0000
     atom:    6    charge:    2.8147    magn:    0.3496    constr:    0.0000
     atom:    7    charge:    2.8147    magn:    0.3496    constr:    0.0000
     atom:    8    charge:    9.4710    magn:    1.0045    constr:    0.0000
[...]
        k(    2) = (   0.0000000   0.0358289   0.0000000), wk =   0.0555556
        k(    3) = (   0.0000000   0.0716577   0.0000000), wk =   0.0555556
        k(    4) = (   0.0000000  -0.1074866   0.0000000), wk =   0.0277778
        k(    5) = (   0.0310287   0.0179144   0.0000000), wk =   0.0555556
        k(    6) = (   0.0310287   0.0537433   0.0000000), wk =   0.0555556
        k(    7) = (   0.0310287   0.0895722   0.0000000), wk =   0.0555556
        k(    8) = (   0.0310287  -0.0895722   0.0000000), wk =   0.0555556
        k(    9) = (   0.0310287  -0.0537433   0.0000000), wk =   0.0555556
        k(   10) = (   0.0310287  -0.0179144   0.0000000), wk =   0.0555556
        k(   11) = (   0.0620574   0.0358289   0.0000000), wk =   0.0555556
        k(   12) = (   0.0620574   0.0716577   0.0000000), wk =   0.0555556
        k(   13) = (   0.0620574   0.1074866   0.0000000), wk =   0.0555556
        k(   14) = (   0.0620574  -0.0716577   0.0000000), wk =   0.0555556
        k(   15) = (   0.0620574  -0.0358289   0.0000000), wk =   0.0555556
        k(   16) = (   0.0620574   0.0000000   0.0000000), wk =   0.0555556
        k(   17) = (  -0.0930861  -0.0537433   0.0000000), wk =   0.0277778
        k(   18) = (  -0.0930861  -0.0179144   0.0000000), wk =   0.0555556
        k(   19) = (  -0.0930861   0.0179144   0.0000000), wk =   0.0555556
        k(   20) = (  -0.0930861  -0.1612299   0.0000000), wk =   0.0277778
        k(   21) = (   0.0000000   0.0000000   0.0000000), wk =   0.0277778
        k(   22) = (   0.0000000   0.0358289   0.0000000), wk =   0.0555556
        k(   23) = (   0.0000000   0.0716577   0.0000000), wk =   0.0555556
        k(   24) = (   0.0000000  -0.1074866   0.0000000), wk =   0.0277778
        k(   25) = (   0.0310287   0.0179144   0.0000000), wk =   0.0555556
        k(   26) = (   0.0310287   0.0537433   0.0000000), wk =   0.0555556
        k(   27) = (   0.0310287   0.0895722   0.0000000), wk =   0.0555556
        k(   28) = (   0.0310287  -0.0895722   0.0000000), wk =   0.0555556
        k(   29) = (   0.0310287  -0.0537433   0.0000000), wk =   0.0555556
        k(   30) = (   0.0310287  -0.0179144   0.0000000), wk =   0.0555556
        k(   31) = (   0.0620574   0.0358289   0.0000000), wk =   0.0555556
        k(   32) = (   0.0620574   0.0716577   0.0000000), wk =   0.0555556
        k(   33) = (   0.0620574   0.1074866   0.0000000), wk =   0.0555556
        k(   34) = (   0.0620574  -0.0716577   0.0000000), wk =   0.0555556
        k(   35) = (   0.0620574  -0.0358289   0.0000000), wk =   0.0555556
        k(   36) = (   0.0620574   0.0000000   0.0000000), wk =   0.0555556
        k(   37) = (  -0.0930861  -0.0537433   0.0000000), wk =   0.0277778
        k(   38) = (  -0.0930861  -0.0179144   0.0000000), wk =   0.0555556
        k(   39) = (  -0.0930861   0.0179144   0.0000000), wk =   0.0555556
        k(   40) = (  -0.0930861  -0.1612299   0.0000000), wk =   0.0277778

     Largest allocated arrays     est. size (Mb)     dimensions
     Largest temporary arrays     est. size (Mb)     dimensions

     Initial potential from superposition of free atoms
     Check: negative starting charge=(component1):   -0.276757
     Check: negative starting charge=(component2):   -0.211644

     starting charge  178.49911, renormalised to  189.00000

[...]

     *
     * You are using vdW-DF for exchange-correlation in this calculation.
     * Please cite the following three references that made this development
     * possible:
     *
     *   M. Dion, H. Rydberg, E. Schroder, D. C. Langreth, and
     *   B. I. Lundqvist, Phys. Rev. Lett. 92, 246401 (2004).
     *
     *   T. Thonhauser, V. R. Cooper, S. Li, A. Puzder, P. Hyldgaard, and
     *   D. C. Langreth, Phys. Rev. B 76, 125112 (2007).
     *
     *   G. Roman-Perez and J. M. Soler, Phys. Rev. Lett. 103, 096102 (2009).
     *
     *
     * If you are using vdW-DF2, please also cite:
     *
     *   K. Lee, E. D. Murray, L. Kong, B. I. Lundqvist, and
     *   D. C. Langreth, Phys. Rev. B 82, 081101(R) (2010).
     *
     *
     * If you are calculating the stress with vdW-DF, please also cite:
     *
     *   R. Sabatini, E. Kucukbenli, B. Kolb, T. Thonhauser, and
     *   S. de Gironcoli, J. Phys.: Condens. Matter 24, 424209 (2012).
     *

     Carrying out vdW-DF run using the following parameters:

     Nqs =      20    Nr_points =    1024   r_max =   100.000
     q_mesh =
               0.00001000     0.04494208     0.09755937     0.15916263
               0.23128650     0.31572767     0.41458969     0.53033537
               0.66584808     0.82450364     1.01025438     1.22772762
               1.48234092     1.78043706     2.12944203     2.53805004
               3.01644009     3.57652955     4.23227104     5.00000000

     Gradients computed in reciprocal space

[...]

     Starting wfc are  147 randomized atomic wfcs

     Self-consistent Calculation

[...]

     total energy              =   -2583.01118250 Ry
     Harris-Foulkes estimate   =   -2583.01118230 Ry
     estimated scf accuracy    <       0.00000103 Ry

[...]

     iteration # 35     ecut=    36.75 Ry     beta=0.10
     Davidson diagonalization with overlap
     ethr =  5.46E-10,  avg # of iterations =  1.4

[...]

     negative rho (up, down):  2.472E-01 2.649E-01

[...]

     Adding external electric field

     Computed dipole along edir(3) :
        Dipole                0.0003 Ry au,          0.0009 Debye
        Dipole field          0.0000 Ry au

        Potential amp.       -0.0001 Ry
        Total length         44.9302 bohr

     Magnetic moment per site:
     atom:    1    charge:    2.7027    magn:    0.0655    constr:    0.0000
     atom:    2    charge:    2.7027    magn:    0.0655    constr:    0.0000
     atom:    3    charge:    2.7027    magn:    0.0655    constr:    0.0000
     atom:    4    charge:    9.3521    magn:    0.4640    constr:    0.0000
     atom:    5    charge:    2.6981    magn:    0.0710    constr:    0.0000
     atom:    6    charge:    2.6981    magn:    0.0710    constr:    0.0000
     atom:    7    charge:    2.6981    magn:    0.0710    constr:    0.0000
     atom:    8    charge:    9.3397    magn:    0.5384    constr:    0.0000
     atom:    9    charge:    2.7012    magn:    0.0661    constr:    0.0000
     atom:   10    charge:    2.7012    magn:    0.0661    constr:    0.0000
     atom:   11    charge:    2.7012    magn:    0.0661    constr:    0.0000
     atom:   12    charge:    9.3424    magn:    0.4690    constr:    0.0000

     End of self-consistent calculation

 ------ SPIN UP ------------

[...]

 ------ SPIN DOWN ----------

[...]

          k = 0.0621 0.0000 0.0000 ( 15468 PWs)   bands (ev):

[...]

          k =-0.0931-0.1612 0.0000 ( 15490 PWs)   bands (ev):

  -101.4682-101.3097-101.2598 -61.8655 -61.8654 -61.8651 -61.7530 -61.7527
   -61.7122 -61.7119 -61.6176 -61.5483 -45.3795 -45.2819 -45.2347 -45.2261
   -45.1578 -45.1537 -45.1183 -45.1065 -44.9896 -44.9520 -44.9394 -44.8250
   -44.7939 -44.7607 -44.7527 -44.7366 -44.7290 -44.7152 -44.6915 -44.6311
   -44.6193 -44.6154 -44.5874 -44.5824 -44.5789 -44.5640 -44.5454  -3.9793
    -3.9538  -3.2650  -3.1151  -2.9686  -2.8372  -2.8075  -2.5836  -2.5713
    -2.4346  -2.3751  -2.3272  -2.1572  -2.0222  -1.9635  -1.8676  -1.7794
    -1.7317  -1.5877  -1.4039  -1.0877  -1.0141  -0.9735  -0.8630  -0.8170
    -0.7622  -0.6627  -0.5718  -0.5713  -0.5654  -0.4718  -0.4374  -0.3799
    -0.3716  -0.2320  -0.2077  -0.1781  -0.1220  -0.0507   0.0441   0.2051
     0.2991   0.4459   0.4581   0.4601   0.5557   0.6732   0.7090   0.7411
     0.7913   0.8878   0.9044   1.0714   1.0863   1.2945   1.3539   1.4284
     1.4584   1.6323   1.7115   1.7594   1.8457   2.0000   2.3843   3.6117
     3.7946   3.8867   4.7546   4.9002   5.4350   5.8718   6.0066   7.1007
     7.2221   7.4343   7.4490   8.0237   8.0350   8.1757   8.1798   9.2649
     9.2753   9.4442   9.4958   9.8506

     the Fermi energy is     1.3353 ev

!    total energy              =   -2583.01118381 Ry
     Harris-Foulkes estimate   =   -2583.01118267 Ry
     estimated scf accuracy    <       0.00000045 Ry

     The total energy is the sum of the following terms:

     one-electron contribution =  -22250.02788089 Ry
     hartree contribution      =   11158.52737551 Ry
     xc contribution           =    -389.37842548 Ry
     ewald contribution        =    8897.98401800 Ry
     electric field correction =       0.00000000 Ry
     smearing contrib. (-TS)   =      -0.11627096 Ry

     total magnetization       =     6.09 Bohr mag/cell
     absolute magnetization    =     6.57 Bohr mag/cell

     convergence has been achieved in  35 iterations

 BEEF-vdW xc energy contributions
           1 :   -340.282801358187
           2 :    311.300995911969
           3 :   -261.659350231448
           4 :    204.415755253626
           5 :   -152.266670472178
           6 :    113.327560700738
           7 :   -89.4060917480257
           8 :    77.0487592480828
           9 :   -70.4031198444032
          10 :    64.2890349380318
          11 :   -56.1058639005648
          12 :    46.0288755487500
          13 :   -35.8864313862406
          14 :    27.6231912504650
          15 :   -22.2077199520031
          16 :    19.3682711552603
          17 :   -18.0211468488278
          18 :    16.9569498864440
          19 :   -15.3818865591580
          20 :    13.1101385228736
          21 :   -10.4400176824450
          22 :    7.87709991806594
          23 :   -5.87610886818368
          24 :    4.67751519767614
          25 :   -4.24310222232685
          26 :    4.27614912928129
          27 :   -4.33304068310048
          28 :    4.00973679593523
          29 :   -3.13902917369796
          30 :    1.89133138316731
          31 :   -32.0294667383733
          32 :   -23.5952521626784

     Forces acting on atoms (Ry/au):

     negative rho (up, down):  2.472E-01 2.649E-01
     atom    1 type  1   force =    -0.00000015    0.00531925    0.00836825
     atom    2 type  1   force =     0.00460675   -0.00266081    0.00836787
     atom    3 type  1   force =    -0.00460773   -0.00266119    0.00836876
     atom    4 type  2   force =     0.00000536   -0.00001046    0.01300150
     atom    5 type  1   force =    -0.00000013    0.00003757   -0.01033330
     atom    6 type  1   force =     0.00003514   -0.00002150   -0.01033213
     atom    7 type  1   force =    -0.00003406   -0.00002072   -0.01033309
     atom    8 type  2   force =     0.00000445    0.00001018   -0.00748423
     atom    9 type  1   force =     0.00000051    0.00020840    0.00029156
     atom   10 type  1   force =     0.00018216   -0.00010719    0.00029349
     atom   11 type  1   force =    -0.00017989   -0.00010649    0.00029254
     atom   12 type  2   force =    -0.00001240    0.00001295   -0.00050123

     Total force =     0.029000     Total SCF correction =     0.001950

     entering subroutine stress ...

     negative rho (up, down):  2.472E-01 2.649E-01
          total   stress  (Ry/bohr**3)                   (kbar)     P=  -45.08
  -0.00033129   0.00000000  -0.00000000        -48.73      0.00     -0.00
   0.00000000  -0.00033129   0.00000000          0.00    -48.73      0.00
  -0.00000000   0.00000000  -0.00025679         -0.00      0.00    -37.77

 !ASE

     Writing output data file calc.save

     General routines

     Parallel routines

   This run was terminated on:   2:15:48   1Jan2019

   JOB DONE.
Job  /afs/slac/g/suncat/bin/suncat-tsmpirun -x LD_LIBRARY_PATH -wdir /scratch/qe648889_j1rxL pw.x -in pw.inp

TID   HOST_NAME   COMMAND_LINE            STATUS            TERMINATION_TIME
00000 suncat0139 pw.x -in pw.inp   Done                     01/01/2019 02:15:48
00001 suncat0139 pw.x -in pw.inp   Done                     01/01/2019 02:15:48
00002 suncat0139 pw.x -in pw.inp   Done                     01/01/2019 02:15:48
00003 suncat0139 pw.x -in pw.inp   Done                     01/01/2019 02:15:48
00004 suncat0139 pw.x -in pw.inp   Done                     01/01/2019 02:15:48
00005 suncat0139 pw.x -in pw.inp   Done                     01/01/2019 02:15:48
00006 suncat0139 pw.x -in pw.inp   Done                     01/01/2019 02:15:48
00007 suncat0139 pw.x -in pw.inp   Done                     01/01/2019 02:15:48
00008 suncat0133 pw.x -in pw.inp   Done                     01/01/2019 02:15:48
00009 suncat0133 pw.x -in pw.inp   Done                     01/01/2019 02:15:48
00010 suncat0133 pw.x -in pw.inp   Done                     01/01/2019 02:15:48
00011 suncat0133 pw.x -in pw.inp   Done                     01/01/2019 02:15:48
00012 suncat0133 pw.x -in pw.inp   Done                     01/01/2019 02:15:48
00013 suncat0133 pw.x -in pw.inp   Done                     01/01/2019 02:15:48
00014 suncat0133 pw.x -in pw.inp   Done                     01/01/2019 02:15:48
00015 suncat0133 pw.x -in pw.inp   Done                     01/01/2019 02:15:48
00016 suncat0132 pw.x -in pw.inp   Done                     01/01/2019 02:15:48
00017 suncat0132 pw.x -in pw.inp   Done                     01/01/2019 02:15:48
00018 suncat0132 pw.x -in pw.inp   Done                     01/01/2019 02:15:48
00019 suncat0132 pw.x -in pw.inp   Done                     01/01/2019 02:15:48
00020 suncat0132 pw.x -in pw.inp   Done                     01/01/2019 02:15:48
00021 suncat0132 pw.x -in pw.inp   Done                     01/01/2019 02:15:48
00022 suncat0132 pw.x -in pw.inp   Done                     01/01/2019 02:15:48
00023 suncat0132 pw.x -in pw.inp   Done                     01/01/2019 02:15:48
00024 suncat0131 pw.x -in pw.inp   Done                     01/01/2019 02:15:48
00025 suncat0131 pw.x -in pw.inp   Done                     01/01/2019 02:15:48
00026 suncat0131 pw.x -in pw.inp   Done                     01/01/2019 02:15:48
00027 suncat0131 pw.x -in pw.inp   Done                     01/01/2019 02:15:48
00028 suncat0131 pw.x -in pw.inp   Done                     01/01/2019 02:15:48
00029 suncat0131 pw.x -in pw.inp   Done                     01/01/2019 02:15:48
00030 suncat0131 pw.x -in pw.inp   Done                     01/01/2019 02:15:48
00031 suncat0131 pw.x -in pw.inp   Done                     01/01/2019 02:15:48
00032 suncat0130 pw.x -in pw.inp   Done                     01/01/2019 02:15:48
00033 suncat0130 pw.x -in pw.inp   Done                     01/01/2019 02:15:48
00034 suncat0130 pw.x -in pw.inp   Done                     01/01/2019 02:15:48
00035 suncat0130 pw.x -in pw.inp   Done                     01/01/2019 02:15:48
00036 suncat0130 pw.x -in pw.inp   Done                     01/01/2019 02:15:48
00037 suncat0130 pw.x -in pw.inp   Done                     01/01/2019 02:15:48
00038 suncat0130 pw.x -in pw.inp   Done                     01/01/2019 02:15:48
00039 suncat0130 pw.x -in pw.inp   Done                     01/01/2019 02:15:48
00040 suncat0124 pw.x -in pw.inp   Done                     01/01/2019 02:15:48
00041 suncat0124 pw.x -in pw.inp   Done                     01/01/2019 02:15:48
00042 suncat0124 pw.x -in pw.inp   Done                     01/01/2019 02:15:48
00043 suncat0124 pw.x -in pw.inp   Done                     01/01/2019 02:15:48
00044 suncat0124 pw.x -in pw.inp   Done                     01/01/2019 02:15:48
00045 suncat0124 pw.x -in pw.inp   Done                     01/01/2019 02:15:48
00046 suncat0124 pw.x -in pw.inp   Done                     01/01/2019 02:15:48
00047 suncat0124 pw.x -in pw.inp   Done                     01/01/2019 02:15:48
00048 suncat0123 pw.x -in pw.inp   Done                     01/01/2019 02:15:48
00049 suncat0123 pw.x -in pw.inp   Done                     01/01/2019 02:15:48
00050 suncat0123 pw.x -in pw.inp   Done                     01/01/2019 02:15:48
00051 suncat0123 pw.x -in pw.inp   Done                     01/01/2019 02:15:48
00052 suncat0123 pw.x -in pw.inp   Done                     01/01/2019 02:15:48
00053 suncat0123 pw.x -in pw.inp   Done                     01/01/2019 02:15:48
00054 suncat0123 pw.x -in pw.inp   Done                     01/01/2019 02:15:48
00055 suncat0123 pw.x -in pw.inp   Done                     01/01/2019 02:15:48
00056 suncat0122 pw.x -in pw.inp   Done                     01/01/2019 02:15:48
00057 suncat0122 pw.x -in pw.inp   Done                     01/01/2019 02:15:48
00058 suncat0122 pw.x -in pw.inp   Done                     01/01/2019 02:15:48
00059 suncat0122 pw.x -in pw.inp   Done                     01/01/2019 02:15:48
00060 suncat0122 pw.x -in pw.inp   Done                     01/01/2019 02:15:48
00061 suncat0122 pw.x -in pw.inp   Done                     01/01/2019 02:15:48
00062 suncat0122 pw.x -in pw.inp   Done                     01/01/2019 02:15:48
00063 suncat0122 pw.x -in pw.inp   Done                     01/01/2019 02:15:48