     Program PWSCF v.5.1rc2 (svn rev. 11289) starts on 26Dec2018 at 10:19:34

     Current dimensions of program PWSCF are:
     Max number of different atomic species (ntypx) = 10
     Max number of k-points (npk) =  40000
     Max angular momentum in pseudopotentials (lmaxx) =  3
     Presently stress not available with electric field

     IMPORTANT: XC functional enforced from input :
     Exchange-correlation      = BEEF-VDW ( 1  4 27 13 2)
     Any further DFT definition will be discarded
     Please, verify this is what you really want

     Subspace diagonalization in iterative solution of the eigenvalue problem:
     a serial algorithm will be used

     bravais-lattice index     =            0
     lattice parameter (alat)  =       1.8897  a.u.
     unit-cell volume          =    6099.6582 (a.u.)^3
     number of atoms/cell      =           12
     number of atomic types    =            2
     number of electrons       =       141.00
     number of Kohn-Sham states=          100
     kinetic-energy cutoff     =      36.7493  Ry
     charge density cutoff     =     367.4932  Ry
     convergence threshold     =      1.0E-06
     mixing beta               =       0.1000
     number of iterations used =           10  plain     mixing
     Exchange-correlation      = BEEF-VDW ( 1  4 27 13 2)
     nstep                     =           50

     celldm(1)=   1.889726  celldm(2)=   0.000000  celldm(3)=   0.000000
     celldm(4)=   0.000000  celldm(5)=   0.000000  celldm(6)=   0.000000

     crystal axes: (cart. coord. in units of alat)
               a(1) = (   6.429287   0.000000   0.000000 )
               a(2) = (  -3.214644   5.567926   0.000000 )
               a(3) = (   0.000000   0.000000  25.249491 )

     reciprocal axes: (cart. coord. in units 2 pi/alat)
               b(1) = (  0.155538  0.089800  0.000000 )
               b(2) = (  0.000000  0.179600  0.000000 )
               b(3) = (  0.000000  0.000000  0.039605 )

     PseudoPot. # 1 for Hg read from file:
     /afs/slac.stanford.edu/u/if/mamunm/psp/gbrv1.5pbe/Hg.UPF
     MD5 check sum: 8f42caffe07f7fd9c0a564347f8c5498
     Pseudo is Ultrasoft + core correction, Zval = 12.0
     Generated by new atomic code, or converted to UPF format
     Using radial grid of  985 points,  6 beta functions with:
                l(1) =   0
                l(2) =   0
                l(3) =   1
                l(4) =   1
                l(5) =   2
                l(6) =   2
     Q(r) pseudized with  8 coefficients,  rinner =    2.000   2.000   2.000
                                                       2.000   2.000

     PseudoPot. # 2 for Sc read from file:
     /afs/slac.stanford.edu/u/if/mamunm/psp/gbrv1.5pbe/Sc.UPF
     MD5 check sum: db30a2753ba66ef00f23801d899b7e7f
     Pseudo is Ultrasoft + core correction, Zval = 11.0
     Generated by new atomic code, or converted to UPF format
     Using radial grid of  849 points,  6 beta functions with:
                l(1) =   0
                l(2) =   0
                l(3) =   1
                l(4) =   1
                l(5) =   2
                l(6) =   2
     Q(r) pseudized with  6 coefficients,  rinner =    1.200   1.200   1.200
                                                       1.200   1.200

     vdW kernel table read from file vdW_kernel_table
     MD5 check sum: 095c7af220d748ca6e76c0b4c6cfb241

     atomic species   valence    mass     pseudopotential
        Hg1           12.00   200.59200     Hg( 1.00)
        Sc1           11.00    44.95591     Sc( 1.00)

     No symmetry found

   Cartesian axes

     site n.     atom                  positions (alat units)
         1           Hg1 tau(   1) = (   0.0000000   0.0000000  10.0000000  )
         2           Hg1 tau(   2) = (  -1.6073218   2.7839630  10.0000000  )
         3           Hg1 tau(   3) = (   1.6073218   2.7839630  10.0000000  )
         4           Sc1 tau(   4) = (   3.2146436   0.0000000  10.0000000  )
         5           Hg1 tau(   5) = (   3.2146436   1.8559753  12.6247455  )
         6           Hg1 tau(   6) = (   1.6073218   4.6399383  12.6247455  )
         7           Hg1 tau(   7) = (  -1.6073218   4.6399383  12.6247455  )
         8           Sc1 tau(   8) = (   0.0000000   1.8559753  12.6247455  )
         9           Hg1 tau(   9) = (  -0.0000000   3.7119506  15.2494909  )
        10           Hg1 tau(  10) = (   1.6073218   0.9279877  15.2494909  )
        11           Hg1 tau(  11) = (   4.8219653   0.9279877  15.2494909  )
        12           Sc1 tau(  12) = (   3.2146436   3.7119506  15.2494909  )

     number of k points=    20  Fermi-Dirac smearing, width (Ry)=  0.0110
                       cart. coord. in units 2pi/alat
        k(    1) = (   0.0000000   0.0000000   0.0000000), wk =   0.0555556
        k(    2) = (   0.0000000   0.0299333   0.0000000), wk =   0.1111111
        k(    3) = (   0.0000000   0.0598667   0.0000000), wk =   0.1111111
        k(    4) = (   0.0000000  -0.0898000   0.0000000), wk =   0.0555556
        k(    5) = (   0.0259230   0.0149667   0.0000000), wk =   0.1111111
        k(    6) = (   0.0259230   0.0449000   0.0000000), wk =   0.1111111
        k(    7) = (   0.0259230   0.0748334   0.0000000), wk =   0.1111111
        k(    8) = (   0.0259230  -0.0748334   0.0000000), wk =   0.1111111
        k(    9) = (   0.0259230  -0.0449000   0.0000000), wk =   0.1111111
        k(   10) = (   0.0259230  -0.0149667   0.0000000), wk =   0.1111111
        k(   11) = (   0.0518461   0.0299333   0.0000000), wk =   0.1111111
        k(   12) = (   0.0518461   0.0598667   0.0000000), wk =   0.1111111
        k(   13) = (   0.0518461   0.0898000   0.0000000), wk =   0.1111111
        k(   14) = (   0.0518461  -0.0598667   0.0000000), wk =   0.1111111
        k(   15) = (   0.0518461  -0.0299333   0.0000000), wk =   0.1111111
        k(   16) = (   0.0518461   0.0000000   0.0000000), wk =   0.1111111
        k(   17) = (  -0.0777691  -0.0449000   0.0000000), wk =   0.0555556
        k(   18) = (  -0.0777691  -0.0149667   0.0000000), wk =   0.1111111
        k(   19) = (  -0.0777691   0.0149667   0.0000000), wk =   0.1111111
        k(   20) = (  -0.0777691  -0.1347001   0.0000000), wk =   0.0555556

     Largest allocated arrays     est. size (Mb)     dimensions
     Largest temporary arrays     est. size (Mb)     dimensions

     Initial potential from superposition of free atoms
     Check: negative starting charge=   -0.000181

     starting charge  140.99227, renormalised to  141.00000

     negative rho (up, down):  1.808E-04 0.000E+00

     *
     * You are using vdW-DF for exchange-correlation in this calculation.
     * Please cite the following three references that made this development
     * possible:
     *
     *   M. Dion, H. Rydberg, E. Schroder, D. C. Langreth, and
     *   B. I. Lundqvist, Phys. Rev. Lett. 92, 246401 (2004).
     *
     *   T. Thonhauser, V. R. Cooper, S. Li, A. Puzder, P. Hyldgaard, and
     *   D. C. Langreth, Phys. Rev. B 76, 125112 (2007).
     *
     *   G. Roman-Perez and J. M. Soler, Phys. Rev. Lett. 103, 096102 (2009).
     *
     *
     * If you are using vdW-DF2, please also cite:
     *
     *   K. Lee, E. D. Murray, L. Kong, B. I. Lundqvist, and
     *   D. C. Langreth, Phys. Rev. B 82, 081101(R) (2010).
     *
     *
     * If you are calculating the stress with vdW-DF, please also cite:
     *
     *   R. Sabatini, E. Kucukbenli, B. Kolb, T. Thonhauser, and
     *   S. de Gironcoli, J. Phys.: Condens. Matter 24, 424209 (2012).
     *

     Carrying out vdW-DF run using the following parameters:

     Nqs =      20    Nr_points =    1024   r_max =   100.000
     q_mesh =
               0.00001000     0.04494208     0.09755937     0.15916263
               0.23128650     0.31572767     0.41458969     0.53033537
               0.66584808     0.82450364     1.01025438     1.22772762
               1.48234092     1.78043706     2.12944203     2.53805004
               3.01644009     3.57652955     4.23227104     5.00000000

     Gradients computed in reciprocal space

     Adding external electric field

     Computed dipole along edir(3) :
        Dipole               -0.0000 Ry au,         -0.0000 Debye
        Dipole field         -0.0000 Ry au

        Potential amp.        0.0000 Ry
        Total length         46.5218 bohr

     Starting wfc are  120 randomized atomic wfcs

     Self-consistent Calculation

     iteration #  1     ecut=    36.75 Ry     beta=0.10
     Davidson diagonalization with overlap
     ethr =  1.00E-02,  avg # of iterations =  6.4

     Threshold (ethr) on eigenvalues was too large:
     Diagonalizing with lowered threshold

     Davidson diagonalization with overlap
     ethr =  3.89E-04,  avg # of iterations =  6.3

[...]

     total energy              =   -1266.41699983 Ry
     Harris-Foulkes estimate   =   -1266.50822931 Ry
     estimated scf accuracy    <       0.56284777 Ry

[...]

     End of self-consistent calculation

          k = 0.0000 0.0000 0.0000 ( 22995 PWs)   bands (ev):

   -50.0869 -50.0868 -50.0370 -28.7561 -28.7555 -28.6777 -28.6011 -28.6011
   -28.6010 -28.6010 -28.5668 -28.5668  -7.5062  -7.1958  -7.1496  -7.1176
    -7.1174  -7.1095  -7.0896  -7.0412  -7.0045  -7.0045  -6.9011  -6.9009
    -6.8619  -6.8619  -6.7365  -6.6171  -6.6128  -6.6128  -6.4768  -6.4282
    -6.4282  -6.3107  -6.2817  -6.2278  -6.2275  -6.1329  -6.1327  -6.1153
    -6.1153  -6.0509  -6.0508  -5.9958  -5.8883  -5.8883  -5.8674  -5.8674
    -5.8234  -5.8234  -5.6595  -5.6594  -5.6350  -5.5346  -5.4813  -5.4813
    -5.4767  -5.3726  -5.3506  -3.3940  -1.9841  -1.9840  -1.6908  -1.6908
    -0.7636  -0.7636  -0.5868  -0.0678   0.1431   0.1980   0.1981   0.5858
     1.3917   1.3917   1.4329   1.5048   1.5048   1.8417   1.8417   1.9972
     1.9972   2.2293   2.3370   2.4282   2.4282   2.8822   2.8822   2.8986
     2.8986   3.3615   3.3810   3.3810   3.8164   4.0576   4.4782   4.6644
     4.7939   5.6157   5.8629   6.1859

[...]

          k =-0.0778-0.0449 0.0000 ( 22956 PWs)   bands (ev):

[...]

     the Fermi energy is     0.8486 ev

!    total energy              =   -1266.43561883 Ry
     Harris-Foulkes estimate   =   -1266.43561854 Ry
     estimated scf accuracy    <       0.00000090 Ry

     The total energy is the sum of the following terms:

     one-electron contribution =   -7812.79189001 Ry
     hartree contribution      =    3970.08741711 Ry
     xc contribution           =    -405.44329371 Ry
     ewald contribution        =    2981.77727058 Ry
     electric field correction =       0.00000000 Ry
     smearing contrib. (-TS)   =      -0.06512280 Ry

     convergence has been achieved in  14 iterations

 BEEF-vdW xc energy contributions
           1 :   -354.222520458127
           2 :    324.540189856199
           3 :   -273.728926863153
           4 :    214.841003832443
           5 :   -160.073967123125
           6 :    116.984456189424
           7 :   -87.5115217267224
           8 :    69.3064062936012
           9 :   -58.0707838602253
          10 :    49.6995951254638
          11 :   -41.5685655594619
          12 :    32.8521856591072
          13 :   -24.1187724926400
[...]
     /afs/slac.stanford.edu/u/if/mamunm/psp/gbrv1.5pbe/Hg.UPF
     MD5 check sum: 8f42caffe07f7fd9c0a564347f8c5498
     Pseudo is Ultrasoft + core correction, Zval = 12.0
     Generated by new atomic code, or converted to UPF format
     Using radial grid of  985 points,  6 beta functions with:
                l(1) =   0
                l(2) =   0
                l(3) =   1
                l(4) =   1
                l(5) =   2
                l(6) =   2
     Q(r) pseudized with  8 coefficients,  rinner =    2.000   2.000   2.000
                                                       2.000   2.000

     PseudoPot. # 2 for Sc read from file:
     /afs/slac.stanford.edu/u/if/mamunm/psp/gbrv1.5pbe/Sc.UPF
     MD5 check sum: db30a2753ba66ef00f23801d899b7e7f
     Pseudo is Ultrasoft + core correction, Zval = 11.0
     Generated by new atomic code, or converted to UPF format
     Using radial grid of  849 points,  6 beta functions with:
                l(1) =   0
                l(2) =   0
                l(3) =   1
                l(4) =   1
                l(5) =   2
                l(6) =   2
     Q(r) pseudized with  6 coefficients,  rinner =    1.200   1.200   1.200
                                                       1.200   1.200

     vdW kernel table read from file vdW_kernel_table
     MD5 check sum: 095c7af220d748ca6e76c0b4c6cfb241

     atomic species   valence    mass     pseudopotential
        Hg1           12.00   200.59200     Hg( 1.00)
        Sc1           11.00    44.95591     Sc( 1.00)

     No symmetry found

   Cartesian axes

     site n.     atom                  positions (alat units)
         1           Hg1 tau(   1) = (   0.0000000   0.0000000  10.0000000  )
         2           Hg1 tau(   2) = (  -1.6073218   2.7839630  10.0000000  )
         3           Hg1 tau(   3) = (   1.6073218   2.7839630  10.0000000  )
         4           Sc1 tau(   4) = (   3.2146436   0.0000000  10.0000000  )
         5           Hg1 tau(   5) = (   3.2146436   1.8559753  12.6247455  )
         6           Hg1 tau(   6) = (   1.6073218   4.6399383  12.6247455  )
         7           Hg1 tau(   7) = (  -1.6073218   4.6399383  12.6247455  )
         8           Sc1 tau(   8) = (   0.0000000   1.8559753  12.6247455  )
         9           Hg1 tau(   9) = (  -0.0000065   3.7173466  15.4792393  )
        10           Hg1 tau(  10) = (   1.6122046   0.9252061  15.4791991  )
        11           Hg1 tau(  11) = (   4.8170550   0.9251891  15.4792296  )
        12           Sc1 tau(  12) = (   3.2146449   3.7120620  14.9697447  )

     number of k points=    20  Fermi-Dirac smearing, width (Ry)=  0.0110
                       cart. coord. in units 2pi/alat
        k(    1) = (   0.0000000   0.0000000   0.0000000), wk =   0.0555556
        k(    2) = (   0.0000000   0.0299333   0.0000000), wk =   0.1111111
        k(    3) = (   0.0000000   0.0598667   0.0000000), wk =   0.1111111
        k(    4) = (   0.0000000  -0.0898000   0.0000000), wk =   0.0555556
        k(    5) = (   0.0259230   0.0149667   0.0000000), wk =   0.1111111
        k(    6) = (   0.0259230   0.0449000   0.0000000), wk =   0.1111111
        k(    7) = (   0.0259230   0.0748334   0.0000000), wk =   0.1111111
        k(    8) = (   0.0259230  -0.0748334   0.0000000), wk =   0.1111111
        k(    9) = (   0.0259230  -0.0449000   0.0000000), wk =   0.1111111
        k(   10) = (   0.0259230  -0.0149667   0.0000000), wk =   0.1111111
        k(   11) = (   0.0518461   0.0299333   0.0000000), wk =   0.1111111
        k(   12) = (   0.0518461   0.0598667   0.0000000), wk =   0.1111111
        k(   13) = (   0.0518461   0.0898000   0.0000000), wk =   0.1111111
        k(   14) = (   0.0518461  -0.0598667   0.0000000), wk =   0.1111111
        k(   15) = (   0.0518461  -0.0299333   0.0000000), wk =   0.1111111
        k(   16) = (   0.0518461   0.0000000   0.0000000), wk =   0.1111111
        k(   17) = (  -0.0777691  -0.0449000   0.0000000), wk =   0.0555556
        k(   18) = (  -0.0777691  -0.0149667   0.0000000), wk =   0.1111111
        k(   19) = (  -0.0777691   0.0149667   0.0000000), wk =   0.1111111
        k(   20) = (  -0.0777691  -0.1347001   0.0000000), wk =   0.0555556

     Largest allocated arrays     est. size (Mb)     dimensions
     Largest temporary arrays     est. size (Mb)     dimensions

     Initial potential from superposition of free atoms
     Check: negative starting charge=   -0.000174

     starting charge  140.99227, renormalised to  141.00000

[...]

     *
     * You are using vdW-DF for exchange-correlation in this calculation.
     * Please cite the following three references that made this development
     * possible:
     *
     *   M. Dion, H. Rydberg, E. Schroder, D. C. Langreth, and
     *   B. I. Lundqvist, Phys. Rev. Lett. 92, 246401 (2004).
     *
     *   T. Thonhauser, V. R. Cooper, S. Li, A. Puzder, P. Hyldgaard, and
     *   D. C. Langreth, Phys. Rev. B 76, 125112 (2007).
     *
     *   G. Roman-Perez and J. M. Soler, Phys. Rev. Lett. 103, 096102 (2009).
     *
     *
     * If you are using vdW-DF2, please also cite:
     *
     *   K. Lee, E. D. Murray, L. Kong, B. I. Lundqvist, and
     *   D. C. Langreth, Phys. Rev. B 82, 081101(R) (2010).
     *
     *
     * If you are calculating the stress with vdW-DF, please also cite:
     *
     *   R. Sabatini, E. Kucukbenli, B. Kolb, T. Thonhauser, and
     *   S. de Gironcoli, J. Phys.: Condens. Matter 24, 424209 (2012).
     *

     Carrying out vdW-DF run using the following parameters:

     Nqs =      20    Nr_points =    1024   r_max =   100.000
     q_mesh =
               0.00001000     0.04494208     0.09755937     0.15916263
               0.23128650     0.31572767     0.41458969     0.53033537
               0.66584808     0.82450364     1.01025438     1.22772762
               1.48234092     1.78043706     2.12944203     2.53805004
               3.01644009     3.57652955     4.23227104     5.00000000

     Gradients computed in reciprocal space

[...]

     Starting wfc are  120 randomized atomic wfcs

     Self-consistent Calculation

[...]

     Threshold (ethr) on eigenvalues was too large:
     Diagonalizing with lowered threshold

     Davidson diagonalization with overlap
     ethr =  4.38E-04,  avg # of iterations =  5.5

[...]

     total energy              =   -1266.45101731 Ry
     Harris-Foulkes estimate   =   -1266.45101566 Ry
     estimated scf accuracy    <       0.00000150 Ry

     iteration # 15     ecut=    36.75 Ry     beta=0.10
     Davidson diagonalization with overlap
     ethr =  1.07E-09,  avg # of iterations =  2.0

[...]

     negative rho (up, down):  9.614E-05 0.000E+00

     Adding external electric field

     Computed dipole along edir(3) :
        Dipole               -0.0951 Ry au,         -0.2416 Debye
        Dipole field         -0.0002 Ry au

        Potential amp.        0.0182 Ry
        Total length         46.5218 bohr

     End of self-consistent calculation

[...]

          k = 0.0518 0.0000 0.0000 ( 22940 PWs)   bands (ev):

[...]

          k =-0.0778-0.1347 0.0000 ( 22956 PWs)   bands (ev):

   -50.1810 -50.1579 -50.0405 -28.8305 -28.8289 -28.6982 -28.6975 -28.6777
   -28.6733 -28.6726 -28.5779 -28.5774  -7.1682  -7.0429  -7.0042  -6.8933
    -6.8756  -6.8552  -6.8190  -6.7969  -6.7898  -6.7584  -6.7079  -6.6994
    -6.6556  -6.5895  -6.5625  -6.5397  -6.4787  -6.4586  -6.4185  -6.3772
    -6.3514  -6.3383  -6.2919  -6.2732  -6.2659  -6.2527  -6.2518  -6.2136
    -6.2105  -6.2064  -6.2027  -6.1650  -6.1565  -6.1443  -6.1112  -6.1045
    -6.0718  -6.0387  -6.0057  -5.9432  -5.9135  -5.8457  -5.7874  -5.7142
    -5.6410  -5.5389  -5.5187  -4.3641  -4.2497  -3.2327  -2.7670  -2.5693
    -1.7684  -1.0440  -0.5378  -0.3978   0.4262   0.8251   0.8408   0.8987
     1.0646   1.1614   1.3463   1.4326   1.6557   1.7917   2.0359   2.0569
     2.3741   2.5155   2.5919   2.7469   2.9385   3.0053   3.5773   3.9130
     4.0485   4.1396   4.5792   4.7251   4.8059   4.8789   5.0555   5.0779
     5.2156   5.5162   5.7271   5.8270

     the Fermi energy is     0.7684 ev

!    total energy              =   -1266.45101742 Ry
     Harris-Foulkes estimate   =   -1266.45101795 Ry
     estimated scf accuracy    <       0.00000062 Ry

     The total energy is the sum of the following terms:

     one-electron contribution =   -7683.04944337 Ry
     hartree contribution      =    3904.93284035 Ry
     xc contribution           =    -405.40782933 Ry
     ewald contribution        =    2917.14120481 Ry
     electric field correction =       0.00001862 Ry
     smearing contrib. (-TS)   =      -0.06780849 Ry

     convergence has been achieved in  15 iterations

 BEEF-vdW xc energy contributions
           1 :   -354.222296956076
           2 :    324.471864330876
           3 :   -273.590195914457
           4 :    214.700696003392
           5 :   -160.019312278458
           6 :    117.054168914347
           7 :   -87.6643366165391
           8 :    69.4501903782667
           9 :   -58.1264280057942
          10 :    49.6476810029984
          11 :   -41.4536252899238
          12 :    32.7561118701228
          13 :   -24.1205259075497
          14 :    16.6848051657125
          15 :   -11.3496663667797
          16 :    8.23685255897772
          17 :   -6.63925600372283
          18 :    5.47213701791350
          19 :   -3.93963877245494
          20 :    1.96786894579759
          21 :  -0.117486883184256
          22 :  -0.931819275239434
          23 :   0.928721730495340
          24 :  -0.246123067051144
          25 :  -0.375710293747716
          26 :   0.317931227846429
          27 :   0.542156298926784
          28 :   -1.79587299749096
          29 :    2.78431446326022
          30 :   -2.98913768323996
          31 :   -33.7967848821314
          32 :   -24.7603997782163

     Forces acting on atoms (Ry/au):

     negative rho (up, down):  9.614E-05 0.000E+00
     atom    1 type  1   force =    -0.00000042   -0.00113933   -0.00973052
     atom    2 type  1   force =    -0.00098487    0.00057153   -0.00973358
     atom    3 type  1   force =     0.00098424    0.00056988   -0.00973289
     atom    4 type  2   force =    -0.00000014   -0.00000243    0.01963010
     atom    5 type  1   force =     0.00000022   -0.00877836    0.00187688
     atom    6 type  1   force =    -0.00760744    0.00439173    0.00188061
     atom    7 type  1   force =     0.00760657    0.00439168    0.00187910
     atom    8 type  2   force =     0.00000013   -0.00000241    0.00403586
     atom    9 type  1   force =     0.00000174    0.00077256    0.00006276
     atom   10 type  1   force =     0.00065830   -0.00038749    0.00006606
     atom   11 type  1   force =    -0.00065790   -0.00038865    0.00006741
     atom   12 type  2   force =    -0.00000043    0.00000130   -0.00030179

     Total force =     0.030553     Total SCF correction =     0.002576

     entering subroutine stress ...

     negative rho (up, down):  9.614E-05 0.000E+00
          total   stress  (Ry/bohr**3)                   (kbar)     P=   -2.34
  -0.00002822  -0.00000000  -0.00000000         -4.15     -0.00     -0.00
  -0.00000000  -0.00002819  -0.00000000         -0.00     -4.15     -0.00
  -0.00000000  -0.00000000   0.00000866         -0.00     -0.00      1.27

 !ASE

     Writing output data file calc.save

     General routines

     Parallel routines

   This run was terminated on:  12:48: 0  26Dec2018

   JOB DONE.
Job  /afs/slac/g/suncat/bin/suncat-tsmpirun -x LD_LIBRARY_PATH -wdir /scratch/qe109831_TuVDx pw.x -in pw.inp

TID   HOST_NAME   COMMAND_LINE            STATUS            TERMINATION_TIME
00000 suncat0083 pw.x -in pw.inp   Done                     12/26/2018 12:48:00
00001 suncat0083 pw.x -in pw.inp   Done                     12/26/2018 12:48:00
00002 suncat0083 pw.x -in pw.inp   Done                     12/26/2018 12:48:00
00003 suncat0083 pw.x -in pw.inp   Done                     12/26/2018 12:48:00
00004 suncat0083 pw.x -in pw.inp   Done                     12/26/2018 12:48:00
00005 suncat0083 pw.x -in pw.inp   Done                     12/26/2018 12:48:00
00006 suncat0083 pw.x -in pw.inp   Done                     12/26/2018 12:48:00
00007 suncat0083 pw.x -in pw.inp   Done                     12/26/2018 12:48:00
00008 suncat0081 pw.x -in pw.inp   Done                     12/26/2018 12:48:00
00009 suncat0081 pw.x -in pw.inp   Done                     12/26/2018 12:48:00
00010 suncat0081 pw.x -in pw.inp   Done                     12/26/2018 12:48:00
00011 suncat0081 pw.x -in pw.inp   Done                     12/26/2018 12:48:00
00012 suncat0081 pw.x -in pw.inp   Done                     12/26/2018 12:48:00
00013 suncat0081 pw.x -in pw.inp   Done                     12/26/2018 12:48:00
00014 suncat0081 pw.x -in pw.inp   Done                     12/26/2018 12:48:00
00015 suncat0081 pw.x -in pw.inp   Done                     12/26/2018 12:48:00
00016 suncat0076 pw.x -in pw.inp   Done                     12/26/2018 12:48:00
00017 suncat0076 pw.x -in pw.inp   Done                     12/26/2018 12:48:00
00018 suncat0076 pw.x -in pw.inp   Done                     12/26/2018 12:48:00
00019 suncat0076 pw.x -in pw.inp   Done                     12/26/2018 12:48:00
00020 suncat0076 pw.x -in pw.inp   Done                     12/26/2018 12:48:00
00021 suncat0076 pw.x -in pw.inp   Done                     12/26/2018 12:48:00
00022 suncat0076 pw.x -in pw.inp   Done                     12/26/2018 12:48:00
00023 suncat0076 pw.x -in pw.inp   Done                     12/26/2018 12:48:00
00024 suncat0041 pw.x -in pw.inp   Done                     12/26/2018 12:48:00
00025 suncat0041 pw.x -in pw.inp   Done                     12/26/2018 12:48:00
00026 suncat0041 pw.x -in pw.inp   Done                     12/26/2018 12:48:00
00027 suncat0041 pw.x -in pw.inp   Done                     12/26/2018 12:48:00
00028 suncat0041 pw.x -in pw.inp   Done                     12/26/2018 12:48:00
00029 suncat0041 pw.x -in pw.inp   Done                     12/26/2018 12:48:00
00030 suncat0041 pw.x -in pw.inp   Done                     12/26/2018 12:48:00
00031 suncat0041 pw.x -in pw.inp   Done                     12/26/2018 12:48:00
00032 suncat0039 pw.x -in pw.inp   Done                     12/26/2018 12:48:00
00033 suncat0039 pw.x -in pw.inp   Done                     12/26/2018 12:48:00
00034 suncat0039 pw.x -in pw.inp   Done                     12/26/2018 12:48:00
00035 suncat0039 pw.x -in pw.inp   Done                     12/26/2018 12:48:00
00036 suncat0039 pw.x -in pw.inp   Done                     12/26/2018 12:48:00
00037 suncat0039 pw.x -in pw.inp   Done                     12/26/2018 12:48:00
00038 suncat0039 pw.x -in pw.inp   Done                     12/26/2018 12:48:00
00039 suncat0039 pw.x -in pw.inp   Done                     12/26/2018 12:48:00
00040 suncat0034 pw.x -in pw.inp   Done                     12/26/2018 12:48:00
00041 suncat0034 pw.x -in pw.inp   Done                     12/26/2018 12:48:00
00042 suncat0034 pw.x -in pw.inp   Done                     12/26/2018 12:48:00
00043 suncat0034 pw.x -in pw.inp   Done                     12/26/2018 12:48:00
00044 suncat0034 pw.x -in pw.inp   Done                     12/26/2018 12:48:00
00045 suncat0034 pw.x -in pw.inp   Done                     12/26/2018 12:48:00
00046 suncat0034 pw.x -in pw.inp   Done                     12/26/2018 12:48:00
00047 suncat0034 pw.x -in pw.inp   Done                     12/26/2018 12:48:00
00048 suncat0029 pw.x -in pw.inp   Done                     12/26/2018 12:48:00
00049 suncat0029 pw.x -in pw.inp   Done                     12/26/2018 12:48:00
00050 suncat0029 pw.x -in pw.inp   Done                     12/26/2018 12:48:00
00051 suncat0029 pw.x -in pw.inp   Done                     12/26/2018 12:48:00
00052 suncat0029 pw.x -in pw.inp   Done                     12/26/2018 12:48:00
00053 suncat0029 pw.x -in pw.inp   Done                     12/26/2018 12:48:00
00054 suncat0029 pw.x -in pw.inp   Done                     12/26/2018 12:48:00
00055 suncat0029 pw.x -in pw.inp   Done                     12/26/2018 12:48:00
00056 suncat0199 pw.x -in pw.inp   Done                     12/26/2018 12:48:00
00057 suncat0199 pw.x -in pw.inp   Done                     12/26/2018 12:48:00
00058 suncat0199 pw.x -in pw.inp   Done                     12/26/2018 12:48:00
00059 suncat0199 pw.x -in pw.inp   Done                     12/26/2018 12:48:00
00060 suncat0199 pw.x -in pw.inp   Done                     12/26/2018 12:48:00
00061 suncat0199 pw.x -in pw.inp   Done                     12/26/2018 12:48:00
00062 suncat0199 pw.x -in pw.inp   Done                     12/26/2018 12:48:00
00063 suncat0199 pw.x -in pw.inp   Done                     12/26/2018 12:48:00