     Program PWSCF v.5.1rc2 (svn rev. 11289) starts on 31Dec2018 at  1:30:33

     Current dimensions of program PWSCF are:
     Max number of different atomic species (ntypx) = 10
     Max number of k-points (npk) =  40000
     Max angular momentum in pseudopotentials (lmaxx) =  3
     Presently stress not available with electric field

     IMPORTANT: XC functional enforced from input :
     Exchange-correlation      = BEEF-VDW ( 1  4 27 13 2)
     Any further DFT definition will be discarded
     Please, verify this is what you really want

     Subspace diagonalization in iterative solution of the eigenvalue problem:
     a serial algorithm will be used

     Generating pointlists ...
     new r_m :   0.4125 (alat units)  0.7795 (a.u.) for type    1
     new r_m :   0.4125 (alat units)  0.7795 (a.u.) for type    2

     bravais-lattice index     =            0
     lattice parameter (alat)  =       1.8897  a.u.
     unit-cell volume          =    3629.9117 (a.u.)^3
     number of atoms/cell      =           12
     number of atomic types    =            2
     number of electrons       =       207.00
     number of Kohn-Sham states=          133
     kinetic-energy cutoff     =      36.7493  Ry
     charge density cutoff     =     367.4932  Ry
     convergence threshold     =      1.0E-06
     mixing beta               =       0.1000
     number of iterations used =           10  plain     mixing
     Exchange-correlation      = BEEF-VDW ( 1  4 27 13 2)
     nstep                     =           50

     celldm(1)=   1.889726  celldm(2)=   0.000000  celldm(3)=   0.000000
     celldm(4)=   0.000000  celldm(5)=   0.000000  celldm(6)=   0.000000

     crystal axes: (cart. coord. in units of alat)
               a(1) = (   5.072270   0.000000   0.000000 )
               a(2) = (  -2.536135   4.392715   0.000000 )
               a(3) = (   0.000000   0.000000  24.141491 )

     reciprocal axes: (cart. coord. in units 2 pi/alat)
               b(1) = (  0.197150  0.113825  0.000000 )
               b(2) = (  0.000000  0.227650  0.000000 )
               b(3) = (  0.000000  0.000000  0.041422 )

     PseudoPot. # 1 for Ni read from file:
     /afs/slac.stanford.edu/u/if/mamunm/psp/gbrv1.5pbe/Ni.UPF
     MD5 check sum: 1ee80287db30b12d2bc1f57a5b5d6409
     Pseudo is Ultrasoft + core correction, Zval = 18.0
     Generated by new atomic code, or converted to UPF format
     Using radial grid of  865 points,  6 beta functions with:
                l(1) =   0
                l(2) =   0
                l(3) =   1
                l(4) =   1
                l(5) =   2
                l(6) =   2
     Q(r) pseudized with 10 coefficients,  rinner =    0.980   0.980   0.980
                                                       0.980   0.980

     PseudoPot. # 2 for Mn read from file:
     /afs/slac.stanford.edu/u/if/mamunm/psp/gbrv1.5pbe/Mn.UPF
     MD5 check sum: 82ef2b46521d7a7d9e736dc3972e4928
     Pseudo is Ultrasoft + core correction, Zval = 15.0
     Generated by new atomic code, or converted to UPF format
     Using radial grid of  859 points,  6 beta functions with:
                l(1) =   0
                l(2) =   0
                l(3) =   1
                l(4) =   1
                l(5) =   2
                l(6) =   2
     Q(r) pseudized with  8 coefficients,  rinner =    0.950   0.950   0.950
                                                       0.950   0.950

     vdW kernel table read from file vdW_kernel_table
     MD5 check sum: 095c7af220d748ca6e76c0b4c6cfb241

     atomic species   valence    mass     pseudopotential
        Ni1           18.00    58.69340     Ni( 1.00)
        Mn1           15.00    54.93804     Mn( 1.00)

     Starting magnetic structure
     atomic species   magnetization
        Ni1          0.111
        Mn1          0.133

     No symmetry found

   Cartesian axes

     site n.     atom                  positions (alat units)
         1           Ni1 tau(   1) = (   0.0000000   0.0000000  10.0000000  )
         2           Ni1 tau(   2) = (  -1.2680675   2.1963574  10.0000000  )
         3           Ni1 tau(   3) = (   1.2680675   2.1963574  10.0000000  )
         4           Mn1 tau(   4) = (   2.5361350   0.0000000  10.0000000  )
         5           Ni1 tau(   5) = (   2.5361350   1.4642382  12.0707456  )
         6           Ni1 tau(   6) = (   1.2680675   3.6605956  12.0707456  )
         7           Ni1 tau(   7) = (  -1.2680675   3.6605956  12.0707456  )
         8           Mn1 tau(   8) = (   0.0000000   1.4642382  12.0707456  )
         9           Ni1 tau(   9) = (  -0.0000000   2.9284765  14.1414911  )
        10           Ni1 tau(  10) = (   1.2680675   0.7321191  14.1414911  )
        11           Ni1 tau(  11) = (   3.8042025   0.7321191  14.1414911  )
        12           Mn1 tau(  12) = (   2.5361350   2.9284765  14.1414911  )

     number of k points=    40  Fermi-Dirac smearing, width (Ry)=  0.0110
                       cart. coord. in units 2pi/alat
        k(    1) = (   0.0000000   0.0000000   0.0000000), wk =   0.0277778
        k(    2) = (   0.0000000   0.0379416   0.0000000), wk =   0.0555556
        k(    3) = (   0.0000000   0.0758832   0.0000000), wk =   0.0555556
        k(    4) = (   0.0000000  -0.1138248   0.0000000), wk =   0.0277778
        k(    5) = (   0.0328584   0.0189708   0.0000000), wk =   0.0555556
        k(    6) = (   0.0328584   0.0569124   0.0000000), wk =   0.0555556
        k(    7) = (   0.0328584   0.0948540   0.0000000), wk =   0.0555556
        k(    8) = (   0.0328584  -0.0948540   0.0000000), wk =   0.0555556
        k(    9) = (   0.0328584  -0.0569124   0.0000000), wk =   0.0555556
        k(   10) = (   0.0328584  -0.0189708   0.0000000), wk =   0.0555556
        k(   11) = (   0.0657168   0.0379416   0.0000000), wk =   0.0555556
        k(   12) = (   0.0657168   0.0758832   0.0000000), wk =   0.0555556
        k(   13) = (   0.0657168   0.1138248   0.0000000), wk =   0.0555556
        k(   14) = (   0.0657168  -0.0758832   0.0000000), wk =   0.0555556
        k(   15) = (   0.0657168  -0.0379416   0.0000000), wk =   0.0555556
        k(   16) = (   0.0657168   0.0000000   0.0000000), wk =   0.0555556
        k(   17) = (  -0.0985752  -0.0569124   0.0000000), wk =   0.0277778
        k(   18) = (  -0.0985752  -0.0189708   0.0000000), wk =   0.0555556
        k(   19) = (  -0.0985752   0.0189708   0.0000000), wk =   0.0555556
        k(   20) = (  -0.0985752  -0.1707372   0.0000000), wk =   0.0277778
        k(   21) = (   0.0000000   0.0000000   0.0000000), wk =   0.0277778
        k(   22) = (   0.0000000   0.0379416   0.0000000), wk =   0.0555556
        k(   23) = (   0.0000000   0.0758832   0.0000000), wk =   0.0555556
        k(   24) = (   0.0000000  -0.1138248   0.0000000), wk =   0.0277778
        k(   25) = (   0.0328584   0.0189708   0.0000000), wk =   0.0555556
        k(   26) = (   0.0328584   0.0569124   0.0000000), wk =   0.0555556
        k(   27) = (   0.0328584   0.0948540   0.0000000), wk =   0.0555556
        k(   28) = (   0.0328584  -0.0948540   0.0000000), wk =   0.0555556
        k(   29) = (   0.0328584  -0.0569124   0.0000000), wk =   0.0555556
        k(   30) = (   0.0328584  -0.0189708   0.0000000), wk =   0.0555556
        k(   31) = (   0.0657168   0.0379416   0.0000000), wk =   0.0555556
        k(   32) = (   0.0657168   0.0758832   0.0000000), wk =   0.0555556
        k(   33) = (   0.0657168   0.1138248   0.0000000), wk =   0.0555556
        k(   34) = (   0.0657168  -0.0758832   0.0000000), wk =   0.0555556
        k(   35) = (   0.0657168  -0.0379416   0.0000000), wk =   0.0555556
        k(   36) = (   0.0657168   0.0000000   0.0000000), wk =   0.0555556
        k(   37) = (  -0.0985752  -0.0569124   0.0000000), wk =   0.0277778
        k(   38) = (  -0.0985752  -0.0189708   0.0000000), wk =   0.0555556
        k(   39) = (  -0.0985752   0.0189708   0.0000000), wk =   0.0555556
        k(   40) = (  -0.0985752  -0.1707372   0.0000000), wk =   0.0277778

     Largest allocated arrays     est. size (Mb)     dimensions
     Largest temporary arrays     est. size (Mb)     dimensions

     Check: negative/imaginary core charge=   -0.000005    0.000000

     Initial potential from superposition of free atoms
     Check: negative starting charge=(component1):   -0.000937
     Check: negative starting charge=(component2):   -0.000722

     starting charge  187.49974, renormalised to  207.00000

     negative rho (up, down):  1.035E-03 7.967E-04

     *
     * You are using vdW-DF for exchange-correlation in this calculation.
     * Please cite the following three references that made this development
     * possible:
     *
     *   M. Dion, H. Rydberg, E. Schroder, D. C. Langreth, and
     *   B. I. Lundqvist, Phys. Rev. Lett. 92, 246401 (2004).
     *
     *   T. Thonhauser, V. R. Cooper, S. Li, A. Puzder, P. Hyldgaard, and
     *   D. C. Langreth, Phys. Rev. B 76, 125112 (2007).
     *
     *   G. Roman-Perez and J. M. Soler, Phys. Rev. Lett. 103, 096102 (2009).
     *
     *
     * If you are using vdW-DF2, please also cite:
     *
     *   K. Lee, E. D. Murray, L. Kong, B. I. Lundqvist, and
     *   D. C. Langreth, Phys. Rev. B 82, 081101(R) (2010).
     *
     *
     * If you are calculating the stress with vdW-DF, please also cite:
     *
     *   R. Sabatini, E. Kucukbenli, B. Kolb, T. Thonhauser, and
     *   S. de Gironcoli, J. Phys.: Condens. Matter 24, 424209 (2012).
     *

     Carrying out vdW-DF run using the following parameters:

     Nqs =      20    Nr_points =    1024   r_max =   100.000
     q_mesh =
               0.00001000     0.04494208     0.09755937     0.15916263
               0.23128650     0.31572767     0.41458969     0.53033537
               0.66584808     0.82450364     1.01025438     1.22772762
               1.48234092     1.78043706     2.12944203     2.53805004
               3.01644009     3.57652955     4.23227104     5.00000000

     Gradients computed in reciprocal space

     Adding external electric field

     Computed dipole along edir(3) :
        Dipole                0.0000 Ry au,          0.0000 Debye
        Dipole field          0.0000 Ry au

        Potential amp.       -0.0000 Ry
        Total length         44.4803 bohr

[...]

     Starting wfc are  156 randomized atomic wfcs

     Self-consistent Calculation

     iteration #  1     ecut=    36.75 Ry     beta=0.10
     Davidson diagonalization with overlap
     ethr =  1.00E-02,  avg # of iterations =  7.2

[...]

     Magnetic moment per site:
     atom:    1    charge:    9.8026    magn:    1.0380    constr:    0.0000
     atom:    2    charge:    9.8026    magn:    1.0380    constr:    0.0000
     atom:    3    charge:    9.8026    magn:    1.0380    constr:    0.0000
     atom:    4    charge:    6.3607    magn:    0.8028    constr:    0.0000
     atom:    5    charge:    9.8052    magn:    1.0379    constr:    0.0000
     atom:    6    charge:    9.8052    magn:    1.0379    constr:    0.0000
     atom:    7    charge:    9.8052    magn:    1.0379    constr:    0.0000
     atom:    8    charge:    6.3672    magn:    0.8035    constr:    0.0000
[...]
        k(    6) = (   0.0328584   0.0569124   0.0000000), wk =   0.0555556
        k(    7) = (   0.0328584   0.0948540   0.0000000), wk =   0.0555556
        k(    8) = (   0.0328584  -0.0948540   0.0000000), wk =   0.0555556
        k(    9) = (   0.0328584  -0.0569124   0.0000000), wk =   0.0555556
        k(   10) = (   0.0328584  -0.0189708   0.0000000), wk =   0.0555556
        k(   11) = (   0.0657168   0.0379416   0.0000000), wk =   0.0555556
        k(   12) = (   0.0657168   0.0758832   0.0000000), wk =   0.0555556
        k(   13) = (   0.0657168   0.1138248   0.0000000), wk =   0.0555556
        k(   14) = (   0.0657168  -0.0758832   0.0000000), wk =   0.0555556
        k(   15) = (   0.0657168  -0.0379416   0.0000000), wk =   0.0555556
        k(   16) = (   0.0657168   0.0000000   0.0000000), wk =   0.0555556
        k(   17) = (  -0.0985752  -0.0569124   0.0000000), wk =   0.0277778
        k(   18) = (  -0.0985752  -0.0189708   0.0000000), wk =   0.0555556
        k(   19) = (  -0.0985752   0.0189708   0.0000000), wk =   0.0555556
        k(   20) = (  -0.0985752  -0.1707372   0.0000000), wk =   0.0277778
        k(   21) = (   0.0000000   0.0000000   0.0000000), wk =   0.0277778
        k(   22) = (   0.0000000   0.0379416   0.0000000), wk =   0.0555556
        k(   23) = (   0.0000000   0.0758832   0.0000000), wk =   0.0555556
        k(   24) = (   0.0000000  -0.1138248   0.0000000), wk =   0.0277778
        k(   25) = (   0.0328584   0.0189708   0.0000000), wk =   0.0555556
        k(   26) = (   0.0328584   0.0569124   0.0000000), wk =   0.0555556
        k(   27) = (   0.0328584   0.0948540   0.0000000), wk =   0.0555556
        k(   28) = (   0.0328584  -0.0948540   0.0000000), wk =   0.0555556
        k(   29) = (   0.0328584  -0.0569124   0.0000000), wk =   0.0555556
        k(   30) = (   0.0328584  -0.0189708   0.0000000), wk =   0.0555556
        k(   31) = (   0.0657168   0.0379416   0.0000000), wk =   0.0555556
        k(   32) = (   0.0657168   0.0758832   0.0000000), wk =   0.0555556
        k(   33) = (   0.0657168   0.1138248   0.0000000), wk =   0.0555556
        k(   34) = (   0.0657168  -0.0758832   0.0000000), wk =   0.0555556
        k(   35) = (   0.0657168  -0.0379416   0.0000000), wk =   0.0555556
        k(   36) = (   0.0657168   0.0000000   0.0000000), wk =   0.0555556
        k(   37) = (  -0.0985752  -0.0569124   0.0000000), wk =   0.0277778
        k(   38) = (  -0.0985752  -0.0189708   0.0000000), wk =   0.0555556
        k(   39) = (  -0.0985752   0.0189708   0.0000000), wk =   0.0555556
        k(   40) = (  -0.0985752  -0.1707372   0.0000000), wk =   0.0277778

     Largest allocated arrays     est. size (Mb)     dimensions
     Largest temporary arrays     est. size (Mb)     dimensions

     Check: negative/imaginary core charge=   -0.000005    0.000000

     Initial potential from superposition of free atoms
     Check: negative starting charge=(component1):   -0.000933
     Check: negative starting charge=(component2):   -0.000719

     starting charge  187.49974, renormalised to  207.00000

[...]

     *
     * You are using vdW-DF for exchange-correlation in this calculation.
     * Please cite the following three references that made this development
     * possible:
     *
     *   M. Dion, H. Rydberg, E. Schroder, D. C. Langreth, and
     *   B. I. Lundqvist, Phys. Rev. Lett. 92, 246401 (2004).
     *
     *   T. Thonhauser, V. R. Cooper, S. Li, A. Puzder, P. Hyldgaard, and
     *   D. C. Langreth, Phys. Rev. B 76, 125112 (2007).
     *
     *   G. Roman-Perez and J. M. Soler, Phys. Rev. Lett. 103, 096102 (2009).
     *
     *
     * If you are using vdW-DF2, please also cite:
     *
     *   K. Lee, E. D. Murray, L. Kong, B. I. Lundqvist, and
     *   D. C. Langreth, Phys. Rev. B 82, 081101(R) (2010).
     *
     *
     * If you are calculating the stress with vdW-DF, please also cite:
     *
     *   R. Sabatini, E. Kucukbenli, B. Kolb, T. Thonhauser, and
     *   S. de Gironcoli, J. Phys.: Condens. Matter 24, 424209 (2012).
     *

     Carrying out vdW-DF run using the following parameters:

     Nqs =      20    Nr_points =    1024   r_max =   100.000
     q_mesh =
               0.00001000     0.04494208     0.09755937     0.15916263
               0.23128650     0.31572767     0.41458969     0.53033537
               0.66584808     0.82450364     1.01025438     1.22772762
               1.48234092     1.78043706     2.12944203     2.53805004
               3.01644009     3.57652955     4.23227104     5.00000000

     Gradients computed in reciprocal space

[...]

     Starting wfc are  156 randomized atomic wfcs

     Self-consistent Calculation

[...]

     total energy              =   -3736.19752155 Ry
     Harris-Foulkes estimate   =   -3736.19752092 Ry
     estimated scf accuracy    <       0.00000142 Ry

[...]

     iteration # 40     ecut=    36.75 Ry     beta=0.10
     Davidson diagonalization with overlap
     ethr =  6.85E-10,  avg # of iterations =  2.8

[...]

     negative rho (up, down):  1.345E-03 1.253E-03

[...]

     Adding external electric field

     Computed dipole along edir(3) :
        Dipole                0.0120 Ry au,          0.0306 Debye
        Dipole field          0.0000 Ry au

        Potential amp.       -0.0037 Ry
        Total length         44.4803 bohr

     Magnetic moment per site:
     atom:    1    charge:    9.3470    magn:    0.3557    constr:    0.0000
     atom:    2    charge:    9.3469    magn:    0.3558    constr:    0.0000
     atom:    3    charge:    9.3469    magn:    0.3558    constr:    0.0000
     atom:    4    charge:    6.0080    magn:    1.4824    constr:    0.0000
     atom:    5    charge:    9.3443    magn:    0.4181    constr:    0.0000
     atom:    6    charge:    9.3441    magn:    0.4182    constr:    0.0000
     atom:    7    charge:    9.3442    magn:    0.4182    constr:    0.0000
     atom:    8    charge:    6.0035    magn:    1.3842    constr:    0.0000
     atom:    9    charge:    9.3496    magn:    0.3553    constr:    0.0000
     atom:   10    charge:    9.3497    magn:    0.3552    constr:    0.0000
     atom:   11    charge:    9.3495    magn:    0.3553    constr:    0.0000
     atom:   12    charge:    6.0078    magn:    1.4987    constr:    0.0000

     End of self-consistent calculation

 ------ SPIN UP ------------

[...]

 ------ SPIN DOWN ----------

[...]

          k = 0.0657 0.0000 0.0000 ( 13677 PWs)   bands (ev):

[...]

          k =-0.0986-0.1707 0.0000 ( 13654 PWs)   bands (ev):

  -102.0756-102.0708-102.0666-101.8948-101.8907-101.8861-101.8729-101.8683
  -101.8641 -76.2590 -76.1751 -76.1708 -62.5182 -62.4894 -62.4842 -62.4798
   -62.4773 -62.4717 -62.4690 -62.4513 -62.4111 -62.3697 -62.3521 -62.3323
   -62.3300 -62.3238 -62.3234 -62.3153 -62.3130 -62.3065 -62.3043 -62.2789
   -62.2604 -62.2115 -62.2083 -62.2042 -62.1826 -62.1783 -62.1751 -45.0612
   -45.0600 -45.0539 -44.9983 -44.9971 -44.9914 -44.9903 -44.9231 -44.9219
    -5.1927  -5.0613  -3.4742  -3.3654  -2.7009  -2.5340  -2.3280  -2.2124
    -2.1467  -2.1460  -1.8468  -1.6559  -1.6121  -1.5799  -1.5569  -1.3616
    -1.3096  -1.2890  -1.2552  -1.1462  -1.0024  -0.9716  -0.9189  -0.8303
    -0.7895  -0.7355  -0.7056  -0.6595  -0.6464  -0.6230  -0.5667  -0.5047
    -0.4451  -0.4019  -0.2474  -0.2077  -0.1847  -0.0719  -0.0396  -0.0327
     0.0577   0.1681   0.2030   0.2182   0.2272   0.3674   0.4659   0.5859
     0.8257   0.8323   0.8467   1.0233   1.6005   1.6295   1.9604   2.0648
     2.0990   2.1453   2.2462   2.2714   2.2859   2.4829   2.5755   2.8313
     2.9271   3.0509   3.3903   3.8336   4.2028   4.5581   4.9023   5.0440
     5.9115   6.1793   6.6589   6.6669   7.1611   7.1920   7.3889   7.3910
     8.4196   8.4496   8.5406   8.9789   8.9987

     the Fermi energy is     0.7122 ev

!    total energy              =   -3736.19752457 Ry
     Harris-Foulkes estimate   =   -3736.19752163 Ry
     estimated scf accuracy    <       0.00000078 Ry

     The total energy is the sum of the following terms:

     one-electron contribution =  -31382.11098025 Ry
     hartree contribution      =   15698.89515634 Ry
     xc contribution           =    -414.06885638 Ry
     ewald contribution        =   12361.16957471 Ry
     electric field correction =       0.00000050 Ry
     smearing contrib. (-TS)   =      -0.08241950 Ry

     total magnetization       =    16.27 Bohr mag/cell
     absolute magnetization    =    17.34 Bohr mag/cell

     convergence has been achieved in  40 iterations

 BEEF-vdW xc energy contributions
           1 :   -364.192794466995
           2 :    329.845053011802
           3 :   -272.260860264595
           4 :    208.290496050890
           5 :   -153.110300883207
           6 :    114.700485083966
           7 :   -92.5960770337043
           8 :    80.6730954300837
           9 :   -71.7840444839117
          10 :    61.5366018350571
          11 :   -49.5235124404168
          12 :    38.0095348127682
          13 :   -29.4947277338856
          14 :    24.8524308037181
          15 :   -22.9957725624390
          16 :    21.8719144921836
          17 :   -19.8642770548637
          18 :    16.6488650713819
          19 :   -13.0928894978935
          20 :    10.4225494463670
          21 :   -9.30412348395282
          22 :    9.42914227297132
          23 :   -9.80688284246821
          24 :    9.48107859773160
          25 :   -8.15828927977248
          26 :    6.33378973569762
          27 :   -4.87439842245453
          28 :    4.37589188609991
          29 :   -4.75995772470424
          30 :    5.37638352280243
          31 :   -30.6737275793325
          32 :   -21.4815183242060

     Forces acting on atoms (Ry/au):

     negative rho (up, down):  1.345E-03 1.253E-03
     atom    1 type  1   force =    -0.00002181   -0.00125991    0.00730217
     atom    2 type  1   force =    -0.00105409    0.00065008    0.00724120
     atom    3 type  1   force =     0.00105084    0.00067434    0.00726628
     atom    4 type  2   force =     0.00000389   -0.00000707   -0.00964261
     atom    5 type  1   force =     0.00001969    0.00395904   -0.00209918
     atom    6 type  1   force =     0.00334305   -0.00199776   -0.00201522
     atom    7 type  1   force =    -0.00335099   -0.00202303   -0.00204960
     atom    8 type  2   force =    -0.00000619    0.00001819   -0.00782781
     atom    9 type  1   force =     0.00004375   -0.00115728    0.00028024
     atom   10 type  1   force =    -0.00101315    0.00060940    0.00027726
     atom   11 type  1   force =     0.00100957    0.00055847    0.00025231
     atom   12 type  2   force =    -0.00002457   -0.00002447    0.00101497

     Total force =     0.019536     Total SCF correction =     0.002506
     SCF correction compared to forces is large: reduce conv_thr to get better values

     entering subroutine stress ...

     negative rho (up, down):  1.345E-03 1.253E-03
          total   stress  (Ry/bohr**3)                   (kbar)     P=  -54.11
  -0.00038241  -0.00000000   0.00000000        -56.25     -0.00      0.00
  -0.00000000  -0.00038240   0.00000000         -0.00    -56.25      0.00
   0.00000000   0.00000000  -0.00033871          0.00      0.00    -49.83

 !ASE

     Writing output data file calc.save

     General routines

     Parallel routines

   This run was terminated on:   7:10:38  31Dec2018

   JOB DONE.
Job  /afs/slac/g/suncat/bin/suncat-tsmpirun -x LD_LIBRARY_PATH -wdir /scratch/qe648672_falM8 pw.x -in pw.inp

TID   HOST_NAME   COMMAND_LINE            STATUS            TERMINATION_TIME
00000 suncat0121 pw.x -in pw.inp   Done                     12/31/2018 07:10:38
00001 suncat0121 pw.x -in pw.inp   Done                     12/31/2018 07:10:38
00002 suncat0121 pw.x -in pw.inp   Done                     12/31/2018 07:10:38
00003 suncat0121 pw.x -in pw.inp   Done                     12/31/2018 07:10:38
00004 suncat0121 pw.x -in pw.inp   Done                     12/31/2018 07:10:38
00005 suncat0121 pw.x -in pw.inp   Done                     12/31/2018 07:10:38
00006 suncat0121 pw.x -in pw.inp   Done                     12/31/2018 07:10:38
00007 suncat0121 pw.x -in pw.inp   Done                     12/31/2018 07:10:38
00008 suncat0115 pw.x -in pw.inp   Done                     12/31/2018 07:10:38
00009 suncat0115 pw.x -in pw.inp   Done                     12/31/2018 07:10:38
00010 suncat0115 pw.x -in pw.inp   Done                     12/31/2018 07:10:38
00011 suncat0115 pw.x -in pw.inp   Done                     12/31/2018 07:10:38
00012 suncat0115 pw.x -in pw.inp   Done                     12/31/2018 07:10:38
00013 suncat0115 pw.x -in pw.inp   Done                     12/31/2018 07:10:38
00014 suncat0115 pw.x -in pw.inp   Done                     12/31/2018 07:10:38
00015 suncat0115 pw.x -in pw.inp   Done                     12/31/2018 07:10:38
00016 suncat0228 pw.x -in pw.inp   Done                     12/31/2018 07:10:38
00017 suncat0228 pw.x -in pw.inp   Done                     12/31/2018 07:10:38
00018 suncat0228 pw.x -in pw.inp   Done                     12/31/2018 07:10:38
00019 suncat0228 pw.x -in pw.inp   Done                     12/31/2018 07:10:38
00020 suncat0228 pw.x -in pw.inp   Done                     12/31/2018 07:10:38
00021 suncat0228 pw.x -in pw.inp   Done                     12/31/2018 07:10:38
00022 suncat0228 pw.x -in pw.inp   Done                     12/31/2018 07:10:38
00023 suncat0228 pw.x -in pw.inp   Done                     12/31/2018 07:10:38
00024 suncat0227 pw.x -in pw.inp   Done                     12/31/2018 07:10:38
00025 suncat0227 pw.x -in pw.inp   Done                     12/31/2018 07:10:38
00026 suncat0227 pw.x -in pw.inp   Done                     12/31/2018 07:10:38
00027 suncat0227 pw.x -in pw.inp   Done                     12/31/2018 07:10:38
00028 suncat0227 pw.x -in pw.inp   Done                     12/31/2018 07:10:38
00029 suncat0227 pw.x -in pw.inp   Done                     12/31/2018 07:10:38
00030 suncat0227 pw.x -in pw.inp   Done                     12/31/2018 07:10:38
00031 suncat0227 pw.x -in pw.inp   Done                     12/31/2018 07:10:38
00032 suncat0217 pw.x -in pw.inp   Done                     12/31/2018 07:10:38
00033 suncat0217 pw.x -in pw.inp   Done                     12/31/2018 07:10:38
00034 suncat0217 pw.x -in pw.inp   Done                     12/31/2018 07:10:38
00035 suncat0217 pw.x -in pw.inp   Done                     12/31/2018 07:10:38
00036 suncat0217 pw.x -in pw.inp   Done                     12/31/2018 07:10:38
00037 suncat0217 pw.x -in pw.inp   Done                     12/31/2018 07:10:38
00038 suncat0217 pw.x -in pw.inp   Done                     12/31/2018 07:10:38
00039 suncat0217 pw.x -in pw.inp   Done                     12/31/2018 07:10:38
00040 suncat0216 pw.x -in pw.inp   Done                     12/31/2018 07:10:38
00041 suncat0216 pw.x -in pw.inp   Done                     12/31/2018 07:10:38
00042 suncat0216 pw.x -in pw.inp   Done                     12/31/2018 07:10:38
00043 suncat0216 pw.x -in pw.inp   Done                     12/31/2018 07:10:38
00044 suncat0216 pw.x -in pw.inp   Done                     12/31/2018 07:10:38
00045 suncat0216 pw.x -in pw.inp   Done                     12/31/2018 07:10:38
00046 suncat0216 pw.x -in pw.inp   Done                     12/31/2018 07:10:38
00047 suncat0216 pw.x -in pw.inp   Done                     12/31/2018 07:10:38
00048 suncat0215 pw.x -in pw.inp   Done                     12/31/2018 07:10:38
00049 suncat0215 pw.x -in pw.inp   Done                     12/31/2018 07:10:38
00050 suncat0215 pw.x -in pw.inp   Done                     12/31/2018 07:10:38
00051 suncat0215 pw.x -in pw.inp   Done                     12/31/2018 07:10:38
00052 suncat0215 pw.x -in pw.inp   Done                     12/31/2018 07:10:38
00053 suncat0215 pw.x -in pw.inp   Done                     12/31/2018 07:10:38
00054 suncat0215 pw.x -in pw.inp   Done                     12/31/2018 07:10:38
00055 suncat0215 pw.x -in pw.inp   Done                     12/31/2018 07:10:38
00056 suncat0210 pw.x -in pw.inp   Done                     12/31/2018 07:10:38
00057 suncat0210 pw.x -in pw.inp   Done                     12/31/2018 07:10:38
00058 suncat0210 pw.x -in pw.inp   Done                     12/31/2018 07:10:38
00059 suncat0210 pw.x -in pw.inp   Done                     12/31/2018 07:10:38
00060 suncat0210 pw.x -in pw.inp   Done                     12/31/2018 07:10:38
00061 suncat0210 pw.x -in pw.inp   Done                     12/31/2018 07:10:38
00062 suncat0210 pw.x -in pw.inp   Done                     12/31/2018 07:10:38
00063 suncat0210 pw.x -in pw.inp   Done                     12/31/2018 07:10:38