     Program PWSCF v.5.1rc2 (svn rev. 11289) starts on  2Jan2019 at 21: 2:55

     Current dimensions of program PWSCF are:
     Max number of different atomic species (ntypx) = 10
     Max number of k-points (npk) =  40000
     Max angular momentum in pseudopotentials (lmaxx) =  3
     Presently stress not available with electric field

     IMPORTANT: XC functional enforced from input :
     Exchange-correlation      = BEEF-VDW ( 1  4 27 13 2)
     Any further DFT definition will be discarded
     Please, verify this is what you really want

     Subspace diagonalization in iterative solution of the eigenvalue problem:
     a serial algorithm will be used

     bravais-lattice index     =            0
     lattice parameter (alat)  =       1.8897  a.u.
     unit-cell volume          =    5515.7915 (a.u.)^3
     number of atoms/cell      =           12
     number of atomic types    =            2
     number of electrons       =       153.00
     number of Kohn-Sham states=          106
     kinetic-energy cutoff     =      36.7493  Ry
     charge density cutoff     =     367.4932  Ry
     convergence threshold     =      1.0E-06
     mixing beta               =       0.1000
     number of iterations used =           10  plain     mixing
     Exchange-correlation      = BEEF-VDW ( 1  4 27 13 2)
     nstep                     =           50

     celldm(1)=   1.889726  celldm(2)=   0.000000  celldm(3)=   0.000000
     celldm(4)=   0.000000  celldm(5)=   0.000000  celldm(6)=   0.000000

     crystal axes: (cart. coord. in units of alat)
               a(1) = (   6.142397   0.000000   0.000000 )
               a(2) = (  -3.071199   5.319472   0.000000 )
               a(3) = (   0.000000   0.000000  25.015246 )

     reciprocal axes: (cart. coord. in units 2 pi/alat)
               b(1) = (  0.162803  0.093994  0.000000 )
               b(2) = (  0.000000  0.187989  0.000000 )
               b(3) = (  0.000000  0.000000  0.039976 )

     PseudoPot. # 1 for Zr read from file:
     /afs/slac.stanford.edu/u/if/mamunm/psp/gbrv1.5pbe/Zr.UPF
     MD5 check sum: 5db81b1e868ab7776c4564c113de050b
     Pseudo is Ultrasoft + core correction, Zval = 12.0
     Generated by new atomic code, or converted to UPF format
     Using radial grid of  887 points,  6 beta functions with:
                l(1) =   0
                l(2) =   0
                l(3) =   1
                l(4) =   1
                l(5) =   2
                l(6) =   2
     Q(r) pseudized with  6 coefficients,  rinner =    1.200   1.200   1.200
                                                       1.200   1.200

     PseudoPot. # 2 for Rh read from file:
     /afs/slac.stanford.edu/u/if/mamunm/psp/gbrv1.5pbe/Rh.UPF
     MD5 check sum: 761627e959a2e3a1f56b0b5fe687810e
     Pseudo is Ultrasoft + core correction, Zval = 15.0
     Generated by new atomic code, or converted to UPF format
     Using radial grid of  969 points,  7 beta functions with:
                l(1) =   0
                l(2) =   0
                l(3) =   1
                l(4) =   1
                l(5) =   2
                l(6) =   2
                l(7) =   2
     Q(r) pseudized with  8 coefficients,  rinner =    1.200   1.200   1.200
                                                       1.200   1.200

     vdW kernel table read from file vdW_kernel_table
     MD5 check sum: 095c7af220d748ca6e76c0b4c6cfb241

     atomic species   valence    mass     pseudopotential
        Zr1           12.00    91.22400     Zr( 1.00)
        Rh1           15.00   102.90550     Rh( 1.00)

     No symmetry found

   Cartesian axes

     site n.     atom                  positions (alat units)
         1           Zr1 tau(   1) = (   0.0000000   0.0000000  10.0000000  )
         2           Zr1 tau(   2) = (  -1.5355993   2.6597361  10.0000000  )
         3           Zr1 tau(   3) = (   1.5355993   2.6597361  10.0000000  )
         4           Rh1 tau(   4) = (   3.0711987   0.0000000  10.0000000  )
         5           Zr1 tau(   5) = (   3.0711987   1.7731574  12.5076232  )
         6           Zr1 tau(   6) = (   1.5355993   4.4328935  12.5076232  )
         7           Zr1 tau(   7) = (  -1.5355993   4.4328935  12.5076232  )
         8           Rh1 tau(   8) = (   0.0000000   1.7731574  12.5076232  )
         9           Zr1 tau(   9) = (  -0.0000000   3.5463148  15.0152465  )
        10           Zr1 tau(  10) = (   1.5355993   0.8865787  15.0152465  )
        11           Zr1 tau(  11) = (   4.6067980   0.8865787  15.0152465  )
        12           Rh1 tau(  12) = (   3.0711987   3.5463148  15.0152465  )

     number of k points=    20  Fermi-Dirac smearing, width (Ry)=  0.0110
                       cart. coord. in units 2pi/alat
        k(    1) = (   0.0000000   0.0000000   0.0000000), wk =   0.0555556
        k(    2) = (   0.0000000   0.0313314   0.0000000), wk =   0.1111111
        k(    3) = (   0.0000000   0.0626629   0.0000000), wk =   0.1111111
        k(    4) = (   0.0000000  -0.0939943   0.0000000), wk =   0.0555556
        k(    5) = (   0.0271338   0.0156657   0.0000000), wk =   0.1111111
        k(    6) = (   0.0271338   0.0469971   0.0000000), wk =   0.1111111
        k(    7) = (   0.0271338   0.0783286   0.0000000), wk =   0.1111111
        k(    8) = (   0.0271338  -0.0783286   0.0000000), wk =   0.1111111
        k(    9) = (   0.0271338  -0.0469971   0.0000000), wk =   0.1111111
        k(   10) = (   0.0271338  -0.0156657   0.0000000), wk =   0.1111111
        k(   11) = (   0.0542676   0.0313314   0.0000000), wk =   0.1111111
        k(   12) = (   0.0542676   0.0626629   0.0000000), wk =   0.1111111
        k(   13) = (   0.0542676   0.0939943   0.0000000), wk =   0.1111111
        k(   14) = (   0.0542676  -0.0626629   0.0000000), wk =   0.1111111
        k(   15) = (   0.0542676  -0.0313314   0.0000000), wk =   0.1111111
        k(   16) = (   0.0542676   0.0000000   0.0000000), wk =   0.1111111
        k(   17) = (  -0.0814014  -0.0469971   0.0000000), wk =   0.0555556
        k(   18) = (  -0.0814014  -0.0156657   0.0000000), wk =   0.1111111
        k(   19) = (  -0.0814014   0.0156657   0.0000000), wk =   0.1111111
        k(   20) = (  -0.0814014  -0.1409914   0.0000000), wk =   0.0555556

     Largest allocated arrays     est. size (Mb)     dimensions
     Largest temporary arrays     est. size (Mb)     dimensions

     Initial potential from superposition of free atoms
     Check: negative starting charge=   -0.712606

     starting charge  151.48036, renormalised to  153.00000

     negative rho (up, down):  7.198E-01 0.000E+00

     *
     * You are using vdW-DF for exchange-correlation in this calculation.
     * Please cite the following three references that made this development
     * possible:
     *
     *   M. Dion, H. Rydberg, E. Schroder, D. C. Langreth, and
     *   B. I. Lundqvist, Phys. Rev. Lett. 92, 246401 (2004).
     *
     *   T. Thonhauser, V. R. Cooper, S. Li, A. Puzder, P. Hyldgaard, and
     *   D. C. Langreth, Phys. Rev. B 76, 125112 (2007).
     *
     *   G. Roman-Perez and J. M. Soler, Phys. Rev. Lett. 103, 096102 (2009).
     *
     *
     * If you are using vdW-DF2, please also cite:
     *
     *   K. Lee, E. D. Murray, L. Kong, B. I. Lundqvist, and
     *   D. C. Langreth, Phys. Rev. B 82, 081101(R) (2010).
     *
     *
     * If you are calculating the stress with vdW-DF, please also cite:
     *
     *   R. Sabatini, E. Kucukbenli, B. Kolb, T. Thonhauser, and
     *   S. de Gironcoli, J. Phys.: Condens. Matter 24, 424209 (2012).
     *

     Carrying out vdW-DF run using the following parameters:

     Nqs =      20    Nr_points =    1024   r_max =   100.000
     q_mesh =
               0.00001000     0.04494208     0.09755937     0.15916263
               0.23128650     0.31572767     0.41458969     0.53033537
               0.66584808     0.82450364     1.01025438     1.22772762
               1.48234092     1.78043706     2.12944203     2.53805004
               3.01644009     3.57652955     4.23227104     5.00000000

     Gradients computed in reciprocal space

     Adding external electric field

     Computed dipole along edir(3) :
        Dipole                0.0000 Ry au,          0.0000 Debye
        Dipole field          0.0000 Ry au

        Potential amp.       -0.0000 Ry
        Total length         46.0902 bohr

     Starting wfc are  153 randomized atomic wfcs

     Self-consistent Calculation

     iteration #  1     ecut=    36.75 Ry     beta=0.10
     Davidson diagonalization with overlap
     ethr =  1.00E-02,  avg # of iterations =  2.0

[...]

     total energy              =   -1414.01872090 Ry
     Harris-Foulkes estimate   =   -1414.97899778 Ry
     estimated scf accuracy    <       5.45943084 Ry

[...]

     End of self-consistent calculation

          k = 0.0000 0.0000 0.0000 ( 20767 PWs)   bands (ev):

   -47.5742 -47.5665 -47.4585 -47.4585 -47.4568 -47.4567 -47.2405 -47.1352
   -47.1351 -44.5010 -44.4792 -44.4792 -44.1680 -44.1680 -44.1677 -44.1677
   -44.1166 -44.1159 -26.0146 -25.9525 -25.8295 -25.7477 -25.7477 -25.6849
   -25.6849 -25.6700 -25.6700 -25.6634 -25.6399 -25.5197 -25.5197 -25.2896
   -25.2896 -25.2543 -25.2207 -25.0467 -25.0342 -25.0342 -25.0229 -25.0229
   -25.0148 -25.0148 -24.9062 -24.7745 -24.7745  -3.4997  -2.3147  -1.8175
    -1.6394  -1.6394  -1.4546  -1.4087  -1.4087  -1.3756  -1.1002  -1.1002
    -1.0557  -1.0557  -1.0061  -0.7923  -0.2956  -0.2956   0.0161   0.0161
     0.2110   0.4895   0.5992   1.1165   1.4235   1.4235   1.6354   1.6354
     1.7415   1.7513   1.7514   1.7514   2.1794   2.1794   2.2508   2.2508
     2.5250   2.5250   2.6134   2.6637   2.7631   2.7631   3.0010   3.2723
     3.2723   3.6448   3.8648   3.8648   3.8973   4.4113   4.7772   4.7772
     4.9929   4.9929   5.2817   5.2962   5.2963   5.3398   5.5241   5.5241
     5.6074   5.6074

[...]

          k =-0.0814-0.0470 0.0000 ( 20740 PWs)   bands (ev):

[...]

     the Fermi energy is     1.7269 ev

!    total energy              =   -1414.42967945 Ry
     Harris-Foulkes estimate   =   -1414.42966787 Ry
     estimated scf accuracy    <       0.00000018 Ry

     The total energy is the sum of the following terms:

     one-electron contribution =  -10311.58441120 Ry
     hartree contribution      =    5160.82200873 Ry
     xc contribution           =    -258.58882305 Ry
     ewald contribution        =    3995.03536968 Ry
     electric field correction =       0.00000000 Ry
     smearing contrib. (-TS)   =      -0.11382361 Ry

     convergence has been achieved in  19 iterations

 BEEF-vdW xc energy contributions
           1 :   -222.844962114378
           2 :    202.805618214914
           3 :   -168.654513816937
           4 :    129.560696036204
           5 :   -94.1862175646538
           6 :    67.7471807607047
           7 :   -51.0270545195305
           8 :    41.3895399570839
           9 :   -34.9131764721862
          10 :    28.4651772694366
          11 :   -20.8368930323527
          12 :    12.6790686489663
          13 :   -5.56349707758707
          14 :   0.821266086628867
          15 :    1.21913043111149
          16 :   -1.28667961419686
[...]
               b(3) = (  0.000000  0.000000  0.039976 )

     PseudoPot. # 1 for Zr read from file:
     /afs/slac.stanford.edu/u/if/mamunm/psp/gbrv1.5pbe/Zr.UPF
     MD5 check sum: 5db81b1e868ab7776c4564c113de050b
     Pseudo is Ultrasoft + core correction, Zval = 12.0
     Generated by new atomic code, or converted to UPF format
     Using radial grid of  887 points,  6 beta functions with:
                l(1) =   0
                l(2) =   0
                l(3) =   1
                l(4) =   1
                l(5) =   2
                l(6) =   2
     Q(r) pseudized with  6 coefficients,  rinner =    1.200   1.200   1.200
                                                       1.200   1.200

     PseudoPot. # 2 for Rh read from file:
     /afs/slac.stanford.edu/u/if/mamunm/psp/gbrv1.5pbe/Rh.UPF
     MD5 check sum: 761627e959a2e3a1f56b0b5fe687810e
     Pseudo is Ultrasoft + core correction, Zval = 15.0
     Generated by new atomic code, or converted to UPF format
     Using radial grid of  969 points,  7 beta functions with:
                l(1) =   0
                l(2) =   0
                l(3) =   1
                l(4) =   1
                l(5) =   2
                l(6) =   2
                l(7) =   2
     Q(r) pseudized with  8 coefficients,  rinner =    1.200   1.200   1.200
                                                       1.200   1.200

     vdW kernel table read from file vdW_kernel_table
     MD5 check sum: 095c7af220d748ca6e76c0b4c6cfb241

     atomic species   valence    mass     pseudopotential
        Zr1           12.00    91.22400     Zr( 1.00)
        Rh1           15.00   102.90550     Rh( 1.00)

     No symmetry found

   Cartesian axes

     site n.     atom                  positions (alat units)
         1           Zr1 tau(   1) = (   0.0000000   0.0000000  10.0000000  )
         2           Zr1 tau(   2) = (  -1.5355993   2.6597361  10.0000000  )
         3           Zr1 tau(   3) = (   1.5355993   2.6597361  10.0000000  )
         4           Rh1 tau(   4) = (   3.0711987   0.0000000  10.0000000  )
         5           Zr1 tau(   5) = (   3.0711987   1.7731574  12.5076232  )
         6           Zr1 tau(   6) = (   1.5355993   4.4328935  12.5076232  )
         7           Zr1 tau(   7) = (  -1.5355993   4.4328935  12.5076232  )
         8           Rh1 tau(   8) = (   0.0000000   1.7731574  12.5076232  )
         9           Zr1 tau(   9) = (   0.0000203   3.4900690  15.0135148  )
        10           Zr1 tau(  10) = (   1.4869254   0.9146632  15.0135463  )
        11           Zr1 tau(  11) = (   4.6555028   0.9146592  15.0135283  )
        12           Rh1 tau(  12) = (   3.0711935   3.5463271  14.6760625  )

     number of k points=    20  Fermi-Dirac smearing, width (Ry)=  0.0110
                       cart. coord. in units 2pi/alat
        k(    1) = (   0.0000000   0.0000000   0.0000000), wk =   0.0555556
        k(    2) = (   0.0000000   0.0313314   0.0000000), wk =   0.1111111
        k(    3) = (   0.0000000   0.0626629   0.0000000), wk =   0.1111111
        k(    4) = (   0.0000000  -0.0939943   0.0000000), wk =   0.0555556
        k(    5) = (   0.0271338   0.0156657   0.0000000), wk =   0.1111111
        k(    6) = (   0.0271338   0.0469971   0.0000000), wk =   0.1111111
        k(    7) = (   0.0271338   0.0783286   0.0000000), wk =   0.1111111
        k(    8) = (   0.0271338  -0.0783286   0.0000000), wk =   0.1111111
        k(    9) = (   0.0271338  -0.0469971   0.0000000), wk =   0.1111111
        k(   10) = (   0.0271338  -0.0156657   0.0000000), wk =   0.1111111
        k(   11) = (   0.0542676   0.0313314   0.0000000), wk =   0.1111111
        k(   12) = (   0.0542676   0.0626629   0.0000000), wk =   0.1111111
        k(   13) = (   0.0542676   0.0939943   0.0000000), wk =   0.1111111
        k(   14) = (   0.0542676  -0.0626629   0.0000000), wk =   0.1111111
        k(   15) = (   0.0542676  -0.0313314   0.0000000), wk =   0.1111111
        k(   16) = (   0.0542676   0.0000000   0.0000000), wk =   0.1111111
        k(   17) = (  -0.0814014  -0.0469971   0.0000000), wk =   0.0555556
        k(   18) = (  -0.0814014  -0.0156657   0.0000000), wk =   0.1111111
        k(   19) = (  -0.0814014   0.0156657   0.0000000), wk =   0.1111111
        k(   20) = (  -0.0814014  -0.1409914   0.0000000), wk =   0.0555556

     Largest allocated arrays     est. size (Mb)     dimensions
     Largest temporary arrays     est. size (Mb)     dimensions

     Initial potential from superposition of free atoms
     Check: negative starting charge=   -0.708872

     starting charge  151.48036, renormalised to  153.00000

[...]

     *
     * You are using vdW-DF for exchange-correlation in this calculation.
     * Please cite the following three references that made this development
     * possible:
     *
     *   M. Dion, H. Rydberg, E. Schroder, D. C. Langreth, and
     *   B. I. Lundqvist, Phys. Rev. Lett. 92, 246401 (2004).
     *
     *   T. Thonhauser, V. R. Cooper, S. Li, A. Puzder, P. Hyldgaard, and
     *   D. C. Langreth, Phys. Rev. B 76, 125112 (2007).
     *
     *   G. Roman-Perez and J. M. Soler, Phys. Rev. Lett. 103, 096102 (2009).
     *
     *
     * If you are using vdW-DF2, please also cite:
     *
     *   K. Lee, E. D. Murray, L. Kong, B. I. Lundqvist, and
     *   D. C. Langreth, Phys. Rev. B 82, 081101(R) (2010).
     *
     *
     * If you are calculating the stress with vdW-DF, please also cite:
     *
     *   R. Sabatini, E. Kucukbenli, B. Kolb, T. Thonhauser, and
     *   S. de Gironcoli, J. Phys.: Condens. Matter 24, 424209 (2012).
     *

     Carrying out vdW-DF run using the following parameters:

     Nqs =      20    Nr_points =    1024   r_max =   100.000
     q_mesh =
               0.00001000     0.04494208     0.09755937     0.15916263
               0.23128650     0.31572767     0.41458969     0.53033537
               0.66584808     0.82450364     1.01025438     1.22772762
               1.48234092     1.78043706     2.12944203     2.53805004
               3.01644009     3.57652955     4.23227104     5.00000000

     Gradients computed in reciprocal space

[...]

     Starting wfc are  153 randomized atomic wfcs

     Self-consistent Calculation

[...]

     total energy              =   -1414.44486454 Ry
     Harris-Foulkes estimate   =   -1414.44486135 Ry
     estimated scf accuracy    <       0.00000297 Ry

     iteration # 17     ecut=    36.75 Ry     beta=0.10
     Davidson diagonalization with overlap
     ethr =  1.94E-09,  avg # of iterations =  3.0

[...]

     negative rho (up, down):  7.303E-01 0.000E+00

     Adding external electric field

     Computed dipole along edir(3) :
        Dipole                0.0591 Ry au,          0.1503 Debye
        Dipole field          0.0001 Ry au

        Potential amp.       -0.0124 Ry
        Total length         46.0902 bohr

     End of self-consistent calculation

[...]

          k = 0.0543 0.0000 0.0000 ( 20727 PWs)   bands (ev):

[...]

          k =-0.0814-0.1410 0.0000 ( 20740 PWs)   bands (ev):

   -47.4603 -47.4534 -47.4164 -47.4058 -47.3780 -47.3727 -47.1447 -47.1096
   -47.0734 -44.4192 -44.3979 -44.3972 -44.3282 -44.2982 -44.2977 -44.1123
   -44.1117 -44.0719 -25.7617 -25.7159 -25.6966 -25.6115 -25.6058 -25.5450
   -25.5072 -25.5014 -25.4779 -25.4551 -25.4402 -25.4091 -25.4054 -25.3515
   -25.3429 -25.3151 -25.2781 -25.1543 -25.0813 -25.0691 -25.0486 -24.9857
   -24.9544 -24.9416 -24.9317 -24.9150 -24.7490  -2.0553  -1.9736  -1.2306
    -1.1495  -1.1112  -0.9348  -0.8582  -0.7760  -0.7485  -0.6592  -0.6273
    -0.4581  -0.4283  -0.3868  -0.2478  -0.2167  -0.1522   0.0036   0.0512
     0.1597   0.3393   0.4311   0.6611   0.8049   0.9432   1.1412   1.2899
     1.4061   1.5522   1.5811   1.6016   1.6839   1.7389   1.8684   1.9188
     1.9817   2.0658   2.1577   2.3558   2.4936   2.5213   2.9988   3.0403
     3.0952   3.1916   3.2291   3.3582   3.4191   3.5024   4.1579   4.1603
     4.2951   4.4086   4.5392   4.6430   4.7231   4.8389   4.9559   4.9588
     5.0481   5.3321

     the Fermi energy is     1.8030 ev

!    total energy              =   -1414.44486798 Ry
     Harris-Foulkes estimate   =   -1414.44486563 Ry
     estimated scf accuracy    <       0.00000093 Ry

     The total energy is the sum of the following terms:

     one-electron contribution =  -10456.88542881 Ry
     hartree contribution      =    5233.73046146 Ry
     xc contribution           =    -258.69416957 Ry
     ewald contribution        =    4067.51637078 Ry
     electric field correction =       0.00000797 Ry
     smearing contrib. (-TS)   =      -0.11210980 Ry

     convergence has been achieved in  17 iterations

 BEEF-vdW xc energy contributions
           1 :   -223.022657136347
           2 :    203.036026801193
           3 :   -168.946759027845
           4 :    129.865280731569
           5 :   -94.4173356017370
           6 :    67.8310496459298
           7 :   -50.9495771160624
           8 :    41.2125985522694
           9 :   -34.7447389203884
          10 :    28.3989525966257
          11 :   -20.9003371185892
          12 :    12.8241761023397
          13 :   -5.70436311859066
          14 :   0.889909141199553
          15 :    1.23642626273829
          16 :   -1.35167893806661
          17 :   0.685072480816501
          18 :  -0.305133849071041
          19 :   0.638715367952614
          20 :   -1.44163081715681
          21 :    2.13878252273378
          22 :   -2.26355073797245
          23 :    1.73263997107694
          24 :  -0.842564239567906
          25 :   4.986667503271747E-002
          26 :   0.301748581098565
          27 :  -0.148728651300701
          28 :  -0.305103243351937
          29 :   0.746080451997159
          30 :  -0.941773406645495
          31 :   -24.4007670710786
          32 :   -18.2207845851186

     Forces acting on atoms (Ry/au):

     negative rho (up, down):  7.303E-01 0.000E+00
     atom    1 type  1   force =    -0.00000170    0.02213977   -0.00308471
     atom    2 type  1   force =     0.01917267   -0.01107266   -0.00308260
     atom    3 type  1   force =    -0.01917224   -0.01107070   -0.00308246
     atom    4 type  2   force =     0.00000004    0.00000018    0.03000408
     atom    5 type  1   force =     0.00000168   -0.00686271   -0.00358576
     atom    6 type  1   force =    -0.00594035    0.00343517   -0.00359432
     atom    7 type  1   force =     0.00594009    0.00343262   -0.00359257
     atom    8 type  2   force =    -0.00000061   -0.00000071   -0.00664637
     atom    9 type  1   force =    -0.00000008   -0.00028474   -0.00113299
     atom   10 type  1   force =    -0.00024181    0.00014246   -0.00113480
     atom   11 type  1   force =     0.00024167    0.00014275   -0.00113671
     atom   12 type  2   force =     0.00000065   -0.00000143    0.00006921

     Total force =     0.051259     Total SCF correction =     0.002827

     entering subroutine stress ...

     negative rho (up, down):  7.303E-01 0.000E+00
          total   stress  (Ry/bohr**3)                   (kbar)     P=  -15.61
  -0.00013309  -0.00000000   0.00000000        -19.58     -0.00      0.00
  -0.00000000  -0.00013309   0.00000000         -0.00    -19.58      0.00
   0.00000000   0.00000000  -0.00005216          0.00      0.00     -7.67

 !ASE

     Writing output data file calc.save

     General routines

     Parallel routines

   This run was terminated on:  22:35:12   2Jan2019

   JOB DONE.
Job  /afs/slac/g/suncat/bin/suncat-tsmpirun -x LD_LIBRARY_PATH -wdir /scratch/qe649563_y9vkc pw.x -in pw.inp

TID   HOST_NAME   COMMAND_LINE            STATUS            TERMINATION_TIME
00000 suncat0010 pw.x -in pw.inp   Done                     01/02/2019 22:35:12
00001 suncat0010 pw.x -in pw.inp   Done                     01/02/2019 22:35:12
00002 suncat0010 pw.x -in pw.inp   Done                     01/02/2019 22:35:12
00003 suncat0010 pw.x -in pw.inp   Done                     01/02/2019 22:35:12
00004 suncat0010 pw.x -in pw.inp   Done                     01/02/2019 22:35:12
00005 suncat0010 pw.x -in pw.inp   Done                     01/02/2019 22:35:12
00006 suncat0010 pw.x -in pw.inp   Done                     01/02/2019 22:35:12
00007 suncat0010 pw.x -in pw.inp   Done                     01/02/2019 22:35:12
00008 suncat0191 pw.x -in pw.inp   Done                     01/02/2019 22:35:12
00009 suncat0191 pw.x -in pw.inp   Done                     01/02/2019 22:35:12
00010 suncat0191 pw.x -in pw.inp   Done                     01/02/2019 22:35:12
00011 suncat0191 pw.x -in pw.inp   Done                     01/02/2019 22:35:12
00012 suncat0191 pw.x -in pw.inp   Done                     01/02/2019 22:35:12
00013 suncat0191 pw.x -in pw.inp   Done                     01/02/2019 22:35:12
00014 suncat0191 pw.x -in pw.inp   Done                     01/02/2019 22:35:12
00015 suncat0191 pw.x -in pw.inp   Done                     01/02/2019 22:35:12
00016 suncat0007 pw.x -in pw.inp   Done                     01/02/2019 22:35:12
00017 suncat0007 pw.x -in pw.inp   Done                     01/02/2019 22:35:12
00018 suncat0007 pw.x -in pw.inp   Done                     01/02/2019 22:35:12
00019 suncat0007 pw.x -in pw.inp   Done                     01/02/2019 22:35:12
00020 suncat0007 pw.x -in pw.inp   Done                     01/02/2019 22:35:12
00021 suncat0007 pw.x -in pw.inp   Done                     01/02/2019 22:35:12
00022 suncat0007 pw.x -in pw.inp   Done                     01/02/2019 22:35:12
00023 suncat0007 pw.x -in pw.inp   Done                     01/02/2019 22:35:12
00024 suncat0180 pw.x -in pw.inp   Done                     01/02/2019 22:35:12
00025 suncat0180 pw.x -in pw.inp   Done                     01/02/2019 22:35:12
00026 suncat0180 pw.x -in pw.inp   Done                     01/02/2019 22:35:12
00027 suncat0180 pw.x -in pw.inp   Done                     01/02/2019 22:35:12
00028 suncat0180 pw.x -in pw.inp   Done                     01/02/2019 22:35:12
00029 suncat0180 pw.x -in pw.inp   Done                     01/02/2019 22:35:12
00030 suncat0180 pw.x -in pw.inp   Done                     01/02/2019 22:35:12
00031 suncat0180 pw.x -in pw.inp   Done                     01/02/2019 22:35:12
00032 suncat0167 pw.x -in pw.inp   Done                     01/02/2019 22:35:12
00033 suncat0167 pw.x -in pw.inp   Done                     01/02/2019 22:35:12
00034 suncat0167 pw.x -in pw.inp   Done                     01/02/2019 22:35:12
00035 suncat0167 pw.x -in pw.inp   Done                     01/02/2019 22:35:12
00036 suncat0167 pw.x -in pw.inp   Done                     01/02/2019 22:35:12
00037 suncat0167 pw.x -in pw.inp   Done                     01/02/2019 22:35:12
00038 suncat0167 pw.x -in pw.inp   Done                     01/02/2019 22:35:12
00039 suncat0167 pw.x -in pw.inp   Done                     01/02/2019 22:35:12
00040 suncat0161 pw.x -in pw.inp   Done                     01/02/2019 22:35:12
00041 suncat0161 pw.x -in pw.inp   Done                     01/02/2019 22:35:12
00042 suncat0161 pw.x -in pw.inp   Done                     01/02/2019 22:35:12
00043 suncat0161 pw.x -in pw.inp   Done                     01/02/2019 22:35:12
00044 suncat0161 pw.x -in pw.inp   Done                     01/02/2019 22:35:12
00045 suncat0161 pw.x -in pw.inp   Done                     01/02/2019 22:35:12
00046 suncat0161 pw.x -in pw.inp   Done                     01/02/2019 22:35:12
00047 suncat0161 pw.x -in pw.inp   Done                     01/02/2019 22:35:12
00048 suncat0137 pw.x -in pw.inp   Done                     01/02/2019 22:35:12
00049 suncat0137 pw.x -in pw.inp   Done                     01/02/2019 22:35:12
00050 suncat0137 pw.x -in pw.inp   Done                     01/02/2019 22:35:12
00051 suncat0137 pw.x -in pw.inp   Done                     01/02/2019 22:35:12
00052 suncat0137 pw.x -in pw.inp   Done                     01/02/2019 22:35:12
00053 suncat0137 pw.x -in pw.inp   Done                     01/02/2019 22:35:12
00054 suncat0137 pw.x -in pw.inp   Done                     01/02/2019 22:35:12
00055 suncat0137 pw.x -in pw.inp   Done                     01/02/2019 22:35:12
00056 suncat0100 pw.x -in pw.inp   Done                     01/02/2019 22:35:12
00057 suncat0100 pw.x -in pw.inp   Done                     01/02/2019 22:35:12
00058 suncat0100 pw.x -in pw.inp   Done                     01/02/2019 22:35:12
00059 suncat0100 pw.x -in pw.inp   Done                     01/02/2019 22:35:12
00060 suncat0100 pw.x -in pw.inp   Done                     01/02/2019 22:35:12
00061 suncat0100 pw.x -in pw.inp   Done                     01/02/2019 22:35:12
00062 suncat0100 pw.x -in pw.inp   Done                     01/02/2019 22:35:12
00063 suncat0100 pw.x -in pw.inp   Done                     01/02/2019 22:35:12