     Program PWSCF v.5.1rc2 (svn rev. 11289) starts on 26Dec2018 at 20:25:11

     Current dimensions of program PWSCF are:
     Max number of different atomic species (ntypx) = 10
     Max number of k-points (npk) =  40000
     Max angular momentum in pseudopotentials (lmaxx) =  3
     Presently stress not available with electric field

     IMPORTANT: XC functional enforced from input :
     Exchange-correlation      = BEEF-VDW ( 1  4 27 13 2)
     Any further DFT definition will be discarded
     Please, verify this is what you really want

     Subspace diagonalization in iterative solution of the eigenvalue problem:
     a serial algorithm will be used

     Generating pointlists ...
     new r_m :   0.4125 (alat units)  0.7795 (a.u.) for type    1
     new r_m :   0.4125 (alat units)  0.7795 (a.u.) for type    2

     bravais-lattice index     =            0
     lattice parameter (alat)  =       1.8897  a.u.
     unit-cell volume          =    3773.5305 (a.u.)^3
     number of atoms/cell      =           12
     number of atomic types    =            2
     number of electrons       =       183.00
     number of Kohn-Sham states=          121
     kinetic-energy cutoff     =      36.7493  Ry
     charge density cutoff     =     367.4932  Ry
     convergence threshold     =      1.0E-06
     mixing beta               =       0.1000
     number of iterations used =           10  plain     mixing
     Exchange-correlation      = BEEF-VDW ( 1  4 27 13 2)
     nstep                     =           50

     celldm(1)=   1.889726  celldm(2)=   0.000000  celldm(3)=   0.000000
     celldm(4)=   0.000000  celldm(5)=   0.000000  celldm(6)=   0.000000

     crystal axes: (cart. coord. in units of alat)
               a(1) = (   5.163665   0.000000   0.000000 )
               a(2) = (  -2.581833   4.471865   0.000000 )
               a(3) = (   0.000000   0.000000  24.216115 )

     reciprocal axes: (cart. coord. in units 2 pi/alat)
               b(1) = (  0.193661  0.111810  0.000000 )
               b(2) = (  0.000000  0.223620  0.000000 )
               b(3) = (  0.000000  0.000000  0.041295 )

     PseudoPot. # 1 for Mn read from file:
     /afs/slac.stanford.edu/u/if/mamunm/psp/gbrv1.5pbe/Mn.UPF
     MD5 check sum: 82ef2b46521d7a7d9e736dc3972e4928
     Pseudo is Ultrasoft + core correction, Zval = 15.0
     Generated by new atomic code, or converted to UPF format
     Using radial grid of  859 points,  6 beta functions with:
                l(1) =   0
                l(2) =   0
                l(3) =   1
                l(4) =   1
                l(5) =   2
                l(6) =   2
     Q(r) pseudized with  8 coefficients,  rinner =    0.950   0.950   0.950
                                                       0.950   0.950

     PseudoPot. # 2 for Os read from file:
     /afs/slac.stanford.edu/u/if/mamunm/psp/gbrv1.5pbe/Os.UPF
     MD5 check sum: a3fb40a04f0c37c25c34bbc47164c9a8
     Pseudo is Ultrasoft + core correction, Zval = 16.0
     Generated by new atomic code, or converted to UPF format
     Using radial grid of  983 points,  8 beta functions with:
                l(1) =   0
                l(2) =   0
                l(3) =   1
                l(4) =   1
                l(5) =   2
                l(6) =   2
                l(7) =   3
                l(8) =   3
     Q(r) pseudized with  8 coefficients,  rinner =    1.150   1.150   1.150
                                                       1.150   1.150   1.150
                                                       1.150

     vdW kernel table read from file vdW_kernel_table
     MD5 check sum: 095c7af220d748ca6e76c0b4c6cfb241

     atomic species   valence    mass     pseudopotential
        Mn1           15.00    54.93804     Mn( 1.00)
        Os1           16.00   190.23000     Os( 1.00)

     Starting magnetic structure
     atomic species   magnetization
        Mn1          0.133
        Os1          0.125

     No symmetry found

   Cartesian axes

     site n.     atom                  positions (alat units)
         1           Mn1 tau(   1) = (   0.0000000   0.0000000  10.0000000  )
         2           Mn1 tau(   2) = (  -1.2909163   2.2359326  10.0000000  )
         3           Mn1 tau(   3) = (   1.2909163   2.2359326  10.0000000  )
         4           Os1 tau(   4) = (   2.5818326   0.0000000  10.0000000  )
         5           Mn1 tau(   5) = (   2.5818326   1.4906218  12.1080575  )
         6           Mn1 tau(   6) = (   1.2909163   3.7265544  12.1080575  )
         7           Mn1 tau(   7) = (  -1.2909163   3.7265544  12.1080575  )
         8           Os1 tau(   8) = (   0.0000000   1.4906218  12.1080575  )
         9           Mn1 tau(   9) = (  -0.0000000   2.9812435  14.2161150  )
        10           Mn1 tau(  10) = (   1.2909163   0.7453109  14.2161150  )
        11           Mn1 tau(  11) = (   3.8727489   0.7453109  14.2161150  )
        12           Os1 tau(  12) = (   2.5818326   2.9812435  14.2161150  )

     number of k points=    40  Fermi-Dirac smearing, width (Ry)=  0.0110
                       cart. coord. in units 2pi/alat
        k(    1) = (   0.0000000   0.0000000   0.0000000), wk =   0.0277778
        k(    2) = (   0.0000000   0.0372701   0.0000000), wk =   0.0555556
        k(    3) = (   0.0000000   0.0745401   0.0000000), wk =   0.0555556
        k(    4) = (   0.0000000  -0.1118102   0.0000000), wk =   0.0277778
        k(    5) = (   0.0322768   0.0186350   0.0000000), wk =   0.0555556
        k(    6) = (   0.0322768   0.0559051   0.0000000), wk =   0.0555556
        k(    7) = (   0.0322768   0.0931751   0.0000000), wk =   0.0555556
        k(    8) = (   0.0322768  -0.0931751   0.0000000), wk =   0.0555556
        k(    9) = (   0.0322768  -0.0559051   0.0000000), wk =   0.0555556
        k(   10) = (   0.0322768  -0.0186350   0.0000000), wk =   0.0555556
        k(   11) = (   0.0645536   0.0372701   0.0000000), wk =   0.0555556
        k(   12) = (   0.0645536   0.0745401   0.0000000), wk =   0.0555556
        k(   13) = (   0.0645536   0.1118102   0.0000000), wk =   0.0555556
        k(   14) = (   0.0645536  -0.0745401   0.0000000), wk =   0.0555556
        k(   15) = (   0.0645536  -0.0372701   0.0000000), wk =   0.0555556
        k(   16) = (   0.0645536  -0.0000000   0.0000000), wk =   0.0555556
        k(   17) = (  -0.0968304  -0.0559051   0.0000000), wk =   0.0277778
        k(   18) = (  -0.0968304  -0.0186350   0.0000000), wk =   0.0555556
        k(   19) = (  -0.0968304   0.0186350   0.0000000), wk =   0.0555556
        k(   20) = (  -0.0968304  -0.1677152   0.0000000), wk =   0.0277778
        k(   21) = (   0.0000000   0.0000000   0.0000000), wk =   0.0277778
        k(   22) = (   0.0000000   0.0372701   0.0000000), wk =   0.0555556
        k(   23) = (   0.0000000   0.0745401   0.0000000), wk =   0.0555556
        k(   24) = (   0.0000000  -0.1118102   0.0000000), wk =   0.0277778
        k(   25) = (   0.0322768   0.0186350   0.0000000), wk =   0.0555556
        k(   26) = (   0.0322768   0.0559051   0.0000000), wk =   0.0555556
        k(   27) = (   0.0322768   0.0931751   0.0000000), wk =   0.0555556
        k(   28) = (   0.0322768  -0.0931751   0.0000000), wk =   0.0555556
        k(   29) = (   0.0322768  -0.0559051   0.0000000), wk =   0.0555556
        k(   30) = (   0.0322768  -0.0186350   0.0000000), wk =   0.0555556
        k(   31) = (   0.0645536   0.0372701   0.0000000), wk =   0.0555556
        k(   32) = (   0.0645536   0.0745401   0.0000000), wk =   0.0555556
        k(   33) = (   0.0645536   0.1118102   0.0000000), wk =   0.0555556
        k(   34) = (   0.0645536  -0.0745401   0.0000000), wk =   0.0555556
        k(   35) = (   0.0645536  -0.0372701   0.0000000), wk =   0.0555556
        k(   36) = (   0.0645536  -0.0000000   0.0000000), wk =   0.0555556
        k(   37) = (  -0.0968304  -0.0559051   0.0000000), wk =   0.0277778
        k(   38) = (  -0.0968304  -0.0186350   0.0000000), wk =   0.0555556
        k(   39) = (  -0.0968304   0.0186350   0.0000000), wk =   0.0555556
        k(   40) = (  -0.0968304  -0.1677152   0.0000000), wk =   0.0277778

     Largest allocated arrays     est. size (Mb)     dimensions
     Largest temporary arrays     est. size (Mb)     dimensions

     Check: negative/imaginary core charge=   -0.000008    0.000000

     Initial potential from superposition of free atoms
     Check: negative starting charge=(component1):   -0.216877
     Check: negative starting charge=(component2):   -0.168686

     starting charge  176.99912, renormalised to  183.00000

     negative rho (up, down):  2.242E-01 1.744E-01

     *
     * You are using vdW-DF for exchange-correlation in this calculation.
     * Please cite the following three references that made this development
     * possible:
     *
     *   M. Dion, H. Rydberg, E. Schroder, D. C. Langreth, and
     *   B. I. Lundqvist, Phys. Rev. Lett. 92, 246401 (2004).
     *
     *   T. Thonhauser, V. R. Cooper, S. Li, A. Puzder, P. Hyldgaard, and
     *   D. C. Langreth, Phys. Rev. B 76, 125112 (2007).
     *
     *   G. Roman-Perez and J. M. Soler, Phys. Rev. Lett. 103, 096102 (2009).
     *
     *
     * If you are using vdW-DF2, please also cite:
     *
     *   K. Lee, E. D. Murray, L. Kong, B. I. Lundqvist, and
     *   D. C. Langreth, Phys. Rev. B 82, 081101(R) (2010).
     *
     *
     * If you are calculating the stress with vdW-DF, please also cite:
     *
     *   R. Sabatini, E. Kucukbenli, B. Kolb, T. Thonhauser, and
     *   S. de Gironcoli, J. Phys.: Condens. Matter 24, 424209 (2012).
     *

     Carrying out vdW-DF run using the following parameters:

     Nqs =      20    Nr_points =    1024   r_max =   100.000
     q_mesh =
               0.00001000     0.04494208     0.09755937     0.15916263
               0.23128650     0.31572767     0.41458969     0.53033537
               0.66584808     0.82450364     1.01025438     1.22772762
               1.48234092     1.78043706     2.12944203     2.53805004
               3.01644009     3.57652955     4.23227104     5.00000000

     Gradients computed in reciprocal space

     Adding external electric field

     Computed dipole along edir(3) :
        Dipole                0.0000 Ry au,          0.0000 Debye
        Dipole field          0.0000 Ry au

        Potential amp.       -0.0000 Ry
        Total length         44.6178 bohr

[...]

     Starting wfc are  156 randomized atomic wfcs

     Self-consistent Calculation

     iteration #  1     ecut=    36.75 Ry     beta=0.10
     Davidson diagonalization with overlap
     ethr =  1.00E-02,  avg # of iterations =  3.7

[...]

     Magnetic moment per site:
     atom:    1    charge:    6.0899    magn:    0.7823    constr:    0.0000
     atom:    2    charge:    6.0899    magn:    0.7823    constr:    0.0000
     atom:    3    charge:    6.0899    magn:    0.7823    constr:    0.0000
     atom:    4    charge:    2.2641    magn:    0.2580    constr:    0.0000
     atom:    5    charge:    6.1033    magn:    0.7805    constr:    0.0000
     atom:    6    charge:    6.1034    magn:    0.7805    constr:    0.0000
[...]
        k(    7) = (   0.0322768   0.0931751   0.0000000), wk =   0.0555556
        k(    8) = (   0.0322768  -0.0931751   0.0000000), wk =   0.0555556
        k(    9) = (   0.0322768  -0.0559051   0.0000000), wk =   0.0555556
        k(   10) = (   0.0322768  -0.0186350   0.0000000), wk =   0.0555556
        k(   11) = (   0.0645536   0.0372701   0.0000000), wk =   0.0555556
        k(   12) = (   0.0645536   0.0745401   0.0000000), wk =   0.0555556
        k(   13) = (   0.0645536   0.1118102   0.0000000), wk =   0.0555556
        k(   14) = (   0.0645536  -0.0745401   0.0000000), wk =   0.0555556
        k(   15) = (   0.0645536  -0.0372701   0.0000000), wk =   0.0555556
        k(   16) = (   0.0645536  -0.0000000   0.0000000), wk =   0.0555556
        k(   17) = (  -0.0968304  -0.0559051   0.0000000), wk =   0.0277778
        k(   18) = (  -0.0968304  -0.0186350   0.0000000), wk =   0.0555556
        k(   19) = (  -0.0968304   0.0186350   0.0000000), wk =   0.0555556
        k(   20) = (  -0.0968304  -0.1677152   0.0000000), wk =   0.0277778
        k(   21) = (   0.0000000   0.0000000   0.0000000), wk =   0.0277778
        k(   22) = (   0.0000000   0.0372701   0.0000000), wk =   0.0555556
        k(   23) = (   0.0000000   0.0745401   0.0000000), wk =   0.0555556
        k(   24) = (   0.0000000  -0.1118102   0.0000000), wk =   0.0277778
        k(   25) = (   0.0322768   0.0186350   0.0000000), wk =   0.0555556
        k(   26) = (   0.0322768   0.0559051   0.0000000), wk =   0.0555556
        k(   27) = (   0.0322768   0.0931751   0.0000000), wk =   0.0555556
        k(   28) = (   0.0322768  -0.0931751   0.0000000), wk =   0.0555556
        k(   29) = (   0.0322768  -0.0559051   0.0000000), wk =   0.0555556
        k(   30) = (   0.0322768  -0.0186350   0.0000000), wk =   0.0555556
        k(   31) = (   0.0645536   0.0372701   0.0000000), wk =   0.0555556
        k(   32) = (   0.0645536   0.0745401   0.0000000), wk =   0.0555556
        k(   33) = (   0.0645536   0.1118102   0.0000000), wk =   0.0555556
        k(   34) = (   0.0645536  -0.0745401   0.0000000), wk =   0.0555556
        k(   35) = (   0.0645536  -0.0372701   0.0000000), wk =   0.0555556
        k(   36) = (   0.0645536  -0.0000000   0.0000000), wk =   0.0555556
        k(   37) = (  -0.0968304  -0.0559051   0.0000000), wk =   0.0277778
        k(   38) = (  -0.0968304  -0.0186350   0.0000000), wk =   0.0555556
        k(   39) = (  -0.0968304   0.0186350   0.0000000), wk =   0.0555556
        k(   40) = (  -0.0968304  -0.1677152   0.0000000), wk =   0.0277778

     Largest allocated arrays     est. size (Mb)     dimensions
     Largest temporary arrays     est. size (Mb)     dimensions

     Check: negative/imaginary core charge=   -0.000007    0.000000

     Initial potential from superposition of free atoms
     Check: negative starting charge=(component1):   -0.215505
     Check: negative starting charge=(component2):   -0.167619

     starting charge  176.99912, renormalised to  183.00000

[...]

     *
     * You are using vdW-DF for exchange-correlation in this calculation.
     * Please cite the following three references that made this development
     * possible:
     *
     *   M. Dion, H. Rydberg, E. Schroder, D. C. Langreth, and
     *   B. I. Lundqvist, Phys. Rev. Lett. 92, 246401 (2004).
     *
     *   T. Thonhauser, V. R. Cooper, S. Li, A. Puzder, P. Hyldgaard, and
     *   D. C. Langreth, Phys. Rev. B 76, 125112 (2007).
     *
     *   G. Roman-Perez and J. M. Soler, Phys. Rev. Lett. 103, 096102 (2009).
     *
     *
     * If you are using vdW-DF2, please also cite:
     *
     *   K. Lee, E. D. Murray, L. Kong, B. I. Lundqvist, and
     *   D. C. Langreth, Phys. Rev. B 82, 081101(R) (2010).
     *
     *
     * If you are calculating the stress with vdW-DF, please also cite:
     *
     *   R. Sabatini, E. Kucukbenli, B. Kolb, T. Thonhauser, and
     *   S. de Gironcoli, J. Phys.: Condens. Matter 24, 424209 (2012).
     *

     Carrying out vdW-DF run using the following parameters:

     Nqs =      20    Nr_points =    1024   r_max =   100.000
     q_mesh =
               0.00001000     0.04494208     0.09755937     0.15916263
               0.23128650     0.31572767     0.41458969     0.53033537
               0.66584808     0.82450364     1.01025438     1.22772762
               1.48234092     1.78043706     2.12944203     2.53805004
               3.01644009     3.57652955     4.23227104     5.00000000

     Gradients computed in reciprocal space

[...]

     Starting wfc are  156 randomized atomic wfcs

     Self-consistent Calculation

[...]

     iteration # 35     ecut=    36.75 Ry     beta=0.10
     Davidson diagonalization with overlap
     c_bands:  1 eigenvalues not converged
     ethr =  2.60E-06,  avg # of iterations =  1.5

[...]

     total energy              =   -2508.32178335 Ry
     Harris-Foulkes estimate   =   -2508.32178035 Ry
     estimated scf accuracy    <       0.00000125 Ry

[...]

     iteration #176     ecut=    36.75 Ry     beta=0.10
     Davidson diagonalization with overlap
     ethr =  6.85E-10,  avg # of iterations =  2.0

[...]

     negative rho (up, down):  1.988E-01 1.872E-01

[...]

     Adding external electric field

     Computed dipole along edir(3) :
        Dipole                0.0167 Ry au,          0.0425 Debye
        Dipole field          0.0001 Ry au

        Potential amp.       -0.0050 Ry
        Total length         44.6178 bohr

     Magnetic moment per site:
     atom:    1    charge:    6.0006    magn:    0.9582    constr:    0.0000
     atom:    2    charge:    6.0005    magn:    0.9585    constr:    0.0000
     atom:    3    charge:    6.0005    magn:    0.9582    constr:    0.0000
     atom:    4    charge:    2.1918    magn:   -0.0206    constr:    0.0000
     atom:    5    charge:    5.9919    magn:   -0.7749    constr:    0.0000
     atom:    6    charge:    5.9919    magn:   -0.7745    constr:    0.0000
     atom:    7    charge:    5.9920    magn:   -0.7739    constr:    0.0000
     atom:    8    charge:    2.1963    magn:   -0.0140    constr:    0.0000
     atom:    9    charge:    6.0001    magn:    0.9627    constr:    0.0000
     atom:   10    charge:    6.0001    magn:    0.9627    constr:    0.0000
     atom:   11    charge:    6.0002    magn:    0.9623    constr:    0.0000
     atom:   12    charge:    2.1822    magn:   -0.0192    constr:    0.0000

     End of self-consistent calculation

 ------ SPIN UP ------------

[...]

 ------ SPIN DOWN ----------

[...]

          k = 0.0646-0.0000 0.0000 ( 14223 PWs)   bands (ev):

[...]

          k =-0.0968-0.1677 0.0000 ( 14170 PWs)   bands (ev):

   -84.9834 -84.5737 -84.5639 -78.7831 -78.7680 -78.7529 -76.1635 -76.1466
   -76.1457 -76.1309 -76.1288 -76.1131 -47.5795 -47.5625 -47.5536 -47.5372
   -47.5085 -47.4662 -47.4650 -47.4004 -47.2822 -45.1237 -45.0976 -45.0511
   -45.0291 -45.0146 -44.9873 -44.9771 -44.9663 -44.9566 -44.9451 -44.8501
   -44.8469 -44.8231 -44.8224 -44.8109 -44.7908 -44.7787 -44.7636 -44.2738
   -44.2391 -44.2203 -43.9347 -43.9254 -43.8782 -43.8690 -43.8056 -43.7882
    -4.7914  -4.3198  -3.2708  -2.9454  -2.8438  -2.7268  -2.3515  -2.2425
    -2.1985  -2.1714  -2.0103  -1.6363  -1.6344  -1.5386  -1.4432  -1.2518
    -0.9799  -0.9641  -0.9191  -0.7272  -0.7044  -0.4259  -0.1551  -0.0129
     0.1036   0.1151   0.2566   0.3868   0.6091   0.6992   0.7501   0.8173
     0.8823   0.9513   1.1238   1.1517   1.2482   1.2639   1.2919   1.3983
     1.4030   1.4953   1.6113   1.8151   2.2169   2.2784   2.4523   2.5289
     2.5695   2.7000   2.7130   2.9131   2.9292   3.0553   3.1074   3.1325
     3.1448   3.3473   3.3885   3.4226   3.5968   3.6265   3.8174   4.0526
     4.5683   4.8176   5.2260   5.8903   6.1174   6.3127   6.5173   6.6020
     7.7401

     the Fermi energy is     1.6563 ev

!    total energy              =   -2508.32179339 Ry
     Harris-Foulkes estimate   =   -2508.32178324 Ry
     estimated scf accuracy    <       0.00000092 Ry

     The total energy is the sum of the following terms:

     one-electron contribution =  -22700.13725584 Ry
     hartree contribution      =   11342.86474290 Ry
     xc contribution           =    -364.20588145 Ry
     ewald contribution        =    9213.24895105 Ry
     electric field correction =       0.00000093 Ry
     smearing contrib. (-TS)   =      -0.09235098 Ry

     total magnetization       =     7.74 Bohr mag/cell
     absolute magnetization    =    21.72 Bohr mag/cell

     convergence has been achieved in 176 iterations

 BEEF-vdW xc energy contributions
           1 :   -318.236163626740
           2 :    290.096951578663
           3 :   -242.239278170710
           4 :    187.626539018227
           5 :   -138.416081666399
           6 :    101.860544364912
           7 :   -79.0727779617929
           8 :    66.5352003899491
           9 :   -59.0210209069808
          10 :    52.2821376529780
          11 :   -44.4062429846766
          12 :    35.6339612044589
          13 :   -27.2332795990174
          14 :    20.3206589131714
          15 :   -15.2734664161071
          16 :    11.8090517125446
          17 :   -9.39457005432939
          18 :    7.59015317128535
          19 :   -6.15851493604515
          20 :    4.99474069955590
          21 :   -4.02643408204847
          22 :    3.17470945042521
          23 :   -2.38171242508889
          24 :    1.64097821509591
          25 :  -0.984891448971439
          26 :   0.435522254359228
          27 :   2.198355698783416E-002
          28 :  -0.415230242048665
          29 :   0.739019915481435
          30 :  -0.953715858444468
          31 :   -29.4459187502220
          32 :   -21.4590889044651

     Forces acting on atoms (Ry/au):

     negative rho (up, down):  1.988E-01 1.872E-01
     atom    1 type  1   force =     0.00000217   -0.00015524   -0.00142764
     atom    2 type  1   force =    -0.00014245    0.00007724   -0.00143268
     atom    3 type  1   force =     0.00014043    0.00007300   -0.00142025
     atom    4 type  2   force =    -0.00001336   -0.00004142    0.02435369
     atom    5 type  1   force =     0.00000237   -0.00402399   -0.00627233
     atom    6 type  1   force =    -0.00348183    0.00201774   -0.00627898
     atom    7 type  1   force =     0.00349611    0.00202245   -0.00629048
     atom    8 type  2   force =    -0.00000254   -0.00000583   -0.00009526
     atom    9 type  1   force =    -0.00000165   -0.00013953   -0.00042497
     atom   10 type  1   force =    -0.00010224    0.00007734   -0.00043046
     atom   11 type  1   force =     0.00013971    0.00010008   -0.00042211
     atom   12 type  2   force =    -0.00003673   -0.00000185    0.00014146

     Total force =     0.027694     Total SCF correction =     0.006345
     SCF correction compared to forces is large: reduce conv_thr to get better values

     entering subroutine stress ...

     negative rho (up, down):  1.988E-01 1.872E-01
          total   stress  (Ry/bohr**3)                   (kbar)     P=   -8.57
  -0.00006896   0.00000002  -0.00000000        -10.15      0.00     -0.00
   0.00000002  -0.00006897  -0.00000000          0.00    -10.15     -0.00
  -0.00000000  -0.00000000  -0.00003681         -0.00     -0.00     -5.41

 !ASE

     Writing output data file calc.save

     General routines

     Parallel routines

   This run was terminated on:   9:39: 2  27Dec2018

   JOB DONE.
Job  /afs/slac/g/suncat/bin/suncat-tsmpirun -x LD_LIBRARY_PATH -wdir /scratch/qe110075_nbClp pw.x -in pw.inp

TID   HOST_NAME   COMMAND_LINE            STATUS            TERMINATION_TIME
00000 suncat0266 pw.x -in pw.inp   Done                     12/27/2018 09:39:02
00001 suncat0266 pw.x -in pw.inp   Done                     12/27/2018 09:39:02
00002 suncat0266 pw.x -in pw.inp   Done                     12/27/2018 09:39:02
00003 suncat0266 pw.x -in pw.inp   Done                     12/27/2018 09:39:02
00004 suncat0266 pw.x -in pw.inp   Done                     12/27/2018 09:39:02
00005 suncat0266 pw.x -in pw.inp   Done                     12/27/2018 09:39:02
00006 suncat0266 pw.x -in pw.inp   Done                     12/27/2018 09:39:02
00007 suncat0266 pw.x -in pw.inp   Done                     12/27/2018 09:39:02
00008 suncat0264 pw.x -in pw.inp   Done                     12/27/2018 09:39:02
00009 suncat0264 pw.x -in pw.inp   Done                     12/27/2018 09:39:02
00010 suncat0264 pw.x -in pw.inp   Done                     12/27/2018 09:39:02
00011 suncat0264 pw.x -in pw.inp   Done                     12/27/2018 09:39:02
00012 suncat0264 pw.x -in pw.inp   Done                     12/27/2018 09:39:02
00013 suncat0264 pw.x -in pw.inp   Done                     12/27/2018 09:39:02
00014 suncat0264 pw.x -in pw.inp   Done                     12/27/2018 09:39:02
00015 suncat0264 pw.x -in pw.inp   Done                     12/27/2018 09:39:02
00016 suncat0256 pw.x -in pw.inp   Done                     12/27/2018 09:39:02
00017 suncat0256 pw.x -in pw.inp   Done                     12/27/2018 09:39:02
00018 suncat0256 pw.x -in pw.inp   Done                     12/27/2018 09:39:02
00019 suncat0256 pw.x -in pw.inp   Done                     12/27/2018 09:39:02
00020 suncat0256 pw.x -in pw.inp   Done                     12/27/2018 09:39:02
00021 suncat0256 pw.x -in pw.inp   Done                     12/27/2018 09:39:02
00022 suncat0256 pw.x -in pw.inp   Done                     12/27/2018 09:39:02
00023 suncat0256 pw.x -in pw.inp   Done                     12/27/2018 09:39:02
00024 suncat0255 pw.x -in pw.inp   Done                     12/27/2018 09:39:02
00025 suncat0255 pw.x -in pw.inp   Done                     12/27/2018 09:39:02
00026 suncat0255 pw.x -in pw.inp   Done                     12/27/2018 09:39:02
00027 suncat0255 pw.x -in pw.inp   Done                     12/27/2018 09:39:02
00028 suncat0255 pw.x -in pw.inp   Done                     12/27/2018 09:39:02
00029 suncat0255 pw.x -in pw.inp   Done                     12/27/2018 09:39:02
00030 suncat0255 pw.x -in pw.inp   Done                     12/27/2018 09:39:02
00031 suncat0255 pw.x -in pw.inp   Done                     12/27/2018 09:39:02
00032 suncat0234 pw.x -in pw.inp   Done                     12/27/2018 09:39:02
00033 suncat0234 pw.x -in pw.inp   Done                     12/27/2018 09:39:02
00034 suncat0234 pw.x -in pw.inp   Done                     12/27/2018 09:39:02
00035 suncat0234 pw.x -in pw.inp   Done                     12/27/2018 09:39:02
00036 suncat0234 pw.x -in pw.inp   Done                     12/27/2018 09:39:02
00037 suncat0234 pw.x -in pw.inp   Done                     12/27/2018 09:39:02
00038 suncat0234 pw.x -in pw.inp   Done                     12/27/2018 09:39:02
00039 suncat0234 pw.x -in pw.inp   Done                     12/27/2018 09:39:02
00040 suncat0233 pw.x -in pw.inp   Done                     12/27/2018 09:39:02
00041 suncat0233 pw.x -in pw.inp   Done                     12/27/2018 09:39:02
00042 suncat0233 pw.x -in pw.inp   Done                     12/27/2018 09:39:02
00043 suncat0233 pw.x -in pw.inp   Done                     12/27/2018 09:39:02
00044 suncat0233 pw.x -in pw.inp   Done                     12/27/2018 09:39:02
00045 suncat0233 pw.x -in pw.inp   Done                     12/27/2018 09:39:02
00046 suncat0233 pw.x -in pw.inp   Done                     12/27/2018 09:39:02
00047 suncat0233 pw.x -in pw.inp   Done                     12/27/2018 09:39:02
00048 suncat0222 pw.x -in pw.inp   Done                     12/27/2018 09:39:02
00049 suncat0222 pw.x -in pw.inp   Done                     12/27/2018 09:39:02
00050 suncat0222 pw.x -in pw.inp   Done                     12/27/2018 09:39:02
00051 suncat0222 pw.x -in pw.inp   Done                     12/27/2018 09:39:02
00052 suncat0222 pw.x -in pw.inp   Done                     12/27/2018 09:39:02
00053 suncat0222 pw.x -in pw.inp   Done                     12/27/2018 09:39:02
00054 suncat0222 pw.x -in pw.inp   Done                     12/27/2018 09:39:02
00055 suncat0222 pw.x -in pw.inp   Done                     12/27/2018 09:39:02
00056 suncat0221 pw.x -in pw.inp   Done                     12/27/2018 09:39:02
00057 suncat0221 pw.x -in pw.inp   Done                     12/27/2018 09:39:02
00058 suncat0221 pw.x -in pw.inp   Done                     12/27/2018 09:39:02
00059 suncat0221 pw.x -in pw.inp   Done                     12/27/2018 09:39:02
00060 suncat0221 pw.x -in pw.inp   Done                     12/27/2018 09:39:02
00061 suncat0221 pw.x -in pw.inp   Done                     12/27/2018 09:39:02
00062 suncat0221 pw.x -in pw.inp   Done                     12/27/2018 09:39:02
00063 suncat0221 pw.x -in pw.inp   Done                     12/27/2018 09:39:02