     Program PWSCF v.5.1rc2 (svn rev. 11289) starts on 20Dec2018 at  8:35: 0

     Current dimensions of program PWSCF are:
     Max number of different atomic species (ntypx) = 10
     Max number of k-points (npk) =  40000
     Max angular momentum in pseudopotentials (lmaxx) =  3
     Presently stress not available with electric field

     IMPORTANT: XC functional enforced from input :
     Exchange-correlation      = BEEF-VDW ( 1  4 27 13 2)
     Any further DFT definition will be discarded
     Please, verify this is what you really want

     Subspace diagonalization in iterative solution of the eigenvalue problem:
     a serial algorithm will be used

     Generating pointlists ...
     new r_m :   0.4125 (alat units)  0.7795 (a.u.) for type    1
     new r_m :   0.4125 (alat units)  0.7795 (a.u.) for type    2

     bravais-lattice index     =            0
     lattice parameter (alat)  =       1.8897  a.u.
     unit-cell volume          =    3536.2689 (a.u.)^3
     number of atoms/cell      =           12
     number of atomic types    =            2
     number of electrons       =       198.00
     number of Kohn-Sham states=          129
     kinetic-energy cutoff     =      36.7493  Ry
     charge density cutoff     =     367.4932  Ry
     convergence threshold     =      1.0E-06
     mixing beta               =       0.1000
     number of iterations used =           10  plain     mixing
     Exchange-correlation      = BEEF-VDW ( 1  4 27 13 2)
     nstep                     =           50

     celldm(1)=   1.889726  celldm(2)=   0.000000  celldm(3)=   0.000000
     celldm(4)=   0.000000  celldm(5)=   0.000000  celldm(6)=   0.000000

     crystal axes: (cart. coord. in units of alat)
               a(1) = (   5.011564   0.000000   0.000000 )
               a(2) = (  -2.505782   4.340142   0.000000 )
               a(3) = (   0.000000   0.000000  24.091925 )

     reciprocal axes: (cart. coord. in units 2 pi/alat)
               b(1) = (  0.199539  0.115204  0.000000 )
               b(2) = (  0.000000  0.230407  0.000000 )
               b(3) = (  0.000000  0.000000  0.041508 )

     PseudoPot. # 1 for Co read from file:
     /afs/slac.stanford.edu/u/if/mamunm/psp/gbrv1.5pbe/Co.UPF
     MD5 check sum: 5f91765df6ddd3222702df6e7b74a16d
     Pseudo is Ultrasoft + core correction, Zval = 17.0
     Generated by new atomic code, or converted to UPF format
     Using radial grid of  863 points,  6 beta functions with:
                l(1) =   0
                l(2) =   0
                l(3) =   1
                l(4) =   1
                l(5) =   2
                l(6) =   2
     Q(r) pseudized with  8 coefficients,  rinner =    1.200   1.200   1.200
                                                       1.200   1.200

     PseudoPot. # 2 for Mn read from file:
     /afs/slac.stanford.edu/u/if/mamunm/psp/gbrv1.5pbe/Mn.UPF
     MD5 check sum: 82ef2b46521d7a7d9e736dc3972e4928
     Pseudo is Ultrasoft + core correction, Zval = 15.0
     Generated by new atomic code, or converted to UPF format
     Using radial grid of  859 points,  6 beta functions with:
                l(1) =   0
                l(2) =   0
                l(3) =   1
                l(4) =   1
                l(5) =   2
                l(6) =   2
     Q(r) pseudized with  8 coefficients,  rinner =    0.950   0.950   0.950
                                                       0.950   0.950

     vdW kernel table read from file vdW_kernel_table
     MD5 check sum: 095c7af220d748ca6e76c0b4c6cfb241

     atomic species   valence    mass     pseudopotential
        Co1           17.00    58.93319     Co( 1.00)
        Mn1           15.00    54.93804     Mn( 1.00)

     Starting magnetic structure
     atomic species   magnetization
        Co1          0.118
        Mn1          0.133

     No symmetry found

   Cartesian axes

     site n.     atom                  positions (alat units)
         1           Co1 tau(   1) = (   0.0000000   0.0000000  10.0000000  )
         2           Co1 tau(   2) = (  -1.2528910   2.1700708  10.0000000  )
         3           Co1 tau(   3) = (   1.2528910   2.1700708  10.0000000  )
         4           Mn1 tau(   4) = (   2.5057820   0.0000000  10.0000000  )
         5           Co1 tau(   5) = (   2.5057820   1.4467139  12.0459624  )
         6           Co1 tau(   6) = (   1.2528910   3.6167847  12.0459624  )
         7           Co1 tau(   7) = (  -1.2528910   3.6167847  12.0459624  )
         8           Mn1 tau(   8) = (   0.0000000   1.4467139  12.0459624  )
         9           Co1 tau(   9) = (  -0.0000000   2.8934278  14.0919248  )
        10           Co1 tau(  10) = (   1.2528910   0.7233569  14.0919248  )
        11           Co1 tau(  11) = (   3.7586729   0.7233569  14.0919248  )
        12           Mn1 tau(  12) = (   2.5057820   2.8934278  14.0919248  )

     number of k points=    40  Fermi-Dirac smearing, width (Ry)=  0.0110
                       cart. coord. in units 2pi/alat
        k(    1) = (   0.0000000   0.0000000   0.0000000), wk =   0.0277778
        k(    2) = (   0.0000000   0.0384012   0.0000000), wk =   0.0555556
        k(    3) = (   0.0000000   0.0768024   0.0000000), wk =   0.0555556
        k(    4) = (   0.0000000  -0.1152036   0.0000000), wk =   0.0277778
        k(    5) = (   0.0332564   0.0192006   0.0000000), wk =   0.0555556
        k(    6) = (   0.0332564   0.0576018   0.0000000), wk =   0.0555556
        k(    7) = (   0.0332564   0.0960030   0.0000000), wk =   0.0555556
        k(    8) = (   0.0332564  -0.0960030   0.0000000), wk =   0.0555556
        k(    9) = (   0.0332564  -0.0576018   0.0000000), wk =   0.0555556
        k(   10) = (   0.0332564  -0.0192006   0.0000000), wk =   0.0555556
        k(   11) = (   0.0665128   0.0384012   0.0000000), wk =   0.0555556
        k(   12) = (   0.0665128   0.0768024   0.0000000), wk =   0.0555556
        k(   13) = (   0.0665128   0.1152036   0.0000000), wk =   0.0555556
        k(   14) = (   0.0665128  -0.0768024   0.0000000), wk =   0.0555556
        k(   15) = (   0.0665128  -0.0384012   0.0000000), wk =   0.0555556
        k(   16) = (   0.0665128   0.0000000   0.0000000), wk =   0.0555556
        k(   17) = (  -0.0997693  -0.0576018   0.0000000), wk =   0.0277778
        k(   18) = (  -0.0997693  -0.0192006   0.0000000), wk =   0.0555556
        k(   19) = (  -0.0997693   0.0192006   0.0000000), wk =   0.0555556
        k(   20) = (  -0.0997693  -0.1728054   0.0000000), wk =   0.0277778
        k(   21) = (   0.0000000   0.0000000   0.0000000), wk =   0.0277778
        k(   22) = (   0.0000000   0.0384012   0.0000000), wk =   0.0555556
        k(   23) = (   0.0000000   0.0768024   0.0000000), wk =   0.0555556
        k(   24) = (   0.0000000  -0.1152036   0.0000000), wk =   0.0277778
        k(   25) = (   0.0332564   0.0192006   0.0000000), wk =   0.0555556
        k(   26) = (   0.0332564   0.0576018   0.0000000), wk =   0.0555556
        k(   27) = (   0.0332564   0.0960030   0.0000000), wk =   0.0555556
        k(   28) = (   0.0332564  -0.0960030   0.0000000), wk =   0.0555556
        k(   29) = (   0.0332564  -0.0576018   0.0000000), wk =   0.0555556
        k(   30) = (   0.0332564  -0.0192006   0.0000000), wk =   0.0555556
        k(   31) = (   0.0665128   0.0384012   0.0000000), wk =   0.0555556
        k(   32) = (   0.0665128   0.0768024   0.0000000), wk =   0.0555556
        k(   33) = (   0.0665128   0.1152036   0.0000000), wk =   0.0555556
        k(   34) = (   0.0665128  -0.0768024   0.0000000), wk =   0.0555556
        k(   35) = (   0.0665128  -0.0384012   0.0000000), wk =   0.0555556
        k(   36) = (   0.0665128   0.0000000   0.0000000), wk =   0.0555556
        k(   37) = (  -0.0997693  -0.0576018   0.0000000), wk =   0.0277778
        k(   38) = (  -0.0997693  -0.0192006   0.0000000), wk =   0.0555556
        k(   39) = (  -0.0997693   0.0192006   0.0000000), wk =   0.0555556
        k(   40) = (  -0.0997693  -0.1728054   0.0000000), wk =   0.0277778

     Largest allocated arrays     est. size (Mb)     dimensions
     Largest temporary arrays     est. size (Mb)     dimensions

     Check: negative/imaginary core charge=   -0.000008    0.000000

     Initial potential from superposition of free atoms
     Check: negative starting charge=(component1):   -0.000872
     Check: negative starting charge=(component2):   -0.000668

     starting charge  187.49968, renormalised to  198.00000

     negative rho (up, down):  9.212E-04 7.054E-04

     *
     * You are using vdW-DF for exchange-correlation in this calculation.
     * Please cite the following three references that made this development
     * possible:
     *
     *   M. Dion, H. Rydberg, E. Schroder, D. C. Langreth, and
     *   B. I. Lundqvist, Phys. Rev. Lett. 92, 246401 (2004).
     *
     *   T. Thonhauser, V. R. Cooper, S. Li, A. Puzder, P. Hyldgaard, and
     *   D. C. Langreth, Phys. Rev. B 76, 125112 (2007).
     *
     *   G. Roman-Perez and J. M. Soler, Phys. Rev. Lett. 103, 096102 (2009).
     *
     *
     * If you are using vdW-DF2, please also cite:
     *
     *   K. Lee, E. D. Murray, L. Kong, B. I. Lundqvist, and
     *   D. C. Langreth, Phys. Rev. B 82, 081101(R) (2010).
     *
     *
     * If you are calculating the stress with vdW-DF, please also cite:
     *
     *   R. Sabatini, E. Kucukbenli, B. Kolb, T. Thonhauser, and
     *   S. de Gironcoli, J. Phys.: Condens. Matter 24, 424209 (2012).
     *

     Carrying out vdW-DF run using the following parameters:

     Nqs =      20    Nr_points =    1024   r_max =   100.000
     q_mesh =
               0.00001000     0.04494208     0.09755937     0.15916263
               0.23128650     0.31572767     0.41458969     0.53033537
               0.66584808     0.82450364     1.01025438     1.22772762
               1.48234092     1.78043706     2.12944203     2.53805004
               3.01644009     3.57652955     4.23227104     5.00000000

     Gradients computed in reciprocal space

     Adding external electric field

     Computed dipole along edir(3) :
        Dipole               -0.0000 Ry au,         -0.0000 Debye
        Dipole field         -0.0000 Ry au

        Potential amp.        0.0000 Ry
        Total length         44.3890 bohr

[...]

     Starting wfc are  156 randomized atomic wfcs

     Self-consistent Calculation

     iteration #  1     ecut=    36.75 Ry     beta=0.10
     Davidson diagonalization with overlap
     ethr =  1.00E-02,  avg # of iterations =  7.3

[...]

     Magnetic moment per site:
     atom:    1    charge:    8.4572    magn:    0.9616    constr:    0.0000
     atom:    2    charge:    8.4572    magn:    0.9616    constr:    0.0000
     atom:    3    charge:    8.4572    magn:    0.9615    constr:    0.0000
     atom:    4    charge:    6.2290    magn:    0.7938    constr:    0.0000
     atom:    5    charge:    8.4519    magn:    0.9578    constr:    0.0000
     atom:    6    charge:    8.4519    magn:    0.9578    constr:    0.0000
     atom:    7    charge:    8.4519    magn:    0.9578    constr:    0.0000
     atom:    8    charge:    6.2235    magn:    0.7893    constr:    0.0000
[...]
        k(    4) = (   0.0000000  -0.1152036   0.0000000), wk =   0.0277778
        k(    5) = (   0.0332564   0.0192006   0.0000000), wk =   0.0555556
        k(    6) = (   0.0332564   0.0576018   0.0000000), wk =   0.0555556
        k(    7) = (   0.0332564   0.0960030   0.0000000), wk =   0.0555556
        k(    8) = (   0.0332564  -0.0960030   0.0000000), wk =   0.0555556
        k(    9) = (   0.0332564  -0.0576018   0.0000000), wk =   0.0555556
        k(   10) = (   0.0332564  -0.0192006   0.0000000), wk =   0.0555556
        k(   11) = (   0.0665128   0.0384012   0.0000000), wk =   0.0555556
        k(   12) = (   0.0665128   0.0768024   0.0000000), wk =   0.0555556
        k(   13) = (   0.0665128   0.1152036   0.0000000), wk =   0.0555556
        k(   14) = (   0.0665128  -0.0768024   0.0000000), wk =   0.0555556
        k(   15) = (   0.0665128  -0.0384012   0.0000000), wk =   0.0555556
        k(   16) = (   0.0665128   0.0000000   0.0000000), wk =   0.0555556
        k(   17) = (  -0.0997693  -0.0576018   0.0000000), wk =   0.0277778
        k(   18) = (  -0.0997693  -0.0192006   0.0000000), wk =   0.0555556
        k(   19) = (  -0.0997693   0.0192006   0.0000000), wk =   0.0555556
        k(   20) = (  -0.0997693  -0.1728054   0.0000000), wk =   0.0277778
        k(   21) = (   0.0000000   0.0000000   0.0000000), wk =   0.0277778
        k(   22) = (   0.0000000   0.0384012   0.0000000), wk =   0.0555556
        k(   23) = (   0.0000000   0.0768024   0.0000000), wk =   0.0555556
        k(   24) = (   0.0000000  -0.1152036   0.0000000), wk =   0.0277778
        k(   25) = (   0.0332564   0.0192006   0.0000000), wk =   0.0555556
        k(   26) = (   0.0332564   0.0576018   0.0000000), wk =   0.0555556
        k(   27) = (   0.0332564   0.0960030   0.0000000), wk =   0.0555556
        k(   28) = (   0.0332564  -0.0960030   0.0000000), wk =   0.0555556
        k(   29) = (   0.0332564  -0.0576018   0.0000000), wk =   0.0555556
        k(   30) = (   0.0332564  -0.0192006   0.0000000), wk =   0.0555556
        k(   31) = (   0.0665128   0.0384012   0.0000000), wk =   0.0555556
        k(   32) = (   0.0665128   0.0768024   0.0000000), wk =   0.0555556
        k(   33) = (   0.0665128   0.1152036   0.0000000), wk =   0.0555556
        k(   34) = (   0.0665128  -0.0768024   0.0000000), wk =   0.0555556
        k(   35) = (   0.0665128  -0.0384012   0.0000000), wk =   0.0555556
        k(   36) = (   0.0665128   0.0000000   0.0000000), wk =   0.0555556
        k(   37) = (  -0.0997693  -0.0576018   0.0000000), wk =   0.0277778
        k(   38) = (  -0.0997693  -0.0192006   0.0000000), wk =   0.0555556
        k(   39) = (  -0.0997693   0.0192006   0.0000000), wk =   0.0555556
        k(   40) = (  -0.0997693  -0.1728054   0.0000000), wk =   0.0277778

     Largest allocated arrays     est. size (Mb)     dimensions
     Largest temporary arrays     est. size (Mb)     dimensions

     Check: negative/imaginary core charge=   -0.000008    0.000000

     Initial potential from superposition of free atoms
     Check: negative starting charge=(component1):   -0.000861
     Check: negative starting charge=(component2):   -0.000659

     starting charge  187.49968, renormalised to  198.00000

[...]

     *
     * You are using vdW-DF for exchange-correlation in this calculation.
     * Please cite the following three references that made this development
     * possible:
     *
     *   M. Dion, H. Rydberg, E. Schroder, D. C. Langreth, and
     *   B. I. Lundqvist, Phys. Rev. Lett. 92, 246401 (2004).
     *
     *   T. Thonhauser, V. R. Cooper, S. Li, A. Puzder, P. Hyldgaard, and
     *   D. C. Langreth, Phys. Rev. B 76, 125112 (2007).
     *
     *   G. Roman-Perez and J. M. Soler, Phys. Rev. Lett. 103, 096102 (2009).
     *
     *
     * If you are using vdW-DF2, please also cite:
     *
     *   K. Lee, E. D. Murray, L. Kong, B. I. Lundqvist, and
     *   D. C. Langreth, Phys. Rev. B 82, 081101(R) (2010).
     *
     *
     * If you are calculating the stress with vdW-DF, please also cite:
     *
     *   R. Sabatini, E. Kucukbenli, B. Kolb, T. Thonhauser, and
     *   S. de Gironcoli, J. Phys.: Condens. Matter 24, 424209 (2012).
     *

     Carrying out vdW-DF run using the following parameters:

     Nqs =      20    Nr_points =    1024   r_max =   100.000
     q_mesh =
               0.00001000     0.04494208     0.09755937     0.15916263
               0.23128650     0.31572767     0.41458969     0.53033537
               0.66584808     0.82450364     1.01025438     1.22772762
               1.48234092     1.78043706     2.12944203     2.53805004
               3.01644009     3.57652955     4.23227104     5.00000000

     Gradients computed in reciprocal space

[...]

     Starting wfc are  156 randomized atomic wfcs

     Self-consistent Calculation

[...]

     total energy              =   -3332.01223112 Ry
     Harris-Foulkes estimate   =   -3332.01223098 Ry
     estimated scf accuracy    <       0.00000163 Ry

[...]

     iteration # 40     ecut=    36.75 Ry     beta=0.10
     Davidson diagonalization with overlap
     ethr =  5.11E-10,  avg # of iterations =  1.0

[...]

     negative rho (up, down):  1.146E-03 8.806E-04

[...]

     Adding external electric field

     Computed dipole along edir(3) :
        Dipole                0.0202 Ry au,          0.0513 Debye
        Dipole field          0.0001 Ry au

        Potential amp.       -0.0064 Ry
        Total length         44.3890 bohr

     Magnetic moment per site:
     atom:    1    charge:    8.2923    magn:    0.9336    constr:    0.0000
     atom:    2    charge:    8.2922    magn:    0.9336    constr:    0.0000
     atom:    3    charge:    8.2923    magn:    0.9336    constr:    0.0000
     atom:    4    charge:    6.0120    magn:    1.3505    constr:    0.0000
     atom:    5    charge:    8.2778    magn:    0.9625    constr:    0.0000
     atom:    6    charge:    8.2778    magn:    0.9625    constr:    0.0000
     atom:    7    charge:    8.2778    magn:    0.9625    constr:    0.0000
     atom:    8    charge:    5.9942    magn:    1.2059    constr:    0.0000
     atom:    9    charge:    8.2867    magn:    0.9436    constr:    0.0000
     atom:   10    charge:    8.2868    magn:    0.9436    constr:    0.0000
     atom:   11    charge:    8.2867    magn:    0.9436    constr:    0.0000
     atom:   12    charge:    6.0080    magn:    1.4287    constr:    0.0000

     End of self-consistent calculation

 ------ SPIN UP ------------

[...]

 ------ SPIN DOWN ----------

[...]

          k = 0.0665 0.0000 0.0000 ( 13291 PWs)   bands (ev):

[...]

          k =-0.0998-0.1728 0.0000 ( 13378 PWs)   bands (ev):

   -92.9526 -92.9436 -92.9346 -92.7924 -92.7896 -92.7829 -92.7809 -92.7745
   -92.7724 -76.0533 -75.8308 -75.7617 -56.3974 -56.3346 -56.3333 -56.3234
   -56.3162 -56.3004 -56.2916 -56.2777 -56.2439 -56.2304 -56.2113 -56.1692
   -56.1606 -56.1530 -56.1475 -56.1438 -56.1414 -56.1344 -56.1278 -56.1051
   -56.1019 -56.0930 -56.0927 -56.0822 -56.0790 -56.0717 -56.0693 -44.8667
   -44.8641 -44.8408 -44.6821 -44.6795 -44.6028 -44.6005 -44.5490 -44.4929
    -4.9358  -4.8185  -3.1923  -3.1266  -2.3069  -2.2131  -1.8750  -1.7902
    -1.7777  -1.7209  -1.2955  -1.1206  -1.1108  -1.0131  -0.9843  -0.7530
    -0.6799  -0.6664  -0.5297  -0.4475  -0.4163  -0.3840  -0.3061  -0.1690
    -0.1136  -0.0637  -0.0193   0.0778   0.0858   0.1004   0.2712   0.2730
     0.4091   0.4122   0.5665   0.6289   0.8613   0.9003   0.9304   0.9480
     1.0001   1.0935   1.1379   1.2556   1.3345   1.3695   1.5347   1.5479
     1.6459   1.7416   1.9722   2.0180   2.2358   2.3303   2.5163   2.6276
     2.6338   2.7093   2.9182   3.0061   3.0246   3.0984   3.1644   3.4946
     3.6581   3.8322   3.8971   4.6267   4.8764   5.2350   5.4250   5.5128
     6.5478   6.8198   6.9691   6.9972   7.4687   7.5023   7.6705   7.6773
     8.7192

     the Fermi energy is     0.9631 ev

!    total energy              =   -3332.01223141 Ry
     Harris-Foulkes estimate   =   -3332.01223092 Ry
     estimated scf accuracy    <       0.00000058 Ry

     The total energy is the sum of the following terms:

     one-electron contribution =  -28967.96250123 Ry
     hartree contribution      =   14489.50646189 Ry
     xc contribution           =    -387.10048114 Ry
     ewald contribution        =   11533.64106941 Ry
     electric field correction =       0.00000145 Ry
     smearing contrib. (-TS)   =      -0.09678178 Ry

     total magnetization       =    24.89 Bohr mag/cell
     absolute magnetization    =    26.27 Bohr mag/cell

     convergence has been achieved in  40 iterations

 BEEF-vdW xc energy contributions
           1 :   -340.386704010701
           2 :    308.406698335493
           3 :   -254.220069233996
           4 :    192.711851871766
           5 :   -137.458775188731
           6 :    95.9052908959162
           7 :   -68.2201039567387
           8 :    49.6475310633866
           9 :   -34.5034933541860
          10 :    19.4636791043553
          11 :   -4.63904270501320
          12 :   -7.62108486074396
          13 :    14.9753613480511
          14 :   -16.8519950231384
          15 :    14.7746880380224
          16 :   -11.3588430414374
          17 :    8.81185543912892
          18 :   -7.91635540147689
          19 :    8.00250492306657
          20 :   -7.77063149493426
          21 :    6.32828847122033
          22 :   -3.79074107633886
          23 :    1.13699529110312
          24 :   0.477949556793703
          25 :  -0.467636041977357
          26 :  -0.857369532495056
          27 :    2.53168135965865
          28 :   -3.55522784988290
          29 :    3.47524581744295
          30 :   -2.58549174600631
          31 :   -29.1665755704906
          32 :   -20.3185418175827

     Forces acting on atoms (Ry/au):

     negative rho (up, down):  1.146E-03 8.806E-04
     atom    1 type  1   force =    -0.00000375   -0.00889504   -0.00346779
     atom    2 type  1   force =    -0.00771617    0.00444078   -0.00345324
     atom    3 type  1   force =     0.00771053    0.00444172   -0.00344649
     atom    4 type  2   force =     0.00000100    0.00000167   -0.03060936
     atom    5 type  1   force =     0.00000319    0.01132771    0.01412127
     atom    6 type  1   force =     0.00979704   -0.00566318    0.01415824
     atom    7 type  1   force =    -0.00979945   -0.00566884    0.01412441
     atom    8 type  2   force =     0.00000323    0.00000482   -0.00001182
     atom    9 type  1   force =     0.00008857    0.00021155   -0.00018870
     atom   10 type  1   force =     0.00016999   -0.00006581   -0.00017002
     atom   11 type  1   force =    -0.00015640   -0.00016070   -0.00017277
     atom   12 type  2   force =    -0.00009777    0.00002532   -0.00088372

     Total force =     0.046853     Total SCF correction =     0.003258

     entering subroutine stress ...

     negative rho (up, down):  1.146E-03 8.806E-04
          total   stress  (Ry/bohr**3)                   (kbar)     P=   -5.10
  -0.00005192   0.00000000  -0.00000001         -7.64      0.00     -0.00
   0.00000000  -0.00005193  -0.00000000          0.00     -7.64     -0.00
  -0.00000001  -0.00000000  -0.00000012         -0.00     -0.00     -0.02

 !ASE

     Writing output data file calc.save

     General routines

     Parallel routines

   This run was terminated on:  12:32: 9  20Dec2018

   JOB DONE.
Job  /afs/slac/g/suncat/bin/suncat-tsmpirun -x LD_LIBRARY_PATH -wdir /scratch/qe773517_zavjb pw.x -in pw.inp

TID   HOST_NAME   COMMAND_LINE            STATUS            TERMINATION_TIME
00000 suncat0178 pw.x -in pw.inp   Done                     12/20/2018 12:32:09
00001 suncat0178 pw.x -in pw.inp   Done                     12/20/2018 12:32:09
00002 suncat0178 pw.x -in pw.inp   Done                     12/20/2018 12:32:09
00003 suncat0178 pw.x -in pw.inp   Done                     12/20/2018 12:32:09
00004 suncat0178 pw.x -in pw.inp   Done                     12/20/2018 12:32:09
00005 suncat0178 pw.x -in pw.inp   Done                     12/20/2018 12:32:09
00006 suncat0178 pw.x -in pw.inp   Done                     12/20/2018 12:32:09
00007 suncat0178 pw.x -in pw.inp   Done                     12/20/2018 12:32:09
00008 suncat0177 pw.x -in pw.inp   Done                     12/20/2018 12:32:09
00009 suncat0177 pw.x -in pw.inp   Done                     12/20/2018 12:32:09
00010 suncat0177 pw.x -in pw.inp   Done                     12/20/2018 12:32:09
00011 suncat0177 pw.x -in pw.inp   Done                     12/20/2018 12:32:09
00012 suncat0177 pw.x -in pw.inp   Done                     12/20/2018 12:32:09
00013 suncat0177 pw.x -in pw.inp   Done                     12/20/2018 12:32:09
00014 suncat0177 pw.x -in pw.inp   Done                     12/20/2018 12:32:09
00015 suncat0177 pw.x -in pw.inp   Done                     12/20/2018 12:32:09
00016 suncat0172 pw.x -in pw.inp   Done                     12/20/2018 12:32:09
00017 suncat0172 pw.x -in pw.inp   Done                     12/20/2018 12:32:09
00018 suncat0172 pw.x -in pw.inp   Done                     12/20/2018 12:32:09
00019 suncat0172 pw.x -in pw.inp   Done                     12/20/2018 12:32:09
00020 suncat0172 pw.x -in pw.inp   Done                     12/20/2018 12:32:09
00021 suncat0172 pw.x -in pw.inp   Done                     12/20/2018 12:32:09
00022 suncat0172 pw.x -in pw.inp   Done                     12/20/2018 12:32:09
00023 suncat0172 pw.x -in pw.inp   Done                     12/20/2018 12:32:09
00024 suncat0171 pw.x -in pw.inp   Done                     12/20/2018 12:32:09
00025 suncat0171 pw.x -in pw.inp   Done                     12/20/2018 12:32:09
00026 suncat0171 pw.x -in pw.inp   Done                     12/20/2018 12:32:09
00027 suncat0171 pw.x -in pw.inp   Done                     12/20/2018 12:32:09
00028 suncat0171 pw.x -in pw.inp   Done                     12/20/2018 12:32:09
00029 suncat0171 pw.x -in pw.inp   Done                     12/20/2018 12:32:09
00030 suncat0171 pw.x -in pw.inp   Done                     12/20/2018 12:32:09
00031 suncat0171 pw.x -in pw.inp   Done                     12/20/2018 12:32:09
00032 suncat0217 pw.x -in pw.inp   Done                     12/20/2018 12:32:09
00033 suncat0217 pw.x -in pw.inp   Done                     12/20/2018 12:32:09
00034 suncat0217 pw.x -in pw.inp   Done                     12/20/2018 12:32:09
00035 suncat0217 pw.x -in pw.inp   Done                     12/20/2018 12:32:09
00036 suncat0217 pw.x -in pw.inp   Done                     12/20/2018 12:32:09
00037 suncat0217 pw.x -in pw.inp   Done                     12/20/2018 12:32:09
00038 suncat0217 pw.x -in pw.inp   Done                     12/20/2018 12:32:09
00039 suncat0217 pw.x -in pw.inp   Done                     12/20/2018 12:32:09
00040 suncat0216 pw.x -in pw.inp   Done                     12/20/2018 12:32:09
00041 suncat0216 pw.x -in pw.inp   Done                     12/20/2018 12:32:09
00042 suncat0216 pw.x -in pw.inp   Done                     12/20/2018 12:32:09
00043 suncat0216 pw.x -in pw.inp   Done                     12/20/2018 12:32:09
00044 suncat0216 pw.x -in pw.inp   Done                     12/20/2018 12:32:09
00045 suncat0216 pw.x -in pw.inp   Done                     12/20/2018 12:32:09
00046 suncat0216 pw.x -in pw.inp   Done                     12/20/2018 12:32:09
00047 suncat0216 pw.x -in pw.inp   Done                     12/20/2018 12:32:09
00048 suncat0215 pw.x -in pw.inp   Done                     12/20/2018 12:32:09
00049 suncat0215 pw.x -in pw.inp   Done                     12/20/2018 12:32:09
00050 suncat0215 pw.x -in pw.inp   Done                     12/20/2018 12:32:09
00051 suncat0215 pw.x -in pw.inp   Done                     12/20/2018 12:32:09
00052 suncat0215 pw.x -in pw.inp   Done                     12/20/2018 12:32:09
00053 suncat0215 pw.x -in pw.inp   Done                     12/20/2018 12:32:09
00054 suncat0215 pw.x -in pw.inp   Done                     12/20/2018 12:32:09
00055 suncat0215 pw.x -in pw.inp   Done                     12/20/2018 12:32:09
00056 suncat0210 pw.x -in pw.inp   Done                     12/20/2018 12:32:09
00057 suncat0210 pw.x -in pw.inp   Done                     12/20/2018 12:32:09
00058 suncat0210 pw.x -in pw.inp   Done                     12/20/2018 12:32:09
00059 suncat0210 pw.x -in pw.inp   Done                     12/20/2018 12:32:09
00060 suncat0210 pw.x -in pw.inp   Done                     12/20/2018 12:32:09
00061 suncat0210 pw.x -in pw.inp   Done                     12/20/2018 12:32:09
00062 suncat0210 pw.x -in pw.inp   Done                     12/20/2018 12:32:09
00063 suncat0210 pw.x -in pw.inp   Done                     12/20/2018 12:32:09