     Program PWSCF v.5.1rc2 (svn rev. 11289) starts on 30Dec2018 at 11: 9:54

     Current dimensions of program PWSCF are:
     Max number of different atomic species (ntypx) = 10
     Max number of k-points (npk) =  40000
     Max angular momentum in pseudopotentials (lmaxx) =  3
     Presently stress not available with electric field

     IMPORTANT: XC functional enforced from input :
     Exchange-correlation      = BEEF-VDW ( 1  4 27 13 2)
     Any further DFT definition will be discarded
     Please, verify this is what you really want

     Subspace diagonalization in iterative solution of the eigenvalue problem:
     a serial algorithm will be used

     bravais-lattice index     =            0
     lattice parameter (alat)  =       1.8897  a.u.
     unit-cell volume          =    4218.0395 (a.u.)^3
     number of atoms/cell      =           12
     number of atomic types    =            2
     number of electrons       =       192.00
     number of Kohn-Sham states=          126
     kinetic-energy cutoff     =      36.7493  Ry
     charge density cutoff     =     367.4932  Ry
     convergence threshold     =      1.0E-06
     mixing beta               =       0.1000
     number of iterations used =           10  plain     mixing
     Exchange-correlation      = BEEF-VDW ( 1  4 27 13 2)
     nstep                     =           50

     celldm(1)=   1.889726  celldm(2)=   0.000000  celldm(3)=   0.000000
     celldm(4)=   0.000000  celldm(5)=   0.000000  celldm(6)=   0.000000

     crystal axes: (cart. coord. in units of alat)
               a(1) = (   5.434568   0.000000   0.000000 )
               a(2) = (  -2.717284   4.706474   0.000000 )
               a(3) = (   0.000000   0.000000  24.437306 )

     reciprocal axes: (cart. coord. in units 2 pi/alat)
               b(1) = (  0.184007  0.106237  0.000000 )
               b(2) = (  0.000000  0.212473  0.000000 )
               b(3) = (  0.000000  0.000000  0.040921 )

     PseudoPot. # 1 for Ir read from file:
     /afs/slac.stanford.edu/u/if/mamunm/psp/gbrv1.5pbe/Ir.UPF
     MD5 check sum: 8836f839c3459d2b385c504ce6d91f2c
     Pseudo is Ultrasoft + core correction, Zval = 15.0
     Generated by new atomic code, or converted to UPF format
     Using radial grid of  983 points,  7 beta functions with:
                l(1) =   0
                l(2) =   0
                l(3) =   1
                l(4) =   1
                l(5) =   1
                l(6) =   2
                l(7) =   2
     Q(r) pseudized with  8 coefficients,  rinner =    1.400   1.400   1.400
                                                       1.400   1.400

     PseudoPot. # 2 for Cu read from file:
     /afs/slac.stanford.edu/u/if/mamunm/psp/gbrv1.5pbe/Cu.UPF
     MD5 check sum: 6e991ff952a84172a2a52a1c1e996048
     Pseudo is Ultrasoft + core correction, Zval = 19.0
     Generated by new atomic code, or converted to UPF format
     Using radial grid of  867 points,  6 beta functions with:
                l(1) =   0
                l(2) =   0
                l(3) =   1
                l(4) =   1
                l(5) =   2
                l(6) =   2
     Q(r) pseudized with  8 coefficients,  rinner =    1.150   1.150   1.150
                                                       1.150   1.150

     vdW kernel table read from file vdW_kernel_table
     MD5 check sum: 095c7af220d748ca6e76c0b4c6cfb241

     atomic species   valence    mass     pseudopotential
        Ir1           15.00   192.21700     Ir( 1.00)
        Cu1           19.00    63.54600     Cu( 1.00)

     No symmetry found

   Cartesian axes

     site n.     atom                  positions (alat units)
         1           Ir1 tau(   1) = (   0.0000000   0.0000000  10.0000000  )
         2           Ir1 tau(   2) = (  -1.3586420   2.3532370  10.0000000  )
         3           Ir1 tau(   3) = (   1.3586420   2.3532370  10.0000000  )
         4           Cu1 tau(   4) = (   2.7172841   0.0000000  10.0000000  )
         5           Ir1 tau(   5) = (   2.7172841   1.5688247  12.2186531  )
         6           Ir1 tau(   6) = (   1.3586420   3.9220617  12.2186531  )
         7           Ir1 tau(   7) = (  -1.3586420   3.9220617  12.2186531  )
         8           Cu1 tau(   8) = (   0.0000000   1.5688247  12.2186531  )
         9           Ir1 tau(   9) = (  -0.0000000   3.1376494  14.4373063  )
        10           Ir1 tau(  10) = (   1.3586420   0.7844123  14.4373063  )
        11           Ir1 tau(  11) = (   4.0759261   0.7844123  14.4373063  )
        12           Cu1 tau(  12) = (   2.7172841   3.1376494  14.4373063  )

     number of k points=    20  Fermi-Dirac smearing, width (Ry)=  0.0110
                       cart. coord. in units 2pi/alat
        k(    1) = (   0.0000000   0.0000000   0.0000000), wk =   0.0555556
        k(    2) = (   0.0000000   0.0354122   0.0000000), wk =   0.1111111
        k(    3) = (   0.0000000   0.0708244   0.0000000), wk =   0.1111111
        k(    4) = (   0.0000000  -0.1062366   0.0000000), wk =   0.0555556
        k(    5) = (   0.0306679   0.0177061   0.0000000), wk =   0.1111111
        k(    6) = (   0.0306679   0.0531183   0.0000000), wk =   0.1111111
        k(    7) = (   0.0306679   0.0885305   0.0000000), wk =   0.1111111
        k(    8) = (   0.0306679  -0.0885305   0.0000000), wk =   0.1111111
        k(    9) = (   0.0306679  -0.0531183   0.0000000), wk =   0.1111111
        k(   10) = (   0.0306679  -0.0177061   0.0000000), wk =   0.1111111
        k(   11) = (   0.0613358   0.0354122   0.0000000), wk =   0.1111111
        k(   12) = (   0.0613358   0.0708244   0.0000000), wk =   0.1111111
        k(   13) = (   0.0613358   0.1062366   0.0000000), wk =   0.1111111
        k(   14) = (   0.0613358  -0.0708244   0.0000000), wk =   0.1111111
        k(   15) = (   0.0613358  -0.0354122   0.0000000), wk =   0.1111111
        k(   16) = (   0.0613358   0.0000000   0.0000000), wk =   0.1111111
        k(   17) = (  -0.0920036  -0.0531183   0.0000000), wk =   0.0555556
        k(   18) = (  -0.0920036  -0.0177061   0.0000000), wk =   0.1111111
        k(   19) = (  -0.0920036   0.0177061   0.0000000), wk =   0.1111111
        k(   20) = (  -0.0920036  -0.1593550   0.0000000), wk =   0.0555556

     Largest allocated arrays     est. size (Mb)     dimensions
     Largest temporary arrays     est. size (Mb)     dimensions

     Initial potential from superposition of free atoms
     Check: negative starting charge=   -3.274973

     starting charge  184.49971, renormalised to  192.00000

     negative rho (up, down):  3.408E+00 0.000E+00

     *
     * You are using vdW-DF for exchange-correlation in this calculation.
     * Please cite the following three references that made this development
     * possible:
     *
     *   M. Dion, H. Rydberg, E. Schroder, D. C. Langreth, and
     *   B. I. Lundqvist, Phys. Rev. Lett. 92, 246401 (2004).
     *
     *   T. Thonhauser, V. R. Cooper, S. Li, A. Puzder, P. Hyldgaard, and
     *   D. C. Langreth, Phys. Rev. B 76, 125112 (2007).
     *
     *   G. Roman-Perez and J. M. Soler, Phys. Rev. Lett. 103, 096102 (2009).
     *
     *
     * If you are using vdW-DF2, please also cite:
     *
     *   K. Lee, E. D. Murray, L. Kong, B. I. Lundqvist, and
     *   D. C. Langreth, Phys. Rev. B 82, 081101(R) (2010).
     *
     *
     * If you are calculating the stress with vdW-DF, please also cite:
     *
     *   R. Sabatini, E. Kucukbenli, B. Kolb, T. Thonhauser, and
     *   S. de Gironcoli, J. Phys.: Condens. Matter 24, 424209 (2012).
     *

     Carrying out vdW-DF run using the following parameters:

     Nqs =      20    Nr_points =    1024   r_max =   100.000
     q_mesh =
               0.00001000     0.04494208     0.09755937     0.15916263
               0.23128650     0.31572767     0.41458969     0.53033537
               0.66584808     0.82450364     1.01025438     1.22772762
               1.48234092     1.78043706     2.12944203     2.53805004
               3.01644009     3.57652955     4.23227104     5.00000000

     Gradients computed in reciprocal space

     Adding external electric field

     Computed dipole along edir(3) :
        Dipole               -0.0000 Ry au,         -0.0000 Debye
        Dipole field         -0.0000 Ry au

        Potential amp.        0.0000 Ry
        Total length         45.0253 bohr

     Starting wfc are  147 randomized atomic wfcs

     Self-consistent Calculation

     iteration #  1     ecut=    36.75 Ry     beta=0.10
     Davidson diagonalization with overlap
     ethr =  1.00E-02,  avg # of iterations =  7.2

[...]

     total energy              =   -2864.86487271 Ry
     Harris-Foulkes estimate   =   -2868.76901258 Ry
     estimated scf accuracy    <      23.98925723 Ry

[...]

     End of self-consistent calculation

          k = 0.0000 0.0000 0.0000 ( 15821 PWs)   bands (ev):

  -110.7576-110.5915-110.5913 -68.1537 -68.1537 -68.1525 -68.0489 -68.0489
   -68.0487 -68.0487 -67.8509 -67.8507 -47.9362 -47.7355 -47.7355 -47.6518
   -47.6159 -47.6159 -47.5829 -47.5269 -47.4375 -47.3090 -47.3090 -47.3077
   -47.3077 -47.2626 -47.2626 -47.1283 -47.0953 -47.0953 -47.0692 -47.0680
   -47.0680 -47.0167 -47.0074 -46.9980 -46.9980 -46.9868 -46.9868  -7.1172
    -5.3041  -4.7301  -4.6495  -4.3908  -4.0532  -4.0532  -3.7023  -3.7023
    -3.6562  -3.5956  -3.4139  -3.4139  -3.1140  -3.1140  -2.4265  -1.8226
    -1.8226  -1.4826  -1.4826  -1.4684  -1.2571  -1.1531  -1.1531  -1.1460
    -0.9215  -0.9215  -0.8527  -0.8527  -0.7612  -0.7612  -0.7529  -0.5337
    -0.3672  -0.3672   0.0412   0.0412   0.0703   0.0703   0.2331   0.7068
     0.7068   0.7255   1.0792   1.1139   1.4048   1.4048   1.5791   1.5791
     1.6461   1.6461   1.9026   1.9026   1.9622   1.9622   2.1870   2.1870
     2.2976   2.6964   2.6964   2.7153   2.9749   2.9749   3.0516   3.3108
     3.6866   3.7570   4.5168   4.5493   5.0719   5.0719   5.2541   5.2541
     6.2838   6.5357   6.9067   7.8272   8.0363   8.0600   8.5202   8.5202
     8.5628   8.5628   8.6565   9.4005   9.5505   9.5505

[...]

          k =-0.0920-0.0531 0.0000 ( 15896 PWs)   bands (ev):

[...]

     the Fermi energy is     1.7757 ev

!    total energy              =   -2864.51402336 Ry
     Harris-Foulkes estimate   =   -2864.51401749 Ry
     estimated scf accuracy    <       0.00000059 Ry

     The total energy is the sum of the following terms:

     one-electron contribution =  -22240.36871911 Ry
     hartree contribution      =   11147.34552900 Ry
     xc contribution           =    -587.59834999 Ry
     ewald contribution        =    8816.20538142 Ry
     electric field correction =       0.00000000 Ry
     smearing contrib. (-TS)   =      -0.09786468 Ry

     convergence has been achieved in  18 iterations

 BEEF-vdW xc energy contributions
           1 :   -520.610139061051
           2 :    481.762860690204
           3 :   -413.214644452130
           4 :    329.774294962392
           5 :   -246.875631854575
           6 :    176.127356105021
           7 :   -122.962776338578
           8 :    86.8375128791322
           9 :   -63.3631845922218
          10 :    47.0967703396561
          11 :   -33.7434802663239
[...]
     Pseudo is Ultrasoft + core correction, Zval = 15.0
     Generated by new atomic code, or converted to UPF format
     Using radial grid of  983 points,  7 beta functions with:
                l(1) =   0
                l(2) =   0
                l(3) =   1
                l(4) =   1
                l(5) =   1
                l(6) =   2
                l(7) =   2
     Q(r) pseudized with  8 coefficients,  rinner =    1.400   1.400   1.400
                                                       1.400   1.400

     PseudoPot. # 2 for Cu read from file:
     /afs/slac.stanford.edu/u/if/mamunm/psp/gbrv1.5pbe/Cu.UPF
     MD5 check sum: 6e991ff952a84172a2a52a1c1e996048
     Pseudo is Ultrasoft + core correction, Zval = 19.0
     Generated by new atomic code, or converted to UPF format
     Using radial grid of  867 points,  6 beta functions with:
                l(1) =   0
                l(2) =   0
                l(3) =   1
                l(4) =   1
                l(5) =   2
                l(6) =   2
     Q(r) pseudized with  8 coefficients,  rinner =    1.150   1.150   1.150
                                                       1.150   1.150

     vdW kernel table read from file vdW_kernel_table
     MD5 check sum: 095c7af220d748ca6e76c0b4c6cfb241

     atomic species   valence    mass     pseudopotential
        Ir1           15.00   192.21700     Ir( 1.00)
        Cu1           19.00    63.54600     Cu( 1.00)

     No symmetry found

   Cartesian axes

     site n.     atom                  positions (alat units)
         1           Ir1 tau(   1) = (   0.0000000   0.0000000  10.0000000  )
         2           Ir1 tau(   2) = (  -1.3586420   2.3532370  10.0000000  )
         3           Ir1 tau(   3) = (   1.3586420   2.3532370  10.0000000  )
         4           Cu1 tau(   4) = (   2.7172841   0.0000000  10.0000000  )
         5           Ir1 tau(   5) = (   2.7172841   1.5688247  12.2186531  )
         6           Ir1 tau(   6) = (   1.3586420   3.9220617  12.2186531  )
         7           Ir1 tau(   7) = (  -1.3586420   3.9220617  12.2186531  )
         8           Cu1 tau(   8) = (   0.0000000   1.5688247  12.2186531  )
         9           Ir1 tau(   9) = (  -0.0000034   3.1326113  14.3761269  )
        10           Ir1 tau(  10) = (   1.3542789   0.7869300  14.3761243  )
        11           Ir1 tau(  11) = (   4.0802842   0.7869371  14.3761251  )
        12           Cu1 tau(  12) = (   2.7172942   3.1376537  14.4771663  )

     number of k points=    20  Fermi-Dirac smearing, width (Ry)=  0.0110
                       cart. coord. in units 2pi/alat
        k(    1) = (   0.0000000   0.0000000   0.0000000), wk =   0.0555556
        k(    2) = (   0.0000000   0.0354122   0.0000000), wk =   0.1111111
        k(    3) = (   0.0000000   0.0708244   0.0000000), wk =   0.1111111
        k(    4) = (   0.0000000  -0.1062366   0.0000000), wk =   0.0555556
        k(    5) = (   0.0306679   0.0177061   0.0000000), wk =   0.1111111
        k(    6) = (   0.0306679   0.0531183   0.0000000), wk =   0.1111111
        k(    7) = (   0.0306679   0.0885305   0.0000000), wk =   0.1111111
        k(    8) = (   0.0306679  -0.0885305   0.0000000), wk =   0.1111111
        k(    9) = (   0.0306679  -0.0531183   0.0000000), wk =   0.1111111
        k(   10) = (   0.0306679  -0.0177061   0.0000000), wk =   0.1111111
        k(   11) = (   0.0613358   0.0354122   0.0000000), wk =   0.1111111
        k(   12) = (   0.0613358   0.0708244   0.0000000), wk =   0.1111111
        k(   13) = (   0.0613358   0.1062366   0.0000000), wk =   0.1111111
        k(   14) = (   0.0613358  -0.0708244   0.0000000), wk =   0.1111111
        k(   15) = (   0.0613358  -0.0354122   0.0000000), wk =   0.1111111
        k(   16) = (   0.0613358   0.0000000   0.0000000), wk =   0.1111111
        k(   17) = (  -0.0920036  -0.0531183   0.0000000), wk =   0.0555556
        k(   18) = (  -0.0920036  -0.0177061   0.0000000), wk =   0.1111111
        k(   19) = (  -0.0920036   0.0177061   0.0000000), wk =   0.1111111
        k(   20) = (  -0.0920036  -0.1593550   0.0000000), wk =   0.0555556

     Largest allocated arrays     est. size (Mb)     dimensions
     Largest temporary arrays     est. size (Mb)     dimensions

     Initial potential from superposition of free atoms
     Check: negative starting charge=   -3.274141

     starting charge  184.49971, renormalised to  192.00000

[...]

     *
     * You are using vdW-DF for exchange-correlation in this calculation.
     * Please cite the following three references that made this development
     * possible:
     *
     *   M. Dion, H. Rydberg, E. Schroder, D. C. Langreth, and
     *   B. I. Lundqvist, Phys. Rev. Lett. 92, 246401 (2004).
     *
     *   T. Thonhauser, V. R. Cooper, S. Li, A. Puzder, P. Hyldgaard, and
     *   D. C. Langreth, Phys. Rev. B 76, 125112 (2007).
     *
     *   G. Roman-Perez and J. M. Soler, Phys. Rev. Lett. 103, 096102 (2009).
     *
     *
     * If you are using vdW-DF2, please also cite:
     *
     *   K. Lee, E. D. Murray, L. Kong, B. I. Lundqvist, and
     *   D. C. Langreth, Phys. Rev. B 82, 081101(R) (2010).
     *
     *
     * If you are calculating the stress with vdW-DF, please also cite:
     *
     *   R. Sabatini, E. Kucukbenli, B. Kolb, T. Thonhauser, and
     *   S. de Gironcoli, J. Phys.: Condens. Matter 24, 424209 (2012).
     *

     Carrying out vdW-DF run using the following parameters:

     Nqs =      20    Nr_points =    1024   r_max =   100.000
     q_mesh =
               0.00001000     0.04494208     0.09755937     0.15916263
               0.23128650     0.31572767     0.41458969     0.53033537
               0.66584808     0.82450364     1.01025438     1.22772762
               1.48234092     1.78043706     2.12944203     2.53805004
               3.01644009     3.57652955     4.23227104     5.00000000

     Gradients computed in reciprocal space

[...]

     Starting wfc are  147 randomized atomic wfcs

     Self-consistent Calculation

[...]

     total energy              =   -2864.51790236 Ry
     Harris-Foulkes estimate   =   -2864.51789445 Ry
     estimated scf accuracy    <       0.00000177 Ry

     iteration # 18     ecut=    36.75 Ry     beta=0.10
     Davidson diagonalization with overlap
     ethr =  9.22E-10,  avg # of iterations =  2.5

[...]

     negative rho (up, down):  2.922E+00 0.000E+00

     Adding external electric field

     Computed dipole along edir(3) :
        Dipole                0.0061 Ry au,          0.0155 Debye
        Dipole field          0.0000 Ry au

        Potential amp.       -0.0016 Ry
        Total length         45.0253 bohr

     End of self-consistent calculation

[...]

          k = 0.0613 0.0000 0.0000 ( 15876 PWs)   bands (ev):

[...]

          k =-0.0920-0.1594 0.0000 ( 15896 PWs)   bands (ev):

  -110.7930-110.5703-110.5437 -68.1986 -68.1839 -68.1839 -68.0286 -68.0285
   -68.0043 -68.0043 -67.8282 -67.8003 -47.8559 -47.7587 -47.6874 -47.6635
   -47.5936 -47.5447 -47.5389 -47.4815 -47.4528 -47.4039 -47.3229 -47.3008
   -47.2520 -47.2088 -47.1989 -47.1641 -47.1536 -47.1483 -47.1093 -47.1025
   -47.0963 -47.0958 -47.0462 -47.0336 -47.0239 -47.0197 -46.9689  -5.4656
    -5.1911  -3.9758  -3.8517  -3.7111  -3.3974  -3.3744  -3.3575  -3.0141
    -2.9641  -2.9503  -2.7651  -2.5297  -2.4071  -2.3234  -2.1913  -2.1390
    -1.9822  -1.9560  -1.7787  -1.6888  -1.4930  -1.2871  -1.2526  -1.0589
    -1.0376  -1.0327  -0.9493  -0.9269  -0.8696  -0.8309  -0.7659  -0.7586
    -0.7088  -0.6862  -0.6720  -0.6643  -0.6108  -0.5475  -0.5209  -0.2637
    -0.0617  -0.0474   0.1450   0.1582   0.1671   0.5101   0.5203   0.5649
     0.6568   0.6642   1.0356   1.1222   1.2312   1.2621   1.3191   1.4043
     1.5038   1.6763   1.6769   1.8595   2.2842   2.6832   3.0699   3.3028
     3.6158   3.9413   4.5445   5.2683   5.7552   6.1051   6.4944   6.9251
     7.2618   7.8508   7.8571   8.4153   8.4497   8.5174   8.5218   9.5483
     9.6383   9.6484   9.6823   9.7300  10.1250  10.1686

     the Fermi energy is     1.7905 ev

!    total energy              =   -2864.51791640 Ry
     Harris-Foulkes estimate   =   -2864.51790250 Ry
     estimated scf accuracy    <       0.00000050 Ry

     The total energy is the sum of the following terms:

     one-electron contribution =  -22336.05895658 Ry
     hartree contribution      =   11195.19233420 Ry
     xc contribution           =    -587.68879660 Ry
     ewald contribution        =    8864.13375255 Ry
     electric field correction =       0.00000011 Ry
     smearing contrib. (-TS)   =      -0.09625009 Ry

     convergence has been achieved in  18 iterations

 BEEF-vdW xc energy contributions
           1 :   -520.704005677315
           2 :    481.895709341521
           3 :   -413.400611938996
           4 :    329.991618149056
           5 :   -247.074366280190
           6 :    176.252671317411
           7 :   -122.982376400945
           8 :    86.7596883854009
           9 :   -63.2356483614294
          10 :    46.9861884832451
          11 :   -33.7053866634957
          12 :    21.1666073137961
          13 :   -9.03663613089770
          14 :   -1.91472906355182
          15 :    10.6302819242072
          16 :   -16.3082006304280
          17 :    18.6622798070567
          18 :   -18.0150989512676
          19 :    15.2858675221395
          20 :   -11.8369033204957
          21 :    9.11730766623066
          22 :   -8.15871848995221
          23 :    9.13713891652549
          24 :   -11.2701927802532
          25 :    13.1772059368117
          26 :   -13.5700003809308
          27 :    11.9232961734316
          28 :   -8.75553197978718
          29 :    5.35294298303972
          30 :   -3.08531654426599
          31 :   -43.8890974155890
          32 :   -32.3128438384789

     Forces acting on atoms (Ry/au):

     negative rho (up, down):  2.922E+00 0.000E+00
     atom    1 type  1   force =    -0.00000049    0.00113017    0.01689387
     atom    2 type  1   force =     0.00097871   -0.00056501    0.01689405
     atom    3 type  1   force =    -0.00097937   -0.00056456    0.01689405
     atom    4 type  2   force =     0.00000090   -0.00000047   -0.01162468
     atom    5 type  1   force =    -0.00000069    0.00714308   -0.01011079
     atom    6 type  1   force =     0.00618626   -0.00357237   -0.01010986
     atom    7 type  1   force =    -0.00618642   -0.00357195   -0.01011061
     atom    8 type  2   force =     0.00000142   -0.00000010   -0.01209014
     atom    9 type  1   force =     0.00000148    0.00077489    0.00050916
     atom   10 type  1   force =     0.00067107   -0.00038657    0.00051005
     atom   11 type  1   force =    -0.00067048   -0.00038904    0.00050929
     atom   12 type  2   force =    -0.00000241    0.00000192    0.00183561

     Total force =     0.040088     Total SCF correction =     0.003696

     entering subroutine stress ...

     negative rho (up, down):  2.922E+00 0.000E+00
          total   stress  (Ry/bohr**3)                   (kbar)     P=  -29.93
  -0.00025905  -0.00000000  -0.00000000        -38.11     -0.00     -0.00
  -0.00000000  -0.00025905  -0.00000000         -0.00    -38.11     -0.00
  -0.00000000  -0.00000000  -0.00009227         -0.00     -0.00    -13.57

 !ASE

     Writing output data file calc.save

     General routines

     Parallel routines

   This run was terminated on:  12: 9:50  30Dec2018

   JOB DONE.
Job  /afs/slac/g/suncat/bin/suncat-tsmpirun -x LD_LIBRARY_PATH -wdir /scratch/qe648528_vipCN pw.x -in pw.inp

TID   HOST_NAME   COMMAND_LINE            STATUS            TERMINATION_TIME
00000 suncat0188 pw.x -in pw.inp   Done                     12/30/2018 12:09:50
00001 suncat0188 pw.x -in pw.inp   Done                     12/30/2018 12:09:50
00002 suncat0188 pw.x -in pw.inp   Done                     12/30/2018 12:09:50
00003 suncat0188 pw.x -in pw.inp   Done                     12/30/2018 12:09:50
00004 suncat0188 pw.x -in pw.inp   Done                     12/30/2018 12:09:50
00005 suncat0188 pw.x -in pw.inp   Done                     12/30/2018 12:09:50
00006 suncat0188 pw.x -in pw.inp   Done                     12/30/2018 12:09:50
00007 suncat0188 pw.x -in pw.inp   Done                     12/30/2018 12:09:50
00008 suncat0129 pw.x -in pw.inp   Done                     12/30/2018 12:09:50
00009 suncat0129 pw.x -in pw.inp   Done                     12/30/2018 12:09:50
00010 suncat0129 pw.x -in pw.inp   Done                     12/30/2018 12:09:50
00011 suncat0129 pw.x -in pw.inp   Done                     12/30/2018 12:09:50
00012 suncat0129 pw.x -in pw.inp   Done                     12/30/2018 12:09:50
00013 suncat0129 pw.x -in pw.inp   Done                     12/30/2018 12:09:50
00014 suncat0129 pw.x -in pw.inp   Done                     12/30/2018 12:09:50
00015 suncat0129 pw.x -in pw.inp   Done                     12/30/2018 12:09:50
00016 suncat0116 pw.x -in pw.inp   Done                     12/30/2018 12:09:50
00017 suncat0116 pw.x -in pw.inp   Done                     12/30/2018 12:09:50
00018 suncat0116 pw.x -in pw.inp   Done                     12/30/2018 12:09:50
00019 suncat0116 pw.x -in pw.inp   Done                     12/30/2018 12:09:50
00020 suncat0116 pw.x -in pw.inp   Done                     12/30/2018 12:09:50
00021 suncat0116 pw.x -in pw.inp   Done                     12/30/2018 12:09:50
00022 suncat0116 pw.x -in pw.inp   Done                     12/30/2018 12:09:50
00023 suncat0116 pw.x -in pw.inp   Done                     12/30/2018 12:09:50
00024 suncat0114 pw.x -in pw.inp   Done                     12/30/2018 12:09:50
00025 suncat0114 pw.x -in pw.inp   Done                     12/30/2018 12:09:50
00026 suncat0114 pw.x -in pw.inp   Done                     12/30/2018 12:09:50
00027 suncat0114 pw.x -in pw.inp   Done                     12/30/2018 12:09:50
00028 suncat0114 pw.x -in pw.inp   Done                     12/30/2018 12:09:50
00029 suncat0114 pw.x -in pw.inp   Done                     12/30/2018 12:09:50
00030 suncat0114 pw.x -in pw.inp   Done                     12/30/2018 12:09:50
00031 suncat0114 pw.x -in pw.inp   Done                     12/30/2018 12:09:50
00032 suncat0113 pw.x -in pw.inp   Done                     12/30/2018 12:09:50
00033 suncat0113 pw.x -in pw.inp   Done                     12/30/2018 12:09:50
00034 suncat0113 pw.x -in pw.inp   Done                     12/30/2018 12:09:50
00035 suncat0113 pw.x -in pw.inp   Done                     12/30/2018 12:09:50
00036 suncat0113 pw.x -in pw.inp   Done                     12/30/2018 12:09:50
00037 suncat0113 pw.x -in pw.inp   Done                     12/30/2018 12:09:50
00038 suncat0113 pw.x -in pw.inp   Done                     12/30/2018 12:09:50
00039 suncat0113 pw.x -in pw.inp   Done                     12/30/2018 12:09:50
00040 suncat0267 pw.x -in pw.inp   Done                     12/30/2018 12:09:50
00041 suncat0267 pw.x -in pw.inp   Done                     12/30/2018 12:09:50
00042 suncat0267 pw.x -in pw.inp   Done                     12/30/2018 12:09:50
00043 suncat0267 pw.x -in pw.inp   Done                     12/30/2018 12:09:50
00044 suncat0267 pw.x -in pw.inp   Done                     12/30/2018 12:09:50
00045 suncat0267 pw.x -in pw.inp   Done                     12/30/2018 12:09:50
00046 suncat0267 pw.x -in pw.inp   Done                     12/30/2018 12:09:50
00047 suncat0267 pw.x -in pw.inp   Done                     12/30/2018 12:09:50
00048 suncat0254 pw.x -in pw.inp   Done                     12/30/2018 12:09:50
00049 suncat0254 pw.x -in pw.inp   Done                     12/30/2018 12:09:50
00050 suncat0254 pw.x -in pw.inp   Done                     12/30/2018 12:09:50
00051 suncat0254 pw.x -in pw.inp   Done                     12/30/2018 12:09:50
00052 suncat0254 pw.x -in pw.inp   Done                     12/30/2018 12:09:50
00053 suncat0254 pw.x -in pw.inp   Done                     12/30/2018 12:09:50
00054 suncat0254 pw.x -in pw.inp   Done                     12/30/2018 12:09:50
00055 suncat0254 pw.x -in pw.inp   Done                     12/30/2018 12:09:50
00056 suncat0253 pw.x -in pw.inp   Done                     12/30/2018 12:09:50
00057 suncat0253 pw.x -in pw.inp   Done                     12/30/2018 12:09:50
00058 suncat0253 pw.x -in pw.inp   Done                     12/30/2018 12:09:50
00059 suncat0253 pw.x -in pw.inp   Done                     12/30/2018 12:09:50
00060 suncat0253 pw.x -in pw.inp   Done                     12/30/2018 12:09:50
00061 suncat0253 pw.x -in pw.inp   Done                     12/30/2018 12:09:50
00062 suncat0253 pw.x -in pw.inp   Done                     12/30/2018 12:09:50
00063 suncat0253 pw.x -in pw.inp   Done                     12/30/2018 12:09:50