     Program PWSCF v.5.1rc2 (svn rev. 11289) starts on 25Dec2018 at 17:43:13

     Current dimensions of program PWSCF are:
     Max number of different atomic species (ntypx) = 10
     Max number of k-points (npk) =  40000
     Max angular momentum in pseudopotentials (lmaxx) =  3
     Presently stress not available with electric field

     IMPORTANT: XC functional enforced from input :
     Exchange-correlation      = BEEF-VDW ( 1  4 27 13 2)
     Any further DFT definition will be discarded
     Please, verify this is what you really want

     Subspace diagonalization in iterative solution of the eigenvalue problem:
     a serial algorithm will be used

     bravais-lattice index     =            0
     lattice parameter (alat)  =       1.8897  a.u.
     unit-cell volume          =    3992.5338 (a.u.)^3
     number of atoms/cell      =           12
     number of atomic types    =            2
     number of electrons       =       219.00
     number of Kohn-Sham states=          139
     kinetic-energy cutoff     =      36.7493  Ry
     charge density cutoff     =     367.4932  Ry
     convergence threshold     =      1.0E-06
     mixing beta               =       0.1000
     number of iterations used =           10  plain     mixing
     Exchange-correlation      = BEEF-VDW ( 1  4 27 13 2)
     nstep                     =           50

     celldm(1)=   1.889726  celldm(2)=   0.000000  celldm(3)=   0.000000
     celldm(4)=   0.000000  celldm(5)=   0.000000  celldm(6)=   0.000000

     crystal axes: (cart. coord. in units of alat)
               a(1) = (   5.299290   0.000000   0.000000 )
               a(2) = (  -2.649645   4.589320   0.000000 )
               a(3) = (   0.000000   0.000000  24.326853 )

     reciprocal axes: (cart. coord. in units 2 pi/alat)
               b(1) = (  0.188705  0.108949  0.000000 )
               b(2) = (  0.000000  0.217897  0.000000 )
               b(3) = (  0.000000  0.000000  0.041107 )

     PseudoPot. # 1 for Cu read from file:
     /afs/slac.stanford.edu/u/if/mamunm/psp/gbrv1.5pbe/Cu.UPF
     MD5 check sum: 6e991ff952a84172a2a52a1c1e996048
     Pseudo is Ultrasoft + core correction, Zval = 19.0
     Generated by new atomic code, or converted to UPF format
     Using radial grid of  867 points,  6 beta functions with:
                l(1) =   0
                l(2) =   0
                l(3) =   1
                l(4) =   1
                l(5) =   2
                l(6) =   2
     Q(r) pseudized with  8 coefficients,  rinner =    1.150   1.150   1.150
                                                       1.150   1.150

     PseudoPot. # 2 for Pd read from file:
     /afs/slac.stanford.edu/u/if/mamunm/psp/gbrv1.5pbe/Pd.UPF
     MD5 check sum: 2d733d2bc2cbfd217af676df1668a4bc
     Pseudo is Ultrasoft + core correction, Zval = 16.0
     Generated by new atomic code, or converted to UPF format
     Using radial grid of  887 points,  6 beta functions with:
                l(1) =   0
                l(2) =   0
                l(3) =   1
                l(4) =   1
                l(5) =   2
                l(6) =   2
     Q(r) pseudized with  8 coefficients,  rinner =    1.130   1.130   1.130
                                                       1.130   1.130

     vdW kernel table read from file vdW_kernel_table
     MD5 check sum: 095c7af220d748ca6e76c0b4c6cfb241

     atomic species   valence    mass     pseudopotential
        Cu1           19.00    63.54600     Cu( 1.00)
        Pd1           16.00   106.42000     Pd( 1.00)

     No symmetry found

   Cartesian axes

     site n.     atom                  positions (alat units)
         1           Cu1 tau(   1) = (   0.0000000   0.0000000  10.0000000  )
         2           Cu1 tau(   2) = (  -1.3248226   2.2946601  10.0000000  )
         3           Cu1 tau(   3) = (   1.3248226   2.2946601  10.0000000  )
         4           Pd1 tau(   4) = (   2.6496452   0.0000000  10.0000000  )
         5           Cu1 tau(   5) = (   2.6496452   1.5297734  12.1634263  )
         6           Cu1 tau(   6) = (   1.3248226   3.8244334  12.1634263  )
         7           Cu1 tau(   7) = (  -1.3248226   3.8244334  12.1634263  )
         8           Pd1 tau(   8) = (   0.0000000   1.5297734  12.1634263  )
         9           Cu1 tau(   9) = (  -0.0000000   3.0595468  14.3268525  )
        10           Cu1 tau(  10) = (   1.3248226   0.7648867  14.3268525  )
        11           Cu1 tau(  11) = (   3.9744678   0.7648867  14.3268525  )
        12           Pd1 tau(  12) = (   2.6496452   3.0595468  14.3268525  )

     number of k points=    20  Fermi-Dirac smearing, width (Ry)=  0.0110
                       cart. coord. in units 2pi/alat
        k(    1) = (   0.0000000   0.0000000   0.0000000), wk =   0.0555556
        k(    2) = (   0.0000000   0.0363162   0.0000000), wk =   0.1111111
        k(    3) = (   0.0000000   0.0726324   0.0000000), wk =   0.1111111
        k(    4) = (   0.0000000  -0.1089486   0.0000000), wk =   0.0555556
        k(    5) = (   0.0314508   0.0181581   0.0000000), wk =   0.1111111
        k(    6) = (   0.0314508   0.0544743   0.0000000), wk =   0.1111111
        k(    7) = (   0.0314508   0.0907905   0.0000000), wk =   0.1111111
        k(    8) = (   0.0314508  -0.0907905   0.0000000), wk =   0.1111111
        k(    9) = (   0.0314508  -0.0544743   0.0000000), wk =   0.1111111
        k(   10) = (   0.0314508  -0.0181581   0.0000000), wk =   0.1111111
        k(   11) = (   0.0629015   0.0363162   0.0000000), wk =   0.1111111
        k(   12) = (   0.0629015   0.0726324   0.0000000), wk =   0.1111111
        k(   13) = (   0.0629015   0.1089486   0.0000000), wk =   0.1111111
        k(   14) = (   0.0629015  -0.0726324   0.0000000), wk =   0.1111111
        k(   15) = (   0.0629015  -0.0363162   0.0000000), wk =   0.1111111
        k(   16) = (   0.0629015   0.0000000   0.0000000), wk =   0.1111111
        k(   17) = (  -0.0943523  -0.0544743   0.0000000), wk =   0.0555556
        k(   18) = (  -0.0943523  -0.0181581   0.0000000), wk =   0.1111111
        k(   19) = (  -0.0943523   0.0181581   0.0000000), wk =   0.1111111
        k(   20) = (  -0.0943523  -0.1634229   0.0000000), wk =   0.0555556

     Largest allocated arrays     est. size (Mb)     dimensions
     Largest temporary arrays     est. size (Mb)     dimensions

     Initial potential from superposition of free atoms
     Check: negative starting charge=   -0.226325

     starting charge  208.49996, renormalised to  219.00000

     negative rho (up, down):  2.377E-01 0.000E+00

     *
     * You are using vdW-DF for exchange-correlation in this calculation.
     * Please cite the following three references that made this development
     * possible:
     *
     *   M. Dion, H. Rydberg, E. Schroder, D. C. Langreth, and
     *   B. I. Lundqvist, Phys. Rev. Lett. 92, 246401 (2004).
     *
     *   T. Thonhauser, V. R. Cooper, S. Li, A. Puzder, P. Hyldgaard, and
     *   D. C. Langreth, Phys. Rev. B 76, 125112 (2007).
     *
     *   G. Roman-Perez and J. M. Soler, Phys. Rev. Lett. 103, 096102 (2009).
     *
     *
     * If you are using vdW-DF2, please also cite:
     *
     *   K. Lee, E. D. Murray, L. Kong, B. I. Lundqvist, and
     *   D. C. Langreth, Phys. Rev. B 82, 081101(R) (2010).
     *
     *
     * If you are calculating the stress with vdW-DF, please also cite:
     *
     *   R. Sabatini, E. Kucukbenli, B. Kolb, T. Thonhauser, and
     *   S. de Gironcoli, J. Phys.: Condens. Matter 24, 424209 (2012).
     *

     Carrying out vdW-DF run using the following parameters:

     Nqs =      20    Nr_points =    1024   r_max =   100.000
     q_mesh =
               0.00001000     0.04494208     0.09755937     0.15916263
               0.23128650     0.31572767     0.41458969     0.53033537
               0.66584808     0.82450364     1.01025438     1.22772762
               1.48234092     1.78043706     2.12944203     2.53805004
               3.01644009     3.57652955     4.23227104     5.00000000

     Gradients computed in reciprocal space

     Adding external electric field

     Computed dipole along edir(3) :
        Dipole               -0.0000 Ry au,         -0.0000 Debye
        Dipole field         -0.0000 Ry au

        Potential amp.        0.0000 Ry
        Total length         44.8218 bohr

     Starting wfc are  153 randomized atomic wfcs

     Self-consistent Calculation

     iteration #  1     ecut=    36.75 Ry     beta=0.10
     Davidson diagonalization with overlap
     ethr =  1.00E-02,  avg # of iterations =  6.9

[...]

     total energy              =   -4239.06864809 Ry
     Harris-Foulkes estimate   =   -4252.91191462 Ry
     estimated scf accuracy    <      80.10661309 Ry

[...]

     End of self-consistent calculation

          k = 0.0000 0.0000 0.0000 ( 15125 PWs)   bands (ev):

  -111.6299-111.6258-111.6258-111.4943-111.4940-111.4903-111.4903-111.4900
  -111.4900 -69.0747 -69.0498 -69.0498 -69.0281 -69.0271 -69.0271 -69.0072
   -69.0029 -69.0029 -68.9572 -68.9564 -68.9300 -68.9300 -68.9290 -68.9290
   -68.9045 -68.9045 -68.9041 -68.9041 -68.9022 -68.9017 -68.8473 -68.8458
   -68.8425 -68.8425 -68.8416 -68.8416 -49.4758 -49.4491 -49.4491 -49.2687
   -49.2687 -49.2686 -49.2686 -49.1518 -49.1514  -6.9608  -5.2554  -4.3122
    -4.0443  -4.0443  -3.9112  -3.9112  -3.4654  -3.4654  -3.3659  -3.3523
    -3.3523  -3.2583  -3.1815  -2.9393  -2.6473  -2.6473  -2.3853  -2.2190
    -2.2190  -2.1674  -2.0845  -2.0088  -1.9907  -1.9907  -1.8838  -1.8838
    -1.8355  -1.8355  -1.8079  -1.7922  -1.7922  -1.5920  -1.5920  -1.5209
    -1.2797  -1.2209  -1.2209  -1.2138  -1.2138  -1.1615  -1.1615  -1.0742
    -0.8989  -0.8619  -0.8619  -0.7804  -0.7781  -0.7781  -0.6856  -0.6702
    -0.5686  -0.5686  -0.5229  -0.4247  -0.4247  -0.3277  -0.3277  -0.2387
    -0.2387  -0.1764  -0.0910  -0.0910   0.9121   1.2513   1.5322   1.5322
     2.4632   2.5701   2.5701   2.8666   2.8666   2.9006   4.5289   4.8720
     5.2580   5.5782   5.5782   6.1863   6.1871   6.2415   6.2415   6.8998
     7.0320   7.1709   7.1709   7.7154   8.5197   8.8242   9.7522   9.7522
     9.8485  10.0362  10.1943

[...]

          k =-0.0944-0.0545 0.0000 ( 15050 PWs)   bands (ev):

[...]

     the Fermi energy is     0.4922 ev

!    total energy              =   -4243.83834018 Ry
     Harris-Foulkes estimate   =   -4243.83832813 Ry
     estimated scf accuracy    <       0.00000042 Ry

     The total energy is the sum of the following terms:

     one-electron contribution =  -32181.49418252 Ry
     hartree contribution      =   16115.52643339 Ry
     xc contribution           =    -457.78928048 Ry
     ewald contribution        =   12279.93860661 Ry
     electric field correction =       0.00000000 Ry
     smearing contrib. (-TS)   =      -0.01991717 Ry

     convergence has been achieved in  17 iterations

 BEEF-vdW xc energy contributions
           1 :   -404.325087203905
           2 :    367.232499959820
           3 :   -304.297714962653
           4 :    232.772931674950
           5 :   -168.553802903481
           6 :    120.522819577634
           7 :   -89.0617388060244
           8 :    68.7289371061037
[...]
                l(1) =   0
                l(2) =   0
                l(3) =   1
                l(4) =   1
                l(5) =   2
                l(6) =   2
     Q(r) pseudized with  8 coefficients,  rinner =    1.150   1.150   1.150
                                                       1.150   1.150

     PseudoPot. # 2 for Pd read from file:
     /afs/slac.stanford.edu/u/if/mamunm/psp/gbrv1.5pbe/Pd.UPF
     MD5 check sum: 2d733d2bc2cbfd217af676df1668a4bc
     Pseudo is Ultrasoft + core correction, Zval = 16.0
     Generated by new atomic code, or converted to UPF format
     Using radial grid of  887 points,  6 beta functions with:
                l(1) =   0
                l(2) =   0
                l(3) =   1
                l(4) =   1
                l(5) =   2
                l(6) =   2
     Q(r) pseudized with  8 coefficients,  rinner =    1.130   1.130   1.130
                                                       1.130   1.130

     vdW kernel table read from file vdW_kernel_table
     MD5 check sum: 095c7af220d748ca6e76c0b4c6cfb241

     atomic species   valence    mass     pseudopotential
        Cu1           19.00    63.54600     Cu( 1.00)
        Pd1           16.00   106.42000     Pd( 1.00)

     No symmetry found

   Cartesian axes

     site n.     atom                  positions (alat units)
         1           Cu1 tau(   1) = (   0.0000000   0.0000000  10.0000000  )
         2           Cu1 tau(   2) = (  -1.3248226   2.2946601  10.0000000  )
         3           Cu1 tau(   3) = (   1.3248226   2.2946601  10.0000000  )
         4           Pd1 tau(   4) = (   2.6496452   0.0000000  10.0000000  )
         5           Cu1 tau(   5) = (   2.6496452   1.5297734  12.1634263  )
         6           Cu1 tau(   6) = (   1.3248226   3.8244334  12.1634263  )
         7           Cu1 tau(   7) = (  -1.3248226   3.8244334  12.1634263  )
         8           Pd1 tau(   8) = (   0.0000000   1.5297734  12.1634263  )
         9           Cu1 tau(   9) = (   0.0000104   3.0895993  14.3021036  )
        10           Cu1 tau(  10) = (   1.3508546   0.7498715  14.3020527  )
        11           Cu1 tau(  11) = (   3.9484307   0.7498524  14.3021109  )
        12           Pd1 tau(  12) = (   2.6496501   3.0595451  14.3276080  )

     number of k points=    20  Fermi-Dirac smearing, width (Ry)=  0.0110
                       cart. coord. in units 2pi/alat
        k(    1) = (   0.0000000   0.0000000   0.0000000), wk =   0.0555556
        k(    2) = (   0.0000000   0.0363162   0.0000000), wk =   0.1111111
        k(    3) = (   0.0000000   0.0726324   0.0000000), wk =   0.1111111
        k(    4) = (   0.0000000  -0.1089486   0.0000000), wk =   0.0555556
        k(    5) = (   0.0314508   0.0181581   0.0000000), wk =   0.1111111
        k(    6) = (   0.0314508   0.0544743   0.0000000), wk =   0.1111111
        k(    7) = (   0.0314508   0.0907905   0.0000000), wk =   0.1111111
        k(    8) = (   0.0314508  -0.0907905   0.0000000), wk =   0.1111111
        k(    9) = (   0.0314508  -0.0544743   0.0000000), wk =   0.1111111
        k(   10) = (   0.0314508  -0.0181581   0.0000000), wk =   0.1111111
        k(   11) = (   0.0629015   0.0363162   0.0000000), wk =   0.1111111
        k(   12) = (   0.0629015   0.0726324   0.0000000), wk =   0.1111111
        k(   13) = (   0.0629015   0.1089486   0.0000000), wk =   0.1111111
        k(   14) = (   0.0629015  -0.0726324   0.0000000), wk =   0.1111111
        k(   15) = (   0.0629015  -0.0363162   0.0000000), wk =   0.1111111
        k(   16) = (   0.0629015   0.0000000   0.0000000), wk =   0.1111111
        k(   17) = (  -0.0943523  -0.0544743   0.0000000), wk =   0.0555556
        k(   18) = (  -0.0943523  -0.0181581   0.0000000), wk =   0.1111111
        k(   19) = (  -0.0943523   0.0181581   0.0000000), wk =   0.1111111
        k(   20) = (  -0.0943523  -0.1634229   0.0000000), wk =   0.0555556

     Largest allocated arrays     est. size (Mb)     dimensions
     Largest temporary arrays     est. size (Mb)     dimensions

     Initial potential from superposition of free atoms
     Check: negative starting charge=   -0.226394

     starting charge  208.49996, renormalised to  219.00000

[...]

     *
     * You are using vdW-DF for exchange-correlation in this calculation.
     * Please cite the following three references that made this development
     * possible:
     *
     *   M. Dion, H. Rydberg, E. Schroder, D. C. Langreth, and
     *   B. I. Lundqvist, Phys. Rev. Lett. 92, 246401 (2004).
     *
     *   T. Thonhauser, V. R. Cooper, S. Li, A. Puzder, P. Hyldgaard, and
     *   D. C. Langreth, Phys. Rev. B 76, 125112 (2007).
     *
     *   G. Roman-Perez and J. M. Soler, Phys. Rev. Lett. 103, 096102 (2009).
     *
     *
     * If you are using vdW-DF2, please also cite:
     *
     *   K. Lee, E. D. Murray, L. Kong, B. I. Lundqvist, and
     *   D. C. Langreth, Phys. Rev. B 82, 081101(R) (2010).
     *
     *
     * If you are calculating the stress with vdW-DF, please also cite:
     *
     *   R. Sabatini, E. Kucukbenli, B. Kolb, T. Thonhauser, and
     *   S. de Gironcoli, J. Phys.: Condens. Matter 24, 424209 (2012).
     *

     Carrying out vdW-DF run using the following parameters:

     Nqs =      20    Nr_points =    1024   r_max =   100.000
     q_mesh =
               0.00001000     0.04494208     0.09755937     0.15916263
               0.23128650     0.31572767     0.41458969     0.53033537
               0.66584808     0.82450364     1.01025438     1.22772762
               1.48234092     1.78043706     2.12944203     2.53805004
               3.01644009     3.57652955     4.23227104     5.00000000

     Gradients computed in reciprocal space

[...]

     Starting wfc are  153 randomized atomic wfcs

     Self-consistent Calculation

[...]

     total energy              =   -4243.83916522 Ry
     Harris-Foulkes estimate   =   -4243.83916288 Ry
     estimated scf accuracy    <       0.00000107 Ry

     iteration # 18     ecut=    36.75 Ry     beta=0.10
     Davidson diagonalization with overlap
     ethr =  4.87E-10,  avg # of iterations =  2.0

[...]

     negative rho (up, down):  2.370E-01 0.000E+00

     Adding external electric field

     Computed dipole along edir(3) :
        Dipole                0.0005 Ry au,          0.0013 Debye
        Dipole field          0.0000 Ry au

        Potential amp.       -0.0001 Ry
        Total length         44.8218 bohr

     End of self-consistent calculation

[...]

          k = 0.0629 0.0000 0.0000 ( 15017 PWs)   bands (ev):

[...]

          k =-0.0944-0.1634 0.0000 ( 15050 PWs)   bands (ev):

  -111.6398-111.6385-111.6371-111.5087-111.5069-111.5057-111.4953-111.4939
  -111.4926 -69.0772 -69.0674 -69.0608 -69.0386 -69.0302 -69.0299 -69.0271
   -69.0263 -69.0139 -68.9604 -68.9473 -68.9432 -68.9347 -68.9313 -68.9306
   -68.9267 -68.9217 -68.9193 -68.9173 -68.9157 -68.9055 -68.8623 -68.8608
   -68.8592 -68.8476 -68.8461 -68.8446 -49.4796 -49.4554 -49.4549 -49.2702
   -49.2697 -49.2658 -49.2653 -49.1523 -49.1467  -5.3215  -5.2565  -4.0774
    -3.8048  -3.6382  -3.5000  -3.4290  -3.2784  -3.1278  -3.0433  -2.9540
    -2.8110  -2.8032  -2.7916  -2.7125  -2.5689  -2.5615  -2.5370  -2.4457
    -2.3622  -2.3549  -2.2609  -2.1509  -2.0563  -1.9968  -1.9625  -1.9530
    -1.9096  -1.8997  -1.8645  -1.7930  -1.7826  -1.7791  -1.7717  -1.7593
    -1.7399  -1.7199  -1.7015  -1.6833  -1.6769  -1.4744  -1.4070  -1.4036
    -1.3040  -1.2897  -1.2816  -1.2617  -1.2235  -1.1480  -1.1137  -1.0566
    -1.0326  -0.9970  -0.9392  -0.8697  -0.8232  -0.7844  -0.7577  -0.7101
    -0.5084  -0.4815  -0.4618  -0.4515  -0.1327   0.8927   1.3614   1.6523
     1.8097   2.2474   2.6762   3.9289   3.9520   4.6788   4.8210   6.1454
     6.1556   6.7420   6.7661   6.9968   7.0014   7.5127   7.5952   7.8995
     8.0075   8.0346   8.2238   8.3123   8.3230   8.4731   8.5520   9.3556
     9.3968   9.7079   9.7927

     the Fermi energy is     0.4921 ev

!    total energy              =   -4243.83917416 Ry
     Harris-Foulkes estimate   =   -4243.83916533 Ry
     estimated scf accuracy    <       0.00000038 Ry

     The total energy is the sum of the following terms:

     one-electron contribution =  -32263.91941774 Ry
     hartree contribution      =   16156.70251143 Ry
     xc contribution           =    -457.80391013 Ry
     ewald contribution        =   12321.20137053 Ry
     electric field correction =       0.00000000 Ry
     smearing contrib. (-TS)   =      -0.01972825 Ry

     convergence has been achieved in  18 iterations

 BEEF-vdW xc energy contributions
           1 :   -404.341555950742
           2 :    367.260883516937
           3 :   -304.339269863414
           4 :    232.816120767093
           5 :   -168.582775790640
           6 :    120.530079318026
           7 :   -89.0548152668159
           8 :    68.7253343100987
           9 :   -52.9731970826364
          10 :    37.9460692284187
          11 :   -23.6449631071859
          12 :    12.3651020306432
          13 :   -6.05019944560797
          14 :    4.50037438051521
          15 :   -5.45584298922364
          16 :    6.16093535957651
          17 :   -5.09793945954743
          18 :    2.66830657229355
          19 :  -0.494765910896604
          20 :   5.997311191094923E-004
          21 :   -1.33846094332353
          22 :    3.36818897934359
          23 :   -4.57987093711631
          24 :    4.20382529761514
          25 :   -2.69761108082298
          26 :    1.31568632123958
          27 :   -1.14138704429706
          28 :    2.30835838711943
          29 :   -3.95414527222079
          30 :    4.89356809985321
          31 :   -33.6179149550402
          32 :   -23.4139005245176

     Forces acting on atoms (Ry/au):

     negative rho (up, down):  2.370E-01 0.000E+00
     atom    1 type  1   force =    -0.00000021   -0.00643138    0.00312373
     atom    2 type  1   force =    -0.00556800    0.00321493    0.00312360
     atom    3 type  1   force =     0.00557063    0.00321658    0.00312421
     atom    4 type  2   force =    -0.00000022   -0.00000018   -0.00054057
     atom    5 type  1   force =     0.00000086    0.00086609   -0.00250552
     atom    6 type  1   force =     0.00074903   -0.00043220   -0.00250377
     atom    7 type  1   force =    -0.00074981   -0.00043367   -0.00250423
     atom    8 type  2   force =    -0.00000293    0.00000052   -0.00032197
     atom    9 type  1   force =    -0.00000293   -0.00069455   -0.00026902
     atom   10 type  1   force =    -0.00060212    0.00034361   -0.00026039
     atom   11 type  1   force =     0.00060434    0.00034837   -0.00026980
     atom   12 type  2   force =     0.00000136    0.00000189   -0.00019625

     Total force =     0.013286     Total SCF correction =     0.003021
     SCF correction compared to forces is large: reduce conv_thr to get better values

     entering subroutine stress ...

     negative rho (up, down):  2.370E-01 0.000E+00
          total   stress  (Ry/bohr**3)                   (kbar)     P=  -17.73
  -0.00014099   0.00000000   0.00000000        -20.74      0.00      0.00
   0.00000000  -0.00014099  -0.00000000          0.00    -20.74     -0.00
   0.00000000  -0.00000000  -0.00007960          0.00     -0.00    -11.71

 !ASE

     Writing output data file calc.save

     General routines

     Parallel routines

   This run was terminated on:  19:26:42  25Dec2018

   JOB DONE.
Job  /afs/slac/g/suncat/bin/suncat-tsmpirun -x LD_LIBRARY_PATH -wdir /scratch/qe109585_b6fS3 pw.x -in pw.inp

TID   HOST_NAME   COMMAND_LINE            STATUS            TERMINATION_TIME
00000 suncat0064 pw.x -in pw.inp   Done                     12/25/2018 19:26:42
00001 suncat0064 pw.x -in pw.inp   Done                     12/25/2018 19:26:42
00002 suncat0064 pw.x -in pw.inp   Done                     12/25/2018 19:26:42
00003 suncat0064 pw.x -in pw.inp   Done                     12/25/2018 19:26:42
00004 suncat0064 pw.x -in pw.inp   Done                     12/25/2018 19:26:42
00005 suncat0064 pw.x -in pw.inp   Done                     12/25/2018 19:26:42
00006 suncat0064 pw.x -in pw.inp   Done                     12/25/2018 19:26:42
00007 suncat0064 pw.x -in pw.inp   Done                     12/25/2018 19:26:42
00008 suncat0063 pw.x -in pw.inp   Done                     12/25/2018 19:26:42
00009 suncat0063 pw.x -in pw.inp   Done                     12/25/2018 19:26:42
00010 suncat0063 pw.x -in pw.inp   Done                     12/25/2018 19:26:42
00011 suncat0063 pw.x -in pw.inp   Done                     12/25/2018 19:26:42
00012 suncat0063 pw.x -in pw.inp   Done                     12/25/2018 19:26:42
00013 suncat0063 pw.x -in pw.inp   Done                     12/25/2018 19:26:42
00014 suncat0063 pw.x -in pw.inp   Done                     12/25/2018 19:26:42
00015 suncat0063 pw.x -in pw.inp   Done                     12/25/2018 19:26:42
00016 suncat0061 pw.x -in pw.inp   Done                     12/25/2018 19:26:42
00017 suncat0061 pw.x -in pw.inp   Done                     12/25/2018 19:26:42
00018 suncat0061 pw.x -in pw.inp   Done                     12/25/2018 19:26:42
00019 suncat0061 pw.x -in pw.inp   Done                     12/25/2018 19:26:42
00020 suncat0061 pw.x -in pw.inp   Done                     12/25/2018 19:26:42
00021 suncat0061 pw.x -in pw.inp   Done                     12/25/2018 19:26:42
00022 suncat0061 pw.x -in pw.inp   Done                     12/25/2018 19:26:42
00023 suncat0061 pw.x -in pw.inp   Done                     12/25/2018 19:26:42
00024 suncat0053 pw.x -in pw.inp   Done                     12/25/2018 19:26:42
00025 suncat0053 pw.x -in pw.inp   Done                     12/25/2018 19:26:42
00026 suncat0053 pw.x -in pw.inp   Done                     12/25/2018 19:26:42
00027 suncat0053 pw.x -in pw.inp   Done                     12/25/2018 19:26:42
00028 suncat0053 pw.x -in pw.inp   Done                     12/25/2018 19:26:42
00029 suncat0053 pw.x -in pw.inp   Done                     12/25/2018 19:26:42
00030 suncat0053 pw.x -in pw.inp   Done                     12/25/2018 19:26:42
00031 suncat0053 pw.x -in pw.inp   Done                     12/25/2018 19:26:42
00032 suncat0052 pw.x -in pw.inp   Done                     12/25/2018 19:26:42
00033 suncat0052 pw.x -in pw.inp   Done                     12/25/2018 19:26:42
00034 suncat0052 pw.x -in pw.inp   Done                     12/25/2018 19:26:42
00035 suncat0052 pw.x -in pw.inp   Done                     12/25/2018 19:26:42
00036 suncat0052 pw.x -in pw.inp   Done                     12/25/2018 19:26:42
00037 suncat0052 pw.x -in pw.inp   Done                     12/25/2018 19:26:42
00038 suncat0052 pw.x -in pw.inp   Done                     12/25/2018 19:26:42
00039 suncat0052 pw.x -in pw.inp   Done                     12/25/2018 19:26:42
00040 suncat0046 pw.x -in pw.inp   Done                     12/25/2018 19:26:42
00041 suncat0046 pw.x -in pw.inp   Done                     12/25/2018 19:26:42
00042 suncat0046 pw.x -in pw.inp   Done                     12/25/2018 19:26:42
00043 suncat0046 pw.x -in pw.inp   Done                     12/25/2018 19:26:42
00044 suncat0046 pw.x -in pw.inp   Done                     12/25/2018 19:26:42
00045 suncat0046 pw.x -in pw.inp   Done                     12/25/2018 19:26:42
00046 suncat0046 pw.x -in pw.inp   Done                     12/25/2018 19:26:42
00047 suncat0046 pw.x -in pw.inp   Done                     12/25/2018 19:26:42
00048 suncat0141 pw.x -in pw.inp   Done                     12/25/2018 19:26:42
00049 suncat0141 pw.x -in pw.inp   Done                     12/25/2018 19:26:42
00050 suncat0141 pw.x -in pw.inp   Done                     12/25/2018 19:26:42
00051 suncat0141 pw.x -in pw.inp   Done                     12/25/2018 19:26:42
00052 suncat0141 pw.x -in pw.inp   Done                     12/25/2018 19:26:42
00053 suncat0141 pw.x -in pw.inp   Done                     12/25/2018 19:26:42
00054 suncat0141 pw.x -in pw.inp   Done                     12/25/2018 19:26:42
00055 suncat0141 pw.x -in pw.inp   Done                     12/25/2018 19:26:42
00056 suncat0140 pw.x -in pw.inp   Done                     12/25/2018 19:26:42
00057 suncat0140 pw.x -in pw.inp   Done                     12/25/2018 19:26:42
00058 suncat0140 pw.x -in pw.inp   Done                     12/25/2018 19:26:42
00059 suncat0140 pw.x -in pw.inp   Done                     12/25/2018 19:26:42
00060 suncat0140 pw.x -in pw.inp   Done                     12/25/2018 19:26:42
00061 suncat0140 pw.x -in pw.inp   Done                     12/25/2018 19:26:42
00062 suncat0140 pw.x -in pw.inp   Done                     12/25/2018 19:26:42
00063 suncat0140 pw.x -in pw.inp   Done                     12/25/2018 19:26:42