     Program PWSCF v.5.1rc2 (svn rev. 11289) starts on 19Dec2018 at 19:44:42

     Current dimensions of program PWSCF are:
     Max number of different atomic species (ntypx) = 10
     Max number of k-points (npk) =  40000
     Max angular momentum in pseudopotentials (lmaxx) =  3
     Presently stress not available with electric field

     IMPORTANT: XC functional enforced from input :
     Exchange-correlation      = BEEF-VDW ( 1  4 27 13 2)
     Any further DFT definition will be discarded
     Please, verify this is what you really want

     Subspace diagonalization in iterative solution of the eigenvalue problem:
     a serial algorithm will be used

     bravais-lattice index     =            0
     lattice parameter (alat)  =       1.8897  a.u.
     unit-cell volume          =    4883.6729 (a.u.)^3
     number of atoms/cell      =           12
     number of atomic types    =            2
     number of electrons       =       147.00
     number of Kohn-Sham states=          103
     kinetic-energy cutoff     =      36.7493  Ry
     charge density cutoff     =     367.4932  Ry
     convergence threshold     =      1.0E-06
     mixing beta               =       0.1000
     number of iterations used =           10  plain     mixing
     Exchange-correlation      = BEEF-VDW ( 1  4 27 13 2)
     nstep                     =           50

     celldm(1)=   1.889726  celldm(2)=   0.000000  celldm(3)=   0.000000
     celldm(4)=   0.000000  celldm(5)=   0.000000  celldm(6)=   0.000000

     crystal axes: (cart. coord. in units of alat)
               a(1) = (   5.811220   0.000000   0.000000 )
               a(2) = (  -2.905610   5.032664   0.000000 )
               a(3) = (   0.000000   0.000000  24.744841 )

     reciprocal axes: (cart. coord. in units 2 pi/alat)
               b(1) = (  0.172081  0.099351  0.000000 )
               b(2) = (  0.000000  0.198702  0.000000 )
               b(3) = (  0.000000  0.000000  0.040412 )

     PseudoPot. # 1 for Au read from file:
     /afs/slac.stanford.edu/u/if/mamunm/psp/gbrv1.5pbe/Au.UPF
     MD5 check sum: 9d7f43293ad2c663164586bc4b293ffc
     Pseudo is Ultrasoft + core correction, Zval = 11.0
     Generated by new atomic code, or converted to UPF format
     Using radial grid of  985 points,  7 beta functions with:
                l(1) =   0
                l(2) =   0
                l(3) =   1
                l(4) =   1
                l(5) =   2
                l(6) =   2
                l(7) =   3
     Q(r) pseudized with  6 coefficients,  rinner =    1.900   1.900   1.900
                                                       1.900   1.900   1.900
                                                       1.900

     PseudoPot. # 2 for Ru read from file:
     /afs/slac.stanford.edu/u/if/mamunm/psp/gbrv1.5pbe/Ru.UPF
     MD5 check sum: 7158a806dd851261a58e6920c40ebe78
     Pseudo is Ultrasoft + core correction, Zval = 16.0
     Generated by new atomic code, or converted to UPF format
     Using radial grid of  967 points,  6 beta functions with:
                l(1) =   0
                l(2) =   0
                l(3) =   1
                l(4) =   1
                l(5) =   2
                l(6) =   2
     Q(r) pseudized with  8 coefficients,  rinner =    1.300   1.300   1.300
                                                       1.300   1.300

     vdW kernel table read from file vdW_kernel_table
     MD5 check sum: 095c7af220d748ca6e76c0b4c6cfb241

     atomic species   valence    mass     pseudopotential
        Au1           11.00   196.96657     Au( 1.00)
        Ru1           16.00   101.07000     Ru( 1.00)

     No symmetry found

   Cartesian axes

     site n.     atom                  positions (alat units)
         1           Au1 tau(   1) = (   0.0000000   0.0000000  10.0000000  )
         2           Au1 tau(   2) = (  -1.4528050   2.5163322  10.0000000  )
         3           Au1 tau(   3) = (   1.4528050   2.5163322  10.0000000  )
         4           Ru1 tau(   4) = (   2.9056101   0.0000000  10.0000000  )
         5           Au1 tau(   5) = (   2.9056101   1.6775548  12.3724207  )
         6           Au1 tau(   6) = (   1.4528050   4.1938869  12.3724207  )
         7           Au1 tau(   7) = (  -1.4528050   4.1938869  12.3724207  )
         8           Ru1 tau(   8) = (   0.0000000   1.6775548  12.3724207  )
         9           Au1 tau(   9) = (  -0.0000000   3.3551095  14.7448414  )
        10           Au1 tau(  10) = (   1.4528050   0.8387774  14.7448414  )
        11           Au1 tau(  11) = (   4.3584151   0.8387774  14.7448414  )
        12           Ru1 tau(  12) = (   2.9056101   3.3551095  14.7448414  )

     number of k points=    20  Fermi-Dirac smearing, width (Ry)=  0.0110
                       cart. coord. in units 2pi/alat
        k(    1) = (   0.0000000   0.0000000   0.0000000), wk =   0.0555556
        k(    2) = (   0.0000000   0.0331170   0.0000000), wk =   0.1111111
        k(    3) = (   0.0000000   0.0662340   0.0000000), wk =   0.1111111
        k(    4) = (   0.0000000  -0.0993510   0.0000000), wk =   0.0555556
        k(    5) = (   0.0286802   0.0165585   0.0000000), wk =   0.1111111
        k(    6) = (   0.0286802   0.0496755   0.0000000), wk =   0.1111111
        k(    7) = (   0.0286802   0.0827925   0.0000000), wk =   0.1111111
        k(    8) = (   0.0286802  -0.0827925   0.0000000), wk =   0.1111111
        k(    9) = (   0.0286802  -0.0496755   0.0000000), wk =   0.1111111
        k(   10) = (   0.0286802  -0.0165585   0.0000000), wk =   0.1111111
        k(   11) = (   0.0573603   0.0331170   0.0000000), wk =   0.1111111
        k(   12) = (   0.0573603   0.0662340   0.0000000), wk =   0.1111111
        k(   13) = (   0.0573603   0.0993510   0.0000000), wk =   0.1111111
        k(   14) = (   0.0573603  -0.0662340   0.0000000), wk =   0.1111111
        k(   15) = (   0.0573603  -0.0331170   0.0000000), wk =   0.1111111
        k(   16) = (   0.0573603   0.0000000   0.0000000), wk =   0.1111111
        k(   17) = (  -0.0860405  -0.0496755   0.0000000), wk =   0.0555556
        k(   18) = (  -0.0860405  -0.0165585   0.0000000), wk =   0.1111111
        k(   19) = (  -0.0860405   0.0165585   0.0000000), wk =   0.1111111
        k(   20) = (  -0.0860405  -0.1490264   0.0000000), wk =   0.0555556

     Largest allocated arrays     est. size (Mb)     dimensions
     Largest temporary arrays     est. size (Mb)     dimensions

     Check: negative/imaginary core charge=   -0.000002    0.000000

     Initial potential from superposition of free atoms
     Check: negative starting charge=   -0.223346

     starting charge  143.99885, renormalised to  147.00000

     negative rho (up, down):  2.280E-01 0.000E+00

     *
     * You are using vdW-DF for exchange-correlation in this calculation.
     * Please cite the following three references that made this development
     * possible:
     *
     *   M. Dion, H. Rydberg, E. Schroder, D. C. Langreth, and
     *   B. I. Lundqvist, Phys. Rev. Lett. 92, 246401 (2004).
     *
     *   T. Thonhauser, V. R. Cooper, S. Li, A. Puzder, P. Hyldgaard, and
     *   D. C. Langreth, Phys. Rev. B 76, 125112 (2007).
     *
     *   G. Roman-Perez and J. M. Soler, Phys. Rev. Lett. 103, 096102 (2009).
     *
     *
     * If you are using vdW-DF2, please also cite:
     *
     *   K. Lee, E. D. Murray, L. Kong, B. I. Lundqvist, and
     *   D. C. Langreth, Phys. Rev. B 82, 081101(R) (2010).
     *
     *
     * If you are calculating the stress with vdW-DF, please also cite:
     *
     *   R. Sabatini, E. Kucukbenli, B. Kolb, T. Thonhauser, and
     *   S. de Gironcoli, J. Phys.: Condens. Matter 24, 424209 (2012).
     *

     Carrying out vdW-DF run using the following parameters:

     Nqs =      20    Nr_points =    1024   r_max =   100.000
     q_mesh =
               0.00001000     0.04494208     0.09755937     0.15916263
               0.23128650     0.31572767     0.41458969     0.53033537
               0.66584808     0.82450364     1.01025438     1.22772762
               1.48234092     1.78043706     2.12944203     2.53805004
               3.01644009     3.57652955     4.23227104     5.00000000

     Gradients computed in reciprocal space

     Adding external electric field

     Computed dipole along edir(3) :
        Dipole                0.0000 Ry au,          0.0000 Debye
        Dipole field          0.0000 Ry au

        Potential amp.       -0.0000 Ry
        Total length         45.5919 bohr

     Starting wfc are  120 randomized atomic wfcs

     Self-consistent Calculation

     iteration #  1     ecut=    36.75 Ry     beta=0.10
     Davidson diagonalization with overlap
     ethr =  1.00E-02,  avg # of iterations =  8.3

[...]

     total energy              =   -1634.74001413 Ry
     Harris-Foulkes estimate   =   -1636.58109899 Ry
     estimated scf accuracy    <      10.38841140 Ry

[...]

     End of self-consistent calculation

          k = 0.0000 0.0000 0.0000 ( 18439 PWs)   bands (ev):

   -71.5683 -71.3524 -71.3523 -41.6122 -41.5146 -41.5146 -41.3636 -41.3636
   -41.3634 -41.3634 -41.2738 -41.2729  -7.2553  -5.9115  -5.6363  -5.3301
    -5.2716  -5.2716  -5.1198  -5.1013  -5.1013  -4.9459  -4.8231  -4.8231
    -4.7436  -4.6914  -4.6914  -3.9916  -3.7130  -3.7130  -3.6253  -3.6253
    -3.3800  -3.3174  -3.2570  -3.1052  -3.0623  -3.0623  -2.9769  -2.9769
    -2.8041  -2.8041  -2.6502  -2.6502  -2.6397  -2.6397  -2.2801  -2.0253
    -2.0253  -1.9558  -1.9558  -1.7026  -1.7026  -1.4413  -1.2657  -1.2657
    -1.1133  -1.0172  -0.9541  -0.8911  -0.5117   0.0390   0.2182   0.2182
     0.2893   0.2893   0.4342   0.4342   0.5911   0.5911   0.6973   0.6973
     0.8703   1.0043   1.0043   1.3822   1.6548   1.8339   1.8339   2.7995
     2.7995   2.9537   2.9537   3.1290   3.2438   4.7842   4.7842   4.8751
     5.2599   5.2851   5.2851   5.4777   6.2558   6.2558   6.4397   6.4921
     6.8783   7.2172   7.6334   8.8333   9.2287   9.2488   9.2489

[...]

          k =-0.0860-0.0497 0.0000 ( 18304 PWs)   bands (ev):

[...]

     the Fermi energy is     0.6134 ev

!    total energy              =   -1635.32431468 Ry
     Harris-Foulkes estimate   =   -1635.32431430 Ry
     estimated scf accuracy    <       0.00000049 Ry

     The total energy is the sum of the following terms:

     one-electron contribution =  -10691.73257997 Ry
     hartree contribution      =    5417.78016495 Ry
     xc contribution           =    -656.40801295 Ry
     ewald contribution        =    4295.13115110 Ry
     electric field correction =       0.00000000 Ry
     smearing contrib. (-TS)   =      -0.09503781 Ry

     convergence has been achieved in  17 iterations

 BEEF-vdW xc energy contributions
           1 :   -584.215506307959
           2 :    542.293741908235
           3 :   -467.586438417428
           4 :    375.057181813967
           5 :   -280.782971134724
           6 :    197.670171667357
           7 :   -132.925053587793
           8 :    87.7243139685502
           9 :   -58.7819139024748
          10 :    40.8702433138831
          11 :   -29.1854445219005
          12 :    20.7009828125302
          13 :   -14.2762281665437
[...]
     Pseudo is Ultrasoft + core correction, Zval = 11.0
     Generated by new atomic code, or converted to UPF format
     Using radial grid of  985 points,  7 beta functions with:
                l(1) =   0
                l(2) =   0
                l(3) =   1
                l(4) =   1
                l(5) =   2
                l(6) =   2
                l(7) =   3
     Q(r) pseudized with  6 coefficients,  rinner =    1.900   1.900   1.900
                                                       1.900   1.900   1.900
                                                       1.900

     PseudoPot. # 2 for Ru read from file:
     /afs/slac.stanford.edu/u/if/mamunm/psp/gbrv1.5pbe/Ru.UPF
     MD5 check sum: 7158a806dd851261a58e6920c40ebe78
     Pseudo is Ultrasoft + core correction, Zval = 16.0
     Generated by new atomic code, or converted to UPF format
     Using radial grid of  967 points,  6 beta functions with:
                l(1) =   0
                l(2) =   0
                l(3) =   1
                l(4) =   1
                l(5) =   2
                l(6) =   2
     Q(r) pseudized with  8 coefficients,  rinner =    1.300   1.300   1.300
                                                       1.300   1.300

     vdW kernel table read from file vdW_kernel_table
     MD5 check sum: 095c7af220d748ca6e76c0b4c6cfb241

     atomic species   valence    mass     pseudopotential
        Au1           11.00   196.96657     Au( 1.00)
        Ru1           16.00   101.07000     Ru( 1.00)

     No symmetry found

   Cartesian axes

     site n.     atom                  positions (alat units)
         1           Au1 tau(   1) = (   0.0000000   0.0000000  10.0000000  )
         2           Au1 tau(   2) = (  -1.4528050   2.5163322  10.0000000  )
         3           Au1 tau(   3) = (   1.4528050   2.5163322  10.0000000  )
         4           Ru1 tau(   4) = (   2.9056101   0.0000000  10.0000000  )
         5           Au1 tau(   5) = (   2.9056101   1.6775548  12.3724207  )
         6           Au1 tau(   6) = (   1.4528050   4.1938869  12.3724207  )
         7           Au1 tau(   7) = (  -1.4528050   4.1938869  12.3724207  )
         8           Ru1 tau(   8) = (   0.0000000   1.6775548  12.3724207  )
         9           Au1 tau(   9) = (   0.0000058   3.3482837  14.8315686  )
        10           Au1 tau(  10) = (   1.4469089   0.8421953  14.8315501  )
        11           Au1 tau(  11) = (   4.3643424   0.8421781  14.8315733  )
        12           Ru1 tau(  12) = (   2.9056155   3.3551111  14.6165834  )

     number of k points=    20  Fermi-Dirac smearing, width (Ry)=  0.0110
                       cart. coord. in units 2pi/alat
        k(    1) = (   0.0000000   0.0000000   0.0000000), wk =   0.0555556
        k(    2) = (   0.0000000   0.0331170   0.0000000), wk =   0.1111111
        k(    3) = (   0.0000000   0.0662340   0.0000000), wk =   0.1111111
        k(    4) = (   0.0000000  -0.0993510   0.0000000), wk =   0.0555556
        k(    5) = (   0.0286802   0.0165585   0.0000000), wk =   0.1111111
        k(    6) = (   0.0286802   0.0496755   0.0000000), wk =   0.1111111
        k(    7) = (   0.0286802   0.0827925   0.0000000), wk =   0.1111111
        k(    8) = (   0.0286802  -0.0827925   0.0000000), wk =   0.1111111
        k(    9) = (   0.0286802  -0.0496755   0.0000000), wk =   0.1111111
        k(   10) = (   0.0286802  -0.0165585   0.0000000), wk =   0.1111111
        k(   11) = (   0.0573603   0.0331170   0.0000000), wk =   0.1111111
        k(   12) = (   0.0573603   0.0662340   0.0000000), wk =   0.1111111
        k(   13) = (   0.0573603   0.0993510   0.0000000), wk =   0.1111111
        k(   14) = (   0.0573603  -0.0662340   0.0000000), wk =   0.1111111
        k(   15) = (   0.0573603  -0.0331170   0.0000000), wk =   0.1111111
        k(   16) = (   0.0573603   0.0000000   0.0000000), wk =   0.1111111
        k(   17) = (  -0.0860405  -0.0496755   0.0000000), wk =   0.0555556
        k(   18) = (  -0.0860405  -0.0165585   0.0000000), wk =   0.1111111
        k(   19) = (  -0.0860405   0.0165585   0.0000000), wk =   0.1111111
        k(   20) = (  -0.0860405  -0.1490264   0.0000000), wk =   0.0555556

     Largest allocated arrays     est. size (Mb)     dimensions
     Largest temporary arrays     est. size (Mb)     dimensions

     Check: negative/imaginary core charge=   -0.000002    0.000000

     Initial potential from superposition of free atoms
     Check: negative starting charge=   -0.220710

     starting charge  143.99885, renormalised to  147.00000

[...]

     *
     * You are using vdW-DF for exchange-correlation in this calculation.
     * Please cite the following three references that made this development
     * possible:
     *
     *   M. Dion, H. Rydberg, E. Schroder, D. C. Langreth, and
     *   B. I. Lundqvist, Phys. Rev. Lett. 92, 246401 (2004).
     *
     *   T. Thonhauser, V. R. Cooper, S. Li, A. Puzder, P. Hyldgaard, and
     *   D. C. Langreth, Phys. Rev. B 76, 125112 (2007).
     *
     *   G. Roman-Perez and J. M. Soler, Phys. Rev. Lett. 103, 096102 (2009).
     *
     *
     * If you are using vdW-DF2, please also cite:
     *
     *   K. Lee, E. D. Murray, L. Kong, B. I. Lundqvist, and
     *   D. C. Langreth, Phys. Rev. B 82, 081101(R) (2010).
     *
     *
     * If you are calculating the stress with vdW-DF, please also cite:
     *
     *   R. Sabatini, E. Kucukbenli, B. Kolb, T. Thonhauser, and
     *   S. de Gironcoli, J. Phys.: Condens. Matter 24, 424209 (2012).
     *

     Carrying out vdW-DF run using the following parameters:

     Nqs =      20    Nr_points =    1024   r_max =   100.000
     q_mesh =
               0.00001000     0.04494208     0.09755937     0.15916263
               0.23128650     0.31572767     0.41458969     0.53033537
               0.66584808     0.82450364     1.01025438     1.22772762
               1.48234092     1.78043706     2.12944203     2.53805004
               3.01644009     3.57652955     4.23227104     5.00000000

     Gradients computed in reciprocal space

[...]

     Starting wfc are  120 randomized atomic wfcs

     Self-consistent Calculation

[...]

     total energy              =   -1635.34886387 Ry
     Harris-Foulkes estimate   =   -1635.34886496 Ry
     estimated scf accuracy    <       0.00000104 Ry

     iteration # 18     ecut=    36.75 Ry     beta=0.10
     Davidson diagonalization with overlap
     ethr =  7.10E-10,  avg # of iterations =  3.0

[...]

     negative rho (up, down):  2.250E-01 0.000E+00

     Adding external electric field

     Computed dipole along edir(3) :
        Dipole               -0.0203 Ry au,         -0.0515 Debye
        Dipole field         -0.0001 Ry au

        Potential amp.        0.0048 Ry
        Total length         45.5919 bohr

     End of self-consistent calculation

[...]

          k = 0.0574 0.0000 0.0000 ( 18391 PWs)   bands (ev):

[...]

          k =-0.0860-0.1490 0.0000 ( 18304 PWs)   bands (ev):

   -71.5866 -71.4342 -71.3832 -41.6222 -41.5359 -41.5351 -41.4363 -41.4356
   -41.3960 -41.3952 -41.3754 -41.3026  -5.9160  -5.6096  -4.9020  -4.7641
    -4.7428  -4.6812  -4.5673  -4.4670  -4.4253  -4.3720  -4.3181  -4.2495
    -4.0030  -3.9880  -3.9233  -3.8725  -3.8388  -3.8153  -3.7206  -3.6584
    -3.3586  -3.2812  -3.2124  -3.1991  -3.1842  -3.1477  -3.1263  -3.1009
    -3.0620  -3.0159  -2.9678  -2.9441  -2.9020  -2.8246  -2.7836  -2.7653
    -2.6280  -2.5735  -2.5351  -2.4610  -2.4135  -2.3239  -2.2155  -2.1832
    -1.8624  -1.7140  -1.4460  -1.4238  -1.3245  -1.1361  -0.8638  -0.7146
    -0.2756  -0.1642  -0.1306  -0.0535  -0.0347   0.0093   0.1877   0.2109
     0.2558   0.3968   0.4009   0.9434   1.1348   1.5334   1.9796   2.2724
     2.6527   3.2652   4.2839   4.3429   4.4968   4.9156   6.1833   6.2106
     6.8209   6.8493   6.8799   6.9163   6.9196   7.3581   7.5395   7.6726
     7.7023   7.9483   8.0883   8.1321   8.3911   8.5117   8.8125

     the Fermi energy is     0.5787 ev

!    total energy              =   -1635.34886560 Ry
     Harris-Foulkes estimate   =   -1635.34886378 Ry
     estimated scf accuracy    <       0.00000080 Ry

     The total energy is the sum of the following terms:

     one-electron contribution =  -10663.13028690 Ry
     hartree contribution      =    5403.38768370 Ry
     xc contribution           =    -656.38748547 Ry
     ewald contribution        =    4280.87477687 Ry
     electric field correction =       0.00000106 Ry
     smearing contrib. (-TS)   =      -0.09355486 Ry

     convergence has been achieved in  18 iterations

 BEEF-vdW xc energy contributions
           1 :   -584.704108062461
           2 :    542.751822408883
           3 :   -468.006902945149
           4 :    375.461302582612
           5 :   -281.207280470674
           6 :    198.145081472441
           7 :   -133.457029726427
           8 :    88.2910933310900
           9 :   -59.3433252116171
          10 :    41.3903311696748
          11 :   -29.6529785789962
          12 :    21.1364289680595
          13 :   -14.7214577712334
          14 :    10.3584812081715
          15 :   -8.04551781621160
          16 :    7.18095632327868
          17 :   -6.56317896537666
          18 :    4.90868149343657
          19 :   -1.51909355769919
          20 :   -3.31725761054554
          21 :    8.41929236101930
          22 :   -12.2607894053593
          23 :    13.6834417114342
          24 :   -12.4206479519792
          25 :    9.18593270595579
          26 :   -5.31455781862769
          27 :    2.15941163816854
          28 :  -0.547066837664374
          29 :   0.536079721154238
          30 :   -1.55348183636193
          31 :   -47.8415124151813
          32 :   -35.0613907003703

     Forces acting on atoms (Ry/au):

     negative rho (up, down):  2.250E-01 0.000E+00
     atom    1 type  1   force =     0.00000031    0.00549251   -0.01328005
     atom    2 type  1   force =     0.00476027   -0.00274743   -0.01328671
     atom    3 type  1   force =    -0.00476009   -0.00274758   -0.01328423
     atom    4 type  2   force =    -0.00000042    0.00000089    0.02741490
     atom    5 type  1   force =     0.00000033   -0.00966824    0.00107449
     atom    6 type  1   force =    -0.00837492    0.00483264    0.00107544
     atom    7 type  1   force =     0.00837070    0.00483555    0.00107194
     atom    8 type  2   force =    -0.00000092    0.00000114    0.00757203
     atom    9 type  1   force =     0.00000109   -0.00083032    0.00061831
     atom   10 type  1   force =    -0.00071724    0.00041476    0.00062194
     atom   11 type  1   force =     0.00072001    0.00041669    0.00061862
     atom   12 type  2   force =     0.00000089   -0.00000060   -0.00021669

     Total force =     0.041425     Total SCF correction =     0.004571
     SCF correction compared to forces is large: reduce conv_thr to get better values

     entering subroutine stress ...

     negative rho (up, down):  2.250E-01 0.000E+00
          total   stress  (Ry/bohr**3)                   (kbar)     P=  -12.19
  -0.00012840   0.00000000  -0.00000000        -18.89      0.00     -0.00
   0.00000000  -0.00012840   0.00000000          0.00    -18.89      0.00
  -0.00000000   0.00000000   0.00000813         -0.00      0.00      1.20

 !ASE

     Writing output data file calc.save

     General routines

     Parallel routines

   This run was terminated on:  21:58:54  19Dec2018

   JOB DONE.
Job  /afs/slac/g/suncat/bin/suncat-tsmpirun -x LD_LIBRARY_PATH -wdir /scratch/qe773388_Ug6Qm pw.x -in pw.inp

TID   HOST_NAME   COMMAND_LINE            STATUS            TERMINATION_TIME
00000 suncat0025 pw.x -in pw.inp   Done                     12/19/2018 21:58:54
00001 suncat0025 pw.x -in pw.inp   Done                     12/19/2018 21:58:54
00002 suncat0025 pw.x -in pw.inp   Done                     12/19/2018 21:58:54
00003 suncat0025 pw.x -in pw.inp   Done                     12/19/2018 21:58:54
00004 suncat0025 pw.x -in pw.inp   Done                     12/19/2018 21:58:54
00005 suncat0025 pw.x -in pw.inp   Done                     12/19/2018 21:58:54
00006 suncat0025 pw.x -in pw.inp   Done                     12/19/2018 21:58:54
00007 suncat0025 pw.x -in pw.inp   Done                     12/19/2018 21:58:54
00008 suncat0024 pw.x -in pw.inp   Done                     12/19/2018 21:58:54
00009 suncat0024 pw.x -in pw.inp   Done                     12/19/2018 21:58:54
00010 suncat0024 pw.x -in pw.inp   Done                     12/19/2018 21:58:54
00011 suncat0024 pw.x -in pw.inp   Done                     12/19/2018 21:58:54
00012 suncat0024 pw.x -in pw.inp   Done                     12/19/2018 21:58:54
00013 suncat0024 pw.x -in pw.inp   Done                     12/19/2018 21:58:54
00014 suncat0024 pw.x -in pw.inp   Done                     12/19/2018 21:58:54
00015 suncat0024 pw.x -in pw.inp   Done                     12/19/2018 21:58:54
00016 suncat0023 pw.x -in pw.inp   Done                     12/19/2018 21:58:54
00017 suncat0023 pw.x -in pw.inp   Done                     12/19/2018 21:58:54
00018 suncat0023 pw.x -in pw.inp   Done                     12/19/2018 21:58:54
00019 suncat0023 pw.x -in pw.inp   Done                     12/19/2018 21:58:54
00020 suncat0023 pw.x -in pw.inp   Done                     12/19/2018 21:58:54
00021 suncat0023 pw.x -in pw.inp   Done                     12/19/2018 21:58:54
00022 suncat0023 pw.x -in pw.inp   Done                     12/19/2018 21:58:54
00023 suncat0023 pw.x -in pw.inp   Done                     12/19/2018 21:58:54
00024 suncat0022 pw.x -in pw.inp   Done                     12/19/2018 21:58:54
00025 suncat0022 pw.x -in pw.inp   Done                     12/19/2018 21:58:54
00026 suncat0022 pw.x -in pw.inp   Done                     12/19/2018 21:58:54
00027 suncat0022 pw.x -in pw.inp   Done                     12/19/2018 21:58:54
00028 suncat0022 pw.x -in pw.inp   Done                     12/19/2018 21:58:54
00029 suncat0022 pw.x -in pw.inp   Done                     12/19/2018 21:58:54
00030 suncat0022 pw.x -in pw.inp   Done                     12/19/2018 21:58:54
00031 suncat0022 pw.x -in pw.inp   Done                     12/19/2018 21:58:54
00032 suncat0021 pw.x -in pw.inp   Done                     12/19/2018 21:58:54
00033 suncat0021 pw.x -in pw.inp   Done                     12/19/2018 21:58:54
00034 suncat0021 pw.x -in pw.inp   Done                     12/19/2018 21:58:54
00035 suncat0021 pw.x -in pw.inp   Done                     12/19/2018 21:58:54
00036 suncat0021 pw.x -in pw.inp   Done                     12/19/2018 21:58:54
00037 suncat0021 pw.x -in pw.inp   Done                     12/19/2018 21:58:54
00038 suncat0021 pw.x -in pw.inp   Done                     12/19/2018 21:58:54
00039 suncat0021 pw.x -in pw.inp   Done                     12/19/2018 21:58:54
00040 suncat0016 pw.x -in pw.inp   Done                     12/19/2018 21:58:54
00041 suncat0016 pw.x -in pw.inp   Done                     12/19/2018 21:58:54
00042 suncat0016 pw.x -in pw.inp   Done                     12/19/2018 21:58:54
00043 suncat0016 pw.x -in pw.inp   Done                     12/19/2018 21:58:54
00044 suncat0016 pw.x -in pw.inp   Done                     12/19/2018 21:58:54
00045 suncat0016 pw.x -in pw.inp   Done                     12/19/2018 21:58:54
00046 suncat0016 pw.x -in pw.inp   Done                     12/19/2018 21:58:54
00047 suncat0016 pw.x -in pw.inp   Done                     12/19/2018 21:58:54
00048 suncat0015 pw.x -in pw.inp   Done                     12/19/2018 21:58:54
00049 suncat0015 pw.x -in pw.inp   Done                     12/19/2018 21:58:54
00050 suncat0015 pw.x -in pw.inp   Done                     12/19/2018 21:58:54
00051 suncat0015 pw.x -in pw.inp   Done                     12/19/2018 21:58:54
00052 suncat0015 pw.x -in pw.inp   Done                     12/19/2018 21:58:54
00053 suncat0015 pw.x -in pw.inp   Done                     12/19/2018 21:58:54
00054 suncat0015 pw.x -in pw.inp   Done                     12/19/2018 21:58:54
00055 suncat0015 pw.x -in pw.inp   Done                     12/19/2018 21:58:54
00056 suncat0014 pw.x -in pw.inp   Done                     12/19/2018 21:58:54
00057 suncat0014 pw.x -in pw.inp   Done                     12/19/2018 21:58:54
00058 suncat0014 pw.x -in pw.inp   Done                     12/19/2018 21:58:54
00059 suncat0014 pw.x -in pw.inp   Done                     12/19/2018 21:58:54
00060 suncat0014 pw.x -in pw.inp   Done                     12/19/2018 21:58:54
00061 suncat0014 pw.x -in pw.inp   Done                     12/19/2018 21:58:54
00062 suncat0014 pw.x -in pw.inp   Done                     12/19/2018 21:58:54
00063 suncat0014 pw.x -in pw.inp   Done                     12/19/2018 21:58:54