     Program PWSCF v.5.1rc2 (svn rev. 11289) starts on 26Dec2018 at 20:37:35

     Current dimensions of program PWSCF are:
     Max number of different atomic species (ntypx) = 10
     Max number of k-points (npk) =  40000
     Max angular momentum in pseudopotentials (lmaxx) =  3
     Presently stress not available with electric field

     IMPORTANT: XC functional enforced from input :
     Exchange-correlation      = BEEF-VDW ( 1  4 27 13 2)
     Any further DFT definition will be discarded
     Please, verify this is what you really want

     Subspace diagonalization in iterative solution of the eigenvalue problem:
     a serial algorithm will be used

     Generating pointlists ...
     new r_m :   0.4125 (alat units)  0.7795 (a.u.) for type    1
     new r_m :   0.4125 (alat units)  0.7795 (a.u.) for type    2

     bravais-lattice index     =            0
     lattice parameter (alat)  =       1.8897  a.u.
     unit-cell volume          =    3987.9878 (a.u.)^3
     number of atoms/cell      =           12
     number of atomic types    =            2
     number of electrons       =       183.00
     number of Kohn-Sham states=          121
     kinetic-energy cutoff     =      36.7493  Ry
     charge density cutoff     =     367.4932  Ry
     convergence threshold     =      1.0E-06
     mixing beta               =       0.1000
     number of iterations used =           10  plain     mixing
     Exchange-correlation      = BEEF-VDW ( 1  4 27 13 2)
     nstep                     =           50

     celldm(1)=   1.889726  celldm(2)=   0.000000  celldm(3)=   0.000000
     celldm(4)=   0.000000  celldm(5)=   0.000000  celldm(6)=   0.000000

     crystal axes: (cart. coord. in units of alat)
               a(1) = (   5.296519   0.000000   0.000000 )
               a(2) = (  -2.648259   4.586920   0.000000 )
               a(3) = (   0.000000   0.000000  24.324590 )

     reciprocal axes: (cart. coord. in units 2 pi/alat)
               b(1) = (  0.188803  0.109006  0.000000 )
               b(2) = (  0.000000  0.218011  0.000000 )
               b(3) = (  0.000000  0.000000  0.041111 )

     PseudoPot. # 1 for Mn read from file:
     /afs/slac.stanford.edu/u/if/mamunm/psp/gbrv1.5pbe/Mn.UPF
     MD5 check sum: 82ef2b46521d7a7d9e736dc3972e4928
     Pseudo is Ultrasoft + core correction, Zval = 15.0
     Generated by new atomic code, or converted to UPF format
     Using radial grid of  859 points,  6 beta functions with:
                l(1) =   0
                l(2) =   0
                l(3) =   1
                l(4) =   1
                l(5) =   2
                l(6) =   2
     Q(r) pseudized with  8 coefficients,  rinner =    0.950   0.950   0.950
                                                       0.950   0.950

     PseudoPot. # 2 for Pt read from file:
     /afs/slac.stanford.edu/u/if/mamunm/psp/gbrv1.5pbe/Pt.UPF
     MD5 check sum: f09d6de1a584b5a045c4fc126da2d0c4
     Pseudo is Ultrasoft + core correction, Zval = 16.0
     Generated by new atomic code, or converted to UPF format
     Using radial grid of  985 points,  6 beta functions with:
                l(1) =   0
                l(2) =   0
                l(3) =   1
                l(4) =   1
                l(5) =   2
                l(6) =   2
     Q(r) pseudized with  8 coefficients,  rinner =    1.300   1.300   1.300
                                                       1.300   1.300

     vdW kernel table read from file vdW_kernel_table
     MD5 check sum: 095c7af220d748ca6e76c0b4c6cfb241

     atomic species   valence    mass     pseudopotential
        Mn1           15.00    54.93804     Mn( 1.00)
        Pt1           16.00   195.08400     Pt( 1.00)

     Starting magnetic structure
     atomic species   magnetization
        Mn1          0.133
        Pt1          0.125

     No symmetry found

   Cartesian axes

     site n.     atom                  positions (alat units)
         1           Mn1 tau(   1) = (   0.0000000   0.0000000  10.0000000  )
         2           Mn1 tau(   2) = (  -1.3241297   2.2934600  10.0000000  )
         3           Mn1 tau(   3) = (   1.3241297   2.2934600  10.0000000  )
         4           Pt1 tau(   4) = (   2.6482595   0.0000000  10.0000000  )
         5           Mn1 tau(   5) = (   2.6482595   1.5289733  12.1622948  )
         6           Mn1 tau(   6) = (   1.3241297   3.8224333  12.1622948  )
         7           Mn1 tau(   7) = (  -1.3241297   3.8224333  12.1622948  )
         8           Pt1 tau(   8) = (   0.0000000   1.5289733  12.1622948  )
         9           Mn1 tau(   9) = (  -0.0000000   3.0579467  14.3245896  )
        10           Mn1 tau(  10) = (   1.3241297   0.7644867  14.3245896  )
        11           Mn1 tau(  11) = (   3.9723892   0.7644867  14.3245896  )
        12           Pt1 tau(  12) = (   2.6482595   3.0579467  14.3245896  )

     number of k points=    40  Fermi-Dirac smearing, width (Ry)=  0.0110
                       cart. coord. in units 2pi/alat
        k(    1) = (   0.0000000   0.0000000   0.0000000), wk =   0.0277778
        k(    2) = (   0.0000000   0.0363352   0.0000000), wk =   0.0555556
        k(    3) = (   0.0000000   0.0726704   0.0000000), wk =   0.0555556
        k(    4) = (   0.0000000  -0.1090056   0.0000000), wk =   0.0277778
        k(    5) = (   0.0314672   0.0181676   0.0000000), wk =   0.0555556
        k(    6) = (   0.0314672   0.0545028   0.0000000), wk =   0.0555556
        k(    7) = (   0.0314672   0.0908380   0.0000000), wk =   0.0555556
        k(    8) = (   0.0314672  -0.0908380   0.0000000), wk =   0.0555556
        k(    9) = (   0.0314672  -0.0545028   0.0000000), wk =   0.0555556
        k(   10) = (   0.0314672  -0.0181676   0.0000000), wk =   0.0555556
        k(   11) = (   0.0629344   0.0363352   0.0000000), wk =   0.0555556
        k(   12) = (   0.0629344   0.0726704   0.0000000), wk =   0.0555556
        k(   13) = (   0.0629344   0.1090056   0.0000000), wk =   0.0555556
        k(   14) = (   0.0629344  -0.0726704   0.0000000), wk =   0.0555556
        k(   15) = (   0.0629344  -0.0363352   0.0000000), wk =   0.0555556
        k(   16) = (   0.0629344   0.0000000   0.0000000), wk =   0.0555556
        k(   17) = (  -0.0944016  -0.0545028   0.0000000), wk =   0.0277778
        k(   18) = (  -0.0944016  -0.0181676   0.0000000), wk =   0.0555556
        k(   19) = (  -0.0944016   0.0181676   0.0000000), wk =   0.0555556
        k(   20) = (  -0.0944016  -0.1635084   0.0000000), wk =   0.0277778
        k(   21) = (   0.0000000   0.0000000   0.0000000), wk =   0.0277778
        k(   22) = (   0.0000000   0.0363352   0.0000000), wk =   0.0555556
        k(   23) = (   0.0000000   0.0726704   0.0000000), wk =   0.0555556
        k(   24) = (   0.0000000  -0.1090056   0.0000000), wk =   0.0277778
        k(   25) = (   0.0314672   0.0181676   0.0000000), wk =   0.0555556
        k(   26) = (   0.0314672   0.0545028   0.0000000), wk =   0.0555556
        k(   27) = (   0.0314672   0.0908380   0.0000000), wk =   0.0555556
        k(   28) = (   0.0314672  -0.0908380   0.0000000), wk =   0.0555556
        k(   29) = (   0.0314672  -0.0545028   0.0000000), wk =   0.0555556
        k(   30) = (   0.0314672  -0.0181676   0.0000000), wk =   0.0555556
        k(   31) = (   0.0629344   0.0363352   0.0000000), wk =   0.0555556
        k(   32) = (   0.0629344   0.0726704   0.0000000), wk =   0.0555556
        k(   33) = (   0.0629344   0.1090056   0.0000000), wk =   0.0555556
        k(   34) = (   0.0629344  -0.0726704   0.0000000), wk =   0.0555556
        k(   35) = (   0.0629344  -0.0363352   0.0000000), wk =   0.0555556
        k(   36) = (   0.0629344   0.0000000   0.0000000), wk =   0.0555556
        k(   37) = (  -0.0944016  -0.0545028   0.0000000), wk =   0.0277778
        k(   38) = (  -0.0944016  -0.0181676   0.0000000), wk =   0.0555556
        k(   39) = (  -0.0944016   0.0181676   0.0000000), wk =   0.0555556
        k(   40) = (  -0.0944016  -0.1635084   0.0000000), wk =   0.0277778

     Largest allocated arrays     est. size (Mb)     dimensions
     Largest temporary arrays     est. size (Mb)     dimensions

     Check: negative/imaginary core charge=   -0.000008    0.000000

     Initial potential from superposition of free atoms
     Check: negative starting charge=(component1):   -0.310452
     Check: negative starting charge=(component2):   -0.241465

     starting charge  176.99920, renormalised to  183.00000

     negative rho (up, down):  3.210E-01 2.497E-01

     *
     * You are using vdW-DF for exchange-correlation in this calculation.
     * Please cite the following three references that made this development
     * possible:
     *
     *   M. Dion, H. Rydberg, E. Schroder, D. C. Langreth, and
     *   B. I. Lundqvist, Phys. Rev. Lett. 92, 246401 (2004).
     *
     *   T. Thonhauser, V. R. Cooper, S. Li, A. Puzder, P. Hyldgaard, and
     *   D. C. Langreth, Phys. Rev. B 76, 125112 (2007).
     *
     *   G. Roman-Perez and J. M. Soler, Phys. Rev. Lett. 103, 096102 (2009).
     *
     *
     * If you are using vdW-DF2, please also cite:
     *
     *   K. Lee, E. D. Murray, L. Kong, B. I. Lundqvist, and
     *   D. C. Langreth, Phys. Rev. B 82, 081101(R) (2010).
     *
     *
     * If you are calculating the stress with vdW-DF, please also cite:
     *
     *   R. Sabatini, E. Kucukbenli, B. Kolb, T. Thonhauser, and
     *   S. de Gironcoli, J. Phys.: Condens. Matter 24, 424209 (2012).
     *

     Carrying out vdW-DF run using the following parameters:

     Nqs =      20    Nr_points =    1024   r_max =   100.000
     q_mesh =
               0.00001000     0.04494208     0.09755937     0.15916263
               0.23128650     0.31572767     0.41458969     0.53033537
               0.66584808     0.82450364     1.01025438     1.22772762
               1.48234092     1.78043706     2.12944203     2.53805004
               3.01644009     3.57652955     4.23227104     5.00000000

     Gradients computed in reciprocal space

     Adding external electric field

     Computed dipole along edir(3) :
        Dipole                0.0000 Ry au,          0.0000 Debye
        Dipole field          0.0000 Ry au

        Potential amp.       -0.0000 Ry
        Total length         44.8176 bohr

[...]

     Starting wfc are  153 randomized atomic wfcs

     Self-consistent Calculation

     iteration #  1     ecut=    36.75 Ry     beta=0.10
     Davidson diagonalization with overlap
     ethr =  1.00E-02,  avg # of iterations =  6.7

[...]

     Magnetic moment per site:
     atom:    1    charge:    6.1103    magn:    0.7915    constr:    0.0000
     atom:    2    charge:    6.1103    magn:    0.7915    constr:    0.0000
     atom:    3    charge:    6.1103    magn:    0.7915    constr:    0.0000
     atom:    4    charge:    2.1106    magn:    0.2451    constr:    0.0000
     atom:    5    charge:    6.1141    magn:    0.7857    constr:    0.0000
     atom:    6    charge:    6.1141    magn:    0.7857    constr:    0.0000
     atom:    7    charge:    6.1141    magn:    0.7857    constr:    0.0000
     atom:    8    charge:    2.1127    magn:    0.2444    constr:    0.0000
[...]
        k(    3) = (   0.0000000   0.0726704   0.0000000), wk =   0.0555556
        k(    4) = (   0.0000000  -0.1090056   0.0000000), wk =   0.0277778
        k(    5) = (   0.0314672   0.0181676   0.0000000), wk =   0.0555556
        k(    6) = (   0.0314672   0.0545028   0.0000000), wk =   0.0555556
        k(    7) = (   0.0314672   0.0908380   0.0000000), wk =   0.0555556
        k(    8) = (   0.0314672  -0.0908380   0.0000000), wk =   0.0555556
        k(    9) = (   0.0314672  -0.0545028   0.0000000), wk =   0.0555556
        k(   10) = (   0.0314672  -0.0181676   0.0000000), wk =   0.0555556
        k(   11) = (   0.0629344   0.0363352   0.0000000), wk =   0.0555556
        k(   12) = (   0.0629344   0.0726704   0.0000000), wk =   0.0555556
        k(   13) = (   0.0629344   0.1090056   0.0000000), wk =   0.0555556
        k(   14) = (   0.0629344  -0.0726704   0.0000000), wk =   0.0555556
        k(   15) = (   0.0629344  -0.0363352   0.0000000), wk =   0.0555556
        k(   16) = (   0.0629344   0.0000000   0.0000000), wk =   0.0555556
        k(   17) = (  -0.0944016  -0.0545028   0.0000000), wk =   0.0277778
        k(   18) = (  -0.0944016  -0.0181676   0.0000000), wk =   0.0555556
        k(   19) = (  -0.0944016   0.0181676   0.0000000), wk =   0.0555556
        k(   20) = (  -0.0944016  -0.1635084   0.0000000), wk =   0.0277778
        k(   21) = (   0.0000000   0.0000000   0.0000000), wk =   0.0277778
        k(   22) = (   0.0000000   0.0363352   0.0000000), wk =   0.0555556
        k(   23) = (   0.0000000   0.0726704   0.0000000), wk =   0.0555556
        k(   24) = (   0.0000000  -0.1090056   0.0000000), wk =   0.0277778
        k(   25) = (   0.0314672   0.0181676   0.0000000), wk =   0.0555556
        k(   26) = (   0.0314672   0.0545028   0.0000000), wk =   0.0555556
        k(   27) = (   0.0314672   0.0908380   0.0000000), wk =   0.0555556
        k(   28) = (   0.0314672  -0.0908380   0.0000000), wk =   0.0555556
        k(   29) = (   0.0314672  -0.0545028   0.0000000), wk =   0.0555556
        k(   30) = (   0.0314672  -0.0181676   0.0000000), wk =   0.0555556
        k(   31) = (   0.0629344   0.0363352   0.0000000), wk =   0.0555556
        k(   32) = (   0.0629344   0.0726704   0.0000000), wk =   0.0555556
        k(   33) = (   0.0629344   0.1090056   0.0000000), wk =   0.0555556
        k(   34) = (   0.0629344  -0.0726704   0.0000000), wk =   0.0555556
        k(   35) = (   0.0629344  -0.0363352   0.0000000), wk =   0.0555556
        k(   36) = (   0.0629344   0.0000000   0.0000000), wk =   0.0555556
        k(   37) = (  -0.0944016  -0.0545028   0.0000000), wk =   0.0277778
        k(   38) = (  -0.0944016  -0.0181676   0.0000000), wk =   0.0555556
        k(   39) = (  -0.0944016   0.0181676   0.0000000), wk =   0.0555556
        k(   40) = (  -0.0944016  -0.1635084   0.0000000), wk =   0.0277778

     Largest allocated arrays     est. size (Mb)     dimensions
     Largest temporary arrays     est. size (Mb)     dimensions

     Check: negative/imaginary core charge=   -0.000008    0.000000

     Initial potential from superposition of free atoms
     Check: negative starting charge=(component1):   -0.310709
     Check: negative starting charge=(component2):   -0.241664

     starting charge  176.99920, renormalised to  183.00000

[...]

     *
     * You are using vdW-DF for exchange-correlation in this calculation.
     * Please cite the following three references that made this development
     * possible:
     *
     *   M. Dion, H. Rydberg, E. Schroder, D. C. Langreth, and
     *   B. I. Lundqvist, Phys. Rev. Lett. 92, 246401 (2004).
     *
     *   T. Thonhauser, V. R. Cooper, S. Li, A. Puzder, P. Hyldgaard, and
     *   D. C. Langreth, Phys. Rev. B 76, 125112 (2007).
     *
     *   G. Roman-Perez and J. M. Soler, Phys. Rev. Lett. 103, 096102 (2009).
     *
     *
     * If you are using vdW-DF2, please also cite:
     *
     *   K. Lee, E. D. Murray, L. Kong, B. I. Lundqvist, and
     *   D. C. Langreth, Phys. Rev. B 82, 081101(R) (2010).
     *
     *
     * If you are calculating the stress with vdW-DF, please also cite:
     *
     *   R. Sabatini, E. Kucukbenli, B. Kolb, T. Thonhauser, and
     *   S. de Gironcoli, J. Phys.: Condens. Matter 24, 424209 (2012).
     *

     Carrying out vdW-DF run using the following parameters:

     Nqs =      20    Nr_points =    1024   r_max =   100.000
     q_mesh =
               0.00001000     0.04494208     0.09755937     0.15916263
               0.23128650     0.31572767     0.41458969     0.53033537
               0.66584808     0.82450364     1.01025438     1.22772762
               1.48234092     1.78043706     2.12944203     2.53805004
               3.01644009     3.57652955     4.23227104     5.00000000

     Gradients computed in reciprocal space

[...]

     Starting wfc are  153 randomized atomic wfcs

     Self-consistent Calculation

[...]

     total energy              =   -2546.11215205 Ry
     Harris-Foulkes estimate   =   -2546.11215013 Ry
     estimated scf accuracy    <       0.00000284 Ry

[...]

     iteration # 37     ecut=    36.75 Ry     beta=0.10
     Davidson diagonalization with overlap
     ethr =  1.35E-09,  avg # of iterations =  1.2

[...]

     negative rho (up, down):  2.688E-01 2.565E-01

[...]

     Adding external electric field

     Computed dipole along edir(3) :
        Dipole                0.0050 Ry au,          0.0127 Debye
        Dipole field          0.0000 Ry au

        Potential amp.       -0.0014 Ry
        Total length         44.8176 bohr

     Magnetic moment per site:
     atom:    1    charge:    6.0152    magn:    1.4219    constr:    0.0000
     atom:    2    charge:    6.0152    magn:    1.4219    constr:    0.0000
     atom:    3    charge:    6.0152    magn:    1.4219    constr:    0.0000
     atom:    4    charge:    2.1076    magn:    0.0300    constr:    0.0000
     atom:    5    charge:    6.0087    magn:    1.3328    constr:    0.0000
     atom:    6    charge:    6.0089    magn:    1.3329    constr:    0.0000
     atom:    7    charge:    6.0088    magn:    1.3329    constr:    0.0000
     atom:    8    charge:    2.1093    magn:    0.0363    constr:    0.0000
     atom:    9    charge:    6.0179    magn:    1.4635    constr:    0.0000
     atom:   10    charge:    6.0178    magn:    1.4635    constr:    0.0000
     atom:   11    charge:    6.0179    magn:    1.4635    constr:    0.0000
     atom:   12    charge:    2.1025    magn:    0.0292    constr:    0.0000

     End of self-consistent calculation

 ------ SPIN UP ------------

[...]

 ------ SPIN DOWN ----------

[...]

          k = 0.0629 0.0000 0.0000 ( 15013 PWs)   bands (ev):

[...]

          k =-0.0944-0.1635 0.0000 ( 15018 PWs)   bands (ev):

   -75.3629 -75.3506 -75.3370 -75.3021 -75.2909 -75.2816 -75.2790 -75.2694
   -75.2573 -51.3364 -51.3340 -51.2717 -51.1227 -51.1202 -51.0682 -51.0658
   -50.9555 -50.8773 -44.2988 -44.2682 -44.2377 -44.2116 -44.2067 -44.1940
   -44.1888 -44.1705 -44.1701 -44.1564 -44.1419 -44.1283 -44.1255 -44.1177
   -44.1174 -44.1092 -44.0967 -44.0822 -44.0431 -44.0304 -44.0080 -44.0017
   -43.9882 -43.9787 -43.9730 -43.9605 -43.9586  -4.5475  -4.0561  -3.2988
    -2.8716  -2.6903  -2.5599  -2.2415  -2.2254  -2.1554  -1.9608  -1.8635
    -1.8615  -1.7344  -1.7237  -1.6057  -1.3443  -1.3142  -1.1015  -0.9370
    -0.4813  -0.3787   0.0643   0.4732   0.7736   1.0853   1.1387   1.3586
     1.4132   1.4305   1.4673   1.5700   1.6489   1.6709   1.7746   1.8007
     2.0932   2.2122   2.3005   2.4620   2.4887   2.6896   2.7288   2.8239
     2.8970   3.0421   3.1091   3.1331   3.2498   3.4342   3.5007   3.5504
     3.5843   3.6076   3.6571   3.7385   3.7565   3.8907   3.9704   4.1186
     4.1493   4.1887   4.4664   4.5402   4.6892   4.7684   4.8457   5.5257
     5.8658   5.9052   6.1378   6.1785   6.2208   7.2409   7.2606   7.2912
     7.4707

     the Fermi energy is     1.6236 ev

!    total energy              =   -2546.11215905 Ry
     Harris-Foulkes estimate   =   -2546.11215229 Ry
     estimated scf accuracy    <       0.00000075 Ry

     The total energy is the sum of the following terms:

     one-electron contribution =  -20955.29808845 Ry
     hartree contribution      =   10486.29115565 Ry
     xc contribution           =    -425.33165137 Ry
     ewald contribution        =    8348.31407982 Ry
     electric field correction =       0.00000008 Ry
     smearing contrib. (-TS)   =      -0.08765477 Ry

     total magnetization       =    33.68 Bohr mag/cell
     absolute magnetization    =    34.08 Bohr mag/cell

     convergence has been achieved in  37 iterations

 BEEF-vdW xc energy contributions
           1 :   -374.534535912984
           2 :    342.606154029491
           3 :   -288.208915726042
           4 :    225.538876309297
           5 :   -167.430803430672
           6 :    121.314386422571
           7 :   -88.6019404591661
           8 :    66.6093815600179
           9 :   -51.2643120454795
          10 :    39.1753867595619
          11 :   -28.4920388359382
          12 :    18.7365185130022
          13 :   -10.2160678040809
          14 :    3.48737150873649
          15 :    1.00994272477783
          16 :   -3.23188579455700
          17 :    3.66683955166826
          18 :   -3.19981282926170
          19 :    2.71329975093096
          20 :   -2.68365356549765
          21 :    3.05055745059070
          22 :   -3.44331880081819
          23 :    3.57033964876717
          24 :   -3.47313613293323
          25 :    3.45207201441343
          26 :   -3.75469007045359
          27 :    4.30816596058622
          28 :   -4.73774257273186
          29 :    4.65065244215447
          30 :   -3.95558359331898
          31 :   -32.3911737345456
          32 :   -23.3148171092786

     Forces acting on atoms (Ry/au):

     negative rho (up, down):  2.688E-01 2.565E-01
     atom    1 type  1   force =     0.00000356   -0.00412050   -0.03256085
     atom    2 type  1   force =    -0.00357914    0.00205666   -0.03254362
     atom    3 type  1   force =     0.00358041    0.00205324   -0.03255592
     atom    4 type  2   force =    -0.00000041    0.00000602   -0.02127548
     atom    5 type  1   force =    -0.00000445   -0.00159750    0.02690449
     atom    6 type  1   force =    -0.00138927    0.00079539    0.02692219
     atom    7 type  1   force =     0.00139015    0.00080085    0.02691817
     atom    8 type  2   force =     0.00000162    0.00000215    0.03845223
     atom    9 type  1   force =     0.00000771    0.00044060    0.00053160
     atom   10 type  1   force =     0.00037658   -0.00021684    0.00052419
     atom   11 type  1   force =    -0.00037960   -0.00022775    0.00052740
     atom   12 type  2   force =    -0.00000716    0.00000769   -0.00184438

     Total force =     0.085716     Total SCF correction =     0.002514

     entering subroutine stress ...

     negative rho (up, down):  2.688E-01 2.565E-01
          total   stress  (Ry/bohr**3)                   (kbar)     P=   22.97
   0.00018141  -0.00000001  -0.00000001         26.69     -0.00     -0.00
  -0.00000001   0.00018140   0.00000001         -0.00     26.69      0.00
  -0.00000001   0.00000001   0.00010565         -0.00      0.00     15.54

 !ASE

     Writing output data file calc.save

     General routines

     Parallel routines

   This run was terminated on:   0:54:56  27Dec2018

   JOB DONE.
Job  /afs/slac/g/suncat/bin/suncat-tsmpirun -x LD_LIBRARY_PATH -wdir /scratch/qe110081_IM3rX pw.x -in pw.inp

TID   HOST_NAME   COMMAND_LINE            STATUS            TERMINATION_TIME
00000 suncat0163 pw.x -in pw.inp   Done                     12/27/2018 00:54:56
00001 suncat0163 pw.x -in pw.inp   Done                     12/27/2018 00:54:56
00002 suncat0163 pw.x -in pw.inp   Done                     12/27/2018 00:54:56
00003 suncat0163 pw.x -in pw.inp   Done                     12/27/2018 00:54:56
00004 suncat0163 pw.x -in pw.inp   Done                     12/27/2018 00:54:56
00005 suncat0163 pw.x -in pw.inp   Done                     12/27/2018 00:54:56
00006 suncat0163 pw.x -in pw.inp   Done                     12/27/2018 00:54:56
00007 suncat0163 pw.x -in pw.inp   Done                     12/27/2018 00:54:56
00008 suncat0162 pw.x -in pw.inp   Done                     12/27/2018 00:54:56
00009 suncat0162 pw.x -in pw.inp   Done                     12/27/2018 00:54:56
00010 suncat0162 pw.x -in pw.inp   Done                     12/27/2018 00:54:56
00011 suncat0162 pw.x -in pw.inp   Done                     12/27/2018 00:54:56
00012 suncat0162 pw.x -in pw.inp   Done                     12/27/2018 00:54:56
00013 suncat0162 pw.x -in pw.inp   Done                     12/27/2018 00:54:56
00014 suncat0162 pw.x -in pw.inp   Done                     12/27/2018 00:54:56
00015 suncat0162 pw.x -in pw.inp   Done                     12/27/2018 00:54:56
00016 suncat0145 pw.x -in pw.inp   Done                     12/27/2018 00:54:56
00017 suncat0145 pw.x -in pw.inp   Done                     12/27/2018 00:54:56
00018 suncat0145 pw.x -in pw.inp   Done                     12/27/2018 00:54:56
00019 suncat0145 pw.x -in pw.inp   Done                     12/27/2018 00:54:56
00020 suncat0145 pw.x -in pw.inp   Done                     12/27/2018 00:54:56
00021 suncat0145 pw.x -in pw.inp   Done                     12/27/2018 00:54:56
00022 suncat0145 pw.x -in pw.inp   Done                     12/27/2018 00:54:56
00023 suncat0145 pw.x -in pw.inp   Done                     12/27/2018 00:54:56
00024 suncat0144 pw.x -in pw.inp   Done                     12/27/2018 00:54:56
00025 suncat0144 pw.x -in pw.inp   Done                     12/27/2018 00:54:56
00026 suncat0144 pw.x -in pw.inp   Done                     12/27/2018 00:54:56
00027 suncat0144 pw.x -in pw.inp   Done                     12/27/2018 00:54:56
00028 suncat0144 pw.x -in pw.inp   Done                     12/27/2018 00:54:56
00029 suncat0144 pw.x -in pw.inp   Done                     12/27/2018 00:54:56
00030 suncat0144 pw.x -in pw.inp   Done                     12/27/2018 00:54:56
00031 suncat0144 pw.x -in pw.inp   Done                     12/27/2018 00:54:56
00032 suncat0133 pw.x -in pw.inp   Done                     12/27/2018 00:54:56
00033 suncat0133 pw.x -in pw.inp   Done                     12/27/2018 00:54:56
00034 suncat0133 pw.x -in pw.inp   Done                     12/27/2018 00:54:56
00035 suncat0133 pw.x -in pw.inp   Done                     12/27/2018 00:54:56
00036 suncat0133 pw.x -in pw.inp   Done                     12/27/2018 00:54:56
00037 suncat0133 pw.x -in pw.inp   Done                     12/27/2018 00:54:56
00038 suncat0133 pw.x -in pw.inp   Done                     12/27/2018 00:54:56
00039 suncat0133 pw.x -in pw.inp   Done                     12/27/2018 00:54:56
00040 suncat0132 pw.x -in pw.inp   Done                     12/27/2018 00:54:56
00041 suncat0132 pw.x -in pw.inp   Done                     12/27/2018 00:54:56
00042 suncat0132 pw.x -in pw.inp   Done                     12/27/2018 00:54:56
00043 suncat0132 pw.x -in pw.inp   Done                     12/27/2018 00:54:56
00044 suncat0132 pw.x -in pw.inp   Done                     12/27/2018 00:54:56
00045 suncat0132 pw.x -in pw.inp   Done                     12/27/2018 00:54:56
00046 suncat0132 pw.x -in pw.inp   Done                     12/27/2018 00:54:56
00047 suncat0132 pw.x -in pw.inp   Done                     12/27/2018 00:54:56
00048 suncat0131 pw.x -in pw.inp   Done                     12/27/2018 00:54:56
00049 suncat0131 pw.x -in pw.inp   Done                     12/27/2018 00:54:56
00050 suncat0131 pw.x -in pw.inp   Done                     12/27/2018 00:54:56
00051 suncat0131 pw.x -in pw.inp   Done                     12/27/2018 00:54:56
00052 suncat0131 pw.x -in pw.inp   Done                     12/27/2018 00:54:56
00053 suncat0131 pw.x -in pw.inp   Done                     12/27/2018 00:54:56
00054 suncat0131 pw.x -in pw.inp   Done                     12/27/2018 00:54:56
00055 suncat0131 pw.x -in pw.inp   Done                     12/27/2018 00:54:56
00056 suncat0130 pw.x -in pw.inp   Done                     12/27/2018 00:54:56
00057 suncat0130 pw.x -in pw.inp   Done                     12/27/2018 00:54:56
00058 suncat0130 pw.x -in pw.inp   Done                     12/27/2018 00:54:56
00059 suncat0130 pw.x -in pw.inp   Done                     12/27/2018 00:54:56
00060 suncat0130 pw.x -in pw.inp   Done                     12/27/2018 00:54:56
00061 suncat0130 pw.x -in pw.inp   Done                     12/27/2018 00:54:56
00062 suncat0130 pw.x -in pw.inp   Done                     12/27/2018 00:54:56
00063 suncat0130 pw.x -in pw.inp   Done                     12/27/2018 00:54:56