     Program PWSCF v.5.1rc2 (svn rev. 11289) starts on 31Dec2018 at 23:49:56

     Current dimensions of program PWSCF are:
     Max number of different atomic species (ntypx) = 10
     Max number of k-points (npk) =  40000
     Max angular momentum in pseudopotentials (lmaxx) =  3
     Presently stress not available with electric field

     IMPORTANT: XC functional enforced from input :
     Exchange-correlation      = BEEF-VDW ( 1  4 27 13 2)
     Any further DFT definition will be discarded
     Please, verify this is what you really want

     Subspace diagonalization in iterative solution of the eigenvalue problem:
     a serial algorithm will be used

     bravais-lattice index     =            0
     lattice parameter (alat)  =       1.8897  a.u.
     unit-cell volume          =    4201.4697 (a.u.)^3
     number of atoms/cell      =           12
     number of atomic types    =            2
     number of electrons       =       153.00
     number of Kohn-Sham states=          106
     kinetic-energy cutoff     =      36.7493  Ry
     charge density cutoff     =     367.4932  Ry
     convergence threshold     =      1.0E-06
     mixing beta               =       0.1000
     number of iterations used =           10  plain     mixing
     Exchange-correlation      = BEEF-VDW ( 1  4 27 13 2)
     nstep                     =           50

     celldm(1)=   1.889726  celldm(2)=   0.000000  celldm(3)=   0.000000
     celldm(4)=   0.000000  celldm(5)=   0.000000  celldm(6)=   0.000000

     crystal axes: (cart. coord. in units of alat)
               a(1) = (   5.424771   0.000000   0.000000 )
               a(2) = (  -2.712386   4.697990   0.000000 )
               a(3) = (   0.000000   0.000000  24.429307 )

     reciprocal axes: (cart. coord. in units 2 pi/alat)
               b(1) = (  0.184340  0.106429  0.000000 )
               b(2) = (  0.000000  0.212857  0.000000 )
               b(3) = (  0.000000  0.000000  0.040934 )

     PseudoPot. # 1 for Ru read from file:
     /afs/slac.stanford.edu/u/if/mamunm/psp/gbrv1.5pbe/Ru.UPF
     MD5 check sum: 7158a806dd851261a58e6920c40ebe78
     Pseudo is Ultrasoft + core correction, Zval = 16.0
     Generated by new atomic code, or converted to UPF format
     Using radial grid of  967 points,  6 beta functions with:
                l(1) =   0
                l(2) =   0
                l(3) =   1
                l(4) =   1
                l(5) =   2
                l(6) =   2
     Q(r) pseudized with  8 coefficients,  rinner =    1.300   1.300   1.300
                                                       1.300   1.300

     PseudoPot. # 2 for Al read from file:
     /afs/slac.stanford.edu/u/if/mamunm/psp/gbrv1.5pbe/Al.UPF
     MD5 check sum: 0a6289f5291fc8f409219462bc851e1f
     Pseudo is Ultrasoft + core correction, Zval =  3.0
     Generated by new atomic code, or converted to UPF format
     Using radial grid of  893 points,  3 beta functions with:
                l(1) =   0
                l(2) =   1
                l(3) =   2
     Q(r) pseudized with  8 coefficients,  rinner =    0.900   0.900   0.900
                                                       0.900   0.900

     vdW kernel table read from file vdW_kernel_table
     MD5 check sum: 095c7af220d748ca6e76c0b4c6cfb241

     atomic species   valence    mass     pseudopotential
        Ru1           16.00   101.07000     Ru( 1.00)
        Al1            3.00    26.98154     Al( 1.00)

     No symmetry found

   Cartesian axes

     site n.     atom                  positions (alat units)
         1           Ru1 tau(   1) = (   0.0000000   0.0000000  10.0000000  )
         2           Ru1 tau(   2) = (  -1.3561928   2.3489948  10.0000000  )
         3           Ru1 tau(   3) = (   1.3561928   2.3489948  10.0000000  )
         4           Al1 tau(   4) = (   2.7123856   0.0000000  10.0000000  )
         5           Ru1 tau(   5) = (   2.7123856   1.5659966  12.2146536  )
         6           Ru1 tau(   6) = (   1.3561928   3.9149914  12.2146536  )
         7           Ru1 tau(   7) = (  -1.3561928   3.9149914  12.2146536  )
         8           Al1 tau(   8) = (   0.0000000   1.5659966  12.2146536  )
         9           Ru1 tau(   9) = (  -0.0000000   3.1319931  14.4293071  )
        10           Ru1 tau(  10) = (   1.3561928   0.7829983  14.4293071  )
        11           Ru1 tau(  11) = (   4.0685784   0.7829983  14.4293071  )
        12           Al1 tau(  12) = (   2.7123856   3.1319931  14.4293071  )

     number of k points=    20  Fermi-Dirac smearing, width (Ry)=  0.0110
                       cart. coord. in units 2pi/alat
        k(    1) = (   0.0000000   0.0000000   0.0000000), wk =   0.0555556
        k(    2) = (   0.0000000   0.0354762   0.0000000), wk =   0.1111111
        k(    3) = (   0.0000000   0.0709523   0.0000000), wk =   0.1111111
        k(    4) = (   0.0000000  -0.1064285   0.0000000), wk =   0.0555556
        k(    5) = (   0.0307233   0.0177381   0.0000000), wk =   0.1111111
        k(    6) = (   0.0307233   0.0532143   0.0000000), wk =   0.1111111
        k(    7) = (   0.0307233   0.0886904   0.0000000), wk =   0.1111111
        k(    8) = (   0.0307233  -0.0886904   0.0000000), wk =   0.1111111
        k(    9) = (   0.0307233  -0.0532143   0.0000000), wk =   0.1111111
        k(   10) = (   0.0307233  -0.0177381   0.0000000), wk =   0.1111111
        k(   11) = (   0.0614465   0.0354762   0.0000000), wk =   0.1111111
        k(   12) = (   0.0614465   0.0709523   0.0000000), wk =   0.1111111
        k(   13) = (   0.0614465   0.1064285   0.0000000), wk =   0.1111111
        k(   14) = (   0.0614465  -0.0709523   0.0000000), wk =   0.1111111
        k(   15) = (   0.0614465  -0.0354762   0.0000000), wk =   0.1111111
        k(   16) = (   0.0614465   0.0000000   0.0000000), wk =   0.1111111
        k(   17) = (  -0.0921698  -0.0532143   0.0000000), wk =   0.0555556
        k(   18) = (  -0.0921698  -0.0177381   0.0000000), wk =   0.1111111
        k(   19) = (  -0.0921698   0.0177381   0.0000000), wk =   0.1111111
        k(   20) = (  -0.0921698  -0.1596428   0.0000000), wk =   0.0555556

     Largest allocated arrays     est. size (Mb)     dimensions
     Largest temporary arrays     est. size (Mb)     dimensions

     Initial potential from superposition of free atoms
     Check: negative starting charge=   -0.653687

     starting charge  143.99246, renormalised to  153.00000

     negative rho (up, down):  6.946E-01 0.000E+00

     *
     * You are using vdW-DF for exchange-correlation in this calculation.
     * Please cite the following three references that made this development
     * possible:
     *
     *   M. Dion, H. Rydberg, E. Schroder, D. C. Langreth, and
     *   B. I. Lundqvist, Phys. Rev. Lett. 92, 246401 (2004).
     *
     *   T. Thonhauser, V. R. Cooper, S. Li, A. Puzder, P. Hyldgaard, and
     *   D. C. Langreth, Phys. Rev. B 76, 125112 (2007).
     *
     *   G. Roman-Perez and J. M. Soler, Phys. Rev. Lett. 103, 096102 (2009).
     *
     *
     * If you are using vdW-DF2, please also cite:
     *
     *   K. Lee, E. D. Murray, L. Kong, B. I. Lundqvist, and
     *   D. C. Langreth, Phys. Rev. B 82, 081101(R) (2010).
     *
     *
     * If you are calculating the stress with vdW-DF, please also cite:
     *
     *   R. Sabatini, E. Kucukbenli, B. Kolb, T. Thonhauser, and
     *   S. de Gironcoli, J. Phys.: Condens. Matter 24, 424209 (2012).
     *

     Carrying out vdW-DF run using the following parameters:

     Nqs =      20    Nr_points =    1024   r_max =   100.000
     q_mesh =
               0.00001000     0.04494208     0.09755937     0.15916263
               0.23128650     0.31572767     0.41458969     0.53033537
               0.66584808     0.82450364     1.01025438     1.22772762
               1.48234092     1.78043706     2.12944203     2.53805004
               3.01644009     3.57652955     4.23227104     5.00000000

     Gradients computed in reciprocal space

     Adding external electric field

     Computed dipole along edir(3) :
        Dipole               -0.0000 Ry au,         -0.0000 Debye
        Dipole field         -0.0000 Ry au

        Potential amp.        0.0000 Ry
        Total length         45.0106 bohr

     Starting wfc are  129 randomized atomic wfcs

     Self-consistent Calculation

     iteration #  1     ecut=    36.75 Ry     beta=0.10
     Davidson diagonalization with overlap
     ethr =  1.00E-02,  avg # of iterations =  7.8

[...]

     total energy              =   -1778.05308396 Ry
     Harris-Foulkes estimate   =   -1781.13846863 Ry
     estimated scf accuracy    <      18.80418942 Ry

[...]

     End of self-consistent calculation

          k = 0.0000 0.0000 0.0000 ( 15785 PWs)   bands (ev):

   -71.3644 -71.2853 -71.2852 -71.1031 -71.0981 -71.0276 -71.0275 -71.0264
   -71.0263 -41.7101 -41.5020 -41.5019 -41.4887 -41.4737 -41.3786 -41.3786
   -41.3587 -41.1798 -41.1797 -41.1523 -41.0801 -41.0801 -41.0201 -40.9947
   -40.9946 -40.9494 -40.9493 -40.9018 -40.8816 -40.8815 -40.8369 -40.8189
   -40.8055 -40.8054 -40.7979 -40.7979  -6.6894  -5.1597  -5.1225  -3.9668
    -3.2760  -3.2522  -2.7695  -2.7695  -2.7144  -2.5354  -2.5354  -2.4938
    -2.4937  -2.1072  -2.0603  -2.0602  -1.2600  -1.2600  -0.8387  -0.8387
    -0.6775  -0.6764  -0.2328  -0.0490  -0.0490   0.0107   0.2724   0.2724
     0.7216   0.7216   0.8764   1.0944   1.0945   1.1944   1.1945   1.2328
     1.3290   1.7030   1.7031   1.7253   1.7253   1.8335   1.8335   2.0217
     2.0218   2.7404   2.7404   2.7773   3.0800   3.3457   3.6011   3.6729
     3.7396   3.9000   4.0776   4.0776   4.3174   4.3174   5.4983   5.6151
     6.1905   6.3783   6.5314   7.4240   7.5180   8.4045   8.7478   8.7478
     8.7496   8.7496

[...]

          k =-0.0922-0.0532 0.0000 ( 15836 PWs)   bands (ev):

[...]

     the Fermi energy is     1.5138 ev

!    total energy              =   -1776.67769934 Ry
     Harris-Foulkes estimate   =   -1776.67770280 Ry
     estimated scf accuracy    <       0.00000083 Ry

     The total energy is the sum of the following terms:

     one-electron contribution =  -14079.04698597 Ry
     hartree contribution      =    7038.43013655 Ry
     xc contribution           =    -255.03562349 Ry
     ewald contribution        =    5519.07040029 Ry
     electric field correction =       0.00000000 Ry
     smearing contrib. (-TS)   =      -0.09562671 Ry

     convergence has been achieved in  16 iterations

 BEEF-vdW xc energy contributions
           1 :   -220.626782817739
           2 :    201.861418465043
           3 :   -169.655129296375
           4 :    132.348547763038
           5 :   -98.1099316342560
           6 :    72.3629085475226
           7 :   -56.7028967978686
           8 :    49.3921421001130
           9 :   -46.8699882415854
          10 :    45.4679472817499
          11 :   -42.6829321483329
          12 :    37.7095881163453
          13 :   -31.2578963435283
          14 :    24.8766119976672
          15 :   -20.0908889870566
          16 :    17.6799548852800
          17 :   -17.3659803216275
          18 :    18.0252630968197
          19 :   -18.2984854581321
[...]
               b(1) = (  0.184340  0.106429  0.000000 )
               b(2) = (  0.000000  0.212857  0.000000 )
               b(3) = (  0.000000  0.000000  0.040934 )

     PseudoPot. # 1 for Ru read from file:
     /afs/slac.stanford.edu/u/if/mamunm/psp/gbrv1.5pbe/Ru.UPF
     MD5 check sum: 7158a806dd851261a58e6920c40ebe78
     Pseudo is Ultrasoft + core correction, Zval = 16.0
     Generated by new atomic code, or converted to UPF format
     Using radial grid of  967 points,  6 beta functions with:
                l(1) =   0
                l(2) =   0
                l(3) =   1
                l(4) =   1
                l(5) =   2
                l(6) =   2
     Q(r) pseudized with  8 coefficients,  rinner =    1.300   1.300   1.300
                                                       1.300   1.300

     PseudoPot. # 2 for Al read from file:
     /afs/slac.stanford.edu/u/if/mamunm/psp/gbrv1.5pbe/Al.UPF
     MD5 check sum: 0a6289f5291fc8f409219462bc851e1f
     Pseudo is Ultrasoft + core correction, Zval =  3.0
     Generated by new atomic code, or converted to UPF format
     Using radial grid of  893 points,  3 beta functions with:
                l(1) =   0
                l(2) =   1
                l(3) =   2
     Q(r) pseudized with  8 coefficients,  rinner =    0.900   0.900   0.900
                                                       0.900   0.900

     vdW kernel table read from file vdW_kernel_table
     MD5 check sum: 095c7af220d748ca6e76c0b4c6cfb241

     atomic species   valence    mass     pseudopotential
        Ru1           16.00   101.07000     Ru( 1.00)
        Al1            3.00    26.98154     Al( 1.00)

     No symmetry found

   Cartesian axes

     site n.     atom                  positions (alat units)
         1           Ru1 tau(   1) = (   0.0000000   0.0000000  10.0000000  )
         2           Ru1 tau(   2) = (  -1.3561928   2.3489948  10.0000000  )
         3           Ru1 tau(   3) = (   1.3561928   2.3489948  10.0000000  )
         4           Al1 tau(   4) = (   2.7123856   0.0000000  10.0000000  )
         5           Ru1 tau(   5) = (   2.7123856   1.5659966  12.2146536  )
         6           Ru1 tau(   6) = (   1.3561928   3.9149914  12.2146536  )
         7           Ru1 tau(   7) = (  -1.3561928   3.9149914  12.2146536  )
         8           Al1 tau(   8) = (   0.0000000   1.5659966  12.2146536  )
         9           Ru1 tau(   9) = (   0.0000035   3.1310878  14.3662835  )
        10           Ru1 tau(  10) = (   1.3554050   0.7834533  14.3662837  )
        11           Ru1 tau(  11) = (   4.0693792   0.7834558  14.3662706  )
        12           Al1 tau(  12) = (   2.7123733   3.1319821  14.4109661  )

     number of k points=    20  Fermi-Dirac smearing, width (Ry)=  0.0110
                       cart. coord. in units 2pi/alat
        k(    1) = (   0.0000000   0.0000000   0.0000000), wk =   0.0555556
        k(    2) = (   0.0000000   0.0354762   0.0000000), wk =   0.1111111
        k(    3) = (   0.0000000   0.0709523   0.0000000), wk =   0.1111111
        k(    4) = (   0.0000000  -0.1064285   0.0000000), wk =   0.0555556
        k(    5) = (   0.0307233   0.0177381   0.0000000), wk =   0.1111111
        k(    6) = (   0.0307233   0.0532143   0.0000000), wk =   0.1111111
        k(    7) = (   0.0307233   0.0886904   0.0000000), wk =   0.1111111
        k(    8) = (   0.0307233  -0.0886904   0.0000000), wk =   0.1111111
        k(    9) = (   0.0307233  -0.0532143   0.0000000), wk =   0.1111111
        k(   10) = (   0.0307233  -0.0177381   0.0000000), wk =   0.1111111
        k(   11) = (   0.0614465   0.0354762   0.0000000), wk =   0.1111111
        k(   12) = (   0.0614465   0.0709523   0.0000000), wk =   0.1111111
        k(   13) = (   0.0614465   0.1064285   0.0000000), wk =   0.1111111
        k(   14) = (   0.0614465  -0.0709523   0.0000000), wk =   0.1111111
        k(   15) = (   0.0614465  -0.0354762   0.0000000), wk =   0.1111111
        k(   16) = (   0.0614465   0.0000000   0.0000000), wk =   0.1111111
        k(   17) = (  -0.0921698  -0.0532143   0.0000000), wk =   0.0555556
        k(   18) = (  -0.0921698  -0.0177381   0.0000000), wk =   0.1111111
        k(   19) = (  -0.0921698   0.0177381   0.0000000), wk =   0.1111111
        k(   20) = (  -0.0921698  -0.1596428   0.0000000), wk =   0.0555556

     Largest allocated arrays     est. size (Mb)     dimensions
     Largest temporary arrays     est. size (Mb)     dimensions

     Initial potential from superposition of free atoms
     Check: negative starting charge=   -0.651582

     starting charge  143.99246, renormalised to  153.00000

[...]

     *
     * You are using vdW-DF for exchange-correlation in this calculation.
     * Please cite the following three references that made this development
     * possible:
     *
     *   M. Dion, H. Rydberg, E. Schroder, D. C. Langreth, and
     *   B. I. Lundqvist, Phys. Rev. Lett. 92, 246401 (2004).
     *
     *   T. Thonhauser, V. R. Cooper, S. Li, A. Puzder, P. Hyldgaard, and
     *   D. C. Langreth, Phys. Rev. B 76, 125112 (2007).
     *
     *   G. Roman-Perez and J. M. Soler, Phys. Rev. Lett. 103, 096102 (2009).
     *
     *
     * If you are using vdW-DF2, please also cite:
     *
     *   K. Lee, E. D. Murray, L. Kong, B. I. Lundqvist, and
     *   D. C. Langreth, Phys. Rev. B 82, 081101(R) (2010).
     *
     *
     * If you are calculating the stress with vdW-DF, please also cite:
     *
     *   R. Sabatini, E. Kucukbenli, B. Kolb, T. Thonhauser, and
     *   S. de Gironcoli, J. Phys.: Condens. Matter 24, 424209 (2012).
     *

     Carrying out vdW-DF run using the following parameters:

     Nqs =      20    Nr_points =    1024   r_max =   100.000
     q_mesh =
               0.00001000     0.04494208     0.09755937     0.15916263
               0.23128650     0.31572767     0.41458969     0.53033537
               0.66584808     0.82450364     1.01025438     1.22772762
               1.48234092     1.78043706     2.12944203     2.53805004
               3.01644009     3.57652955     4.23227104     5.00000000

     Gradients computed in reciprocal space

[...]

     Starting wfc are  129 randomized atomic wfcs

     Self-consistent Calculation

[...]

     total energy              =   -1776.68032811 Ry
     Harris-Foulkes estimate   =   -1776.68033478 Ry
     estimated scf accuracy    <       0.00000154 Ry

     iteration # 19     ecut=    36.75 Ry     beta=0.10
     Davidson diagonalization with overlap
     ethr =  1.00E-09,  avg # of iterations =  1.1

[...]

     negative rho (up, down):  6.754E-01 0.000E+00

     Adding external electric field

     Computed dipole along edir(3) :
        Dipole                0.0096 Ry au,          0.0244 Debye
        Dipole field          0.0000 Ry au

        Potential amp.       -0.0026 Ry
        Total length         45.0106 bohr

     End of self-consistent calculation

[...]

          k = 0.0614 0.0000 0.0000 ( 15788 PWs)   bands (ev):

[...]

          k =-0.0922-0.1596 0.0000 ( 15836 PWs)   bands (ev):

   -71.3530 -71.3269 -71.2999 -71.0785 -71.0574 -71.0541 -71.0326 -71.0299
   -71.0079 -41.6146 -41.5140 -41.4453 -41.4140 -41.3611 -41.3322 -41.3090
   -41.2968 -41.2575 -41.2244 -41.1016 -41.0799 -41.0382 -41.0361 -41.0150
   -41.0123 -40.9987 -40.9787 -40.9592 -40.9398 -40.9350 -40.8995 -40.8960
   -40.8826 -40.8598 -40.8093 -40.7924  -5.3055  -4.9738  -4.1345  -3.5695
    -3.2153  -3.1459  -2.9036  -2.6631  -2.2230  -2.2107  -2.1229  -2.0076
    -1.9384  -1.9223  -1.8734  -1.6524  -1.4507  -1.3754  -1.2114  -1.1351
    -0.8939  -0.6828  -0.5523  -0.4160  -0.3970  -0.2533  -0.1758  -0.1516
    -0.1498  -0.0345   0.0230   0.1051   0.1830   0.5702   0.7652   0.8332
     0.9112   0.9660   1.0619   1.2499   1.3616   1.4058   1.4887   1.5032
     1.5570   2.0395   2.1723   2.2881   2.7303   2.8865   3.1454   3.3354
     4.0268   4.8130   4.8820   4.9793   5.4875   5.7351   6.1722   7.0687
     7.1250   7.6198   7.6333   7.9630   8.1557   8.2022   8.5601   8.5629
     9.0242   9.1106

     the Fermi energy is     1.5217 ev

!    total energy              =   -1776.68033283 Ry
     Harris-Foulkes estimate   =   -1776.68032814 Ry
     estimated scf accuracy    <       0.00000025 Ry

     The total energy is the sum of the following terms:

     one-electron contribution =  -14196.98389993 Ry
     hartree contribution      =    7097.39534222 Ry
     xc contribution           =    -255.13033108 Ry
     ewald contribution        =    5578.13367302 Ry
     electric field correction =       0.00000028 Ry
     smearing contrib. (-TS)   =      -0.09511733 Ry

     convergence has been achieved in  19 iterations

 BEEF-vdW xc energy contributions
           1 :   -220.724968306899
           2 :    201.999863852388
           3 :   -169.845141354731
           4 :    132.561873070788
           5 :   -98.2926918425050
           6 :    72.4649430135357
           7 :   -56.7048585469208
           8 :    49.3158707785644
           9 :   -46.7682317174256
          10 :    45.4000908476536
          11 :   -42.6886838828290
          12 :    37.7918843721583
          13 :   -31.3817261520124
          14 :    24.9847851074491
          15 :   -20.1310291103289
          16 :    17.6311727696855
          17 :   -17.2517324564790
          18 :    17.9037329329620
          19 :   -18.2333217631530
          20 :    17.3017778870557
          21 :   -14.9990438603542
          22 :    11.9933391049446
          23 :   -9.28819384088757
          24 :    7.66362485661909
          25 :   -7.30689290536580
          26 :    7.79554179585591
          27 :   -8.38737565828046
          28 :    8.42189878465061
          29 :   -7.61881136693381
          30 :    6.15223193804979
          31 :   -23.3556963610749
          32 :   -17.6528475573328

     Forces acting on atoms (Ry/au):

     negative rho (up, down):  6.754E-01 0.000E+00
     atom    1 type  1   force =     0.00000113   -0.00004377    0.01164859
     atom    2 type  1   force =    -0.00003446    0.00002316    0.01165273
     atom    3 type  1   force =     0.00003371    0.00002123    0.01164953
     atom    4 type  2   force =    -0.00000059   -0.00000011    0.00285998
     atom    5 type  1   force =     0.00000108    0.00361311   -0.00935815
     atom    6 type  1   force =     0.00312758   -0.00180601   -0.00935800
     atom    7 type  1   force =    -0.00312827   -0.00180755   -0.00935822
     atom    8 type  2   force =     0.00000011    0.00000111   -0.01068992
     atom    9 type  1   force =    -0.00000476    0.00041571    0.00057882
     atom   10 type  1   force =     0.00036076   -0.00021261    0.00057975
     atom   11 type  1   force =    -0.00036045   -0.00020660    0.00058255
     atom   12 type  2   force =     0.00000415    0.00000234   -0.00078767

     Total force =     0.028873     Total SCF correction =     0.001640

     entering subroutine stress ...

     negative rho (up, down):  6.754E-01 0.000E+00
          total   stress  (Ry/bohr**3)                   (kbar)     P=  -22.39
  -0.00020840  -0.00000000  -0.00000000        -30.66     -0.00     -0.00
  -0.00000000  -0.00020840  -0.00000000         -0.00    -30.66     -0.00
  -0.00000000  -0.00000000  -0.00003985         -0.00     -0.00     -5.86

 !ASE

     Writing output data file calc.save

     General routines

     Parallel routines

   This run was terminated on:   0:25:45   1Jan2019

   JOB DONE.
Job  /afs/slac/g/suncat/bin/suncat-tsmpirun -x LD_LIBRARY_PATH -wdir /scratch/qe648901_yiJ1x pw.x -in pw.inp

TID   HOST_NAME   COMMAND_LINE            STATUS            TERMINATION_TIME
00000 suncat0056 pw.x -in pw.inp   Done                     01/01/2019 00:25:45
00001 suncat0056 pw.x -in pw.inp   Done                     01/01/2019 00:25:45
00002 suncat0056 pw.x -in pw.inp   Done                     01/01/2019 00:25:45
00003 suncat0056 pw.x -in pw.inp   Done                     01/01/2019 00:25:45
00004 suncat0056 pw.x -in pw.inp   Done                     01/01/2019 00:25:45
00005 suncat0056 pw.x -in pw.inp   Done                     01/01/2019 00:25:45
00006 suncat0056 pw.x -in pw.inp   Done                     01/01/2019 00:25:45
00007 suncat0056 pw.x -in pw.inp   Done                     01/01/2019 00:25:45
00008 suncat0052 pw.x -in pw.inp   Done                     01/01/2019 00:25:45
00009 suncat0052 pw.x -in pw.inp   Done                     01/01/2019 00:25:45
00010 suncat0052 pw.x -in pw.inp   Done                     01/01/2019 00:25:45
00011 suncat0052 pw.x -in pw.inp   Done                     01/01/2019 00:25:45
00012 suncat0052 pw.x -in pw.inp   Done                     01/01/2019 00:25:45
00013 suncat0052 pw.x -in pw.inp   Done                     01/01/2019 00:25:45
00014 suncat0052 pw.x -in pw.inp   Done                     01/01/2019 00:25:45
00015 suncat0052 pw.x -in pw.inp   Done                     01/01/2019 00:25:45
00016 suncat0048 pw.x -in pw.inp   Done                     01/01/2019 00:25:45
00017 suncat0048 pw.x -in pw.inp   Done                     01/01/2019 00:25:45
00018 suncat0048 pw.x -in pw.inp   Done                     01/01/2019 00:25:45
00019 suncat0048 pw.x -in pw.inp   Done                     01/01/2019 00:25:45
00020 suncat0048 pw.x -in pw.inp   Done                     01/01/2019 00:25:45
00021 suncat0048 pw.x -in pw.inp   Done                     01/01/2019 00:25:45
00022 suncat0048 pw.x -in pw.inp   Done                     01/01/2019 00:25:45
00023 suncat0048 pw.x -in pw.inp   Done                     01/01/2019 00:25:45
00024 suncat0047 pw.x -in pw.inp   Done                     01/01/2019 00:25:45
00025 suncat0047 pw.x -in pw.inp   Done                     01/01/2019 00:25:45
00026 suncat0047 pw.x -in pw.inp   Done                     01/01/2019 00:25:45
00027 suncat0047 pw.x -in pw.inp   Done                     01/01/2019 00:25:45
00028 suncat0047 pw.x -in pw.inp   Done                     01/01/2019 00:25:45
00029 suncat0047 pw.x -in pw.inp   Done                     01/01/2019 00:25:45
00030 suncat0047 pw.x -in pw.inp   Done                     01/01/2019 00:25:45
00031 suncat0047 pw.x -in pw.inp   Done                     01/01/2019 00:25:45
00032 suncat0041 pw.x -in pw.inp   Done                     01/01/2019 00:25:45
00033 suncat0041 pw.x -in pw.inp   Done                     01/01/2019 00:25:45
00034 suncat0041 pw.x -in pw.inp   Done                     01/01/2019 00:25:45
00035 suncat0041 pw.x -in pw.inp   Done                     01/01/2019 00:25:45
00036 suncat0041 pw.x -in pw.inp   Done                     01/01/2019 00:25:45
00037 suncat0041 pw.x -in pw.inp   Done                     01/01/2019 00:25:45
00038 suncat0041 pw.x -in pw.inp   Done                     01/01/2019 00:25:45
00039 suncat0041 pw.x -in pw.inp   Done                     01/01/2019 00:25:45
00040 suncat0039 pw.x -in pw.inp   Done                     01/01/2019 00:25:45
00041 suncat0039 pw.x -in pw.inp   Done                     01/01/2019 00:25:45
00042 suncat0039 pw.x -in pw.inp   Done                     01/01/2019 00:25:45
00043 suncat0039 pw.x -in pw.inp   Done                     01/01/2019 00:25:45
00044 suncat0039 pw.x -in pw.inp   Done                     01/01/2019 00:25:45
00045 suncat0039 pw.x -in pw.inp   Done                     01/01/2019 00:25:45
00046 suncat0039 pw.x -in pw.inp   Done                     01/01/2019 00:25:45
00047 suncat0039 pw.x -in pw.inp   Done                     01/01/2019 00:25:45
00048 suncat0207 pw.x -in pw.inp   Done                     01/01/2019 00:25:45
00049 suncat0207 pw.x -in pw.inp   Done                     01/01/2019 00:25:45
00050 suncat0207 pw.x -in pw.inp   Done                     01/01/2019 00:25:45
00051 suncat0207 pw.x -in pw.inp   Done                     01/01/2019 00:25:45
00052 suncat0207 pw.x -in pw.inp   Done                     01/01/2019 00:25:45
00053 suncat0207 pw.x -in pw.inp   Done                     01/01/2019 00:25:45
00054 suncat0207 pw.x -in pw.inp   Done                     01/01/2019 00:25:45
00055 suncat0207 pw.x -in pw.inp   Done                     01/01/2019 00:25:45
00056 suncat0206 pw.x -in pw.inp   Done                     01/01/2019 00:25:45
00057 suncat0206 pw.x -in pw.inp   Done                     01/01/2019 00:25:45
00058 suncat0206 pw.x -in pw.inp   Done                     01/01/2019 00:25:45
00059 suncat0206 pw.x -in pw.inp   Done                     01/01/2019 00:25:45
00060 suncat0206 pw.x -in pw.inp   Done                     01/01/2019 00:25:45
00061 suncat0206 pw.x -in pw.inp   Done                     01/01/2019 00:25:45
00062 suncat0206 pw.x -in pw.inp   Done                     01/01/2019 00:25:45
00063 suncat0206 pw.x -in pw.inp   Done                     01/01/2019 00:25:45