     Program PWSCF v.5.1rc2 (svn rev. 11289) starts on  1Jan2019 at  5:56:48

     Current dimensions of program PWSCF are:
     Max number of different atomic species (ntypx) = 10
     Max number of k-points (npk) =  40000
     Max angular momentum in pseudopotentials (lmaxx) =  3
     Presently stress not available with electric field

     IMPORTANT: XC functional enforced from input :
     Exchange-correlation      = BEEF-VDW ( 1  4 27 13 2)
     Any further DFT definition will be discarded
     Please, verify this is what you really want

     Subspace diagonalization in iterative solution of the eigenvalue problem:
     a serial algorithm will be used

     bravais-lattice index     =            0
     lattice parameter (alat)  =       1.8897  a.u.
     unit-cell volume          =    5677.7104 (a.u.)^3
     number of atoms/cell      =           12
     number of atomic types    =            2
     number of electrons       =       132.00
     number of Kohn-Sham states=           96
     kinetic-energy cutoff     =      36.7493  Ry
     charge density cutoff     =     367.4932  Ry
     convergence threshold     =      1.0E-06
     mixing beta               =       0.1000
     number of iterations used =           10  plain     mixing
     Exchange-correlation      = BEEF-VDW ( 1  4 27 13 2)
     nstep                     =           50

     celldm(1)=   1.889726  celldm(2)=   0.000000  celldm(3)=   0.000000
     celldm(4)=   0.000000  celldm(5)=   0.000000  celldm(6)=   0.000000

     crystal axes: (cart. coord. in units of alat)
               a(1) = (   6.223654   0.000000   0.000000 )
               a(2) = (  -3.111827   5.389843   0.000000 )
               a(3) = (   0.000000   0.000000  25.081592 )

     reciprocal axes: (cart. coord. in units 2 pi/alat)
               b(1) = (  0.160677  0.092767  0.000000 )
               b(2) = (  0.000000  0.185534  0.000000 )
               b(3) = (  0.000000  0.000000  0.039870 )

     PseudoPot. # 1 for Sc read from file:
     /afs/slac.stanford.edu/u/if/mamunm/psp/gbrv1.5pbe/Sc.UPF
     MD5 check sum: db30a2753ba66ef00f23801d899b7e7f
     Pseudo is Ultrasoft + core correction, Zval = 11.0
     Generated by new atomic code, or converted to UPF format
     Using radial grid of  849 points,  6 beta functions with:
                l(1) =   0
                l(2) =   0
                l(3) =   1
                l(4) =   1
                l(5) =   2
                l(6) =   2
     Q(r) pseudized with  6 coefficients,  rinner =    1.200   1.200   1.200
                                                       1.200   1.200

     PseudoPot. # 2 for Au read from file:
     /afs/slac.stanford.edu/u/if/mamunm/psp/gbrv1.5pbe/Au.UPF
     MD5 check sum: 9d7f43293ad2c663164586bc4b293ffc
     Pseudo is Ultrasoft + core correction, Zval = 11.0
     Generated by new atomic code, or converted to UPF format
     Using radial grid of  985 points,  7 beta functions with:
                l(1) =   0
                l(2) =   0
                l(3) =   1
                l(4) =   1
                l(5) =   2
                l(6) =   2
                l(7) =   3
     Q(r) pseudized with  6 coefficients,  rinner =    1.900   1.900   1.900
                                                       1.900   1.900   1.900
                                                       1.900

     vdW kernel table read from file vdW_kernel_table
     MD5 check sum: 095c7af220d748ca6e76c0b4c6cfb241

     atomic species   valence    mass     pseudopotential
        Sc1           11.00    44.95591     Sc( 1.00)
        Au1           11.00   196.96657     Au( 1.00)

     No symmetry found

   Cartesian axes

     site n.     atom                  positions (alat units)
         1           Sc1 tau(   1) = (   0.0000000   0.0000000  10.0000000  )
         2           Sc1 tau(   2) = (  -1.5559135   2.6949213  10.0000000  )
         3           Sc1 tau(   3) = (   1.5559135   2.6949213  10.0000000  )
         4           Au1 tau(   4) = (   3.1118271   0.0000000  10.0000000  )
         5           Sc1 tau(   5) = (   3.1118271   1.7966142  12.5407962  )
         6           Sc1 tau(   6) = (   1.5559135   4.4915355  12.5407962  )
         7           Sc1 tau(   7) = (  -1.5559135   4.4915355  12.5407962  )
         8           Au1 tau(   8) = (   0.0000000   1.7966142  12.5407962  )
         9           Sc1 tau(   9) = (  -0.0000000   3.5932284  15.0815923  )
        10           Sc1 tau(  10) = (   1.5559135   0.8983071  15.0815923  )
        11           Sc1 tau(  11) = (   4.6677406   0.8983071  15.0815923  )
        12           Au1 tau(  12) = (   3.1118271   3.5932284  15.0815923  )

     number of k points=    20  Fermi-Dirac smearing, width (Ry)=  0.0110
                       cart. coord. in units 2pi/alat
        k(    1) = (   0.0000000   0.0000000   0.0000000), wk =   0.0555556
        k(    2) = (   0.0000000   0.0309224   0.0000000), wk =   0.1111111
        k(    3) = (   0.0000000   0.0618447   0.0000000), wk =   0.1111111
        k(    4) = (   0.0000000  -0.0927671   0.0000000), wk =   0.0555556
        k(    5) = (   0.0267796   0.0154612   0.0000000), wk =   0.1111111
        k(    6) = (   0.0267796   0.0463835   0.0000000), wk =   0.1111111
        k(    7) = (   0.0267796   0.0773059   0.0000000), wk =   0.1111111
        k(    8) = (   0.0267796  -0.0773059   0.0000000), wk =   0.1111111
        k(    9) = (   0.0267796  -0.0463835   0.0000000), wk =   0.1111111
        k(   10) = (   0.0267796  -0.0154612   0.0000000), wk =   0.1111111
        k(   11) = (   0.0535591   0.0309224   0.0000000), wk =   0.1111111
        k(   12) = (   0.0535591   0.0618447   0.0000000), wk =   0.1111111
        k(   13) = (   0.0535591   0.0927671   0.0000000), wk =   0.1111111
        k(   14) = (   0.0535591  -0.0618447   0.0000000), wk =   0.1111111
        k(   15) = (   0.0535591  -0.0309224   0.0000000), wk =   0.1111111
        k(   16) = (   0.0535591   0.0000000   0.0000000), wk =   0.1111111
        k(   17) = (  -0.0803387  -0.0463835   0.0000000), wk =   0.0555556
        k(   18) = (  -0.0803387  -0.0154612   0.0000000), wk =   0.1111111
        k(   19) = (  -0.0803387   0.0154612   0.0000000), wk =   0.1111111
        k(   20) = (  -0.0803387  -0.1391506   0.0000000), wk =   0.0555556

     Largest allocated arrays     est. size (Mb)     dimensions
     Largest temporary arrays     est. size (Mb)     dimensions

     Check: negative/imaginary core charge=   -0.000002    0.000000

     Initial potential from superposition of free atoms
     Check: negative starting charge=   -0.000256

     starting charge  131.97801, renormalised to  132.00000

     negative rho (up, down):  2.565E-04 0.000E+00

     *
     * You are using vdW-DF for exchange-correlation in this calculation.
     * Please cite the following three references that made this development
     * possible:
     *
     *   M. Dion, H. Rydberg, E. Schroder, D. C. Langreth, and
     *   B. I. Lundqvist, Phys. Rev. Lett. 92, 246401 (2004).
     *
     *   T. Thonhauser, V. R. Cooper, S. Li, A. Puzder, P. Hyldgaard, and
     *   D. C. Langreth, Phys. Rev. B 76, 125112 (2007).
     *
     *   G. Roman-Perez and J. M. Soler, Phys. Rev. Lett. 103, 096102 (2009).
     *
     *
     * If you are using vdW-DF2, please also cite:
     *
     *   K. Lee, E. D. Murray, L. Kong, B. I. Lundqvist, and
     *   D. C. Langreth, Phys. Rev. B 82, 081101(R) (2010).
     *
     *
     * If you are calculating the stress with vdW-DF, please also cite:
     *
     *   R. Sabatini, E. Kucukbenli, B. Kolb, T. Thonhauser, and
     *   S. de Gironcoli, J. Phys.: Condens. Matter 24, 424209 (2012).
     *

     Carrying out vdW-DF run using the following parameters:

     Nqs =      20    Nr_points =    1024   r_max =   100.000
     q_mesh =
               0.00001000     0.04494208     0.09755937     0.15916263
               0.23128650     0.31572767     0.41458969     0.53033537
               0.66584808     0.82450364     1.01025438     1.22772762
               1.48234092     1.78043706     2.12944203     2.53805004
               3.01644009     3.57652955     4.23227104     5.00000000

     Gradients computed in reciprocal space

     Adding external electric field

     Computed dipole along edir(3) :
        Dipole                0.0000 Ry au,          0.0000 Debye
        Dipole field          0.0000 Ry au

        Potential amp.       -0.0000 Ry
        Total length         46.2124 bohr

     Starting wfc are  144 randomized atomic wfcs

     Self-consistent Calculation

     iteration #  1     ecut=    36.75 Ry     beta=0.10
     Davidson diagonalization with overlap
     ethr =  1.00E-02,  avg # of iterations =  2.0

[...]

     total energy              =   -1203.10288895 Ry
     Harris-Foulkes estimate   =   -1204.13174337 Ry
     estimated scf accuracy    <       5.80349673 Ry

[...]

     End of self-consistent calculation

          k = 0.0000 0.0000 0.0000 ( 21367 PWs)   bands (ev):

   -49.3126 -49.3106 -49.2604 -49.2604 -49.2599 -49.2599 -49.0208 -48.9708
   -48.9707 -28.0649 -28.0425 -28.0248 -27.9829 -27.9829 -27.9820 -27.9642
   -27.9642 -27.9578 -27.9578 -27.9305 -27.9305 -27.8506 -27.7717 -27.7647
   -27.6794 -27.6794 -27.6377 -27.6377 -27.6256 -27.6256 -27.5617 -27.5508
   -27.5507 -27.4666 -27.4095 -27.4094  -5.3441  -4.3241  -4.0682  -4.0682
    -4.0555  -4.0185  -4.0185  -3.8205  -3.8205  -3.7664  -3.7664  -3.7115
    -3.4889  -3.4889  -3.4059  -3.4059  -3.2604  -3.1553  -1.4508  -1.2578
    -0.7638   0.1787   0.3051   0.3051   0.3994   0.3994   0.5195   0.8950
     0.9213   0.9213   0.9755   0.9756   0.9953   1.1126   1.1126   1.1305
     1.4151   1.7241   1.7241   1.8129   1.8129   1.8565   1.9821   1.9821
     2.0125   2.0125   2.2911   2.2939   3.0676   3.2233   3.2233   3.3682
     3.3682   3.4176   3.4370   3.4372   3.5013   3.5014   3.7173   3.7177

[...]

          k =-0.0803-0.0464 0.0000 ( 21348 PWs)   bands (ev):

[...]

     the Fermi energy is     0.7754 ev

!    total energy              =   -1203.60106087 Ry
     Harris-Foulkes estimate   =   -1203.60106087 Ry
     estimated scf accuracy    <       0.00000094 Ry

     The total energy is the sum of the following terms:

     one-electron contribution =   -7532.49853958 Ry
     hartree contribution      =    3777.04451655 Ry
     xc contribution           =    -316.76097792 Ry
     ewald contribution        =    2868.74461871 Ry
     electric field correction =       0.00000000 Ry
     smearing contrib. (-TS)   =      -0.13067864 Ry

     convergence has been achieved in  17 iterations

 BEEF-vdW xc energy contributions
           1 :   -277.258147769443
           2 :    252.567027124697
           3 :   -211.188165028241
           4 :    164.793446232543
           5 :   -123.232883580387
           6 :    91.2436522340772
           7 :   -68.6717538512426
           8 :    52.9536718428685
           9 :   -41.6321573693396
          10 :    33.4296187850229
          11 :   -27.8862449209853
          12 :    24.5052617150477
          13 :   -22.3614087653816
          14 :    20.4351171937868
          15 :   -18.2229818638094
[...]
     Generated by new atomic code, or converted to UPF format
     Using radial grid of  849 points,  6 beta functions with:
                l(1) =   0
                l(2) =   0
                l(3) =   1
                l(4) =   1
                l(5) =   2
                l(6) =   2
     Q(r) pseudized with  6 coefficients,  rinner =    1.200   1.200   1.200
                                                       1.200   1.200

     PseudoPot. # 2 for Au read from file:
     /afs/slac.stanford.edu/u/if/mamunm/psp/gbrv1.5pbe/Au.UPF
     MD5 check sum: 9d7f43293ad2c663164586bc4b293ffc
     Pseudo is Ultrasoft + core correction, Zval = 11.0
     Generated by new atomic code, or converted to UPF format
     Using radial grid of  985 points,  7 beta functions with:
                l(1) =   0
                l(2) =   0
                l(3) =   1
                l(4) =   1
                l(5) =   2
                l(6) =   2
                l(7) =   3
     Q(r) pseudized with  6 coefficients,  rinner =    1.900   1.900   1.900
                                                       1.900   1.900   1.900
                                                       1.900

     vdW kernel table read from file vdW_kernel_table
     MD5 check sum: 095c7af220d748ca6e76c0b4c6cfb241

     atomic species   valence    mass     pseudopotential
        Sc1           11.00    44.95591     Sc( 1.00)
        Au1           11.00   196.96657     Au( 1.00)

     No symmetry found

   Cartesian axes

     site n.     atom                  positions (alat units)
         1           Sc1 tau(   1) = (   0.0000000   0.0000000  10.0000000  )
         2           Sc1 tau(   2) = (  -1.5559135   2.6949213  10.0000000  )
         3           Sc1 tau(   3) = (   1.5559135   2.6949213  10.0000000  )
         4           Au1 tau(   4) = (   3.1118271   0.0000000  10.0000000  )
         5           Sc1 tau(   5) = (   3.1118271   1.7966142  12.5407962  )
         6           Sc1 tau(   6) = (   1.5559135   4.4915355  12.5407962  )
         7           Sc1 tau(   7) = (  -1.5559135   4.4915355  12.5407962  )
         8           Au1 tau(   8) = (   0.0000000   1.7966142  12.5407962  )
         9           Sc1 tau(   9) = (  -0.0000306   3.5682825  15.1181920  )
        10           Sc1 tau(  10) = (   1.5342725   0.9108056  15.1180863  )
        11           Sc1 tau(  11) = (   4.6893336   0.9108040  15.1182353  )
        12           Au1 tau(  12) = (   3.1119010   3.5932004  14.8641478  )

     number of k points=    20  Fermi-Dirac smearing, width (Ry)=  0.0110
                       cart. coord. in units 2pi/alat
        k(    1) = (   0.0000000   0.0000000   0.0000000), wk =   0.0555556
        k(    2) = (   0.0000000   0.0309224   0.0000000), wk =   0.1111111
        k(    3) = (   0.0000000   0.0618447   0.0000000), wk =   0.1111111
        k(    4) = (   0.0000000  -0.0927671   0.0000000), wk =   0.0555556
        k(    5) = (   0.0267796   0.0154612   0.0000000), wk =   0.1111111
        k(    6) = (   0.0267796   0.0463835   0.0000000), wk =   0.1111111
        k(    7) = (   0.0267796   0.0773059   0.0000000), wk =   0.1111111
        k(    8) = (   0.0267796  -0.0773059   0.0000000), wk =   0.1111111
        k(    9) = (   0.0267796  -0.0463835   0.0000000), wk =   0.1111111
        k(   10) = (   0.0267796  -0.0154612   0.0000000), wk =   0.1111111
        k(   11) = (   0.0535591   0.0309224   0.0000000), wk =   0.1111111
        k(   12) = (   0.0535591   0.0618447   0.0000000), wk =   0.1111111
        k(   13) = (   0.0535591   0.0927671   0.0000000), wk =   0.1111111
        k(   14) = (   0.0535591  -0.0618447   0.0000000), wk =   0.1111111
        k(   15) = (   0.0535591  -0.0309224   0.0000000), wk =   0.1111111
        k(   16) = (   0.0535591   0.0000000   0.0000000), wk =   0.1111111
        k(   17) = (  -0.0803387  -0.0463835   0.0000000), wk =   0.0555556
        k(   18) = (  -0.0803387  -0.0154612   0.0000000), wk =   0.1111111
        k(   19) = (  -0.0803387   0.0154612   0.0000000), wk =   0.1111111
        k(   20) = (  -0.0803387  -0.1391506   0.0000000), wk =   0.0555556

     Largest allocated arrays     est. size (Mb)     dimensions
     Largest temporary arrays     est. size (Mb)     dimensions

     Check: negative/imaginary core charge=   -0.000002    0.000000

     Initial potential from superposition of free atoms
     Check: negative starting charge=   -0.000260

     starting charge  131.97801, renormalised to  132.00000

[...]

     *
     * You are using vdW-DF for exchange-correlation in this calculation.
     * Please cite the following three references that made this development
     * possible:
     *
     *   M. Dion, H. Rydberg, E. Schroder, D. C. Langreth, and
     *   B. I. Lundqvist, Phys. Rev. Lett. 92, 246401 (2004).
     *
     *   T. Thonhauser, V. R. Cooper, S. Li, A. Puzder, P. Hyldgaard, and
     *   D. C. Langreth, Phys. Rev. B 76, 125112 (2007).
     *
     *   G. Roman-Perez and J. M. Soler, Phys. Rev. Lett. 103, 096102 (2009).
     *
     *
     * If you are using vdW-DF2, please also cite:
     *
     *   K. Lee, E. D. Murray, L. Kong, B. I. Lundqvist, and
     *   D. C. Langreth, Phys. Rev. B 82, 081101(R) (2010).
     *
     *
     * If you are calculating the stress with vdW-DF, please also cite:
     *
     *   R. Sabatini, E. Kucukbenli, B. Kolb, T. Thonhauser, and
     *   S. de Gironcoli, J. Phys.: Condens. Matter 24, 424209 (2012).
     *

     Carrying out vdW-DF run using the following parameters:

     Nqs =      20    Nr_points =    1024   r_max =   100.000
     q_mesh =
               0.00001000     0.04494208     0.09755937     0.15916263
               0.23128650     0.31572767     0.41458969     0.53033537
               0.66584808     0.82450364     1.01025438     1.22772762
               1.48234092     1.78043706     2.12944203     2.53805004
               3.01644009     3.57652955     4.23227104     5.00000000

     Gradients computed in reciprocal space

[...]

     Starting wfc are  144 randomized atomic wfcs

     Self-consistent Calculation

[...]

     iteration # 12     ecut=    36.75 Ry     beta=0.10
     Davidson diagonalization with overlap
     c_bands:  1 eigenvalues not converged
     ethr =  1.75E-06,  avg # of iterations =  5.5

[...]

     total energy              =   -1203.61561876 Ry
     Harris-Foulkes estimate   =   -1203.61561806 Ry
     estimated scf accuracy    <       0.00000250 Ry

     iteration # 18     ecut=    36.75 Ry     beta=0.10
     Davidson diagonalization with overlap
     ethr =  1.90E-09,  avg # of iterations =  3.0

[...]

     negative rho (up, down):  1.131E-04 0.000E+00

     Adding external electric field

     Computed dipole along edir(3) :
        Dipole                0.0422 Ry au,          0.1072 Debye
        Dipole field          0.0001 Ry au

        Potential amp.       -0.0086 Ry
        Total length         46.2124 bohr

     End of self-consistent calculation

[...]

          k = 0.0536 0.0000 0.0000 ( 21363 PWs)   bands (ev):

[...]

          k =-0.0803-0.1392 0.0000 ( 21348 PWs)   bands (ev):

   -49.2856 -49.2669 -49.2560 -49.2504 -49.2390 -49.2217 -48.9775 -48.9609
   -48.9440 -27.9841 -27.9788 -27.9700 -27.9471 -27.9442 -27.9363 -27.9214
   -27.9102 -27.8726 -27.8600 -27.8429 -27.8314 -27.8302 -27.8070 -27.7805
   -27.7651 -27.7302 -27.6368 -27.6188 -27.6111 -27.5644 -27.5602 -27.5293
   -27.5145 -27.5003 -27.4979 -27.3983  -4.4100  -4.1123  -3.9581  -3.9226
    -3.8974  -3.7862  -3.7798  -3.7647  -3.7406  -3.7070  -3.6267  -3.6251
    -3.5651  -3.4894  -3.4693  -3.3486  -3.2887  -2.9672  -2.0798  -1.3392
    -0.9959  -0.7917  -0.1545   0.0243   0.2874   0.3273   0.4636   0.6181
     0.6819   0.6927   0.7439   0.8992   0.9508   1.0015   1.0514   1.3440
     1.4339   1.4448   1.5304   1.6145   1.7051   1.9402   1.9976   2.0972
     2.1075   2.1978   2.2304   2.2910   2.4175   2.9356   2.9440   3.0308
     3.0492   3.0886   3.1475   3.2290   3.2367   3.2460   3.3666   3.4272

     the Fermi energy is     0.8113 ev

!    total energy              =   -1203.61562052 Ry
     Harris-Foulkes estimate   =   -1203.61561875 Ry
     estimated scf accuracy    <       0.00000068 Ry

     The total energy is the sum of the following terms:

     one-electron contribution =   -7559.75890589 Ry
     hartree contribution      =    3790.73518803 Ry
     xc contribution           =    -316.76638630 Ry
     ewald contribution        =    2882.30348297 Ry
     electric field correction =       0.00000393 Ry
     smearing contrib. (-TS)   =      -0.12900327 Ry

     convergence has been achieved in  18 iterations

 BEEF-vdW xc energy contributions
           1 :   -277.474388418381
           2 :    252.801342017890
           3 :   -211.442906445584
           4 :    165.049823555396
           5 :   -123.458278383185
           6 :    91.4096960048423
           7 :   -68.7733159290584
           8 :    53.0156233991233
           9 :   -41.6980588784290
          10 :    33.5401384410076
          11 :   -28.0611222812575
          12 :    24.7368136099288
          13 :   -22.6193768881161
          14 :    20.6792102138320
          15 :   -18.4196777217782
          16 :    16.0939501653500
          17 :   -14.2883032884953
          18 :    13.2574108570780
          19 :   -12.6305695410149
          20 :    11.7296433460477
          21 :   -10.1788005672944
          22 :    8.25286758733364
          23 :   -6.68738235494607
          24 :    6.13439731308944
          25 :   -6.70951700150954
          26 :    7.94927965558247
          27 :   -9.15436285570968
          28 :    9.81298140209657
          29 :   -9.80384450289642
          30 :    9.30665739074567
          31 :   -26.0033840658651
          32 :   -18.7940567755371

     Forces acting on atoms (Ry/au):

     negative rho (up, down):  1.131E-04 0.000E+00
     atom    1 type  1   force =    -0.00000103    0.00927545   -0.00716660
     atom    2 type  1   force =     0.00803112   -0.00463868   -0.00716524
     atom    3 type  1   force =    -0.00803206   -0.00463742   -0.00716611
     atom    4 type  2   force =    -0.00000022    0.00000264    0.02674037
     atom    5 type  1   force =     0.00000620   -0.00231194    0.00015001
     atom    6 type  1   force =    -0.00200209    0.00115817    0.00015923
     atom    7 type  1   force =     0.00200323    0.00115396    0.00014921
     atom    8 type  2   force =     0.00000021   -0.00000021   -0.00176018
     atom    9 type  1   force =     0.00000304   -0.00041790   -0.00128784
     atom   10 type  1   force =    -0.00036230    0.00020965   -0.00128413
     atom   11 type  1   force =     0.00036222    0.00020582   -0.00129044
     atom   12 type  2   force =    -0.00000832    0.00000047   -0.00007829

     Total force =     0.033939     Total SCF correction =     0.003259

     entering subroutine stress ...

     negative rho (up, down):  1.131E-04 0.000E+00
          total   stress  (Ry/bohr**3)                   (kbar)     P=   -3.89
  -0.00003464   0.00000000  -0.00000000         -5.10      0.00     -0.00
   0.00000000  -0.00003464   0.00000000          0.00     -5.10      0.00
  -0.00000000   0.00000000  -0.00000998         -0.00      0.00     -1.47

 !ASE

     Writing output data file calc.save

     General routines

     Parallel routines

   This run was terminated on:   6:54:17   1Jan2019

   JOB DONE.
Job  /afs/slac/g/suncat/bin/suncat-tsmpirun -x LD_LIBRARY_PATH -wdir /scratch/qe648952_lCSlI pw.x -in pw.inp

TID   HOST_NAME   COMMAND_LINE            STATUS            TERMINATION_TIME
00000 suncat0130 pw.x -in pw.inp   Done                     01/01/2019 06:54:17
00001 suncat0130 pw.x -in pw.inp   Done                     01/01/2019 06:54:17
00002 suncat0130 pw.x -in pw.inp   Done                     01/01/2019 06:54:17
00003 suncat0130 pw.x -in pw.inp   Done                     01/01/2019 06:54:17
00004 suncat0130 pw.x -in pw.inp   Done                     01/01/2019 06:54:17
00005 suncat0130 pw.x -in pw.inp   Done                     01/01/2019 06:54:17
00006 suncat0130 pw.x -in pw.inp   Done                     01/01/2019 06:54:17
00007 suncat0130 pw.x -in pw.inp   Done                     01/01/2019 06:54:17
00008 suncat0124 pw.x -in pw.inp   Done                     01/01/2019 06:54:17
00009 suncat0124 pw.x -in pw.inp   Done                     01/01/2019 06:54:17
00010 suncat0124 pw.x -in pw.inp   Done                     01/01/2019 06:54:17
00011 suncat0124 pw.x -in pw.inp   Done                     01/01/2019 06:54:17
00012 suncat0124 pw.x -in pw.inp   Done                     01/01/2019 06:54:17
00013 suncat0124 pw.x -in pw.inp   Done                     01/01/2019 06:54:17
00014 suncat0124 pw.x -in pw.inp   Done                     01/01/2019 06:54:17
00015 suncat0124 pw.x -in pw.inp   Done                     01/01/2019 06:54:17
00016 suncat0280 pw.x -in pw.inp   Done                     01/01/2019 06:54:17
00017 suncat0280 pw.x -in pw.inp   Done                     01/01/2019 06:54:17
00018 suncat0280 pw.x -in pw.inp   Done                     01/01/2019 06:54:17
00019 suncat0280 pw.x -in pw.inp   Done                     01/01/2019 06:54:17
00020 suncat0280 pw.x -in pw.inp   Done                     01/01/2019 06:54:17
00021 suncat0280 pw.x -in pw.inp   Done                     01/01/2019 06:54:17
00022 suncat0280 pw.x -in pw.inp   Done                     01/01/2019 06:54:17
00023 suncat0280 pw.x -in pw.inp   Done                     01/01/2019 06:54:17
00024 suncat0279 pw.x -in pw.inp   Done                     01/01/2019 06:54:17
00025 suncat0279 pw.x -in pw.inp   Done                     01/01/2019 06:54:17
00026 suncat0279 pw.x -in pw.inp   Done                     01/01/2019 06:54:17
00027 suncat0279 pw.x -in pw.inp   Done                     01/01/2019 06:54:17
00028 suncat0279 pw.x -in pw.inp   Done                     01/01/2019 06:54:17
00029 suncat0279 pw.x -in pw.inp   Done                     01/01/2019 06:54:17
00030 suncat0279 pw.x -in pw.inp   Done                     01/01/2019 06:54:17
00031 suncat0279 pw.x -in pw.inp   Done                     01/01/2019 06:54:17
00032 suncat0278 pw.x -in pw.inp   Done                     01/01/2019 06:54:17
00033 suncat0278 pw.x -in pw.inp   Done                     01/01/2019 06:54:17
00034 suncat0278 pw.x -in pw.inp   Done                     01/01/2019 06:54:17
00035 suncat0278 pw.x -in pw.inp   Done                     01/01/2019 06:54:17
00036 suncat0278 pw.x -in pw.inp   Done                     01/01/2019 06:54:17
00037 suncat0278 pw.x -in pw.inp   Done                     01/01/2019 06:54:17
00038 suncat0278 pw.x -in pw.inp   Done                     01/01/2019 06:54:17
00039 suncat0278 pw.x -in pw.inp   Done                     01/01/2019 06:54:17
00040 suncat0251 pw.x -in pw.inp   Done                     01/01/2019 06:54:17
00041 suncat0251 pw.x -in pw.inp   Done                     01/01/2019 06:54:17
00042 suncat0251 pw.x -in pw.inp   Done                     01/01/2019 06:54:17
00043 suncat0251 pw.x -in pw.inp   Done                     01/01/2019 06:54:17
00044 suncat0251 pw.x -in pw.inp   Done                     01/01/2019 06:54:17
00045 suncat0251 pw.x -in pw.inp   Done                     01/01/2019 06:54:17
00046 suncat0251 pw.x -in pw.inp   Done                     01/01/2019 06:54:17
00047 suncat0251 pw.x -in pw.inp   Done                     01/01/2019 06:54:17
00048 suncat0244 pw.x -in pw.inp   Done                     01/01/2019 06:54:17
00049 suncat0244 pw.x -in pw.inp   Done                     01/01/2019 06:54:17
00050 suncat0244 pw.x -in pw.inp   Done                     01/01/2019 06:54:17
00051 suncat0244 pw.x -in pw.inp   Done                     01/01/2019 06:54:17
00052 suncat0244 pw.x -in pw.inp   Done                     01/01/2019 06:54:17
00053 suncat0244 pw.x -in pw.inp   Done                     01/01/2019 06:54:17
00054 suncat0244 pw.x -in pw.inp   Done                     01/01/2019 06:54:17
00055 suncat0244 pw.x -in pw.inp   Done                     01/01/2019 06:54:17
00056 suncat0099 pw.x -in pw.inp   Done                     01/01/2019 06:54:17
00057 suncat0099 pw.x -in pw.inp   Done                     01/01/2019 06:54:17
00058 suncat0099 pw.x -in pw.inp   Done                     01/01/2019 06:54:17
00059 suncat0099 pw.x -in pw.inp   Done                     01/01/2019 06:54:17
00060 suncat0099 pw.x -in pw.inp   Done                     01/01/2019 06:54:17
00061 suncat0099 pw.x -in pw.inp   Done                     01/01/2019 06:54:17
00062 suncat0099 pw.x -in pw.inp   Done                     01/01/2019 06:54:17
00063 suncat0099 pw.x -in pw.inp   Done                     01/01/2019 06:54:17