     Program PWSCF v.5.1rc2 (svn rev. 11289) starts on 26Dec2018 at  2:15:48

     Current dimensions of program PWSCF are:
     Max number of different atomic species (ntypx) = 10
     Max number of k-points (npk) =  40000
     Max angular momentum in pseudopotentials (lmaxx) =  3
     Presently stress not available with electric field

     IMPORTANT: XC functional enforced from input :
     Exchange-correlation      = BEEF-VDW ( 1  4 27 13 2)
     Any further DFT definition will be discarded
     Please, verify this is what you really want

     Subspace diagonalization in iterative solution of the eigenvalue problem:
     a serial algorithm will be used

     bravais-lattice index     =            0
     lattice parameter (alat)  =       1.8897  a.u.
     unit-cell volume          =    4453.7719 (a.u.)^3
     number of atoms/cell      =           12
     number of atomic types    =            2
     number of electrons       =       219.00
     number of Kohn-Sham states=          139
     kinetic-energy cutoff     =      36.7493  Ry
     charge density cutoff     =     367.4932  Ry
     convergence threshold     =      1.0E-06
     mixing beta               =       0.1000
     number of iterations used =           10  plain     mixing
     Exchange-correlation      = BEEF-VDW ( 1  4 27 13 2)
     nstep                     =           50

     celldm(1)=   1.889726  celldm(2)=   0.000000  celldm(3)=   0.000000
     celldm(4)=   0.000000  celldm(5)=   0.000000  celldm(6)=   0.000000

     crystal axes: (cart. coord. in units of alat)
               a(1) = (   5.571622   0.000000   0.000000 )
               a(2) = (  -2.785811   4.825166   0.000000 )
               a(3) = (   0.000000   0.000000  24.549210 )

     reciprocal axes: (cart. coord. in units 2 pi/alat)
               b(1) = (  0.179481  0.103623  0.000000 )
               b(2) = (  0.000000  0.207247  0.000000 )
               b(3) = (  0.000000  0.000000  0.040735 )

     PseudoPot. # 1 for Ga read from file:
     /afs/slac.stanford.edu/u/if/mamunm/psp/gbrv1.5pbe/Ga.UPF
     MD5 check sum: ccd671392a58a050fbb373893b4fcd66
     Pseudo is Ultrasoft + core correction, Zval = 19.0
     Generated by new atomic code, or converted to UPF format
     Using radial grid of  871 points,  6 beta functions with:
                l(1) =   0
                l(2) =   0
                l(3) =   1
                l(4) =   1
                l(5) =   2
                l(6) =   2
     Q(r) pseudized with  8 coefficients,  rinner =    1.250   1.250   1.250
                                                       1.250   1.250

     PseudoPot. # 2 for Os read from file:
     /afs/slac.stanford.edu/u/if/mamunm/psp/gbrv1.5pbe/Os.UPF
     MD5 check sum: a3fb40a04f0c37c25c34bbc47164c9a8
     Pseudo is Ultrasoft + core correction, Zval = 16.0
     Generated by new atomic code, or converted to UPF format
     Using radial grid of  983 points,  8 beta functions with:
                l(1) =   0
                l(2) =   0
                l(3) =   1
                l(4) =   1
                l(5) =   2
                l(6) =   2
                l(7) =   3
                l(8) =   3
     Q(r) pseudized with  8 coefficients,  rinner =    1.150   1.150   1.150
                                                       1.150   1.150   1.150
                                                       1.150

     vdW kernel table read from file vdW_kernel_table
     MD5 check sum: 095c7af220d748ca6e76c0b4c6cfb241

     atomic species   valence    mass     pseudopotential
        Ga1           19.00    69.72300     Ga( 1.00)
        Os1           16.00   190.23000     Os( 1.00)

     No symmetry found

   Cartesian axes

     site n.     atom                  positions (alat units)
         1           Ga1 tau(   1) = (   0.0000000   0.0000000  10.0000000  )
         2           Ga1 tau(   2) = (  -1.3929054   2.4125829  10.0000000  )
         3           Ga1 tau(   3) = (   1.3929054   2.4125829  10.0000000  )
         4           Os1 tau(   4) = (   2.7858108   0.0000000  10.0000000  )
         5           Ga1 tau(   5) = (   2.7858108   1.6083886  12.2746050  )
         6           Ga1 tau(   6) = (   1.3929054   4.0209715  12.2746050  )
         7           Ga1 tau(   7) = (  -1.3929054   4.0209715  12.2746050  )
         8           Os1 tau(   8) = (   0.0000000   1.6083886  12.2746050  )
         9           Ga1 tau(   9) = (  -0.0000000   3.2167772  14.5492099  )
        10           Ga1 tau(  10) = (   1.3929054   0.8041943  14.5492099  )
        11           Ga1 tau(  11) = (   4.1787162   0.8041943  14.5492099  )
        12           Os1 tau(  12) = (   2.7858108   3.2167772  14.5492099  )

     number of k points=    20  Fermi-Dirac smearing, width (Ry)=  0.0110
                       cart. coord. in units 2pi/alat
        k(    1) = (   0.0000000   0.0000000   0.0000000), wk =   0.0555556
        k(    2) = (   0.0000000   0.0345411   0.0000000), wk =   0.1111111
        k(    3) = (   0.0000000   0.0690823   0.0000000), wk =   0.1111111
        k(    4) = (   0.0000000  -0.1036234   0.0000000), wk =   0.0555556
        k(    5) = (   0.0299135   0.0172706   0.0000000), wk =   0.1111111
        k(    6) = (   0.0299135   0.0518117   0.0000000), wk =   0.1111111
        k(    7) = (   0.0299135   0.0863528   0.0000000), wk =   0.1111111
        k(    8) = (   0.0299135  -0.0863528   0.0000000), wk =   0.1111111
        k(    9) = (   0.0299135  -0.0518117   0.0000000), wk =   0.1111111
        k(   10) = (   0.0299135  -0.0172706   0.0000000), wk =   0.1111111
        k(   11) = (   0.0598270   0.0345411   0.0000000), wk =   0.1111111
        k(   12) = (   0.0598270   0.0690823   0.0000000), wk =   0.1111111
        k(   13) = (   0.0598270   0.1036234   0.0000000), wk =   0.1111111
        k(   14) = (   0.0598270  -0.0690823   0.0000000), wk =   0.1111111
        k(   15) = (   0.0598270  -0.0345411   0.0000000), wk =   0.1111111
        k(   16) = (   0.0598270  -0.0000000   0.0000000), wk =   0.1111111
        k(   17) = (  -0.0897405  -0.0518117   0.0000000), wk =   0.0555556
        k(   18) = (  -0.0897405  -0.0172706   0.0000000), wk =   0.1111111
        k(   19) = (  -0.0897405   0.0172706   0.0000000), wk =   0.1111111
        k(   20) = (  -0.0897405  -0.1554351   0.0000000), wk =   0.0555556

     Largest allocated arrays     est. size (Mb)     dimensions
     Largest temporary arrays     est. size (Mb)     dimensions

     Initial potential from superposition of free atoms
     Check: negative starting charge=   -0.371971

     starting charge  208.49988, renormalised to  219.00000

     negative rho (up, down):  3.907E-01 0.000E+00

     *
     * You are using vdW-DF for exchange-correlation in this calculation.
     * Please cite the following three references that made this development
     * possible:
     *
     *   M. Dion, H. Rydberg, E. Schroder, D. C. Langreth, and
     *   B. I. Lundqvist, Phys. Rev. Lett. 92, 246401 (2004).
     *
     *   T. Thonhauser, V. R. Cooper, S. Li, A. Puzder, P. Hyldgaard, and
     *   D. C. Langreth, Phys. Rev. B 76, 125112 (2007).
     *
     *   G. Roman-Perez and J. M. Soler, Phys. Rev. Lett. 103, 096102 (2009).
     *
     *
     * If you are using vdW-DF2, please also cite:
     *
     *   K. Lee, E. D. Murray, L. Kong, B. I. Lundqvist, and
     *   D. C. Langreth, Phys. Rev. B 82, 081101(R) (2010).
     *
     *
     * If you are calculating the stress with vdW-DF, please also cite:
     *
     *   R. Sabatini, E. Kucukbenli, B. Kolb, T. Thonhauser, and
     *   S. de Gironcoli, J. Phys.: Condens. Matter 24, 424209 (2012).
     *

     Carrying out vdW-DF run using the following parameters:

     Nqs =      20    Nr_points =    1024   r_max =   100.000
     q_mesh =
               0.00001000     0.04494208     0.09755937     0.15916263
               0.23128650     0.31572767     0.41458969     0.53033537
               0.66584808     0.82450364     1.01025438     1.22772762
               1.48234092     1.78043706     2.12944203     2.53805004
               3.01644009     3.57652955     4.23227104     5.00000000

     Gradients computed in reciprocal space

     Adding external electric field

     Computed dipole along edir(3) :
        Dipole               -0.0000 Ry au,         -0.0000 Debye
        Dipole field         -0.0000 Ry au

        Potential amp.        0.0000 Ry
        Total length         45.2315 bohr

     Starting wfc are  147 randomized atomic wfcs

     Self-consistent Calculation

     iteration #  1     ecut=    36.75 Ry     beta=0.10
     Davidson diagonalization with overlap
     ethr =  1.00E-02,  avg # of iterations =  7.3

[...]

     total energy              =   -4346.74100426 Ry
     Harris-Foulkes estimate   =   -4363.74699771 Ry
     estimated scf accuracy    <      94.76615749 Ry

[...]

     End of self-consistent calculation

          k = 0.0000 0.0000 0.0000 ( 16727 PWs)   bands (ev):

   -93.9430 -93.9388 -93.9388 -93.8738 -93.8730 -93.8730 -93.8708 -93.8708
   -93.8700 -93.7866 -93.7864 -93.7836 -93.7836 -93.7834 -93.7834 -93.7574
   -93.7573 -93.7542 -93.7542 -93.7540 -93.7540 -93.7083 -93.7083 -93.7082
   -93.7082 -93.7061 -93.7060 -84.7815 -84.7813 -84.6987 -44.1666 -44.1666
   -44.1664 -44.1664 -44.0838 -44.0838 -43.9608 -43.9480 -43.9473 -14.5562
   -14.4987 -14.4958 -14.4958 -14.3872 -14.3751 -14.3622 -14.3622 -14.3622
   -14.3274 -14.3274 -14.2770 -14.2770 -14.2536 -14.2462 -14.2398 -14.2398
   -14.1890 -14.1890 -14.1757 -14.1706 -14.1706 -14.1641 -14.1361 -14.1361
   -14.1242 -14.0447 -14.0447 -14.0335 -14.0335 -14.0168 -14.0168 -14.0128
   -14.0128 -14.0120 -14.0021 -13.9836 -13.9836 -13.9777 -13.9777 -13.9378
   -13.9289 -13.9289 -13.8336 -13.8329 -10.4114  -8.5170  -6.1602  -4.9979
    -4.9979  -4.1259  -4.1259  -3.5211  -3.3055  -3.3055  -2.8573  -2.0473
    -1.9742  -1.9742  -1.2061  -0.6946  -0.6946  -0.3060  -0.0631  -0.0631
     0.0347   0.0347   0.2465   0.2465   0.3716   0.8930   0.8930   0.8960
     1.7509   2.3786   2.3786   2.3814   2.3814   2.9845   3.1548   3.1548
     3.3744   4.1776   4.9979   5.4537   5.9632   6.0170   6.0170   6.3801
     6.3801   6.4200   6.7331   7.0463   7.2597   8.1553   8.3520   8.6187
     8.6187   9.1546   9.4258

[...]

          k =-0.0897-0.0518 0.0000 ( 16784 PWs)   bands (ev):

[...]

     the Fermi energy is     1.1039 ev

!    total energy              =   -4348.47385333 Ry
     Harris-Foulkes estimate   =   -4348.47485412 Ry
     estimated scf accuracy    <       0.00000037 Ry

     The total energy is the sum of the following terms:

     one-electron contribution =  -29032.83524487 Ry
     hartree contribution      =   14518.07606089 Ry
     xc contribution           =    -564.27037405 Ry
     ewald contribution        =   10730.60369080 Ry
     electric field correction =       0.00000000 Ry
     smearing contrib. (-TS)   =      -0.04798609 Ry

     convergence has been achieved in  16 iterations

 BEEF-vdW xc energy contributions
           1 :   -502.030529637617
           2 :    458.157427016432
           3 :   -383.790946551998
           4 :    299.424543747660
[...]
                l(1) =   0
                l(2) =   0
                l(3) =   1
                l(4) =   1
                l(5) =   2
                l(6) =   2
     Q(r) pseudized with  8 coefficients,  rinner =    1.250   1.250   1.250
                                                       1.250   1.250

     PseudoPot. # 2 for Os read from file:
     /afs/slac.stanford.edu/u/if/mamunm/psp/gbrv1.5pbe/Os.UPF
     MD5 check sum: a3fb40a04f0c37c25c34bbc47164c9a8
     Pseudo is Ultrasoft + core correction, Zval = 16.0
     Generated by new atomic code, or converted to UPF format
     Using radial grid of  983 points,  8 beta functions with:
                l(1) =   0
                l(2) =   0
                l(3) =   1
                l(4) =   1
                l(5) =   2
                l(6) =   2
                l(7) =   3
                l(8) =   3
     Q(r) pseudized with  8 coefficients,  rinner =    1.150   1.150   1.150
                                                       1.150   1.150   1.150
                                                       1.150

     vdW kernel table read from file vdW_kernel_table
     MD5 check sum: 095c7af220d748ca6e76c0b4c6cfb241

     atomic species   valence    mass     pseudopotential
        Ga1           19.00    69.72300     Ga( 1.00)
        Os1           16.00   190.23000     Os( 1.00)

     No symmetry found

   Cartesian axes

     site n.     atom                  positions (alat units)
         1           Ga1 tau(   1) = (   0.0000000   0.0000000  10.0000000  )
         2           Ga1 tau(   2) = (  -1.3929054   2.4125829  10.0000000  )
         3           Ga1 tau(   3) = (   1.3929054   2.4125829  10.0000000  )
         4           Os1 tau(   4) = (   2.7858108   0.0000000  10.0000000  )
         5           Ga1 tau(   5) = (   2.7858108   1.6083886  12.2746050  )
         6           Ga1 tau(   6) = (   1.3929054   4.0209715  12.2746050  )
         7           Ga1 tau(   7) = (  -1.3929054   4.0209715  12.2746050  )
         8           Os1 tau(   8) = (   0.0000000   1.6083886  12.2746050  )
         9           Ga1 tau(   9) = (  -0.0000135   3.1832514  14.7356410  )
        10           Ga1 tau(  10) = (   1.3638608   0.8209790  14.7356043  )
        11           Ga1 tau(  11) = (   4.2077671   0.8209597  14.7356246  )
        12           Os1 tau(  12) = (   2.7857883   3.2167579  14.3546174  )

     number of k points=    20  Fermi-Dirac smearing, width (Ry)=  0.0110
                       cart. coord. in units 2pi/alat
        k(    1) = (   0.0000000   0.0000000   0.0000000), wk =   0.0555556
        k(    2) = (   0.0000000   0.0345411   0.0000000), wk =   0.1111111
        k(    3) = (   0.0000000   0.0690823   0.0000000), wk =   0.1111111
        k(    4) = (   0.0000000  -0.1036234   0.0000000), wk =   0.0555556
        k(    5) = (   0.0299135   0.0172706   0.0000000), wk =   0.1111111
        k(    6) = (   0.0299135   0.0518117   0.0000000), wk =   0.1111111
        k(    7) = (   0.0299135   0.0863528   0.0000000), wk =   0.1111111
        k(    8) = (   0.0299135  -0.0863528   0.0000000), wk =   0.1111111
        k(    9) = (   0.0299135  -0.0518117   0.0000000), wk =   0.1111111
        k(   10) = (   0.0299135  -0.0172706   0.0000000), wk =   0.1111111
        k(   11) = (   0.0598270   0.0345411   0.0000000), wk =   0.1111111
        k(   12) = (   0.0598270   0.0690823   0.0000000), wk =   0.1111111
        k(   13) = (   0.0598270   0.1036234   0.0000000), wk =   0.1111111
        k(   14) = (   0.0598270  -0.0690823   0.0000000), wk =   0.1111111
        k(   15) = (   0.0598270  -0.0345411   0.0000000), wk =   0.1111111
        k(   16) = (   0.0598270  -0.0000000   0.0000000), wk =   0.1111111
        k(   17) = (  -0.0897405  -0.0518117   0.0000000), wk =   0.0555556
        k(   18) = (  -0.0897405  -0.0172706   0.0000000), wk =   0.1111111
        k(   19) = (  -0.0897405   0.0172706   0.0000000), wk =   0.1111111
        k(   20) = (  -0.0897405  -0.1554351   0.0000000), wk =   0.0555556

     Largest allocated arrays     est. size (Mb)     dimensions
     Largest temporary arrays     est. size (Mb)     dimensions

     Initial potential from superposition of free atoms
     Check: negative starting charge=   -0.372451

     starting charge  208.49988, renormalised to  219.00000

[...]

     *
     * You are using vdW-DF for exchange-correlation in this calculation.
     * Please cite the following three references that made this development
     * possible:
     *
     *   M. Dion, H. Rydberg, E. Schroder, D. C. Langreth, and
     *   B. I. Lundqvist, Phys. Rev. Lett. 92, 246401 (2004).
     *
     *   T. Thonhauser, V. R. Cooper, S. Li, A. Puzder, P. Hyldgaard, and
     *   D. C. Langreth, Phys. Rev. B 76, 125112 (2007).
     *
     *   G. Roman-Perez and J. M. Soler, Phys. Rev. Lett. 103, 096102 (2009).
     *
     *
     * If you are using vdW-DF2, please also cite:
     *
     *   K. Lee, E. D. Murray, L. Kong, B. I. Lundqvist, and
     *   D. C. Langreth, Phys. Rev. B 82, 081101(R) (2010).
     *
     *
     * If you are calculating the stress with vdW-DF, please also cite:
     *
     *   R. Sabatini, E. Kucukbenli, B. Kolb, T. Thonhauser, and
     *   S. de Gironcoli, J. Phys.: Condens. Matter 24, 424209 (2012).
     *

     Carrying out vdW-DF run using the following parameters:

     Nqs =      20    Nr_points =    1024   r_max =   100.000
     q_mesh =
               0.00001000     0.04494208     0.09755937     0.15916263
               0.23128650     0.31572767     0.41458969     0.53033537
               0.66584808     0.82450364     1.01025438     1.22772762
               1.48234092     1.78043706     2.12944203     2.53805004
               3.01644009     3.57652955     4.23227104     5.00000000

     Gradients computed in reciprocal space

[...]

     Starting wfc are  147 randomized atomic wfcs

     Self-consistent Calculation

[...]

     total energy              =   -4348.51336529 Ry
     Harris-Foulkes estimate   =   -4348.51336434 Ry
     estimated scf accuracy    <       0.00000169 Ry

     iteration # 18     ecut=    36.75 Ry     beta=0.10
     Davidson diagonalization with overlap
     ethr =  7.70E-10,  avg # of iterations =  2.0

[...]

     negative rho (up, down):  3.495E-01 0.000E+00

     Adding external electric field

     Computed dipole along edir(3) :
        Dipole                0.1002 Ry au,          0.2546 Debye
        Dipole field          0.0003 Ry au

        Potential amp.       -0.0256 Ry
        Total length         45.2315 bohr

     End of self-consistent calculation

[...]

          k = 0.0598-0.0000 0.0000 ( 16738 PWs)   bands (ev):

[...]

          k =-0.0897-0.1554 0.0000 ( 16784 PWs)   bands (ev):

   -93.8139 -93.8124 -93.8110 -93.7428 -93.7420 -93.7412 -93.7341 -93.7334
   -93.7326 -93.7187 -93.7181 -93.7179 -93.6979 -93.6952 -93.6937 -93.6596
   -93.6584 -93.6573 -93.6494 -93.6487 -93.6475 -93.6301 -93.6291 -93.6281
   -93.5844 -93.5836 -93.5827 -84.7979 -84.6864 -84.5300 -44.1705 -44.1703
   -44.0713 -44.0710 -44.0354 -43.9190 -43.9187 -43.8539 -43.7741 -14.3549
   -14.2884 -14.2629 -14.2457 -14.2264 -14.2125 -14.1963 -14.1875 -14.1869
   -14.1747 -14.1575 -14.1393 -14.1237 -14.1150 -14.1062 -14.0975 -14.0760
   -14.0542 -14.0508 -14.0492 -14.0388 -14.0366 -14.0270 -14.0198 -14.0156
   -14.0052 -14.0032 -13.9981 -13.9951 -13.9858 -13.9809 -13.9724 -13.9537
   -13.9498 -13.9481 -13.9430 -13.9294 -13.9254 -13.9235 -13.9153 -13.8750
   -13.8707 -13.8634 -13.8363 -13.7890  -8.6313  -8.2898  -6.7677  -6.6635
    -5.6037  -5.1603  -4.5686  -3.7710  -3.6965  -2.9904  -2.0560  -1.9943
    -1.8845  -1.3937  -1.3633  -1.2655  -1.2445  -0.5948  -0.4211   0.0320
     0.3522   0.5097   0.8027   0.8662   1.1110   1.5578   1.5969   1.7183
     2.2481   2.6958   3.4463   3.7032   3.7490   4.0411   4.1491   4.5553
     4.7880   4.9244   5.0846   5.2321   5.6996   6.2571   6.2710   6.2807
     6.5385   6.8589   6.9115   7.0351   7.4031   7.5003   7.5242   7.7396
     7.9860   8.2233   8.3496

     the Fermi energy is     1.2089 ev

!    total energy              =   -4348.51337093 Ry
     Harris-Foulkes estimate   =   -4348.51336602 Ry
     estimated scf accuracy    <       0.00000027 Ry

     The total energy is the sum of the following terms:

     one-electron contribution =  -28635.20411925 Ry
     hartree contribution      =   14320.00641477 Ry
     xc contribution           =    -564.22556268 Ry
     ewald contribution        =   10530.95878327 Ry
     electric field correction =       0.00002832 Ry
     smearing contrib. (-TS)   =      -0.04891537 Ry

     convergence has been achieved in  18 iterations

 BEEF-vdW xc energy contributions
           1 :   -502.570652562180
           2 :    458.660095855290
           3 :   -384.236038907660
           4 :    299.818189350524
           5 :   -224.220534982564
           6 :    167.765331379758
           7 :   -130.571567691885
           8 :    105.914644742331
           9 :   -85.9740575764060
          10 :    66.3929478128109
          11 :   -47.4004360427496
          12 :    31.7048860670056
          13 :   -21.3180610563179
          14 :    15.7029397628888
          15 :   -12.2753892965228
          16 :    8.44840467038159
          17 :   -3.43674160369449
          18 :   -1.52564867170133
          19 :    4.53855847289503
          20 :   -4.76466254607624
          21 :    3.17168918050993
          22 :   -1.79606414158411
          23 :    2.19446301233450
          24 :   -4.32541129789774
          25 :    6.69363550211926
          26 :   -7.58427768647732
          27 :    6.39592485537014
          28 :   -4.06282990407703
          29 :    2.29479070936816
          30 :   -2.26972196976647
          31 :   -39.1178902656740
          32 :   -27.4913336955433

     Forces acting on atoms (Ry/au):

     negative rho (up, down):  3.495E-01 0.000E+00
     atom    1 type  1   force =     0.00000075    0.01431154   -0.01975019
     atom    2 type  1   force =     0.01239266   -0.00715626   -0.01974803
     atom    3 type  1   force =    -0.01239325   -0.00715379   -0.01974938
     atom    4 type  2   force =     0.00000046    0.00000010    0.04157349
     atom    5 type  1   force =    -0.00000039   -0.01702691   -0.00007743
     atom    6 type  1   force =    -0.01474761    0.00851350   -0.00007472
     atom    7 type  1   force =     0.01474452    0.00851234   -0.00007390
     atom    8 type  2   force =     0.00000219    0.00000110    0.01517805
     atom    9 type  1   force =    -0.00000097   -0.00107923    0.00065112
     atom   10 type  1   force =    -0.00093552    0.00053991    0.00064566
     atom   11 type  1   force =     0.00093617    0.00053794    0.00064557
     atom   12 type  2   force =     0.00000100   -0.00000025    0.00077976

     Total force =     0.067958     Total SCF correction =     0.004202

     entering subroutine stress ...

     negative rho (up, down):  3.495E-01 0.000E+00
          total   stress  (Ry/bohr**3)                   (kbar)     P=  -22.44
  -0.00023612  -0.00000000  -0.00000000        -34.73     -0.00     -0.00
  -0.00000000  -0.00023612  -0.00000000         -0.00    -34.73     -0.00
  -0.00000000  -0.00000000   0.00001469         -0.00     -0.00      2.16

 !ASE

     Writing output data file calc.save

     General routines

     Parallel routines

   This run was terminated on:   4:29:37  26Dec2018

   JOB DONE.
Job  /afs/slac/g/suncat/bin/suncat-tsmpirun -x LD_LIBRARY_PATH -wdir /scratch/qe109689_uMXvP pw.x -in pw.inp

TID   HOST_NAME   COMMAND_LINE            STATUS            TERMINATION_TIME
00000 suncat0169 pw.x -in pw.inp   Done                     12/26/2018 04:29:37
00001 suncat0169 pw.x -in pw.inp   Done                     12/26/2018 04:29:37
00002 suncat0169 pw.x -in pw.inp   Done                     12/26/2018 04:29:37
00003 suncat0169 pw.x -in pw.inp   Done                     12/26/2018 04:29:37
00004 suncat0169 pw.x -in pw.inp   Done                     12/26/2018 04:29:37
00005 suncat0169 pw.x -in pw.inp   Done                     12/26/2018 04:29:37
00006 suncat0169 pw.x -in pw.inp   Done                     12/26/2018 04:29:37
00007 suncat0169 pw.x -in pw.inp   Done                     12/26/2018 04:29:37
00008 suncat0168 pw.x -in pw.inp   Done                     12/26/2018 04:29:37
00009 suncat0168 pw.x -in pw.inp   Done                     12/26/2018 04:29:37
00010 suncat0168 pw.x -in pw.inp   Done                     12/26/2018 04:29:37
00011 suncat0168 pw.x -in pw.inp   Done                     12/26/2018 04:29:37
00012 suncat0168 pw.x -in pw.inp   Done                     12/26/2018 04:29:37
00013 suncat0168 pw.x -in pw.inp   Done                     12/26/2018 04:29:37
00014 suncat0168 pw.x -in pw.inp   Done                     12/26/2018 04:29:37
00015 suncat0168 pw.x -in pw.inp   Done                     12/26/2018 04:29:37
00016 suncat0161 pw.x -in pw.inp   Done                     12/26/2018 04:29:37
00017 suncat0161 pw.x -in pw.inp   Done                     12/26/2018 04:29:37
00018 suncat0161 pw.x -in pw.inp   Done                     12/26/2018 04:29:37
00019 suncat0161 pw.x -in pw.inp   Done                     12/26/2018 04:29:37
00020 suncat0161 pw.x -in pw.inp   Done                     12/26/2018 04:29:37
00021 suncat0161 pw.x -in pw.inp   Done                     12/26/2018 04:29:37
00022 suncat0161 pw.x -in pw.inp   Done                     12/26/2018 04:29:37
00023 suncat0161 pw.x -in pw.inp   Done                     12/26/2018 04:29:37
00024 suncat0159 pw.x -in pw.inp   Done                     12/26/2018 04:29:37
00025 suncat0159 pw.x -in pw.inp   Done                     12/26/2018 04:29:37
00026 suncat0159 pw.x -in pw.inp   Done                     12/26/2018 04:29:37
00027 suncat0159 pw.x -in pw.inp   Done                     12/26/2018 04:29:37
00028 suncat0159 pw.x -in pw.inp   Done                     12/26/2018 04:29:37
00029 suncat0159 pw.x -in pw.inp   Done                     12/26/2018 04:29:37
00030 suncat0159 pw.x -in pw.inp   Done                     12/26/2018 04:29:37
00031 suncat0159 pw.x -in pw.inp   Done                     12/26/2018 04:29:37
00032 suncat0156 pw.x -in pw.inp   Done                     12/26/2018 04:29:37
00033 suncat0156 pw.x -in pw.inp   Done                     12/26/2018 04:29:37
00034 suncat0156 pw.x -in pw.inp   Done                     12/26/2018 04:29:37
00035 suncat0156 pw.x -in pw.inp   Done                     12/26/2018 04:29:37
00036 suncat0156 pw.x -in pw.inp   Done                     12/26/2018 04:29:37
00037 suncat0156 pw.x -in pw.inp   Done                     12/26/2018 04:29:37
00038 suncat0156 pw.x -in pw.inp   Done                     12/26/2018 04:29:37
00039 suncat0156 pw.x -in pw.inp   Done                     12/26/2018 04:29:37
00040 suncat0153 pw.x -in pw.inp   Done                     12/26/2018 04:29:37
00041 suncat0153 pw.x -in pw.inp   Done                     12/26/2018 04:29:37
00042 suncat0153 pw.x -in pw.inp   Done                     12/26/2018 04:29:37
00043 suncat0153 pw.x -in pw.inp   Done                     12/26/2018 04:29:37
00044 suncat0153 pw.x -in pw.inp   Done                     12/26/2018 04:29:37
00045 suncat0153 pw.x -in pw.inp   Done                     12/26/2018 04:29:37
00046 suncat0153 pw.x -in pw.inp   Done                     12/26/2018 04:29:37
00047 suncat0153 pw.x -in pw.inp   Done                     12/26/2018 04:29:37
00048 suncat0114 pw.x -in pw.inp   Done                     12/26/2018 04:29:37
00049 suncat0114 pw.x -in pw.inp   Done                     12/26/2018 04:29:37
00050 suncat0114 pw.x -in pw.inp   Done                     12/26/2018 04:29:37
00051 suncat0114 pw.x -in pw.inp   Done                     12/26/2018 04:29:37
00052 suncat0114 pw.x -in pw.inp   Done                     12/26/2018 04:29:37
00053 suncat0114 pw.x -in pw.inp   Done                     12/26/2018 04:29:37
00054 suncat0114 pw.x -in pw.inp   Done                     12/26/2018 04:29:37
00055 suncat0114 pw.x -in pw.inp   Done                     12/26/2018 04:29:37
00056 suncat0267 pw.x -in pw.inp   Done                     12/26/2018 04:29:37
00057 suncat0267 pw.x -in pw.inp   Done                     12/26/2018 04:29:37
00058 suncat0267 pw.x -in pw.inp   Done                     12/26/2018 04:29:37
00059 suncat0267 pw.x -in pw.inp   Done                     12/26/2018 04:29:37
00060 suncat0267 pw.x -in pw.inp   Done                     12/26/2018 04:29:37
00061 suncat0267 pw.x -in pw.inp   Done                     12/26/2018 04:29:37
00062 suncat0267 pw.x -in pw.inp   Done                     12/26/2018 04:29:37
00063 suncat0267 pw.x -in pw.inp   Done                     12/26/2018 04:29:37