     Program PWSCF v.5.1rc2 (svn rev. 11289) starts on 31Dec2018 at 19: 5:13

     Current dimensions of program PWSCF are:
     Max number of different atomic species (ntypx) = 10
     Max number of k-points (npk) =  40000
     Max angular momentum in pseudopotentials (lmaxx) =  3
     Presently stress not available with electric field

     IMPORTANT: XC functional enforced from input :
     Exchange-correlation      = BEEF-VDW ( 1  4 27 13 2)
     Any further DFT definition will be discarded
     Please, verify this is what you really want

     Subspace diagonalization in iterative solution of the eigenvalue problem:
     a serial algorithm will be used

     bravais-lattice index     =            0
     lattice parameter (alat)  =       1.8897  a.u.
     unit-cell volume          =    5117.1595 (a.u.)^3
     number of atoms/cell      =           12
     number of atomic types    =            2
     number of electrons       =       168.00
     number of Kohn-Sham states=          114
     kinetic-energy cutoff     =      36.7493  Ry
     charge density cutoff     =     367.4932  Ry
     convergence threshold     =      1.0E-06
     mixing beta               =       0.1000
     number of iterations used =           10  plain     mixing
     Exchange-correlation      = BEEF-VDW ( 1  4 27 13 2)
     nstep                     =           50

     celldm(1)=   1.889726  celldm(2)=   0.000000  celldm(3)=   0.000000
     celldm(4)=   0.000000  celldm(5)=   0.000000  celldm(6)=   0.000000

     crystal axes: (cart. coord. in units of alat)
               a(1) = (   5.936279   0.000000   0.000000 )
               a(2) = (  -2.968140   5.140968   0.000000 )
               a(3) = (   0.000000   0.000000  24.846952 )

     reciprocal axes: (cart. coord. in units 2 pi/alat)
               b(1) = (  0.168456  0.097258  0.000000 )
               b(2) = (  0.000000  0.194516  0.000000 )
               b(3) = (  0.000000  0.000000  0.040246 )

     PseudoPot. # 1 for Re read from file:
     /afs/slac.stanford.edu/u/if/mamunm/psp/gbrv1.5pbe/Re.UPF
     MD5 check sum: 85f993410f3e006da9d71c142b4ad953
     Pseudo is Ultrasoft + core correction, Zval = 15.0
     Generated by new atomic code, or converted to UPF format
     Using radial grid of  981 points,  8 beta functions with:
                l(1) =   0
                l(2) =   0
                l(3) =   1
                l(4) =   1
                l(5) =   2
                l(6) =   2
                l(7) =   3
                l(8) =   3
     Q(r) pseudized with  8 coefficients,  rinner =    1.150   1.150   1.150
                                                       1.150   1.150   1.150
                                                       1.150

     PseudoPot. # 2 for La read from file:
     /afs/slac.stanford.edu/u/if/mamunm/psp/gbrv1.5pbe/La.UPF
     MD5 check sum: 5937b0c7494ba0601a847275249473aa
     Pseudo is Ultrasoft + core correction, Zval = 11.0
     Generated by new atomic code, or converted to UPF format
     Using radial grid of  995 points,  8 beta functions with:
                l(1) =   0
                l(2) =   0
                l(3) =   1
                l(4) =   1
                l(5) =   2
                l(6) =   2
                l(7) =   3
                l(8) =   3
     Q(r) pseudized with  8 coefficients,  rinner =    1.700   1.700   1.700
                                                       1.700   1.700   1.700
                                                       1.700

     vdW kernel table read from file vdW_kernel_table
     MD5 check sum: 095c7af220d748ca6e76c0b4c6cfb241

     atomic species   valence    mass     pseudopotential
        Re1           15.00   186.20700     Re( 1.00)
        La1           11.00   138.90547     La( 1.00)

     No symmetry found

   Cartesian axes

     site n.     atom                  positions (alat units)
         1           Re1 tau(   1) = (   0.0000000   0.0000000  10.0000000  )
         2           Re1 tau(   2) = (  -1.4840698   2.5704842  10.0000000  )
         3           Re1 tau(   3) = (   1.4840698   2.5704842  10.0000000  )
         4           La1 tau(   4) = (   2.9681395   0.0000000  10.0000000  )
         5           Re1 tau(   5) = (   2.9681395   1.7136561  12.4234758  )
         6           Re1 tau(   6) = (   1.4840698   4.2841404  12.4234758  )
         7           Re1 tau(   7) = (  -1.4840698   4.2841404  12.4234758  )
         8           La1 tau(   8) = (   0.0000000   1.7136561  12.4234758  )
         9           Re1 tau(   9) = (  -0.0000000   3.4273123  14.8469515  )
        10           Re1 tau(  10) = (   1.4840698   0.8568281  14.8469515  )
        11           Re1 tau(  11) = (   4.4522093   0.8568281  14.8469515  )
        12           La1 tau(  12) = (   2.9681395   3.4273123  14.8469515  )

     number of k points=    20  Fermi-Dirac smearing, width (Ry)=  0.0110
                       cart. coord. in units 2pi/alat
        k(    1) = (   0.0000000   0.0000000   0.0000000), wk =   0.0555556
        k(    2) = (   0.0000000   0.0324193   0.0000000), wk =   0.1111111
        k(    3) = (   0.0000000   0.0648386   0.0000000), wk =   0.1111111
        k(    4) = (   0.0000000  -0.0972579   0.0000000), wk =   0.0555556
        k(    5) = (   0.0280759   0.0162097   0.0000000), wk =   0.1111111
        k(    6) = (   0.0280759   0.0486290   0.0000000), wk =   0.1111111
        k(    7) = (   0.0280759   0.0810483   0.0000000), wk =   0.1111111
        k(    8) = (   0.0280759  -0.0810483   0.0000000), wk =   0.1111111
        k(    9) = (   0.0280759  -0.0486290   0.0000000), wk =   0.1111111
        k(   10) = (   0.0280759  -0.0162097   0.0000000), wk =   0.1111111
        k(   11) = (   0.0561519   0.0324193   0.0000000), wk =   0.1111111
        k(   12) = (   0.0561519   0.0648386   0.0000000), wk =   0.1111111
        k(   13) = (   0.0561519   0.0972579   0.0000000), wk =   0.1111111
        k(   14) = (   0.0561519  -0.0648386   0.0000000), wk =   0.1111111
        k(   15) = (   0.0561519  -0.0324193   0.0000000), wk =   0.1111111
        k(   16) = (   0.0561519   0.0000000   0.0000000), wk =   0.1111111
        k(   17) = (  -0.0842278  -0.0486290   0.0000000), wk =   0.0555556
        k(   18) = (  -0.0842278  -0.0162097   0.0000000), wk =   0.1111111
        k(   19) = (  -0.0842278   0.0162097   0.0000000), wk =   0.1111111
        k(   20) = (  -0.0842278  -0.1458869   0.0000000), wk =   0.0555556

     Largest allocated arrays     est. size (Mb)     dimensions
     Largest temporary arrays     est. size (Mb)     dimensions

     Initial potential from superposition of free atoms
     Check: negative starting charge=   -1.363904

     starting charge  163.40339, renormalised to  168.00000

     negative rho (up, down):  1.402E+00 0.000E+00

     *
     * You are using vdW-DF for exchange-correlation in this calculation.
     * Please cite the following three references that made this development
     * possible:
     *
     *   M. Dion, H. Rydberg, E. Schroder, D. C. Langreth, and
     *   B. I. Lundqvist, Phys. Rev. Lett. 92, 246401 (2004).
     *
     *   T. Thonhauser, V. R. Cooper, S. Li, A. Puzder, P. Hyldgaard, and
     *   D. C. Langreth, Phys. Rev. B 76, 125112 (2007).
     *
     *   G. Roman-Perez and J. M. Soler, Phys. Rev. Lett. 103, 096102 (2009).
     *
     *
     * If you are using vdW-DF2, please also cite:
     *
     *   K. Lee, E. D. Murray, L. Kong, B. I. Lundqvist, and
     *   D. C. Langreth, Phys. Rev. B 82, 081101(R) (2010).
     *
     *
     * If you are calculating the stress with vdW-DF, please also cite:
     *
     *   R. Sabatini, E. Kucukbenli, B. Kolb, T. Thonhauser, and
     *   S. de Gironcoli, J. Phys.: Condens. Matter 24, 424209 (2012).
     *

     Carrying out vdW-DF run using the following parameters:

     Nqs =      20    Nr_points =    1024   r_max =   100.000
     q_mesh =
               0.00001000     0.04494208     0.09755937     0.15916263
               0.23128650     0.31572767     0.41458969     0.53033537
               0.66584808     0.82450364     1.01025438     1.22772762
               1.48234092     1.78043706     2.12944203     2.53805004
               3.01644009     3.57652955     4.23227104     5.00000000

     Gradients computed in reciprocal space

     Adding external electric field

     Computed dipole along edir(3) :
        Dipole                0.0000 Ry au,          0.0000 Debye
        Dipole field          0.0000 Ry au

        Potential amp.       -0.0000 Ry
        Total length         45.7801 bohr

     Starting wfc are  177 randomized atomic wfcs

     Self-consistent Calculation

     iteration #  1     ecut=    36.75 Ry     beta=0.10
     Davidson diagonalization with overlap
     ethr =  1.00E-02,  avg # of iterations =  2.0

[...]

     total energy              =   -2040.06367389 Ry
     Harris-Foulkes estimate   =   -2041.53795890 Ry
     estimated scf accuracy    <       8.45030218 Ry

[...]

     iteration #  9     ecut=    36.75 Ry     beta=0.10
     Davidson diagonalization with overlap
     c_bands:  1 eigenvalues not converged
     c_bands:  1 eigenvalues not converged
     ethr =  1.15E-05,  avg # of iterations = 15.6

[...]

     End of self-consistent calculation

          k = 0.0000 0.0000 0.0000 ( 19267 PWs)   bands (ev):

   -77.6489 -77.6281 -77.6281 -77.5789 -77.5776 -77.5592 -77.5591 -77.5589
   -77.5588 -39.5975 -39.4983 -39.4868 -39.4801 -39.4801 -39.4163 -39.3989
   -39.3989 -39.3198 -39.3107 -39.3107 -39.2762 -39.2762 -39.2650 -39.2649
   -39.2535 -39.2063 -39.2063 -39.1998 -39.1323 -39.1323 -39.1022 -39.1022
   -39.0987 -39.0966 -39.0966 -39.0858 -28.8211 -28.8044 -28.3109 -12.8062
   -12.7476 -12.7476 -12.7216 -12.7216 -12.6879 -12.4814 -12.3306 -12.3306
    -3.9764  -2.6617  -2.4553  -2.0287  -2.0287  -1.8372  -1.8372  -1.1475
    -1.1475  -1.1015  -0.9735  -0.9735  -0.8630  -0.2555  -0.0125   0.2424
     0.4008   0.4008   0.8965   0.8965   1.3045   1.3698   1.5934   1.6129
     1.9864   1.9864   2.0776   2.0776   2.1197   2.1197   2.3569   2.3569
     2.3840   2.5683   2.5683   2.8685   3.0003   3.4234   3.4234   3.6543
     3.7533   3.7533   3.8822   3.8822   4.2198   4.2199   4.4040   4.6375
     4.7368   5.4693   5.6372   5.7591   5.9203   5.9203   5.9211   6.0650
     6.1581   6.1581   6.3175   6.3175   6.3235   6.4660   6.4921   6.4922
     6.6182   6.6220

[...]

          k =-0.0842-0.0486 0.0000 ( 19284 PWs)   bands (ev):

[...]

     the Fermi energy is     2.5298 ev

!    total energy              =   -2040.56217758 Ry
     Harris-Foulkes estimate   =   -2040.56218100 Ry
     estimated scf accuracy    <       0.00000055 Ry

     The total energy is the sum of the following terms:

     one-electron contribution =  -13387.36300651 Ry
     hartree contribution      =    6688.37203383 Ry
     xc contribution           =    -639.35402067 Ry
     ewald contribution        =    5297.91371842 Ry
     electric field correction =       0.00000001 Ry
     smearing contrib. (-TS)   =      -0.13090265 Ry

     convergence has been achieved in  20 iterations

 BEEF-vdW xc energy contributions
           1 :   -567.600087732342
[...]
     Using radial grid of  981 points,  8 beta functions with:
                l(1) =   0
                l(2) =   0
                l(3) =   1
                l(4) =   1
                l(5) =   2
                l(6) =   2
                l(7) =   3
                l(8) =   3
     Q(r) pseudized with  8 coefficients,  rinner =    1.150   1.150   1.150
                                                       1.150   1.150   1.150
                                                       1.150

     PseudoPot. # 2 for La read from file:
     /afs/slac.stanford.edu/u/if/mamunm/psp/gbrv1.5pbe/La.UPF
     MD5 check sum: 5937b0c7494ba0601a847275249473aa
     Pseudo is Ultrasoft + core correction, Zval = 11.0
     Generated by new atomic code, or converted to UPF format
     Using radial grid of  995 points,  8 beta functions with:
                l(1) =   0
                l(2) =   0
                l(3) =   1
                l(4) =   1
                l(5) =   2
                l(6) =   2
                l(7) =   3
                l(8) =   3
     Q(r) pseudized with  8 coefficients,  rinner =    1.700   1.700   1.700
                                                       1.700   1.700   1.700
                                                       1.700

     vdW kernel table read from file vdW_kernel_table
     MD5 check sum: 095c7af220d748ca6e76c0b4c6cfb241

     atomic species   valence    mass     pseudopotential
        Re1           15.00   186.20700     Re( 1.00)
        La1           11.00   138.90547     La( 1.00)

     No symmetry found

   Cartesian axes

     site n.     atom                  positions (alat units)
         1           Re1 tau(   1) = (   0.0000000   0.0000000  10.0000000  )
         2           Re1 tau(   2) = (  -1.4840698   2.5704842  10.0000000  )
         3           Re1 tau(   3) = (   1.4840698   2.5704842  10.0000000  )
         4           La1 tau(   4) = (   2.9681395   0.0000000  10.0000000  )
         5           Re1 tau(   5) = (   2.9681395   1.7136561  12.4234758  )
         6           Re1 tau(   6) = (   1.4840698   4.2841404  12.4234758  )
         7           Re1 tau(   7) = (  -1.4840698   4.2841404  12.4234758  )
         8           La1 tau(   8) = (   0.0000000   1.7136561  12.4234758  )
         9           Re1 tau(   9) = (   0.0000759   3.6445302  14.4120926  )
        10           Re1 tau(  10) = (   1.6721835   0.7482154  14.4120845  )
        11           Re1 tau(  11) = (   4.2640793   0.7482409  14.4121066  )
        12           La1 tau(  12) = (   2.9681658   3.4273171  15.4708306  )

     number of k points=    20  Fermi-Dirac smearing, width (Ry)=  0.0110
                       cart. coord. in units 2pi/alat
        k(    1) = (   0.0000000   0.0000000   0.0000000), wk =   0.0555556
        k(    2) = (   0.0000000   0.0324193   0.0000000), wk =   0.1111111
        k(    3) = (   0.0000000   0.0648386   0.0000000), wk =   0.1111111
        k(    4) = (   0.0000000  -0.0972579   0.0000000), wk =   0.0555556
        k(    5) = (   0.0280759   0.0162097   0.0000000), wk =   0.1111111
        k(    6) = (   0.0280759   0.0486290   0.0000000), wk =   0.1111111
        k(    7) = (   0.0280759   0.0810483   0.0000000), wk =   0.1111111
        k(    8) = (   0.0280759  -0.0810483   0.0000000), wk =   0.1111111
        k(    9) = (   0.0280759  -0.0486290   0.0000000), wk =   0.1111111
        k(   10) = (   0.0280759  -0.0162097   0.0000000), wk =   0.1111111
        k(   11) = (   0.0561519   0.0324193   0.0000000), wk =   0.1111111
        k(   12) = (   0.0561519   0.0648386   0.0000000), wk =   0.1111111
        k(   13) = (   0.0561519   0.0972579   0.0000000), wk =   0.1111111
        k(   14) = (   0.0561519  -0.0648386   0.0000000), wk =   0.1111111
        k(   15) = (   0.0561519  -0.0324193   0.0000000), wk =   0.1111111
        k(   16) = (   0.0561519   0.0000000   0.0000000), wk =   0.1111111
        k(   17) = (  -0.0842278  -0.0486290   0.0000000), wk =   0.0555556
        k(   18) = (  -0.0842278  -0.0162097   0.0000000), wk =   0.1111111
        k(   19) = (  -0.0842278   0.0162097   0.0000000), wk =   0.1111111
        k(   20) = (  -0.0842278  -0.1458869   0.0000000), wk =   0.0555556

     Largest allocated arrays     est. size (Mb)     dimensions
     Largest temporary arrays     est. size (Mb)     dimensions

     Initial potential from superposition of free atoms
     Check: negative starting charge=   -1.365835

     starting charge  163.40339, renormalised to  168.00000

[...]

     *
     * You are using vdW-DF for exchange-correlation in this calculation.
     * Please cite the following three references that made this development
     * possible:
     *
     *   M. Dion, H. Rydberg, E. Schroder, D. C. Langreth, and
     *   B. I. Lundqvist, Phys. Rev. Lett. 92, 246401 (2004).
     *
     *   T. Thonhauser, V. R. Cooper, S. Li, A. Puzder, P. Hyldgaard, and
     *   D. C. Langreth, Phys. Rev. B 76, 125112 (2007).
     *
     *   G. Roman-Perez and J. M. Soler, Phys. Rev. Lett. 103, 096102 (2009).
     *
     *
     * If you are using vdW-DF2, please also cite:
     *
     *   K. Lee, E. D. Murray, L. Kong, B. I. Lundqvist, and
     *   D. C. Langreth, Phys. Rev. B 82, 081101(R) (2010).
     *
     *
     * If you are calculating the stress with vdW-DF, please also cite:
     *
     *   R. Sabatini, E. Kucukbenli, B. Kolb, T. Thonhauser, and
     *   S. de Gironcoli, J. Phys.: Condens. Matter 24, 424209 (2012).
     *

     Carrying out vdW-DF run using the following parameters:

     Nqs =      20    Nr_points =    1024   r_max =   100.000
     q_mesh =
               0.00001000     0.04494208     0.09755937     0.15916263
               0.23128650     0.31572767     0.41458969     0.53033537
               0.66584808     0.82450364     1.01025438     1.22772762
               1.48234092     1.78043706     2.12944203     2.53805004
               3.01644009     3.57652955     4.23227104     5.00000000

     Gradients computed in reciprocal space

[...]

     Starting wfc are  177 randomized atomic wfcs

     Self-consistent Calculation

[...]

     total energy              =   -2040.80024329 Ry
     Harris-Foulkes estimate   =   -2040.80024598 Ry
     estimated scf accuracy    <       0.00000198 Ry

     iteration # 20     ecut=    36.75 Ry     beta=0.10
     Davidson diagonalization with overlap
     ethr =  1.18E-09,  avg # of iterations =  4.0

[...]

     negative rho (up, down):  1.290E+00 0.000E+00

     Adding external electric field

     Computed dipole along edir(3) :
        Dipole                0.5374 Ry au,          1.3659 Debye
        Dipole field          0.0013 Ry au

        Potential amp.       -0.1208 Ry
        Total length         45.7801 bohr

     End of self-consistent calculation

[...]

          k = 0.0562 0.0000 0.0000 ( 19249 PWs)   bands (ev):

[...]

          k =-0.0842-0.1459 0.0000 ( 19284 PWs)   bands (ev):

   -77.2147 -77.1930 -77.1847 -77.0978 -77.0580 -77.0562 -76.9060 -76.8994
   -76.8929 -39.4484 -39.3189 -39.2858 -39.1767 -39.1412 -39.0903 -38.9407
   -38.9341 -38.8648 -38.7752 -38.7627 -38.7382 -38.7085 -38.6585 -38.6224
   -38.6205 -38.6062 -38.5800 -38.5711 -38.5492 -38.5492 -38.5265 -38.5242
   -38.5145 -38.5060 -38.4946 -38.4280 -29.7133 -28.1449 -27.7894 -13.4407
   -13.4148 -13.3753 -12.3737 -12.2605 -12.2060 -12.1011 -12.0399 -11.9791
    -2.7354  -2.1148  -1.1428  -0.9229  -0.8487  -0.7190  -0.5906  -0.5245
    -0.3958  -0.3319  -0.1412  -0.0850   0.2675   0.4029   0.5726   0.7601
     0.7952   0.9068   1.0973   1.3222   1.3809   1.4899   1.5326   1.6169
     1.7944   1.8675   2.0027   2.0192   2.2093   2.2690   2.5083   2.6986
     2.7321   2.8504   2.9419   3.1290   3.2366   3.2692   3.4041   3.4883
     3.6164   3.6368   3.7234   3.7566   3.9423   4.1134   4.1914   4.6623
     4.6704   4.8750   4.9331   5.0252   5.0262   5.1137   5.2110   5.3328
     5.3368   5.4190   5.4437   5.4744   5.8160   6.0502   6.2369   6.5819
     6.6421   6.7834

     the Fermi energy is     3.2300 ev

!    total energy              =   -2040.80023407 Ry
     Harris-Foulkes estimate   =   -2040.80024062 Ry
     estimated scf accuracy    <       0.00000096 Ry

     The total energy is the sum of the following terms:

     one-electron contribution =  -13808.72455028 Ry
     hartree contribution      =    6901.28385026 Ry
     xc contribution           =    -639.81022406 Ry
     ewald contribution        =    5506.54784295 Ry
     electric field correction =       0.00070921 Ry
     smearing contrib. (-TS)   =      -0.09786216 Ry

     convergence has been achieved in  20 iterations

 BEEF-vdW xc energy contributions
           1 :   -568.610782139064
           2 :    527.426047240713
           3 :   -453.575970950765
           4 :    361.265485766638
           5 :   -266.187116383113
           6 :    181.546337180964
           7 :   -115.410883293019
           8 :    69.8956346043366
           9 :   -42.1621671203133
          10 :    26.6332623540443
          11 :   -17.4633454843319
          12 :    10.3679916070942
          13 :   -3.35370824903316
          14 :   -3.60059648308879
          15 :    9.48154953848575
          16 :   -13.2564708615306
          17 :    14.5420236280911
          18 :   -13.7616763681362
          19 :    11.8748852143947
          20 :   -9.91790453471845
          21 :    8.60900677647442
          22 :   -8.17587226697560
          23 :    8.41904926849361
          24 :   -8.92143228616521
          25 :    9.27642319645588
          26 :   -9.23910959503587
          27 :    8.76506973355663
          28 :   -7.96068518198717
          29 :    6.99618701329553
          30 :   -6.03270531484532
          31 :   -47.4035968065687
          32 :   -34.8558227183652

     Forces acting on atoms (Ry/au):

     negative rho (up, down):  1.290E+00 0.000E+00
     atom    1 type  1   force =     0.00000382   -0.04156458    0.03513324
     atom    2 type  1   force =    -0.03599572    0.02078084    0.03513671
     atom    3 type  1   force =     0.03599399    0.02078108    0.03513610
     atom    4 type  2   force =    -0.00000032    0.00000008   -0.11920359
     atom    5 type  1   force =     0.00000143    0.05533729    0.01950471
     atom    6 type  1   force =     0.04793516   -0.02766506    0.01949320
     atom    7 type  1   force =    -0.04793391   -0.02766288    0.01949536
     atom    8 type  2   force =    -0.00000730   -0.00001130   -0.04511758
     atom    9 type  1   force =     0.00000210   -0.00046892    0.00003326
     atom   10 type  1   force =    -0.00041205    0.00023150    0.00003334
     atom   11 type  1   force =     0.00040990    0.00024063    0.00003949
     atom   12 type  2   force =     0.00000291    0.00000131    0.00031577

     Total force =     0.188310     Total SCF correction =     0.001980

     entering subroutine stress ...

     negative rho (up, down):  1.290E+00 0.000E+00
          total   stress  (Ry/bohr**3)                   (kbar)     P=   -4.12
  -0.00003785   0.00000000   0.00000000         -5.57      0.00      0.00
   0.00000000  -0.00003784  -0.00000000          0.00     -5.57     -0.00
   0.00000000  -0.00000000  -0.00000823          0.00     -0.00     -1.21

 !ASE

     Writing output data file calc.save

     General routines

     Parallel routines

   This run was terminated on:  22:12: 5  31Dec2018

   JOB DONE.
Job  /afs/slac/g/suncat/bin/suncat-tsmpirun -x LD_LIBRARY_PATH -wdir /scratch/qe648845_77l2B pw.x -in pw.inp

TID   HOST_NAME   COMMAND_LINE            STATUS            TERMINATION_TIME
00000 suncat0068 pw.x -in pw.inp   Done                     12/31/2018 22:12:05
00001 suncat0068 pw.x -in pw.inp   Done                     12/31/2018 22:12:05
00002 suncat0068 pw.x -in pw.inp   Done                     12/31/2018 22:12:05
00003 suncat0068 pw.x -in pw.inp   Done                     12/31/2018 22:12:05
00004 suncat0068 pw.x -in pw.inp   Done                     12/31/2018 22:12:05
00005 suncat0068 pw.x -in pw.inp   Done                     12/31/2018 22:12:05
00006 suncat0068 pw.x -in pw.inp   Done                     12/31/2018 22:12:05
00007 suncat0068 pw.x -in pw.inp   Done                     12/31/2018 22:12:05
00008 suncat0059 pw.x -in pw.inp   Done                     12/31/2018 22:12:05
00009 suncat0059 pw.x -in pw.inp   Done                     12/31/2018 22:12:05
00010 suncat0059 pw.x -in pw.inp   Done                     12/31/2018 22:12:05
00011 suncat0059 pw.x -in pw.inp   Done                     12/31/2018 22:12:05
00012 suncat0059 pw.x -in pw.inp   Done                     12/31/2018 22:12:05
00013 suncat0059 pw.x -in pw.inp   Done                     12/31/2018 22:12:05
00014 suncat0059 pw.x -in pw.inp   Done                     12/31/2018 22:12:05
00015 suncat0059 pw.x -in pw.inp   Done                     12/31/2018 22:12:05
00016 suncat0031 pw.x -in pw.inp   Done                     12/31/2018 22:12:05
00017 suncat0031 pw.x -in pw.inp   Done                     12/31/2018 22:12:05
00018 suncat0031 pw.x -in pw.inp   Done                     12/31/2018 22:12:05
00019 suncat0031 pw.x -in pw.inp   Done                     12/31/2018 22:12:05
00020 suncat0031 pw.x -in pw.inp   Done                     12/31/2018 22:12:05
00021 suncat0031 pw.x -in pw.inp   Done                     12/31/2018 22:12:05
00022 suncat0031 pw.x -in pw.inp   Done                     12/31/2018 22:12:05
00023 suncat0031 pw.x -in pw.inp   Done                     12/31/2018 22:12:05
00024 suncat0030 pw.x -in pw.inp   Done                     12/31/2018 22:12:05
00025 suncat0030 pw.x -in pw.inp   Done                     12/31/2018 22:12:05
00026 suncat0030 pw.x -in pw.inp   Done                     12/31/2018 22:12:05
00027 suncat0030 pw.x -in pw.inp   Done                     12/31/2018 22:12:05
00028 suncat0030 pw.x -in pw.inp   Done                     12/31/2018 22:12:05
00029 suncat0030 pw.x -in pw.inp   Done                     12/31/2018 22:12:05
00030 suncat0030 pw.x -in pw.inp   Done                     12/31/2018 22:12:05
00031 suncat0030 pw.x -in pw.inp   Done                     12/31/2018 22:12:05
00032 suncat0280 pw.x -in pw.inp   Done                     12/31/2018 22:12:05
00033 suncat0280 pw.x -in pw.inp   Done                     12/31/2018 22:12:05
00034 suncat0280 pw.x -in pw.inp   Done                     12/31/2018 22:12:05
00035 suncat0280 pw.x -in pw.inp   Done                     12/31/2018 22:12:05
00036 suncat0280 pw.x -in pw.inp   Done                     12/31/2018 22:12:05
00037 suncat0280 pw.x -in pw.inp   Done                     12/31/2018 22:12:05
00038 suncat0280 pw.x -in pw.inp   Done                     12/31/2018 22:12:05
00039 suncat0280 pw.x -in pw.inp   Done                     12/31/2018 22:12:05
00040 suncat0279 pw.x -in pw.inp   Done                     12/31/2018 22:12:05
00041 suncat0279 pw.x -in pw.inp   Done                     12/31/2018 22:12:05
00042 suncat0279 pw.x -in pw.inp   Done                     12/31/2018 22:12:05
00043 suncat0279 pw.x -in pw.inp   Done                     12/31/2018 22:12:05
00044 suncat0279 pw.x -in pw.inp   Done                     12/31/2018 22:12:05
00045 suncat0279 pw.x -in pw.inp   Done                     12/31/2018 22:12:05
00046 suncat0279 pw.x -in pw.inp   Done                     12/31/2018 22:12:05
00047 suncat0279 pw.x -in pw.inp   Done                     12/31/2018 22:12:05
00048 suncat0278 pw.x -in pw.inp   Done                     12/31/2018 22:12:05
00049 suncat0278 pw.x -in pw.inp   Done                     12/31/2018 22:12:05
00050 suncat0278 pw.x -in pw.inp   Done                     12/31/2018 22:12:05
00051 suncat0278 pw.x -in pw.inp   Done                     12/31/2018 22:12:05
00052 suncat0278 pw.x -in pw.inp   Done                     12/31/2018 22:12:05
00053 suncat0278 pw.x -in pw.inp   Done                     12/31/2018 22:12:05
00054 suncat0278 pw.x -in pw.inp   Done                     12/31/2018 22:12:05
00055 suncat0278 pw.x -in pw.inp   Done                     12/31/2018 22:12:05
00056 suncat0099 pw.x -in pw.inp   Done                     12/31/2018 22:12:05
00057 suncat0099 pw.x -in pw.inp   Done                     12/31/2018 22:12:05
00058 suncat0099 pw.x -in pw.inp   Done                     12/31/2018 22:12:05
00059 suncat0099 pw.x -in pw.inp   Done                     12/31/2018 22:12:05
00060 suncat0099 pw.x -in pw.inp   Done                     12/31/2018 22:12:05
00061 suncat0099 pw.x -in pw.inp   Done                     12/31/2018 22:12:05
00062 suncat0099 pw.x -in pw.inp   Done                     12/31/2018 22:12:05
00063 suncat0099 pw.x -in pw.inp   Done                     12/31/2018 22:12:05