     Program PWSCF v.5.1rc2 (svn rev. 11289) starts on  1Jan2019 at 15:58:46

     Current dimensions of program PWSCF are:
     Max number of different atomic species (ntypx) = 10
     Max number of k-points (npk) =  40000
     Max angular momentum in pseudopotentials (lmaxx) =  3
     Presently stress not available with electric field

     IMPORTANT: XC functional enforced from input :
     Exchange-correlation      = BEEF-VDW ( 1  4 27 13 2)
     Any further DFT definition will be discarded
     Please, verify this is what you really want

     Subspace diagonalization in iterative solution of the eigenvalue problem:
     a serial algorithm will be used

     bravais-lattice index     =            0
     lattice parameter (alat)  =       1.8897  a.u.
     unit-cell volume          =    4793.4424 (a.u.)^3
     number of atoms/cell      =           12
     number of atomic types    =            2
     number of electrons       =       174.00
     number of Kohn-Sham states=          117
     kinetic-energy cutoff     =      36.7493  Ry
     charge density cutoff     =     367.4932  Ry
     convergence threshold     =      1.0E-06
     mixing beta               =       0.1000
     number of iterations used =           10  plain     mixing
     Exchange-correlation      = BEEF-VDW ( 1  4 27 13 2)
     nstep                     =           50

     celldm(1)=   1.889726  celldm(2)=   0.000000  celldm(3)=   0.000000
     celldm(4)=   0.000000  celldm(5)=   0.000000  celldm(6)=   0.000000

     crystal axes: (cart. coord. in units of alat)
               a(1) = (   5.761970   0.000000   0.000000 )
               a(2) = (  -2.880985   4.990012   0.000000 )
               a(3) = (   0.000000   0.000000  24.704629 )

     reciprocal axes: (cart. coord. in units 2 pi/alat)
               b(1) = (  0.173552  0.100200  0.000000 )
               b(2) = (  0.000000  0.200400  0.000000 )
               b(3) = (  0.000000  0.000000  0.040478 )

     PseudoPot. # 1 for Ta read from file:
     /afs/slac.stanford.edu/u/if/mamunm/psp/gbrv1.5pbe/Ta.UPF
     MD5 check sum: f8bbe9446314a3b8ea5d9f3e3836c939
     Pseudo is Ultrasoft + core correction, Zval = 13.0
     Generated by new atomic code, or converted to UPF format
     Using radial grid of  921 points,  7 beta functions with:
                l(1) =   0
                l(2) =   0
                l(3) =   1
                l(4) =   1
                l(5) =   2
                l(6) =   2
                l(7) =   3
     Q(r) pseudized with  6 coefficients,  rinner =    1.300   1.300   1.300
                                                       1.300   1.300   1.300
                                                       1.300

     PseudoPot. # 2 for Cu read from file:
     /afs/slac.stanford.edu/u/if/mamunm/psp/gbrv1.5pbe/Cu.UPF
     MD5 check sum: 6e991ff952a84172a2a52a1c1e996048
     Pseudo is Ultrasoft + core correction, Zval = 19.0
     Generated by new atomic code, or converted to UPF format
     Using radial grid of  867 points,  6 beta functions with:
                l(1) =   0
                l(2) =   0
                l(3) =   1
                l(4) =   1
                l(5) =   2
                l(6) =   2
     Q(r) pseudized with  8 coefficients,  rinner =    1.150   1.150   1.150
                                                       1.150   1.150

     vdW kernel table read from file vdW_kernel_table
     MD5 check sum: 095c7af220d748ca6e76c0b4c6cfb241

     atomic species   valence    mass     pseudopotential
        Ta1           13.00   180.94788     Ta( 1.00)
        Cu1           19.00    63.54600     Cu( 1.00)

     No symmetry found

   Cartesian axes

     site n.     atom                  positions (alat units)
         1           Ta1 tau(   1) = (   0.0000000   0.0000000  10.0000000  )
         2           Ta1 tau(   2) = (  -1.4404924   2.4950061  10.0000000  )
         3           Ta1 tau(   3) = (   1.4404924   2.4950061  10.0000000  )
         4           Cu1 tau(   4) = (   2.8809849   0.0000000  10.0000000  )
         5           Ta1 tau(   5) = (   2.8809849   1.6633374  12.3523143  )
         6           Ta1 tau(   6) = (   1.4404924   4.1583435  12.3523143  )
         7           Ta1 tau(   7) = (  -1.4404924   4.1583435  12.3523143  )
         8           Cu1 tau(   8) = (   0.0000000   1.6633374  12.3523143  )
         9           Ta1 tau(   9) = (  -0.0000000   3.3266748  14.7046286  )
        10           Ta1 tau(  10) = (   1.4404924   0.8316687  14.7046286  )
        11           Ta1 tau(  11) = (   4.3214773   0.8316687  14.7046286  )
        12           Cu1 tau(  12) = (   2.8809849   3.3266748  14.7046286  )

     number of k points=    20  Fermi-Dirac smearing, width (Ry)=  0.0110
                       cart. coord. in units 2pi/alat
        k(    1) = (   0.0000000   0.0000000   0.0000000), wk =   0.0555556
        k(    2) = (   0.0000000   0.0334001   0.0000000), wk =   0.1111111
        k(    3) = (   0.0000000   0.0668001   0.0000000), wk =   0.1111111
        k(    4) = (   0.0000000  -0.1002002   0.0000000), wk =   0.0555556
        k(    5) = (   0.0289253   0.0167000   0.0000000), wk =   0.1111111
        k(    6) = (   0.0289253   0.0501001   0.0000000), wk =   0.1111111
        k(    7) = (   0.0289253   0.0835001   0.0000000), wk =   0.1111111
        k(    8) = (   0.0289253  -0.0835001   0.0000000), wk =   0.1111111
        k(    9) = (   0.0289253  -0.0501001   0.0000000), wk =   0.1111111
        k(   10) = (   0.0289253  -0.0167000   0.0000000), wk =   0.1111111
        k(   11) = (   0.0578506   0.0334001   0.0000000), wk =   0.1111111
        k(   12) = (   0.0578506   0.0668001   0.0000000), wk =   0.1111111
        k(   13) = (   0.0578506   0.1002002   0.0000000), wk =   0.1111111
        k(   14) = (   0.0578506  -0.0668001   0.0000000), wk =   0.1111111
        k(   15) = (   0.0578506  -0.0334001   0.0000000), wk =   0.1111111
        k(   16) = (   0.0578506   0.0000000   0.0000000), wk =   0.1111111
        k(   17) = (  -0.0867759  -0.0501001   0.0000000), wk =   0.0555556
        k(   18) = (  -0.0867759  -0.0167000   0.0000000), wk =   0.1111111
        k(   19) = (  -0.0867759   0.0167000   0.0000000), wk =   0.1111111
        k(   20) = (  -0.0867759  -0.1503002   0.0000000), wk =   0.0555556

     Largest allocated arrays     est. size (Mb)     dimensions
     Largest temporary arrays     est. size (Mb)     dimensions

     Initial potential from superposition of free atoms
     Check: negative starting charge=   -0.840950

     starting charge  170.98999, renormalised to  174.00000

     negative rho (up, down):  8.558E-01 0.000E+00

     *
     * You are using vdW-DF for exchange-correlation in this calculation.
     * Please cite the following three references that made this development
     * possible:
     *
     *   M. Dion, H. Rydberg, E. Schroder, D. C. Langreth, and
     *   B. I. Lundqvist, Phys. Rev. Lett. 92, 246401 (2004).
     *
     *   T. Thonhauser, V. R. Cooper, S. Li, A. Puzder, P. Hyldgaard, and
     *   D. C. Langreth, Phys. Rev. B 76, 125112 (2007).
     *
     *   G. Roman-Perez and J. M. Soler, Phys. Rev. Lett. 103, 096102 (2009).
     *
     *
     * If you are using vdW-DF2, please also cite:
     *
     *   K. Lee, E. D. Murray, L. Kong, B. I. Lundqvist, and
     *   D. C. Langreth, Phys. Rev. B 82, 081101(R) (2010).
     *
     *
     * If you are calculating the stress with vdW-DF, please also cite:
     *
     *   R. Sabatini, E. Kucukbenli, B. Kolb, T. Thonhauser, and
     *   S. de Gironcoli, J. Phys.: Condens. Matter 24, 424209 (2012).
     *

     Carrying out vdW-DF run using the following parameters:

     Nqs =      20    Nr_points =    1024   r_max =   100.000
     q_mesh =
               0.00001000     0.04494208     0.09755937     0.15916263
               0.23128650     0.31572767     0.41458969     0.53033537
               0.66584808     0.82450364     1.01025438     1.22772762
               1.48234092     1.78043706     2.12944203     2.53805004
               3.01644009     3.57652955     4.23227104     5.00000000

     Gradients computed in reciprocal space

     Adding external electric field

     Computed dipole along edir(3) :
        Dipole                0.0000 Ry au,          0.0000 Debye
        Dipole field          0.0000 Ry au

        Potential amp.       -0.0000 Ry
        Total length         45.5179 bohr

     Starting wfc are  156 randomized atomic wfcs

     Self-consistent Calculation

     iteration #  1     ecut=    36.75 Ry     beta=0.10
     Davidson diagonalization with overlap
     ethr =  1.00E-02,  avg # of iterations =  2.0

[...]

     total energy              =   -2503.49451372 Ry
     Harris-Foulkes estimate   =   -2504.66428294 Ry
     estimated scf accuracy    <       6.70295865 Ry

[...]

     End of self-consistent calculation

          k = 0.0000 0.0000 0.0000 ( 18067 PWs)   bands (ev):

  -111.1578-111.0738-111.0738 -68.5274 -68.5274 -68.5215 -68.4658 -68.4658
   -68.4658 -68.4658 -68.4175 -68.4174 -66.5962 -66.5923 -66.5281 -66.5281
   -66.5271 -66.5271 -66.3432 -66.2796 -66.2796 -33.4345 -33.3530 -33.2637
   -33.1844 -33.1844 -33.1843 -33.1320 -33.1320 -33.0983 -33.0983 -33.0484
   -32.9322 -32.9322 -32.7731 -32.7731 -32.6936 -32.6507 -32.4945 -32.4926
   -32.4926 -32.4340 -32.4340 -32.4255 -32.4255 -32.3894 -32.2681 -32.2681
    -5.9076  -4.2827  -3.2337  -2.8200  -2.7190  -2.4414  -2.4414  -2.3339
    -2.3339  -1.9837  -1.9373  -1.9373  -1.8639  -1.8589  -1.8589  -1.3212
    -1.3212  -1.1549  -1.1549  -1.0817  -0.7655  -0.3725  -0.1655  -0.1655
    -0.1388   0.2653   0.2653   0.2873   0.2873   0.6076   0.6076   1.0553
     1.0553   1.1001   1.2528   1.6397   1.6397   2.0158   2.0158   2.0909
     2.1801   2.5772   2.5772   2.5929   2.8267   3.1414   3.1414   3.5504
     4.3852   4.3852   4.4002   4.6928   4.6928   4.8829   4.9464   4.9464
     5.1052   5.1052   5.2912   5.2913   5.6134   5.8081   5.8811   5.9170
     5.9170   5.9398   5.9398   6.0368   6.0368

[...]

          k =-0.0868-0.0501 0.0000 ( 18020 PWs)   bands (ev):

[...]

     the Fermi energy is     1.7149 ev

!    total energy              =   -2503.44736852 Ry
     Harris-Foulkes estimate   =   -2503.44736550 Ry
     estimated scf accuracy    <       0.00000040 Ry

     The total energy is the sum of the following terms:

     one-electron contribution =  -16285.61868665 Ry
     hartree contribution      =    8133.94145482 Ry
     xc contribution           =    -512.02902822 Ry
     ewald contribution        =    6160.34156876 Ry
     electric field correction =       0.00000000 Ry
     smearing contrib. (-TS)   =      -0.08267723 Ry

     convergence has been achieved in  20 iterations

 BEEF-vdW xc energy contributions
           1 :   -451.327475709917
           2 :    415.062036090151
           3 :   -352.080491895941
           4 :    277.502837955485
           5 :   -206.257666890189
           6 :    148.256797255352
           7 :   -106.433418913114
           8 :    77.9952409379155
           9 :   -57.6791611276494
          10 :    41.0373077888307
          11 :   -26.1740494442317
[...]
     Generated by new atomic code, or converted to UPF format
     Using radial grid of  921 points,  7 beta functions with:
                l(1) =   0
                l(2) =   0
                l(3) =   1
                l(4) =   1
                l(5) =   2
                l(6) =   2
                l(7) =   3
     Q(r) pseudized with  6 coefficients,  rinner =    1.300   1.300   1.300
                                                       1.300   1.300   1.300
                                                       1.300

     PseudoPot. # 2 for Cu read from file:
     /afs/slac.stanford.edu/u/if/mamunm/psp/gbrv1.5pbe/Cu.UPF
     MD5 check sum: 6e991ff952a84172a2a52a1c1e996048
     Pseudo is Ultrasoft + core correction, Zval = 19.0
     Generated by new atomic code, or converted to UPF format
     Using radial grid of  867 points,  6 beta functions with:
                l(1) =   0
                l(2) =   0
                l(3) =   1
                l(4) =   1
                l(5) =   2
                l(6) =   2
     Q(r) pseudized with  8 coefficients,  rinner =    1.150   1.150   1.150
                                                       1.150   1.150

     vdW kernel table read from file vdW_kernel_table
     MD5 check sum: 095c7af220d748ca6e76c0b4c6cfb241

     atomic species   valence    mass     pseudopotential
        Ta1           13.00   180.94788     Ta( 1.00)
        Cu1           19.00    63.54600     Cu( 1.00)

     No symmetry found

   Cartesian axes

     site n.     atom                  positions (alat units)
         1           Ta1 tau(   1) = (   0.0000000   0.0000000  10.0000000  )
         2           Ta1 tau(   2) = (  -1.4404924   2.4950061  10.0000000  )
         3           Ta1 tau(   3) = (   1.4404924   2.4950061  10.0000000  )
         4           Cu1 tau(   4) = (   2.8809849   0.0000000  10.0000000  )
         5           Ta1 tau(   5) = (   2.8809849   1.6633374  12.3523143  )
         6           Ta1 tau(   6) = (   1.4404924   4.1583435  12.3523143  )
         7           Ta1 tau(   7) = (  -1.4404924   4.1583435  12.3523143  )
         8           Cu1 tau(   8) = (   0.0000000   1.6633374  12.3523143  )
         9           Ta1 tau(   9) = (  -0.0000036   3.2929253  14.6257428  )
        10           Ta1 tau(  10) = (   1.4112620   0.8485437  14.6257423  )
        11           Ta1 tau(  11) = (   4.3507043   0.8485461  14.6257433  )
        12           Cu1 tau(  12) = (   2.8809703   3.3266776  14.6705805  )

     number of k points=    20  Fermi-Dirac smearing, width (Ry)=  0.0110
                       cart. coord. in units 2pi/alat
        k(    1) = (   0.0000000   0.0000000   0.0000000), wk =   0.0555556
        k(    2) = (   0.0000000   0.0334001   0.0000000), wk =   0.1111111
        k(    3) = (   0.0000000   0.0668001   0.0000000), wk =   0.1111111
        k(    4) = (   0.0000000  -0.1002002   0.0000000), wk =   0.0555556
        k(    5) = (   0.0289253   0.0167000   0.0000000), wk =   0.1111111
        k(    6) = (   0.0289253   0.0501001   0.0000000), wk =   0.1111111
        k(    7) = (   0.0289253   0.0835001   0.0000000), wk =   0.1111111
        k(    8) = (   0.0289253  -0.0835001   0.0000000), wk =   0.1111111
        k(    9) = (   0.0289253  -0.0501001   0.0000000), wk =   0.1111111
        k(   10) = (   0.0289253  -0.0167000   0.0000000), wk =   0.1111111
        k(   11) = (   0.0578506   0.0334001   0.0000000), wk =   0.1111111
        k(   12) = (   0.0578506   0.0668001   0.0000000), wk =   0.1111111
        k(   13) = (   0.0578506   0.1002002   0.0000000), wk =   0.1111111
        k(   14) = (   0.0578506  -0.0668001   0.0000000), wk =   0.1111111
        k(   15) = (   0.0578506  -0.0334001   0.0000000), wk =   0.1111111
        k(   16) = (   0.0578506   0.0000000   0.0000000), wk =   0.1111111
        k(   17) = (  -0.0867759  -0.0501001   0.0000000), wk =   0.0555556
        k(   18) = (  -0.0867759  -0.0167000   0.0000000), wk =   0.1111111
        k(   19) = (  -0.0867759   0.0167000   0.0000000), wk =   0.1111111
        k(   20) = (  -0.0867759  -0.1503002   0.0000000), wk =   0.0555556

     Largest allocated arrays     est. size (Mb)     dimensions
     Largest temporary arrays     est. size (Mb)     dimensions

     Initial potential from superposition of free atoms
     Check: negative starting charge=   -0.842270

     starting charge  170.98999, renormalised to  174.00000

[...]

     *
     * You are using vdW-DF for exchange-correlation in this calculation.
     * Please cite the following three references that made this development
     * possible:
     *
     *   M. Dion, H. Rydberg, E. Schroder, D. C. Langreth, and
     *   B. I. Lundqvist, Phys. Rev. Lett. 92, 246401 (2004).
     *
     *   T. Thonhauser, V. R. Cooper, S. Li, A. Puzder, P. Hyldgaard, and
     *   D. C. Langreth, Phys. Rev. B 76, 125112 (2007).
     *
     *   G. Roman-Perez and J. M. Soler, Phys. Rev. Lett. 103, 096102 (2009).
     *
     *
     * If you are using vdW-DF2, please also cite:
     *
     *   K. Lee, E. D. Murray, L. Kong, B. I. Lundqvist, and
     *   D. C. Langreth, Phys. Rev. B 82, 081101(R) (2010).
     *
     *
     * If you are calculating the stress with vdW-DF, please also cite:
     *
     *   R. Sabatini, E. Kucukbenli, B. Kolb, T. Thonhauser, and
     *   S. de Gironcoli, J. Phys.: Condens. Matter 24, 424209 (2012).
     *

     Carrying out vdW-DF run using the following parameters:

     Nqs =      20    Nr_points =    1024   r_max =   100.000
     q_mesh =
               0.00001000     0.04494208     0.09755937     0.15916263
               0.23128650     0.31572767     0.41458969     0.53033537
               0.66584808     0.82450364     1.01025438     1.22772762
               1.48234092     1.78043706     2.12944203     2.53805004
               3.01644009     3.57652955     4.23227104     5.00000000

     Gradients computed in reciprocal space

[...]

     Starting wfc are  156 randomized atomic wfcs

     Self-consistent Calculation

[...]

     total energy              =   -2503.46411898 Ry
     Harris-Foulkes estimate   =   -2503.46411778 Ry
     estimated scf accuracy    <       0.00000145 Ry

     iteration # 18     ecut=    36.75 Ry     beta=0.10
     Davidson diagonalization with overlap
     ethr =  8.34E-10,  avg # of iterations =  2.4

[...]

     negative rho (up, down):  8.791E-01 0.000E+00

     Adding external electric field

     Computed dipole along edir(3) :
        Dipole                0.0142 Ry au,          0.0361 Debye
        Dipole field          0.0000 Ry au

        Potential amp.       -0.0034 Ry
        Total length         45.5179 bohr

     End of self-consistent calculation

[...]

          k = 0.0579 0.0000 0.0000 ( 18043 PWs)   bands (ev):

[...]

          k =-0.0868-0.1503 0.0000 ( 18020 PWs)   bands (ev):

  -111.2211-111.0785-111.0734 -68.5934 -68.5860 -68.5859 -68.4705 -68.4705
   -68.4672 -68.4671 -68.4221 -68.4168 -66.5734 -66.5515 -66.5291 -66.5172
   -66.4907 -66.4687 -66.2863 -66.2660 -66.2447 -33.2572 -33.2214 -33.1831
   -33.1126 -33.0769 -33.0521 -33.0062 -32.9834 -32.9530 -32.9475 -32.9195
   -32.9038 -32.8793 -32.8456 -32.8276 -32.8079 -32.7714 -32.7142 -32.5881
   -32.5838 -32.5688 -32.4680 -32.4159 -32.4071 -32.3956 -32.3738 -32.2527
    -4.1443  -4.0831  -2.7568  -2.6404  -2.0570  -1.9831  -1.9120  -1.8915
    -1.8269  -1.7533  -1.5803  -1.5480  -1.4630  -1.3921  -1.3079  -1.2901
    -1.2899  -1.2115  -1.1767  -1.1047  -1.0671  -0.8886  -0.8440  -0.3737
    -0.1988   0.0981   0.2174   0.2512   0.2695   0.4239   0.4406   0.6713
     0.8595   0.9290   0.9609   1.1010   1.1900   1.2700   1.4932   1.5051
     1.7919   1.8827   2.1863   2.3010   2.3699   2.5462   2.6336   2.7662
     3.1991   3.9321   3.9891   3.9965   4.1076   4.2179   4.2769   4.3610
     4.5360   4.6221   4.6493   4.9174   5.0988   5.2810   5.4196   5.4753
     6.1855   6.2031   6.2909   6.4003   7.0356

     the Fermi energy is     1.7137 ev

!    total energy              =   -2503.46412329 Ry
     Harris-Foulkes estimate   =   -2503.46411892 Ry
     estimated scf accuracy    <       0.00000070 Ry

     The total energy is the sum of the following terms:

     one-electron contribution =  -16428.86744560 Ry
     hartree contribution      =    8205.64055188 Ry
     xc contribution           =    -512.18235870 Ry
     ewald contribution        =    6232.02581012 Ry
     electric field correction =       0.00000053 Ry
     smearing contrib. (-TS)   =      -0.08068151 Ry

     convergence has been achieved in  18 iterations

 BEEF-vdW xc energy contributions
           1 :   -451.819840666909
           2 :    415.601510920011
           3 :   -352.674158496116
           4 :    278.105330250487
           5 :   -206.796065499754
           6 :    148.677466054602
           7 :   -106.739887104475
           8 :    78.2507341559265
           9 :   -57.9702797982593
          10 :    41.4214982081455
          11 :   -26.6452127371101
          12 :    13.9947234432062
          13 :   -4.66814963630247
          14 :  -0.810019193925029
          15 :    3.22272862238526
          16 :   -4.22779407311327
          17 :    5.36454845247965
          18 :   -7.24723122059186
          19 :    9.43326422813630
          20 :   -10.9533067506931
          21 :    11.0818920794974
          22 :   -9.84237906552738
          23 :    7.97019719202922
          24 :   -6.42750013144337
          25 :    5.82735229681509
          26 :   -6.13837923325536
          27 :    6.81651023710646
          28 :   -7.22318329284144
          29 :    7.02636626721880
          30 :   -6.33518863128029
          31 :   -39.2341687588332
          32 :   -28.6455783330326

     Forces acting on atoms (Ry/au):

     negative rho (up, down):  8.791E-01 0.000E+00
     atom    1 type  1   force =     0.00000038    0.01382668    0.01384672
     atom    2 type  1   force =     0.01197446   -0.00691315    0.01384678
     atom    3 type  1   force =    -0.01197440   -0.00691348    0.01384659
     atom    4 type  2   force =     0.00000115    0.00000008    0.00633070
     atom    5 type  1   force =     0.00000003    0.00448755   -0.01099543
     atom    6 type  1   force =     0.00388585   -0.00224338   -0.01099537
     atom    7 type  1   force =    -0.00388659   -0.00224382   -0.01099562
     atom    8 type  2   force =    -0.00000011    0.00000006   -0.01342069
     atom    9 type  1   force =    -0.00000052    0.00160267   -0.00018811
     atom   10 type  1   force =     0.00138728   -0.00080132   -0.00018788
     atom   11 type  1   force =    -0.00138841   -0.00080140   -0.00018787
     atom   12 type  2   force =     0.00000089   -0.00000049   -0.00089984

     Total force =     0.042434     Total SCF correction =     0.005178
     SCF correction compared to forces is large: reduce conv_thr to get better values

     entering subroutine stress ...

     negative rho (up, down):  8.791E-01 0.000E+00
          total   stress  (Ry/bohr**3)                   (kbar)     P=  -21.69
  -0.00017404  -0.00000000   0.00000000        -25.60     -0.00      0.00
  -0.00000000  -0.00017404  -0.00000000         -0.00    -25.60     -0.00
   0.00000000  -0.00000000  -0.00009424          0.00     -0.00    -13.86

 !ASE

     Writing output data file calc.save

     General routines

     Parallel routines

   This run was terminated on:  16:42:49   1Jan2019

   JOB DONE.
Job  /afs/slac/g/suncat/bin/suncat-tsmpirun -x LD_LIBRARY_PATH -wdir /scratch/qe649094_PdVdV pw.x -in pw.inp

TID   HOST_NAME   COMMAND_LINE            STATUS            TERMINATION_TIME
00000 suncat0010 pw.x -in pw.inp   Done                     01/01/2019 16:42:49
00001 suncat0010 pw.x -in pw.inp   Done                     01/01/2019 16:42:49
00002 suncat0010 pw.x -in pw.inp   Done                     01/01/2019 16:42:49
00003 suncat0010 pw.x -in pw.inp   Done                     01/01/2019 16:42:49
00004 suncat0010 pw.x -in pw.inp   Done                     01/01/2019 16:42:49
00005 suncat0010 pw.x -in pw.inp   Done                     01/01/2019 16:42:49
00006 suncat0010 pw.x -in pw.inp   Done                     01/01/2019 16:42:49
00007 suncat0010 pw.x -in pw.inp   Done                     01/01/2019 16:42:49
00008 suncat0191 pw.x -in pw.inp   Done                     01/01/2019 16:42:49
00009 suncat0191 pw.x -in pw.inp   Done                     01/01/2019 16:42:49
00010 suncat0191 pw.x -in pw.inp   Done                     01/01/2019 16:42:49
00011 suncat0191 pw.x -in pw.inp   Done                     01/01/2019 16:42:49
00012 suncat0191 pw.x -in pw.inp   Done                     01/01/2019 16:42:49
00013 suncat0191 pw.x -in pw.inp   Done                     01/01/2019 16:42:49
00014 suncat0191 pw.x -in pw.inp   Done                     01/01/2019 16:42:49
00015 suncat0191 pw.x -in pw.inp   Done                     01/01/2019 16:42:49
00016 suncat0007 pw.x -in pw.inp   Done                     01/01/2019 16:42:49
00017 suncat0007 pw.x -in pw.inp   Done                     01/01/2019 16:42:49
00018 suncat0007 pw.x -in pw.inp   Done                     01/01/2019 16:42:49
00019 suncat0007 pw.x -in pw.inp   Done                     01/01/2019 16:42:49
00020 suncat0007 pw.x -in pw.inp   Done                     01/01/2019 16:42:49
00021 suncat0007 pw.x -in pw.inp   Done                     01/01/2019 16:42:49
00022 suncat0007 pw.x -in pw.inp   Done                     01/01/2019 16:42:49
00023 suncat0007 pw.x -in pw.inp   Done                     01/01/2019 16:42:49
00024 suncat0180 pw.x -in pw.inp   Done                     01/01/2019 16:42:49
00025 suncat0180 pw.x -in pw.inp   Done                     01/01/2019 16:42:49
00026 suncat0180 pw.x -in pw.inp   Done                     01/01/2019 16:42:49
00027 suncat0180 pw.x -in pw.inp   Done                     01/01/2019 16:42:49
00028 suncat0180 pw.x -in pw.inp   Done                     01/01/2019 16:42:49
00029 suncat0180 pw.x -in pw.inp   Done                     01/01/2019 16:42:49
00030 suncat0180 pw.x -in pw.inp   Done                     01/01/2019 16:42:49
00031 suncat0180 pw.x -in pw.inp   Done                     01/01/2019 16:42:49
00032 suncat0167 pw.x -in pw.inp   Done                     01/01/2019 16:42:49
00033 suncat0167 pw.x -in pw.inp   Done                     01/01/2019 16:42:49
00034 suncat0167 pw.x -in pw.inp   Done                     01/01/2019 16:42:49
00035 suncat0167 pw.x -in pw.inp   Done                     01/01/2019 16:42:49
00036 suncat0167 pw.x -in pw.inp   Done                     01/01/2019 16:42:49
00037 suncat0167 pw.x -in pw.inp   Done                     01/01/2019 16:42:49
00038 suncat0167 pw.x -in pw.inp   Done                     01/01/2019 16:42:49
00039 suncat0167 pw.x -in pw.inp   Done                     01/01/2019 16:42:49
00040 suncat0161 pw.x -in pw.inp   Done                     01/01/2019 16:42:49
00041 suncat0161 pw.x -in pw.inp   Done                     01/01/2019 16:42:49
00042 suncat0161 pw.x -in pw.inp   Done                     01/01/2019 16:42:49
00043 suncat0161 pw.x -in pw.inp   Done                     01/01/2019 16:42:49
00044 suncat0161 pw.x -in pw.inp   Done                     01/01/2019 16:42:49
00045 suncat0161 pw.x -in pw.inp   Done                     01/01/2019 16:42:49
00046 suncat0161 pw.x -in pw.inp   Done                     01/01/2019 16:42:49
00047 suncat0161 pw.x -in pw.inp   Done                     01/01/2019 16:42:49
00048 suncat0137 pw.x -in pw.inp   Done                     01/01/2019 16:42:49
00049 suncat0137 pw.x -in pw.inp   Done                     01/01/2019 16:42:49
00050 suncat0137 pw.x -in pw.inp   Done                     01/01/2019 16:42:49
00051 suncat0137 pw.x -in pw.inp   Done                     01/01/2019 16:42:49
00052 suncat0137 pw.x -in pw.inp   Done                     01/01/2019 16:42:49
00053 suncat0137 pw.x -in pw.inp   Done                     01/01/2019 16:42:49
00054 suncat0137 pw.x -in pw.inp   Done                     01/01/2019 16:42:49
00055 suncat0137 pw.x -in pw.inp   Done                     01/01/2019 16:42:49
00056 suncat0100 pw.x -in pw.inp   Done                     01/01/2019 16:42:49
00057 suncat0100 pw.x -in pw.inp   Done                     01/01/2019 16:42:49
00058 suncat0100 pw.x -in pw.inp   Done                     01/01/2019 16:42:49
00059 suncat0100 pw.x -in pw.inp   Done                     01/01/2019 16:42:49
00060 suncat0100 pw.x -in pw.inp   Done                     01/01/2019 16:42:49
00061 suncat0100 pw.x -in pw.inp   Done                     01/01/2019 16:42:49
00062 suncat0100 pw.x -in pw.inp   Done                     01/01/2019 16:42:49
00063 suncat0100 pw.x -in pw.inp   Done                     01/01/2019 16:42:49