     Program PWSCF v.5.1rc2 (svn rev. 11289) starts on 25Dec2018 at 15:49:28

     Current dimensions of program PWSCF are:
     Max number of different atomic species (ntypx) = 10
     Max number of k-points (npk) =  40000
     Max angular momentum in pseudopotentials (lmaxx) =  3
     Presently stress not available with electric field

     IMPORTANT: XC functional enforced from input :
     Exchange-correlation      = BEEF-VDW ( 1  4 27 13 2)
     Any further DFT definition will be discarded
     Please, verify this is what you really want

     Subspace diagonalization in iterative solution of the eigenvalue problem:
     a serial algorithm will be used

     bravais-lattice index     =            0
     lattice parameter (alat)  =       1.8897  a.u.
     unit-cell volume          =    4332.8211 (a.u.)^3
     number of atoms/cell      =           12
     number of atomic types    =            2
     number of electrons       =       210.00
     number of Kohn-Sham states=          135
     kinetic-energy cutoff     =      36.7493  Ry
     charge density cutoff     =     367.4932  Ry
     convergence threshold     =      1.0E-06
     mixing beta               =       0.1000
     number of iterations used =           10  plain     mixing
     Exchange-correlation      = BEEF-VDW ( 1  4 27 13 2)
     nstep                     =           50

     celldm(1)=   1.889726  celldm(2)=   0.000000  celldm(3)=   0.000000
     celldm(4)=   0.000000  celldm(5)=   0.000000  celldm(6)=   0.000000

     crystal axes: (cart. coord. in units of alat)
               a(1) = (   5.501835   0.000000   0.000000 )
               a(2) = (  -2.750918   4.764729   0.000000 )
               a(3) = (   0.000000   0.000000  24.492230 )

     reciprocal axes: (cart. coord. in units 2 pi/alat)
               b(1) = (  0.181758  0.104938  0.000000 )
               b(2) = (  0.000000  0.209876  0.000000 )
               b(3) = (  0.000000  0.000000  0.040829 )

     PseudoPot. # 1 for Cu read from file:
     /afs/slac.stanford.edu/u/if/mamunm/psp/gbrv1.5pbe/Cu.UPF
     MD5 check sum: 6e991ff952a84172a2a52a1c1e996048
     Pseudo is Ultrasoft + core correction, Zval = 19.0
     Generated by new atomic code, or converted to UPF format
     Using radial grid of  867 points,  6 beta functions with:
                l(1) =   0
                l(2) =   0
                l(3) =   1
                l(4) =   1
                l(5) =   2
                l(6) =   2
     Q(r) pseudized with  8 coefficients,  rinner =    1.150   1.150   1.150
                                                       1.150   1.150

     PseudoPot. # 2 for In read from file:
     /afs/slac.stanford.edu/u/if/mamunm/psp/gbrv1.5pbe/In.UPF
     MD5 check sum: 90777abd96fbb83f2e67db2a40c566b9
     Pseudo is Ultrasoft + core correction, Zval = 13.0
     Generated by new atomic code, or converted to UPF format
     Using radial grid of  889 points,  6 beta functions with:
                l(1) =   0
                l(2) =   0
                l(3) =   1
                l(4) =   1
                l(5) =   2
                l(6) =   2
     Q(r) pseudized with  6 coefficients,  rinner =    1.400   1.400   1.400
                                                       1.400   1.400

     vdW kernel table read from file vdW_kernel_table
     MD5 check sum: 095c7af220d748ca6e76c0b4c6cfb241

     atomic species   valence    mass     pseudopotential
        Cu1           19.00    63.54600     Cu( 1.00)
        In1           13.00   114.81800     In( 1.00)

     No symmetry found

   Cartesian axes

     site n.     atom                  positions (alat units)
         1           Cu1 tau(   1) = (   0.0000000   0.0000000  10.0000000  )
         2           Cu1 tau(   2) = (  -1.3754589   2.3823646  10.0000000  )
         3           Cu1 tau(   3) = (   1.3754589   2.3823646  10.0000000  )
         4           In1 tau(   4) = (   2.7509177   0.0000000  10.0000000  )
         5           Cu1 tau(   5) = (   2.7509177   1.5882431  12.2461149  )
         6           Cu1 tau(   6) = (   1.3754589   3.9706077  12.2461149  )
         7           Cu1 tau(   7) = (  -1.3754589   3.9706077  12.2461149  )
         8           In1 tau(   8) = (   0.0000000   1.5882431  12.2461149  )
         9           Cu1 tau(   9) = (  -0.0000000   3.1764862  14.4922298  )
        10           Cu1 tau(  10) = (   1.3754589   0.7941215  14.4922298  )
        11           Cu1 tau(  11) = (   4.1263766   0.7941215  14.4922298  )
        12           In1 tau(  12) = (   2.7509177   3.1764862  14.4922298  )

     number of k points=    20  Fermi-Dirac smearing, width (Ry)=  0.0110
                       cart. coord. in units 2pi/alat
        k(    1) = (   0.0000000   0.0000000   0.0000000), wk =   0.0555556
        k(    2) = (   0.0000000   0.0349793   0.0000000), wk =   0.1111111
        k(    3) = (   0.0000000   0.0699585   0.0000000), wk =   0.1111111
        k(    4) = (   0.0000000  -0.1049378   0.0000000), wk =   0.0555556
        k(    5) = (   0.0302929   0.0174896   0.0000000), wk =   0.1111111
        k(    6) = (   0.0302929   0.0524689   0.0000000), wk =   0.1111111
        k(    7) = (   0.0302929   0.0874481   0.0000000), wk =   0.1111111
        k(    8) = (   0.0302929  -0.0874481   0.0000000), wk =   0.1111111
        k(    9) = (   0.0302929  -0.0524689   0.0000000), wk =   0.1111111
        k(   10) = (   0.0302929  -0.0174896   0.0000000), wk =   0.1111111
        k(   11) = (   0.0605858   0.0349793   0.0000000), wk =   0.1111111
        k(   12) = (   0.0605858   0.0699585   0.0000000), wk =   0.1111111
        k(   13) = (   0.0605858   0.1049378   0.0000000), wk =   0.1111111
        k(   14) = (   0.0605858  -0.0699585   0.0000000), wk =   0.1111111
        k(   15) = (   0.0605858  -0.0349793   0.0000000), wk =   0.1111111
        k(   16) = (   0.0605858   0.0000000   0.0000000), wk =   0.1111111
        k(   17) = (  -0.0908788  -0.0524689   0.0000000), wk =   0.0555556
        k(   18) = (  -0.0908788  -0.0174896   0.0000000), wk =   0.1111111
        k(   19) = (  -0.0908788   0.0174896   0.0000000), wk =   0.1111111
        k(   20) = (  -0.0908788  -0.1574066   0.0000000), wk =   0.0555556

     Largest allocated arrays     est. size (Mb)     dimensions
     Largest temporary arrays     est. size (Mb)     dimensions

     Initial potential from superposition of free atoms
     Check: negative starting charge=   -0.000154

     starting charge  196.49998, renormalised to  210.00000

     negative rho (up, down):  1.647E-04 0.000E+00

     *
     * You are using vdW-DF for exchange-correlation in this calculation.
     * Please cite the following three references that made this development
     * possible:
     *
     *   M. Dion, H. Rydberg, E. Schroder, D. C. Langreth, and
     *   B. I. Lundqvist, Phys. Rev. Lett. 92, 246401 (2004).
     *
     *   T. Thonhauser, V. R. Cooper, S. Li, A. Puzder, P. Hyldgaard, and
     *   D. C. Langreth, Phys. Rev. B 76, 125112 (2007).
     *
     *   G. Roman-Perez and J. M. Soler, Phys. Rev. Lett. 103, 096102 (2009).
     *
     *
     * If you are using vdW-DF2, please also cite:
     *
     *   K. Lee, E. D. Murray, L. Kong, B. I. Lundqvist, and
     *   D. C. Langreth, Phys. Rev. B 82, 081101(R) (2010).
     *
     *
     * If you are calculating the stress with vdW-DF, please also cite:
     *
     *   R. Sabatini, E. Kucukbenli, B. Kolb, T. Thonhauser, and
     *   S. de Gironcoli, J. Phys.: Condens. Matter 24, 424209 (2012).
     *

     Carrying out vdW-DF run using the following parameters:

     Nqs =      20    Nr_points =    1024   r_max =   100.000
     q_mesh =
               0.00001000     0.04494208     0.09755937     0.15916263
               0.23128650     0.31572767     0.41458969     0.53033537
               0.66584808     0.82450364     1.01025438     1.22772762
               1.48234092     1.78043706     2.12944203     2.53805004
               3.01644009     3.57652955     4.23227104     5.00000000

     Gradients computed in reciprocal space

     Adding external electric field

     Computed dipole along edir(3) :
        Dipole               -0.0000 Ry au,         -0.0000 Debye
        Dipole field         -0.0000 Ry au

        Potential amp.        0.0000 Ry
        Total length         45.1265 bohr

     Starting wfc are  144 randomized atomic wfcs

     Self-consistent Calculation

     iteration #  1     ecut=    36.75 Ry     beta=0.10
     Davidson diagonalization with overlap
     ethr =  1.00E-02,  avg # of iterations =  7.7

[...]

     total energy              =   -3966.42516384 Ry
     Harris-Foulkes estimate   =   -4073.92805639 Ry
     estimated scf accuracy    <     602.62998214 Ry

[...]

     End of self-consistent calculation

          k = 0.0000 0.0000 0.0000 ( 16211 PWs)   bands (ev):

  -112.3611-112.3588-112.3588-111.9553-111.9551-111.9530-111.9530-111.9528
  -111.9528 -69.8037 -69.7966 -69.7966 -69.7853 -69.7853 -69.7818 -69.7041
   -69.6892 -69.6892 -69.4086 -69.4086 -69.4084 -69.4084 -69.3969 -69.3968
   -69.3717 -69.3716 -69.3507 -69.3507 -69.3505 -69.3505 -69.3124 -69.3120
   -69.3034 -69.3034 -69.3032 -69.3031 -14.4981 -14.4981 -14.4865 -14.4646
   -14.4646 -14.2277 -14.2232 -14.1912 -14.1912 -14.1855 -14.1855 -14.1717
   -14.1717 -14.1603 -14.1603  -8.7392  -6.8791  -5.4069  -3.9016  -3.6907
    -3.5708  -3.4410  -3.4410  -3.1672  -3.1672  -3.0484  -3.0473  -3.0473
    -2.9780  -2.9780  -2.7760  -2.5899  -2.5899  -2.5369  -2.5369  -2.4817
    -2.4629  -2.3944  -2.3037  -2.3037  -2.1921  -2.1921  -2.1898  -2.1271
    -2.1271  -1.8709  -1.8709  -1.8296  -1.8016  -1.8016  -1.7706  -1.7706
    -1.6917  -1.6687  -1.6687  -1.6196  -1.6196  -1.5567  -1.5188  -1.4528
    -1.4528  -1.2793  -1.2716  -0.8292  -0.8292  -0.6616  -0.1697   0.0399
     0.0399   0.1315   0.4723   0.4723   0.7463   2.2002   2.8439   2.8439
     3.4228   3.5797   4.1618   4.2750   4.2750   4.3840   4.8926   4.8926
     4.9161   5.8348   5.9516   7.2335   7.3072   7.4897   7.4897   7.7040
     7.7040   7.7057   8.0088   9.7324   9.7324   9.8754   9.9855

[...]

          k =-0.0909-0.0525 0.0000 ( 16280 PWs)   bands (ev):

[...]

     the Fermi energy is     0.4470 ev

!    total energy              =   -4048.70798797 Ry
     Harris-Foulkes estimate   =   -4048.70797923 Ry
     estimated scf accuracy    <       0.00000032 Ry

     The total energy is the sum of the following terms:

     one-electron contribution =  -27584.95770251 Ry
     hartree contribution      =   13822.66610423 Ry
     xc contribution           =    -477.61390829 Ry
     ewald contribution        =   10191.22538706 Ry
     electric field correction =       0.00000000 Ry
     smearing contrib. (-TS)   =      -0.02786847 Ry

     convergence has been achieved in  20 iterations

 BEEF-vdW xc energy contributions
           1 :   -422.221710112879
           2 :    383.711841780710
           3 :   -318.499437707926
           4 :    244.622269467015
           5 :   -178.518335198262
           6 :    129.048498766794
           7 :   -96.0559391615536
           8 :    73.4450715143129
           9 :   -54.3751746652749
[...]
     Using radial grid of  867 points,  6 beta functions with:
                l(1) =   0
                l(2) =   0
                l(3) =   1
                l(4) =   1
                l(5) =   2
                l(6) =   2
     Q(r) pseudized with  8 coefficients,  rinner =    1.150   1.150   1.150
                                                       1.150   1.150

     PseudoPot. # 2 for In read from file:
     /afs/slac.stanford.edu/u/if/mamunm/psp/gbrv1.5pbe/In.UPF
     MD5 check sum: 90777abd96fbb83f2e67db2a40c566b9
     Pseudo is Ultrasoft + core correction, Zval = 13.0
     Generated by new atomic code, or converted to UPF format
     Using radial grid of  889 points,  6 beta functions with:
                l(1) =   0
                l(2) =   0
                l(3) =   1
                l(4) =   1
                l(5) =   2
                l(6) =   2
     Q(r) pseudized with  6 coefficients,  rinner =    1.400   1.400   1.400
                                                       1.400   1.400

     vdW kernel table read from file vdW_kernel_table
     MD5 check sum: 095c7af220d748ca6e76c0b4c6cfb241

     atomic species   valence    mass     pseudopotential
        Cu1           19.00    63.54600     Cu( 1.00)
        In1           13.00   114.81800     In( 1.00)

     No symmetry found

   Cartesian axes

     site n.     atom                  positions (alat units)
         1           Cu1 tau(   1) = (   0.0000000   0.0000000  10.0000000  )
         2           Cu1 tau(   2) = (  -1.3754589   2.3823646  10.0000000  )
         3           Cu1 tau(   3) = (   1.3754589   2.3823646  10.0000000  )
         4           In1 tau(   4) = (   2.7509177   0.0000000  10.0000000  )
         5           Cu1 tau(   5) = (   2.7509177   1.5882431  12.2461149  )
         6           Cu1 tau(   6) = (   1.3754589   3.9706077  12.2461149  )
         7           Cu1 tau(   7) = (  -1.3754589   3.9706077  12.2461149  )
         8           In1 tau(   8) = (   0.0000000   1.5882431  12.2461149  )
         9           Cu1 tau(   9) = (  -0.0000013   3.2585451  14.4074694  )
        10           Cu1 tau(  10) = (   1.4465125   0.7530975  14.4074891  )
        11           Cu1 tau(  11) = (   4.0553303   0.7530989  14.4074760  )
        12           In1 tau(  12) = (   2.7509113   3.1764830  14.8520936  )

     number of k points=    20  Fermi-Dirac smearing, width (Ry)=  0.0110
                       cart. coord. in units 2pi/alat
        k(    1) = (   0.0000000   0.0000000   0.0000000), wk =   0.0555556
        k(    2) = (   0.0000000   0.0349793   0.0000000), wk =   0.1111111
        k(    3) = (   0.0000000   0.0699585   0.0000000), wk =   0.1111111
        k(    4) = (   0.0000000  -0.1049378   0.0000000), wk =   0.0555556
        k(    5) = (   0.0302929   0.0174896   0.0000000), wk =   0.1111111
        k(    6) = (   0.0302929   0.0524689   0.0000000), wk =   0.1111111
        k(    7) = (   0.0302929   0.0874481   0.0000000), wk =   0.1111111
        k(    8) = (   0.0302929  -0.0874481   0.0000000), wk =   0.1111111
        k(    9) = (   0.0302929  -0.0524689   0.0000000), wk =   0.1111111
        k(   10) = (   0.0302929  -0.0174896   0.0000000), wk =   0.1111111
        k(   11) = (   0.0605858   0.0349793   0.0000000), wk =   0.1111111
        k(   12) = (   0.0605858   0.0699585   0.0000000), wk =   0.1111111
        k(   13) = (   0.0605858   0.1049378   0.0000000), wk =   0.1111111
        k(   14) = (   0.0605858  -0.0699585   0.0000000), wk =   0.1111111
        k(   15) = (   0.0605858  -0.0349793   0.0000000), wk =   0.1111111
        k(   16) = (   0.0605858   0.0000000   0.0000000), wk =   0.1111111
        k(   17) = (  -0.0908788  -0.0524689   0.0000000), wk =   0.0555556
        k(   18) = (  -0.0908788  -0.0174896   0.0000000), wk =   0.1111111
        k(   19) = (  -0.0908788   0.0174896   0.0000000), wk =   0.1111111
        k(   20) = (  -0.0908788  -0.1574066   0.0000000), wk =   0.0555556

     Largest allocated arrays     est. size (Mb)     dimensions
     Largest temporary arrays     est. size (Mb)     dimensions

     Initial potential from superposition of free atoms
     Check: negative starting charge=   -0.000157

     starting charge  196.49998, renormalised to  210.00000

[...]

     *
     * You are using vdW-DF for exchange-correlation in this calculation.
     * Please cite the following three references that made this development
     * possible:
     *
     *   M. Dion, H. Rydberg, E. Schroder, D. C. Langreth, and
     *   B. I. Lundqvist, Phys. Rev. Lett. 92, 246401 (2004).
     *
     *   T. Thonhauser, V. R. Cooper, S. Li, A. Puzder, P. Hyldgaard, and
     *   D. C. Langreth, Phys. Rev. B 76, 125112 (2007).
     *
     *   G. Roman-Perez and J. M. Soler, Phys. Rev. Lett. 103, 096102 (2009).
     *
     *
     * If you are using vdW-DF2, please also cite:
     *
     *   K. Lee, E. D. Murray, L. Kong, B. I. Lundqvist, and
     *   D. C. Langreth, Phys. Rev. B 82, 081101(R) (2010).
     *
     *
     * If you are calculating the stress with vdW-DF, please also cite:
     *
     *   R. Sabatini, E. Kucukbenli, B. Kolb, T. Thonhauser, and
     *   S. de Gironcoli, J. Phys.: Condens. Matter 24, 424209 (2012).
     *

     Carrying out vdW-DF run using the following parameters:

     Nqs =      20    Nr_points =    1024   r_max =   100.000
     q_mesh =
               0.00001000     0.04494208     0.09755937     0.15916263
               0.23128650     0.31572767     0.41458969     0.53033537
               0.66584808     0.82450364     1.01025438     1.22772762
               1.48234092     1.78043706     2.12944203     2.53805004
               3.01644009     3.57652955     4.23227104     5.00000000

     Gradients computed in reciprocal space

[...]

     Starting wfc are  144 randomized atomic wfcs

     Self-consistent Calculation

[...]

     total energy              =   -4048.72063315 Ry
     Harris-Foulkes estimate   =   -4048.72063221 Ry
     estimated scf accuracy    <       0.00000108 Ry

     iteration # 25     ecut=    36.75 Ry     beta=0.10
     Davidson diagonalization with overlap
     ethr =  5.15E-10,  avg # of iterations =  2.0

[...]

     negative rho (up, down):  1.081E-03 0.000E+00

     Adding external electric field

     Computed dipole along edir(3) :
        Dipole                0.0425 Ry au,          0.1079 Debye
        Dipole field          0.0001 Ry au

        Potential amp.       -0.0111 Ry
        Total length         45.1265 bohr

     End of self-consistent calculation

[...]

          k = 0.0606 0.0000 0.0000 ( 16322 PWs)   bands (ev):

[...]

          k =-0.0909-0.1574 0.0000 ( 16280 PWs)   bands (ev):

  -112.2431-112.2423-112.2415-111.9486-111.9465-111.9460-111.9154-111.9146
  -111.9138 -69.6814 -69.6770 -69.6739 -69.6623 -69.6577 -69.6524 -69.5959
   -69.5915 -69.5863 -69.3904 -69.3877 -69.3788 -69.3698 -69.3658 -69.3657
   -69.3626 -69.3501 -69.3462 -69.3238 -69.3173 -69.3108 -69.3107 -69.3034
   -69.3007 -69.2695 -69.2667 -69.2633 -14.4208 -14.4068 -14.3953 -14.3797
   -14.3757 -14.1860 -14.1508 -14.1479 -14.1337 -14.1231 -14.1190 -14.0851
   -14.0808 -14.0629 -14.0531  -7.1763  -6.6614  -5.4664  -4.8788  -3.9791
    -3.9671  -3.8438  -3.3067  -3.0854  -2.9950  -2.9912  -2.9409  -2.9320
    -2.7933  -2.7683  -2.7543  -2.6881  -2.6745  -2.5794  -2.5293  -2.5191
    -2.4172  -2.4004  -2.3440  -2.2918  -2.2621  -2.1731  -2.1519  -2.1470
    -2.1268  -2.1095  -2.0747  -2.0566  -2.0177  -1.9911  -1.9732  -1.9465
    -1.8945  -1.8782  -1.8577  -1.8409  -1.7521  -1.7494  -1.6732  -1.6370
    -1.6148  -1.5755  -1.4384  -1.3845  -1.1893  -0.6083  -0.4940  -0.4067
     0.2453   0.2804   1.5683   2.1239   2.1634   2.6606   4.3728   4.9556
     5.1074   5.1139   5.2075   5.2093   5.4593   5.9291   5.9298   5.9850
     6.4689   6.5210   6.7555   6.9303   6.9994   7.1112   7.3885   7.4436
     7.4874   7.5597   8.0333   8.3172   8.4467   8.6140   9.0932

     the Fermi energy is     0.5146 ev

!    total energy              =   -4048.72063661 Ry
     Harris-Foulkes estimate   =   -4048.72063347 Ry
     estimated scf accuracy    <       0.00000031 Ry

     The total energy is the sum of the following terms:

     one-electron contribution =  -27583.46953199 Ry
     hartree contribution      =   13822.34143786 Ry
     xc contribution           =    -477.55688647 Ry
     ewald contribution        =   10189.99309650 Ry
     electric field correction =       0.00000523 Ry
     smearing contrib. (-TS)   =      -0.02875773 Ry

     convergence has been achieved in  25 iterations

 BEEF-vdW xc energy contributions
           1 :   -422.163479890966
           2 :    383.625089083053
           3 :   -318.373712988534
           4 :    244.473321463841
           5 :   -178.380067705372
           6 :    128.951767736780
           7 :   -96.0080492224165
           8 :    73.4248226367475
           9 :   -54.3480738047942
          10 :    35.3081548675035
          11 :   -17.1789443239583
          12 :    3.12114426873779
          13 :    4.55268928500209
          14 :   -6.33794405765570
          15 :    5.21377789577491
          16 :   -4.61310598822371
          17 :    6.30758219472227
          18 :   -9.65614562365727
          19 :    12.5448554903252
          20 :   -13.1653210384521
          21 :    11.3201656961061
          22 :   -8.42937879905315
          23 :    6.39174948359414
          24 :   -6.22780205527488
          25 :    7.47790963108037
          26 :   -8.70105268146796
          27 :    8.61175070780541
          28 :   -6.99344290068711
          29 :    4.76399380987425
          30 :   -3.22402828425010
          31 :   -34.6783939497561
          32 :   -24.1086564237031

     Forces acting on atoms (Ry/au):

     negative rho (up, down):  1.081E-03 0.000E+00
     atom    1 type  1   force =    -0.00000018   -0.00938990    0.00631203
     atom    2 type  1   force =    -0.00813017    0.00469465    0.00630988
     atom    3 type  1   force =     0.00813160    0.00469674    0.00631068
     atom    4 type  2   force =    -0.00000039    0.00000041   -0.03434626
     atom    5 type  1   force =     0.00000012    0.00980954    0.00580949
     atom    6 type  1   force =     0.00849504   -0.00490546    0.00580929
     atom    7 type  1   force =    -0.00849589   -0.00490511    0.00580810
     atom    8 type  2   force =     0.00000000   -0.00000003    0.00237338
     atom    9 type  1   force =     0.00000038   -0.00062627   -0.00087617
     atom   10 type  1   force =    -0.00054161    0.00031377   -0.00087897
     atom   11 type  1   force =     0.00054092    0.00031163   -0.00087697
     atom   12 type  2   force =     0.00000019    0.00000001   -0.00175450

     Total force =     0.044337     Total SCF correction =     0.004438
     SCF correction compared to forces is large: reduce conv_thr to get better values

     entering subroutine stress ...

     negative rho (up, down):  1.081E-03 0.000E+00
          total   stress  (Ry/bohr**3)                   (kbar)     P=  -17.96
  -0.00015772  -0.00000000  -0.00000000        -23.20     -0.00     -0.00
  -0.00000000  -0.00015772  -0.00000000         -0.00    -23.20     -0.00
  -0.00000000  -0.00000000  -0.00005078         -0.00     -0.00     -7.47

 !ASE

     Writing output data file calc.save

     General routines

     Parallel routines

   This run was terminated on:  18: 0: 4  25Dec2018

   JOB DONE.
Job  /afs/slac/g/suncat/bin/suncat-tsmpirun -x LD_LIBRARY_PATH -wdir /scratch/qe109568_2OnQl pw.x -in pw.inp

TID   HOST_NAME   COMMAND_LINE            STATUS            TERMINATION_TIME
00000 suncat0190 pw.x -in pw.inp   Done                     12/25/2018 18:00:04
00001 suncat0190 pw.x -in pw.inp   Done                     12/25/2018 18:00:04
00002 suncat0190 pw.x -in pw.inp   Done                     12/25/2018 18:00:04
00003 suncat0190 pw.x -in pw.inp   Done                     12/25/2018 18:00:04
00004 suncat0190 pw.x -in pw.inp   Done                     12/25/2018 18:00:04
00005 suncat0190 pw.x -in pw.inp   Done                     12/25/2018 18:00:04
00006 suncat0190 pw.x -in pw.inp   Done                     12/25/2018 18:00:04
00007 suncat0190 pw.x -in pw.inp   Done                     12/25/2018 18:00:04
00008 suncat0009 pw.x -in pw.inp   Done                     12/25/2018 18:00:04
00009 suncat0009 pw.x -in pw.inp   Done                     12/25/2018 18:00:04
00010 suncat0009 pw.x -in pw.inp   Done                     12/25/2018 18:00:04
00011 suncat0009 pw.x -in pw.inp   Done                     12/25/2018 18:00:04
00012 suncat0009 pw.x -in pw.inp   Done                     12/25/2018 18:00:04
00013 suncat0009 pw.x -in pw.inp   Done                     12/25/2018 18:00:04
00014 suncat0009 pw.x -in pw.inp   Done                     12/25/2018 18:00:04
00015 suncat0009 pw.x -in pw.inp   Done                     12/25/2018 18:00:04
00016 suncat0169 pw.x -in pw.inp   Done                     12/25/2018 18:00:04
00017 suncat0169 pw.x -in pw.inp   Done                     12/25/2018 18:00:04
00018 suncat0169 pw.x -in pw.inp   Done                     12/25/2018 18:00:04
00019 suncat0169 pw.x -in pw.inp   Done                     12/25/2018 18:00:04
00020 suncat0169 pw.x -in pw.inp   Done                     12/25/2018 18:00:04
00021 suncat0169 pw.x -in pw.inp   Done                     12/25/2018 18:00:04
00022 suncat0169 pw.x -in pw.inp   Done                     12/25/2018 18:00:04
00023 suncat0169 pw.x -in pw.inp   Done                     12/25/2018 18:00:04
00024 suncat0168 pw.x -in pw.inp   Done                     12/25/2018 18:00:04
00025 suncat0168 pw.x -in pw.inp   Done                     12/25/2018 18:00:04
00026 suncat0168 pw.x -in pw.inp   Done                     12/25/2018 18:00:04
00027 suncat0168 pw.x -in pw.inp   Done                     12/25/2018 18:00:04
00028 suncat0168 pw.x -in pw.inp   Done                     12/25/2018 18:00:04
00029 suncat0168 pw.x -in pw.inp   Done                     12/25/2018 18:00:04
00030 suncat0168 pw.x -in pw.inp   Done                     12/25/2018 18:00:04
00031 suncat0168 pw.x -in pw.inp   Done                     12/25/2018 18:00:04
00032 suncat0114 pw.x -in pw.inp   Done                     12/25/2018 18:00:04
00033 suncat0114 pw.x -in pw.inp   Done                     12/25/2018 18:00:04
00034 suncat0114 pw.x -in pw.inp   Done                     12/25/2018 18:00:04
00035 suncat0114 pw.x -in pw.inp   Done                     12/25/2018 18:00:04
00036 suncat0114 pw.x -in pw.inp   Done                     12/25/2018 18:00:04
00037 suncat0114 pw.x -in pw.inp   Done                     12/25/2018 18:00:04
00038 suncat0114 pw.x -in pw.inp   Done                     12/25/2018 18:00:04
00039 suncat0114 pw.x -in pw.inp   Done                     12/25/2018 18:00:04
00040 suncat0113 pw.x -in pw.inp   Done                     12/25/2018 18:00:04
00041 suncat0113 pw.x -in pw.inp   Done                     12/25/2018 18:00:04
00042 suncat0113 pw.x -in pw.inp   Done                     12/25/2018 18:00:04
00043 suncat0113 pw.x -in pw.inp   Done                     12/25/2018 18:00:04
00044 suncat0113 pw.x -in pw.inp   Done                     12/25/2018 18:00:04
00045 suncat0113 pw.x -in pw.inp   Done                     12/25/2018 18:00:04
00046 suncat0113 pw.x -in pw.inp   Done                     12/25/2018 18:00:04
00047 suncat0113 pw.x -in pw.inp   Done                     12/25/2018 18:00:04
00048 suncat0110 pw.x -in pw.inp   Done                     12/25/2018 18:00:04
00049 suncat0110 pw.x -in pw.inp   Done                     12/25/2018 18:00:04
00050 suncat0110 pw.x -in pw.inp   Done                     12/25/2018 18:00:04
00051 suncat0110 pw.x -in pw.inp   Done                     12/25/2018 18:00:04
00052 suncat0110 pw.x -in pw.inp   Done                     12/25/2018 18:00:04
00053 suncat0110 pw.x -in pw.inp   Done                     12/25/2018 18:00:04
00054 suncat0110 pw.x -in pw.inp   Done                     12/25/2018 18:00:04
00055 suncat0110 pw.x -in pw.inp   Done                     12/25/2018 18:00:04
00056 suncat0109 pw.x -in pw.inp   Done                     12/25/2018 18:00:04
00057 suncat0109 pw.x -in pw.inp   Done                     12/25/2018 18:00:04
00058 suncat0109 pw.x -in pw.inp   Done                     12/25/2018 18:00:04
00059 suncat0109 pw.x -in pw.inp   Done                     12/25/2018 18:00:04
00060 suncat0109 pw.x -in pw.inp   Done                     12/25/2018 18:00:04
00061 suncat0109 pw.x -in pw.inp   Done                     12/25/2018 18:00:04
00062 suncat0109 pw.x -in pw.inp   Done                     12/25/2018 18:00:04
00063 suncat0109 pw.x -in pw.inp   Done                     12/25/2018 18:00:04