     Program PWSCF v.5.1rc2 (svn rev. 11289) starts on 19Dec2018 at  5:42: 5

     Current dimensions of program PWSCF are:
     Max number of different atomic species (ntypx) = 10
     Max number of k-points (npk) =  40000
     Max angular momentum in pseudopotentials (lmaxx) =  3
     Presently stress not available with electric field

     IMPORTANT: XC functional enforced from input :
     Exchange-correlation      = BEEF-VDW ( 1  4 27 13 2)
     Any further DFT definition will be discarded
     Please, verify this is what you really want

     Subspace diagonalization in iterative solution of the eigenvalue problem:
     a serial algorithm will be used

     Found symmetry operation: I + (  0.5000  0.5000  0.0000)
     This is a supercell, fractional translations are disabled

     bravais-lattice index     =            0
     lattice parameter (alat)  =       1.8897  a.u.
     unit-cell volume          =    7005.4897 (a.u.)^3
     number of atoms/cell      =           12
     number of atomic types    =            2
     number of electrons       =       132.00
     number of Kohn-Sham states=           96
     kinetic-energy cutoff     =      36.7493  Ry
     charge density cutoff     =     367.4932  Ry
     convergence threshold     =      1.0E-06
     mixing beta               =       0.1000
     number of iterations used =           10  plain     mixing
     Exchange-correlation      = BEEF-VDW ( 1  4 27 13 2)
     nstep                     =           50

     celldm(1)=   1.889726  celldm(2)=   0.000000  celldm(3)=   0.000000
     celldm(4)=   0.000000  celldm(5)=   0.000000  celldm(6)=   0.000000

     crystal axes: (cart. coord. in units of alat)
               a(1) = (   6.780062   0.000000   0.000000 )
               a(2) = (   3.185598   5.985082   0.000000 )
               a(3) = (   0.000000   0.000000  25.582213 )

     reciprocal axes: (cart. coord. in units 2 pi/alat)
               b(1) = (  0.147491 -0.078503  0.000000 )
               b(2) = (  0.000000  0.167082  0.000000 )
               b(3) = (  0.000000  0.000000  0.039090 )

     PseudoPot. # 1 for Sc read from file:
     /afs/slac.stanford.edu/u/if/mamunm/psp/gbrv1.5pbe/Sc.UPF
     MD5 check sum: db30a2753ba66ef00f23801d899b7e7f
     Pseudo is Ultrasoft + core correction, Zval = 11.0
     Generated by new atomic code, or converted to UPF format
     Using radial grid of  849 points,  6 beta functions with:
                l(1) =   0
                l(2) =   0
                l(3) =   1
                l(4) =   1
                l(5) =   2
                l(6) =   2
     Q(r) pseudized with  6 coefficients,  rinner =    1.200   1.200   1.200
                                                       1.200   1.200

     PseudoPot. # 2 for Y  read from file:
     /afs/slac.stanford.edu/u/if/mamunm/psp/gbrv1.5pbe/Y.UPF
     MD5 check sum: d034151ed7554c50b6e82763ed42c788
     Pseudo is Ultrasoft + core correction, Zval = 11.0
     Generated by new atomic code, or converted to UPF format
     Using radial grid of  885 points,  6 beta functions with:
                l(1) =   0
                l(2) =   0
                l(3) =   1
                l(4) =   1
                l(5) =   2
                l(6) =   2
     Q(r) pseudized with  8 coefficients,  rinner =    1.200   1.200   1.200
                                                       1.200   1.200

     vdW kernel table read from file vdW_kernel_table
     MD5 check sum: 095c7af220d748ca6e76c0b4c6cfb241

     atomic species   valence    mass     pseudopotential
        Sc1           11.00    44.95591     Sc( 1.00)
        Y1            11.00    88.90584     Y ( 1.00)

     No symmetry found

   Cartesian axes

     site n.     atom                  positions (alat units)
         1           Sc1 tau(   1) = (   0.0000000   0.0000000  10.0000000  )
         2           Sc1 tau(   2) = (   4.9828303   2.9925411  10.0000000  )
         3           Y1  tau(   3) = (   3.3900312   0.0000000  10.0000000  )
         4           Y1  tau(   4) = (   1.5927992   2.9925411  10.0000000  )
         5           Sc1 tau(   5) = (   6.7800623   4.0719056  12.7911063  )
         6           Sc1 tau(   6) = (   1.7972320   1.0793646  12.7911063  )
         7           Y1  tau(   7) = (   3.3900312   4.0719056  12.7911063  )
         8           Y1  tau(   8) = (   5.1872631   1.0793646  12.7911063  )
         9           Sc1 tau(   9) = (   3.5944639   2.1587291  15.5822125  )
        10           Sc1 tau(  10) = (   8.5772943   5.1512702  15.5822125  )
        11           Y1  tau(  11) = (   6.9844951   2.1587291  15.5822125  )
        12           Y1  tau(  12) = (   5.1872631   5.1512702  15.5822125  )

     number of k points=    20  Fermi-Dirac smearing, width (Ry)=  0.0110
                       cart. coord. in units 2pi/alat
        k(    1) = (   0.0000000   0.0000000   0.0000000), wk =   0.0555556
        k(    2) = (   0.0000000   0.0278470   0.0000000), wk =   0.1111111
        k(    3) = (   0.0000000   0.0556940   0.0000000), wk =   0.1111111
        k(    4) = (   0.0000000  -0.0835410   0.0000000), wk =   0.0555556
        k(    5) = (   0.0245819  -0.0130839   0.0000000), wk =   0.1111111
        k(    6) = (   0.0245819   0.0147632   0.0000000), wk =   0.1111111
        k(    7) = (   0.0245819   0.0426102   0.0000000), wk =   0.1111111
        k(    8) = (   0.0245819  -0.0966249   0.0000000), wk =   0.1111111
        k(    9) = (   0.0245819  -0.0687779   0.0000000), wk =   0.1111111
        k(   10) = (   0.0245819  -0.0409309   0.0000000), wk =   0.1111111
        k(   11) = (   0.0491638  -0.0261677   0.0000000), wk =   0.1111111
        k(   12) = (   0.0491638   0.0016793   0.0000000), wk =   0.1111111
        k(   13) = (   0.0491638   0.0295263   0.0000000), wk =   0.1111111
        k(   14) = (   0.0491638  -0.1097088   0.0000000), wk =   0.1111111
        k(   15) = (   0.0491638  -0.0818618   0.0000000), wk =   0.1111111
        k(   16) = (   0.0491638  -0.0540147   0.0000000), wk =   0.1111111
        k(   17) = (  -0.0737456   0.0392516   0.0000000), wk =   0.0555556
        k(   18) = (  -0.0737456   0.0670986   0.0000000), wk =   0.1111111
        k(   19) = (  -0.0737456   0.0949456   0.0000000), wk =   0.1111111
        k(   20) = (  -0.0737456  -0.0442895   0.0000000), wk =   0.0555556

     Largest allocated arrays     est. size (Mb)     dimensions
     Largest temporary arrays     est. size (Mb)     dimensions

     Initial potential from superposition of free atoms
     Check: negative starting charge=   -0.000467

     starting charge  131.95877, renormalised to  132.00000

     negative rho (up, down):  4.668E-04 0.000E+00

     *
     * You are using vdW-DF for exchange-correlation in this calculation.
     * Please cite the following three references that made this development
     * possible:
     *
     *   M. Dion, H. Rydberg, E. Schroder, D. C. Langreth, and
     *   B. I. Lundqvist, Phys. Rev. Lett. 92, 246401 (2004).
     *
     *   T. Thonhauser, V. R. Cooper, S. Li, A. Puzder, P. Hyldgaard, and
     *   D. C. Langreth, Phys. Rev. B 76, 125112 (2007).
     *
     *   G. Roman-Perez and J. M. Soler, Phys. Rev. Lett. 103, 096102 (2009).
     *
     *
     * If you are using vdW-DF2, please also cite:
     *
     *   K. Lee, E. D. Murray, L. Kong, B. I. Lundqvist, and
     *   D. C. Langreth, Phys. Rev. B 82, 081101(R) (2010).
     *
     *
     * If you are calculating the stress with vdW-DF, please also cite:
     *
     *   R. Sabatini, E. Kucukbenli, B. Kolb, T. Thonhauser, and
     *   S. de Gironcoli, J. Phys.: Condens. Matter 24, 424209 (2012).
     *

     Carrying out vdW-DF run using the following parameters:

     Nqs =      20    Nr_points =    1024   r_max =   100.000
     q_mesh =
               0.00001000     0.04494208     0.09755937     0.15916263
               0.23128650     0.31572767     0.41458969     0.53033537
               0.66584808     0.82450364     1.01025438     1.22772762
               1.48234092     1.78043706     2.12944203     2.53805004
               3.01644009     3.57652955     4.23227104     5.00000000

     Gradients computed in reciprocal space

     Adding external electric field

     Computed dipole along edir(3) :
        Dipole                0.0000 Ry au,          0.0000 Debye
        Dipole field          0.0000 Ry au

        Potential amp.       -0.0000 Ry
        Total length         47.1348 bohr

     Starting wfc are  156 randomized atomic wfcs

     Self-consistent Calculation

     iteration #  1     ecut=    36.75 Ry     beta=0.10
     Davidson diagonalization with overlap
     ethr =  1.00E-02,  avg # of iterations =  2.0

[...]

     total energy              =   -1130.28979613 Ry
     Harris-Foulkes estimate   =   -1131.37874046 Ry
     estimated scf accuracy    <       6.12136770 Ry

[...]

     End of self-consistent calculation

          k = 0.0000 0.0000 0.0000 ( 26377 PWs)   bands (ev):

   -49.4603 -49.4602 -49.4522 -49.4521 -49.0844 -49.0763 -42.3910 -42.3908
   -42.3622 -42.3620 -41.8300 -41.8005 -28.1057 -28.1024 -28.0947 -28.0925
   -28.0538 -28.0529 -28.0150 -28.0131 -28.0024 -28.0007 -27.9493 -27.9492
   -27.6922 -27.6914 -27.6786 -27.6503 -27.6391 -27.5864 -22.4746 -22.4727
   -22.4225 -22.4077 -22.3834 -22.3672 -22.3169 -22.3104 -22.2800 -22.2730
   -22.1128 -22.1126 -21.9767 -21.7892 -21.7787 -21.7480 -21.7412 -21.6076
    -3.7216  -2.7673  -1.6213  -1.0108  -0.9314  -0.7719  -0.6196  -0.6169
    -0.6095  -0.4588  -0.3772  -0.2394   0.0418   0.1641   0.2347   0.3907
     0.4180   0.5711   0.8658   0.9415   1.2485   1.2582   1.2763   1.3201
     1.4329   1.4356   1.5841   1.8284   1.8653   1.8792   1.9104   1.9297
     1.9742   2.0601   2.1542   2.1717   2.2150   2.2712   2.3355   2.4860
     2.5239   2.6884   2.7010   2.8611   2.8970   3.0434   3.1608   3.4063

[...]

          k =-0.0737 0.0393 0.0000 ( 26364 PWs)   bands (ev):

[...]

     the Fermi energy is     0.7390 ev

!    total energy              =   -1130.89855464 Ry
     Harris-Foulkes estimate   =   -1130.89855727 Ry
     estimated scf accuracy    <       0.00000069 Ry

     The total energy is the sum of the following terms:

     one-electron contribution =   -6083.10507610 Ry
     hartree contribution      =    3028.27180492 Ry
     xc contribution           =    -252.46138424 Ry
     ewald contribution        =    2176.53920260 Ry
     electric field correction =       0.00000001 Ry
     smearing contrib. (-TS)   =      -0.14310182 Ry

     convergence has been achieved in  18 iterations

 BEEF-vdW xc energy contributions
           1 :   -218.213150849490
           2 :    194.755188416302
           3 :   -155.750660622816
           4 :    112.664282544515
           5 :   -74.9725990112718
           6 :    46.9292044551823
           7 :   -27.9943647920023
           8 :    15.6088794256180
           9 :   -7.83830514123247
          10 :    4.22663362150968
          11 :   -4.92616318179466
          12 :    9.35466375031251
          13 :   -15.6394530315407
          14 :    21.2268901067450
          15 :   -24.0854035176403
          16 :    23.5638978317949
[...]

[...]

   This run was terminated on:   6: 0:13  19Dec2018

[...]

     Program PWSCF v.5.1rc2 (svn rev. 11289) starts on 19Dec2018 at  6: 0:19

[...]

     Total force =     0.016513     Total SCF correction =     0.002658
     SCF correction compared to forces is large: reduce conv_thr to get better values

[...]

   This run was terminated on:   6: 6:15  19Dec2018

[...]

     Program PWSCF v.5.1rc2 (svn rev. 11289) starts on 19Dec2018 at  6: 6:21

[...]

     Total force =     0.021793     Total SCF correction =     0.002049

[...]

     Program PWSCF v.5.1rc2 (svn rev. 11289) starts on 19Dec2018 at  6:11:54

     Current dimensions of program PWSCF are:
     Max number of different atomic species (ntypx) = 10
     Max number of k-points (npk) =  40000
     Max angular momentum in pseudopotentials (lmaxx) =  3
     Presently stress not available with electric field

     IMPORTANT: XC functional enforced from input :
     Exchange-correlation      = BEEF-VDW ( 1  4 27 13 2)
     Any further DFT definition will be discarded
     Please, verify this is what you really want

     Subspace diagonalization in iterative solution of the eigenvalue problem:
     a serial algorithm will be used

     Found symmetry operation: I + (  0.5000  0.5000  0.0000)
     This is a supercell, fractional translations are disabled

     bravais-lattice index     =            0
     lattice parameter (alat)  =       1.8897  a.u.
     unit-cell volume          =    7005.4897 (a.u.)^3
     number of atoms/cell      =           12
     number of atomic types    =            2
     number of electrons       =       132.00
     number of Kohn-Sham states=           96
     kinetic-energy cutoff     =      36.7493  Ry
     charge density cutoff     =     367.4932  Ry
     convergence threshold     =      1.0E-06
     mixing beta               =       0.1000
     number of iterations used =           10  plain     mixing
     Exchange-correlation      = BEEF-VDW ( 1  4 27 13 2)
     nstep                     =           50

     celldm(1)=   1.889726  celldm(2)=   0.000000  celldm(3)=   0.000000
     celldm(4)=   0.000000  celldm(5)=   0.000000  celldm(6)=   0.000000

     crystal axes: (cart. coord. in units of alat)
               a(1) = (   6.780062   0.000000   0.000000 )
               a(2) = (   3.185598   5.985082   0.000000 )
               a(3) = (   0.000000   0.000000  25.582213 )

     reciprocal axes: (cart. coord. in units 2 pi/alat)
               b(1) = (  0.147491 -0.078503  0.000000 )
               b(2) = (  0.000000  0.167082  0.000000 )
               b(3) = (  0.000000  0.000000  0.039090 )

     PseudoPot. # 1 for Sc read from file:
     /afs/slac.stanford.edu/u/if/mamunm/psp/gbrv1.5pbe/Sc.UPF
     MD5 check sum: db30a2753ba66ef00f23801d899b7e7f
     Pseudo is Ultrasoft + core correction, Zval = 11.0
     Generated by new atomic code, or converted to UPF format
     Using radial grid of  849 points,  6 beta functions with:
                l(1) =   0
                l(2) =   0
                l(3) =   1
                l(4) =   1
                l(5) =   2
                l(6) =   2
     Q(r) pseudized with  6 coefficients,  rinner =    1.200   1.200   1.200
                                                       1.200   1.200

     PseudoPot. # 2 for Y  read from file:
     /afs/slac.stanford.edu/u/if/mamunm/psp/gbrv1.5pbe/Y.UPF
     MD5 check sum: d034151ed7554c50b6e82763ed42c788
     Pseudo is Ultrasoft + core correction, Zval = 11.0
     Generated by new atomic code, or converted to UPF format
     Using radial grid of  885 points,  6 beta functions with:
                l(1) =   0
                l(2) =   0
                l(3) =   1
                l(4) =   1
                l(5) =   2
                l(6) =   2
     Q(r) pseudized with  8 coefficients,  rinner =    1.200   1.200   1.200
                                                       1.200   1.200

     vdW kernel table read from file vdW_kernel_table
     MD5 check sum: 095c7af220d748ca6e76c0b4c6cfb241

     atomic species   valence    mass     pseudopotential
        Sc1           11.00    44.95591     Sc( 1.00)
        Y1            11.00    88.90584     Y ( 1.00)

     No symmetry found

   Cartesian axes

     site n.     atom                  positions (alat units)
         1           Sc1 tau(   1) = (   0.0000000   0.0000000  10.0000000  )
         2           Sc1 tau(   2) = (   4.9828303   2.9925411  10.0000000  )
         3           Y1  tau(   3) = (   3.3900312   0.0000000  10.0000000  )
         4           Y1  tau(   4) = (   1.5927992   2.9925411  10.0000000  )
         5           Sc1 tau(   5) = (   6.7800623   4.0719056  12.7911063  )
         6           Sc1 tau(   6) = (   1.7972320   1.0793646  12.7911063  )
         7           Y1  tau(   7) = (   3.3900312   4.0719056  12.7911063  )
         8           Y1  tau(   8) = (   5.1872631   1.0793646  12.7911063  )
         9           Sc1 tau(   9) = (   3.5632711   2.1399892  15.4364506  )
        10           Sc1 tau(  10) = (   8.5460788   5.1325240  15.4363958  )
        11           Y1  tau(  11) = (   6.9770921   2.1542865  15.5504188  )
        12           Y1  tau(  12) = (   5.1798647   5.1468191  15.5504302  )

     number of k points=    20  Fermi-Dirac smearing, width (Ry)=  0.0110
                       cart. coord. in units 2pi/alat
        k(    1) = (   0.0000000   0.0000000   0.0000000), wk =   0.0555556
        k(    2) = (   0.0000000   0.0278470   0.0000000), wk =   0.1111111
        k(    3) = (   0.0000000   0.0556940   0.0000000), wk =   0.1111111
        k(    4) = (   0.0000000  -0.0835410   0.0000000), wk =   0.0555556
        k(    5) = (   0.0245819  -0.0130839   0.0000000), wk =   0.1111111
        k(    6) = (   0.0245819   0.0147632   0.0000000), wk =   0.1111111
        k(    7) = (   0.0245819   0.0426102   0.0000000), wk =   0.1111111
        k(    8) = (   0.0245819  -0.0966249   0.0000000), wk =   0.1111111
        k(    9) = (   0.0245819  -0.0687779   0.0000000), wk =   0.1111111
        k(   10) = (   0.0245819  -0.0409309   0.0000000), wk =   0.1111111
        k(   11) = (   0.0491638  -0.0261677   0.0000000), wk =   0.1111111
        k(   12) = (   0.0491638   0.0016793   0.0000000), wk =   0.1111111
        k(   13) = (   0.0491638   0.0295263   0.0000000), wk =   0.1111111
        k(   14) = (   0.0491638  -0.1097088   0.0000000), wk =   0.1111111
        k(   15) = (   0.0491638  -0.0818618   0.0000000), wk =   0.1111111
        k(   16) = (   0.0491638  -0.0540147   0.0000000), wk =   0.1111111
        k(   17) = (  -0.0737456   0.0392516   0.0000000), wk =   0.0555556
        k(   18) = (  -0.0737456   0.0670986   0.0000000), wk =   0.1111111
        k(   19) = (  -0.0737456   0.0949456   0.0000000), wk =   0.1111111
        k(   20) = (  -0.0737456  -0.0442895   0.0000000), wk =   0.0555556

     Largest allocated arrays     est. size (Mb)     dimensions
     Largest temporary arrays     est. size (Mb)     dimensions

     Initial potential from superposition of free atoms
     Check: negative starting charge=   -0.000470

     starting charge  131.95877, renormalised to  132.00000

[...]

     *
     * You are using vdW-DF for exchange-correlation in this calculation.
     * Please cite the following three references that made this development
     * possible:
     *
     *   M. Dion, H. Rydberg, E. Schroder, D. C. Langreth, and
     *   B. I. Lundqvist, Phys. Rev. Lett. 92, 246401 (2004).
     *
     *   T. Thonhauser, V. R. Cooper, S. Li, A. Puzder, P. Hyldgaard, and
     *   D. C. Langreth, Phys. Rev. B 76, 125112 (2007).
     *
     *   G. Roman-Perez and J. M. Soler, Phys. Rev. Lett. 103, 096102 (2009).
     *
     *
     * If you are using vdW-DF2, please also cite:
     *
     *   K. Lee, E. D. Murray, L. Kong, B. I. Lundqvist, and
     *   D. C. Langreth, Phys. Rev. B 82, 081101(R) (2010).
     *
     *
     * If you are calculating the stress with vdW-DF, please also cite:
     *
     *   R. Sabatini, E. Kucukbenli, B. Kolb, T. Thonhauser, and
     *   S. de Gironcoli, J. Phys.: Condens. Matter 24, 424209 (2012).
     *

     Carrying out vdW-DF run using the following parameters:

     Nqs =      20    Nr_points =    1024   r_max =   100.000
     q_mesh =
               0.00001000     0.04494208     0.09755937     0.15916263
               0.23128650     0.31572767     0.41458969     0.53033537
               0.66584808     0.82450364     1.01025438     1.22772762
               1.48234092     1.78043706     2.12944203     2.53805004
               3.01644009     3.57652955     4.23227104     5.00000000

     Gradients computed in reciprocal space

[...]

     Starting wfc are  156 randomized atomic wfcs

     Self-consistent Calculation

[...]

     total energy              =   -1130.90129192 Ry
     Harris-Foulkes estimate   =   -1130.90129149 Ry
     estimated scf accuracy    <       0.00000117 Ry

     iteration # 19     ecut=    36.75 Ry     beta=0.10
     Davidson diagonalization with overlap
     ethr =  8.84E-10,  avg # of iterations =  3.5

[...]

     negative rho (up, down):  6.150E-05 0.000E+00

     Adding external electric field

     Computed dipole along edir(3) :
        Dipole                0.0124 Ry au,          0.0314 Debye
        Dipole field          0.0000 Ry au

        Potential amp.       -0.0021 Ry
        Total length         47.1348 bohr

     End of self-consistent calculation

[...]

          k = 0.0492-0.0540 0.0000 ( 26356 PWs)   bands (ev):

[...]

          k =-0.0737-0.0443 0.0000 ( 26314 PWs)   bands (ev):

   -49.4653 -49.4573 -49.3574 -49.3492 -49.0313 -49.0231 -42.3929 -42.3735
   -42.3640 -42.3445 -41.7497 -41.7200 -28.1121 -28.1018 -28.0557 -28.0132
   -28.0052 -28.0030 -27.9945 -27.9594 -27.9531 -27.9160 -27.9056 -27.8554
   -27.6448 -27.6390 -27.6278 -27.5914 -27.5811 -27.5401 -22.4791 -22.4616
   -22.4264 -22.3987 -22.3839 -22.3604 -22.3262 -22.3077 -22.2822 -22.2643
   -22.1140 -22.0961 -21.9040 -21.7252 -21.7137 -21.6845 -21.6717 -21.5289
    -2.4529  -2.4220  -1.6420  -1.4511  -0.8705  -0.7365  -0.5187  -0.4681
    -0.4028  -0.1240   0.2263   0.4272   0.4944   0.5270   0.5577   0.6561
     0.7117   0.7437   0.7728   0.7965   0.8695   0.9043   0.9084   1.1094
     1.1293   1.1918   1.2030   1.2382   1.3669   1.4435   1.6229   1.6488
     1.7230   1.7305   1.9965   2.1841   2.2259   2.3538   2.3703   2.4363
     2.5039   2.6477   2.6856   2.7625   2.7714   2.7786   2.8601   2.9218

     the Fermi energy is     0.7447 ev

!    total energy              =   -1130.90129180 Ry
     Harris-Foulkes estimate   =   -1130.90129245 Ry
     estimated scf accuracy    <       0.00000053 Ry

     The total energy is the sum of the following terms:

     one-electron contribution =   -6158.73868174 Ry
     hartree contribution      =    3066.28477872 Ry
     xc contribution           =    -252.54331598 Ry
     ewald contribution        =    2214.23772897 Ry
     electric field correction =       0.00000027 Ry
     smearing contrib. (-TS)   =      -0.14180204 Ry

     convergence has been achieved in  19 iterations

 BEEF-vdW xc energy contributions
           1 :   -218.295385262846
           2 :    194.862939964975
           3 :   -155.872525752618
           4 :    112.755916664378
           5 :   -74.9969890854318
           6 :    46.8919659346968
           7 :   -27.9410806137381
           8 :    15.5894454214854
           9 :   -7.86976175516145
          10 :    4.28260990602072
          11 :   -4.95916190480870
          12 :    9.33470599876983
          13 :   -15.5794391482752
          14 :    21.1726690413588
          15 :   -24.0767031576531
          16 :    23.6001507037799
          17 :   -20.4044187794404
          18 :    15.8109436313404
          19 :   -11.0306231342055
          20 :    6.82475747977827
          21 :   -3.62343430381074
          22 :    1.74978881765463
          23 :   -1.43881518824287
          24 :    2.65479055453585
          25 :   -4.94968252914413
          26 :    7.55623977667960
          27 :   -9.68444324006333
          28 :    10.8202958416137
          29 :   -10.8501915995253
          30 :    9.98632122680598
          31 :   -22.3989641678809
          32 :   -15.6063398898884

     Forces acting on atoms (Ry/au):

     negative rho (up, down):  6.150E-05 0.000E+00
     atom    1 type  1   force =     0.00290132    0.00174019    0.00780001
     atom    2 type  1   force =     0.00290208    0.00174527    0.00779765
     atom    3 type  2   force =    -0.00152488   -0.00091056    0.00086361
     atom    4 type  2   force =    -0.00152196   -0.00091940    0.00086561
     atom    5 type  1   force =     0.00040442    0.00024318   -0.00163706
     atom    6 type  1   force =     0.00040211    0.00024094   -0.00163902
     atom    7 type  2   force =     0.00024991    0.00014246   -0.00825432
     atom    8 type  2   force =     0.00024116    0.00015315   -0.00825335
     atom    9 type  1   force =    -0.00103082   -0.00061740    0.00019144
     atom   10 type  1   force =    -0.00103007   -0.00061978    0.00019950
     atom   11 type  2   force =    -0.00099320   -0.00060485    0.00103377
     atom   12 type  2   force =    -0.00100006   -0.00059319    0.00103216

     Total force =     0.017390     Total SCF correction =     0.002378
     SCF correction compared to forces is large: reduce conv_thr to get better values

     entering subroutine stress ...

     negative rho (up, down):  6.150E-05 0.000E+00
          total   stress  (Ry/bohr**3)                   (kbar)     P=   -2.02
  -0.00001175   0.00000466  -0.00000507         -1.73      0.69     -0.75
   0.00000466  -0.00001671  -0.00000304          0.69     -2.46     -0.45
  -0.00000507  -0.00000304  -0.00001275         -0.75     -0.45     -1.88

 !ASE

     Writing output data file calc.save

     General routines

     Parallel routines

   This run was terminated on:   6:17:41  19Dec2018

   JOB DONE.
Job  /afs/slac/g/suncat/bin/suncat-tsmpirun -x LD_LIBRARY_PATH -wdir /scratch/qe530594_Ti6or pw.x -in pw.inp

TID   HOST_NAME   COMMAND_LINE            STATUS            TERMINATION_TIME
00000 suncat2054 pw.x -in pw.inp   Done                     12/19/2018 06:17:41
00001 suncat2054 pw.x -in pw.inp   Done                     12/19/2018 06:17:41
00002 suncat2054 pw.x -in pw.inp   Done                     12/19/2018 06:17:41
00003 suncat2054 pw.x -in pw.inp   Done                     12/19/2018 06:17:41
00004 suncat2054 pw.x -in pw.inp   Done                     12/19/2018 06:17:41
00005 suncat2054 pw.x -in pw.inp   Done                     12/19/2018 06:17:41
00006 suncat2054 pw.x -in pw.inp   Done                     12/19/2018 06:17:41
00007 suncat2054 pw.x -in pw.inp   Done                     12/19/2018 06:17:41
00008 suncat2054 pw.x -in pw.inp   Done                     12/19/2018 06:17:41
00009 suncat2054 pw.x -in pw.inp   Done                     12/19/2018 06:17:41
00010 suncat2054 pw.x -in pw.inp   Done                     12/19/2018 06:17:41
00011 suncat2054 pw.x -in pw.inp   Done                     12/19/2018 06:17:41
00012 suncat2054 pw.x -in pw.inp   Done                     12/19/2018 06:17:41
00013 suncat2054 pw.x -in pw.inp   Done                     12/19/2018 06:17:41
00014 suncat2054 pw.x -in pw.inp   Done                     12/19/2018 06:17:41
00015 suncat2054 pw.x -in pw.inp   Done                     12/19/2018 06:17:41
00016 suncat2053 pw.x -in pw.inp   Done                     12/19/2018 06:17:41
00017 suncat2053 pw.x -in pw.inp   Done                     12/19/2018 06:17:41
00018 suncat2053 pw.x -in pw.inp   Done                     12/19/2018 06:17:41
00019 suncat2053 pw.x -in pw.inp   Done                     12/19/2018 06:17:41
00020 suncat2053 pw.x -in pw.inp   Done                     12/19/2018 06:17:41
00021 suncat2053 pw.x -in pw.inp   Done                     12/19/2018 06:17:41
00022 suncat2053 pw.x -in pw.inp   Done                     12/19/2018 06:17:41
00023 suncat2053 pw.x -in pw.inp   Done                     12/19/2018 06:17:41
00024 suncat2053 pw.x -in pw.inp   Done                     12/19/2018 06:17:41
00025 suncat2053 pw.x -in pw.inp   Done                     12/19/2018 06:17:41
00026 suncat2053 pw.x -in pw.inp   Done                     12/19/2018 06:17:41
00027 suncat2053 pw.x -in pw.inp   Done                     12/19/2018 06:17:41
00028 suncat2053 pw.x -in pw.inp   Done                     12/19/2018 06:17:41
00029 suncat2053 pw.x -in pw.inp   Done                     12/19/2018 06:17:41
00030 suncat2053 pw.x -in pw.inp   Done                     12/19/2018 06:17:41
00031 suncat2053 pw.x -in pw.inp   Done                     12/19/2018 06:17:41