     Program PWSCF v.5.1rc2 (svn rev. 11289) starts on 31Dec2018 at 13:47:56

     Current dimensions of program PWSCF are:
     Max number of different atomic species (ntypx) = 10
     Max number of k-points (npk) =  40000
     Max angular momentum in pseudopotentials (lmaxx) =  3
     Presently stress not available with electric field

     IMPORTANT: XC functional enforced from input :
     Exchange-correlation      = BEEF-VDW ( 1  4 27 13 2)
     Any further DFT definition will be discarded
     Please, verify this is what you really want

     Subspace diagonalization in iterative solution of the eigenvalue problem:
     a serial algorithm will be used

     bravais-lattice index     =            0
     lattice parameter (alat)  =       1.8897  a.u.
     unit-cell volume          =    4434.3852 (a.u.)^3
     number of atoms/cell      =           12
     number of atomic types    =            2
     number of electrons       =       192.00
     number of Kohn-Sham states=          126
     kinetic-energy cutoff     =      36.7493  Ry
     charge density cutoff     =     367.4932  Ry
     convergence threshold     =      1.0E-06
     mixing beta               =       0.1000
     number of iterations used =           10  plain     mixing
     Exchange-correlation      = BEEF-VDW ( 1  4 27 13 2)
     nstep                     =           50

     celldm(1)=   1.889726  celldm(2)=   0.000000  celldm(3)=   0.000000
     celldm(4)=   0.000000  celldm(5)=   0.000000  celldm(6)=   0.000000

     crystal axes: (cart. coord. in units of alat)
               a(1) = (   5.560510   0.000000   0.000000 )
               a(2) = (  -2.780255   4.815543   0.000000 )
               a(3) = (   0.000000   0.000000  24.540137 )

     reciprocal axes: (cart. coord. in units 2 pi/alat)
               b(1) = (  0.179840  0.103830  0.000000 )
               b(2) = (  0.000000  0.207661  0.000000 )
               b(3) = (  0.000000  0.000000  0.040750 )

     PseudoPot. # 1 for Pd read from file:
     /afs/slac.stanford.edu/u/if/mamunm/psp/gbrv1.5pbe/Pd.UPF
     MD5 check sum: 2d733d2bc2cbfd217af676df1668a4bc
     Pseudo is Ultrasoft + core correction, Zval = 16.0
     Generated by new atomic code, or converted to UPF format
     Using radial grid of  887 points,  6 beta functions with:
                l(1) =   0
                l(2) =   0
                l(3) =   1
                l(4) =   1
                l(5) =   2
                l(6) =   2
     Q(r) pseudized with  8 coefficients,  rinner =    1.130   1.130   1.130
                                                       1.130   1.130

     PseudoPot. # 2 for Os read from file:
     /afs/slac.stanford.edu/u/if/mamunm/psp/gbrv1.5pbe/Os.UPF
     MD5 check sum: a3fb40a04f0c37c25c34bbc47164c9a8
     Pseudo is Ultrasoft + core correction, Zval = 16.0
     Generated by new atomic code, or converted to UPF format
     Using radial grid of  983 points,  8 beta functions with:
                l(1) =   0
                l(2) =   0
                l(3) =   1
                l(4) =   1
                l(5) =   2
                l(6) =   2
                l(7) =   3
                l(8) =   3
     Q(r) pseudized with  8 coefficients,  rinner =    1.150   1.150   1.150
                                                       1.150   1.150   1.150
                                                       1.150

     vdW kernel table read from file vdW_kernel_table
     MD5 check sum: 095c7af220d748ca6e76c0b4c6cfb241

     atomic species   valence    mass     pseudopotential
        Pd1           16.00   106.42000     Pd( 1.00)
        Os1           16.00   190.23000     Os( 1.00)

     No symmetry found

   Cartesian axes

     site n.     atom                  positions (alat units)
         1           Pd1 tau(   1) = (   0.0000000   0.0000000  10.0000000  )
         2           Pd1 tau(   2) = (  -1.3901274   2.4077713  10.0000000  )
         3           Pd1 tau(   3) = (   1.3901274   2.4077713  10.0000000  )
         4           Os1 tau(   4) = (   2.7802548   0.0000000  10.0000000  )
         5           Pd1 tau(   5) = (   2.7802548   1.6051809  12.2700686  )
         6           Pd1 tau(   6) = (   1.3901274   4.0129522  12.2700686  )
         7           Pd1 tau(   7) = (  -1.3901274   4.0129522  12.2700686  )
         8           Os1 tau(   8) = (   0.0000000   1.6051809  12.2700686  )
         9           Pd1 tau(   9) = (  -0.0000000   3.2103618  14.5401371  )
        10           Pd1 tau(  10) = (   1.3901274   0.8025904  14.5401371  )
        11           Pd1 tau(  11) = (   4.1703822   0.8025904  14.5401371  )
        12           Os1 tau(  12) = (   2.7802548   3.2103618  14.5401371  )

     number of k points=    20  Fermi-Dirac smearing, width (Ry)=  0.0110
                       cart. coord. in units 2pi/alat
        k(    1) = (   0.0000000   0.0000000   0.0000000), wk =   0.0555556
        k(    2) = (   0.0000000   0.0346102   0.0000000), wk =   0.1111111
        k(    3) = (   0.0000000   0.0692203   0.0000000), wk =   0.1111111
        k(    4) = (   0.0000000  -0.1038305   0.0000000), wk =   0.0555556
        k(    5) = (   0.0299733   0.0173051   0.0000000), wk =   0.1111111
        k(    6) = (   0.0299733   0.0519152   0.0000000), wk =   0.1111111
        k(    7) = (   0.0299733   0.0865254   0.0000000), wk =   0.1111111
        k(    8) = (   0.0299733  -0.0865254   0.0000000), wk =   0.1111111
        k(    9) = (   0.0299733  -0.0519152   0.0000000), wk =   0.1111111
        k(   10) = (   0.0299733  -0.0173051   0.0000000), wk =   0.1111111
        k(   11) = (   0.0599465   0.0346102   0.0000000), wk =   0.1111111
        k(   12) = (   0.0599465   0.0692203   0.0000000), wk =   0.1111111
        k(   13) = (   0.0599465   0.1038305   0.0000000), wk =   0.1111111
        k(   14) = (   0.0599465  -0.0692203   0.0000000), wk =   0.1111111
        k(   15) = (   0.0599465  -0.0346102   0.0000000), wk =   0.1111111
        k(   16) = (   0.0599465   0.0000000   0.0000000), wk =   0.1111111
        k(   17) = (  -0.0899198  -0.0519152   0.0000000), wk =   0.0555556
        k(   18) = (  -0.0899198  -0.0173051   0.0000000), wk =   0.1111111
        k(   19) = (  -0.0899198   0.0173051   0.0000000), wk =   0.1111111
        k(   20) = (  -0.0899198  -0.1557457   0.0000000), wk =   0.0555556

     Largest allocated arrays     est. size (Mb)     dimensions
     Largest temporary arrays     est. size (Mb)     dimensions

     Initial potential from superposition of free atoms
     Check: negative starting charge=   -1.061430

     starting charge  185.99983, renormalised to  192.00000

     negative rho (up, down):  1.096E+00 0.000E+00

     *
     * You are using vdW-DF for exchange-correlation in this calculation.
     * Please cite the following three references that made this development
     * possible:
     *
     *   M. Dion, H. Rydberg, E. Schroder, D. C. Langreth, and
     *   B. I. Lundqvist, Phys. Rev. Lett. 92, 246401 (2004).
     *
     *   T. Thonhauser, V. R. Cooper, S. Li, A. Puzder, P. Hyldgaard, and
     *   D. C. Langreth, Phys. Rev. B 76, 125112 (2007).
     *
     *   G. Roman-Perez and J. M. Soler, Phys. Rev. Lett. 103, 096102 (2009).
     *
     *
     * If you are using vdW-DF2, please also cite:
     *
     *   K. Lee, E. D. Murray, L. Kong, B. I. Lundqvist, and
     *   D. C. Langreth, Phys. Rev. B 82, 081101(R) (2010).
     *
     *
     * If you are calculating the stress with vdW-DF, please also cite:
     *
     *   R. Sabatini, E. Kucukbenli, B. Kolb, T. Thonhauser, and
     *   S. de Gironcoli, J. Phys.: Condens. Matter 24, 424209 (2012).
     *

     Carrying out vdW-DF run using the following parameters:

     Nqs =      20    Nr_points =    1024   r_max =   100.000
     q_mesh =
               0.00001000     0.04494208     0.09755937     0.15916263
               0.23128650     0.31572767     0.41458969     0.53033537
               0.66584808     0.82450364     1.01025438     1.22772762
               1.48234092     1.78043706     2.12944203     2.53805004
               3.01644009     3.57652955     4.23227104     5.00000000

     Gradients computed in reciprocal space

     Adding external electric field

     Computed dipole along edir(3) :
        Dipole               -0.0000 Ry au,         -0.0000 Debye
        Dipole field         -0.0000 Ry au

        Potential amp.        0.0000 Ry
        Total length         45.2148 bohr

     Starting wfc are  147 randomized atomic wfcs

     Self-consistent Calculation

     iteration #  1     ecut=    36.75 Ry     beta=0.10
     Davidson diagonalization with overlap
     ethr =  1.00E-02,  avg # of iterations =  7.4

[...]

     total energy              =   -2395.43628162 Ry
     Harris-Foulkes estimate   =   -2402.18737789 Ry
     estimated scf accuracy    <      38.79705635 Ry

[...]

     End of self-consistent calculation

          k = 0.0000 0.0000 0.0000 ( 16703 PWs)   bands (ev):

   -85.0602 -84.5909 -84.5907 -49.0890 -49.0394 -49.0394 -48.9651 -48.9651
   -48.9151 -48.9145 -48.7859 -48.7859 -48.7544 -48.7544 -48.7228 -48.7219
   -48.7163 -48.7163 -48.6427 -48.6395 -48.5207 -48.5207 -48.5183 -48.5183
   -48.4706 -48.4495 -48.4116 -48.4116 -48.4041 -48.4041 -44.3770 -44.2658
   -44.2658 -43.8780 -43.8780 -43.8767 -43.8767 -43.8050 -43.8000  -5.6053
    -4.1529  -4.1326  -3.8169  -3.8169  -3.7166  -3.5406  -3.5118  -3.5118
    -3.3163  -3.3163  -3.3094  -3.0549  -3.0484  -3.0484  -2.0333  -2.0333
    -2.0274  -1.7391  -1.7391  -1.6250  -1.5138  -1.4123  -1.4123  -1.2703
    -1.1761  -1.1761  -1.1029  -0.9857  -0.9857  -0.9718  -0.9718  -0.5231
    -0.5231  -0.1412   0.1149   0.1149   0.1300   0.1382   0.1382   0.2494
     0.2494   0.6817   0.7995   0.9057   0.9057   1.0107   1.1826   1.2707
     1.3194   1.3242   1.3242   1.6283   1.6283   1.9673   1.9673   2.0399
     2.1185   2.1185   2.3495   2.3495   2.5850   2.5850   2.5923   3.2868
     3.2868   3.5703   4.8822   4.8822   5.0472   5.0472   5.1428   5.2256
     6.0353   6.3059   6.6597   7.5942   7.7857   8.0576   8.5315   8.7385
     8.7385   8.7465   8.7465   9.0535   9.9883  10.0229

[...]

          k =-0.0899-0.0519 0.0000 ( 16668 PWs)   bands (ev):

[...]

     the Fermi energy is     1.5270 ev

!    total energy              =   -2397.07672005 Ry
     Harris-Foulkes estimate   =   -2397.07771453 Ry
     estimated scf accuracy    <       0.00000084 Ry

     The total energy is the sum of the following terms:

     one-electron contribution =  -20632.83705531 Ry
     hartree contribution      =   10347.04568358 Ry
     xc contribution           =    -408.33773638 Ry
     ewald contribution        =    8297.15843780 Ry
     electric field correction =       0.00000001 Ry
     smearing contrib. (-TS)   =      -0.10604976 Ry

     convergence has been achieved in  16 iterations

 BEEF-vdW xc energy contributions
           1 :   -356.183330974938
           2 :    326.899244951935
           3 :   -276.362644965945
           4 :    217.359451976945
           5 :   -162.741328346026
           6 :    121.358921846444
           7 :   -96.0569739222079
           8 :    84.1497802424533
[...]
     Generated by new atomic code, or converted to UPF format
     Using radial grid of  887 points,  6 beta functions with:
                l(1) =   0
                l(2) =   0
                l(3) =   1
                l(4) =   1
                l(5) =   2
                l(6) =   2
     Q(r) pseudized with  8 coefficients,  rinner =    1.130   1.130   1.130
                                                       1.130   1.130

     PseudoPot. # 2 for Os read from file:
     /afs/slac.stanford.edu/u/if/mamunm/psp/gbrv1.5pbe/Os.UPF
     MD5 check sum: a3fb40a04f0c37c25c34bbc47164c9a8
     Pseudo is Ultrasoft + core correction, Zval = 16.0
     Generated by new atomic code, or converted to UPF format
     Using radial grid of  983 points,  8 beta functions with:
                l(1) =   0
                l(2) =   0
                l(3) =   1
                l(4) =   1
                l(5) =   2
                l(6) =   2
                l(7) =   3
                l(8) =   3
     Q(r) pseudized with  8 coefficients,  rinner =    1.150   1.150   1.150
                                                       1.150   1.150   1.150
                                                       1.150

     vdW kernel table read from file vdW_kernel_table
     MD5 check sum: 095c7af220d748ca6e76c0b4c6cfb241

     atomic species   valence    mass     pseudopotential
        Pd1           16.00   106.42000     Pd( 1.00)
        Os1           16.00   190.23000     Os( 1.00)

     No symmetry found

   Cartesian axes

     site n.     atom                  positions (alat units)
         1           Pd1 tau(   1) = (   0.0000000   0.0000000  10.0000000  )
         2           Pd1 tau(   2) = (  -1.3901274   2.4077713  10.0000000  )
         3           Pd1 tau(   3) = (   1.3901274   2.4077713  10.0000000  )
         4           Os1 tau(   4) = (   2.7802548   0.0000000  10.0000000  )
         5           Pd1 tau(   5) = (   2.7802548   1.6051809  12.2700686  )
         6           Pd1 tau(   6) = (   1.3901274   4.0129522  12.2700686  )
         7           Pd1 tau(   7) = (  -1.3901274   4.0129522  12.2700686  )
         8           Os1 tau(   8) = (   0.0000000   1.6051809  12.2700686  )
         9           Pd1 tau(   9) = (   0.0000013   3.1877572  14.5591583  )
        10           Pd1 tau(  10) = (   1.3705515   0.8138930  14.5591595  )
        11           Pd1 tau(  11) = (   4.1899591   0.8138927  14.5591588  )
        12           Os1 tau(  12) = (   2.7802562   3.2103656  14.4048979  )

     number of k points=    20  Fermi-Dirac smearing, width (Ry)=  0.0110
                       cart. coord. in units 2pi/alat
        k(    1) = (   0.0000000   0.0000000   0.0000000), wk =   0.0555556
        k(    2) = (   0.0000000   0.0346102   0.0000000), wk =   0.1111111
        k(    3) = (   0.0000000   0.0692203   0.0000000), wk =   0.1111111
        k(    4) = (   0.0000000  -0.1038305   0.0000000), wk =   0.0555556
        k(    5) = (   0.0299733   0.0173051   0.0000000), wk =   0.1111111
        k(    6) = (   0.0299733   0.0519152   0.0000000), wk =   0.1111111
        k(    7) = (   0.0299733   0.0865254   0.0000000), wk =   0.1111111
        k(    8) = (   0.0299733  -0.0865254   0.0000000), wk =   0.1111111
        k(    9) = (   0.0299733  -0.0519152   0.0000000), wk =   0.1111111
        k(   10) = (   0.0299733  -0.0173051   0.0000000), wk =   0.1111111
        k(   11) = (   0.0599465   0.0346102   0.0000000), wk =   0.1111111
        k(   12) = (   0.0599465   0.0692203   0.0000000), wk =   0.1111111
        k(   13) = (   0.0599465   0.1038305   0.0000000), wk =   0.1111111
        k(   14) = (   0.0599465  -0.0692203   0.0000000), wk =   0.1111111
        k(   15) = (   0.0599465  -0.0346102   0.0000000), wk =   0.1111111
        k(   16) = (   0.0599465   0.0000000   0.0000000), wk =   0.1111111
        k(   17) = (  -0.0899198  -0.0519152   0.0000000), wk =   0.0555556
        k(   18) = (  -0.0899198  -0.0173051   0.0000000), wk =   0.1111111
        k(   19) = (  -0.0899198   0.0173051   0.0000000), wk =   0.1111111
        k(   20) = (  -0.0899198  -0.1557457   0.0000000), wk =   0.0555556

     Largest allocated arrays     est. size (Mb)     dimensions
     Largest temporary arrays     est. size (Mb)     dimensions

     Initial potential from superposition of free atoms
     Check: negative starting charge=   -1.056158

     starting charge  185.99983, renormalised to  192.00000

[...]

     *
     * You are using vdW-DF for exchange-correlation in this calculation.
     * Please cite the following three references that made this development
     * possible:
     *
     *   M. Dion, H. Rydberg, E. Schroder, D. C. Langreth, and
     *   B. I. Lundqvist, Phys. Rev. Lett. 92, 246401 (2004).
     *
     *   T. Thonhauser, V. R. Cooper, S. Li, A. Puzder, P. Hyldgaard, and
     *   D. C. Langreth, Phys. Rev. B 76, 125112 (2007).
     *
     *   G. Roman-Perez and J. M. Soler, Phys. Rev. Lett. 103, 096102 (2009).
     *
     *
     * If you are using vdW-DF2, please also cite:
     *
     *   K. Lee, E. D. Murray, L. Kong, B. I. Lundqvist, and
     *   D. C. Langreth, Phys. Rev. B 82, 081101(R) (2010).
     *
     *
     * If you are calculating the stress with vdW-DF, please also cite:
     *
     *   R. Sabatini, E. Kucukbenli, B. Kolb, T. Thonhauser, and
     *   S. de Gironcoli, J. Phys.: Condens. Matter 24, 424209 (2012).
     *

     Carrying out vdW-DF run using the following parameters:

     Nqs =      20    Nr_points =    1024   r_max =   100.000
     q_mesh =
               0.00001000     0.04494208     0.09755937     0.15916263
               0.23128650     0.31572767     0.41458969     0.53033537
               0.66584808     0.82450364     1.01025438     1.22772762
               1.48234092     1.78043706     2.12944203     2.53805004
               3.01644009     3.57652955     4.23227104     5.00000000

     Gradients computed in reciprocal space

[...]

     Starting wfc are  147 randomized atomic wfcs

     Self-consistent Calculation

[...]

     total energy              =   -2397.08564131 Ry
     Harris-Foulkes estimate   =   -2397.08564243 Ry
     estimated scf accuracy    <       0.00000564 Ry

     iteration # 17     ecut=    36.75 Ry     beta=0.10
     Davidson diagonalization with overlap
     ethr =  2.94E-09,  avg # of iterations =  1.0

[...]

     negative rho (up, down):  1.077E+00 0.000E+00

     Adding external electric field

     Computed dipole along edir(3) :
        Dipole                0.0096 Ry au,          0.0243 Debye
        Dipole field          0.0000 Ry au

        Potential amp.       -0.0025 Ry
        Total length         45.2148 bohr

     End of self-consistent calculation

[...]

          k = 0.0599 0.0000 0.0000 ( 16622 PWs)   bands (ev):

[...]

          k =-0.0899-0.1557 0.0000 ( 16668 PWs)   bands (ev):

   -85.0222 -84.6384 -84.5387 -49.1195 -49.0715 -49.0449 -49.0249 -49.0005
   -48.9674 -48.8937 -48.8580 -48.7983 -48.7204 -48.7004 -48.6817 -48.6637
   -48.6572 -48.6326 -48.6223 -48.6053 -48.5711 -48.5429 -48.5066 -48.4814
   -48.4289 -48.4163 -48.4090 -48.3905 -48.3897 -48.3695 -44.3458 -44.2358
   -44.2305 -43.9221 -43.9170 -43.8852 -43.8400 -43.8348 -43.7433  -4.2519
    -3.9956  -3.2392  -3.2053  -3.0597  -3.0116  -3.0057  -2.8575  -2.8157
    -2.7452  -2.6198  -2.5327  -2.3747  -2.3515  -2.3269  -2.2010  -2.0204
    -1.9501  -1.8921  -1.8894  -1.7522  -1.6258  -1.4911  -1.3970  -1.1975
    -1.1919  -1.1365  -1.1036  -0.9969  -0.9727  -0.9704  -0.8996  -0.8599
    -0.8187  -0.7932  -0.7490  -0.6628  -0.5997  -0.5339  -0.4645  -0.3833
    -0.3248  -0.2412  -0.2000  -0.0514  -0.0209   0.3407   0.3631   0.3946
     0.5743   0.6816   0.8870   0.8991   1.0279   1.0571   1.1101   1.1579
     1.1684   1.4399   1.5856   1.7710   1.7728   1.9480   2.4355   3.5247
     3.6409   3.7057   4.6976   4.8646   5.3515   5.9842   6.1829   7.0393
     7.1517   7.5566   7.5912   8.1425   8.1643   8.2292   8.2401   9.2928
     9.3593   9.3901   9.5680   9.8793   9.9054  10.3675

     the Fermi energy is     1.5484 ev

!    total energy              =   -2397.08563997 Ry
     Harris-Foulkes estimate   =   -2397.08564162 Ry
     estimated scf accuracy    <       0.00000060 Ry

     The total energy is the sum of the following terms:

     one-electron contribution =  -20688.37567398 Ry
     hartree contribution      =   10374.86060387 Ry
     xc contribution           =    -408.39284319 Ry
     ewald contribution        =    8324.92575847 Ry
     electric field correction =       0.00000026 Ry
     smearing contrib. (-TS)   =      -0.10348541 Ry

     convergence has been achieved in  17 iterations

 BEEF-vdW xc energy contributions
           1 :   -356.303169170360
           2 :    327.039638865882
           3 :   -276.532736024805
           4 :    217.548709550142
           5 :   -162.919979385911
           6 :    121.490292055799
           7 :   -96.1174459009823
           8 :    84.1446907224483
           9 :   -79.7689323481967
          10 :    77.0460744400825
          11 :   -72.2144545744188
          12 :    64.5192541773865
          13 :   -55.5303511188237
          14 :    47.6047527998014
          15 :   -42.4001259919307
          16 :    40.1153597352412
          17 :   -39.6500369264133
          18 :    39.3956732765363
          19 :   -38.1325560620985
          20 :    35.5538468765313
          21 :   -32.2232305516392
          22 :    29.0929263536650
          23 :   -26.9124860102875
          24 :    25.8512800299249
          25 :   -25.4950532108083
          26 :    25.1556177612799
          27 :   -24.2820901405518
          28 :    22.7367123154364
          29 :   -20.8072142362911
          30 :    18.9855825309421
          31 :   -34.3872448115784
          32 :   -25.6499547486719

     Forces acting on atoms (Ry/au):

     negative rho (up, down):  1.077E+00 0.000E+00
     atom    1 type  1   force =     0.00000037    0.01460144   -0.00577543
     atom    2 type  1   force =     0.01264522   -0.00730024   -0.00577541
     atom    3 type  1   force =    -0.01264506   -0.00730083   -0.00577521
     atom    4 type  2   force =     0.00000087    0.00000071    0.03459565
     atom    5 type  1   force =    -0.00000013   -0.00744921   -0.00589935
     atom    6 type  1   force =    -0.00645155    0.00372438   -0.00590016
     atom    7 type  1   force =     0.00645138    0.00372487   -0.00590030
     atom    8 type  2   force =    -0.00000097   -0.00000163    0.00067427
     atom    9 type  1   force =    -0.00000022   -0.00011212   -0.00000623
     atom   10 type  1   force =    -0.00009648    0.00005638   -0.00000649
     atom   11 type  1   force =     0.00009679    0.00005678   -0.00000562
     atom   12 type  2   force =    -0.00000022   -0.00000051   -0.00022571

     Total force =     0.046989     Total SCF correction =     0.004179

     entering subroutine stress ...

     negative rho (up, down):  1.077E+00 0.000E+00
          total   stress  (Ry/bohr**3)                   (kbar)     P=  -14.27
  -0.00012842  -0.00000000   0.00000000        -18.89     -0.00      0.00
  -0.00000000  -0.00012842   0.00000000         -0.00    -18.89      0.00
   0.00000000   0.00000000  -0.00003414          0.00      0.00     -5.02

 !ASE

     Writing output data file calc.save

     General routines

     Parallel routines

   This run was terminated on:  15:20:40  31Dec2018

   JOB DONE.
Job  /afs/slac/g/suncat/bin/suncat-tsmpirun -x LD_LIBRARY_PATH -wdir /scratch/qe648781_cV94p pw.x -in pw.inp

TID   HOST_NAME   COMMAND_LINE            STATUS            TERMINATION_TIME
00000 suncat0146 pw.x -in pw.inp   Done                     12/31/2018 15:20:40
00001 suncat0146 pw.x -in pw.inp   Done                     12/31/2018 15:20:40
00002 suncat0146 pw.x -in pw.inp   Done                     12/31/2018 15:20:40
00003 suncat0146 pw.x -in pw.inp   Done                     12/31/2018 15:20:40
00004 suncat0146 pw.x -in pw.inp   Done                     12/31/2018 15:20:40
00005 suncat0146 pw.x -in pw.inp   Done                     12/31/2018 15:20:40
00006 suncat0146 pw.x -in pw.inp   Done                     12/31/2018 15:20:40
00007 suncat0146 pw.x -in pw.inp   Done                     12/31/2018 15:20:40
00008 suncat0136 pw.x -in pw.inp   Done                     12/31/2018 15:20:40
00009 suncat0136 pw.x -in pw.inp   Done                     12/31/2018 15:20:40
00010 suncat0136 pw.x -in pw.inp   Done                     12/31/2018 15:20:40
00011 suncat0136 pw.x -in pw.inp   Done                     12/31/2018 15:20:40
00012 suncat0136 pw.x -in pw.inp   Done                     12/31/2018 15:20:40
00013 suncat0136 pw.x -in pw.inp   Done                     12/31/2018 15:20:40
00014 suncat0136 pw.x -in pw.inp   Done                     12/31/2018 15:20:40
00015 suncat0136 pw.x -in pw.inp   Done                     12/31/2018 15:20:40
00016 suncat0248 pw.x -in pw.inp   Done                     12/31/2018 15:20:40
00017 suncat0248 pw.x -in pw.inp   Done                     12/31/2018 15:20:40
00018 suncat0248 pw.x -in pw.inp   Done                     12/31/2018 15:20:40
00019 suncat0248 pw.x -in pw.inp   Done                     12/31/2018 15:20:40
00020 suncat0248 pw.x -in pw.inp   Done                     12/31/2018 15:20:40
00021 suncat0248 pw.x -in pw.inp   Done                     12/31/2018 15:20:40
00022 suncat0248 pw.x -in pw.inp   Done                     12/31/2018 15:20:40
00023 suncat0248 pw.x -in pw.inp   Done                     12/31/2018 15:20:40
00024 suncat0247 pw.x -in pw.inp   Done                     12/31/2018 15:20:40
00025 suncat0247 pw.x -in pw.inp   Done                     12/31/2018 15:20:40
00026 suncat0247 pw.x -in pw.inp   Done                     12/31/2018 15:20:40
00027 suncat0247 pw.x -in pw.inp   Done                     12/31/2018 15:20:40
00028 suncat0247 pw.x -in pw.inp   Done                     12/31/2018 15:20:40
00029 suncat0247 pw.x -in pw.inp   Done                     12/31/2018 15:20:40
00030 suncat0247 pw.x -in pw.inp   Done                     12/31/2018 15:20:40
00031 suncat0247 pw.x -in pw.inp   Done                     12/31/2018 15:20:40
00032 suncat0246 pw.x -in pw.inp   Done                     12/31/2018 15:20:40
00033 suncat0246 pw.x -in pw.inp   Done                     12/31/2018 15:20:40
00034 suncat0246 pw.x -in pw.inp   Done                     12/31/2018 15:20:40
00035 suncat0246 pw.x -in pw.inp   Done                     12/31/2018 15:20:40
00036 suncat0246 pw.x -in pw.inp   Done                     12/31/2018 15:20:40
00037 suncat0246 pw.x -in pw.inp   Done                     12/31/2018 15:20:40
00038 suncat0246 pw.x -in pw.inp   Done                     12/31/2018 15:20:40
00039 suncat0246 pw.x -in pw.inp   Done                     12/31/2018 15:20:40
00040 suncat0245 pw.x -in pw.inp   Done                     12/31/2018 15:20:40
00041 suncat0245 pw.x -in pw.inp   Done                     12/31/2018 15:20:40
00042 suncat0245 pw.x -in pw.inp   Done                     12/31/2018 15:20:40
00043 suncat0245 pw.x -in pw.inp   Done                     12/31/2018 15:20:40
00044 suncat0245 pw.x -in pw.inp   Done                     12/31/2018 15:20:40
00045 suncat0245 pw.x -in pw.inp   Done                     12/31/2018 15:20:40
00046 suncat0245 pw.x -in pw.inp   Done                     12/31/2018 15:20:40
00047 suncat0245 pw.x -in pw.inp   Done                     12/31/2018 15:20:40
00048 suncat0214 pw.x -in pw.inp   Done                     12/31/2018 15:20:40
00049 suncat0214 pw.x -in pw.inp   Done                     12/31/2018 15:20:40
00050 suncat0214 pw.x -in pw.inp   Done                     12/31/2018 15:20:40
00051 suncat0214 pw.x -in pw.inp   Done                     12/31/2018 15:20:40
00052 suncat0214 pw.x -in pw.inp   Done                     12/31/2018 15:20:40
00053 suncat0214 pw.x -in pw.inp   Done                     12/31/2018 15:20:40
00054 suncat0214 pw.x -in pw.inp   Done                     12/31/2018 15:20:40
00055 suncat0214 pw.x -in pw.inp   Done                     12/31/2018 15:20:40
00056 suncat0213 pw.x -in pw.inp   Done                     12/31/2018 15:20:40
00057 suncat0213 pw.x -in pw.inp   Done                     12/31/2018 15:20:40
00058 suncat0213 pw.x -in pw.inp   Done                     12/31/2018 15:20:40
00059 suncat0213 pw.x -in pw.inp   Done                     12/31/2018 15:20:40
00060 suncat0213 pw.x -in pw.inp   Done                     12/31/2018 15:20:40
00061 suncat0213 pw.x -in pw.inp   Done                     12/31/2018 15:20:40
00062 suncat0213 pw.x -in pw.inp   Done                     12/31/2018 15:20:40
00063 suncat0213 pw.x -in pw.inp   Done                     12/31/2018 15:20:40