     Program PWSCF v.5.1rc2 (svn rev. 11289) starts on 27Dec2018 at  2:52:55

     Current dimensions of program PWSCF are:
     Max number of different atomic species (ntypx) = 10
     Max number of k-points (npk) =  40000
     Max angular momentum in pseudopotentials (lmaxx) =  3
     Presently stress not available with electric field

     IMPORTANT: XC functional enforced from input :
     Exchange-correlation      = BEEF-VDW ( 1  4 27 13 2)
     Any further DFT definition will be discarded
     Please, verify this is what you really want

     Subspace diagonalization in iterative solution of the eigenvalue problem:
     a serial algorithm will be used

     bravais-lattice index     =            0
     lattice parameter (alat)  =       1.8897  a.u.
     unit-cell volume          =    4524.6558 (a.u.)^3
     number of atoms/cell      =           12
     number of atomic types    =            2
     number of electrons       =       174.00
     number of Kohn-Sham states=          117
     kinetic-energy cutoff     =      36.7493  Ry
     charge density cutoff     =     367.4932  Ry
     convergence threshold     =      1.0E-06
     mixing beta               =       0.1000
     number of iterations used =           10  plain     mixing
     Exchange-correlation      = BEEF-VDW ( 1  4 27 13 2)
     nstep                     =           50

     celldm(1)=   1.889726  celldm(2)=   0.000000  celldm(3)=   0.000000
     celldm(4)=   0.000000  celldm(5)=   0.000000  celldm(6)=   0.000000

     crystal axes: (cart. coord. in units of alat)
               a(1) = (   5.612015   0.000000   0.000000 )
               a(2) = (  -2.806008   4.860148   0.000000 )
               a(3) = (   0.000000   0.000000  24.582191 )

     reciprocal axes: (cart. coord. in units 2 pi/alat)
               b(1) = (  0.178189  0.102878  0.000000 )
               b(2) = (  0.000000  0.205755  0.000000 )
               b(3) = (  0.000000  0.000000  0.040680 )

     PseudoPot. # 1 for Mo read from file:
     /afs/slac.stanford.edu/u/if/mamunm/psp/gbrv1.5pbe/Mo.UPF
     MD5 check sum: 30c4dcd161f5d35cd49bb5239c51a633
     Pseudo is Ultrasoft + core correction, Zval = 14.0
     Generated by new atomic code, or converted to UPF format
     Using radial grid of  889 points,  6 beta functions with:
                l(1) =   0
                l(2) =   0
                l(3) =   1
                l(4) =   1
                l(5) =   2
                l(6) =   2
     Q(r) pseudized with  6 coefficients,  rinner =    1.000   1.000   1.000
                                                       1.000   1.000

     PseudoPot. # 2 for Os read from file:
     /afs/slac.stanford.edu/u/if/mamunm/psp/gbrv1.5pbe/Os.UPF
     MD5 check sum: a3fb40a04f0c37c25c34bbc47164c9a8
     Pseudo is Ultrasoft + core correction, Zval = 16.0
     Generated by new atomic code, or converted to UPF format
     Using radial grid of  983 points,  8 beta functions with:
                l(1) =   0
                l(2) =   0
                l(3) =   1
                l(4) =   1
                l(5) =   2
                l(6) =   2
                l(7) =   3
                l(8) =   3
     Q(r) pseudized with  8 coefficients,  rinner =    1.150   1.150   1.150
                                                       1.150   1.150   1.150
                                                       1.150

     vdW kernel table read from file vdW_kernel_table
     MD5 check sum: 095c7af220d748ca6e76c0b4c6cfb241

     atomic species   valence    mass     pseudopotential
        Mo1           14.00    95.95000     Mo( 1.00)
        Os1           16.00   190.23000     Os( 1.00)

     No symmetry found

   Cartesian axes

     site n.     atom                  positions (alat units)
         1           Mo1 tau(   1) = (   0.0000000   0.0000000  10.0000000  )
         2           Mo1 tau(   2) = (  -1.4030039   2.4300740  10.0000000  )
         3           Mo1 tau(   3) = (   1.4030039   2.4300740  10.0000000  )
         4           Os1 tau(   4) = (   2.8060077   0.0000000  10.0000000  )
         5           Mo1 tau(   5) = (   2.8060077   1.6200493  12.2910957  )
         6           Mo1 tau(   6) = (   1.4030039   4.0501233  12.2910957  )
         7           Mo1 tau(   7) = (  -1.4030039   4.0501233  12.2910957  )
         8           Os1 tau(   8) = (   0.0000000   1.6200493  12.2910957  )
         9           Mo1 tau(   9) = (  -0.0000000   3.2400986  14.5821914  )
        10           Mo1 tau(  10) = (   1.4030039   0.8100247  14.5821914  )
        11           Mo1 tau(  11) = (   4.2090116   0.8100247  14.5821914  )
        12           Os1 tau(  12) = (   2.8060077   3.2400986  14.5821914  )

     number of k points=    20  Fermi-Dirac smearing, width (Ry)=  0.0110
                       cart. coord. in units 2pi/alat
        k(    1) = (   0.0000000   0.0000000   0.0000000), wk =   0.0555556
        k(    2) = (   0.0000000   0.0342925   0.0000000), wk =   0.1111111
        k(    3) = (   0.0000000   0.0685850   0.0000000), wk =   0.1111111
        k(    4) = (   0.0000000  -0.1028775   0.0000000), wk =   0.0555556
        k(    5) = (   0.0296982   0.0171463   0.0000000), wk =   0.1111111
        k(    6) = (   0.0296982   0.0514388   0.0000000), wk =   0.1111111
        k(    7) = (   0.0296982   0.0857313   0.0000000), wk =   0.1111111
        k(    8) = (   0.0296982  -0.0857313   0.0000000), wk =   0.1111111
        k(    9) = (   0.0296982  -0.0514388   0.0000000), wk =   0.1111111
        k(   10) = (   0.0296982  -0.0171463   0.0000000), wk =   0.1111111
        k(   11) = (   0.0593964   0.0342925   0.0000000), wk =   0.1111111
        k(   12) = (   0.0593964   0.0685850   0.0000000), wk =   0.1111111
        k(   13) = (   0.0593964   0.1028775   0.0000000), wk =   0.1111111
        k(   14) = (   0.0593964  -0.0685850   0.0000000), wk =   0.1111111
        k(   15) = (   0.0593964  -0.0342925   0.0000000), wk =   0.1111111
        k(   16) = (   0.0593964   0.0000000   0.0000000), wk =   0.1111111
        k(   17) = (  -0.0890946  -0.0514388   0.0000000), wk =   0.0555556
        k(   18) = (  -0.0890946  -0.0171463   0.0000000), wk =   0.1111111
        k(   19) = (  -0.0890946   0.0171463   0.0000000), wk =   0.1111111
        k(   20) = (  -0.0890946  -0.1543163   0.0000000), wk =   0.0555556

     Largest allocated arrays     est. size (Mb)     dimensions
     Largest temporary arrays     est. size (Mb)     dimensions

     Initial potential from superposition of free atoms
     Check: negative starting charge=   -0.373955

     starting charge  172.49032, renormalised to  174.00000

     negative rho (up, down):  3.772E-01 0.000E+00

     *
     * You are using vdW-DF for exchange-correlation in this calculation.
     * Please cite the following three references that made this development
     * possible:
     *
     *   M. Dion, H. Rydberg, E. Schroder, D. C. Langreth, and
     *   B. I. Lundqvist, Phys. Rev. Lett. 92, 246401 (2004).
     *
     *   T. Thonhauser, V. R. Cooper, S. Li, A. Puzder, P. Hyldgaard, and
     *   D. C. Langreth, Phys. Rev. B 76, 125112 (2007).
     *
     *   G. Roman-Perez and J. M. Soler, Phys. Rev. Lett. 103, 096102 (2009).
     *
     *
     * If you are using vdW-DF2, please also cite:
     *
     *   K. Lee, E. D. Murray, L. Kong, B. I. Lundqvist, and
     *   D. C. Langreth, Phys. Rev. B 82, 081101(R) (2010).
     *
     *
     * If you are calculating the stress with vdW-DF, please also cite:
     *
     *   R. Sabatini, E. Kucukbenli, B. Kolb, T. Thonhauser, and
     *   S. de Gironcoli, J. Phys.: Condens. Matter 24, 424209 (2012).
     *

     Carrying out vdW-DF run using the following parameters:

     Nqs =      20    Nr_points =    1024   r_max =   100.000
     q_mesh =
               0.00001000     0.04494208     0.09755937     0.15916263
               0.23128650     0.31572767     0.41458969     0.53033537
               0.66584808     0.82450364     1.01025438     1.22772762
               1.48234092     1.78043706     2.12944203     2.53805004
               3.01644009     3.57652955     4.23227104     5.00000000

     Gradients computed in reciprocal space

     Adding external electric field

     Computed dipole along edir(3) :
        Dipole               -0.0000 Ry au,         -0.0000 Debye
        Dipole field         -0.0000 Ry au

        Potential amp.        0.0000 Ry
        Total length         45.2923 bohr

     Starting wfc are  156 randomized atomic wfcs

     Self-consistent Calculation

     iteration #  1     ecut=    36.75 Ry     beta=0.10
     Davidson diagonalization with overlap
     ethr =  1.00E-02,  avg # of iterations =  2.0

[...]

     total energy              =   -1858.49521022 Ry
     Harris-Foulkes estimate   =   -1859.34017992 Ry
     estimated scf accuracy    <       4.82279658 Ry

[...]

     End of self-consistent calculation

          k = 0.0000 0.0000 0.0000 ( 16991 PWs)   bands (ev):

   -83.8949 -83.6522 -83.6519 -58.7273 -58.6697 -58.6143 -58.5793 -58.5793
   -58.5515 -58.5515 -58.5243 -58.5243 -43.1884 -43.1553 -43.1553 -42.9626
   -42.9583 -42.9057 -42.9057 -42.9045 -42.9045 -33.2988 -33.1086 -33.1046
   -32.9998 -32.9998 -32.9875 -32.9305 -32.9305 -32.8054 -32.8054 -32.7830
   -32.6655 -32.6655 -32.6114 -32.6114 -32.4837 -32.3769 -32.3686 -32.3686
   -32.3573 -32.2653 -32.2451 -32.2450 -32.1787 -32.1787 -32.1707 -32.1707
    -4.4819  -3.0440  -2.9292  -2.5251  -2.5251  -2.3807  -2.1701  -2.0413
    -2.0413  -1.8324  -1.8324  -1.8193  -1.5759  -1.5759  -1.4712  -0.4450
    -0.4449  -0.1700   0.4264   0.4264   0.5920   0.5922   0.9020   1.3269
     1.3269   1.5363   1.5363   1.5739   1.5739   1.6328   1.7879   1.7879
     1.9926   2.0951   2.1312   2.1312   3.0543   3.0862   3.0862   3.1853
     3.1853   3.2996   3.6089   3.6890   3.6890   4.2879   4.3396   4.3396
     4.6839   4.6839   4.8056   4.8056   4.9581   5.1563   5.1563   5.4278
     5.4278   5.5118   5.8974   5.8974   6.1055   6.1056   6.2409   6.2410
     6.3706   6.4666   6.5590   6.6787   6.6948

[...]

          k =-0.0891-0.0514 0.0000 ( 17060 PWs)   bands (ev):

[...]

     the Fermi energy is     2.3973 ev

!    total energy              =   -1858.82276909 Ry
     Harris-Foulkes estimate   =   -1858.82276638 Ry
     estimated scf accuracy    <       0.00000087 Ry

     The total energy is the sum of the following terms:

     one-electron contribution =  -16393.62950598 Ry
     hartree contribution      =    8187.62259061 Ry
     xc contribution           =    -295.87293410 Ry
     ewald contribution        =    6643.13605172 Ry
     electric field correction =       0.00000000 Ry
     smearing contrib. (-TS)   =      -0.07897135 Ry

     convergence has been achieved in  15 iterations

 BEEF-vdW xc energy contributions
           1 :   -256.083738900118
           2 :    235.233182084461
           3 :   -199.113626705207
           4 :    156.680791296289
           5 :   -117.134683004788
           6 :    87.0848788677300
           7 :   -69.0362165699757
           8 :    61.4929811359710
           9 :   -60.3866028261788
          10 :    61.0615586189741
[...]
     Pseudo is Ultrasoft + core correction, Zval = 14.0
     Generated by new atomic code, or converted to UPF format
     Using radial grid of  889 points,  6 beta functions with:
                l(1) =   0
                l(2) =   0
                l(3) =   1
                l(4) =   1
                l(5) =   2
                l(6) =   2
     Q(r) pseudized with  6 coefficients,  rinner =    1.000   1.000   1.000
                                                       1.000   1.000

     PseudoPot. # 2 for Os read from file:
     /afs/slac.stanford.edu/u/if/mamunm/psp/gbrv1.5pbe/Os.UPF
     MD5 check sum: a3fb40a04f0c37c25c34bbc47164c9a8
     Pseudo is Ultrasoft + core correction, Zval = 16.0
     Generated by new atomic code, or converted to UPF format
     Using radial grid of  983 points,  8 beta functions with:
                l(1) =   0
                l(2) =   0
                l(3) =   1
                l(4) =   1
                l(5) =   2
                l(6) =   2
                l(7) =   3
                l(8) =   3
     Q(r) pseudized with  8 coefficients,  rinner =    1.150   1.150   1.150
                                                       1.150   1.150   1.150
                                                       1.150

     vdW kernel table read from file vdW_kernel_table
     MD5 check sum: 095c7af220d748ca6e76c0b4c6cfb241

     atomic species   valence    mass     pseudopotential
        Mo1           14.00    95.95000     Mo( 1.00)
        Os1           16.00   190.23000     Os( 1.00)

     No symmetry found

   Cartesian axes

     site n.     atom                  positions (alat units)
         1           Mo1 tau(   1) = (   0.0000000   0.0000000  10.0000000  )
         2           Mo1 tau(   2) = (  -1.4030039   2.4300740  10.0000000  )
         3           Mo1 tau(   3) = (   1.4030039   2.4300740  10.0000000  )
         4           Os1 tau(   4) = (   2.8060077   0.0000000  10.0000000  )
         5           Mo1 tau(   5) = (   2.8060077   1.6200493  12.2910957  )
         6           Mo1 tau(   6) = (   1.4030039   4.0501233  12.2910957  )
         7           Mo1 tau(   7) = (  -1.4030039   4.0501233  12.2910957  )
         8           Os1 tau(   8) = (   0.0000000   1.6200493  12.2910957  )
         9           Mo1 tau(   9) = (  -0.0000021   3.2234759  14.4797506  )
        10           Mo1 tau(  10) = (   1.3886116   0.8183306  14.4797510  )
        11           Mo1 tau(  11) = (   4.2234042   0.8183324  14.4797513  )
        12           Os1 tau(  12) = (   2.8060125   3.2401213  14.4915808  )

     number of k points=    20  Fermi-Dirac smearing, width (Ry)=  0.0110
                       cart. coord. in units 2pi/alat
        k(    1) = (   0.0000000   0.0000000   0.0000000), wk =   0.0555556
        k(    2) = (   0.0000000   0.0342925   0.0000000), wk =   0.1111111
        k(    3) = (   0.0000000   0.0685850   0.0000000), wk =   0.1111111
        k(    4) = (   0.0000000  -0.1028775   0.0000000), wk =   0.0555556
        k(    5) = (   0.0296982   0.0171463   0.0000000), wk =   0.1111111
        k(    6) = (   0.0296982   0.0514388   0.0000000), wk =   0.1111111
        k(    7) = (   0.0296982   0.0857313   0.0000000), wk =   0.1111111
        k(    8) = (   0.0296982  -0.0857313   0.0000000), wk =   0.1111111
        k(    9) = (   0.0296982  -0.0514388   0.0000000), wk =   0.1111111
        k(   10) = (   0.0296982  -0.0171463   0.0000000), wk =   0.1111111
        k(   11) = (   0.0593964   0.0342925   0.0000000), wk =   0.1111111
        k(   12) = (   0.0593964   0.0685850   0.0000000), wk =   0.1111111
        k(   13) = (   0.0593964   0.1028775   0.0000000), wk =   0.1111111
        k(   14) = (   0.0593964  -0.0685850   0.0000000), wk =   0.1111111
        k(   15) = (   0.0593964  -0.0342925   0.0000000), wk =   0.1111111
        k(   16) = (   0.0593964   0.0000000   0.0000000), wk =   0.1111111
        k(   17) = (  -0.0890946  -0.0514388   0.0000000), wk =   0.0555556
        k(   18) = (  -0.0890946  -0.0171463   0.0000000), wk =   0.1111111
        k(   19) = (  -0.0890946   0.0171463   0.0000000), wk =   0.1111111
        k(   20) = (  -0.0890946  -0.1543163   0.0000000), wk =   0.0555556

     Largest allocated arrays     est. size (Mb)     dimensions
     Largest temporary arrays     est. size (Mb)     dimensions

     Initial potential from superposition of free atoms
     Check: negative starting charge=   -0.373397

     starting charge  172.49032, renormalised to  174.00000

[...]

     *
     * You are using vdW-DF for exchange-correlation in this calculation.
     * Please cite the following three references that made this development
     * possible:
     *
     *   M. Dion, H. Rydberg, E. Schroder, D. C. Langreth, and
     *   B. I. Lundqvist, Phys. Rev. Lett. 92, 246401 (2004).
     *
     *   T. Thonhauser, V. R. Cooper, S. Li, A. Puzder, P. Hyldgaard, and
     *   D. C. Langreth, Phys. Rev. B 76, 125112 (2007).
     *
     *   G. Roman-Perez and J. M. Soler, Phys. Rev. Lett. 103, 096102 (2009).
     *
     *
     * If you are using vdW-DF2, please also cite:
     *
     *   K. Lee, E. D. Murray, L. Kong, B. I. Lundqvist, and
     *   D. C. Langreth, Phys. Rev. B 82, 081101(R) (2010).
     *
     *
     * If you are calculating the stress with vdW-DF, please also cite:
     *
     *   R. Sabatini, E. Kucukbenli, B. Kolb, T. Thonhauser, and
     *   S. de Gironcoli, J. Phys.: Condens. Matter 24, 424209 (2012).
     *

     Carrying out vdW-DF run using the following parameters:

     Nqs =      20    Nr_points =    1024   r_max =   100.000
     q_mesh =
               0.00001000     0.04494208     0.09755937     0.15916263
               0.23128650     0.31572767     0.41458969     0.53033537
               0.66584808     0.82450364     1.01025438     1.22772762
               1.48234092     1.78043706     2.12944203     2.53805004
               3.01644009     3.57652955     4.23227104     5.00000000

     Gradients computed in reciprocal space

[...]

     Starting wfc are  156 randomized atomic wfcs

     Self-consistent Calculation

[...]

     total energy              =   -1858.83511556 Ry
     Harris-Foulkes estimate   =   -1858.83510919 Ry
     estimated scf accuracy    <       0.00000147 Ry

     iteration # 16     ecut=    36.75 Ry     beta=0.10
     Davidson diagonalization with overlap
     ethr =  8.47E-10,  avg # of iterations =  2.5

[...]

     negative rho (up, down):  3.767E-01 0.000E+00

     Adding external electric field

     Computed dipole along edir(3) :
        Dipole                0.0296 Ry au,          0.0751 Debye
        Dipole field          0.0001 Ry au

        Potential amp.       -0.0074 Ry
        Total length         45.2923 bohr

     End of self-consistent calculation

[...]

          k = 0.0594 0.0000 0.0000 ( 17000 PWs)   bands (ev):

[...]

          k =-0.0891-0.1543 0.0000 ( 17060 PWs)   bands (ev):

   -83.8721 -83.6519 -83.5777 -58.6567 -58.6217 -58.5747 -58.5705 -58.5413
   -58.4912 -58.4798 -58.4505 -58.4200 -43.1783 -43.1465 -43.1423 -42.9589
   -42.9029 -42.8992 -42.8950 -42.8458 -42.8416 -33.0930 -33.0381 -32.9529
   -32.8902 -32.8547 -32.8203 -32.7917 -32.7838 -32.7131 -32.6702 -32.6689
   -32.6253 -32.5857 -32.5685 -32.5664 -32.5603 -32.5299 -32.4904 -32.4206
   -32.4079 -32.3746 -32.2557 -32.2523 -32.2178 -32.1926 -32.1695 -32.0982
    -3.0442  -2.6847  -1.8948  -1.7311  -1.6631  -1.4985  -1.3570  -1.2933
    -1.2597  -0.9501  -0.9438  -0.8854  -0.6888  -0.5575  -0.5188  -0.3521
    -0.2872  -0.0127   0.0771   0.0897   0.3974   0.4689   0.6619   0.6901
     0.7452   0.8871   0.9916   1.1954   1.2780   1.3263   1.4632   1.5092
     1.5872   1.6122   1.6999   1.7431   1.7784   1.8331   1.9685   2.0689
     2.6083   2.6333   2.8516   3.0344   3.0659   3.1672   3.2590   3.4105
     3.5464   3.7352   3.7947   3.8663   3.8728   3.9640   4.0979   4.3211
     4.3948   4.7453   4.8979   5.0443   5.7361   5.7521   5.7656   5.9541
     6.1252   6.3205   7.5393   7.6857   7.7266

     the Fermi energy is     2.4111 ev

!    total energy              =   -1858.83511779 Ry
     Harris-Foulkes estimate   =   -1858.83511566 Ry
     estimated scf accuracy    <       0.00000026 Ry

     The total energy is the sum of the following terms:

     one-electron contribution =  -16628.19069568 Ry
     hartree contribution      =    8305.18964721 Ry
     xc contribution           =    -296.12561555 Ry
     ewald contribution        =    6760.36620404 Ry
     electric field correction =       0.00000243 Ry
     smearing contrib. (-TS)   =      -0.07466024 Ry

     convergence has been achieved in  16 iterations

 BEEF-vdW xc energy contributions
           1 :   -256.392681342712
           2 :    235.621095721684
           3 :   -199.608155930043
           4 :    157.233744705632
           5 :   -117.638141518608
           6 :    87.4224832074620
           7 :   -69.1445041212804
           8 :    61.3996170721133
           9 :   -60.2026263811717
          10 :    60.9309759878264
          11 :   -60.0532932034906
          12 :    56.0631670896777
          13 :   -49.4603447144165
          14 :    41.9767191497643
          15 :   -35.5025800253437
          16 :    31.1849243954292
          17 :   -29.0388749276487
          18 :    28.1381233447390
          19 :   -27.2078625213545
          20 :    25.2809767074137
          21 :   -22.1080443569568
          22 :    18.1625269604041
          23 :   -14.3033682248943
          24 :    11.3010000417665
          25 :   -9.47161842650388
          26 :    8.57361458627889
          27 :   -7.98505954806870
          28 :    7.04238520543555
          29 :   -5.36470527931323
          30 :    3.00872864699198
          31 :   -27.2449845697192
          32 :   -20.8627862290894

     Forces acting on atoms (Ry/au):

     negative rho (up, down):  3.767E-01 0.000E+00
     atom    1 type  1   force =     0.00000038    0.00889632    0.02318021
     atom    2 type  1   force =     0.00770412   -0.00444870    0.02318048
     atom    3 type  1   force =    -0.00770537   -0.00444993    0.02317982
     atom    4 type  2   force =     0.00000785   -0.00000654    0.01669897
     atom    5 type  1   force =     0.00000022    0.00003208   -0.01966228
     atom    6 type  1   force =     0.00002845   -0.00001648   -0.01966275
     atom    7 type  1   force =    -0.00002842   -0.00001661   -0.01966455
     atom    8 type  2   force =    -0.00001229    0.00000549   -0.02670283
     atom    9 type  1   force =     0.00000153    0.00010768   -0.00014555
     atom   10 type  1   force =     0.00009597   -0.00005060   -0.00014550
     atom   11 type  1   force =    -0.00009619   -0.00005264   -0.00014576
     atom   12 type  2   force =     0.00000376   -0.00000006   -0.00011027

     Total force =     0.063256     Total SCF correction =     0.002863

     entering subroutine stress ...

     negative rho (up, down):  3.767E-01 0.000E+00
          total   stress  (Ry/bohr**3)                   (kbar)     P=  -26.13
  -0.00022291  -0.00000000  -0.00000000        -32.79     -0.00     -0.00
  -0.00000000  -0.00022291  -0.00000000         -0.00    -32.79     -0.00
  -0.00000000  -0.00000000  -0.00008716         -0.00     -0.00    -12.82

 !ASE

     Writing output data file calc.save

     General routines

     Parallel routines

   This run was terminated on:   3:34:27  27Dec2018

   JOB DONE.
Job  /afs/slac/g/suncat/bin/suncat-tsmpirun -x LD_LIBRARY_PATH -wdir /scratch/qe110138_6K7yE pw.x -in pw.inp

TID   HOST_NAME   COMMAND_LINE            STATUS            TERMINATION_TIME
00000 suncat0277 pw.x -in pw.inp   Done                     12/27/2018 03:34:27
00001 suncat0277 pw.x -in pw.inp   Done                     12/27/2018 03:34:27
00002 suncat0277 pw.x -in pw.inp   Done                     12/27/2018 03:34:27
00003 suncat0277 pw.x -in pw.inp   Done                     12/27/2018 03:34:27
00004 suncat0277 pw.x -in pw.inp   Done                     12/27/2018 03:34:27
00005 suncat0277 pw.x -in pw.inp   Done                     12/27/2018 03:34:27
00006 suncat0277 pw.x -in pw.inp   Done                     12/27/2018 03:34:27
00007 suncat0277 pw.x -in pw.inp   Done                     12/27/2018 03:34:27
00008 suncat0276 pw.x -in pw.inp   Done                     12/27/2018 03:34:27
00009 suncat0276 pw.x -in pw.inp   Done                     12/27/2018 03:34:27
00010 suncat0276 pw.x -in pw.inp   Done                     12/27/2018 03:34:27
00011 suncat0276 pw.x -in pw.inp   Done                     12/27/2018 03:34:27
00012 suncat0276 pw.x -in pw.inp   Done                     12/27/2018 03:34:27
00013 suncat0276 pw.x -in pw.inp   Done                     12/27/2018 03:34:27
00014 suncat0276 pw.x -in pw.inp   Done                     12/27/2018 03:34:27
00015 suncat0276 pw.x -in pw.inp   Done                     12/27/2018 03:34:27
00016 suncat0274 pw.x -in pw.inp   Done                     12/27/2018 03:34:27
00017 suncat0274 pw.x -in pw.inp   Done                     12/27/2018 03:34:27
00018 suncat0274 pw.x -in pw.inp   Done                     12/27/2018 03:34:27
00019 suncat0274 pw.x -in pw.inp   Done                     12/27/2018 03:34:27
00020 suncat0274 pw.x -in pw.inp   Done                     12/27/2018 03:34:27
00021 suncat0274 pw.x -in pw.inp   Done                     12/27/2018 03:34:27
00022 suncat0274 pw.x -in pw.inp   Done                     12/27/2018 03:34:27
00023 suncat0274 pw.x -in pw.inp   Done                     12/27/2018 03:34:27
00024 suncat0273 pw.x -in pw.inp   Done                     12/27/2018 03:34:27
00025 suncat0273 pw.x -in pw.inp   Done                     12/27/2018 03:34:27
00026 suncat0273 pw.x -in pw.inp   Done                     12/27/2018 03:34:27
00027 suncat0273 pw.x -in pw.inp   Done                     12/27/2018 03:34:27
00028 suncat0273 pw.x -in pw.inp   Done                     12/27/2018 03:34:27
00029 suncat0273 pw.x -in pw.inp   Done                     12/27/2018 03:34:27
00030 suncat0273 pw.x -in pw.inp   Done                     12/27/2018 03:34:27
00031 suncat0273 pw.x -in pw.inp   Done                     12/27/2018 03:34:27
00032 suncat0230 pw.x -in pw.inp   Done                     12/27/2018 03:34:27
00033 suncat0230 pw.x -in pw.inp   Done                     12/27/2018 03:34:27
00034 suncat0230 pw.x -in pw.inp   Done                     12/27/2018 03:34:27
00035 suncat0230 pw.x -in pw.inp   Done                     12/27/2018 03:34:27
00036 suncat0230 pw.x -in pw.inp   Done                     12/27/2018 03:34:27
00037 suncat0230 pw.x -in pw.inp   Done                     12/27/2018 03:34:27
00038 suncat0230 pw.x -in pw.inp   Done                     12/27/2018 03:34:27
00039 suncat0230 pw.x -in pw.inp   Done                     12/27/2018 03:34:27
00040 suncat0229 pw.x -in pw.inp   Done                     12/27/2018 03:34:27
00041 suncat0229 pw.x -in pw.inp   Done                     12/27/2018 03:34:27
00042 suncat0229 pw.x -in pw.inp   Done                     12/27/2018 03:34:27
00043 suncat0229 pw.x -in pw.inp   Done                     12/27/2018 03:34:27
00044 suncat0229 pw.x -in pw.inp   Done                     12/27/2018 03:34:27
00045 suncat0229 pw.x -in pw.inp   Done                     12/27/2018 03:34:27
00046 suncat0229 pw.x -in pw.inp   Done                     12/27/2018 03:34:27
00047 suncat0229 pw.x -in pw.inp   Done                     12/27/2018 03:34:27
00048 suncat0205 pw.x -in pw.inp   Done                     12/27/2018 03:34:27
00049 suncat0205 pw.x -in pw.inp   Done                     12/27/2018 03:34:27
00050 suncat0205 pw.x -in pw.inp   Done                     12/27/2018 03:34:27
00051 suncat0205 pw.x -in pw.inp   Done                     12/27/2018 03:34:27
00052 suncat0205 pw.x -in pw.inp   Done                     12/27/2018 03:34:27
00053 suncat0205 pw.x -in pw.inp   Done                     12/27/2018 03:34:27
00054 suncat0205 pw.x -in pw.inp   Done                     12/27/2018 03:34:27
00055 suncat0205 pw.x -in pw.inp   Done                     12/27/2018 03:34:27
00056 suncat0204 pw.x -in pw.inp   Done                     12/27/2018 03:34:27
00057 suncat0204 pw.x -in pw.inp   Done                     12/27/2018 03:34:27
00058 suncat0204 pw.x -in pw.inp   Done                     12/27/2018 03:34:27
00059 suncat0204 pw.x -in pw.inp   Done                     12/27/2018 03:34:27
00060 suncat0204 pw.x -in pw.inp   Done                     12/27/2018 03:34:27
00061 suncat0204 pw.x -in pw.inp   Done                     12/27/2018 03:34:27
00062 suncat0204 pw.x -in pw.inp   Done                     12/27/2018 03:34:27
00063 suncat0204 pw.x -in pw.inp   Done                     12/27/2018 03:34:27