     Program PWSCF v.5.1rc2 (svn rev. 11289) starts on 27Dec2018 at 18:43:41

     Current dimensions of program PWSCF are:
     Max number of different atomic species (ntypx) = 10
     Max number of k-points (npk) =  40000
     Max angular momentum in pseudopotentials (lmaxx) =  3
     Presently stress not available with electric field

     IMPORTANT: XC functional enforced from input :
     Exchange-correlation      = BEEF-VDW ( 1  4 27 13 2)
     Any further DFT definition will be discarded
     Please, verify this is what you really want

     Subspace diagonalization in iterative solution of the eigenvalue problem:
     a serial algorithm will be used

     bravais-lattice index     =            0
     lattice parameter (alat)  =       1.8897  a.u.
     unit-cell volume          =    4460.0535 (a.u.)^3
     number of atoms/cell      =           12
     number of atomic types    =            2
     number of electrons       =       192.00
     number of Kohn-Sham states=          126
     kinetic-energy cutoff     =      36.7493  Ry
     charge density cutoff     =     367.4932  Ry
     convergence threshold     =      1.0E-06
     mixing beta               =       0.1000
     number of iterations used =           10  plain     mixing
     Exchange-correlation      = BEEF-VDW ( 1  4 27 13 2)
     nstep                     =           50

     celldm(1)=   1.889726  celldm(2)=   0.000000  celldm(3)=   0.000000
     celldm(4)=   0.000000  celldm(5)=   0.000000  celldm(6)=   0.000000

     crystal axes: (cart. coord. in units of alat)
               a(1) = (   5.575216   0.000000   0.000000 )
               a(2) = (  -2.787608   4.828279   0.000000 )
               a(3) = (   0.000000   0.000000  24.552145 )

     reciprocal axes: (cart. coord. in units 2 pi/alat)
               b(1) = (  0.179365  0.103557  0.000000 )
               b(2) = (  0.000000  0.207113  0.000000 )
               b(3) = (  0.000000  0.000000  0.040730 )

     PseudoPot. # 1 for Pt read from file:
     /afs/slac.stanford.edu/u/if/mamunm/psp/gbrv1.5pbe/Pt.UPF
     MD5 check sum: f09d6de1a584b5a045c4fc126da2d0c4
     Pseudo is Ultrasoft + core correction, Zval = 16.0
     Generated by new atomic code, or converted to UPF format
     Using radial grid of  985 points,  6 beta functions with:
                l(1) =   0
                l(2) =   0
                l(3) =   1
                l(4) =   1
                l(5) =   2
                l(6) =   2
     Q(r) pseudized with  8 coefficients,  rinner =    1.300   1.300   1.300
                                                       1.300   1.300

     PseudoPot. # 2 for Ru read from file:
     /afs/slac.stanford.edu/u/if/mamunm/psp/gbrv1.5pbe/Ru.UPF
     MD5 check sum: 7158a806dd851261a58e6920c40ebe78
     Pseudo is Ultrasoft + core correction, Zval = 16.0
     Generated by new atomic code, or converted to UPF format
     Using radial grid of  967 points,  6 beta functions with:
                l(1) =   0
                l(2) =   0
                l(3) =   1
                l(4) =   1
                l(5) =   2
                l(6) =   2
     Q(r) pseudized with  8 coefficients,  rinner =    1.300   1.300   1.300
                                                       1.300   1.300

     vdW kernel table read from file vdW_kernel_table
     MD5 check sum: 095c7af220d748ca6e76c0b4c6cfb241

     atomic species   valence    mass     pseudopotential
        Pt1           16.00   195.08400     Pt( 1.00)
        Ru1           16.00   101.07000     Ru( 1.00)

     No symmetry found

   Cartesian axes

     site n.     atom                  positions (alat units)
         1           Pt1 tau(   1) = (   0.0000000   0.0000000  10.0000000  )
         2           Pt1 tau(   2) = (  -1.3938040   2.4141394  10.0000000  )
         3           Pt1 tau(   3) = (   1.3938040   2.4141394  10.0000000  )
         4           Ru1 tau(   4) = (   2.7876080   0.0000000  10.0000000  )
         5           Pt1 tau(   5) = (   2.7876080   1.6094262  12.2760724  )
         6           Pt1 tau(   6) = (   1.3938040   4.0235656  12.2760724  )
         7           Pt1 tau(   7) = (  -1.3938040   4.0235656  12.2760724  )
         8           Ru1 tau(   8) = (   0.0000000   1.6094262  12.2760724  )
         9           Pt1 tau(   9) = (  -0.0000000   3.2188525  14.5521448  )
        10           Pt1 tau(  10) = (   1.3938040   0.8047131  14.5521448  )
        11           Pt1 tau(  11) = (   4.1814120   0.8047131  14.5521448  )
        12           Ru1 tau(  12) = (   2.7876080   3.2188525  14.5521448  )

     number of k points=    20  Fermi-Dirac smearing, width (Ry)=  0.0110
                       cart. coord. in units 2pi/alat
        k(    1) = (   0.0000000   0.0000000   0.0000000), wk =   0.0555556
        k(    2) = (   0.0000000   0.0345189   0.0000000), wk =   0.1111111
        k(    3) = (   0.0000000   0.0690377   0.0000000), wk =   0.1111111
        k(    4) = (   0.0000000  -0.1035566   0.0000000), wk =   0.0555556
        k(    5) = (   0.0298942   0.0172594   0.0000000), wk =   0.1111111
        k(    6) = (   0.0298942   0.0517783   0.0000000), wk =   0.1111111
        k(    7) = (   0.0298942   0.0862971   0.0000000), wk =   0.1111111
        k(    8) = (   0.0298942  -0.0862971   0.0000000), wk =   0.1111111
        k(    9) = (   0.0298942  -0.0517783   0.0000000), wk =   0.1111111
        k(   10) = (   0.0298942  -0.0172594   0.0000000), wk =   0.1111111
        k(   11) = (   0.0597884   0.0345189   0.0000000), wk =   0.1111111
        k(   12) = (   0.0597884   0.0690377   0.0000000), wk =   0.1111111
        k(   13) = (   0.0597884   0.1035566   0.0000000), wk =   0.1111111
        k(   14) = (   0.0597884  -0.0690377   0.0000000), wk =   0.1111111
        k(   15) = (   0.0597884  -0.0345189   0.0000000), wk =   0.1111111
        k(   16) = (   0.0597884  -0.0000000   0.0000000), wk =   0.1111111
        k(   17) = (  -0.0896826  -0.0517783   0.0000000), wk =   0.0555556
        k(   18) = (  -0.0896826  -0.0172594   0.0000000), wk =   0.1111111
        k(   19) = (  -0.0896826   0.0172594   0.0000000), wk =   0.1111111
        k(   20) = (  -0.0896826  -0.1553349   0.0000000), wk =   0.0555556

     Largest allocated arrays     est. size (Mb)     dimensions
     Largest temporary arrays     est. size (Mb)     dimensions

     Check: negative/imaginary core charge=   -0.000001    0.000000

     Initial potential from superposition of free atoms
     Check: negative starting charge=   -1.876929

     starting charge  184.49985, renormalised to  192.00000

     negative rho (up, down):  1.953E+00 0.000E+00

     *
     * You are using vdW-DF for exchange-correlation in this calculation.
     * Please cite the following three references that made this development
     * possible:
     *
     *   M. Dion, H. Rydberg, E. Schroder, D. C. Langreth, and
     *   B. I. Lundqvist, Phys. Rev. Lett. 92, 246401 (2004).
     *
     *   T. Thonhauser, V. R. Cooper, S. Li, A. Puzder, P. Hyldgaard, and
     *   D. C. Langreth, Phys. Rev. B 76, 125112 (2007).
     *
     *   G. Roman-Perez and J. M. Soler, Phys. Rev. Lett. 103, 096102 (2009).
     *
     *
     * If you are using vdW-DF2, please also cite:
     *
     *   K. Lee, E. D. Murray, L. Kong, B. I. Lundqvist, and
     *   D. C. Langreth, Phys. Rev. B 82, 081101(R) (2010).
     *
     *
     * If you are calculating the stress with vdW-DF, please also cite:
     *
     *   R. Sabatini, E. Kucukbenli, B. Kolb, T. Thonhauser, and
     *   S. de Gironcoli, J. Phys.: Condens. Matter 24, 424209 (2012).
     *

     Carrying out vdW-DF run using the following parameters:

     Nqs =      20    Nr_points =    1024   r_max =   100.000
     q_mesh =
               0.00001000     0.04494208     0.09755937     0.15916263
               0.23128650     0.31572767     0.41458969     0.53033537
               0.66584808     0.82450364     1.01025438     1.22772762
               1.48234092     1.78043706     2.12944203     2.53805004
               3.01644009     3.57652955     4.23227104     5.00000000

     Gradients computed in reciprocal space

     Adding external electric field

     Computed dipole along edir(3) :
        Dipole                0.0000 Ry au,          0.0000 Debye
        Dipole field          0.0000 Ry au

        Potential amp.       -0.0000 Ry
        Total length         45.2369 bohr

     Starting wfc are  147 randomized atomic wfcs

     Self-consistent Calculation

     iteration #  1     ecut=    36.75 Ry     beta=0.10
     Davidson diagonalization with overlap
     ethr =  1.00E-02,  avg # of iterations =  7.5

[...]

     total energy              =   -2495.62434434 Ry
     Harris-Foulkes estimate   =   -2501.60322845 Ry
     estimated scf accuracy    <      35.36354103 Ry

[...]

     End of self-consistent calculation

          k = 0.0000 0.0000 0.0000 ( 16763 PWs)   bands (ev):

   -71.1764 -70.7525 -70.7524 -51.3702 -51.2404 -51.2404 -51.2006 -51.1706
   -51.1706 -51.0790 -51.0540 -51.0540 -50.9634 -50.9571 -50.8858 -50.8858
   -50.8676 -50.8676 -50.7433 -50.7395 -50.6712 -50.6712 -50.6708 -50.6708
   -50.5948 -50.5739 -50.5629 -50.5629 -50.5513 -50.5513 -41.1801 -41.0887
   -41.0887 -40.7352 -40.7352 -40.7342 -40.7342 -40.6354 -40.6314  -6.5608
    -4.9012  -4.6348  -4.2689  -4.2689  -4.2226  -4.0174  -4.0173  -3.9294
    -3.6485  -3.6120  -3.6120  -3.3866  -3.3866  -3.3670  -2.2864  -2.0054
    -2.0054  -1.8263  -1.8263  -1.6505  -1.4665  -1.3052  -1.3052  -1.2317
    -1.2105  -1.0490  -1.0490  -0.7896  -0.7896  -0.7457  -0.7457  -0.5368
    -0.5368   0.2903   0.3661   0.5605   0.5605   0.5813   0.5813   0.6875
     0.6875   0.8798   1.3287   1.4941   1.5578   1.5578   1.5967   1.5967
     1.8927   2.0187   2.0187   2.2313   2.2313   2.2417   2.3025   2.3067
     2.4801   2.4801   2.7332   2.8058   2.8058   2.9044   2.9044   3.2202
     3.4127   3.4127   5.0196   5.0196   5.0542   5.0542   5.1046   5.1426
     6.5418   6.8268   7.1529   7.8243   7.8243   7.9694   7.9694   8.0947
     8.7638   9.0201   9.0201   9.2167   9.3218  10.1843

[...]

          k =-0.0897-0.0518 0.0000 ( 16808 PWs)   bands (ev):

[...]

     the Fermi energy is     1.8768 ev

!    total energy              =   -2496.36433610 Ry
     Harris-Foulkes estimate   =   -2496.36433480 Ry
     estimated scf accuracy    <       0.00000075 Ry

     The total energy is the sum of the following terms:

     one-electron contribution =  -20305.38826463 Ry
     hartree contribution      =   10179.05663159 Ry
     xc contribution           =    -607.79539218 Ry
     ewald contribution        =    8237.88404902 Ry
     electric field correction =       0.00000001 Ry
     smearing contrib. (-TS)   =      -0.12135991 Ry

     convergence has been achieved in  18 iterations

 BEEF-vdW xc energy contributions
           1 :   -539.019774116464
           2 :    500.816054478059
           3 :   -432.616579601219
           4 :    347.940688267866
           5 :   -261.437989255493
           6 :    184.986658185609
           7 :   -125.261667319545
           8 :    83.2691949659117
           9 :   -55.6929374204861
[...]
     Using radial grid of  985 points,  6 beta functions with:
                l(1) =   0
                l(2) =   0
                l(3) =   1
                l(4) =   1
                l(5) =   2
                l(6) =   2
     Q(r) pseudized with  8 coefficients,  rinner =    1.300   1.300   1.300
                                                       1.300   1.300

     PseudoPot. # 2 for Ru read from file:
     /afs/slac.stanford.edu/u/if/mamunm/psp/gbrv1.5pbe/Ru.UPF
     MD5 check sum: 7158a806dd851261a58e6920c40ebe78
     Pseudo is Ultrasoft + core correction, Zval = 16.0
     Generated by new atomic code, or converted to UPF format
     Using radial grid of  967 points,  6 beta functions with:
                l(1) =   0
                l(2) =   0
                l(3) =   1
                l(4) =   1
                l(5) =   2
                l(6) =   2
     Q(r) pseudized with  8 coefficients,  rinner =    1.300   1.300   1.300
                                                       1.300   1.300

     vdW kernel table read from file vdW_kernel_table
     MD5 check sum: 095c7af220d748ca6e76c0b4c6cfb241

     atomic species   valence    mass     pseudopotential
        Pt1           16.00   195.08400     Pt( 1.00)
        Ru1           16.00   101.07000     Ru( 1.00)

     No symmetry found

   Cartesian axes

     site n.     atom                  positions (alat units)
         1           Pt1 tau(   1) = (   0.0000000   0.0000000  10.0000000  )
         2           Pt1 tau(   2) = (  -1.3938040   2.4141394  10.0000000  )
         3           Pt1 tau(   3) = (   1.3938040   2.4141394  10.0000000  )
         4           Ru1 tau(   4) = (   2.7876080   0.0000000  10.0000000  )
         5           Pt1 tau(   5) = (   2.7876080   1.6094262  12.2760724  )
         6           Pt1 tau(   6) = (   1.3938040   4.0235656  12.2760724  )
         7           Pt1 tau(   7) = (  -1.3938040   4.0235656  12.2760724  )
         8           Ru1 tau(   8) = (   0.0000000   1.6094262  12.2760724  )
         9           Pt1 tau(   9) = (  -0.0000001   3.1986508  14.5640487  )
        10           Pt1 tau(  10) = (   1.3763089   0.8148139  14.5640489  )
        11           Pt1 tau(  11) = (   4.1989071   0.8148135  14.5640499  )
        12           Ru1 tau(  12) = (   2.7876074   3.2188508  14.4693915  )

     number of k points=    20  Fermi-Dirac smearing, width (Ry)=  0.0110
                       cart. coord. in units 2pi/alat
        k(    1) = (   0.0000000   0.0000000   0.0000000), wk =   0.0555556
        k(    2) = (   0.0000000   0.0345189   0.0000000), wk =   0.1111111
        k(    3) = (   0.0000000   0.0690377   0.0000000), wk =   0.1111111
        k(    4) = (   0.0000000  -0.1035566   0.0000000), wk =   0.0555556
        k(    5) = (   0.0298942   0.0172594   0.0000000), wk =   0.1111111
        k(    6) = (   0.0298942   0.0517783   0.0000000), wk =   0.1111111
        k(    7) = (   0.0298942   0.0862971   0.0000000), wk =   0.1111111
        k(    8) = (   0.0298942  -0.0862971   0.0000000), wk =   0.1111111
        k(    9) = (   0.0298942  -0.0517783   0.0000000), wk =   0.1111111
        k(   10) = (   0.0298942  -0.0172594   0.0000000), wk =   0.1111111
        k(   11) = (   0.0597884   0.0345189   0.0000000), wk =   0.1111111
        k(   12) = (   0.0597884   0.0690377   0.0000000), wk =   0.1111111
        k(   13) = (   0.0597884   0.1035566   0.0000000), wk =   0.1111111
        k(   14) = (   0.0597884  -0.0690377   0.0000000), wk =   0.1111111
        k(   15) = (   0.0597884  -0.0345189   0.0000000), wk =   0.1111111
        k(   16) = (   0.0597884  -0.0000000   0.0000000), wk =   0.1111111
        k(   17) = (  -0.0896826  -0.0517783   0.0000000), wk =   0.0555556
        k(   18) = (  -0.0896826  -0.0172594   0.0000000), wk =   0.1111111
        k(   19) = (  -0.0896826   0.0172594   0.0000000), wk =   0.1111111
        k(   20) = (  -0.0896826  -0.1553349   0.0000000), wk =   0.0555556

     Largest allocated arrays     est. size (Mb)     dimensions
     Largest temporary arrays     est. size (Mb)     dimensions

     Check: negative/imaginary core charge=   -0.000001    0.000000

     Initial potential from superposition of free atoms
     Check: negative starting charge=   -1.874972

     starting charge  184.49985, renormalised to  192.00000

[...]

     *
     * You are using vdW-DF for exchange-correlation in this calculation.
     * Please cite the following three references that made this development
     * possible:
     *
     *   M. Dion, H. Rydberg, E. Schroder, D. C. Langreth, and
     *   B. I. Lundqvist, Phys. Rev. Lett. 92, 246401 (2004).
     *
     *   T. Thonhauser, V. R. Cooper, S. Li, A. Puzder, P. Hyldgaard, and
     *   D. C. Langreth, Phys. Rev. B 76, 125112 (2007).
     *
     *   G. Roman-Perez and J. M. Soler, Phys. Rev. Lett. 103, 096102 (2009).
     *
     *
     * If you are using vdW-DF2, please also cite:
     *
     *   K. Lee, E. D. Murray, L. Kong, B. I. Lundqvist, and
     *   D. C. Langreth, Phys. Rev. B 82, 081101(R) (2010).
     *
     *
     * If you are calculating the stress with vdW-DF, please also cite:
     *
     *   R. Sabatini, E. Kucukbenli, B. Kolb, T. Thonhauser, and
     *   S. de Gironcoli, J. Phys.: Condens. Matter 24, 424209 (2012).
     *

     Carrying out vdW-DF run using the following parameters:

     Nqs =      20    Nr_points =    1024   r_max =   100.000
     q_mesh =
               0.00001000     0.04494208     0.09755937     0.15916263
               0.23128650     0.31572767     0.41458969     0.53033537
               0.66584808     0.82450364     1.01025438     1.22772762
               1.48234092     1.78043706     2.12944203     2.53805004
               3.01644009     3.57652955     4.23227104     5.00000000

     Gradients computed in reciprocal space

[...]

     Starting wfc are  147 randomized atomic wfcs

     Self-consistent Calculation

[...]

     total energy              =   -2496.38024746 Ry
     Harris-Foulkes estimate   =   -2496.38024801 Ry
     estimated scf accuracy    <       0.00000117 Ry

     iteration # 18     ecut=    36.75 Ry     beta=0.10
     Davidson diagonalization with overlap
     ethr =  6.10E-10,  avg # of iterations =  2.7

[...]

     negative rho (up, down):  1.814E+00 0.000E+00

     Adding external electric field

     Computed dipole along edir(3) :
        Dipole               -0.0043 Ry au,         -0.0108 Debye
        Dipole field         -0.0000 Ry au

        Potential amp.        0.0011 Ry
        Total length         45.2369 bohr

     End of self-consistent calculation

[...]

          k = 0.0598-0.0000 0.0000 ( 16760 PWs)   bands (ev):

[...]

          k =-0.0897-0.1553 0.0000 ( 16808 PWs)   bands (ev):

   -71.1781 -70.8047 -70.7425 -51.3280 -51.2437 -51.2074 -51.2036 -51.1734
   -51.1651 -51.1637 -51.1517 -51.0709 -50.9073 -50.8961 -50.8167 -50.8146
   -50.8145 -50.8081 -50.7967 -50.7907 -50.7812 -50.7707 -50.6833 -50.6721
   -50.5756 -50.5693 -50.5627 -50.5566 -50.5479 -50.5425 -41.1864 -41.0949
   -41.0909 -40.7839 -40.7800 -40.7326 -40.7286 -40.7100 -40.6213  -5.0360
    -4.7209  -3.6824  -3.5891  -3.4956  -3.3772  -3.3552  -3.2068  -3.1958
    -3.0045  -2.9839  -2.7673  -2.6696  -2.4690  -2.4111  -2.3316  -2.2684
    -2.2244  -2.0873  -2.0330  -1.6995  -1.6589  -1.4313  -1.3864  -1.2567
    -1.2216  -1.1868  -1.1066  -1.0860  -1.0026  -0.9296  -0.8829  -0.8685
    -0.7921  -0.7483  -0.6711  -0.5490  -0.4660  -0.2750  -0.0952  -0.0724
    -0.0355   0.1098   0.1786   0.3509   0.3579   0.5225   0.7063   0.8481
     0.8811   0.9602   1.0049   1.1719   1.2999   1.3579   1.4058   1.4854
     1.6776   1.7494   1.9156   2.0949   2.1547   2.3145   2.6751   3.6990
     3.9027   4.0533   4.7549   4.9874   5.4486   6.3970   6.4976   6.9701
     7.2705   8.0244   8.0462   8.6182   8.6373   8.6871   8.6944   9.5712
     9.7920   9.8212   9.8471   9.9512  10.0967  10.2225

     the Fermi energy is     1.8742 ev

!    total energy              =   -2496.38024957 Ry
     Harris-Foulkes estimate   =   -2496.38024752 Ry
     estimated scf accuracy    <       0.00000066 Ry

     The total energy is the sum of the following terms:

     one-electron contribution =  -20338.93111019 Ry
     hartree contribution      =   10195.78450373 Ry
     xc contribution           =    -607.83267387 Ry
     ewald contribution        =    8254.71860869 Ry
     electric field correction =       0.00000005 Ry
     smearing contrib. (-TS)   =      -0.11957797 Ry

     convergence has been achieved in  18 iterations

 BEEF-vdW xc energy contributions
           1 :   -539.440195471005
           2 :    501.246554672349
           3 :   -433.061105377150
           4 :    348.393256239676
           5 :   -261.884433330061
           6 :    185.411445427839
           7 :   -125.656297759606
           8 :    83.6373823785707
           9 :   -56.0496048405023
          10 :    37.6429262132951
          11 :   -23.6246572089834
          12 :    11.2059386893653
          13 :   8.087097646648544E-002
          14 :   -9.12638931561628
          15 :    14.4868628773916
          16 :   -15.4924249903361
          17 :    12.7576925003805
          18 :   -7.97965329104341
          19 :    3.23123852404626
          20 :  -0.153175817369288
          21 :  -0.585678056322649
          22 :  -0.640849280392899
          23 :    2.77393808030956
          24 :   -4.64124468914429
          25 :    5.46468598255058
          26 :   -5.10342804251934
          27 :    3.97533382504832
          28 :   -2.75316320361003
          29 :    2.00940650757070
          30 :   -1.97777146564420
          31 :   -45.6711417314943
          32 :   -33.9108410919478

     Forces acting on atoms (Ry/au):

     negative rho (up, down):  1.814E+00 0.000E+00
     atom    1 type  1   force =    -0.00000022    0.01252869   -0.00416420
     atom    2 type  1   force =     0.01085015   -0.00626450   -0.00416486
     atom    3 type  1   force =    -0.01085044   -0.00626473   -0.00416440
     atom    4 type  2   force =    -0.00000003   -0.00000033    0.02124386
     atom    5 type  1   force =     0.00000017   -0.00567735   -0.00267442
     atom    6 type  1   force =    -0.00491678    0.00283891   -0.00267437
     atom    7 type  1   force =     0.00491686    0.00283869   -0.00267457
     atom    8 type  2   force =     0.00000004    0.00000039   -0.00073125
     atom    9 type  1   force =    -0.00000014    0.00012616   -0.00029378
     atom   10 type  1   force =     0.00010918   -0.00006310   -0.00029368
     atom   11 type  1   force =    -0.00010918   -0.00006314   -0.00029395
     atom   12 type  2   force =     0.00000040    0.00000031    0.00088561

     Total force =     0.033076     Total SCF correction =     0.004274
     SCF correction compared to forces is large: reduce conv_thr to get better values

     entering subroutine stress ...

     negative rho (up, down):  1.814E+00 0.000E+00
          total   stress  (Ry/bohr**3)                   (kbar)     P=  -20.22
  -0.00019552  -0.00000000   0.00000000        -28.76     -0.00      0.00
  -0.00000000  -0.00019552   0.00000000         -0.00    -28.76      0.00
   0.00000000   0.00000000  -0.00002135          0.00      0.00     -3.14

 !ASE

     Writing output data file calc.save

     General routines

     Parallel routines

   This run was terminated on:  19:35: 7  27Dec2018

   JOB DONE.
Job  /afs/slac/g/suncat/bin/suncat-tsmpirun -x LD_LIBRARY_PATH -wdir /scratch/qe110558_F38pk pw.x -in pw.inp

TID   HOST_NAME   COMMAND_LINE            STATUS            TERMINATION_TIME
00000 suncat0046 pw.x -in pw.inp   Done                     12/27/2018 19:35:07
00001 suncat0046 pw.x -in pw.inp   Done                     12/27/2018 19:35:07
00002 suncat0046 pw.x -in pw.inp   Done                     12/27/2018 19:35:07
00003 suncat0046 pw.x -in pw.inp   Done                     12/27/2018 19:35:07
00004 suncat0046 pw.x -in pw.inp   Done                     12/27/2018 19:35:07
00005 suncat0046 pw.x -in pw.inp   Done                     12/27/2018 19:35:07
00006 suncat0046 pw.x -in pw.inp   Done                     12/27/2018 19:35:07
00007 suncat0046 pw.x -in pw.inp   Done                     12/27/2018 19:35:07
00008 suncat0014 pw.x -in pw.inp   Done                     12/27/2018 19:35:07
00009 suncat0014 pw.x -in pw.inp   Done                     12/27/2018 19:35:07
00010 suncat0014 pw.x -in pw.inp   Done                     12/27/2018 19:35:07
00011 suncat0014 pw.x -in pw.inp   Done                     12/27/2018 19:35:07
00012 suncat0014 pw.x -in pw.inp   Done                     12/27/2018 19:35:07
00013 suncat0014 pw.x -in pw.inp   Done                     12/27/2018 19:35:07
00014 suncat0014 pw.x -in pw.inp   Done                     12/27/2018 19:35:07
00015 suncat0014 pw.x -in pw.inp   Done                     12/27/2018 19:35:07
00016 suncat0198 pw.x -in pw.inp   Done                     12/27/2018 19:35:07
00017 suncat0198 pw.x -in pw.inp   Done                     12/27/2018 19:35:07
00018 suncat0198 pw.x -in pw.inp   Done                     12/27/2018 19:35:07
00019 suncat0198 pw.x -in pw.inp   Done                     12/27/2018 19:35:07
00020 suncat0198 pw.x -in pw.inp   Done                     12/27/2018 19:35:07
00021 suncat0198 pw.x -in pw.inp   Done                     12/27/2018 19:35:07
00022 suncat0198 pw.x -in pw.inp   Done                     12/27/2018 19:35:07
00023 suncat0198 pw.x -in pw.inp   Done                     12/27/2018 19:35:07
00024 suncat0194 pw.x -in pw.inp   Done                     12/27/2018 19:35:07
00025 suncat0194 pw.x -in pw.inp   Done                     12/27/2018 19:35:07
00026 suncat0194 pw.x -in pw.inp   Done                     12/27/2018 19:35:08
00027 suncat0194 pw.x -in pw.inp   Done                     12/27/2018 19:35:07
00028 suncat0194 pw.x -in pw.inp   Done                     12/27/2018 19:35:07
00029 suncat0194 pw.x -in pw.inp   Done                     12/27/2018 19:35:07
00030 suncat0194 pw.x -in pw.inp   Done                     12/27/2018 19:35:07
00031 suncat0194 pw.x -in pw.inp   Done                     12/27/2018 19:35:07
00032 suncat0188 pw.x -in pw.inp   Done                     12/27/2018 19:35:07
00033 suncat0188 pw.x -in pw.inp   Done                     12/27/2018 19:35:07
00034 suncat0188 pw.x -in pw.inp   Done                     12/27/2018 19:35:07
00035 suncat0188 pw.x -in pw.inp   Done                     12/27/2018 19:35:07
00036 suncat0188 pw.x -in pw.inp   Done                     12/27/2018 19:35:07
00037 suncat0188 pw.x -in pw.inp   Done                     12/27/2018 19:35:07
00038 suncat0188 pw.x -in pw.inp   Done                     12/27/2018 19:35:07
00039 suncat0188 pw.x -in pw.inp   Done                     12/27/2018 19:35:07
00040 suncat0129 pw.x -in pw.inp   Done                     12/27/2018 19:35:08
00041 suncat0129 pw.x -in pw.inp   Done                     12/27/2018 19:35:08
00042 suncat0129 pw.x -in pw.inp   Done                     12/27/2018 19:35:08
00043 suncat0129 pw.x -in pw.inp   Done                     12/27/2018 19:35:08
00044 suncat0129 pw.x -in pw.inp   Done                     12/27/2018 19:35:08
00045 suncat0129 pw.x -in pw.inp   Done                     12/27/2018 19:35:08
00046 suncat0129 pw.x -in pw.inp   Done                     12/27/2018 19:35:08
00047 suncat0129 pw.x -in pw.inp   Done                     12/27/2018 19:35:08
00048 suncat0254 pw.x -in pw.inp   Done                     12/27/2018 19:35:07
00049 suncat0254 pw.x -in pw.inp   Done                     12/27/2018 19:35:07
00050 suncat0254 pw.x -in pw.inp   Done                     12/27/2018 19:35:07
00051 suncat0254 pw.x -in pw.inp   Done                     12/27/2018 19:35:07
00052 suncat0254 pw.x -in pw.inp   Done                     12/27/2018 19:35:07
00053 suncat0254 pw.x -in pw.inp   Done                     12/27/2018 19:35:07
00054 suncat0254 pw.x -in pw.inp   Done                     12/27/2018 19:35:07
00055 suncat0254 pw.x -in pw.inp   Done                     12/27/2018 19:35:07
00056 suncat0253 pw.x -in pw.inp   Done                     12/27/2018 19:35:07
00057 suncat0253 pw.x -in pw.inp   Done                     12/27/2018 19:35:07
00058 suncat0253 pw.x -in pw.inp   Done                     12/27/2018 19:35:07
00059 suncat0253 pw.x -in pw.inp   Done                     12/27/2018 19:35:07
00060 suncat0253 pw.x -in pw.inp   Done                     12/27/2018 19:35:07
00061 suncat0253 pw.x -in pw.inp   Done                     12/27/2018 19:35:07
00062 suncat0253 pw.x -in pw.inp   Done                     12/27/2018 19:35:07
00063 suncat0253 pw.x -in pw.inp   Done                     12/27/2018 19:35:07