     Program PWSCF v.5.1rc2 (svn rev. 11289) starts on  1Jan2019 at 13:28:34

     Current dimensions of program PWSCF are:
     Max number of different atomic species (ntypx) = 10
     Max number of k-points (npk) =  40000
     Max angular momentum in pseudopotentials (lmaxx) =  3
     Presently stress not available with electric field

     IMPORTANT: XC functional enforced from input :
     Exchange-correlation      = BEEF-VDW ( 1  4 27 13 2)
     Any further DFT definition will be discarded
     Please, verify this is what you really want

     Subspace diagonalization in iterative solution of the eigenvalue problem:
     a serial algorithm will be used

     bravais-lattice index     =            0
     lattice parameter (alat)  =       1.8897  a.u.
     unit-cell volume          =    6223.3210 (a.u.)^3
     number of atoms/cell      =           12
     number of atomic types    =            2
     number of electrons       =       174.00
     number of Kohn-Sham states=          117
     kinetic-energy cutoff     =      36.7493  Ry
     charge density cutoff     =     367.4932  Ry
     convergence threshold     =      1.0E-06
     mixing beta               =       0.1000
     number of iterations used =           10  plain     mixing
     Exchange-correlation      = BEEF-VDW ( 1  4 27 13 2)
     nstep                     =           50

     celldm(1)=   1.889726  celldm(2)=   0.000000  celldm(3)=   0.000000
     celldm(4)=   0.000000  celldm(5)=   0.000000  celldm(6)=   0.000000

     crystal axes: (cart. coord. in units of alat)
               a(1) = (   6.487979   0.000000   0.000000 )
               a(2) = (  -3.243989   5.618755   0.000000 )
               a(3) = (   0.000000   0.000000  25.297413 )

     reciprocal axes: (cart. coord. in units 2 pi/alat)
               b(1) = (  0.154131  0.088988  0.000000 )
               b(2) = (  0.000000  0.177975  0.000000 )
               b(3) = (  0.000000  0.000000  0.039530 )

     PseudoPot. # 1 for Sn read from file:
     /afs/slac.stanford.edu/u/if/mamunm/psp/gbrv1.5pbe/Sn.UPF
     MD5 check sum: 469debedee59599fedebd795477fea03
     Pseudo is Ultrasoft + core correction, Zval = 14.0
     Generated by new atomic code, or converted to UPF format
     Using radial grid of  891 points,  6 beta functions with:
                l(1) =   0
                l(2) =   0
                l(3) =   1
                l(4) =   1
                l(5) =   2
                l(6) =   2
     Q(r) pseudized with  8 coefficients,  rinner =    1.350   1.350   1.350
                                                       1.350   1.350

     PseudoPot. # 2 for Pd read from file:
     /afs/slac.stanford.edu/u/if/mamunm/psp/gbrv1.5pbe/Pd.UPF
     MD5 check sum: 2d733d2bc2cbfd217af676df1668a4bc
     Pseudo is Ultrasoft + core correction, Zval = 16.0
     Generated by new atomic code, or converted to UPF format
     Using radial grid of  887 points,  6 beta functions with:
                l(1) =   0
                l(2) =   0
                l(3) =   1
                l(4) =   1
                l(5) =   2
                l(6) =   2
     Q(r) pseudized with  8 coefficients,  rinner =    1.130   1.130   1.130
                                                       1.130   1.130

     vdW kernel table read from file vdW_kernel_table
     MD5 check sum: 095c7af220d748ca6e76c0b4c6cfb241

     atomic species   valence    mass     pseudopotential
        Sn1           14.00   118.71000     Sn( 1.00)
        Pd1           16.00   106.42000     Pd( 1.00)

     No symmetry found

   Cartesian axes

     site n.     atom                  positions (alat units)
         1           Sn1 tau(   1) = (   0.0000000   0.0000000  10.0000000  )
         2           Sn1 tau(   2) = (  -1.6219947   2.8093773  10.0000000  )
         3           Sn1 tau(   3) = (   1.6219947   2.8093773  10.0000000  )
         4           Pd1 tau(   4) = (   3.2439895   0.0000000  10.0000000  )
         5           Sn1 tau(   5) = (   3.2439895   1.8729182  12.6487063  )
         6           Sn1 tau(   6) = (   1.6219947   4.6822955  12.6487063  )
         7           Sn1 tau(   7) = (  -1.6219947   4.6822955  12.6487063  )
         8           Pd1 tau(   8) = (   0.0000000   1.8729182  12.6487063  )
         9           Sn1 tau(   9) = (  -0.0000000   3.7458364  15.2974126  )
        10           Sn1 tau(  10) = (   1.6219947   0.9364591  15.2974126  )
        11           Sn1 tau(  11) = (   4.8659842   0.9364591  15.2974126  )
        12           Pd1 tau(  12) = (   3.2439895   3.7458364  15.2974126  )

     number of k points=    20  Fermi-Dirac smearing, width (Ry)=  0.0110
                       cart. coord. in units 2pi/alat
        k(    1) = (   0.0000000   0.0000000   0.0000000), wk =   0.0555556
        k(    2) = (   0.0000000   0.0296626   0.0000000), wk =   0.1111111
        k(    3) = (   0.0000000   0.0593251   0.0000000), wk =   0.1111111
        k(    4) = (   0.0000000  -0.0889877   0.0000000), wk =   0.0555556
        k(    5) = (   0.0256885   0.0148313   0.0000000), wk =   0.1111111
        k(    6) = (   0.0256885   0.0444938   0.0000000), wk =   0.1111111
        k(    7) = (   0.0256885   0.0741564   0.0000000), wk =   0.1111111
        k(    8) = (   0.0256885  -0.0741564   0.0000000), wk =   0.1111111
        k(    9) = (   0.0256885  -0.0444938   0.0000000), wk =   0.1111111
        k(   10) = (   0.0256885  -0.0148313   0.0000000), wk =   0.1111111
        k(   11) = (   0.0513771   0.0296626   0.0000000), wk =   0.1111111
        k(   12) = (   0.0513771   0.0593251   0.0000000), wk =   0.1111111
        k(   13) = (   0.0513771   0.0889877   0.0000000), wk =   0.1111111
        k(   14) = (   0.0513771  -0.0593251   0.0000000), wk =   0.1111111
        k(   15) = (   0.0513771  -0.0296626   0.0000000), wk =   0.1111111
        k(   16) = (   0.0513771   0.0000000   0.0000000), wk =   0.1111111
        k(   17) = (  -0.0770656  -0.0444938   0.0000000), wk =   0.0555556
        k(   18) = (  -0.0770656  -0.0148313   0.0000000), wk =   0.1111111
        k(   19) = (  -0.0770656   0.0148313   0.0000000), wk =   0.1111111
        k(   20) = (  -0.0770656  -0.1334815   0.0000000), wk =   0.0555556

     Largest allocated arrays     est. size (Mb)     dimensions
     Largest temporary arrays     est. size (Mb)     dimensions

     Initial potential from superposition of free atoms
     Check: negative starting charge=   -0.230122

     starting charge  163.49957, renormalised to  174.00000

     negative rho (up, down):  2.449E-01 0.000E+00

     *
     * You are using vdW-DF for exchange-correlation in this calculation.
     * Please cite the following three references that made this development
     * possible:
     *
     *   M. Dion, H. Rydberg, E. Schroder, D. C. Langreth, and
     *   B. I. Lundqvist, Phys. Rev. Lett. 92, 246401 (2004).
     *
     *   T. Thonhauser, V. R. Cooper, S. Li, A. Puzder, P. Hyldgaard, and
     *   D. C. Langreth, Phys. Rev. B 76, 125112 (2007).
     *
     *   G. Roman-Perez and J. M. Soler, Phys. Rev. Lett. 103, 096102 (2009).
     *
     *
     * If you are using vdW-DF2, please also cite:
     *
     *   K. Lee, E. D. Murray, L. Kong, B. I. Lundqvist, and
     *   D. C. Langreth, Phys. Rev. B 82, 081101(R) (2010).
     *
     *
     * If you are calculating the stress with vdW-DF, please also cite:
     *
     *   R. Sabatini, E. Kucukbenli, B. Kolb, T. Thonhauser, and
     *   S. de Gironcoli, J. Phys.: Condens. Matter 24, 424209 (2012).
     *

     Carrying out vdW-DF run using the following parameters:

     Nqs =      20    Nr_points =    1024   r_max =   100.000
     q_mesh =
               0.00001000     0.04494208     0.09755937     0.15916263
               0.23128650     0.31572767     0.41458969     0.53033537
               0.66584808     0.82450364     1.01025438     1.22772762
               1.48234092     1.78043706     2.12944203     2.53805004
               3.01644009     3.57652955     4.23227104     5.00000000

     Gradients computed in reciprocal space

     Adding external electric field

     Computed dipole along edir(3) :
        Dipole               -0.0000 Ry au,         -0.0000 Debye
        Dipole field         -0.0000 Ry au

        Potential amp.        0.0000 Ry
        Total length         46.6101 bohr

     Starting wfc are  117 randomized atomic wfcs

     Self-consistent Calculation

     iteration #  1     ecut=    36.75 Ry     beta=0.10
     Davidson diagonalization with overlap
     ethr =  1.00E-02,  avg # of iterations =  7.3

[...]

     total energy              =   -2030.73623376 Ry
     Harris-Foulkes estimate   =   -2056.75057780 Ry
     estimated scf accuracy    <     145.45557861 Ry

[...]

     End of self-consistent calculation

          k = 0.0000 0.0000 0.0000 ( 23415 PWs)   bands (ev):

   -49.1296 -49.0915 -49.0915 -48.6925 -48.6925 -48.6924 -48.6924 -48.6099
   -48.6098 -21.2817 -21.2646 -21.2646 -21.2379 -21.2352 -21.2220 -21.2046
   -21.2046 -21.2005 -21.2005 -21.1829 -21.1829 -21.1717 -21.1679 -21.1643
   -21.1598 -21.1598 -21.1248 -21.1248 -21.1167 -21.1070 -21.1006 -21.1006
   -21.0971 -21.0826 -21.0826 -21.0784 -21.0784 -21.0781 -21.0729 -21.0729
   -21.0670 -21.0670 -21.0548 -21.0548 -21.0295 -21.0295 -21.0267 -21.0251
   -21.0251 -21.0080 -21.0001 -21.0001 -20.9692 -20.9672  -9.6411  -8.4018
    -6.8004  -5.8731  -5.8731  -5.1805  -5.1805  -4.2979  -4.2979  -3.6455
    -3.0588  -2.5588  -2.3004  -2.3004  -2.0110  -1.6807  -1.6807  -1.3066
    -1.1982  -1.1982  -1.1362  -1.1362  -1.0189  -0.9923  -0.9923  -0.9547
    -0.9547  -0.7286  -0.7188  -0.7188  -0.6249  -0.6249  -0.1422  -0.1422
    -0.0346   1.6276   1.6727   2.3715   2.7459   2.7459   2.8426   2.8426
     3.8475   4.1368   4.1530   4.3076   4.7714   5.1013   5.1013   5.4365
     5.5115   5.5357   5.8261   5.8261   6.4059   6.6922   6.6923   6.9111
     7.1838   7.3721   7.4473   7.4604   7.5917

[...]

          k =-0.0771-0.0445 0.0000 ( 23408 PWs)   bands (ev):

[...]

     the Fermi energy is     0.7741 ev

!    total energy              =   -2045.68090448 Ry
     Harris-Foulkes estimate   =   -2045.68243731 Ry
     estimated scf accuracy    <       0.00000078 Ry

     The total energy is the sum of the following terms:

     one-electron contribution =  -12057.79622069 Ry
     hartree contribution      =    6088.53576211 Ry
     xc contribution           =    -498.04041976 Ry
     ewald contribution        =    4421.65396948 Ry
     electric field correction =       0.00000000 Ry
     smearing contrib. (-TS)   =      -0.03399562 Ry

     convergence has been achieved in  18 iterations

 BEEF-vdW xc energy contributions
           1 :   -436.849383526096
           2 :    399.698572968731
           3 :   -336.697677344367
           4 :    265.407944671847
           5 :   -202.484072588692
           6 :    157.796492765759
           7 :   -132.251101636247
           8 :    119.749719246882
           9 :   -111.795696090959
          10 :    102.141409988244
          11 :   -89.2098356945264
          12 :    75.4838725719391
          13 :   -64.7942273087000
          14 :    59.4162680646336
[...]
     PseudoPot. # 1 for Sn read from file:
     /afs/slac.stanford.edu/u/if/mamunm/psp/gbrv1.5pbe/Sn.UPF
     MD5 check sum: 469debedee59599fedebd795477fea03
     Pseudo is Ultrasoft + core correction, Zval = 14.0
     Generated by new atomic code, or converted to UPF format
     Using radial grid of  891 points,  6 beta functions with:
                l(1) =   0
                l(2) =   0
                l(3) =   1
                l(4) =   1
                l(5) =   2
                l(6) =   2
     Q(r) pseudized with  8 coefficients,  rinner =    1.350   1.350   1.350
                                                       1.350   1.350

     PseudoPot. # 2 for Pd read from file:
     /afs/slac.stanford.edu/u/if/mamunm/psp/gbrv1.5pbe/Pd.UPF
     MD5 check sum: 2d733d2bc2cbfd217af676df1668a4bc
     Pseudo is Ultrasoft + core correction, Zval = 16.0
     Generated by new atomic code, or converted to UPF format
     Using radial grid of  887 points,  6 beta functions with:
                l(1) =   0
                l(2) =   0
                l(3) =   1
                l(4) =   1
                l(5) =   2
                l(6) =   2
     Q(r) pseudized with  8 coefficients,  rinner =    1.130   1.130   1.130
                                                       1.130   1.130

     vdW kernel table read from file vdW_kernel_table
     MD5 check sum: 095c7af220d748ca6e76c0b4c6cfb241

     atomic species   valence    mass     pseudopotential
        Sn1           14.00   118.71000     Sn( 1.00)
        Pd1           16.00   106.42000     Pd( 1.00)

     No symmetry found

   Cartesian axes

     site n.     atom                  positions (alat units)
         1           Sn1 tau(   1) = (   0.0000000   0.0000000  10.0000000  )
         2           Sn1 tau(   2) = (  -1.6219947   2.8093773  10.0000000  )
         3           Sn1 tau(   3) = (   1.6219947   2.8093773  10.0000000  )
         4           Pd1 tau(   4) = (   3.2439895   0.0000000  10.0000000  )
         5           Sn1 tau(   5) = (   3.2439895   1.8729182  12.6487063  )
         6           Sn1 tau(   6) = (   1.6219947   4.6822955  12.6487063  )
         7           Sn1 tau(   7) = (  -1.6219947   4.6822955  12.6487063  )
         8           Pd1 tau(   8) = (   0.0000000   1.8729182  12.6487063  )
         9           Sn1 tau(   9) = (   0.0000082   3.6841508  15.2600406  )
        10           Sn1 tau(  10) = (   1.5684288   0.9674153  15.2600267  )
        11           Sn1 tau(  11) = (   4.9195085   0.9674510  15.2600381  )
        12           Pd1 tau(  12) = (   3.2439903   3.7457484  14.7792035  )

     number of k points=    20  Fermi-Dirac smearing, width (Ry)=  0.0110
                       cart. coord. in units 2pi/alat
        k(    1) = (   0.0000000   0.0000000   0.0000000), wk =   0.0555556
        k(    2) = (   0.0000000   0.0296626   0.0000000), wk =   0.1111111
        k(    3) = (   0.0000000   0.0593251   0.0000000), wk =   0.1111111
        k(    4) = (   0.0000000  -0.0889877   0.0000000), wk =   0.0555556
        k(    5) = (   0.0256885   0.0148313   0.0000000), wk =   0.1111111
        k(    6) = (   0.0256885   0.0444938   0.0000000), wk =   0.1111111
        k(    7) = (   0.0256885   0.0741564   0.0000000), wk =   0.1111111
        k(    8) = (   0.0256885  -0.0741564   0.0000000), wk =   0.1111111
        k(    9) = (   0.0256885  -0.0444938   0.0000000), wk =   0.1111111
        k(   10) = (   0.0256885  -0.0148313   0.0000000), wk =   0.1111111
        k(   11) = (   0.0513771   0.0296626   0.0000000), wk =   0.1111111
        k(   12) = (   0.0513771   0.0593251   0.0000000), wk =   0.1111111
        k(   13) = (   0.0513771   0.0889877   0.0000000), wk =   0.1111111
        k(   14) = (   0.0513771  -0.0593251   0.0000000), wk =   0.1111111
        k(   15) = (   0.0513771  -0.0296626   0.0000000), wk =   0.1111111
        k(   16) = (   0.0513771   0.0000000   0.0000000), wk =   0.1111111
        k(   17) = (  -0.0770656  -0.0444938   0.0000000), wk =   0.0555556
        k(   18) = (  -0.0770656  -0.0148313   0.0000000), wk =   0.1111111
        k(   19) = (  -0.0770656   0.0148313   0.0000000), wk =   0.1111111
        k(   20) = (  -0.0770656  -0.1334815   0.0000000), wk =   0.0555556

     Largest allocated arrays     est. size (Mb)     dimensions
     Largest temporary arrays     est. size (Mb)     dimensions

     Initial potential from superposition of free atoms
     Check: negative starting charge=   -0.230473

     starting charge  163.49957, renormalised to  174.00000

[...]

     *
     * You are using vdW-DF for exchange-correlation in this calculation.
     * Please cite the following three references that made this development
     * possible:
     *
     *   M. Dion, H. Rydberg, E. Schroder, D. C. Langreth, and
     *   B. I. Lundqvist, Phys. Rev. Lett. 92, 246401 (2004).
     *
     *   T. Thonhauser, V. R. Cooper, S. Li, A. Puzder, P. Hyldgaard, and
     *   D. C. Langreth, Phys. Rev. B 76, 125112 (2007).
     *
     *   G. Roman-Perez and J. M. Soler, Phys. Rev. Lett. 103, 096102 (2009).
     *
     *
     * If you are using vdW-DF2, please also cite:
     *
     *   K. Lee, E. D. Murray, L. Kong, B. I. Lundqvist, and
     *   D. C. Langreth, Phys. Rev. B 82, 081101(R) (2010).
     *
     *
     * If you are calculating the stress with vdW-DF, please also cite:
     *
     *   R. Sabatini, E. Kucukbenli, B. Kolb, T. Thonhauser, and
     *   S. de Gironcoli, J. Phys.: Condens. Matter 24, 424209 (2012).
     *

     Carrying out vdW-DF run using the following parameters:

     Nqs =      20    Nr_points =    1024   r_max =   100.000
     q_mesh =
               0.00001000     0.04494208     0.09755937     0.15916263
               0.23128650     0.31572767     0.41458969     0.53033537
               0.66584808     0.82450364     1.01025438     1.22772762
               1.48234092     1.78043706     2.12944203     2.53805004
               3.01644009     3.57652955     4.23227104     5.00000000

     Gradients computed in reciprocal space

[...]

     Starting wfc are  117 randomized atomic wfcs

     Self-consistent Calculation

[...]

     total energy              =   -2045.70438083 Ry
     Harris-Foulkes estimate   =   -2045.70438059 Ry
     estimated scf accuracy    <       0.00000123 Ry

     iteration # 20     ecut=    36.75 Ry     beta=0.10
     Davidson diagonalization with overlap
     ethr =  7.08E-10,  avg # of iterations =  2.0

[...]

     negative rho (up, down):  2.369E-01 0.000E+00

     Adding external electric field

     Computed dipole along edir(3) :
        Dipole                0.0418 Ry au,          0.1063 Debye
        Dipole field          0.0001 Ry au

        Potential amp.       -0.0079 Ry
        Total length         46.6101 bohr

     End of self-consistent calculation

[...]

          k = 0.0514 0.0000 0.0000 ( 23378 PWs)   bands (ev):

[...]

          k =-0.0771-0.1335 0.0000 ( 23408 PWs)   bands (ev):

   -49.1563 -49.1538 -49.1244 -49.1244 -49.0993 -49.0993 -48.6247 -48.6247
   -48.5212 -21.2433 -21.2026 -21.1948 -21.1866 -21.1794 -21.1740 -21.1685
   -21.1675 -21.1525 -21.1449 -21.1383 -21.1289 -21.1221 -21.1197 -21.1127
   -21.1114 -21.1063 -21.1045 -21.0975 -21.0932 -21.0894 -21.0885 -21.0840
   -21.0803 -21.0786 -21.0748 -21.0730 -21.0688 -21.0632 -21.0628 -21.0578
   -21.0566 -21.0502 -21.0500 -21.0482 -21.0435 -21.0387 -21.0379 -21.0293
   -21.0269 -21.0188 -21.0126 -20.9929 -20.9797 -20.9653  -8.7253  -8.4185
    -7.3953  -7.0059  -6.3674  -6.2691  -5.5873  -5.2109  -3.8979  -3.4160
    -2.9826  -2.4536  -2.2604  -1.9945  -1.9945  -1.8720  -1.7820  -1.6666
    -1.6351  -1.4438  -1.2584  -1.2494  -1.0928  -0.8790  -0.8353  -0.8165
    -0.6061  -0.2174   0.0602   0.3455   0.5167   0.6316   0.7146   1.1436
     1.5792   1.6259   1.7084   1.9622   2.3118   2.5337   2.8134   2.9524
     3.0796   3.2745   4.0292   4.0842   4.4393   4.8382   4.9067   5.0639
     5.3656   5.4068   5.5666   5.8288   5.9230   6.0663   6.1564   6.1725
     6.2865   6.3715   6.5164   6.6894   6.8176

     the Fermi energy is     0.7918 ev

!    total energy              =   -2045.70438116 Ry
     Harris-Foulkes estimate   =   -2045.70438064 Ry
     estimated scf accuracy    <       0.00000030 Ry

     The total energy is the sum of the following terms:

     one-electron contribution =  -12335.18698517 Ry
     hartree contribution      =    6227.11383248 Ry
     xc contribution           =    -498.15733952 Ry
     ewald contribution        =    4560.55972962 Ry
     electric field correction =       0.00000353 Ry
     smearing contrib. (-TS)   =      -0.03362210 Ry

     convergence has been achieved in  20 iterations

 BEEF-vdW xc energy contributions
           1 :   -437.023910064113
           2 :    399.959301548399
           3 :   -337.057925322591
           4 :    265.787890463018
           5 :   -202.759411399331
           6 :    157.881226445317
           7 :   -132.156435315656
           8 :    119.581111446352
           9 :   -111.690959693040
          10 :    102.188734780081
          11 :   -89.3964029622008
          12 :    75.7062392074012
          13 :   -64.9240754047408
          14 :    59.3813492765079
          15 :   -58.5140705523861
          16 :    59.4811214335676
          17 :   -59.1249980780377
          18 :    55.8832678487933
          19 :   -50.4878865830606
          20 :    45.1684383889279
          21 :   -42.0299182414346
          22 :    41.7042020136702
          23 :   -43.0869907524175
          24 :    44.2030013208346
          25 :   -43.5341470710935
          26 :    40.9218912069791
          27 :   -37.5184566356977
          28 :    34.9118753584465
          29 :   -34.0622789193835
          30 :    34.7431210788193
          31 :   -38.9922002143145
          32 :   -28.4733360163857

     Forces acting on atoms (Ry/au):

     negative rho (up, down):  2.369E-01 0.000E+00
     atom    1 type  1   force =    -0.00000231    0.01131331   -0.00008090
     atom    2 type  1   force =     0.00979542   -0.00565257   -0.00007957
     atom    3 type  1   force =    -0.00980119   -0.00565921   -0.00007102
     atom    4 type  2   force =    -0.00000065    0.00000182    0.02380089
     atom    5 type  1   force =    -0.00000330   -0.00772080   -0.00834271
     atom    6 type  1   force =    -0.00668236    0.00385955   -0.00834027
     atom    7 type  1   force =     0.00668477    0.00385665   -0.00834334
     atom    8 type  2   force =    -0.00000035   -0.00000055    0.00039266
     atom    9 type  1   force =     0.00000220   -0.00016042   -0.00027914
     atom   10 type  1   force =    -0.00013752    0.00008007   -0.00028218
     atom   11 type  1   force =     0.00014559    0.00008525   -0.00028425
     atom   12 type  2   force =    -0.00000031   -0.00000309    0.00190982

     Total force =     0.036635     Total SCF correction =     0.001616

     entering subroutine stress ...

     negative rho (up, down):  2.369E-01 0.000E+00
          total   stress  (Ry/bohr**3)                   (kbar)     P=   -7.05
  -0.00005486  -0.00000000   0.00000000         -8.07     -0.00      0.00
  -0.00000000  -0.00005486   0.00000000         -0.00     -8.07      0.00
   0.00000000   0.00000000  -0.00003397          0.00      0.00     -5.00

 !ASE

     Writing output data file calc.save

     General routines

     Parallel routines

   This run was terminated on:  18: 0:55   1Jan2019

   JOB DONE.
Job  /afs/slac/g/suncat/bin/suncat-tsmpirun -x LD_LIBRARY_PATH -wdir /scratch/qe649034_7Eikb pw.x -in pw.inp

TID   HOST_NAME   COMMAND_LINE            STATUS            TERMINATION_TIME
00000 suncat0188 pw.x -in pw.inp   Done                     01/01/2019 18:00:55
00001 suncat0188 pw.x -in pw.inp   Done                     01/01/2019 18:00:55
00002 suncat0188 pw.x -in pw.inp   Done                     01/01/2019 18:00:55
00003 suncat0188 pw.x -in pw.inp   Done                     01/01/2019 18:00:55
00004 suncat0188 pw.x -in pw.inp   Done                     01/01/2019 18:00:55
00005 suncat0188 pw.x -in pw.inp   Done                     01/01/2019 18:00:55
00006 suncat0188 pw.x -in pw.inp   Done                     01/01/2019 18:00:55
00007 suncat0188 pw.x -in pw.inp   Done                     01/01/2019 18:00:55
00008 suncat0129 pw.x -in pw.inp   Done                     01/01/2019 18:00:55
00009 suncat0129 pw.x -in pw.inp   Done                     01/01/2019 18:00:55
00010 suncat0129 pw.x -in pw.inp   Done                     01/01/2019 18:00:55
00011 suncat0129 pw.x -in pw.inp   Done                     01/01/2019 18:00:55
00012 suncat0129 pw.x -in pw.inp   Done                     01/01/2019 18:00:55
00013 suncat0129 pw.x -in pw.inp   Done                     01/01/2019 18:00:55
00014 suncat0129 pw.x -in pw.inp   Done                     01/01/2019 18:00:55
00015 suncat0129 pw.x -in pw.inp   Done                     01/01/2019 18:00:55
00016 suncat0116 pw.x -in pw.inp   Done                     01/01/2019 18:00:55
00017 suncat0116 pw.x -in pw.inp   Done                     01/01/2019 18:00:55
00018 suncat0116 pw.x -in pw.inp   Done                     01/01/2019 18:00:55
00019 suncat0116 pw.x -in pw.inp   Done                     01/01/2019 18:00:55
00020 suncat0116 pw.x -in pw.inp   Done                     01/01/2019 18:00:55
00021 suncat0116 pw.x -in pw.inp   Done                     01/01/2019 18:00:55
00022 suncat0116 pw.x -in pw.inp   Done                     01/01/2019 18:00:55
00023 suncat0116 pw.x -in pw.inp   Done                     01/01/2019 18:00:55
00024 suncat0114 pw.x -in pw.inp   Done                     01/01/2019 18:00:55
00025 suncat0114 pw.x -in pw.inp   Done                     01/01/2019 18:00:55
00026 suncat0114 pw.x -in pw.inp   Done                     01/01/2019 18:00:55
00027 suncat0114 pw.x -in pw.inp   Done                     01/01/2019 18:00:55
00028 suncat0114 pw.x -in pw.inp   Done                     01/01/2019 18:00:55
00029 suncat0114 pw.x -in pw.inp   Done                     01/01/2019 18:00:55
00030 suncat0114 pw.x -in pw.inp   Done                     01/01/2019 18:00:55
00031 suncat0114 pw.x -in pw.inp   Done                     01/01/2019 18:00:55
00032 suncat0264 pw.x -in pw.inp   Done                     01/01/2019 18:00:55
00033 suncat0264 pw.x -in pw.inp   Done                     01/01/2019 18:00:55
00034 suncat0264 pw.x -in pw.inp   Done                     01/01/2019 18:00:55
00035 suncat0264 pw.x -in pw.inp   Done                     01/01/2019 18:00:55
00036 suncat0264 pw.x -in pw.inp   Done                     01/01/2019 18:00:55
00037 suncat0264 pw.x -in pw.inp   Done                     01/01/2019 18:00:55
00038 suncat0264 pw.x -in pw.inp   Done                     01/01/2019 18:00:55
00039 suncat0264 pw.x -in pw.inp   Done                     01/01/2019 18:00:55
00040 suncat0260 pw.x -in pw.inp   Done                     01/01/2019 18:00:55
00041 suncat0260 pw.x -in pw.inp   Done                     01/01/2019 18:00:55
00042 suncat0260 pw.x -in pw.inp   Done                     01/01/2019 18:00:55
00043 suncat0260 pw.x -in pw.inp   Done                     01/01/2019 18:00:55
00044 suncat0260 pw.x -in pw.inp   Done                     01/01/2019 18:00:55
00045 suncat0260 pw.x -in pw.inp   Done                     01/01/2019 18:00:55
00046 suncat0260 pw.x -in pw.inp   Done                     01/01/2019 18:00:55
00047 suncat0260 pw.x -in pw.inp   Done                     01/01/2019 18:00:55
00048 suncat0249 pw.x -in pw.inp   Done                     01/01/2019 18:00:55
00049 suncat0249 pw.x -in pw.inp   Done                     01/01/2019 18:00:55
00050 suncat0249 pw.x -in pw.inp   Done                     01/01/2019 18:00:55
00051 suncat0249 pw.x -in pw.inp   Done                     01/01/2019 18:00:55
00052 suncat0249 pw.x -in pw.inp   Done                     01/01/2019 18:00:55
00053 suncat0249 pw.x -in pw.inp   Done                     01/01/2019 18:00:55
00054 suncat0249 pw.x -in pw.inp   Done                     01/01/2019 18:00:55
00055 suncat0249 pw.x -in pw.inp   Done                     01/01/2019 18:00:55
00056 suncat0231 pw.x -in pw.inp   Done                     01/01/2019 18:00:55
00057 suncat0231 pw.x -in pw.inp   Done                     01/01/2019 18:00:55
00058 suncat0231 pw.x -in pw.inp   Done                     01/01/2019 18:00:55
00059 suncat0231 pw.x -in pw.inp   Done                     01/01/2019 18:00:55
00060 suncat0231 pw.x -in pw.inp   Done                     01/01/2019 18:00:55
00061 suncat0231 pw.x -in pw.inp   Done                     01/01/2019 18:00:55
00062 suncat0231 pw.x -in pw.inp   Done                     01/01/2019 18:00:55
00063 suncat0231 pw.x -in pw.inp   Done                     01/01/2019 18:00:55