     Program PWSCF v.5.1rc2 (svn rev. 11289) starts on 27Dec2018 at 13:13:54

     Current dimensions of program PWSCF are:
     Max number of different atomic species (ntypx) = 10
     Max number of k-points (npk) =  40000
     Max angular momentum in pseudopotentials (lmaxx) =  3
     Presently stress not available with electric field

     IMPORTANT: XC functional enforced from input :
     Exchange-correlation      = BEEF-VDW ( 1  4 27 13 2)
     Any further DFT definition will be discarded
     Please, verify this is what you really want

     Subspace diagonalization in iterative solution of the eigenvalue problem:
     a serial algorithm will be used

     bravais-lattice index     =            0
     lattice parameter (alat)  =       1.8897  a.u.
     unit-cell volume          =    4311.1827 (a.u.)^3
     number of atoms/cell      =           12
     number of atomic types    =            2
     number of electrons       =       192.00
     number of Kohn-Sham states=          126
     kinetic-energy cutoff     =      36.7493  Ry
     charge density cutoff     =     367.4932  Ry
     convergence threshold     =      1.0E-06
     mixing beta               =       0.1000
     number of iterations used =           10  plain     mixing
     Exchange-correlation      = BEEF-VDW ( 1  4 27 13 2)
     nstep                     =           50

     celldm(1)=   1.889726  celldm(2)=   0.000000  celldm(3)=   0.000000
     celldm(4)=   0.000000  celldm(5)=   0.000000  celldm(6)=   0.000000

     crystal axes: (cart. coord. in units of alat)
               a(1) = (   5.489233   0.000000   0.000000 )
               a(2) = (  -2.744617   4.753815   0.000000 )
               a(3) = (   0.000000   0.000000  24.481940 )

     reciprocal axes: (cart. coord. in units 2 pi/alat)
               b(1) = (  0.182175  0.105179  0.000000 )
               b(2) = (  0.000000  0.210357  0.000000 )
               b(3) = (  0.000000  0.000000  0.040846 )

     PseudoPot. # 1 for Os read from file:
     /afs/slac.stanford.edu/u/if/mamunm/psp/gbrv1.5pbe/Os.UPF
     MD5 check sum: a3fb40a04f0c37c25c34bbc47164c9a8
     Pseudo is Ultrasoft + core correction, Zval = 16.0
     Generated by new atomic code, or converted to UPF format
     Using radial grid of  983 points,  8 beta functions with:
                l(1) =   0
                l(2) =   0
                l(3) =   1
                l(4) =   1
                l(5) =   2
                l(6) =   2
                l(7) =   3
                l(8) =   3
     Q(r) pseudized with  8 coefficients,  rinner =    1.150   1.150   1.150
                                                       1.150   1.150   1.150
                                                       1.150

     PseudoPot. # 2 for Pt read from file:
     /afs/slac.stanford.edu/u/if/mamunm/psp/gbrv1.5pbe/Pt.UPF
     MD5 check sum: f09d6de1a584b5a045c4fc126da2d0c4
     Pseudo is Ultrasoft + core correction, Zval = 16.0
     Generated by new atomic code, or converted to UPF format
     Using radial grid of  985 points,  6 beta functions with:
                l(1) =   0
                l(2) =   0
                l(3) =   1
                l(4) =   1
                l(5) =   2
                l(6) =   2
     Q(r) pseudized with  8 coefficients,  rinner =    1.300   1.300   1.300
                                                       1.300   1.300

     vdW kernel table read from file vdW_kernel_table
     MD5 check sum: 095c7af220d748ca6e76c0b4c6cfb241

     atomic species   valence    mass     pseudopotential
        Os1           16.00   190.23000     Os( 1.00)
        Pt1           16.00   195.08400     Pt( 1.00)

     No symmetry found

   Cartesian axes

     site n.     atom                  positions (alat units)
         1           Os1 tau(   1) = (   0.0000000   0.0000000  10.0000000  )
         2           Os1 tau(   2) = (  -1.3723083   2.3769077  10.0000000  )
         3           Os1 tau(   3) = (   1.3723083   2.3769077  10.0000000  )
         4           Pt1 tau(   4) = (   2.7446166   0.0000000  10.0000000  )
         5           Os1 tau(   5) = (   2.7446166   1.5846051  12.2409701  )
         6           Os1 tau(   6) = (   1.3723083   3.9615128  12.2409701  )
         7           Os1 tau(   7) = (  -1.3723083   3.9615128  12.2409701  )
         8           Pt1 tau(   8) = (   0.0000000   1.5846051  12.2409701  )
         9           Os1 tau(   9) = (  -0.0000000   3.1692103  14.4819401  )
        10           Os1 tau(  10) = (   1.3723083   0.7923026  14.4819401  )
        11           Os1 tau(  11) = (   4.1169249   0.7923026  14.4819401  )
        12           Pt1 tau(  12) = (   2.7446166   3.1692103  14.4819401  )

     number of k points=    20  Fermi-Dirac smearing, width (Ry)=  0.0110
                       cart. coord. in units 2pi/alat
        k(    1) = (   0.0000000   0.0000000   0.0000000), wk =   0.0555556
        k(    2) = (   0.0000000   0.0350596   0.0000000), wk =   0.1111111
        k(    3) = (   0.0000000   0.0701191   0.0000000), wk =   0.1111111
        k(    4) = (   0.0000000  -0.1051787   0.0000000), wk =   0.0555556
        k(    5) = (   0.0303625   0.0175298   0.0000000), wk =   0.1111111
        k(    6) = (   0.0303625   0.0525893   0.0000000), wk =   0.1111111
        k(    7) = (   0.0303625   0.0876489   0.0000000), wk =   0.1111111
        k(    8) = (   0.0303625  -0.0876489   0.0000000), wk =   0.1111111
        k(    9) = (   0.0303625  -0.0525893   0.0000000), wk =   0.1111111
        k(   10) = (   0.0303625  -0.0175298   0.0000000), wk =   0.1111111
        k(   11) = (   0.0607249   0.0350596   0.0000000), wk =   0.1111111
        k(   12) = (   0.0607249   0.0701191   0.0000000), wk =   0.1111111
        k(   13) = (   0.0607249   0.1051787   0.0000000), wk =   0.1111111
        k(   14) = (   0.0607249  -0.0701191   0.0000000), wk =   0.1111111
        k(   15) = (   0.0607249  -0.0350596   0.0000000), wk =   0.1111111
        k(   16) = (   0.0607249  -0.0000000   0.0000000), wk =   0.1111111
        k(   17) = (  -0.0910874  -0.0525893   0.0000000), wk =   0.0555556
        k(   18) = (  -0.0910874  -0.0175298   0.0000000), wk =   0.1111111
        k(   19) = (  -0.0910874   0.0175298   0.0000000), wk =   0.1111111
        k(   20) = (  -0.0910874  -0.1577680   0.0000000), wk =   0.0555556

     Largest allocated arrays     est. size (Mb)     dimensions
     Largest temporary arrays     est. size (Mb)     dimensions

     Initial potential from superposition of free atoms
     Check: negative starting charge=   -1.672536

     starting charge  185.99964, renormalised to  192.00000

     negative rho (up, down):  1.726E+00 0.000E+00

     *
     * You are using vdW-DF for exchange-correlation in this calculation.
     * Please cite the following three references that made this development
     * possible:
     *
     *   M. Dion, H. Rydberg, E. Schroder, D. C. Langreth, and
     *   B. I. Lundqvist, Phys. Rev. Lett. 92, 246401 (2004).
     *
     *   T. Thonhauser, V. R. Cooper, S. Li, A. Puzder, P. Hyldgaard, and
     *   D. C. Langreth, Phys. Rev. B 76, 125112 (2007).
     *
     *   G. Roman-Perez and J. M. Soler, Phys. Rev. Lett. 103, 096102 (2009).
     *
     *
     * If you are using vdW-DF2, please also cite:
     *
     *   K. Lee, E. D. Murray, L. Kong, B. I. Lundqvist, and
     *   D. C. Langreth, Phys. Rev. B 82, 081101(R) (2010).
     *
     *
     * If you are calculating the stress with vdW-DF, please also cite:
     *
     *   R. Sabatini, E. Kucukbenli, B. Kolb, T. Thonhauser, and
     *   S. de Gironcoli, J. Phys.: Condens. Matter 24, 424209 (2012).
     *

     Carrying out vdW-DF run using the following parameters:

     Nqs =      20    Nr_points =    1024   r_max =   100.000
     q_mesh =
               0.00001000     0.04494208     0.09755937     0.15916263
               0.23128650     0.31572767     0.41458969     0.53033537
               0.66584808     0.82450364     1.01025438     1.22772762
               1.48234092     1.78043706     2.12944203     2.53805004
               3.01644009     3.57652955     4.23227104     5.00000000

     Gradients computed in reciprocal space

     Adding external electric field

     Computed dipole along edir(3) :
        Dipole                0.0000 Ry au,          0.0000 Debye
        Dipole field          0.0000 Ry au

        Potential amp.       -0.0000 Ry
        Total length         45.1076 bohr

     Starting wfc are  153 randomized atomic wfcs

     Self-consistent Calculation

     iteration #  1     ecut=    36.75 Ry     beta=0.10
     Davidson diagonalization with overlap
     ethr =  1.00E-02,  avg # of iterations =  7.9

[...]

     total energy              =   -2433.43185562 Ry
     Harris-Foulkes estimate   =   -2437.75858890 Ry
     estimated scf accuracy    <      24.68489443 Ry

[...]

     iteration #  8     ecut=    36.75 Ry     beta=0.10
     Davidson diagonalization with overlap
     c_bands:  1 eigenvalues not converged
     ethr =  1.02E-05,  avg # of iterations =  8.4

[...]

     End of self-consistent calculation

          k = 0.0000 0.0000 0.0000 ( 16091 PWs)   bands (ev):

   -84.3858 -84.3457 -84.3457 -83.9049 -83.9041 -83.8654 -83.8654 -83.8652
   -83.8652 -51.2431 -51.2431 -51.2108 -50.7096 -50.7096 -50.7087 -50.7087
   -50.5672 -50.5640 -43.9682 -43.7884 -43.7844 -43.7844 -43.6874 -43.6874
   -43.5247 -43.4948 -43.4711 -43.3450 -43.3450 -43.2746 -43.2746 -43.2211
   -43.2211 -43.1597 -43.0889 -43.0889 -43.0708 -43.0402 -43.0402 -42.9682
   -42.9572 -42.8965 -42.8965 -42.8936 -42.8936  -6.9340  -4.9883  -4.5969
    -4.3239  -4.3239  -4.1555  -4.0170  -4.0170  -3.8307  -3.4455  -3.4455
    -3.4193  -3.2208  -3.2208  -2.9792  -1.8275  -1.8275  -1.3963  -1.3335
    -1.3335  -1.0685  -0.8239  -0.7704  -0.5199  -0.5199  -0.1691  -0.1691
    -0.0614  -0.0614   0.1933   0.1933   0.2017   0.4226   0.6416   0.6416
     1.4985   1.4985   1.5224   1.6863   1.6863   1.8677   2.0395   2.0395
     2.4135   2.8758   3.0209   3.0835   3.0835   3.4967   3.4967   3.5683
     3.5683   3.9001   3.9001   3.9368   3.9460   3.9460   4.0464   4.0464
     4.2111   4.4299   4.4299   4.6129   4.6129   4.9182   5.4082   5.4891
     5.9124   6.1742   6.1742   6.2117   6.7100   6.7100   7.2897   7.5050
     7.9410   8.8408   9.3883   9.4312   9.7429   9.9199

[...]

          k =-0.0911-0.0526 0.0000 ( 16164 PWs)   bands (ev):

[...]

     the Fermi energy is     2.7506 ev

!    total energy              =   -2434.88734059 Ry
     Harris-Foulkes estimate   =   -2434.88733651 Ry
     estimated scf accuracy    <       0.00000041 Ry

     The total energy is the sum of the following terms:

     one-electron contribution =  -20994.01149055 Ry
     hartree contribution      =   10490.95917010 Ry
     xc contribution           =    -523.75821641 Ry
     ewald contribution        =    8591.99654725 Ry
     electric field correction =       0.00000000 Ry
     smearing contrib. (-TS)   =      -0.07335099 Ry

     convergence has been achieved in  16 iterations

 BEEF-vdW xc energy contributions
           1 :   -461.470913996413
           2 :    428.382765615109
[...]
     Generated by new atomic code, or converted to UPF format
     Using radial grid of  983 points,  8 beta functions with:
                l(1) =   0
                l(2) =   0
                l(3) =   1
                l(4) =   1
                l(5) =   2
                l(6) =   2
                l(7) =   3
                l(8) =   3
     Q(r) pseudized with  8 coefficients,  rinner =    1.150   1.150   1.150
                                                       1.150   1.150   1.150
                                                       1.150

     PseudoPot. # 2 for Pt read from file:
     /afs/slac.stanford.edu/u/if/mamunm/psp/gbrv1.5pbe/Pt.UPF
     MD5 check sum: f09d6de1a584b5a045c4fc126da2d0c4
     Pseudo is Ultrasoft + core correction, Zval = 16.0
     Generated by new atomic code, or converted to UPF format
     Using radial grid of  985 points,  6 beta functions with:
                l(1) =   0
                l(2) =   0
                l(3) =   1
                l(4) =   1
                l(5) =   2
                l(6) =   2
     Q(r) pseudized with  8 coefficients,  rinner =    1.300   1.300   1.300
                                                       1.300   1.300

     vdW kernel table read from file vdW_kernel_table
     MD5 check sum: 095c7af220d748ca6e76c0b4c6cfb241

     atomic species   valence    mass     pseudopotential
        Os1           16.00   190.23000     Os( 1.00)
        Pt1           16.00   195.08400     Pt( 1.00)

     No symmetry found

   Cartesian axes

     site n.     atom                  positions (alat units)
         1           Os1 tau(   1) = (   0.0000000   0.0000000  10.0000000  )
         2           Os1 tau(   2) = (  -1.3723083   2.3769077  10.0000000  )
         3           Os1 tau(   3) = (   1.3723083   2.3769077  10.0000000  )
         4           Pt1 tau(   4) = (   2.7446166   0.0000000  10.0000000  )
         5           Os1 tau(   5) = (   2.7446166   1.5846051  12.2409701  )
         6           Os1 tau(   6) = (   1.3723083   3.9615128  12.2409701  )
         7           Os1 tau(   7) = (  -1.3723083   3.9615128  12.2409701  )
         8           Pt1 tau(   8) = (   0.0000000   1.5846051  12.2409701  )
         9           Os1 tau(   9) = (   0.0000001   3.2556111  14.4003477  )
        10           Os1 tau(  10) = (   1.4471266   0.7491047  14.4003399  )
        11           Os1 tau(  11) = (   4.0421005   0.7491012  14.4003472  )
        12           Pt1 tau(  12) = (   2.7446181   3.1692100  14.4268470  )

     number of k points=    20  Fermi-Dirac smearing, width (Ry)=  0.0110
                       cart. coord. in units 2pi/alat
        k(    1) = (   0.0000000   0.0000000   0.0000000), wk =   0.0555556
        k(    2) = (   0.0000000   0.0350596   0.0000000), wk =   0.1111111
        k(    3) = (   0.0000000   0.0701191   0.0000000), wk =   0.1111111
        k(    4) = (   0.0000000  -0.1051787   0.0000000), wk =   0.0555556
        k(    5) = (   0.0303625   0.0175298   0.0000000), wk =   0.1111111
        k(    6) = (   0.0303625   0.0525893   0.0000000), wk =   0.1111111
        k(    7) = (   0.0303625   0.0876489   0.0000000), wk =   0.1111111
        k(    8) = (   0.0303625  -0.0876489   0.0000000), wk =   0.1111111
        k(    9) = (   0.0303625  -0.0525893   0.0000000), wk =   0.1111111
        k(   10) = (   0.0303625  -0.0175298   0.0000000), wk =   0.1111111
        k(   11) = (   0.0607249   0.0350596   0.0000000), wk =   0.1111111
        k(   12) = (   0.0607249   0.0701191   0.0000000), wk =   0.1111111
        k(   13) = (   0.0607249   0.1051787   0.0000000), wk =   0.1111111
        k(   14) = (   0.0607249  -0.0701191   0.0000000), wk =   0.1111111
        k(   15) = (   0.0607249  -0.0350596   0.0000000), wk =   0.1111111
        k(   16) = (   0.0607249  -0.0000000   0.0000000), wk =   0.1111111
        k(   17) = (  -0.0910874  -0.0525893   0.0000000), wk =   0.0555556
        k(   18) = (  -0.0910874  -0.0175298   0.0000000), wk =   0.1111111
        k(   19) = (  -0.0910874   0.0175298   0.0000000), wk =   0.1111111
        k(   20) = (  -0.0910874  -0.1577680   0.0000000), wk =   0.0555556

     Largest allocated arrays     est. size (Mb)     dimensions
     Largest temporary arrays     est. size (Mb)     dimensions

     Initial potential from superposition of free atoms
     Check: negative starting charge=   -1.674719

     starting charge  185.99964, renormalised to  192.00000

[...]

     *
     * You are using vdW-DF for exchange-correlation in this calculation.
     * Please cite the following three references that made this development
     * possible:
     *
     *   M. Dion, H. Rydberg, E. Schroder, D. C. Langreth, and
     *   B. I. Lundqvist, Phys. Rev. Lett. 92, 246401 (2004).
     *
     *   T. Thonhauser, V. R. Cooper, S. Li, A. Puzder, P. Hyldgaard, and
     *   D. C. Langreth, Phys. Rev. B 76, 125112 (2007).
     *
     *   G. Roman-Perez and J. M. Soler, Phys. Rev. Lett. 103, 096102 (2009).
     *
     *
     * If you are using vdW-DF2, please also cite:
     *
     *   K. Lee, E. D. Murray, L. Kong, B. I. Lundqvist, and
     *   D. C. Langreth, Phys. Rev. B 82, 081101(R) (2010).
     *
     *
     * If you are calculating the stress with vdW-DF, please also cite:
     *
     *   R. Sabatini, E. Kucukbenli, B. Kolb, T. Thonhauser, and
     *   S. de Gironcoli, J. Phys.: Condens. Matter 24, 424209 (2012).
     *

     Carrying out vdW-DF run using the following parameters:

     Nqs =      20    Nr_points =    1024   r_max =   100.000
     q_mesh =
               0.00001000     0.04494208     0.09755937     0.15916263
               0.23128650     0.31572767     0.41458969     0.53033537
               0.66584808     0.82450364     1.01025438     1.22772762
               1.48234092     1.78043706     2.12944203     2.53805004
               3.01644009     3.57652955     4.23227104     5.00000000

     Gradients computed in reciprocal space

[...]

     Starting wfc are  153 randomized atomic wfcs

     Self-consistent Calculation

[...]

     total energy              =   -2434.90636000 Ry
     Harris-Foulkes estimate   =   -2434.90635774 Ry
     estimated scf accuracy    <       0.00000175 Ry

     iteration # 16     ecut=    36.75 Ry     beta=0.10
     Davidson diagonalization with overlap
     ethr =  9.09E-10,  avg # of iterations =  1.7

[...]

     negative rho (up, down):  1.654E+00 0.000E+00

     Adding external electric field

     Computed dipole along edir(3) :
        Dipole                0.0241 Ry au,          0.0614 Debye
        Dipole field          0.0001 Ry au

        Potential amp.       -0.0063 Ry
        Total length         45.1076 bohr

     End of self-consistent calculation

[...]

          k = 0.0607-0.0000 0.0000 ( 16230 PWs)   bands (ev):

[...]

          k =-0.0911-0.1578 0.0000 ( 16164 PWs)   bands (ev):

   -84.4077 -84.3941 -84.3805 -83.9894 -83.9554 -83.9473 -83.8097 -83.7965
   -83.7834 -51.2330 -51.2303 -51.1968 -50.7809 -50.7783 -50.6507 -50.6496
   -50.6468 -50.5095 -43.9235 -43.8363 -43.8154 -43.7746 -43.6976 -43.6769
   -43.6415 -43.6374 -43.5395 -43.4066 -43.3425 -43.3015 -43.2712 -43.1704
   -43.1526 -43.1304 -43.1176 -43.1157 -43.0925 -43.0598 -43.0301 -43.0182
   -43.0119 -42.9860 -42.9818 -42.9688 -42.8402  -5.1422  -5.1065  -3.6465
    -3.5923  -3.3637  -3.3364  -3.2609  -3.2199  -3.1058  -3.0239  -2.8110
    -2.4877  -2.4295  -2.2320  -2.1520  -2.0289  -1.9231  -1.7872  -1.6078
    -1.5436  -1.5196  -1.1371  -0.9036  -0.8430  -0.7916  -0.7117  -0.5879
    -0.4586  -0.3272  -0.2257  -0.0251   0.0067   0.1477   0.1493   0.1900
     0.3082   0.3728   0.4053   0.4497   0.6584   0.9125   1.2065   1.2415
     1.3167   1.4714   1.7260   1.7481   1.9363   2.0324   2.1645   2.2694
     2.3447   2.6853   2.7219   2.8365   2.8618   3.0326   3.3665   3.4532
     3.6240   3.8343   4.0946   4.2961   4.9076   5.0958   5.2178   5.7545
     6.5510   6.8233   7.2570   7.4605   7.8190   8.3818   8.6601   8.8547
     8.8691   9.4454   9.5047   9.5395   9.5532  10.6533

     the Fermi energy is     2.7943 ev

!    total energy              =   -2434.90636641 Ry
     Harris-Foulkes estimate   =   -2434.90636033 Ry
     estimated scf accuracy    <       0.00000047 Ry

     The total energy is the sum of the following terms:

     one-electron contribution =  -21223.37789098 Ry
     hartree contribution      =   10605.50875457 Ry
     xc contribution           =    -523.98456625 Ry
     ewald contribution        =    8707.01652774 Ry
     electric field correction =       0.00000170 Ry
     smearing contrib. (-TS)   =      -0.06919318 Ry

     convergence has been achieved in  16 iterations

 BEEF-vdW xc energy contributions
           1 :   -461.701849665834
           2 :    428.699500704902
           3 :   -370.008834607185
           4 :    297.747241612510
           5 :   -225.148439154347
           6 :    163.006483397142
           7 :   -117.320430595006
           8 :    88.6788397282106
           9 :   -73.3631778995086
          10 :    65.5557225025437
          11 :   -59.7411734497231
          12 :    52.4363557662946
          13 :   -42.7886657344180
          14 :    32.0711693010985
          15 :   -22.5070812562996
          16 :    15.9992844730007
          17 :   -13.2696955398790
          18 :    13.6606676984323
          19 :   -15.5595531925799
          20 :    17.1606940297701
          21 :   -17.1973318522688
          22 :    15.3424734182114
          23 :   -12.1677677342925
          24 :    8.74360544349031
          25 :   -6.10157325167762
          26 :    4.79947149721869
          27 :   -4.75645518087344
          28 :    5.38780183847109
          29 :   -5.94046243450293
          30 :    5.85265511266527
          31 :   -41.6939628571106
          32 :   -31.5586928535971

     Forces acting on atoms (Ry/au):

     negative rho (up, down):  1.654E+00 0.000E+00
     atom    1 type  1   force =     0.00000008   -0.03599437    0.02207779
     atom    2 type  1   force =    -0.03117028    0.01799696    0.02208238
     atom    3 type  1   force =     0.03117287    0.01799730    0.02207694
     atom    4 type  2   force =     0.00000036   -0.00000047    0.00846553
     atom    5 type  1   force =    -0.00000834    0.00647970   -0.02364823
     atom    6 type  1   force =     0.00561444   -0.00324371   -0.02365532
     atom    7 type  1   force =    -0.00561235   -0.00323445   -0.02364677
     atom    8 type  2   force =    -0.00000186    0.00000074   -0.00449041
     atom    9 type  1   force =     0.00000390    0.00079556   -0.00003899
     atom   10 type  1   force =     0.00068977   -0.00039718   -0.00003312
     atom   11 type  1   force =    -0.00068995   -0.00039940   -0.00004025
     atom   12 type  2   force =     0.00000136   -0.00000069    0.00085043

     Total force =     0.085133     Total SCF correction =     0.003044

     entering subroutine stress ...

     negative rho (up, down):  1.654E+00 0.000E+00
          total   stress  (Ry/bohr**3)                   (kbar)     P=  -26.93
  -0.00023046   0.00000000   0.00000000        -33.90      0.00      0.00
   0.00000000  -0.00023046  -0.00000000          0.00    -33.90     -0.00
   0.00000000  -0.00000000  -0.00008825          0.00     -0.00    -12.98

 !ASE

     Writing output data file calc.save

     General routines

     Parallel routines

   This run was terminated on:  13:54:24  27Dec2018

   JOB DONE.
Job  /afs/slac/g/suncat/bin/suncat-tsmpirun -x LD_LIBRARY_PATH -wdir /scratch/qe110343_rUZ4a pw.x -in pw.inp

TID   HOST_NAME   COMMAND_LINE            STATUS            TERMINATION_TIME
00000 suncat0139 pw.x -in pw.inp   Done                     12/27/2018 13:54:24
00001 suncat0139 pw.x -in pw.inp   Done                     12/27/2018 13:54:24
00002 suncat0139 pw.x -in pw.inp   Done                     12/27/2018 13:54:24
00003 suncat0139 pw.x -in pw.inp   Done                     12/27/2018 13:54:24
00004 suncat0139 pw.x -in pw.inp   Done                     12/27/2018 13:54:24
00005 suncat0139 pw.x -in pw.inp   Done                     12/27/2018 13:54:24
00006 suncat0139 pw.x -in pw.inp   Done                     12/27/2018 13:54:24
00007 suncat0139 pw.x -in pw.inp   Done                     12/27/2018 13:54:24
00008 suncat0124 pw.x -in pw.inp   Done                     12/27/2018 13:54:24
00009 suncat0124 pw.x -in pw.inp   Done                     12/27/2018 13:54:24
00010 suncat0124 pw.x -in pw.inp   Done                     12/27/2018 13:54:24
00011 suncat0124 pw.x -in pw.inp   Done                     12/27/2018 13:54:24
00012 suncat0124 pw.x -in pw.inp   Done                     12/27/2018 13:54:24
00013 suncat0124 pw.x -in pw.inp   Done                     12/27/2018 13:54:24
00014 suncat0124 pw.x -in pw.inp   Done                     12/27/2018 13:54:24
00015 suncat0124 pw.x -in pw.inp   Done                     12/27/2018 13:54:24
00016 suncat0123 pw.x -in pw.inp   Done                     12/27/2018 13:54:24
00017 suncat0123 pw.x -in pw.inp   Done                     12/27/2018 13:54:24
00018 suncat0123 pw.x -in pw.inp   Done                     12/27/2018 13:54:24
00019 suncat0123 pw.x -in pw.inp   Done                     12/27/2018 13:54:24
00020 suncat0123 pw.x -in pw.inp   Done                     12/27/2018 13:54:24
00021 suncat0123 pw.x -in pw.inp   Done                     12/27/2018 13:54:24
00022 suncat0123 pw.x -in pw.inp   Done                     12/27/2018 13:54:24
00023 suncat0123 pw.x -in pw.inp   Done                     12/27/2018 13:54:24
00024 suncat0122 pw.x -in pw.inp   Done                     12/27/2018 13:54:24
00025 suncat0122 pw.x -in pw.inp   Done                     12/27/2018 13:54:24
00026 suncat0122 pw.x -in pw.inp   Done                     12/27/2018 13:54:24
00027 suncat0122 pw.x -in pw.inp   Done                     12/27/2018 13:54:24
00028 suncat0122 pw.x -in pw.inp   Done                     12/27/2018 13:54:24
00029 suncat0122 pw.x -in pw.inp   Done                     12/27/2018 13:54:24
00030 suncat0122 pw.x -in pw.inp   Done                     12/27/2018 13:54:24
00031 suncat0122 pw.x -in pw.inp   Done                     12/27/2018 13:54:24
00032 suncat0241 pw.x -in pw.inp   Done                     12/27/2018 13:54:24
00033 suncat0241 pw.x -in pw.inp   Done                     12/27/2018 13:54:24
00034 suncat0241 pw.x -in pw.inp   Done                     12/27/2018 13:54:24
00035 suncat0241 pw.x -in pw.inp   Done                     12/27/2018 13:54:24
00036 suncat0241 pw.x -in pw.inp   Done                     12/27/2018 13:54:24
00037 suncat0241 pw.x -in pw.inp   Done                     12/27/2018 13:54:24
00038 suncat0241 pw.x -in pw.inp   Done                     12/27/2018 13:54:24
00039 suncat0241 pw.x -in pw.inp   Done                     12/27/2018 13:54:24
00040 suncat0240 pw.x -in pw.inp   Done                     12/27/2018 13:54:24
00041 suncat0240 pw.x -in pw.inp   Done                     12/27/2018 13:54:24
00042 suncat0240 pw.x -in pw.inp   Done                     12/27/2018 13:54:24
00043 suncat0240 pw.x -in pw.inp   Done                     12/27/2018 13:54:24
00044 suncat0240 pw.x -in pw.inp   Done                     12/27/2018 13:54:24
00045 suncat0240 pw.x -in pw.inp   Done                     12/27/2018 13:54:24
00046 suncat0240 pw.x -in pw.inp   Done                     12/27/2018 13:54:24
00047 suncat0240 pw.x -in pw.inp   Done                     12/27/2018 13:54:24
00048 suncat0239 pw.x -in pw.inp   Done                     12/27/2018 13:54:24
00049 suncat0239 pw.x -in pw.inp   Done                     12/27/2018 13:54:24
00050 suncat0239 pw.x -in pw.inp   Done                     12/27/2018 13:54:24
00051 suncat0239 pw.x -in pw.inp   Done                     12/27/2018 13:54:24
00052 suncat0239 pw.x -in pw.inp   Done                     12/27/2018 13:54:24
00053 suncat0239 pw.x -in pw.inp   Done                     12/27/2018 13:54:24
00054 suncat0239 pw.x -in pw.inp   Done                     12/27/2018 13:54:24
00055 suncat0239 pw.x -in pw.inp   Done                     12/27/2018 13:54:24
00056 suncat0098 pw.x -in pw.inp   Done                     12/27/2018 13:54:24
00057 suncat0098 pw.x -in pw.inp   Done                     12/27/2018 13:54:24
00058 suncat0098 pw.x -in pw.inp   Done                     12/27/2018 13:54:24
00059 suncat0098 pw.x -in pw.inp   Done                     12/27/2018 13:54:24
00060 suncat0098 pw.x -in pw.inp   Done                     12/27/2018 13:54:24
00061 suncat0098 pw.x -in pw.inp   Done                     12/27/2018 13:54:24
00062 suncat0098 pw.x -in pw.inp   Done                     12/27/2018 13:54:24
00063 suncat0098 pw.x -in pw.inp   Done                     12/27/2018 13:54:24