     Program PWSCF v.5.1rc2 (svn rev. 11289) starts on  1Jan2019 at 22: 8:50

     Current dimensions of program PWSCF are:
     Max number of different atomic species (ntypx) = 10
     Max number of k-points (npk) =  40000
     Max angular momentum in pseudopotentials (lmaxx) =  3
     Presently stress not available with electric field

     IMPORTANT: XC functional enforced from input :
     Exchange-correlation      = BEEF-VDW ( 1  4 27 13 2)
     Any further DFT definition will be discarded
     Please, verify this is what you really want

     Subspace diagonalization in iterative solution of the eigenvalue problem:
     a serial algorithm will be used

     bravais-lattice index     =            0
     lattice parameter (alat)  =       1.8897  a.u.
     unit-cell volume          =    4994.4273 (a.u.)^3
     number of atoms/cell      =           12
     number of atomic types    =            2
     number of electrons       =       144.00
     number of Kohn-Sham states=          102
     kinetic-energy cutoff     =      36.7493  Ry
     charge density cutoff     =     367.4932  Ry
     convergence threshold     =      1.0E-06
     mixing beta               =       0.1000
     number of iterations used =           10  plain     mixing
     Exchange-correlation      = BEEF-VDW ( 1  4 27 13 2)
     nstep                     =           50

     celldm(1)=   1.889726  celldm(2)=   0.000000  celldm(3)=   0.000000
     celldm(4)=   0.000000  celldm(5)=   0.000000  celldm(6)=   0.000000

     crystal axes: (cart. coord. in units of alat)
               a(1) = (   5.870962   0.000000   0.000000 )
               a(2) = (  -2.935481   5.084402   0.000000 )
               a(3) = (   0.000000   0.000000  24.793620 )

     reciprocal axes: (cart. coord. in units 2 pi/alat)
               b(1) = (  0.170330  0.098340  0.000000 )
               b(2) = (  0.000000  0.196680  0.000000 )
               b(3) = (  0.000000  0.000000  0.040333 )

     PseudoPot. # 1 for Ti read from file:
     /afs/slac.stanford.edu/u/if/mamunm/psp/gbrv1.5pbe/Ti.UPF
     MD5 check sum: 88a00a6731bd790ddea75d31a80cb452
     Pseudo is Ultrasoft + core correction, Zval = 12.0
     Generated by new atomic code, or converted to UPF format
     Using radial grid of  851 points,  6 beta functions with:
                l(1) =   0
                l(2) =   0
                l(3) =   1
                l(4) =   1
                l(5) =   2
                l(6) =   2
     Q(r) pseudized with  6 coefficients,  rinner =    1.000   1.000   1.000
                                                       1.000   1.000

     PseudoPot. # 2 for Hg read from file:
     /afs/slac.stanford.edu/u/if/mamunm/psp/gbrv1.5pbe/Hg.UPF
     MD5 check sum: 8f42caffe07f7fd9c0a564347f8c5498
     Pseudo is Ultrasoft + core correction, Zval = 12.0
     Generated by new atomic code, or converted to UPF format
     Using radial grid of  985 points,  6 beta functions with:
                l(1) =   0
                l(2) =   0
                l(3) =   1
                l(4) =   1
                l(5) =   2
                l(6) =   2
     Q(r) pseudized with  8 coefficients,  rinner =    2.000   2.000   2.000
                                                       2.000   2.000

     vdW kernel table read from file vdW_kernel_table
     MD5 check sum: 095c7af220d748ca6e76c0b4c6cfb241

     atomic species   valence    mass     pseudopotential
        Ti1           12.00    47.86700     Ti( 1.00)
        Hg1           12.00   200.59200     Hg( 1.00)

     No symmetry found

   Cartesian axes

     site n.     atom                  positions (alat units)
         1           Ti1 tau(   1) = (   0.0000000   0.0000000  10.0000000  )
         2           Ti1 tau(   2) = (  -1.4677405   2.5422010  10.0000000  )
         3           Ti1 tau(   3) = (   1.4677405   2.5422010  10.0000000  )
         4           Hg1 tau(   4) = (   2.9354809   0.0000000  10.0000000  )
         5           Ti1 tau(   5) = (   2.9354809   1.6948007  12.3968101  )
         6           Ti1 tau(   6) = (   1.4677405   4.2370017  12.3968101  )
         7           Ti1 tau(   7) = (  -1.4677405   4.2370017  12.3968101  )
         8           Hg1 tau(   8) = (   0.0000000   1.6948007  12.3968101  )
         9           Ti1 tau(   9) = (  -0.0000000   3.3896014  14.7936203  )
        10           Ti1 tau(  10) = (   1.4677405   0.8474003  14.7936203  )
        11           Ti1 tau(  11) = (   4.4032214   0.8474003  14.7936203  )
        12           Hg1 tau(  12) = (   2.9354809   3.3896014  14.7936203  )

     number of k points=    20  Fermi-Dirac smearing, width (Ry)=  0.0110
                       cart. coord. in units 2pi/alat
        k(    1) = (   0.0000000   0.0000000   0.0000000), wk =   0.0555556
        k(    2) = (   0.0000000   0.0327800   0.0000000), wk =   0.1111111
        k(    3) = (   0.0000000   0.0655600   0.0000000), wk =   0.1111111
        k(    4) = (   0.0000000  -0.0983400   0.0000000), wk =   0.0555556
        k(    5) = (   0.0283883   0.0163900   0.0000000), wk =   0.1111111
        k(    6) = (   0.0283883   0.0491700   0.0000000), wk =   0.1111111
        k(    7) = (   0.0283883   0.0819500   0.0000000), wk =   0.1111111
        k(    8) = (   0.0283883  -0.0819500   0.0000000), wk =   0.1111111
        k(    9) = (   0.0283883  -0.0491700   0.0000000), wk =   0.1111111
        k(   10) = (   0.0283883  -0.0163900   0.0000000), wk =   0.1111111
        k(   11) = (   0.0567766   0.0327800   0.0000000), wk =   0.1111111
        k(   12) = (   0.0567766   0.0655600   0.0000000), wk =   0.1111111
        k(   13) = (   0.0567766   0.0983400   0.0000000), wk =   0.1111111
        k(   14) = (   0.0567766  -0.0655600   0.0000000), wk =   0.1111111
        k(   15) = (   0.0567766  -0.0327800   0.0000000), wk =   0.1111111
        k(   16) = (   0.0567766   0.0000000   0.0000000), wk =   0.1111111
        k(   17) = (  -0.0851649  -0.0491700   0.0000000), wk =   0.0555556
        k(   18) = (  -0.0851649  -0.0163900   0.0000000), wk =   0.1111111
        k(   19) = (  -0.0851649   0.0163900   0.0000000), wk =   0.1111111
        k(   20) = (  -0.0851649  -0.1475100   0.0000000), wk =   0.0555556

     Largest allocated arrays     est. size (Mb)     dimensions
     Largest temporary arrays     est. size (Mb)     dimensions

     Check: negative/imaginary core charge=   -0.000005    0.000000

     Initial potential from superposition of free atoms
     Check: negative starting charge=   -0.008619

     starting charge  134.99943, renormalised to  144.00000

     negative rho (up, down):  9.194E-03 0.000E+00

     *
     * You are using vdW-DF for exchange-correlation in this calculation.
     * Please cite the following three references that made this development
     * possible:
     *
     *   M. Dion, H. Rydberg, E. Schroder, D. C. Langreth, and
     *   B. I. Lundqvist, Phys. Rev. Lett. 92, 246401 (2004).
     *
     *   T. Thonhauser, V. R. Cooper, S. Li, A. Puzder, P. Hyldgaard, and
     *   D. C. Langreth, Phys. Rev. B 76, 125112 (2007).
     *
     *   G. Roman-Perez and J. M. Soler, Phys. Rev. Lett. 103, 096102 (2009).
     *
     *
     * If you are using vdW-DF2, please also cite:
     *
     *   K. Lee, E. D. Murray, L. Kong, B. I. Lundqvist, and
     *   D. C. Langreth, Phys. Rev. B 82, 081101(R) (2010).
     *
     *
     * If you are calculating the stress with vdW-DF, please also cite:
     *
     *   R. Sabatini, E. Kucukbenli, B. Kolb, T. Thonhauser, and
     *   S. de Gironcoli, J. Phys.: Condens. Matter 24, 424209 (2012).
     *

     Carrying out vdW-DF run using the following parameters:

     Nqs =      20    Nr_points =    1024   r_max =   100.000
     q_mesh =
               0.00001000     0.04494208     0.09755937     0.15916263
               0.23128650     0.31572767     0.41458969     0.53033537
               0.66584808     0.82450364     1.01025438     1.22772762
               1.48234092     1.78043706     2.12944203     2.53805004
               3.01644009     3.57652955     4.23227104     5.00000000

     Gradients computed in reciprocal space

     Adding external electric field

     Computed dipole along edir(3) :
        Dipole               -0.0000 Ry au,         -0.0000 Debye
        Dipole field         -0.0000 Ry au

        Potential amp.        0.0000 Ry
        Total length         45.6818 bohr

     Starting wfc are  117 randomized atomic wfcs

     Self-consistent Calculation

     iteration #  1     ecut=    36.75 Ry     beta=0.10
     Davidson diagonalization with overlap
     ethr =  1.00E-02,  avg # of iterations =  3.3

[...]

     total energy              =   -1405.52298888 Ry
     Harris-Foulkes estimate   =   -1409.18713415 Ry
     estimated scf accuracy    <      20.68749169 Ry

[...]

     End of self-consistent calculation

          k = 0.0000 0.0000 0.0000 ( 18871 PWs)   bands (ev):

   -56.2292 -56.2266 -56.1751 -56.1749 -56.1745 -56.1743 -55.9922 -55.9412
   -55.9411 -32.6158 -32.5856 -32.5555 -32.5554 -32.5425 -32.5356 -32.5355
   -32.5232 -32.5231 -32.5095 -32.5031 -32.5031 -32.4407 -32.3344 -32.3246
   -32.3013 -32.3013 -32.1781 -32.1781 -32.1366 -32.1365 -32.1281 -32.1280
   -32.1179 -32.1070 -31.9433 -31.9432  -6.7123  -6.7123  -6.6695  -6.6695
    -6.6634  -6.5503  -6.5503  -6.5443  -6.4984  -6.4984  -6.4627  -6.2936
    -6.2936  -6.2822  -6.2218  -6.2218  -4.9162  -4.2510  -1.6141  -1.4766
    -1.0756  -0.1307  -0.1307  -0.1045  -0.0482  -0.0481   0.0863   0.3804
     0.3804   0.4592   0.4592   0.7070   0.7070   0.8027   0.8310   0.9024
     1.2850   1.2851   1.4127   1.4127   1.4197   1.6151   1.6151   1.7876
     1.8040   1.8040   1.9188   2.1945   2.5799   2.7665   2.7666   2.9273
     2.9274   2.9815   2.9815   3.0369   3.0370   3.2159   3.2160   3.4202
     3.4409   3.4409   3.5860   3.5861   3.6601   3.8632

[...]

          k =-0.0852-0.0492 0.0000 ( 18760 PWs)   bands (ev):

[...]

     the Fermi energy is     0.9797 ev

!    total energy              =   -1406.13922073 Ry
     Harris-Foulkes estimate   =   -1406.13921893 Ry
     estimated scf accuracy    <       0.00000056 Ry

     The total energy is the sum of the following terms:

     one-electron contribution =  -10298.77782706 Ry
     hartree contribution      =    5161.36932349 Ry
     xc contribution           =    -289.86861449 Ry
     ewald contribution        =    4021.25842782 Ry
     electric field correction =       0.00000000 Ry
     smearing contrib. (-TS)   =      -0.12053050 Ry

     convergence has been achieved in  21 iterations

 BEEF-vdW xc energy contributions
           1 :   -251.226899063416
           2 :    227.573831514145
           3 :   -187.866978111389
           4 :    143.412869139832
           5 :   -104.092468776565
           6 :    74.8757413631407
           7 :   -55.4736862391164
           8 :    42.4820019522971
           9 :   -32.2079610848122
          10 :    22.5159374153675
          11 :   -13.0952896478116
          12 :    4.58825598487942
          13 :    2.46874139200361
          14 :   -8.13121788948717
          15 :    12.7928214429120
          16 :   -16.6287989297668
[...]
     /afs/slac.stanford.edu/u/if/mamunm/psp/gbrv1.5pbe/Ti.UPF
     MD5 check sum: 88a00a6731bd790ddea75d31a80cb452
     Pseudo is Ultrasoft + core correction, Zval = 12.0
     Generated by new atomic code, or converted to UPF format
     Using radial grid of  851 points,  6 beta functions with:
                l(1) =   0
                l(2) =   0
                l(3) =   1
                l(4) =   1
                l(5) =   2
                l(6) =   2
     Q(r) pseudized with  6 coefficients,  rinner =    1.000   1.000   1.000
                                                       1.000   1.000

     PseudoPot. # 2 for Hg read from file:
     /afs/slac.stanford.edu/u/if/mamunm/psp/gbrv1.5pbe/Hg.UPF
     MD5 check sum: 8f42caffe07f7fd9c0a564347f8c5498
     Pseudo is Ultrasoft + core correction, Zval = 12.0
     Generated by new atomic code, or converted to UPF format
     Using radial grid of  985 points,  6 beta functions with:
                l(1) =   0
                l(2) =   0
                l(3) =   1
                l(4) =   1
                l(5) =   2
                l(6) =   2
     Q(r) pseudized with  8 coefficients,  rinner =    2.000   2.000   2.000
                                                       2.000   2.000

     vdW kernel table read from file vdW_kernel_table
     MD5 check sum: 095c7af220d748ca6e76c0b4c6cfb241

     atomic species   valence    mass     pseudopotential
        Ti1           12.00    47.86700     Ti( 1.00)
        Hg1           12.00   200.59200     Hg( 1.00)

     No symmetry found

   Cartesian axes

     site n.     atom                  positions (alat units)
         1           Ti1 tau(   1) = (   0.0000000   0.0000000  10.0000000  )
         2           Ti1 tau(   2) = (  -1.4677405   2.5422010  10.0000000  )
         3           Ti1 tau(   3) = (   1.4677405   2.5422010  10.0000000  )
         4           Hg1 tau(   4) = (   2.9354809   0.0000000  10.0000000  )
         5           Ti1 tau(   5) = (   2.9354809   1.6948007  12.3968101  )
         6           Ti1 tau(   6) = (   1.4677405   4.2370017  12.3968101  )
         7           Ti1 tau(   7) = (  -1.4677405   4.2370017  12.3968101  )
         8           Hg1 tau(   8) = (   0.0000000   1.6948007  12.3968101  )
         9           Ti1 tau(   9) = (   0.0000042   3.4077130  14.7433481  )
        10           Ti1 tau(  10) = (   1.4834244   0.8383548  14.7433363  )
        11           Ti1 tau(  11) = (   4.3875110   0.8383360  14.7433378  )
        12           Hg1 tau(  12) = (   2.9353267   3.3895225  14.9125941  )

     number of k points=    20  Fermi-Dirac smearing, width (Ry)=  0.0110
                       cart. coord. in units 2pi/alat
        k(    1) = (   0.0000000   0.0000000   0.0000000), wk =   0.0555556
        k(    2) = (   0.0000000   0.0327800   0.0000000), wk =   0.1111111
        k(    3) = (   0.0000000   0.0655600   0.0000000), wk =   0.1111111
        k(    4) = (   0.0000000  -0.0983400   0.0000000), wk =   0.0555556
        k(    5) = (   0.0283883   0.0163900   0.0000000), wk =   0.1111111
        k(    6) = (   0.0283883   0.0491700   0.0000000), wk =   0.1111111
        k(    7) = (   0.0283883   0.0819500   0.0000000), wk =   0.1111111
        k(    8) = (   0.0283883  -0.0819500   0.0000000), wk =   0.1111111
        k(    9) = (   0.0283883  -0.0491700   0.0000000), wk =   0.1111111
        k(   10) = (   0.0283883  -0.0163900   0.0000000), wk =   0.1111111
        k(   11) = (   0.0567766   0.0327800   0.0000000), wk =   0.1111111
        k(   12) = (   0.0567766   0.0655600   0.0000000), wk =   0.1111111
        k(   13) = (   0.0567766   0.0983400   0.0000000), wk =   0.1111111
        k(   14) = (   0.0567766  -0.0655600   0.0000000), wk =   0.1111111
        k(   15) = (   0.0567766  -0.0327800   0.0000000), wk =   0.1111111
        k(   16) = (   0.0567766   0.0000000   0.0000000), wk =   0.1111111
        k(   17) = (  -0.0851649  -0.0491700   0.0000000), wk =   0.0555556
        k(   18) = (  -0.0851649  -0.0163900   0.0000000), wk =   0.1111111
        k(   19) = (  -0.0851649   0.0163900   0.0000000), wk =   0.1111111
        k(   20) = (  -0.0851649  -0.1475100   0.0000000), wk =   0.0555556

     Largest allocated arrays     est. size (Mb)     dimensions
     Largest temporary arrays     est. size (Mb)     dimensions

     Check: negative/imaginary core charge=   -0.000005    0.000000

     Initial potential from superposition of free atoms
     Check: negative starting charge=   -0.009852

     starting charge  134.99943, renormalised to  144.00000

[...]

     *
     * You are using vdW-DF for exchange-correlation in this calculation.
     * Please cite the following three references that made this development
     * possible:
     *
     *   M. Dion, H. Rydberg, E. Schroder, D. C. Langreth, and
     *   B. I. Lundqvist, Phys. Rev. Lett. 92, 246401 (2004).
     *
     *   T. Thonhauser, V. R. Cooper, S. Li, A. Puzder, P. Hyldgaard, and
     *   D. C. Langreth, Phys. Rev. B 76, 125112 (2007).
     *
     *   G. Roman-Perez and J. M. Soler, Phys. Rev. Lett. 103, 096102 (2009).
     *
     *
     * If you are using vdW-DF2, please also cite:
     *
     *   K. Lee, E. D. Murray, L. Kong, B. I. Lundqvist, and
     *   D. C. Langreth, Phys. Rev. B 82, 081101(R) (2010).
     *
     *
     * If you are calculating the stress with vdW-DF, please also cite:
     *
     *   R. Sabatini, E. Kucukbenli, B. Kolb, T. Thonhauser, and
     *   S. de Gironcoli, J. Phys.: Condens. Matter 24, 424209 (2012).
     *

     Carrying out vdW-DF run using the following parameters:

     Nqs =      20    Nr_points =    1024   r_max =   100.000
     q_mesh =
               0.00001000     0.04494208     0.09755937     0.15916263
               0.23128650     0.31572767     0.41458969     0.53033537
               0.66584808     0.82450364     1.01025438     1.22772762
               1.48234092     1.78043706     2.12944203     2.53805004
               3.01644009     3.57652955     4.23227104     5.00000000

     Gradients computed in reciprocal space

[...]

     Starting wfc are  117 randomized atomic wfcs

     Self-consistent Calculation

[...]

     total energy              =   -1406.14749629 Ry
     Harris-Foulkes estimate   =   -1406.14749460 Ry
     estimated scf accuracy    <       0.00000502 Ry

     iteration # 21     ecut=    36.75 Ry     beta=0.10
     Davidson diagonalization with overlap
     ethr =  3.49E-09,  avg # of iterations =  2.0

[...]

     negative rho (up, down):  5.625E-03 0.000E+00

     Adding external electric field

     Computed dipole along edir(3) :
        Dipole               -0.0286 Ry au,         -0.0726 Debye
        Dipole field         -0.0001 Ry au

        Potential amp.        0.0066 Ry
        Total length         45.6818 bohr

     End of self-consistent calculation

[...]

          k = 0.0568 0.0000 0.0000 ( 18785 PWs)   bands (ev):

[...]

          k =-0.0852-0.1475 0.0000 ( 18760 PWs)   bands (ev):

   -56.2386 -56.2211 -56.2049 -56.2033 -56.1855 -56.1681 -55.9777 -55.9610
   -55.9440 -32.6066 -32.5955 -32.5778 -32.5621 -32.5495 -32.5378 -32.5286
   -32.5191 -32.4724 -32.4379 -32.4249 -32.4205 -32.3944 -32.3927 -32.3607
   -32.3272 -32.3006 -32.2616 -32.2229 -32.2208 -32.2179 -32.1814 -32.1539
   -32.1384 -32.0741 -32.0436 -31.9573  -6.6847  -6.6429  -6.5970  -6.5776
    -6.5732  -6.5380  -6.4474  -6.4402  -6.3706  -6.3596  -6.3418  -6.3198
    -6.2323  -6.2195  -6.1530  -5.1140  -4.7629  -4.1401  -2.5014  -1.6775
    -1.4967  -1.2838  -0.5969  -0.2845  -0.1097  -0.1051   0.1053   0.1426
     0.1809   0.3829   0.4947   0.5186   0.5684   0.6585   0.7470   0.8915
     0.9519   1.0197   1.1054   1.1458   1.2918   1.3775   1.5791   1.6271
     1.6661   1.7877   1.7933   1.8226   2.1350   2.4725   2.5536   2.5599
     2.6416   2.6659   2.7066   2.7496   2.7953   2.8810   2.9081   2.9236
     3.2240   3.2271   3.4678   3.4962   3.5160   3.5513

     the Fermi energy is     0.9494 ev

!    total energy              =   -1406.14749890 Ry
     Harris-Foulkes estimate   =   -1406.14749648 Ry
     estimated scf accuracy    <       0.00000084 Ry

     The total energy is the sum of the following terms:

     one-electron contribution =  -10309.23684483 Ry
     hartree contribution      =    5166.56244931 Ry
     xc contribution           =    -289.89773777 Ry
     ewald contribution        =    4026.54588986 Ry
     electric field correction =       0.00000205 Ry
     smearing contrib. (-TS)   =      -0.12125753 Ry

     convergence has been achieved in  21 iterations

 BEEF-vdW xc energy contributions
           1 :   -251.386666023319
           2 :    227.730860189031
           3 :   -188.017882027633
           4 :    143.555831055272
           5 :   -104.232394311708
           6 :    75.0261754536872
           7 :   -55.6493779293962
           8 :    42.6861899486261
           9 :   -32.4255885460087
          10 :    22.7195427296966
          11 :   -13.2604211158105
          12 :    4.70836151501101
          13 :    2.37656172284943
          14 :   -8.03371221111649
          15 :    12.6585201384304
          16 :   -16.4472142018810
          17 :    19.1154864712921
          18 :   -20.1551401477274
          19 :    19.3681254209113
          20 :   -17.1859162245563
          21 :    14.4858077452992
          22 :   -12.0581042026508
          23 :    10.1423144739985
          24 :   -8.37428561791876
          25 :    6.15438627839785
          26 :   -3.15107988562897
          27 :  -0.421723755184701
          28 :    3.92420547128376
          29 :   -6.69166497340888
          30 :    8.41385448361888
          31 :   -25.2536794914807
          32 :   -18.2772972764238

     Forces acting on atoms (Ry/au):

     negative rho (up, down):  5.625E-03 0.000E+00
     atom    1 type  1   force =     0.00000006   -0.00311914    0.00779943
     atom    2 type  1   force =    -0.00270074    0.00156070    0.00779732
     atom    3 type  1   force =     0.00270010    0.00156051    0.00779798
     atom    4 type  2   force =     0.00000125   -0.00000208   -0.01951839
     atom    5 type  1   force =     0.00000031    0.00475215    0.00209799
     atom    6 type  1   force =     0.00411589   -0.00237338    0.00209654
     atom    7 type  1   force =    -0.00411916   -0.00237562    0.00210395
     atom    8 type  2   force =    -0.00000113   -0.00000839   -0.00546981
     atom    9 type  1   force =    -0.00001961   -0.00022331   -0.00176134
     atom   10 type  1   force =    -0.00020442    0.00009527   -0.00175539
     atom   11 type  1   force =     0.00019321    0.00011128   -0.00175912
     atom   12 type  2   force =     0.00003425    0.00002202    0.00057084

     Total force =     0.026707     Total SCF correction =     0.002758
     SCF correction compared to forces is large: reduce conv_thr to get better values

     entering subroutine stress ...

     negative rho (up, down):  5.625E-03 0.000E+00
          total   stress  (Ry/bohr**3)                   (kbar)     P=   -8.13
  -0.00007858  -0.00000000   0.00000001        -11.56     -0.00      0.00
  -0.00000000  -0.00007858   0.00000000         -0.00    -11.56      0.00
   0.00000001   0.00000000  -0.00000862          0.00      0.00     -1.27

 !ASE

     Writing output data file calc.save

     General routines

     Parallel routines

   This run was terminated on:  22:44:51   1Jan2019

   JOB DONE.
Job  /afs/slac/g/suncat/bin/suncat-tsmpirun -x LD_LIBRARY_PATH -wdir /scratch/qe649197_5KWB2 pw.x -in pw.inp

TID   HOST_NAME   COMMAND_LINE            STATUS            TERMINATION_TIME
00000 suncat0165 pw.x -in pw.inp   Done                     01/01/2019 22:44:51
00001 suncat0165 pw.x -in pw.inp   Done                     01/01/2019 22:44:51
00002 suncat0165 pw.x -in pw.inp   Done                     01/01/2019 22:44:51
00003 suncat0165 pw.x -in pw.inp   Done                     01/01/2019 22:44:51
00004 suncat0165 pw.x -in pw.inp   Done                     01/01/2019 22:44:51
00005 suncat0165 pw.x -in pw.inp   Done                     01/01/2019 22:44:51
00006 suncat0165 pw.x -in pw.inp   Done                     01/01/2019 22:44:51
00007 suncat0165 pw.x -in pw.inp   Done                     01/01/2019 22:44:51
00008 suncat0164 pw.x -in pw.inp   Done                     01/01/2019 22:44:51
00009 suncat0164 pw.x -in pw.inp   Done                     01/01/2019 22:44:51
00010 suncat0164 pw.x -in pw.inp   Done                     01/01/2019 22:44:51
00011 suncat0164 pw.x -in pw.inp   Done                     01/01/2019 22:44:51
00012 suncat0164 pw.x -in pw.inp   Done                     01/01/2019 22:44:51
00013 suncat0164 pw.x -in pw.inp   Done                     01/01/2019 22:44:51
00014 suncat0164 pw.x -in pw.inp   Done                     01/01/2019 22:44:51
00015 suncat0164 pw.x -in pw.inp   Done                     01/01/2019 22:44:51
00016 suncat0159 pw.x -in pw.inp   Done                     01/01/2019 22:44:51
00017 suncat0159 pw.x -in pw.inp   Done                     01/01/2019 22:44:51
00018 suncat0159 pw.x -in pw.inp   Done                     01/01/2019 22:44:51
00019 suncat0159 pw.x -in pw.inp   Done                     01/01/2019 22:44:51
00020 suncat0159 pw.x -in pw.inp   Done                     01/01/2019 22:44:51
00021 suncat0159 pw.x -in pw.inp   Done                     01/01/2019 22:44:51
00022 suncat0159 pw.x -in pw.inp   Done                     01/01/2019 22:44:51
00023 suncat0159 pw.x -in pw.inp   Done                     01/01/2019 22:44:51
00024 suncat0155 pw.x -in pw.inp   Done                     01/01/2019 22:44:51
00025 suncat0155 pw.x -in pw.inp   Done                     01/01/2019 22:44:51
00026 suncat0155 pw.x -in pw.inp   Done                     01/01/2019 22:44:51
00027 suncat0155 pw.x -in pw.inp   Done                     01/01/2019 22:44:51
00028 suncat0155 pw.x -in pw.inp   Done                     01/01/2019 22:44:51
00029 suncat0155 pw.x -in pw.inp   Done                     01/01/2019 22:44:51
00030 suncat0155 pw.x -in pw.inp   Done                     01/01/2019 22:44:51
00031 suncat0155 pw.x -in pw.inp   Done                     01/01/2019 22:44:51
00032 suncat0106 pw.x -in pw.inp   Done                     01/01/2019 22:44:51
00033 suncat0106 pw.x -in pw.inp   Done                     01/01/2019 22:44:51
00034 suncat0106 pw.x -in pw.inp   Done                     01/01/2019 22:44:51
00035 suncat0106 pw.x -in pw.inp   Done                     01/01/2019 22:44:51
00036 suncat0106 pw.x -in pw.inp   Done                     01/01/2019 22:44:51
00037 suncat0106 pw.x -in pw.inp   Done                     01/01/2019 22:44:51
00038 suncat0106 pw.x -in pw.inp   Done                     01/01/2019 22:44:51
00039 suncat0106 pw.x -in pw.inp   Done                     01/01/2019 22:44:51
00040 suncat0105 pw.x -in pw.inp   Done                     01/01/2019 22:44:51
00041 suncat0105 pw.x -in pw.inp   Done                     01/01/2019 22:44:51
00042 suncat0105 pw.x -in pw.inp   Done                     01/01/2019 22:44:51
00043 suncat0105 pw.x -in pw.inp   Done                     01/01/2019 22:44:51
00044 suncat0105 pw.x -in pw.inp   Done                     01/01/2019 22:44:51
00045 suncat0105 pw.x -in pw.inp   Done                     01/01/2019 22:44:51
00046 suncat0105 pw.x -in pw.inp   Done                     01/01/2019 22:44:51
00047 suncat0105 pw.x -in pw.inp   Done                     01/01/2019 22:44:51
00048 suncat0277 pw.x -in pw.inp   Done                     01/01/2019 22:44:51
00049 suncat0277 pw.x -in pw.inp   Done                     01/01/2019 22:44:51
00050 suncat0277 pw.x -in pw.inp   Done                     01/01/2019 22:44:51
00051 suncat0277 pw.x -in pw.inp   Done                     01/01/2019 22:44:51
00052 suncat0277 pw.x -in pw.inp   Done                     01/01/2019 22:44:51
00053 suncat0277 pw.x -in pw.inp   Done                     01/01/2019 22:44:51
00054 suncat0277 pw.x -in pw.inp   Done                     01/01/2019 22:44:51
00055 suncat0277 pw.x -in pw.inp   Done                     01/01/2019 22:44:51
00056 suncat0276 pw.x -in pw.inp   Done                     01/01/2019 22:44:51
00057 suncat0276 pw.x -in pw.inp   Done                     01/01/2019 22:44:51
00058 suncat0276 pw.x -in pw.inp   Done                     01/01/2019 22:44:51
00059 suncat0276 pw.x -in pw.inp   Done                     01/01/2019 22:44:51
00060 suncat0276 pw.x -in pw.inp   Done                     01/01/2019 22:44:51
00061 suncat0276 pw.x -in pw.inp   Done                     01/01/2019 22:44:51
00062 suncat0276 pw.x -in pw.inp   Done                     01/01/2019 22:44:51
00063 suncat0276 pw.x -in pw.inp   Done                     01/01/2019 22:44:51