     Program PWSCF v.5.1rc2 (svn rev. 11289) starts on 25Dec2018 at 11:42: 7

     Current dimensions of program PWSCF are:
     Max number of different atomic species (ntypx) = 10
     Max number of k-points (npk) =  40000
     Max angular momentum in pseudopotentials (lmaxx) =  3
     Presently stress not available with electric field

     IMPORTANT: XC functional enforced from input :
     Exchange-correlation      = BEEF-VDW ( 1  4 27 13 2)
     Any further DFT definition will be discarded
     Please, verify this is what you really want

     Subspace diagonalization in iterative solution of the eigenvalue problem:
     a serial algorithm will be used

     bravais-lattice index     =            0
     lattice parameter (alat)  =       1.8897  a.u.
     unit-cell volume          =    3873.7283 (a.u.)^3
     number of atoms/cell      =           12
     number of atomic types    =            2
     number of electrons       =       174.00
     number of Kohn-Sham states=          117
     kinetic-energy cutoff     =      36.7493  Ry
     charge density cutoff     =     367.4932  Ry
     convergence threshold     =      1.0E-06
     mixing beta               =       0.1000
     number of iterations used =           10  plain     mixing
     Exchange-correlation      = BEEF-VDW ( 1  4 27 13 2)
     nstep                     =           50

     celldm(1)=   1.889726  celldm(2)=   0.000000  celldm(3)=   0.000000
     celldm(4)=   0.000000  celldm(5)=   0.000000  celldm(6)=   0.000000

     crystal axes: (cart. coord. in units of alat)
               a(1) = (   5.226259   0.000000   0.000000 )
               a(2) = (  -2.613129   4.526073   0.000000 )
               a(3) = (   0.000000   0.000000  24.267223 )

     reciprocal axes: (cart. coord. in units 2 pi/alat)
               b(1) = (  0.191341  0.110471  0.000000 )
               b(2) = (  0.000000  0.220942  0.000000 )
               b(3) = (  0.000000  0.000000  0.041208 )

     PseudoPot. # 1 for Cr read from file:
     /afs/slac.stanford.edu/u/if/mamunm/psp/gbrv1.5pbe/Cr.UPF
     MD5 check sum: 0d52af634a40206e4dee301ad30da4bf
     Pseudo is Ultrasoft + core correction, Zval = 14.0
     Generated by new atomic code, or converted to UPF format
     Using radial grid of  857 points,  6 beta functions with:
                l(1) =   0
                l(2) =   0
                l(3) =   1
                l(4) =   1
                l(5) =   2
                l(6) =   2
     Q(r) pseudized with  8 coefficients,  rinner =    0.950   0.950   0.950
                                                       0.950   0.950

     PseudoPot. # 2 for Os read from file:
     /afs/slac.stanford.edu/u/if/mamunm/psp/gbrv1.5pbe/Os.UPF
     MD5 check sum: a3fb40a04f0c37c25c34bbc47164c9a8
     Pseudo is Ultrasoft + core correction, Zval = 16.0
     Generated by new atomic code, or converted to UPF format
     Using radial grid of  983 points,  8 beta functions with:
                l(1) =   0
                l(2) =   0
                l(3) =   1
                l(4) =   1
                l(5) =   2
                l(6) =   2
                l(7) =   3
                l(8) =   3
     Q(r) pseudized with  8 coefficients,  rinner =    1.150   1.150   1.150
                                                       1.150   1.150   1.150
                                                       1.150

     vdW kernel table read from file vdW_kernel_table
     MD5 check sum: 095c7af220d748ca6e76c0b4c6cfb241

     atomic species   valence    mass     pseudopotential
        Cr1           14.00    51.99610     Cr( 1.00)
        Os1           16.00   190.23000     Os( 1.00)

     No symmetry found

   Cartesian axes

     site n.     atom                  positions (alat units)
         1           Cr1 tau(   1) = (   0.0000000   0.0000000  10.0000000  )
         2           Cr1 tau(   2) = (  -1.3065647   2.2630365  10.0000000  )
         3           Cr1 tau(   3) = (   1.3065647   2.2630365  10.0000000  )
         4           Os1 tau(   4) = (   2.6131295   0.0000000  10.0000000  )
         5           Cr1 tau(   5) = (   2.6131295   1.5086910  12.1336113  )
         6           Cr1 tau(   6) = (   1.3065647   3.7717275  12.1336113  )
         7           Cr1 tau(   7) = (  -1.3065647   3.7717275  12.1336113  )
         8           Os1 tau(   8) = (   0.0000000   1.5086910  12.1336113  )
         9           Cr1 tau(   9) = (  -0.0000000   3.0173820  14.2672226  )
        10           Cr1 tau(  10) = (   1.3065647   0.7543455  14.2672226  )
        11           Cr1 tau(  11) = (   3.9196942   0.7543455  14.2672226  )
        12           Os1 tau(  12) = (   2.6131295   3.0173820  14.2672226  )

     number of k points=    20  Fermi-Dirac smearing, width (Ry)=  0.0110
                       cart. coord. in units 2pi/alat
        k(    1) = (   0.0000000   0.0000000   0.0000000), wk =   0.0555556
        k(    2) = (   0.0000000   0.0368237   0.0000000), wk =   0.1111111
        k(    3) = (   0.0000000   0.0736474   0.0000000), wk =   0.1111111
        k(    4) = (   0.0000000  -0.1104710   0.0000000), wk =   0.0555556
        k(    5) = (   0.0318902   0.0184118   0.0000000), wk =   0.1111111
        k(    6) = (   0.0318902   0.0552355   0.0000000), wk =   0.1111111
        k(    7) = (   0.0318902   0.0920592   0.0000000), wk =   0.1111111
        k(    8) = (   0.0318902  -0.0920592   0.0000000), wk =   0.1111111
        k(    9) = (   0.0318902  -0.0552355   0.0000000), wk =   0.1111111
        k(   10) = (   0.0318902  -0.0184118   0.0000000), wk =   0.1111111
        k(   11) = (   0.0637805   0.0368237   0.0000000), wk =   0.1111111
        k(   12) = (   0.0637805   0.0736474   0.0000000), wk =   0.1111111
        k(   13) = (   0.0637805   0.1104710   0.0000000), wk =   0.1111111
        k(   14) = (   0.0637805  -0.0736474   0.0000000), wk =   0.1111111
        k(   15) = (   0.0637805  -0.0368237   0.0000000), wk =   0.1111111
        k(   16) = (   0.0637805   0.0000000   0.0000000), wk =   0.1111111
        k(   17) = (  -0.0956707  -0.0552355   0.0000000), wk =   0.0555556
        k(   18) = (  -0.0956707  -0.0184118   0.0000000), wk =   0.1111111
        k(   19) = (  -0.0956707   0.0184118   0.0000000), wk =   0.1111111
        k(   20) = (  -0.0956707  -0.1657066   0.0000000), wk =   0.0555556

     Largest allocated arrays     est. size (Mb)     dimensions
     Largest temporary arrays     est. size (Mb)     dimensions

     Check: negative/imaginary core charge=   -0.000003    0.000000

     Initial potential from superposition of free atoms
     Check: negative starting charge=   -0.382980

     starting charge  163.49975, renormalised to  174.00000

     negative rho (up, down):  4.076E-01 0.000E+00

     *
     * You are using vdW-DF for exchange-correlation in this calculation.
     * Please cite the following three references that made this development
     * possible:
     *
     *   M. Dion, H. Rydberg, E. Schroder, D. C. Langreth, and
     *   B. I. Lundqvist, Phys. Rev. Lett. 92, 246401 (2004).
     *
     *   T. Thonhauser, V. R. Cooper, S. Li, A. Puzder, P. Hyldgaard, and
     *   D. C. Langreth, Phys. Rev. B 76, 125112 (2007).
     *
     *   G. Roman-Perez and J. M. Soler, Phys. Rev. Lett. 103, 096102 (2009).
     *
     *
     * If you are using vdW-DF2, please also cite:
     *
     *   K. Lee, E. D. Murray, L. Kong, B. I. Lundqvist, and
     *   D. C. Langreth, Phys. Rev. B 82, 081101(R) (2010).
     *
     *
     * If you are calculating the stress with vdW-DF, please also cite:
     *
     *   R. Sabatini, E. Kucukbenli, B. Kolb, T. Thonhauser, and
     *   S. de Gironcoli, J. Phys.: Condens. Matter 24, 424209 (2012).
     *

     Carrying out vdW-DF run using the following parameters:

     Nqs =      20    Nr_points =    1024   r_max =   100.000
     q_mesh =
               0.00001000     0.04494208     0.09755937     0.15916263
               0.23128650     0.31572767     0.41458969     0.53033537
               0.66584808     0.82450364     1.01025438     1.22772762
               1.48234092     1.78043706     2.12944203     2.53805004
               3.01644009     3.57652955     4.23227104     5.00000000

     Gradients computed in reciprocal space

     Adding external electric field

     Computed dipole along edir(3) :
        Dipole                0.0000 Ry au,          0.0000 Debye
        Dipole field          0.0000 Ry au

        Potential amp.       -0.0000 Ry
        Total length         44.7119 bohr

     Starting wfc are  129 randomized atomic wfcs

     Self-consistent Calculation

     iteration #  1     ecut=    36.75 Ry     beta=0.10
     Davidson diagonalization with overlap
     ethr =  1.00E-02,  avg # of iterations =  5.7

[...]

     total energy              =   -2187.31829850 Ry
     Harris-Foulkes estimate   =   -2190.03596903 Ry
     estimated scf accuracy    <      16.82771177 Ry

[...]

     End of self-consistent calculation

          k = 0.0000 0.0000 0.0000 ( 14609 PWs)   bands (ev):

   -84.8470 -84.5566 -84.5565 -70.1899 -70.1147 -70.1147 -70.0975 -70.0863
   -70.0310 -70.0309 -70.0281 -70.0280 -44.1810 -44.1810 -44.1651 -43.8941
   -43.8730 -43.8730 -43.8669 -43.8658 -43.8658 -41.7384 -41.6213 -41.5851
   -41.5851 -41.5460 -41.5171 -41.5047 -41.5047 -41.4923 -41.4385 -41.4384
   -41.4013 -41.4013 -41.3964 -41.3964 -41.3528 -41.2964 -41.2964 -41.2747
   -41.2192 -41.2088 -41.2088 -41.1966 -41.0779 -41.0778 -41.0745 -41.0744
    -5.9642  -4.1795  -3.3094  -3.2850  -3.2850  -2.8727  -2.8727  -2.5187
    -2.2697  -2.2697  -2.2425  -2.2425  -2.1930  -1.9378  -1.3413  -1.2675
    -1.2675  -0.5513  -0.2742  -0.2742  -0.1140   0.2827   0.4966   0.8529
     0.8529   0.8997   1.0293   1.0293   1.0667   1.0667   1.1582   1.2312
     1.2312   1.2750   1.2750   1.2929   1.9430   2.0725   2.0725   2.1254
     2.2653   2.2653   2.3049   2.5837   2.5837   2.8937   2.8937   3.2059
     3.2059   3.3296   3.3623   3.4966   3.5607   3.5607   3.5830   3.5830
     3.6364   3.6364   3.7647   3.9484   3.9902   4.1203   4.1203   4.3407
     4.3407   4.4282   4.4282   5.7732   5.7733

[...]

          k =-0.0957-0.0552 0.0000 ( 14494 PWs)   bands (ev):

[...]

     the Fermi energy is     1.5891 ev

!    total energy              =   -2185.56265382 Ry
     Harris-Foulkes estimate   =   -2185.56265668 Ry
     estimated scf accuracy    <       0.00000038 Ry

     The total energy is the sum of the following terms:

     one-electron contribution =  -19786.23881971 Ry
     hartree contribution      =    9881.42608800 Ry
     xc contribution           =    -325.27223279 Ry
     ewald contribution        =    8044.63209828 Ry
     electric field correction =       0.00000000 Ry
     smearing contrib. (-TS)   =      -0.10978760 Ry

     convergence has been achieved in  24 iterations

 BEEF-vdW xc energy contributions
           1 :   -282.871539834722
           2 :    257.358670578460
           3 :   -214.033486125919
           4 :    164.849873358122
           5 :   -121.149568240346
           6 :    89.7649055007707
           7 :   -71.6787836560732
           8 :    63.3465415648075
[...]
     Generated by new atomic code, or converted to UPF format
     Using radial grid of  857 points,  6 beta functions with:
                l(1) =   0
                l(2) =   0
                l(3) =   1
                l(4) =   1
                l(5) =   2
                l(6) =   2
     Q(r) pseudized with  8 coefficients,  rinner =    0.950   0.950   0.950
                                                       0.950   0.950

     PseudoPot. # 2 for Os read from file:
     /afs/slac.stanford.edu/u/if/mamunm/psp/gbrv1.5pbe/Os.UPF
     MD5 check sum: a3fb40a04f0c37c25c34bbc47164c9a8
     Pseudo is Ultrasoft + core correction, Zval = 16.0
     Generated by new atomic code, or converted to UPF format
     Using radial grid of  983 points,  8 beta functions with:
                l(1) =   0
                l(2) =   0
                l(3) =   1
                l(4) =   1
                l(5) =   2
                l(6) =   2
                l(7) =   3
                l(8) =   3
     Q(r) pseudized with  8 coefficients,  rinner =    1.150   1.150   1.150
                                                       1.150   1.150   1.150
                                                       1.150

     vdW kernel table read from file vdW_kernel_table
     MD5 check sum: 095c7af220d748ca6e76c0b4c6cfb241

     atomic species   valence    mass     pseudopotential
        Cr1           14.00    51.99610     Cr( 1.00)
        Os1           16.00   190.23000     Os( 1.00)

     No symmetry found

   Cartesian axes

     site n.     atom                  positions (alat units)
         1           Cr1 tau(   1) = (   0.0000000   0.0000000  10.0000000  )
         2           Cr1 tau(   2) = (  -1.3065647   2.2630365  10.0000000  )
         3           Cr1 tau(   3) = (   1.3065647   2.2630365  10.0000000  )
         4           Os1 tau(   4) = (   2.6131295   0.0000000  10.0000000  )
         5           Cr1 tau(   5) = (   2.6131295   1.5086910  12.1336113  )
         6           Cr1 tau(   6) = (   1.3065647   3.7717275  12.1336113  )
         7           Cr1 tau(   7) = (  -1.3065647   3.7717275  12.1336113  )
         8           Os1 tau(   8) = (   0.0000000   1.5086910  12.1336113  )
         9           Cr1 tau(   9) = (   0.0000010   3.0331891  14.1835329  )
        10           Cr1 tau(  10) = (   1.3202576   0.7464256  14.1835444  )
        11           Cr1 tau(  11) = (   3.9059501   0.7463948  14.1834783  )
        12           Os1 tau(  12) = (   2.6130299   3.0173879  14.2141589  )

     number of k points=    20  Fermi-Dirac smearing, width (Ry)=  0.0110
                       cart. coord. in units 2pi/alat
        k(    1) = (   0.0000000   0.0000000   0.0000000), wk =   0.0555556
        k(    2) = (   0.0000000   0.0368237   0.0000000), wk =   0.1111111
        k(    3) = (   0.0000000   0.0736474   0.0000000), wk =   0.1111111
        k(    4) = (   0.0000000  -0.1104710   0.0000000), wk =   0.0555556
        k(    5) = (   0.0318902   0.0184118   0.0000000), wk =   0.1111111
        k(    6) = (   0.0318902   0.0552355   0.0000000), wk =   0.1111111
        k(    7) = (   0.0318902   0.0920592   0.0000000), wk =   0.1111111
        k(    8) = (   0.0318902  -0.0920592   0.0000000), wk =   0.1111111
        k(    9) = (   0.0318902  -0.0552355   0.0000000), wk =   0.1111111
        k(   10) = (   0.0318902  -0.0184118   0.0000000), wk =   0.1111111
        k(   11) = (   0.0637805   0.0368237   0.0000000), wk =   0.1111111
        k(   12) = (   0.0637805   0.0736474   0.0000000), wk =   0.1111111
        k(   13) = (   0.0637805   0.1104710   0.0000000), wk =   0.1111111
        k(   14) = (   0.0637805  -0.0736474   0.0000000), wk =   0.1111111
        k(   15) = (   0.0637805  -0.0368237   0.0000000), wk =   0.1111111
        k(   16) = (   0.0637805   0.0000000   0.0000000), wk =   0.1111111
        k(   17) = (  -0.0956707  -0.0552355   0.0000000), wk =   0.0555556
        k(   18) = (  -0.0956707  -0.0184118   0.0000000), wk =   0.1111111
        k(   19) = (  -0.0956707   0.0184118   0.0000000), wk =   0.1111111
        k(   20) = (  -0.0956707  -0.1657066   0.0000000), wk =   0.0555556

     Largest allocated arrays     est. size (Mb)     dimensions
     Largest temporary arrays     est. size (Mb)     dimensions

     Check: negative/imaginary core charge=   -0.000003    0.000000

     Initial potential from superposition of free atoms
     Check: negative starting charge=   -0.382929

     starting charge  163.49975, renormalised to  174.00000

[...]

     *
     * You are using vdW-DF for exchange-correlation in this calculation.
     * Please cite the following three references that made this development
     * possible:
     *
     *   M. Dion, H. Rydberg, E. Schroder, D. C. Langreth, and
     *   B. I. Lundqvist, Phys. Rev. Lett. 92, 246401 (2004).
     *
     *   T. Thonhauser, V. R. Cooper, S. Li, A. Puzder, P. Hyldgaard, and
     *   D. C. Langreth, Phys. Rev. B 76, 125112 (2007).
     *
     *   G. Roman-Perez and J. M. Soler, Phys. Rev. Lett. 103, 096102 (2009).
     *
     *
     * If you are using vdW-DF2, please also cite:
     *
     *   K. Lee, E. D. Murray, L. Kong, B. I. Lundqvist, and
     *   D. C. Langreth, Phys. Rev. B 82, 081101(R) (2010).
     *
     *
     * If you are calculating the stress with vdW-DF, please also cite:
     *
     *   R. Sabatini, E. Kucukbenli, B. Kolb, T. Thonhauser, and
     *   S. de Gironcoli, J. Phys.: Condens. Matter 24, 424209 (2012).
     *

     Carrying out vdW-DF run using the following parameters:

     Nqs =      20    Nr_points =    1024   r_max =   100.000
     q_mesh =
               0.00001000     0.04494208     0.09755937     0.15916263
               0.23128650     0.31572767     0.41458969     0.53033537
               0.66584808     0.82450364     1.01025438     1.22772762
               1.48234092     1.78043706     2.12944203     2.53805004
               3.01644009     3.57652955     4.23227104     5.00000000

     Gradients computed in reciprocal space

[...]

     Starting wfc are  129 randomized atomic wfcs

     Self-consistent Calculation

[...]

     total energy              =   -2185.56779529 Ry
     Harris-Foulkes estimate   =   -2185.56779718 Ry
     estimated scf accuracy    <       0.00000187 Ry

     iteration # 24     ecut=    36.75 Ry     beta=0.10
     Davidson diagonalization with overlap
     ethr =  1.07E-09,  avg # of iterations =  2.0

[...]

     negative rho (up, down):  3.864E-01 0.000E+00

     Adding external electric field

     Computed dipole along edir(3) :
        Dipole                0.0138 Ry au,          0.0350 Debye
        Dipole field          0.0000 Ry au

        Potential amp.       -0.0040 Ry
        Total length         44.7119 bohr

     End of self-consistent calculation

[...]

          k = 0.0638 0.0000 0.0000 ( 14575 PWs)   bands (ev):

[...]

          k =-0.0957-0.1657 0.0000 ( 14494 PWs)   bands (ev):

   -84.8200 -84.5514 -84.5007 -70.1228 -70.1014 -70.0709 -70.0623 -70.0464
   -70.0249 -69.9938 -69.9747 -69.9539 -44.1533 -44.1510 -44.1304 -43.8755
   -43.8506 -43.8398 -43.8223 -43.8125 -43.7880 -41.6401 -41.5671 -41.5582
   -41.5143 -41.5070 -41.4694 -41.4542 -41.4382 -41.4312 -41.4197 -41.4120
   -41.3562 -41.3460 -41.3110 -41.3104 -41.3019 -41.2932 -41.2682 -41.2609
   -41.2522 -41.2040 -41.2031 -41.1824 -41.1465 -41.1383 -41.0917 -41.0348
    -4.3861  -3.8885  -2.9761  -2.6067  -2.4692  -2.4453  -2.0731  -1.8526
    -1.8441  -1.6965  -1.5226  -1.4704  -1.3583  -1.3301  -0.9311  -0.8949
    -0.8453  -0.7188  -0.6690  -0.4261  -0.1693  -0.1007  -0.0695   0.0626
     0.1079   0.2585   0.4866   0.6518   0.6907   0.7516   0.8230   0.8637
     0.9617   0.9890   1.0400   1.0774   1.1242   1.2078   1.3460   1.4077
     1.8481   1.8620   1.9798   2.0338   2.0643   2.1506   2.3687   2.4188
     2.5213   2.5549   2.5984   2.6465   2.6745   2.7124   2.8471   2.9241
     3.0142   3.0903   3.4017   3.4641   3.7372   3.8434   3.9181   4.2440
     4.5611   4.6430   5.4355   6.0334   6.0859

     the Fermi energy is     1.6042 ev

!    total energy              =   -2185.56779585 Ry
     Harris-Foulkes estimate   =   -2185.56779548 Ry
     estimated scf accuracy    <       0.00000072 Ry

     The total energy is the sum of the following terms:

     one-electron contribution =  -19995.52230077 Ry
     hartree contribution      =    9986.29214913 Ry
     xc contribution           =    -325.43863194 Ry
     ewald contribution        =    8149.20756622 Ry
     electric field correction =       0.00000062 Ry
     smearing contrib. (-TS)   =      -0.10657911 Ry

     convergence has been achieved in  24 iterations

 BEEF-vdW xc energy contributions
           1 :   -283.041226222465
           2 :    257.583886514216
           3 :   -214.322755985193
           4 :    165.150730533784
           5 :   -121.378614110671
           6 :    89.8624006115478
           7 :   -71.6504814905001
           8 :    63.2633152196124
           9 :   -59.4858096492737
          10 :    56.0676329252565
          11 :   -51.1457627793808
          12 :    45.0915655230494
          13 :   -39.3261096087198
          14 :    35.0045345152863
          15 :   -32.3071495143362
          16 :    30.5606723212605
          17 :   -28.8972953500160
          18 :    26.8984736170897
          19 :   -24.7915638005744
          20 :    23.1321958784910
          21 :   -22.2725988105270
          22 :    22.0303196416481
          23 :   -21.7915687491367
          24 :    20.9475766813362
          25 :   -19.3323928333792
          26 :    17.3469338403717
          27 :   -15.6926622695025
          28 :    14.9061799503673
          29 :   -15.0097762429187
          30 :    15.5004174229302
          31 :   -27.5027920556821
          32 :   -20.1977686014757

     Forces acting on atoms (Ry/au):

     negative rho (up, down):  3.864E-01 0.000E+00
     atom    1 type  1   force =     0.00000364   -0.00364927    0.01700271
     atom    2 type  1   force =    -0.00316120    0.00182474    0.01699519
     atom    3 type  1   force =     0.00316096    0.00182036    0.01700323
     atom    4 type  2   force =    -0.00003471    0.00001319    0.01165642
     atom    5 type  1   force =     0.00000334    0.00018077   -0.01414379
     atom    6 type  1   force =     0.00016058   -0.00009493   -0.01414503
     atom    7 type  1   force =    -0.00015216   -0.00009439   -0.01413474
     atom    8 type  2   force =    -0.00005075    0.00002720   -0.02032649
     atom    9 type  1   force =    -0.00002358    0.00030718   -0.00025240
     atom   10 type  1   force =     0.00027461   -0.00017100   -0.00024995
     atom   11 type  1   force =    -0.00026378   -0.00013751   -0.00023185
     atom   12 type  2   force =     0.00008305   -0.00002634    0.00082670

     Total force =     0.045356     Total SCF correction =     0.002051

     entering subroutine stress ...

     negative rho (up, down):  3.864E-01 0.000E+00
          total   stress  (Ry/bohr**3)                   (kbar)     P=  -25.31
  -0.00022103   0.00000000   0.00000003        -32.51      0.00      0.00
   0.00000000  -0.00022103  -0.00000001          0.00    -32.51     -0.00
   0.00000003  -0.00000001  -0.00007410          0.00     -0.00    -10.90

 !ASE

     Writing output data file calc.save

     General routines

     Parallel routines

   This run was terminated on:  13:27:53  25Dec2018

   JOB DONE.
Job  /afs/slac/g/suncat/bin/suncat-tsmpirun -x LD_LIBRARY_PATH -wdir /scratch/qe109521_IkWov pw.x -in pw.inp

TID   HOST_NAME   COMMAND_LINE            STATUS            TERMINATION_TIME
00000 suncat0108 pw.x -in pw.inp   Done                     12/25/2018 13:27:53
00001 suncat0108 pw.x -in pw.inp   Done                     12/25/2018 13:27:53
00002 suncat0108 pw.x -in pw.inp   Done                     12/25/2018 13:27:53
00003 suncat0108 pw.x -in pw.inp   Done                     12/25/2018 13:27:53
00004 suncat0108 pw.x -in pw.inp   Done                     12/25/2018 13:27:53
00005 suncat0108 pw.x -in pw.inp   Done                     12/25/2018 13:27:53
00006 suncat0108 pw.x -in pw.inp   Done                     12/25/2018 13:27:53
00007 suncat0108 pw.x -in pw.inp   Done                     12/25/2018 13:27:53
00008 suncat0107 pw.x -in pw.inp   Done                     12/25/2018 13:27:53
00009 suncat0107 pw.x -in pw.inp   Done                     12/25/2018 13:27:53
00010 suncat0107 pw.x -in pw.inp   Done                     12/25/2018 13:27:53
00011 suncat0107 pw.x -in pw.inp   Done                     12/25/2018 13:27:53
00012 suncat0107 pw.x -in pw.inp   Done                     12/25/2018 13:27:53
00013 suncat0107 pw.x -in pw.inp   Done                     12/25/2018 13:27:53
00014 suncat0107 pw.x -in pw.inp   Done                     12/25/2018 13:27:53
00015 suncat0107 pw.x -in pw.inp   Done                     12/25/2018 13:27:53
00016 suncat0106 pw.x -in pw.inp   Done                     12/25/2018 13:27:53
00017 suncat0106 pw.x -in pw.inp   Done                     12/25/2018 13:27:53
00018 suncat0106 pw.x -in pw.inp   Done                     12/25/2018 13:27:53
00019 suncat0106 pw.x -in pw.inp   Done                     12/25/2018 13:27:53
00020 suncat0106 pw.x -in pw.inp   Done                     12/25/2018 13:27:53
00021 suncat0106 pw.x -in pw.inp   Done                     12/25/2018 13:27:53
00022 suncat0106 pw.x -in pw.inp   Done                     12/25/2018 13:27:53
00023 suncat0106 pw.x -in pw.inp   Done                     12/25/2018 13:27:53
00024 suncat0105 pw.x -in pw.inp   Done                     12/25/2018 13:27:53
00025 suncat0105 pw.x -in pw.inp   Done                     12/25/2018 13:27:53
00026 suncat0105 pw.x -in pw.inp   Done                     12/25/2018 13:27:53
00027 suncat0105 pw.x -in pw.inp   Done                     12/25/2018 13:27:53
00028 suncat0105 pw.x -in pw.inp   Done                     12/25/2018 13:27:53
00029 suncat0105 pw.x -in pw.inp   Done                     12/25/2018 13:27:53
00030 suncat0105 pw.x -in pw.inp   Done                     12/25/2018 13:27:53
00031 suncat0105 pw.x -in pw.inp   Done                     12/25/2018 13:27:53
00032 suncat0238 pw.x -in pw.inp   Done                     12/25/2018 13:27:53
00033 suncat0238 pw.x -in pw.inp   Done                     12/25/2018 13:27:53
00034 suncat0238 pw.x -in pw.inp   Done                     12/25/2018 13:27:53
00035 suncat0238 pw.x -in pw.inp   Done                     12/25/2018 13:27:53
00036 suncat0238 pw.x -in pw.inp   Done                     12/25/2018 13:27:53
00037 suncat0238 pw.x -in pw.inp   Done                     12/25/2018 13:27:53
00038 suncat0238 pw.x -in pw.inp   Done                     12/25/2018 13:27:53
00039 suncat0238 pw.x -in pw.inp   Done                     12/25/2018 13:27:53
00040 suncat0237 pw.x -in pw.inp   Done                     12/25/2018 13:27:53
00041 suncat0237 pw.x -in pw.inp   Done                     12/25/2018 13:27:53
00042 suncat0237 pw.x -in pw.inp   Done                     12/25/2018 13:27:53
00043 suncat0237 pw.x -in pw.inp   Done                     12/25/2018 13:27:53
00044 suncat0237 pw.x -in pw.inp   Done                     12/25/2018 13:27:53
00045 suncat0237 pw.x -in pw.inp   Done                     12/25/2018 13:27:53
00046 suncat0237 pw.x -in pw.inp   Done                     12/25/2018 13:27:53
00047 suncat0237 pw.x -in pw.inp   Done                     12/25/2018 13:27:53
00048 suncat0236 pw.x -in pw.inp   Done                     12/25/2018 13:27:53
00049 suncat0236 pw.x -in pw.inp   Done                     12/25/2018 13:27:53
00050 suncat0236 pw.x -in pw.inp   Done                     12/25/2018 13:27:53
00051 suncat0236 pw.x -in pw.inp   Done                     12/25/2018 13:27:53
00052 suncat0236 pw.x -in pw.inp   Done                     12/25/2018 13:27:53
00053 suncat0236 pw.x -in pw.inp   Done                     12/25/2018 13:27:53
00054 suncat0236 pw.x -in pw.inp   Done                     12/25/2018 13:27:53
00055 suncat0236 pw.x -in pw.inp   Done                     12/25/2018 13:27:53
00056 suncat0235 pw.x -in pw.inp   Done                     12/25/2018 13:27:53
00057 suncat0235 pw.x -in pw.inp   Done                     12/25/2018 13:27:53
00058 suncat0235 pw.x -in pw.inp   Done                     12/25/2018 13:27:53
00059 suncat0235 pw.x -in pw.inp   Done                     12/25/2018 13:27:53
00060 suncat0235 pw.x -in pw.inp   Done                     12/25/2018 13:27:53
00061 suncat0235 pw.x -in pw.inp   Done                     12/25/2018 13:27:53
00062 suncat0235 pw.x -in pw.inp   Done                     12/25/2018 13:27:53
00063 suncat0235 pw.x -in pw.inp   Done                     12/25/2018 13:27:53