     Program PWSCF v.5.1rc2 (svn rev. 11289) starts on 31Dec2018 at 18:48:53

     Current dimensions of program PWSCF are:
     Max number of different atomic species (ntypx) = 10
     Max number of k-points (npk) =  40000
     Max angular momentum in pseudopotentials (lmaxx) =  3
     Presently stress not available with electric field

     IMPORTANT: XC functional enforced from input :
     Exchange-correlation      = BEEF-VDW ( 1  4 27 13 2)
     Any further DFT definition will be discarded
     Please, verify this is what you really want

     Subspace diagonalization in iterative solution of the eigenvalue problem:
     a serial algorithm will be used

     bravais-lattice index     =            0
     lattice parameter (alat)  =       1.8897  a.u.
     unit-cell volume          =    4597.6130 (a.u.)^3
     number of atoms/cell      =           12
     number of atomic types    =            2
     number of electrons       =       171.00
     number of Kohn-Sham states=          115
     kinetic-energy cutoff     =      36.7493  Ry
     charge density cutoff     =     367.4932  Ry
     convergence threshold     =      1.0E-06
     mixing beta               =       0.1000
     number of iterations used =           10  plain     mixing
     Exchange-correlation      = BEEF-VDW ( 1  4 27 13 2)
     nstep                     =           50

     celldm(1)=   1.889726  celldm(2)=   0.000000  celldm(3)=   0.000000
     celldm(4)=   0.000000  celldm(5)=   0.000000  celldm(6)=   0.000000

     crystal axes: (cart. coord. in units of alat)
               a(1) = (   5.653213   0.000000   0.000000 )
               a(2) = (  -2.826607   4.895826   0.000000 )
               a(3) = (   0.000000   0.000000  24.615829 )

     reciprocal axes: (cart. coord. in units 2 pi/alat)
               b(1) = (  0.176891  0.102128  0.000000 )
               b(2) = (  0.000000  0.204256  0.000000 )
               b(3) = (  0.000000  0.000000  0.040624 )

     PseudoPot. # 1 for Re read from file:
     /afs/slac.stanford.edu/u/if/mamunm/psp/gbrv1.5pbe/Re.UPF
     MD5 check sum: 85f993410f3e006da9d71c142b4ad953
     Pseudo is Ultrasoft + core correction, Zval = 15.0
     Generated by new atomic code, or converted to UPF format
     Using radial grid of  981 points,  8 beta functions with:
                l(1) =   0
                l(2) =   0
                l(3) =   1
                l(4) =   1
                l(5) =   2
                l(6) =   2
                l(7) =   3
                l(8) =   3
     Q(r) pseudized with  8 coefficients,  rinner =    1.150   1.150   1.150
                                                       1.150   1.150   1.150
                                                       1.150

     PseudoPot. # 2 for Hg read from file:
     /afs/slac.stanford.edu/u/if/mamunm/psp/gbrv1.5pbe/Hg.UPF
     MD5 check sum: 8f42caffe07f7fd9c0a564347f8c5498
     Pseudo is Ultrasoft + core correction, Zval = 12.0
     Generated by new atomic code, or converted to UPF format
     Using radial grid of  985 points,  6 beta functions with:
                l(1) =   0
                l(2) =   0
                l(3) =   1
                l(4) =   1
                l(5) =   2
                l(6) =   2
     Q(r) pseudized with  8 coefficients,  rinner =    2.000   2.000   2.000
                                                       2.000   2.000

     vdW kernel table read from file vdW_kernel_table
     MD5 check sum: 095c7af220d748ca6e76c0b4c6cfb241

     atomic species   valence    mass     pseudopotential
        Re1           15.00   186.20700     Re( 1.00)
        Hg1           12.00   200.59200     Hg( 1.00)

     No symmetry found

   Cartesian axes

     site n.     atom                  positions (alat units)
         1           Re1 tau(   1) = (   0.0000000   0.0000000  10.0000000  )
         2           Re1 tau(   2) = (  -1.4133033   2.4479131  10.0000000  )
         3           Re1 tau(   3) = (   1.4133033   2.4479131  10.0000000  )
         4           Hg1 tau(   4) = (   2.8266065   0.0000000  10.0000000  )
         5           Re1 tau(   5) = (   2.8266065   1.6319420  12.3079146  )
         6           Re1 tau(   6) = (   1.4133033   4.0798551  12.3079146  )
         7           Re1 tau(   7) = (  -1.4133033   4.0798551  12.3079146  )
         8           Hg1 tau(   8) = (  -0.0000000   1.6319420  12.3079146  )
         9           Re1 tau(   9) = (  -0.0000000   3.2638841  14.6158292  )
        10           Re1 tau(  10) = (   1.4133033   0.8159710  14.6158292  )
        11           Re1 tau(  11) = (   4.2399098   0.8159710  14.6158292  )
        12           Hg1 tau(  12) = (   2.8266065   3.2638841  14.6158292  )

     number of k points=    20  Fermi-Dirac smearing, width (Ry)=  0.0110
                       cart. coord. in units 2pi/alat
        k(    1) = (   0.0000000   0.0000000   0.0000000), wk =   0.0555556
        k(    2) = (   0.0000000   0.0340426   0.0000000), wk =   0.1111111
        k(    3) = (   0.0000000   0.0680852   0.0000000), wk =   0.1111111
        k(    4) = (   0.0000000  -0.1021278   0.0000000), wk =   0.0555556
        k(    5) = (   0.0294818   0.0170213   0.0000000), wk =   0.1111111
        k(    6) = (   0.0294818   0.0510639   0.0000000), wk =   0.1111111
        k(    7) = (   0.0294818   0.0851065   0.0000000), wk =   0.1111111
        k(    8) = (   0.0294818  -0.0851065   0.0000000), wk =   0.1111111
        k(    9) = (   0.0294818  -0.0510639   0.0000000), wk =   0.1111111
        k(   10) = (   0.0294818  -0.0170213   0.0000000), wk =   0.1111111
        k(   11) = (   0.0589635   0.0340426   0.0000000), wk =   0.1111111
        k(   12) = (   0.0589635   0.0680852   0.0000000), wk =   0.1111111
        k(   13) = (   0.0589635   0.1021278   0.0000000), wk =   0.1111111
        k(   14) = (   0.0589635  -0.0680852   0.0000000), wk =   0.1111111
        k(   15) = (   0.0589635  -0.0340426   0.0000000), wk =   0.1111111
        k(   16) = (   0.0589635   0.0000000   0.0000000), wk =   0.1111111
        k(   17) = (  -0.0884453  -0.0510639   0.0000000), wk =   0.0555556
        k(   18) = (  -0.0884453  -0.0170213   0.0000000), wk =   0.1111111
        k(   19) = (  -0.0884453   0.0170213   0.0000000), wk =   0.1111111
        k(   20) = (  -0.0884453  -0.1531917   0.0000000), wk =   0.0555556

     Largest allocated arrays     est. size (Mb)     dimensions
     Largest temporary arrays     est. size (Mb)     dimensions

     Initial potential from superposition of free atoms
     Check: negative starting charge=   -1.149089

     starting charge  166.49942, renormalised to  171.00000

     negative rho (up, down):  1.180E+00 0.000E+00

     *
     * You are using vdW-DF for exchange-correlation in this calculation.
     * Please cite the following three references that made this development
     * possible:
     *
     *   M. Dion, H. Rydberg, E. Schroder, D. C. Langreth, and
     *   B. I. Lundqvist, Phys. Rev. Lett. 92, 246401 (2004).
     *
     *   T. Thonhauser, V. R. Cooper, S. Li, A. Puzder, P. Hyldgaard, and
     *   D. C. Langreth, Phys. Rev. B 76, 125112 (2007).
     *
     *   G. Roman-Perez and J. M. Soler, Phys. Rev. Lett. 103, 096102 (2009).
     *
     *
     * If you are using vdW-DF2, please also cite:
     *
     *   K. Lee, E. D. Murray, L. Kong, B. I. Lundqvist, and
     *   D. C. Langreth, Phys. Rev. B 82, 081101(R) (2010).
     *
     *
     * If you are calculating the stress with vdW-DF, please also cite:
     *
     *   R. Sabatini, E. Kucukbenli, B. Kolb, T. Thonhauser, and
     *   S. de Gironcoli, J. Phys.: Condens. Matter 24, 424209 (2012).
     *

     Carrying out vdW-DF run using the following parameters:

     Nqs =      20    Nr_points =    1024   r_max =   100.000
     q_mesh =
               0.00001000     0.04494208     0.09755937     0.15916263
               0.23128650     0.31572767     0.41458969     0.53033537
               0.66584808     0.82450364     1.01025438     1.22772762
               1.48234092     1.78043706     2.12944203     2.53805004
               3.01644009     3.57652955     4.23227104     5.00000000

     Gradients computed in reciprocal space

     Adding external electric field

     Computed dipole along edir(3) :
        Dipole                0.0000 Ry au,          0.0000 Debye
        Dipole field          0.0000 Ry au

        Potential amp.       -0.0000 Ry
        Total length         45.3542 bohr

     Starting wfc are  144 randomized atomic wfcs

     Self-consistent Calculation

     iteration #  1     ecut=    36.75 Ry     beta=0.10
     Davidson diagonalization with overlap
     ethr =  1.00E-02,  avg # of iterations =  5.8

[...]

     total energy              =   -2056.25970534 Ry
     Harris-Foulkes estimate   =   -2056.77793588 Ry
     estimated scf accuracy    <       3.24528564 Ry

[...]

     End of self-consistent calculation

          k = 0.0000 0.0000 0.0000 ( 17327 PWs)   bands (ev):

   -78.7650 -78.7256 -78.7256 -78.3837 -78.3828 -78.3453 -78.3453 -78.3451
   -78.3451 -40.7475 -40.6401 -40.6401 -40.5671 -40.4705 -40.4704 -40.3459
   -40.3314 -40.3306 -40.1879 -40.1879 -40.1663 -40.1663 -40.0934 -40.0934
   -40.0855 -40.0193 -40.0193 -39.9683 -39.9577 -39.9577 -39.8953 -39.8830
   -39.7384 -39.7384 -39.7354 -39.7354  -7.7027  -6.8278  -6.8278  -6.7028
    -6.6141  -6.6140  -6.2467  -6.0470  -6.0470  -6.0004  -6.0004  -5.9967
    -5.4800  -5.4800  -5.3988  -5.3988  -5.0996  -4.7261  -3.7211  -2.9916
    -2.5270  -1.6753  -1.6753  -1.5103  -1.2550  -1.1170  -1.1170  -0.8549
    -0.8549  -0.6639  -0.6638  -0.0850  -0.0850   0.0163   0.1183   0.1183
     0.6105   0.7281   0.8396   0.8396   1.4253   1.5787   1.5787   2.0029
     2.0901   2.6363   2.7201   2.7201   2.7585   2.7585   3.1469   3.1469
     3.2967   3.2967   3.2999   3.4970   3.4970   3.5817   3.5817   3.8848
     3.8848   4.3877   4.3877   4.4915   4.4989   4.7721   5.2526   5.2526
     5.2950   5.7587   5.8489   6.1860   6.1860   6.5991   6.7834   7.1461
     7.1567   7.4084   8.3013

[...]

          k =-0.0884-0.0511 0.0000 ( 17304 PWs)   bands (ev):

[...]

     the Fermi energy is     2.2154 ev

!    total energy              =   -2055.97857181 Ry
     Harris-Foulkes estimate   =   -2055.97857031 Ry
     estimated scf accuracy    <       0.00000090 Ry

     The total energy is the sum of the following terms:

     one-electron contribution =  -15485.10857290 Ry
     hartree contribution      =    7750.98196588 Ry
     xc contribution           =    -607.81031190 Ry
     ewald contribution        =    6286.02516840 Ry
     electric field correction =       0.00000000 Ry
     smearing contrib. (-TS)   =      -0.06682129 Ry

     convergence has been achieved in  15 iterations

 BEEF-vdW xc energy contributions
           1 :   -538.666005158790
           2 :    500.005473709833
           3 :   -430.859073559688
           4 :    344.806073465853
           5 :   -256.713337926356
           6 :    178.806726974031
           7 :   -118.114366373519
           8 :    75.8884523776944
           9 :   -48.8938868850801
          10 :    31.7923287656072
          11 :   -19.5708225729779
[...]
     Pseudo is Ultrasoft + core correction, Zval = 15.0
     Generated by new atomic code, or converted to UPF format
     Using radial grid of  981 points,  8 beta functions with:
                l(1) =   0
                l(2) =   0
                l(3) =   1
                l(4) =   1
                l(5) =   2
                l(6) =   2
                l(7) =   3
                l(8) =   3
     Q(r) pseudized with  8 coefficients,  rinner =    1.150   1.150   1.150
                                                       1.150   1.150   1.150
                                                       1.150

     PseudoPot. # 2 for Hg read from file:
     /afs/slac.stanford.edu/u/if/mamunm/psp/gbrv1.5pbe/Hg.UPF
     MD5 check sum: 8f42caffe07f7fd9c0a564347f8c5498
     Pseudo is Ultrasoft + core correction, Zval = 12.0
     Generated by new atomic code, or converted to UPF format
     Using radial grid of  985 points,  6 beta functions with:
                l(1) =   0
                l(2) =   0
                l(3) =   1
                l(4) =   1
                l(5) =   2
                l(6) =   2
     Q(r) pseudized with  8 coefficients,  rinner =    2.000   2.000   2.000
                                                       2.000   2.000

     vdW kernel table read from file vdW_kernel_table
     MD5 check sum: 095c7af220d748ca6e76c0b4c6cfb241

     atomic species   valence    mass     pseudopotential
        Re1           15.00   186.20700     Re( 1.00)
        Hg1           12.00   200.59200     Hg( 1.00)

     No symmetry found

   Cartesian axes

     site n.     atom                  positions (alat units)
         1           Re1 tau(   1) = (   0.0000000   0.0000000  10.0000000  )
         2           Re1 tau(   2) = (  -1.4133033   2.4479131  10.0000000  )
         3           Re1 tau(   3) = (   1.4133033   2.4479131  10.0000000  )
         4           Hg1 tau(   4) = (   2.8266065   0.0000000  10.0000000  )
         5           Re1 tau(   5) = (   2.8266065   1.6319420  12.3079146  )
         6           Re1 tau(   6) = (   1.4133033   4.0798551  12.3079146  )
         7           Re1 tau(   7) = (  -1.4133033   4.0798551  12.3079146  )
         8           Hg1 tau(   8) = (  -0.0000000   1.6319420  12.3079146  )
         9           Re1 tau(   9) = (   0.0000434   3.4452967  14.4910949  )
        10           Re1 tau(  10) = (   1.5704295   0.7252712  14.4910796  )
        11           Re1 tau(  11) = (   4.0828044   0.7252343  14.4910634  )
        12           Hg1 tau(  12) = (   2.8266209   3.2638781  15.0983959  )

     number of k points=    20  Fermi-Dirac smearing, width (Ry)=  0.0110
                       cart. coord. in units 2pi/alat
        k(    1) = (   0.0000000   0.0000000   0.0000000), wk =   0.0555556
        k(    2) = (   0.0000000   0.0340426   0.0000000), wk =   0.1111111
        k(    3) = (   0.0000000   0.0680852   0.0000000), wk =   0.1111111
        k(    4) = (   0.0000000  -0.1021278   0.0000000), wk =   0.0555556
        k(    5) = (   0.0294818   0.0170213   0.0000000), wk =   0.1111111
        k(    6) = (   0.0294818   0.0510639   0.0000000), wk =   0.1111111
        k(    7) = (   0.0294818   0.0851065   0.0000000), wk =   0.1111111
        k(    8) = (   0.0294818  -0.0851065   0.0000000), wk =   0.1111111
        k(    9) = (   0.0294818  -0.0510639   0.0000000), wk =   0.1111111
        k(   10) = (   0.0294818  -0.0170213   0.0000000), wk =   0.1111111
        k(   11) = (   0.0589635   0.0340426   0.0000000), wk =   0.1111111
        k(   12) = (   0.0589635   0.0680852   0.0000000), wk =   0.1111111
        k(   13) = (   0.0589635   0.1021278   0.0000000), wk =   0.1111111
        k(   14) = (   0.0589635  -0.0680852   0.0000000), wk =   0.1111111
        k(   15) = (   0.0589635  -0.0340426   0.0000000), wk =   0.1111111
        k(   16) = (   0.0589635   0.0000000   0.0000000), wk =   0.1111111
        k(   17) = (  -0.0884453  -0.0510639   0.0000000), wk =   0.0555556
        k(   18) = (  -0.0884453  -0.0170213   0.0000000), wk =   0.1111111
        k(   19) = (  -0.0884453   0.0170213   0.0000000), wk =   0.1111111
        k(   20) = (  -0.0884453  -0.1531917   0.0000000), wk =   0.0555556

     Largest allocated arrays     est. size (Mb)     dimensions
     Largest temporary arrays     est. size (Mb)     dimensions

     Initial potential from superposition of free atoms
     Check: negative starting charge=   -1.154195

     starting charge  166.49942, renormalised to  171.00000

[...]

     *
     * You are using vdW-DF for exchange-correlation in this calculation.
     * Please cite the following three references that made this development
     * possible:
     *
     *   M. Dion, H. Rydberg, E. Schroder, D. C. Langreth, and
     *   B. I. Lundqvist, Phys. Rev. Lett. 92, 246401 (2004).
     *
     *   T. Thonhauser, V. R. Cooper, S. Li, A. Puzder, P. Hyldgaard, and
     *   D. C. Langreth, Phys. Rev. B 76, 125112 (2007).
     *
     *   G. Roman-Perez and J. M. Soler, Phys. Rev. Lett. 103, 096102 (2009).
     *
     *
     * If you are using vdW-DF2, please also cite:
     *
     *   K. Lee, E. D. Murray, L. Kong, B. I. Lundqvist, and
     *   D. C. Langreth, Phys. Rev. B 82, 081101(R) (2010).
     *
     *
     * If you are calculating the stress with vdW-DF, please also cite:
     *
     *   R. Sabatini, E. Kucukbenli, B. Kolb, T. Thonhauser, and
     *   S. de Gironcoli, J. Phys.: Condens. Matter 24, 424209 (2012).
     *

     Carrying out vdW-DF run using the following parameters:

     Nqs =      20    Nr_points =    1024   r_max =   100.000
     q_mesh =
               0.00001000     0.04494208     0.09755937     0.15916263
               0.23128650     0.31572767     0.41458969     0.53033537
               0.66584808     0.82450364     1.01025438     1.22772762
               1.48234092     1.78043706     2.12944203     2.53805004
               3.01644009     3.57652955     4.23227104     5.00000000

     Gradients computed in reciprocal space

[...]

     Starting wfc are  144 randomized atomic wfcs

     Self-consistent Calculation

[...]

     total energy              =   -2056.08062469 Ry
     Harris-Foulkes estimate   =   -2056.08062429 Ry
     estimated scf accuracy    <       0.00000116 Ry

     iteration # 16     ecut=    36.75 Ry     beta=0.10
     Davidson diagonalization with overlap
     ethr =  6.78E-10,  avg # of iterations =  2.3

[...]

     negative rho (up, down):  1.185E+00 0.000E+00

     Adding external electric field

     Computed dipole along edir(3) :
        Dipole                0.0738 Ry au,          0.1876 Debye
        Dipole field          0.0002 Ry au

        Potential amp.       -0.0183 Ry
        Total length         45.3542 bohr

     End of self-consistent calculation

[...]

          k = 0.0590 0.0000 0.0000 ( 17302 PWs)   bands (ev):

[...]

          k =-0.0884-0.1532 0.0000 ( 17304 PWs)   bands (ev):

   -78.6179 -78.6035 -78.5895 -78.4354 -78.3556 -78.3517 -78.2528 -78.2401
   -78.2274 -40.6852 -40.5791 -40.5184 -40.4869 -40.4866 -40.4261 -40.3531
   -40.3524 -40.2428 -40.2106 -40.1632 -40.1181 -40.0281 -40.0102 -39.9831
   -39.9593 -39.9189 -39.9160 -39.9049 -39.8967 -39.8653 -39.8595 -39.8362
   -39.8023 -39.7506 -39.6730 -39.6337  -6.7064  -6.4173  -6.3517  -6.2949
    -6.2597  -5.9091  -5.7529  -5.5513  -5.5085  -5.3439  -5.2838  -5.2183
    -4.9527  -4.8879  -4.7844  -4.7571  -4.7160  -3.7522  -3.4124  -3.1393
    -2.8855  -2.4342  -2.3428  -1.5829  -1.4646  -1.3394  -1.2732  -1.2089
    -0.8744  -0.8203  -0.7305  -0.4766  -0.2711  -0.1380  -0.1272  -0.0603
     0.0532   0.3625   0.4421   0.4774   0.5891   0.6954   0.8865   1.2088
     1.2886   1.3666   1.3712   1.5167   2.0321   2.1062   2.3739   2.5284
     2.6659   2.7748   2.7895   2.8301   3.1250   3.1504   3.2495   3.3914
     3.8030   3.9490   4.2380   4.3259   4.4695   4.5656   5.3588   5.3926
     6.1448   6.5557   6.8661   6.9219   7.1650   7.8305   7.9044   8.0107
     8.5668   8.7125   8.8206

     the Fermi energy is     2.3328 ev

!    total energy              =   -2056.08062651 Ry
     Harris-Foulkes estimate   =   -2056.08062491 Ry
     estimated scf accuracy    <       0.00000060 Ry

     The total energy is the sum of the following terms:

     one-electron contribution =  -15474.09750127 Ry
     hartree contribution      =    7745.99766427 Ry
     xc contribution           =    -608.04942580 Ry
     ewald contribution        =    6280.13123066 Ry
     electric field correction =       0.00001489 Ry
     smearing contrib. (-TS)   =      -0.06260927 Ry

     convergence has been achieved in  16 iterations

 BEEF-vdW xc energy contributions
           1 :   -539.303482141012
           2 :    500.640050552770
           3 :   -431.497319857593
           4 :    345.450291261910
           5 :   -257.337685172194
           6 :    179.350146658125
           7 :   -118.499911815848
           8 :    76.0619680667592
           9 :   -48.8627136390350
          10 :    31.6423995751051
          11 :   -19.4477645418661
          12 :    9.18372038631981
          13 :   3.599242929317370E-002
          14 :   -7.54893304400287
          15 :    12.2646308442175
          16 :   -13.6502533257798
          17 :    12.1870485065357
          18 :   -9.21477381395164
          19 :    6.35247605188749
          20 :   -4.83771030583716
          21 :    5.10244413169187
          22 :   -6.74339167620963
          23 :    8.83804464611705
          24 :   -10.4175539727624
          25 :    10.8728748499149
          26 :   -10.1381796107336
          27 :    8.61354384460958
          28 :   -6.90835510166551
          29 :    5.54884922618464
          30 :   -4.78402889112488
          31 :   -45.8108352011112
          32 :   -33.9671466916037

     Forces acting on atoms (Ry/au):

     negative rho (up, down):  1.185E+00 0.000E+00
     atom    1 type  1   force =    -0.00000106   -0.05778845    0.02780727
     atom    2 type  1   force =    -0.05003983    0.02889449    0.02780637
     atom    3 type  1   force =     0.05004112    0.02889643    0.02780415
     atom    4 type  2   force =     0.00000088   -0.00000408   -0.07874996
     atom    5 type  1   force =    -0.00000139    0.02438017   -0.00429750
     atom    6 type  1   force =     0.02112800   -0.01219101   -0.00430782
     atom    7 type  1   force =    -0.02112392   -0.01219072   -0.00430367
     atom    8 type  2   force =     0.00000083    0.00000872    0.00601110
     atom    9 type  1   force =    -0.00001379    0.00023540    0.00055313
     atom   10 type  1   force =     0.00020235   -0.00012833    0.00055899
     atom   11 type  1   force =    -0.00020097   -0.00010982    0.00056353
     atom   12 type  2   force =     0.00000780   -0.00000280    0.00055441

     Total force =     0.142884     Total SCF correction =     0.002250

     entering subroutine stress ...

     negative rho (up, down):  1.185E+00 0.000E+00
          total   stress  (Ry/bohr**3)                   (kbar)     P=  -24.42
  -0.00023571   0.00000001  -0.00000000        -34.67      0.00     -0.00
   0.00000001  -0.00023571   0.00000000          0.00    -34.67      0.00
  -0.00000000   0.00000000  -0.00002661         -0.00      0.00     -3.91

 !ASE

     Writing output data file calc.save

     General routines

     Parallel routines

   This run was terminated on:  20:32:50  31Dec2018

   JOB DONE.
Job  /afs/slac/g/suncat/bin/suncat-tsmpirun -x LD_LIBRARY_PATH -wdir /scratch/qe648839_7BZhl pw.x -in pw.inp

TID   HOST_NAME   COMMAND_LINE            STATUS            TERMINATION_TIME
00000 suncat0121 pw.x -in pw.inp   Done                     12/31/2018 20:32:50
00001 suncat0121 pw.x -in pw.inp   Done                     12/31/2018 20:32:50
00002 suncat0121 pw.x -in pw.inp   Done                     12/31/2018 20:32:50
00003 suncat0121 pw.x -in pw.inp   Done                     12/31/2018 20:32:50
00004 suncat0121 pw.x -in pw.inp   Done                     12/31/2018 20:32:50
00005 suncat0121 pw.x -in pw.inp   Done                     12/31/2018 20:32:50
00006 suncat0121 pw.x -in pw.inp   Done                     12/31/2018 20:32:50
00007 suncat0121 pw.x -in pw.inp   Done                     12/31/2018 20:32:50
00008 suncat0115 pw.x -in pw.inp   Done                     12/31/2018 20:32:50
00009 suncat0115 pw.x -in pw.inp   Done                     12/31/2018 20:32:50
00010 suncat0115 pw.x -in pw.inp   Done                     12/31/2018 20:32:50
00011 suncat0115 pw.x -in pw.inp   Done                     12/31/2018 20:32:50
00012 suncat0115 pw.x -in pw.inp   Done                     12/31/2018 20:32:50
00013 suncat0115 pw.x -in pw.inp   Done                     12/31/2018 20:32:50
00014 suncat0115 pw.x -in pw.inp   Done                     12/31/2018 20:32:50
00015 suncat0115 pw.x -in pw.inp   Done                     12/31/2018 20:32:50
00016 suncat0228 pw.x -in pw.inp   Done                     12/31/2018 20:32:50
00017 suncat0228 pw.x -in pw.inp   Done                     12/31/2018 20:32:50
00018 suncat0228 pw.x -in pw.inp   Done                     12/31/2018 20:32:50
00019 suncat0228 pw.x -in pw.inp   Done                     12/31/2018 20:32:50
00020 suncat0228 pw.x -in pw.inp   Done                     12/31/2018 20:32:50
00021 suncat0228 pw.x -in pw.inp   Done                     12/31/2018 20:32:50
00022 suncat0228 pw.x -in pw.inp   Done                     12/31/2018 20:32:50
00023 suncat0228 pw.x -in pw.inp   Done                     12/31/2018 20:32:50
00024 suncat0227 pw.x -in pw.inp   Done                     12/31/2018 20:32:50
00025 suncat0227 pw.x -in pw.inp   Done                     12/31/2018 20:32:50
00026 suncat0227 pw.x -in pw.inp   Done                     12/31/2018 20:32:50
00027 suncat0227 pw.x -in pw.inp   Done                     12/31/2018 20:32:50
00028 suncat0227 pw.x -in pw.inp   Done                     12/31/2018 20:32:50
00029 suncat0227 pw.x -in pw.inp   Done                     12/31/2018 20:32:50
00030 suncat0227 pw.x -in pw.inp   Done                     12/31/2018 20:32:50
00031 suncat0227 pw.x -in pw.inp   Done                     12/31/2018 20:32:50
00032 suncat0217 pw.x -in pw.inp   Done                     12/31/2018 20:32:50
00033 suncat0217 pw.x -in pw.inp   Done                     12/31/2018 20:32:50
00034 suncat0217 pw.x -in pw.inp   Done                     12/31/2018 20:32:50
00035 suncat0217 pw.x -in pw.inp   Done                     12/31/2018 20:32:50
00036 suncat0217 pw.x -in pw.inp   Done                     12/31/2018 20:32:50
00037 suncat0217 pw.x -in pw.inp   Done                     12/31/2018 20:32:50
00038 suncat0217 pw.x -in pw.inp   Done                     12/31/2018 20:32:50
00039 suncat0217 pw.x -in pw.inp   Done                     12/31/2018 20:32:50
00040 suncat0216 pw.x -in pw.inp   Done                     12/31/2018 20:32:50
00041 suncat0216 pw.x -in pw.inp   Done                     12/31/2018 20:32:50
00042 suncat0216 pw.x -in pw.inp   Done                     12/31/2018 20:32:50
00043 suncat0216 pw.x -in pw.inp   Done                     12/31/2018 20:32:50
00044 suncat0216 pw.x -in pw.inp   Done                     12/31/2018 20:32:50
00045 suncat0216 pw.x -in pw.inp   Done                     12/31/2018 20:32:50
00046 suncat0216 pw.x -in pw.inp   Done                     12/31/2018 20:32:50
00047 suncat0216 pw.x -in pw.inp   Done                     12/31/2018 20:32:50
00048 suncat0215 pw.x -in pw.inp   Done                     12/31/2018 20:32:50
00049 suncat0215 pw.x -in pw.inp   Done                     12/31/2018 20:32:50
00050 suncat0215 pw.x -in pw.inp   Done                     12/31/2018 20:32:50
00051 suncat0215 pw.x -in pw.inp   Done                     12/31/2018 20:32:50
00052 suncat0215 pw.x -in pw.inp   Done                     12/31/2018 20:32:50
00053 suncat0215 pw.x -in pw.inp   Done                     12/31/2018 20:32:50
00054 suncat0215 pw.x -in pw.inp   Done                     12/31/2018 20:32:50
00055 suncat0215 pw.x -in pw.inp   Done                     12/31/2018 20:32:50
00056 suncat0210 pw.x -in pw.inp   Done                     12/31/2018 20:32:50
00057 suncat0210 pw.x -in pw.inp   Done                     12/31/2018 20:32:50
00058 suncat0210 pw.x -in pw.inp   Done                     12/31/2018 20:32:50
00059 suncat0210 pw.x -in pw.inp   Done                     12/31/2018 20:32:50
00060 suncat0210 pw.x -in pw.inp   Done                     12/31/2018 20:32:50
00061 suncat0210 pw.x -in pw.inp   Done                     12/31/2018 20:32:50
00062 suncat0210 pw.x -in pw.inp   Done                     12/31/2018 20:32:50
00063 suncat0210 pw.x -in pw.inp   Done                     12/31/2018 20:32:50