     Program PWSCF v.5.1rc2 (svn rev. 11289) starts on  1Jan2019 at 20:16:47

     Current dimensions of program PWSCF are:
     Max number of different atomic species (ntypx) = 10
     Max number of k-points (npk) =  40000
     Max angular momentum in pseudopotentials (lmaxx) =  3
     Presently stress not available with electric field

     IMPORTANT: XC functional enforced from input :
     Exchange-correlation      = BEEF-VDW ( 1  4 27 13 2)
     Any further DFT definition will be discarded
     Please, verify this is what you really want

     Subspace diagonalization in iterative solution of the eigenvalue problem:
     a serial algorithm will be used

     bravais-lattice index     =            0
     lattice parameter (alat)  =       1.8897  a.u.
     unit-cell volume          =    4387.0385 (a.u.)^3
     number of atoms/cell      =           12
     number of atomic types    =            2
     number of electrons       =       177.00
     number of Kohn-Sham states=          118
     kinetic-energy cutoff     =      36.7493  Ry
     charge density cutoff     =     367.4932  Ry
     convergence threshold     =      1.0E-06
     mixing beta               =       0.1000
     number of iterations used =           10  plain     mixing
     Exchange-correlation      = BEEF-VDW ( 1  4 27 13 2)
     nstep                     =           50

     celldm(1)=   1.889726  celldm(2)=   0.000000  celldm(3)=   0.000000
     celldm(4)=   0.000000  celldm(5)=   0.000000  celldm(6)=   0.000000

     crystal axes: (cart. coord. in units of alat)
               a(1) = (   5.533254   0.000000   0.000000 )
               a(2) = (  -2.766627   4.791939   0.000000 )
               a(3) = (   0.000000   0.000000  24.517883 )

     reciprocal axes: (cart. coord. in units 2 pi/alat)
               b(1) = (  0.180725  0.104342  0.000000 )
               b(2) = (  0.000000  0.208684  0.000000 )
               b(3) = (  0.000000  0.000000  0.040787 )

     PseudoPot. # 1 for Tc read from file:
     /afs/slac.stanford.edu/u/if/mamunm/psp/gbrv1.5pbe/Tc.UPF
     MD5 check sum: 9eb49e5b028550b2339a02317eb7b844
     Pseudo is Ultrasoft + core correction, Zval = 15.0
     Generated by new atomic code, or converted to UPF format
     Using radial grid of  965 points,  6 beta functions with:
                l(1) =   0
                l(2) =   0
                l(3) =   1
                l(4) =   1
                l(5) =   2
                l(6) =   2
     Q(r) pseudized with  8 coefficients,  rinner =    1.300   1.300   1.300
                                                       1.300   1.300

     PseudoPot. # 2 for Mo read from file:
     /afs/slac.stanford.edu/u/if/mamunm/psp/gbrv1.5pbe/Mo.UPF
     MD5 check sum: 30c4dcd161f5d35cd49bb5239c51a633
     Pseudo is Ultrasoft + core correction, Zval = 14.0
     Generated by new atomic code, or converted to UPF format
     Using radial grid of  889 points,  6 beta functions with:
                l(1) =   0
                l(2) =   0
                l(3) =   1
                l(4) =   1
                l(5) =   2
                l(6) =   2
     Q(r) pseudized with  6 coefficients,  rinner =    1.000   1.000   1.000
                                                       1.000   1.000

     vdW kernel table read from file vdW_kernel_table
     MD5 check sum: 095c7af220d748ca6e76c0b4c6cfb241

     atomic species   valence    mass     pseudopotential
        Tc1           15.00    97.90721     Tc( 1.00)
        Mo1           14.00    95.95000     Mo( 1.00)

     No symmetry found

   Cartesian axes

     site n.     atom                  positions (alat units)
         1           Tc1 tau(   1) = (   0.0000000   0.0000000  10.0000000  )
         2           Tc1 tau(   2) = (  -1.3833135   2.3959693  10.0000000  )
         3           Tc1 tau(   3) = (   1.3833135   2.3959693  10.0000000  )
         4           Mo1 tau(   4) = (   2.7666271   0.0000000  10.0000000  )
         5           Tc1 tau(   5) = (   2.7666271   1.5973129  12.2589416  )
         6           Tc1 tau(   6) = (   1.3833135   3.9932822  12.2589416  )
         7           Tc1 tau(   7) = (  -1.3833135   3.9932822  12.2589416  )
         8           Mo1 tau(   8) = (   0.0000000   1.5973129  12.2589416  )
         9           Tc1 tau(   9) = (  -0.0000000   3.1946258  14.5178831  )
        10           Tc1 tau(  10) = (   1.3833135   0.7986564  14.5178831  )
        11           Tc1 tau(  11) = (   4.1499406   0.7986564  14.5178831  )
        12           Mo1 tau(  12) = (   2.7666271   3.1946258  14.5178831  )

     number of k points=    20  Fermi-Dirac smearing, width (Ry)=  0.0110
                       cart. coord. in units 2pi/alat
        k(    1) = (   0.0000000   0.0000000   0.0000000), wk =   0.0555556
        k(    2) = (   0.0000000   0.0347806   0.0000000), wk =   0.1111111
        k(    3) = (   0.0000000   0.0695613   0.0000000), wk =   0.1111111
        k(    4) = (   0.0000000  -0.1043419   0.0000000), wk =   0.0555556
        k(    5) = (   0.0301209   0.0173903   0.0000000), wk =   0.1111111
        k(    6) = (   0.0301209   0.0521710   0.0000000), wk =   0.1111111
        k(    7) = (   0.0301209   0.0869516   0.0000000), wk =   0.1111111
        k(    8) = (   0.0301209  -0.0869516   0.0000000), wk =   0.1111111
        k(    9) = (   0.0301209  -0.0521710   0.0000000), wk =   0.1111111
        k(   10) = (   0.0301209  -0.0173903   0.0000000), wk =   0.1111111
        k(   11) = (   0.0602418   0.0347806   0.0000000), wk =   0.1111111
        k(   12) = (   0.0602418   0.0695613   0.0000000), wk =   0.1111111
        k(   13) = (   0.0602418   0.1043419   0.0000000), wk =   0.1111111
        k(   14) = (   0.0602418  -0.0695613   0.0000000), wk =   0.1111111
        k(   15) = (   0.0602418  -0.0347806   0.0000000), wk =   0.1111111
        k(   16) = (   0.0602418   0.0000000   0.0000000), wk =   0.1111111
        k(   17) = (  -0.0903627  -0.0521710   0.0000000), wk =   0.0555556
        k(   18) = (  -0.0903627  -0.0173903   0.0000000), wk =   0.1111111
        k(   19) = (  -0.0903627   0.0173903   0.0000000), wk =   0.1111111
        k(   20) = (  -0.0903627  -0.1565129   0.0000000), wk =   0.0555556

     Largest allocated arrays     est. size (Mb)     dimensions
     Largest temporary arrays     est. size (Mb)     dimensions

     Check: negative/imaginary core charge=   -0.000018    0.000000

     Initial potential from superposition of free atoms
     Check: negative starting charge=   -1.133567

     starting charge  167.99656, renormalised to  177.00000

     negative rho (up, down):  1.194E+00 0.000E+00

     *
     * You are using vdW-DF for exchange-correlation in this calculation.
     * Please cite the following three references that made this development
     * possible:
     *
     *   M. Dion, H. Rydberg, E. Schroder, D. C. Langreth, and
     *   B. I. Lundqvist, Phys. Rev. Lett. 92, 246401 (2004).
     *
     *   T. Thonhauser, V. R. Cooper, S. Li, A. Puzder, P. Hyldgaard, and
     *   D. C. Langreth, Phys. Rev. B 76, 125112 (2007).
     *
     *   G. Roman-Perez and J. M. Soler, Phys. Rev. Lett. 103, 096102 (2009).
     *
     *
     * If you are using vdW-DF2, please also cite:
     *
     *   K. Lee, E. D. Murray, L. Kong, B. I. Lundqvist, and
     *   D. C. Langreth, Phys. Rev. B 82, 081101(R) (2010).
     *
     *
     * If you are calculating the stress with vdW-DF, please also cite:
     *
     *   R. Sabatini, E. Kucukbenli, B. Kolb, T. Thonhauser, and
     *   S. de Gironcoli, J. Phys.: Condens. Matter 24, 424209 (2012).
     *

     Carrying out vdW-DF run using the following parameters:

     Nqs =      20    Nr_points =    1024   r_max =   100.000
     q_mesh =
               0.00001000     0.04494208     0.09755937     0.15916263
               0.23128650     0.31572767     0.41458969     0.53033537
               0.66584808     0.82450364     1.01025438     1.22772762
               1.48234092     1.78043706     2.12944203     2.53805004
               3.01644009     3.57652955     4.23227104     5.00000000

     Gradients computed in reciprocal space

     Adding external electric field

     Computed dipole along edir(3) :
        Dipole               -0.0000 Ry au,         -0.0000 Debye
        Dipole field         -0.0000 Ry au

        Potential amp.        0.0000 Ry
        Total length         45.1738 bohr

     Starting wfc are  156 randomized atomic wfcs

     Self-consistent Calculation

     iteration #  1     ecut=    36.75 Ry     beta=0.10
     Davidson diagonalization with overlap
     ethr =  1.00E-02,  avg # of iterations =  5.7

[...]

     total energy              =   -1998.78189545 Ry
     Harris-Foulkes estimate   =   -1999.93360690 Ry
     estimated scf accuracy    <       7.79212686 Ry

[...]

     End of self-consistent calculation

          k = 0.0000 0.0000 0.0000 ( 16463 PWs)   bands (ev):

   -64.7694 -64.6705 -64.6705 -64.5753 -64.5655 -64.4847 -64.4847 -64.4823
   -64.4823 -58.8503 -58.8114 -58.8108 -37.1917 -37.0030 -36.9985 -36.9985
   -36.9369 -36.8941 -36.8882 -36.8882 -36.7003 -36.7003 -36.6277 -36.5645
   -36.5645 -36.5442 -36.5378 -36.5377 -36.4218 -36.4064 -36.4064 -36.3763
   -36.3763 -36.2910 -36.2608 -36.1941 -36.1941 -36.1912 -36.1912 -32.9232
   -32.8877 -32.8470 -32.8470 -32.8283 -32.7466 -32.7466 -32.7384 -32.7384
    -3.9989  -2.6439  -2.6439  -2.6161  -2.6107  -2.5680  -2.2071  -2.2071
    -2.1668  -2.0100  -2.0100  -1.9878  -1.6813  -1.6813  -1.6746  -0.5451
    -0.5110  -0.5110   0.3015   0.3015   0.3379   0.5966   0.5968   0.9186
     0.9186   1.1452   1.2112   1.2112   1.3853   1.3853   1.4498   1.4498
     1.6799   1.6799   1.9764   2.1140   2.7257   2.8529   2.8529   2.9408
     2.9408   3.0642   3.2610   3.2610   3.3396   3.8609   3.8609   4.1266
     4.1266   4.3650   4.5454   4.8435   4.8476   4.8476   4.8709   4.8709
     4.8876   4.8876   5.0843   5.3431   5.4296   5.5779   5.5779   5.8133
     5.8133   5.9362   5.9362   6.1700   6.4484   6.8946

[...]

          k =-0.0904-0.0522 0.0000 ( 16504 PWs)   bands (ev):

[...]

     the Fermi energy is     2.3303 ev

!    total energy              =   -1997.31993841 Ry
     Harris-Foulkes estimate   =   -1997.31993182 Ry
     estimated scf accuracy    <       0.00000094 Ry

     The total energy is the sum of the following terms:

     one-electron contribution =  -17563.89236420 Ry
     hartree contribution      =    8778.99229967 Ry
     xc contribution           =    -357.59400128 Ry
     ewald contribution        =    7145.25644941 Ry
     electric field correction =       0.00000000 Ry
     smearing contrib. (-TS)   =      -0.08232200 Ry

     convergence has been achieved in  17 iterations

 BEEF-vdW xc energy contributions
           1 :   -312.346210812482
           2 :    286.891156766751
           3 :   -241.887053164455
           4 :    186.855528819171
           5 :   -131.862637580279
           6 :    84.6014777942899
           7 :   -48.8131084862703
           8 :    24.2971480144827
           9 :   -8.27250676866839
          10 :   -2.75226057787563
          11 :    11.3586868582615
          12 :   -18.4369917729916
[...]
     MD5 check sum: 9eb49e5b028550b2339a02317eb7b844
     Pseudo is Ultrasoft + core correction, Zval = 15.0
     Generated by new atomic code, or converted to UPF format
     Using radial grid of  965 points,  6 beta functions with:
                l(1) =   0
                l(2) =   0
                l(3) =   1
                l(4) =   1
                l(5) =   2
                l(6) =   2
     Q(r) pseudized with  8 coefficients,  rinner =    1.300   1.300   1.300
                                                       1.300   1.300

     PseudoPot. # 2 for Mo read from file:
     /afs/slac.stanford.edu/u/if/mamunm/psp/gbrv1.5pbe/Mo.UPF
     MD5 check sum: 30c4dcd161f5d35cd49bb5239c51a633
     Pseudo is Ultrasoft + core correction, Zval = 14.0
     Generated by new atomic code, or converted to UPF format
     Using radial grid of  889 points,  6 beta functions with:
                l(1) =   0
                l(2) =   0
                l(3) =   1
                l(4) =   1
                l(5) =   2
                l(6) =   2
     Q(r) pseudized with  6 coefficients,  rinner =    1.000   1.000   1.000
                                                       1.000   1.000

     vdW kernel table read from file vdW_kernel_table
     MD5 check sum: 095c7af220d748ca6e76c0b4c6cfb241

     atomic species   valence    mass     pseudopotential
        Tc1           15.00    97.90721     Tc( 1.00)
        Mo1           14.00    95.95000     Mo( 1.00)

     No symmetry found

   Cartesian axes

     site n.     atom                  positions (alat units)
         1           Tc1 tau(   1) = (   0.0000000   0.0000000  10.0000000  )
         2           Tc1 tau(   2) = (  -1.3833135   2.3959693  10.0000000  )
         3           Tc1 tau(   3) = (   1.3833135   2.3959693  10.0000000  )
         4           Mo1 tau(   4) = (   2.7666271   0.0000000  10.0000000  )
         5           Tc1 tau(   5) = (   2.7666271   1.5973129  12.2589416  )
         6           Tc1 tau(   6) = (   1.3833135   3.9932822  12.2589416  )
         7           Tc1 tau(   7) = (  -1.3833135   3.9932822  12.2589416  )
         8           Mo1 tau(   8) = (   0.0000000   1.5973129  12.2589416  )
         9           Tc1 tau(   9) = (   0.0000022   3.2012083  14.4131499  )
        10           Tc1 tau(  10) = (   1.3890166   0.7953650  14.4131498  )
        11           Tc1 tau(  11) = (   4.1442420   0.7953641  14.4131513  )
        12           Mo1 tau(  12) = (   2.7666293   3.1946259  14.3780154  )

     number of k points=    20  Fermi-Dirac smearing, width (Ry)=  0.0110
                       cart. coord. in units 2pi/alat
        k(    1) = (   0.0000000   0.0000000   0.0000000), wk =   0.0555556
        k(    2) = (   0.0000000   0.0347806   0.0000000), wk =   0.1111111
        k(    3) = (   0.0000000   0.0695613   0.0000000), wk =   0.1111111
        k(    4) = (   0.0000000  -0.1043419   0.0000000), wk =   0.0555556
        k(    5) = (   0.0301209   0.0173903   0.0000000), wk =   0.1111111
        k(    6) = (   0.0301209   0.0521710   0.0000000), wk =   0.1111111
        k(    7) = (   0.0301209   0.0869516   0.0000000), wk =   0.1111111
        k(    8) = (   0.0301209  -0.0869516   0.0000000), wk =   0.1111111
        k(    9) = (   0.0301209  -0.0521710   0.0000000), wk =   0.1111111
        k(   10) = (   0.0301209  -0.0173903   0.0000000), wk =   0.1111111
        k(   11) = (   0.0602418   0.0347806   0.0000000), wk =   0.1111111
        k(   12) = (   0.0602418   0.0695613   0.0000000), wk =   0.1111111
        k(   13) = (   0.0602418   0.1043419   0.0000000), wk =   0.1111111
        k(   14) = (   0.0602418  -0.0695613   0.0000000), wk =   0.1111111
        k(   15) = (   0.0602418  -0.0347806   0.0000000), wk =   0.1111111
        k(   16) = (   0.0602418   0.0000000   0.0000000), wk =   0.1111111
        k(   17) = (  -0.0903627  -0.0521710   0.0000000), wk =   0.0555556
        k(   18) = (  -0.0903627  -0.0173903   0.0000000), wk =   0.1111111
        k(   19) = (  -0.0903627   0.0173903   0.0000000), wk =   0.1111111
        k(   20) = (  -0.0903627  -0.1565129   0.0000000), wk =   0.0555556

     Largest allocated arrays     est. size (Mb)     dimensions
     Largest temporary arrays     est. size (Mb)     dimensions

     Check: negative/imaginary core charge=   -0.000019    0.000000

     Initial potential from superposition of free atoms
     Check: negative starting charge=   -1.129502

     starting charge  167.99656, renormalised to  177.00000

[...]

     *
     * You are using vdW-DF for exchange-correlation in this calculation.
     * Please cite the following three references that made this development
     * possible:
     *
     *   M. Dion, H. Rydberg, E. Schroder, D. C. Langreth, and
     *   B. I. Lundqvist, Phys. Rev. Lett. 92, 246401 (2004).
     *
     *   T. Thonhauser, V. R. Cooper, S. Li, A. Puzder, P. Hyldgaard, and
     *   D. C. Langreth, Phys. Rev. B 76, 125112 (2007).
     *
     *   G. Roman-Perez and J. M. Soler, Phys. Rev. Lett. 103, 096102 (2009).
     *
     *
     * If you are using vdW-DF2, please also cite:
     *
     *   K. Lee, E. D. Murray, L. Kong, B. I. Lundqvist, and
     *   D. C. Langreth, Phys. Rev. B 82, 081101(R) (2010).
     *
     *
     * If you are calculating the stress with vdW-DF, please also cite:
     *
     *   R. Sabatini, E. Kucukbenli, B. Kolb, T. Thonhauser, and
     *   S. de Gironcoli, J. Phys.: Condens. Matter 24, 424209 (2012).
     *

     Carrying out vdW-DF run using the following parameters:

     Nqs =      20    Nr_points =    1024   r_max =   100.000
     q_mesh =
               0.00001000     0.04494208     0.09755937     0.15916263
               0.23128650     0.31572767     0.41458969     0.53033537
               0.66584808     0.82450364     1.01025438     1.22772762
               1.48234092     1.78043706     2.12944203     2.53805004
               3.01644009     3.57652955     4.23227104     5.00000000

     Gradients computed in reciprocal space

[...]

     Starting wfc are  156 randomized atomic wfcs

     Self-consistent Calculation

[...]

     total energy              =   -1997.33374876 Ry
     Harris-Foulkes estimate   =   -1997.33374750 Ry
     estimated scf accuracy    <       0.00000107 Ry

     iteration # 18     ecut=    36.75 Ry     beta=0.10
     Davidson diagonalization with overlap
     ethr =  6.03E-10,  avg # of iterations =  2.0

[...]

     negative rho (up, down):  1.191E+00 0.000E+00

     Adding external electric field

     Computed dipole along edir(3) :
        Dipole                0.0357 Ry au,          0.0907 Debye
        Dipole field          0.0001 Ry au

        Potential amp.       -0.0092 Ry
        Total length         45.1738 bohr

     End of self-consistent calculation

[...]

          k = 0.0602 0.0000 0.0000 ( 16482 PWs)   bands (ev):

[...]

          k =-0.0904-0.1565 0.0000 ( 16504 PWs)   bands (ev):

   -64.7235 -64.6917 -64.6561 -64.5560 -64.5284 -64.4990 -64.4664 -64.4391
   -64.4101 -58.8475 -58.8075 -58.6935 -37.0689 -36.9773 -36.9372 -36.8719
   -36.8294 -36.8207 -36.7762 -36.7444 -36.7154 -36.7038 -36.5728 -36.5374
   -36.5255 -36.5197 -36.5056 -36.4969 -36.4715 -36.4563 -36.4413 -36.4126
   -36.3796 -36.3629 -36.3515 -36.2987 -36.2855 -36.2233 -36.1517 -32.9513
   -32.8698 -32.8329 -32.8290 -32.7890 -32.7818 -32.7778 -32.7014 -32.6647
    -2.4796  -2.4420  -1.8094  -1.7835  -1.7425  -1.7152  -1.4776  -1.4435
    -1.2874  -1.1914  -1.0787  -1.0153  -0.8595  -0.7413  -0.7286  -0.6811
    -0.2747  -0.2365  -0.1343  -0.0008   0.0685   0.1527   0.6097   0.6601
     0.8299   0.8622   0.9759   0.9897   1.0698   1.0994   1.1372   1.1819
     1.2362   1.3876   1.4304   1.4321   1.4363   1.4779   1.6099   1.6789
     2.2339   2.3306   2.3620   2.6482   2.7188   2.7361   2.8175   2.9970
     3.1680   3.2041   3.4129   3.4631   3.5114   3.5575   3.5908   3.8440
     3.9911   4.1611   4.4540   4.6362   5.0120   5.2057   5.2845   5.6963
     5.7548   5.8612   7.3343   7.4127   7.5003   7.6133

     the Fermi energy is     2.3437 ev

!    total energy              =   -1997.33375403 Ry
     Harris-Foulkes estimate   =   -1997.33374889 Ry
     estimated scf accuracy    <       0.00000039 Ry

     The total energy is the sum of the following terms:

     one-electron contribution =  -17849.35733359 Ry
     hartree contribution      =    8921.85281828 Ry
     xc contribution           =    -357.86856468 Ry
     ewald contribution        =    7288.11787368 Ry
     electric field correction =       0.00000365 Ry
     smearing contrib. (-TS)   =      -0.07855137 Ry

     convergence has been achieved in  18 iterations

 BEEF-vdW xc energy contributions
           1 :   -312.625049816717
           2 :    287.265627082110
           3 :   -242.392709085863
           4 :    187.434719377289
           5 :   -132.387150420634
           6 :    84.9329767989876
           7 :   -48.8766391135202
           8 :    24.1259414576043
           9 :   -7.99891021013462
          10 :   -2.95618917301766
          11 :    11.3620365083246
          12 :   -18.2132604038737
          13 :    22.9674841908937
          14 :   -24.3288478120255
          15 :    21.2551167542948
          16 :   -13.7536418173129
          17 :    3.12850473390949
          18 :    8.35830278613275
          19 :   -18.2338983781938
          20 :    24.6120466105455
          21 :   -26.7145957795260
          22 :    24.9196795710542
          23 :   -20.3874974854542
          24 :    14.4772755478095
          25 :   -8.24934957138765
          26 :    2.24664238249028
          27 :    3.40193946404838
          28 :   -8.68578559256025
          29 :    13.4185417826219
          30 :   -17.1201864091103
          31 :   -30.6483893605659
          32 :   -22.6998745952999

     Forces acting on atoms (Ry/au):

     negative rho (up, down):  1.191E+00 0.000E+00
     atom    1 type  1   force =    -0.00000001   -0.00259163    0.01624368
     atom    2 type  1   force =    -0.00224357    0.00129532    0.01624207
     atom    3 type  1   force =     0.00224438    0.00129584    0.01624327
     atom    4 type  2   force =     0.00000019   -0.00000011    0.02876755
     atom    5 type  1   force =    -0.00000344   -0.00120994   -0.02068361
     atom    6 type  1   force =    -0.00104495    0.00060347   -0.02068837
     atom    7 type  1   force =     0.00104639    0.00060807   -0.02068393
     atom    8 type  2   force =    -0.00000024    0.00000020   -0.01446474
     atom    9 type  1   force =     0.00000078   -0.00005017   -0.00029174
     atom   10 type  1   force =    -0.00004357    0.00002507   -0.00029105
     atom   11 type  1   force =     0.00004363    0.00002427   -0.00029133
     atom   12 type  2   force =     0.00000041   -0.00000038   -0.00010180

     Total force =     0.056007     Total SCF correction =     0.001670

     entering subroutine stress ...

     negative rho (up, down):  1.191E+00 0.000E+00
          total   stress  (Ry/bohr**3)                   (kbar)     P=  -24.36
  -0.00020556  -0.00000000  -0.00000000        -30.24     -0.00     -0.00
  -0.00000000  -0.00020556  -0.00000000         -0.00    -30.24     -0.00
  -0.00000000  -0.00000000  -0.00008558         -0.00     -0.00    -12.59

 !ASE

     Writing output data file calc.save

     General routines

     Parallel routines

   This run was terminated on:  21:36:14   1Jan2019

   JOB DONE.
Job  /afs/slac/g/suncat/bin/suncat-tsmpirun -x LD_LIBRARY_PATH -wdir /scratch/qe649160_7JcTr pw.x -in pw.inp

TID   HOST_NAME   COMMAND_LINE            STATUS            TERMINATION_TIME
00000 suncat0178 pw.x -in pw.inp   Done                     01/01/2019 21:36:14
00001 suncat0178 pw.x -in pw.inp   Done                     01/01/2019 21:36:14
00002 suncat0178 pw.x -in pw.inp   Done                     01/01/2019 21:36:14
00003 suncat0178 pw.x -in pw.inp   Done                     01/01/2019 21:36:14
00004 suncat0178 pw.x -in pw.inp   Done                     01/01/2019 21:36:14
00005 suncat0178 pw.x -in pw.inp   Done                     01/01/2019 21:36:14
00006 suncat0178 pw.x -in pw.inp   Done                     01/01/2019 21:36:14
00007 suncat0178 pw.x -in pw.inp   Done                     01/01/2019 21:36:14
00008 suncat0177 pw.x -in pw.inp   Done                     01/01/2019 21:36:14
00009 suncat0177 pw.x -in pw.inp   Done                     01/01/2019 21:36:14
00010 suncat0177 pw.x -in pw.inp   Done                     01/01/2019 21:36:14
00011 suncat0177 pw.x -in pw.inp   Done                     01/01/2019 21:36:14
00012 suncat0177 pw.x -in pw.inp   Done                     01/01/2019 21:36:14
00013 suncat0177 pw.x -in pw.inp   Done                     01/01/2019 21:36:14
00014 suncat0177 pw.x -in pw.inp   Done                     01/01/2019 21:36:14
00015 suncat0177 pw.x -in pw.inp   Done                     01/01/2019 21:36:14
00016 suncat0113 pw.x -in pw.inp   Done                     01/01/2019 21:36:14
00017 suncat0113 pw.x -in pw.inp   Done                     01/01/2019 21:36:14
00018 suncat0113 pw.x -in pw.inp   Done                     01/01/2019 21:36:14
00019 suncat0113 pw.x -in pw.inp   Done                     01/01/2019 21:36:14
00020 suncat0113 pw.x -in pw.inp   Done                     01/01/2019 21:36:14
00021 suncat0113 pw.x -in pw.inp   Done                     01/01/2019 21:36:14
00022 suncat0113 pw.x -in pw.inp   Done                     01/01/2019 21:36:14
00023 suncat0113 pw.x -in pw.inp   Done                     01/01/2019 21:36:14
00024 suncat0267 pw.x -in pw.inp   Done                     01/01/2019 21:36:14
00025 suncat0267 pw.x -in pw.inp   Done                     01/01/2019 21:36:14
00026 suncat0267 pw.x -in pw.inp   Done                     01/01/2019 21:36:14
00027 suncat0267 pw.x -in pw.inp   Done                     01/01/2019 21:36:14
00028 suncat0267 pw.x -in pw.inp   Done                     01/01/2019 21:36:14
00029 suncat0267 pw.x -in pw.inp   Done                     01/01/2019 21:36:14
00030 suncat0267 pw.x -in pw.inp   Done                     01/01/2019 21:36:14
00031 suncat0267 pw.x -in pw.inp   Done                     01/01/2019 21:36:14
00032 suncat0254 pw.x -in pw.inp   Done                     01/01/2019 21:36:14
00033 suncat0254 pw.x -in pw.inp   Done                     01/01/2019 21:36:14
00034 suncat0254 pw.x -in pw.inp   Done                     01/01/2019 21:36:14
00035 suncat0254 pw.x -in pw.inp   Done                     01/01/2019 21:36:14
00036 suncat0254 pw.x -in pw.inp   Done                     01/01/2019 21:36:14
00037 suncat0254 pw.x -in pw.inp   Done                     01/01/2019 21:36:14
00038 suncat0254 pw.x -in pw.inp   Done                     01/01/2019 21:36:14
00039 suncat0254 pw.x -in pw.inp   Done                     01/01/2019 21:36:14
00040 suncat0253 pw.x -in pw.inp   Done                     01/01/2019 21:36:14
00041 suncat0253 pw.x -in pw.inp   Done                     01/01/2019 21:36:14
00042 suncat0253 pw.x -in pw.inp   Done                     01/01/2019 21:36:14
00043 suncat0253 pw.x -in pw.inp   Done                     01/01/2019 21:36:14
00044 suncat0253 pw.x -in pw.inp   Done                     01/01/2019 21:36:14
00045 suncat0253 pw.x -in pw.inp   Done                     01/01/2019 21:36:14
00046 suncat0253 pw.x -in pw.inp   Done                     01/01/2019 21:36:14
00047 suncat0253 pw.x -in pw.inp   Done                     01/01/2019 21:36:14
00048 suncat0228 pw.x -in pw.inp   Done                     01/01/2019 21:36:14
00049 suncat0228 pw.x -in pw.inp   Done                     01/01/2019 21:36:14
00050 suncat0228 pw.x -in pw.inp   Done                     01/01/2019 21:36:14
00051 suncat0228 pw.x -in pw.inp   Done                     01/01/2019 21:36:14
00052 suncat0228 pw.x -in pw.inp   Done                     01/01/2019 21:36:14
00053 suncat0228 pw.x -in pw.inp   Done                     01/01/2019 21:36:14
00054 suncat0228 pw.x -in pw.inp   Done                     01/01/2019 21:36:14
00055 suncat0228 pw.x -in pw.inp   Done                     01/01/2019 21:36:14
00056 suncat0227 pw.x -in pw.inp   Done                     01/01/2019 21:36:14
00057 suncat0227 pw.x -in pw.inp   Done                     01/01/2019 21:36:14
00058 suncat0227 pw.x -in pw.inp   Done                     01/01/2019 21:36:14
00059 suncat0227 pw.x -in pw.inp   Done                     01/01/2019 21:36:14
00060 suncat0227 pw.x -in pw.inp   Done                     01/01/2019 21:36:14
00061 suncat0227 pw.x -in pw.inp   Done                     01/01/2019 21:36:14
00062 suncat0227 pw.x -in pw.inp   Done                     01/01/2019 21:36:14
00063 suncat0227 pw.x -in pw.inp   Done                     01/01/2019 21:36:14