     Program PWSCF v.5.1rc2 (svn rev. 11289) starts on  2Jan2019 at  0: 1:36

     Current dimensions of program PWSCF are:
     Max number of different atomic species (ntypx) = 10
     Max number of k-points (npk) =  40000
     Max angular momentum in pseudopotentials (lmaxx) =  3
     Presently stress not available with electric field

     IMPORTANT: XC functional enforced from input :
     Exchange-correlation      = BEEF-VDW ( 1  4 27 13 2)
     Any further DFT definition will be discarded
     Please, verify this is what you really want

     Subspace diagonalization in iterative solution of the eigenvalue problem:
     a serial algorithm will be used

     bravais-lattice index     =            0
     lattice parameter (alat)  =       1.8897  a.u.
     unit-cell volume          =    7134.1239 (a.u.)^3
     number of atoms/cell      =           12
     number of atomic types    =            2
     number of electrons       =       126.00
     number of Kohn-Sham states=           93
     kinetic-energy cutoff     =      36.7493  Ry
     charge density cutoff     =     367.4932  Ry
     convergence threshold     =      1.0E-06
     mixing beta               =       0.1000
     number of iterations used =           10  plain     mixing
     Exchange-correlation      = BEEF-VDW ( 1  4 27 13 2)
     nstep                     =           50

     celldm(1)=   1.889726  celldm(2)=   0.000000  celldm(3)=   0.000000
     celldm(4)=   0.000000  celldm(5)=   0.000000  celldm(6)=   0.000000

     crystal axes: (cart. coord. in units of alat)
               a(1) = (   6.900729   0.000000   0.000000 )
               a(2) = (  -3.450364   5.976206   0.000000 )
               a(3) = (   0.000000   0.000000  25.634421 )

     reciprocal axes: (cart. coord. in units 2 pi/alat)
               b(1) = (  0.144912  0.083665  0.000000 )
               b(2) = (  0.000000  0.167330  0.000000 )
               b(3) = (  0.000000  0.000000  0.039010 )

     PseudoPot. # 1 for Tl read from file:
     /afs/slac.stanford.edu/u/if/mamunm/psp/gbrv1.5pbe/Tl.UPF
     MD5 check sum: b76cf1f7e72655a2b2c53cf6385d7059
     Pseudo is Ultrasoft + core correction, Zval = 13.0
     Generated by new atomic code, or converted to UPF format
     Using radial grid of  899 points,  6 beta functions with:
                l(1) =   0
                l(2) =   0
                l(3) =   1
                l(4) =   1
                l(5) =   2
                l(6) =   2
     Q(r) pseudized with  6 coefficients,  rinner =    1.100   1.100   1.100
                                                       1.100   1.100

     PseudoPot. # 2 for Al read from file:
     /afs/slac.stanford.edu/u/if/mamunm/psp/gbrv1.5pbe/Al.UPF
     MD5 check sum: 0a6289f5291fc8f409219462bc851e1f
     Pseudo is Ultrasoft + core correction, Zval =  3.0
     Generated by new atomic code, or converted to UPF format
     Using radial grid of  893 points,  3 beta functions with:
                l(1) =   0
                l(2) =   1
                l(3) =   2
     Q(r) pseudized with  8 coefficients,  rinner =    0.900   0.900   0.900
                                                       0.900   0.900

     vdW kernel table read from file vdW_kernel_table
     MD5 check sum: 095c7af220d748ca6e76c0b4c6cfb241

     atomic species   valence    mass     pseudopotential
        Tl1           13.00   204.38000     Tl( 1.00)
        Al1            3.00    26.98154     Al( 1.00)

     No symmetry found

   Cartesian axes

     site n.     atom                  positions (alat units)
         1           Tl1 tau(   1) = (   0.0000000   0.0000000  10.0000000  )
         2           Tl1 tau(   2) = (  -1.7251822   2.9881032  10.0000000  )
         3           Tl1 tau(   3) = (   1.7251822   2.9881032  10.0000000  )
         4           Al1 tau(   4) = (   3.4503643   0.0000000  10.0000000  )
         5           Tl1 tau(   5) = (   3.4503643   1.9920688  12.8172107  )
         6           Tl1 tau(   6) = (   1.7251822   4.9801719  12.8172107  )
         7           Tl1 tau(   7) = (  -1.7251822   4.9801719  12.8172107  )
         8           Al1 tau(   8) = (   0.0000000   1.9920688  12.8172107  )
         9           Tl1 tau(   9) = (  -0.0000000   3.9841375  15.6344213  )
        10           Tl1 tau(  10) = (   1.7251822   0.9960344  15.6344213  )
        11           Tl1 tau(  11) = (   5.1755465   0.9960344  15.6344213  )
        12           Al1 tau(  12) = (   3.4503643   3.9841375  15.6344213  )

     number of k points=    20  Fermi-Dirac smearing, width (Ry)=  0.0110
                       cart. coord. in units 2pi/alat
        k(    1) = (   0.0000000   0.0000000   0.0000000), wk =   0.0555556
        k(    2) = (   0.0000000   0.0278884   0.0000000), wk =   0.1111111
        k(    3) = (   0.0000000   0.0557767   0.0000000), wk =   0.1111111
        k(    4) = (   0.0000000  -0.0836651   0.0000000), wk =   0.0555556
        k(    5) = (   0.0241520   0.0139442   0.0000000), wk =   0.1111111
        k(    6) = (   0.0241520   0.0418326   0.0000000), wk =   0.1111111
        k(    7) = (   0.0241520   0.0697209   0.0000000), wk =   0.1111111
        k(    8) = (   0.0241520  -0.0697209   0.0000000), wk =   0.1111111
        k(    9) = (   0.0241520  -0.0418326   0.0000000), wk =   0.1111111
        k(   10) = (   0.0241520  -0.0139442   0.0000000), wk =   0.1111111
        k(   11) = (   0.0483041   0.0278884   0.0000000), wk =   0.1111111
        k(   12) = (   0.0483041   0.0557767   0.0000000), wk =   0.1111111
        k(   13) = (   0.0483041   0.0836651   0.0000000), wk =   0.1111111
        k(   14) = (   0.0483041  -0.0557767   0.0000000), wk =   0.1111111
        k(   15) = (   0.0483041  -0.0278884   0.0000000), wk =   0.1111111
        k(   16) = (   0.0483041   0.0000000   0.0000000), wk =   0.1111111
        k(   17) = (  -0.0724561  -0.0418326   0.0000000), wk =   0.0555556
        k(   18) = (  -0.0724561  -0.0139442   0.0000000), wk =   0.1111111
        k(   19) = (  -0.0724561   0.0139442   0.0000000), wk =   0.1111111
        k(   20) = (  -0.0724561  -0.1254977   0.0000000), wk =   0.0555556

     Largest allocated arrays     est. size (Mb)     dimensions
     Largest temporary arrays     est. size (Mb)     dimensions

     Check: negative/imaginary core charge=   -0.000001    0.000000

     Initial potential from superposition of free atoms
     Check: negative starting charge=   -0.451573

     starting charge  125.94881, renormalised to  126.00000

     negative rho (up, down):  4.518E-01 0.000E+00

     *
     * You are using vdW-DF for exchange-correlation in this calculation.
     * Please cite the following three references that made this development
     * possible:
     *
     *   M. Dion, H. Rydberg, E. Schroder, D. C. Langreth, and
     *   B. I. Lundqvist, Phys. Rev. Lett. 92, 246401 (2004).
     *
     *   T. Thonhauser, V. R. Cooper, S. Li, A. Puzder, P. Hyldgaard, and
     *   D. C. Langreth, Phys. Rev. B 76, 125112 (2007).
     *
     *   G. Roman-Perez and J. M. Soler, Phys. Rev. Lett. 103, 096102 (2009).
     *
     *
     * If you are using vdW-DF2, please also cite:
     *
     *   K. Lee, E. D. Murray, L. Kong, B. I. Lundqvist, and
     *   D. C. Langreth, Phys. Rev. B 82, 081101(R) (2010).
     *
     *
     * If you are calculating the stress with vdW-DF, please also cite:
     *
     *   R. Sabatini, E. Kucukbenli, B. Kolb, T. Thonhauser, and
     *   S. de Gironcoli, J. Phys.: Condens. Matter 24, 424209 (2012).
     *

     Carrying out vdW-DF run using the following parameters:

     Nqs =      20    Nr_points =    1024   r_max =   100.000
     q_mesh =
               0.00001000     0.04494208     0.09755937     0.15916263
               0.23128650     0.31572767     0.41458969     0.53033537
               0.66584808     0.82450364     1.01025438     1.22772762
               1.48234092     1.78043706     2.12944203     2.53805004
               3.01644009     3.57652955     4.23227104     5.00000000

     Gradients computed in reciprocal space

     Adding external electric field

     Computed dipole along edir(3) :
        Dipole                0.0000 Ry au,          0.0000 Debye
        Dipole field          0.0000 Ry au

        Potential amp.       -0.0000 Ry
        Total length         47.2310 bohr

     Starting wfc are   93 randomized atomic wfcs

     Self-consistent Calculation

     iteration #  1     ecut=    36.75 Ry     beta=0.10
     Davidson diagonalization with overlap
     ethr =  1.00E-02,  avg # of iterations =  7.2

     Threshold (ethr) on eigenvalues was too large:
     Diagonalizing with lowered threshold

     Davidson diagonalization with overlap
     ethr =  1.22E-04,  avg # of iterations =  9.7

[...]

     total energy              =   -1341.61556762 Ry
     Harris-Foulkes estimate   =   -1341.63959314 Ry
     estimated scf accuracy    <       0.16480219 Ry

[...]

     End of self-consistent calculation

          k = 0.0000 0.0000 0.0000 ( 26961 PWs)   bands (ev):

   -11.8355 -11.8113 -11.7881 -11.7867 -11.7867 -11.7323 -11.7195 -11.7195
   -11.6817 -11.6696 -11.6696 -11.6462 -11.6244 -11.6244 -11.5805 -11.5805
   -11.5797 -11.5544 -11.5419 -11.5419 -11.4487 -11.4360 -11.4224 -11.4224
   -11.4119 -11.4097 -11.4097 -11.3905 -11.3905 -11.3839 -11.3839 -11.3372
   -11.3372 -11.3215 -11.3215 -11.3129 -11.3129 -11.2263 -11.2263 -11.2133
   -11.1672 -11.1651 -11.1651 -11.1632 -11.1007  -8.8472  -7.7209  -6.0810
    -5.1176  -5.1176  -4.7159  -4.7159  -3.9266  -3.9266  -3.5581  -3.4462
    -2.5113  -1.9322  -1.9322  -1.8488  -1.5475  -0.7581  -0.7581  -0.6834
    -0.6834  -0.5625  -0.3903   0.9278   2.6717   2.6987   2.8662   2.9249
     2.9249   2.9566   2.9566   3.3447   4.0305   4.2275   4.3171   4.3171
     4.8521   4.9698   5.1208   5.1208   5.3914   5.3914   5.7928   5.8188
     6.0537   6.0537   6.2125   6.3048   6.6741

[...]

          k =-0.0725-0.0418 0.0000 ( 26826 PWs)   bands (ev):

[...]

     the Fermi energy is     0.1979 ev

!    total energy              =   -1341.62069836 Ry
     Harris-Foulkes estimate   =   -1341.62062113 Ry
     estimated scf accuracy    <       0.00000026 Ry

     The total energy is the sum of the following terms:

     one-electron contribution =   -5390.30390696 Ry
     hartree contribution      =    2755.57338314 Ry
     xc contribution           =    -588.69694559 Ry
     ewald contribution        =    1881.85138298 Ry
     electric field correction =       0.00000000 Ry
     smearing contrib. (-TS)   =      -0.04461192 Ry

     convergence has been achieved in  13 iterations

 BEEF-vdW xc energy contributions
           1 :   -523.622653105069
           2 :    485.048972765670
           3 :   -417.698443981682
           4 :    336.947163753848
           5 :   -257.957672065625
           6 :    191.007366766466
           7 :   -139.687220109370
           8 :    102.044357629550
           9 :   -73.5155548132266
          10 :    49.9385166575490
          11 :   -29.3202598330740
          12 :    11.9021716136577
          13 :    1.00313188338259
          14 :   -8.48716707426263
          15 :    10.9763678422058
[...]

     PseudoPot. # 1 for Tl read from file:
     /afs/slac.stanford.edu/u/if/mamunm/psp/gbrv1.5pbe/Tl.UPF
     MD5 check sum: b76cf1f7e72655a2b2c53cf6385d7059
     Pseudo is Ultrasoft + core correction, Zval = 13.0
     Generated by new atomic code, or converted to UPF format
     Using radial grid of  899 points,  6 beta functions with:
                l(1) =   0
                l(2) =   0
                l(3) =   1
                l(4) =   1
                l(5) =   2
                l(6) =   2
     Q(r) pseudized with  6 coefficients,  rinner =    1.100   1.100   1.100
                                                       1.100   1.100

     PseudoPot. # 2 for Al read from file:
     /afs/slac.stanford.edu/u/if/mamunm/psp/gbrv1.5pbe/Al.UPF
     MD5 check sum: 0a6289f5291fc8f409219462bc851e1f
     Pseudo is Ultrasoft + core correction, Zval =  3.0
     Generated by new atomic code, or converted to UPF format
     Using radial grid of  893 points,  3 beta functions with:
                l(1) =   0
                l(2) =   1
                l(3) =   2
     Q(r) pseudized with  8 coefficients,  rinner =    0.900   0.900   0.900
                                                       0.900   0.900

     vdW kernel table read from file vdW_kernel_table
     MD5 check sum: 095c7af220d748ca6e76c0b4c6cfb241

     atomic species   valence    mass     pseudopotential
        Tl1           13.00   204.38000     Tl( 1.00)
        Al1            3.00    26.98154     Al( 1.00)

     No symmetry found

   Cartesian axes

     site n.     atom                  positions (alat units)
         1           Tl1 tau(   1) = (   0.0000000   0.0000000  10.0000000  )
         2           Tl1 tau(   2) = (  -1.7251822   2.9881032  10.0000000  )
         3           Tl1 tau(   3) = (   1.7251822   2.9881032  10.0000000  )
         4           Al1 tau(   4) = (   3.4503643   0.0000000  10.0000000  )
         5           Tl1 tau(   5) = (   3.4503643   1.9920688  12.8172107  )
         6           Tl1 tau(   6) = (   1.7251822   4.9801719  12.8172107  )
         7           Tl1 tau(   7) = (  -1.7251822   4.9801719  12.8172107  )
         8           Al1 tau(   8) = (   0.0000000   1.9920688  12.8172107  )
         9           Tl1 tau(   9) = (  -0.0000008   3.9557149  15.7492433  )
        10           Tl1 tau(  10) = (   1.7005851   1.0101712  15.7492565  )
        11           Tl1 tau(  11) = (   5.2001131   1.0102765  15.7492934  )
        12           Al1 tau(  12) = (   3.4503523   3.9841432  15.2762178  )

     number of k points=    20  Fermi-Dirac smearing, width (Ry)=  0.0110
                       cart. coord. in units 2pi/alat
        k(    1) = (   0.0000000   0.0000000   0.0000000), wk =   0.0555556
        k(    2) = (   0.0000000   0.0278884   0.0000000), wk =   0.1111111
        k(    3) = (   0.0000000   0.0557767   0.0000000), wk =   0.1111111
        k(    4) = (   0.0000000  -0.0836651   0.0000000), wk =   0.0555556
        k(    5) = (   0.0241520   0.0139442   0.0000000), wk =   0.1111111
        k(    6) = (   0.0241520   0.0418326   0.0000000), wk =   0.1111111
        k(    7) = (   0.0241520   0.0697209   0.0000000), wk =   0.1111111
        k(    8) = (   0.0241520  -0.0697209   0.0000000), wk =   0.1111111
        k(    9) = (   0.0241520  -0.0418326   0.0000000), wk =   0.1111111
        k(   10) = (   0.0241520  -0.0139442   0.0000000), wk =   0.1111111
        k(   11) = (   0.0483041   0.0278884   0.0000000), wk =   0.1111111
        k(   12) = (   0.0483041   0.0557767   0.0000000), wk =   0.1111111
        k(   13) = (   0.0483041   0.0836651   0.0000000), wk =   0.1111111
        k(   14) = (   0.0483041  -0.0557767   0.0000000), wk =   0.1111111
        k(   15) = (   0.0483041  -0.0278884   0.0000000), wk =   0.1111111
        k(   16) = (   0.0483041   0.0000000   0.0000000), wk =   0.1111111
        k(   17) = (  -0.0724561  -0.0418326   0.0000000), wk =   0.0555556
        k(   18) = (  -0.0724561  -0.0139442   0.0000000), wk =   0.1111111
        k(   19) = (  -0.0724561   0.0139442   0.0000000), wk =   0.1111111
        k(   20) = (  -0.0724561  -0.1254977   0.0000000), wk =   0.0555556

     Largest allocated arrays     est. size (Mb)     dimensions
     Largest temporary arrays     est. size (Mb)     dimensions

     Check: negative/imaginary core charge=   -0.000001    0.000000

     Initial potential from superposition of free atoms
     Check: negative starting charge=   -0.453567

     starting charge  125.94881, renormalised to  126.00000

[...]

     *
     * You are using vdW-DF for exchange-correlation in this calculation.
     * Please cite the following three references that made this development
     * possible:
     *
     *   M. Dion, H. Rydberg, E. Schroder, D. C. Langreth, and
     *   B. I. Lundqvist, Phys. Rev. Lett. 92, 246401 (2004).
     *
     *   T. Thonhauser, V. R. Cooper, S. Li, A. Puzder, P. Hyldgaard, and
     *   D. C. Langreth, Phys. Rev. B 76, 125112 (2007).
     *
     *   G. Roman-Perez and J. M. Soler, Phys. Rev. Lett. 103, 096102 (2009).
     *
     *
     * If you are using vdW-DF2, please also cite:
     *
     *   K. Lee, E. D. Murray, L. Kong, B. I. Lundqvist, and
     *   D. C. Langreth, Phys. Rev. B 82, 081101(R) (2010).
     *
     *
     * If you are calculating the stress with vdW-DF, please also cite:
     *
     *   R. Sabatini, E. Kucukbenli, B. Kolb, T. Thonhauser, and
     *   S. de Gironcoli, J. Phys.: Condens. Matter 24, 424209 (2012).
     *

     Carrying out vdW-DF run using the following parameters:

     Nqs =      20    Nr_points =    1024   r_max =   100.000
     q_mesh =
               0.00001000     0.04494208     0.09755937     0.15916263
               0.23128650     0.31572767     0.41458969     0.53033537
               0.66584808     0.82450364     1.01025438     1.22772762
               1.48234092     1.78043706     2.12944203     2.53805004
               3.01644009     3.57652955     4.23227104     5.00000000

     Gradients computed in reciprocal space

[...]

     Starting wfc are   93 randomized atomic wfcs

     Self-consistent Calculation

[...]

     Threshold (ethr) on eigenvalues was too large:
     Diagonalizing with lowered threshold

     Davidson diagonalization with overlap
     ethr =  1.37E-04,  avg # of iterations = 10.7

[...]

     total energy              =   -1341.62777722 Ry
     Harris-Foulkes estimate   =   -1341.62774086 Ry
     estimated scf accuracy    <       0.00000266 Ry

     iteration # 13     ecut=    36.75 Ry     beta=0.10
     Davidson diagonalization with overlap
     ethr =  2.11E-09,  avg # of iterations =  2.0

[...]

     negative rho (up, down):  4.721E-01 0.000E+00

     Adding external electric field

     Computed dipole along edir(3) :
        Dipole                0.0243 Ry au,          0.0618 Debye
        Dipole field          0.0000 Ry au

        Potential amp.       -0.0040 Ry
        Total length         47.2310 bohr

     End of self-consistent calculation

[...]

          k = 0.0483 0.0000 0.0000 ( 26857 PWs)   bands (ev):

[...]

          k =-0.0725-0.1255 0.0000 ( 26826 PWs)   bands (ev):

   -11.7553 -11.7362 -11.6833 -11.6641 -11.6518 -11.6162 -11.6057 -11.5990
   -11.5891 -11.5815 -11.5781 -11.5589 -11.5469 -11.5325 -11.5210 -11.5130
   -11.5053 -11.5028 -11.4920 -11.4912 -11.4812 -11.4810 -11.4704 -11.4683
   -11.4572 -11.4473 -11.4185 -11.4102 -11.3980 -11.3880 -11.3879 -11.3778
   -11.3771 -11.3651 -11.3416 -11.3340 -11.3327 -11.3263 -11.3178 -11.3101
   -11.2938 -11.2836 -11.2195 -11.2105 -11.1302  -7.8281  -7.5881  -6.7221
    -6.4628  -5.6713  -5.6228  -5.1976  -4.7820  -4.1676  -3.7536  -3.5612
    -2.6102  -0.4573  -0.3991  -0.1123  -0.0424   0.0215   0.2802   0.8477
     1.0168   1.1997   1.2821   1.6826   1.6931   2.2355   2.3311   2.4897
     2.5651   2.8944   2.9692   3.1906   3.2531   3.3141   3.4600   3.9098
     3.9285   3.9505   4.1271   4.3312   4.3683   4.5992   4.8737   5.1037
     5.1170   5.2112   5.2623   5.5970   5.6068

     the Fermi energy is     0.2183 ev

!    total energy              =   -1341.62785461 Ry
     Harris-Foulkes estimate   =   -1341.62777728 Ry
     estimated scf accuracy    <       0.00000076 Ry

     The total energy is the sum of the following terms:

     one-electron contribution =   -5328.72701453 Ry
     hartree contribution      =    2724.85275804 Ry
     xc contribution           =    -588.70031095 Ry
     ewald contribution        =    1850.99020141 Ry
     electric field correction =       0.00000104 Ry
     smearing contrib. (-TS)   =      -0.04348962 Ry

     convergence has been achieved in  13 iterations

 BEEF-vdW xc energy contributions
           1 :   -523.622646369332
           2 :    485.039391718623
           3 :   -417.688572547794
           4 :    336.961125440326
           5 :   -258.012135905330
           6 :    191.092523021983
           7 :   -139.768891057698
           8 :    102.085019058722
           9 :   -73.4992716596530
          10 :    49.8823076269522
          11 :   -29.2634984587378
          12 :    11.8799099608839
          13 :   0.984392511840838
          14 :   -8.45375271682963
          15 :    10.9683085923338
          16 :   -10.2815008718845
          17 :    8.69149104035512
          18 :   -8.01544771105512
          19 :    8.87031908606059
          20 :   -10.6378599225919
          21 :    12.0918273708870
          22 :   -12.2918508606037
          23 :    11.1825708725358
          24 :   -9.54988734601420
          25 :    8.41510922945270
          26 :   -8.32229802040979
          27 :    9.00320322432049
          28 :   -9.61361030868636
          29 :    9.32997294490747
          30 :   -7.88655385772256
          31 :   -42.7190711186450
          32 :   -31.1243801852078

     Forces acting on atoms (Ry/au):

     negative rho (up, down):  4.721E-01 0.000E+00
     atom    1 type  1   force =    -0.00000024    0.00573440   -0.00560419
     atom    2 type  1   force =     0.00496278   -0.00286464   -0.00561370
     atom    3 type  1   force =    -0.00496503   -0.00286466   -0.00560261
     atom    4 type  2   force =    -0.00000000    0.00000032    0.01310247
     atom    5 type  1   force =     0.00000140   -0.00643025    0.00050824
     atom    6 type  1   force =    -0.00556800    0.00321769    0.00050724
     atom    7 type  1   force =     0.00556974    0.00321129    0.00050517
     atom    8 type  2   force =    -0.00000016    0.00000018    0.00164601
     atom    9 type  1   force =     0.00000518   -0.00008974    0.00059119
     atom   10 type  1   force =    -0.00007978    0.00004380    0.00059681
     atom   11 type  1   force =     0.00007485    0.00004126    0.00058270
     atom   12 type  2   force =    -0.00000072    0.00000036   -0.00121934

     Total force =     0.022240     Total SCF correction =     0.002203

     entering subroutine stress ...

     negative rho (up, down):  4.721E-01 0.000E+00
          total   stress  (Ry/bohr**3)                   (kbar)     P=   -6.44
  -0.00005109   0.00000000   0.00000000         -7.52      0.00      0.00
   0.00000000  -0.00005109   0.00000000          0.00     -7.52      0.00
   0.00000000   0.00000000  -0.00002907          0.00      0.00     -4.28

 !ASE

     Writing output data file calc.save

     General routines

     Parallel routines

   This run was terminated on:   1:25: 9   2Jan2019

   JOB DONE.
Job  /afs/slac/g/suncat/bin/suncat-tsmpirun -x LD_LIBRARY_PATH -wdir /scratch/qe649234_r3VvT pw.x -in pw.inp

TID   HOST_NAME   COMMAND_LINE            STATUS            TERMINATION_TIME
00000 suncat0163 pw.x -in pw.inp   Done                     01/02/2019 01:25:09
00001 suncat0163 pw.x -in pw.inp   Done                     01/02/2019 01:25:09
00002 suncat0163 pw.x -in pw.inp   Done                     01/02/2019 01:25:09
00003 suncat0163 pw.x -in pw.inp   Done                     01/02/2019 01:25:09
00004 suncat0163 pw.x -in pw.inp   Done                     01/02/2019 01:25:09
00005 suncat0163 pw.x -in pw.inp   Done                     01/02/2019 01:25:09
00006 suncat0163 pw.x -in pw.inp   Done                     01/02/2019 01:25:09
00007 suncat0163 pw.x -in pw.inp   Done                     01/02/2019 01:25:09
00008 suncat0162 pw.x -in pw.inp   Done                     01/02/2019 01:25:09
00009 suncat0162 pw.x -in pw.inp   Done                     01/02/2019 01:25:09
00010 suncat0162 pw.x -in pw.inp   Done                     01/02/2019 01:25:09
00011 suncat0162 pw.x -in pw.inp   Done                     01/02/2019 01:25:09
00012 suncat0162 pw.x -in pw.inp   Done                     01/02/2019 01:25:09
00013 suncat0162 pw.x -in pw.inp   Done                     01/02/2019 01:25:09
00014 suncat0162 pw.x -in pw.inp   Done                     01/02/2019 01:25:09
00015 suncat0162 pw.x -in pw.inp   Done                     01/02/2019 01:25:09
00016 suncat0139 pw.x -in pw.inp   Done                     01/02/2019 01:25:09
00017 suncat0139 pw.x -in pw.inp   Done                     01/02/2019 01:25:09
00018 suncat0139 pw.x -in pw.inp   Done                     01/02/2019 01:25:09
00019 suncat0139 pw.x -in pw.inp   Done                     01/02/2019 01:25:09
00020 suncat0139 pw.x -in pw.inp   Done                     01/02/2019 01:25:09
00021 suncat0139 pw.x -in pw.inp   Done                     01/02/2019 01:25:09
00022 suncat0139 pw.x -in pw.inp   Done                     01/02/2019 01:25:09
00023 suncat0139 pw.x -in pw.inp   Done                     01/02/2019 01:25:09
00024 suncat0133 pw.x -in pw.inp   Done                     01/02/2019 01:25:09
00025 suncat0133 pw.x -in pw.inp   Done                     01/02/2019 01:25:09
00026 suncat0133 pw.x -in pw.inp   Done                     01/02/2019 01:25:09
00027 suncat0133 pw.x -in pw.inp   Done                     01/02/2019 01:25:09
00028 suncat0133 pw.x -in pw.inp   Done                     01/02/2019 01:25:09
00029 suncat0133 pw.x -in pw.inp   Done                     01/02/2019 01:25:09
00030 suncat0133 pw.x -in pw.inp   Done                     01/02/2019 01:25:09
00031 suncat0133 pw.x -in pw.inp   Done                     01/02/2019 01:25:09
00032 suncat0123 pw.x -in pw.inp   Done                     01/02/2019 01:25:09
00033 suncat0123 pw.x -in pw.inp   Done                     01/02/2019 01:25:09
00034 suncat0123 pw.x -in pw.inp   Done                     01/02/2019 01:25:09
00035 suncat0123 pw.x -in pw.inp   Done                     01/02/2019 01:25:09
00036 suncat0123 pw.x -in pw.inp   Done                     01/02/2019 01:25:09
00037 suncat0123 pw.x -in pw.inp   Done                     01/02/2019 01:25:09
00038 suncat0123 pw.x -in pw.inp   Done                     01/02/2019 01:25:09
00039 suncat0123 pw.x -in pw.inp   Done                     01/02/2019 01:25:09
00040 suncat0122 pw.x -in pw.inp   Done                     01/02/2019 01:25:09
00041 suncat0122 pw.x -in pw.inp   Done                     01/02/2019 01:25:09
00042 suncat0122 pw.x -in pw.inp   Done                     01/02/2019 01:25:09
00043 suncat0122 pw.x -in pw.inp   Done                     01/02/2019 01:25:09
00044 suncat0122 pw.x -in pw.inp   Done                     01/02/2019 01:25:09
00045 suncat0122 pw.x -in pw.inp   Done                     01/02/2019 01:25:09
00046 suncat0122 pw.x -in pw.inp   Done                     01/02/2019 01:25:09
00047 suncat0122 pw.x -in pw.inp   Done                     01/02/2019 01:25:09
00048 suncat0207 pw.x -in pw.inp   Done                     01/02/2019 01:25:09
00049 suncat0207 pw.x -in pw.inp   Done                     01/02/2019 01:25:09
00050 suncat0207 pw.x -in pw.inp   Done                     01/02/2019 01:25:09
00051 suncat0207 pw.x -in pw.inp   Done                     01/02/2019 01:25:09
00052 suncat0207 pw.x -in pw.inp   Done                     01/02/2019 01:25:09
00053 suncat0207 pw.x -in pw.inp   Done                     01/02/2019 01:25:09
00054 suncat0207 pw.x -in pw.inp   Done                     01/02/2019 01:25:09
00055 suncat0207 pw.x -in pw.inp   Done                     01/02/2019 01:25:09
00056 suncat0206 pw.x -in pw.inp   Done                     01/02/2019 01:25:09
00057 suncat0206 pw.x -in pw.inp   Done                     01/02/2019 01:25:09
00058 suncat0206 pw.x -in pw.inp   Done                     01/02/2019 01:25:09
00059 suncat0206 pw.x -in pw.inp   Done                     01/02/2019 01:25:09
00060 suncat0206 pw.x -in pw.inp   Done                     01/02/2019 01:25:09
00061 suncat0206 pw.x -in pw.inp   Done                     01/02/2019 01:25:09
00062 suncat0206 pw.x -in pw.inp   Done                     01/02/2019 01:25:09
00063 suncat0206 pw.x -in pw.inp   Done                     01/02/2019 01:25:09