     Program PWSCF v.5.1rc2 (svn rev. 11289) starts on 25Dec2018 at 17: 5:50

     Current dimensions of program PWSCF are:
     Max number of different atomic species (ntypx) = 10
     Max number of k-points (npk) =  40000
     Max angular momentum in pseudopotentials (lmaxx) =  3
     Presently stress not available with electric field

     IMPORTANT: XC functional enforced from input :
     Exchange-correlation      = BEEF-VDW ( 1  4 27 13 2)
     Any further DFT definition will be discarded
     Please, verify this is what you really want

     Subspace diagonalization in iterative solution of the eigenvalue problem:
     a serial algorithm will be used

     bravais-lattice index     =            0
     lattice parameter (alat)  =       1.8897  a.u.
     unit-cell volume          =    4244.8093 (a.u.)^3
     number of atoms/cell      =           12
     number of atomic types    =            2
     number of electrons       =       210.00
     number of Kohn-Sham states=          135
     kinetic-energy cutoff     =      36.7493  Ry
     charge density cutoff     =     367.4932  Ry
     convergence threshold     =      1.0E-06
     mixing beta               =       0.1000
     number of iterations used =           10  plain     mixing
     Exchange-correlation      = BEEF-VDW ( 1  4 27 13 2)
     nstep                     =           50

     celldm(1)=   1.889726  celldm(2)=   0.000000  celldm(3)=   0.000000
     celldm(4)=   0.000000  celldm(5)=   0.000000  celldm(6)=   0.000000

     crystal axes: (cart. coord. in units of alat)
               a(1) = (   5.450349   0.000000   0.000000 )
               a(2) = (  -2.725175   4.720141   0.000000 )
               a(3) = (   0.000000   0.000000  24.450192 )

     reciprocal axes: (cart. coord. in units 2 pi/alat)
               b(1) = (  0.183474  0.105929  0.000000 )
               b(2) = (  0.000000  0.211858  0.000000 )
               b(3) = (  0.000000  0.000000  0.040899 )

     PseudoPot. # 1 for Cu read from file:
     /afs/slac.stanford.edu/u/if/mamunm/psp/gbrv1.5pbe/Cu.UPF
     MD5 check sum: 6e991ff952a84172a2a52a1c1e996048
     Pseudo is Ultrasoft + core correction, Zval = 19.0
     Generated by new atomic code, or converted to UPF format
     Using radial grid of  867 points,  6 beta functions with:
                l(1) =   0
                l(2) =   0
                l(3) =   1
                l(4) =   1
                l(5) =   2
                l(6) =   2
     Q(r) pseudized with  8 coefficients,  rinner =    1.150   1.150   1.150
                                                       1.150   1.150

     PseudoPot. # 2 for Nb read from file:
     /afs/slac.stanford.edu/u/if/mamunm/psp/gbrv1.5pbe/Nb.UPF
     MD5 check sum: 573aab8a2fa660278ed4a62cd769473f
     Pseudo is Ultrasoft + core correction, Zval = 13.0
     Generated by new atomic code, or converted to UPF format
     Using radial grid of  887 points,  6 beta functions with:
                l(1) =   0
                l(2) =   0
                l(3) =   1
                l(4) =   1
                l(5) =   2
                l(6) =   2
     Q(r) pseudized with  6 coefficients,  rinner =    1.000   1.000   1.000
                                                       1.000   1.000

     vdW kernel table read from file vdW_kernel_table
     MD5 check sum: 095c7af220d748ca6e76c0b4c6cfb241

     atomic species   valence    mass     pseudopotential
        Cu1           19.00    63.54600     Cu( 1.00)
        Nb1           13.00    92.90637     Nb( 1.00)

     No symmetry found

   Cartesian axes

     site n.     atom                  positions (alat units)
         1           Cu1 tau(   1) = (   0.0000000   0.0000000  10.0000000  )
         2           Cu1 tau(   2) = (  -1.3625873   2.3600705  10.0000000  )
         3           Cu1 tau(   3) = (   1.3625873   2.3600705  10.0000000  )
         4           Nb1 tau(   4) = (   2.7251747   0.0000000  10.0000000  )
         5           Cu1 tau(   5) = (   2.7251747   1.5733803  12.2250958  )
         6           Cu1 tau(   6) = (   1.3625873   3.9334509  12.2250958  )
         7           Cu1 tau(   7) = (  -1.3625873   3.9334509  12.2250958  )
         8           Nb1 tau(   8) = (   0.0000000   1.5733803  12.2250958  )
         9           Cu1 tau(   9) = (  -0.0000000   3.1467607  14.4501916  )
        10           Cu1 tau(  10) = (   1.3625873   0.7866902  14.4501916  )
        11           Cu1 tau(  11) = (   4.0877620   0.7866902  14.4501916  )
        12           Nb1 tau(  12) = (   2.7251747   3.1467607  14.4501916  )

     number of k points=    20  Fermi-Dirac smearing, width (Ry)=  0.0110
                       cart. coord. in units 2pi/alat
        k(    1) = (   0.0000000   0.0000000   0.0000000), wk =   0.0555556
        k(    2) = (   0.0000000   0.0353097   0.0000000), wk =   0.1111111
        k(    3) = (   0.0000000   0.0706194   0.0000000), wk =   0.1111111
        k(    4) = (   0.0000000  -0.1059290   0.0000000), wk =   0.0555556
        k(    5) = (   0.0305791   0.0176548   0.0000000), wk =   0.1111111
        k(    6) = (   0.0305791   0.0529645   0.0000000), wk =   0.1111111
        k(    7) = (   0.0305791   0.0882742   0.0000000), wk =   0.1111111
        k(    8) = (   0.0305791  -0.0882742   0.0000000), wk =   0.1111111
        k(    9) = (   0.0305791  -0.0529645   0.0000000), wk =   0.1111111
        k(   10) = (   0.0305791  -0.0176548   0.0000000), wk =   0.1111111
        k(   11) = (   0.0611582   0.0353097   0.0000000), wk =   0.1111111
        k(   12) = (   0.0611582   0.0706194   0.0000000), wk =   0.1111111
        k(   13) = (   0.0611582   0.1059290   0.0000000), wk =   0.1111111
        k(   14) = (   0.0611582  -0.0706194   0.0000000), wk =   0.1111111
        k(   15) = (   0.0611582  -0.0353097   0.0000000), wk =   0.1111111
        k(   16) = (   0.0611582  -0.0000000   0.0000000), wk =   0.1111111
        k(   17) = (  -0.0917372  -0.0529645   0.0000000), wk =   0.0555556
        k(   18) = (  -0.0917372  -0.0176548   0.0000000), wk =   0.1111111
        k(   19) = (  -0.0917372   0.0176548   0.0000000), wk =   0.1111111
        k(   20) = (  -0.0917372  -0.1588936   0.0000000), wk =   0.0555556

     Largest allocated arrays     est. size (Mb)     dimensions
     Largest temporary arrays     est. size (Mb)     dimensions

     Initial potential from superposition of free atoms
     Check: negative starting charge=   -0.002688

     starting charge  200.99178, renormalised to  210.00000

     negative rho (up, down):  2.809E-03 0.000E+00

     *
     * You are using vdW-DF for exchange-correlation in this calculation.
     * Please cite the following three references that made this development
     * possible:
     *
     *   M. Dion, H. Rydberg, E. Schroder, D. C. Langreth, and
     *   B. I. Lundqvist, Phys. Rev. Lett. 92, 246401 (2004).
     *
     *   T. Thonhauser, V. R. Cooper, S. Li, A. Puzder, P. Hyldgaard, and
     *   D. C. Langreth, Phys. Rev. B 76, 125112 (2007).
     *
     *   G. Roman-Perez and J. M. Soler, Phys. Rev. Lett. 103, 096102 (2009).
     *
     *
     * If you are using vdW-DF2, please also cite:
     *
     *   K. Lee, E. D. Murray, L. Kong, B. I. Lundqvist, and
     *   D. C. Langreth, Phys. Rev. B 82, 081101(R) (2010).
     *
     *
     * If you are calculating the stress with vdW-DF, please also cite:
     *
     *   R. Sabatini, E. Kucukbenli, B. Kolb, T. Thonhauser, and
     *   S. de Gironcoli, J. Phys.: Condens. Matter 24, 424209 (2012).
     *

     Carrying out vdW-DF run using the following parameters:

     Nqs =      20    Nr_points =    1024   r_max =   100.000
     q_mesh =
               0.00001000     0.04494208     0.09755937     0.15916263
               0.23128650     0.31572767     0.41458969     0.53033537
               0.66584808     0.82450364     1.01025438     1.22772762
               1.48234092     1.78043706     2.12944203     2.53805004
               3.01644009     3.57652955     4.23227104     5.00000000

     Gradients computed in reciprocal space

     Adding external electric field

     Computed dipole along edir(3) :
        Dipole                0.0000 Ry au,          0.0000 Debye
        Dipole field          0.0000 Ry au

        Potential amp.       -0.0000 Ry
        Total length         45.0491 bohr

     Starting wfc are  156 randomized atomic wfcs

     Self-consistent Calculation

     iteration #  1     ecut=    36.75 Ry     beta=0.10
     Davidson diagonalization with overlap
     ethr =  1.00E-02,  avg # of iterations =  7.2

[...]

     total energy              =   -3999.69992743 Ry
     Harris-Foulkes estimate   =   -4004.74677953 Ry
     estimated scf accuracy    <      29.29932014 Ry

[...]

     End of self-consistent calculation

          k = 0.0000 0.0000 0.0000 ( 15869 PWs)   bands (ev):

  -111.7937-111.7911-111.7911-111.7077-111.7074-111.7051-111.7051-111.7048
  -111.7048 -69.2335 -69.2263 -69.2263 -69.2150 -69.2150 -69.2065 -69.2065
   -69.2062 -69.2049 -69.2049 -69.1940 -69.1925 -69.0989 -69.0907 -69.0894
   -69.0763 -69.0763 -69.0735 -69.0735 -69.0717 -69.0717 -69.0039 -69.0023
   -68.9881 -68.9881 -68.9876 -68.9876 -54.6160 -54.6149 -54.6093 -30.6993
   -30.6980 -30.6543 -30.5975 -30.5975 -30.5861 -30.5861 -30.5699 -30.5699
    -6.4110  -4.8352  -3.8781  -3.5743  -3.5743  -3.4983  -3.4983  -3.0724
    -3.0724  -3.0315  -2.9805  -2.9638  -2.9638  -2.8881  -2.7617  -2.3736
    -2.3736  -2.2568  -2.1376  -2.1376  -2.0041  -1.9436  -1.9309  -1.9290
    -1.8611  -1.8611  -1.8368  -1.8368  -1.7848  -1.7848  -1.6667  -1.6667
    -1.6271  -1.6271  -1.5221  -1.3070  -1.3070  -1.2819  -1.2819  -1.2528
    -1.2528  -1.1771  -1.0145  -1.0145  -0.9827  -0.9416  -0.9033  -0.8120
    -0.0926   0.5012   0.6248   0.6248   0.6591   0.6591   0.9449   0.9449
     1.1193   1.2211   1.2211   1.7400   1.8124   1.9113   1.9113   2.2997
     2.2997   2.3040   2.3040   3.7502   3.7502   3.7613   3.7878   4.0345
     4.0345   4.6261   4.8520   5.2504   6.1307   6.6834   6.6834   6.7169
     6.7169   6.9952   7.3556   7.4784   7.9368   7.9368   7.9452

[...]

          k =-0.0917-0.0530 0.0000 ( 16000 PWs)   bands (ev):

[...]

     the Fermi energy is     0.9643 ev

!    total energy              =   -3999.75176258 Ry
     Harris-Foulkes estimate   =   -3999.75175129 Ry
     estimated scf accuracy    <       0.00000077 Ry

     The total energy is the sum of the following terms:

     one-electron contribution =  -28090.36573947 Ry
     hartree contribution      =   14053.82037537 Ry
     xc contribution           =    -416.53038929 Ry
     ewald contribution        =   10453.41267873 Ry
     electric field correction =       0.00000002 Ry
     smearing contrib. (-TS)   =      -0.08868793 Ry

     convergence has been achieved in  18 iterations

 BEEF-vdW xc energy contributions
           1 :   -367.594047086034
           2 :    333.368012344080
           3 :   -275.298479337156
           4 :    209.312830701620
           5 :   -150.088641924134
           6 :    105.776758129230
           7 :   -76.6019231775715
           8 :    57.3631874037558
           9 :   -41.8630815583731
[...]
     Generated by new atomic code, or converted to UPF format
     Using radial grid of  867 points,  6 beta functions with:
                l(1) =   0
                l(2) =   0
                l(3) =   1
                l(4) =   1
                l(5) =   2
                l(6) =   2
     Q(r) pseudized with  8 coefficients,  rinner =    1.150   1.150   1.150
                                                       1.150   1.150

     PseudoPot. # 2 for Nb read from file:
     /afs/slac.stanford.edu/u/if/mamunm/psp/gbrv1.5pbe/Nb.UPF
     MD5 check sum: 573aab8a2fa660278ed4a62cd769473f
     Pseudo is Ultrasoft + core correction, Zval = 13.0
     Generated by new atomic code, or converted to UPF format
     Using radial grid of  887 points,  6 beta functions with:
                l(1) =   0
                l(2) =   0
                l(3) =   1
                l(4) =   1
                l(5) =   2
                l(6) =   2
     Q(r) pseudized with  6 coefficients,  rinner =    1.000   1.000   1.000
                                                       1.000   1.000

     vdW kernel table read from file vdW_kernel_table
     MD5 check sum: 095c7af220d748ca6e76c0b4c6cfb241

     atomic species   valence    mass     pseudopotential
        Cu1           19.00    63.54600     Cu( 1.00)
        Nb1           13.00    92.90637     Nb( 1.00)

     No symmetry found

   Cartesian axes

     site n.     atom                  positions (alat units)
         1           Cu1 tau(   1) = (   0.0000000   0.0000000  10.0000000  )
         2           Cu1 tau(   2) = (  -1.3625873   2.3600705  10.0000000  )
         3           Cu1 tau(   3) = (   1.3625873   2.3600705  10.0000000  )
         4           Nb1 tau(   4) = (   2.7251747   0.0000000  10.0000000  )
         5           Cu1 tau(   5) = (   2.7251747   1.5733803  12.2250958  )
         6           Cu1 tau(   6) = (   1.3625873   3.9334509  12.2250958  )
         7           Cu1 tau(   7) = (  -1.3625873   3.9334509  12.2250958  )
         8           Nb1 tau(   8) = (   0.0000000   1.5733803  12.2250958  )
         9           Cu1 tau(   9) = (  -0.0000005   3.2141482  14.3437237  )
        10           Cu1 tau(  10) = (   1.4209332   0.7529993  14.3437320  )
        11           Cu1 tau(  11) = (   4.0293935   0.7529911  14.3437236  )
        12           Nb1 tau(  12) = (   2.7251752   3.1467620  14.4085133  )

     number of k points=    20  Fermi-Dirac smearing, width (Ry)=  0.0110
                       cart. coord. in units 2pi/alat
        k(    1) = (   0.0000000   0.0000000   0.0000000), wk =   0.0555556
        k(    2) = (   0.0000000   0.0353097   0.0000000), wk =   0.1111111
        k(    3) = (   0.0000000   0.0706194   0.0000000), wk =   0.1111111
        k(    4) = (   0.0000000  -0.1059290   0.0000000), wk =   0.0555556
        k(    5) = (   0.0305791   0.0176548   0.0000000), wk =   0.1111111
        k(    6) = (   0.0305791   0.0529645   0.0000000), wk =   0.1111111
        k(    7) = (   0.0305791   0.0882742   0.0000000), wk =   0.1111111
        k(    8) = (   0.0305791  -0.0882742   0.0000000), wk =   0.1111111
        k(    9) = (   0.0305791  -0.0529645   0.0000000), wk =   0.1111111
        k(   10) = (   0.0305791  -0.0176548   0.0000000), wk =   0.1111111
        k(   11) = (   0.0611582   0.0353097   0.0000000), wk =   0.1111111
        k(   12) = (   0.0611582   0.0706194   0.0000000), wk =   0.1111111
        k(   13) = (   0.0611582   0.1059290   0.0000000), wk =   0.1111111
        k(   14) = (   0.0611582  -0.0706194   0.0000000), wk =   0.1111111
        k(   15) = (   0.0611582  -0.0353097   0.0000000), wk =   0.1111111
        k(   16) = (   0.0611582  -0.0000000   0.0000000), wk =   0.1111111
        k(   17) = (  -0.0917372  -0.0529645   0.0000000), wk =   0.0555556
        k(   18) = (  -0.0917372  -0.0176548   0.0000000), wk =   0.1111111
        k(   19) = (  -0.0917372   0.0176548   0.0000000), wk =   0.1111111
        k(   20) = (  -0.0917372  -0.1588936   0.0000000), wk =   0.0555556

     Largest allocated arrays     est. size (Mb)     dimensions
     Largest temporary arrays     est. size (Mb)     dimensions

     Initial potential from superposition of free atoms
     Check: negative starting charge=   -0.002710

     starting charge  200.99178, renormalised to  210.00000

[...]

     *
     * You are using vdW-DF for exchange-correlation in this calculation.
     * Please cite the following three references that made this development
     * possible:
     *
     *   M. Dion, H. Rydberg, E. Schroder, D. C. Langreth, and
     *   B. I. Lundqvist, Phys. Rev. Lett. 92, 246401 (2004).
     *
     *   T. Thonhauser, V. R. Cooper, S. Li, A. Puzder, P. Hyldgaard, and
     *   D. C. Langreth, Phys. Rev. B 76, 125112 (2007).
     *
     *   G. Roman-Perez and J. M. Soler, Phys. Rev. Lett. 103, 096102 (2009).
     *
     *
     * If you are using vdW-DF2, please also cite:
     *
     *   K. Lee, E. D. Murray, L. Kong, B. I. Lundqvist, and
     *   D. C. Langreth, Phys. Rev. B 82, 081101(R) (2010).
     *
     *
     * If you are calculating the stress with vdW-DF, please also cite:
     *
     *   R. Sabatini, E. Kucukbenli, B. Kolb, T. Thonhauser, and
     *   S. de Gironcoli, J. Phys.: Condens. Matter 24, 424209 (2012).
     *

     Carrying out vdW-DF run using the following parameters:

     Nqs =      20    Nr_points =    1024   r_max =   100.000
     q_mesh =
               0.00001000     0.04494208     0.09755937     0.15916263
               0.23128650     0.31572767     0.41458969     0.53033537
               0.66584808     0.82450364     1.01025438     1.22772762
               1.48234092     1.78043706     2.12944203     2.53805004
               3.01644009     3.57652955     4.23227104     5.00000000

     Gradients computed in reciprocal space

[...]

     Starting wfc are  156 randomized atomic wfcs

     Self-consistent Calculation

[...]

     total energy              =   -3999.75788719 Ry
     Harris-Foulkes estimate   =   -3999.75788489 Ry
     estimated scf accuracy    <       0.00000128 Ry

     iteration # 19     ecut=    36.75 Ry     beta=0.10
     Davidson diagonalization with overlap
     ethr =  6.11E-10,  avg # of iterations =  2.0

[...]

     negative rho (up, down):  2.644E-03 0.000E+00

     Adding external electric field

     Computed dipole along edir(3) :
        Dipole                0.0107 Ry au,          0.0271 Debye
        Dipole field          0.0000 Ry au

        Potential amp.       -0.0028 Ry
        Total length         45.0491 bohr

     End of self-consistent calculation

[...]

          k = 0.0612-0.0000 0.0000 ( 15966 PWs)   bands (ev):

[...]

          k =-0.0917-0.1589 0.0000 ( 16000 PWs)   bands (ev):

  -111.8348-111.8340-111.8331-111.7400-111.7380-111.7374-111.6980-111.6971
  -111.6963 -69.2778 -69.2742 -69.2714 -69.2514 -69.2476 -69.2436 -69.2259
   -69.2227 -69.2144 -69.1980 -69.1938 -69.1898 -69.1377 -69.1317 -69.1260
   -69.1219 -69.1216 -69.1157 -69.0746 -69.0690 -69.0637 -69.0313 -69.0214
   -69.0170 -68.9905 -68.9856 -68.9800 -54.6109 -54.6035 -54.5754 -30.7139
   -30.6870 -30.6313 -30.5880 -30.5804 -30.5765 -30.5763 -30.5558 -30.5474
    -4.9088  -4.7822  -3.6269  -3.4346  -3.1493  -3.0884  -3.0399  -2.9653
    -2.8249  -2.7730  -2.6535  -2.6059  -2.5323  -2.5088  -2.4655  -2.4623
    -2.3478  -2.3213  -2.2750  -2.2471  -2.1899  -2.1347  -2.0533  -2.0017
    -1.9620  -1.9525  -1.9224  -1.8826  -1.8817  -1.8507  -1.8258  -1.8064
    -1.7972  -1.7484  -1.7114  -1.6696  -1.6349  -1.6121  -1.6061  -1.5795
    -1.5207  -1.5127  -1.4548  -1.4090  -1.2403  -1.2044  -1.0935  -1.0628
    -1.0212  -0.9561  -0.4113  -0.2171   0.1792   0.4213   0.5692   0.5774
     0.8575   0.9821   1.0238   1.0850   1.1632   1.5855   1.7117   1.9638
     2.2919   2.3321   3.1631   3.5126   4.3083   4.5017   4.7212   4.8947
     5.4036   5.6744   6.1201   6.1690   6.5895   6.6588   6.7938   6.8091
     7.3048   7.5754   7.7880   7.8778   8.0866   8.3063   8.3769

     the Fermi energy is     0.9714 ev

!    total energy              =   -3999.75789739 Ry
     Harris-Foulkes estimate   =   -3999.75788729 Ry
     estimated scf accuracy    <       0.00000065 Ry

     The total energy is the sum of the following terms:

     one-electron contribution =  -28441.86211701 Ry
     hartree contribution      =   14229.43855247 Ry
     xc contribution           =    -416.60229497 Ry
     ewald contribution        =   10629.35389269 Ry
     electric field correction =       0.00000034 Ry
     smearing contrib. (-TS)   =      -0.08593090 Ry

     convergence has been achieved in  19 iterations

 BEEF-vdW xc energy contributions
           1 :   -367.675112447840
           2 :    333.508686944058
           3 :   -275.505152337696
           4 :    209.528337902612
           5 :   -150.233319734007
           6 :    105.809760847425
           7 :   -76.5556066906238
           8 :    57.3233120034274
           9 :   -41.9075561716327
          10 :    26.7115148700532
          11 :   -11.8972884738241
          12 :  -6.157794710907183E-002
          13 :    6.97705618088582
          14 :   -8.83165096373176
          15 :    7.84570682006427
          16 :   -6.97206297649228
          17 :    8.04135393043504
          18 :   -10.8481761210190
          19 :    13.6697396653541
          20 :   -14.7050541153019
          21 :    13.3685196490042
          22 :   -10.5988417587050
          23 :    8.08866134606677
          24 :   -7.07814920954115
          25 :    7.57604842269291
          26 :   -8.50026737094464
          27 :    8.55335758732377
          28 :   -7.16725363327186
          29 :    4.85906953169820
          30 :   -2.80110846940858
          31 :   -30.9630161957392
          32 :   -21.5431179725988

     Forces acting on atoms (Ry/au):

     negative rho (up, down):  2.644E-03 0.000E+00
     atom    1 type  1   force =     0.00000284   -0.00845159    0.01245375
     atom    2 type  1   force =    -0.00732198    0.00422526    0.01245438
     atom    3 type  1   force =     0.00732128    0.00422660    0.01245328
     atom    4 type  2   force =     0.00000060    0.00000008    0.00405828
     atom    5 type  1   force =    -0.00000243    0.00012450   -0.00917807
     atom    6 type  1   force =     0.00010531   -0.00006348   -0.00917857
     atom    7 type  1   force =    -0.00010286   -0.00006078   -0.00917723
     atom    8 type  2   force =     0.00000008   -0.00000028   -0.01035483
     atom    9 type  1   force =    -0.00000058    0.00035690   -0.00140883
     atom   10 type  1   force =     0.00030761   -0.00017745   -0.00140922
     atom   11 type  1   force =    -0.00031022   -0.00017881   -0.00140772
     atom   12 type  2   force =     0.00000035   -0.00000095    0.00069477

     Total force =     0.032602     Total SCF correction =     0.003044

     entering subroutine stress ...

     negative rho (up, down):  2.644E-03 0.000E+00
          total   stress  (Ry/bohr**3)                   (kbar)     P=  -22.05
  -0.00016910   0.00000000   0.00000000        -24.87      0.00      0.00
   0.00000000  -0.00016910   0.00000000          0.00    -24.88      0.00
   0.00000000   0.00000000  -0.00011148          0.00      0.00    -16.40

 !ASE

     Writing output data file calc.save

     General routines

     Parallel routines

   This run was terminated on:  18:20:58  25Dec2018

   JOB DONE.
Job  /afs/slac/g/suncat/bin/suncat-tsmpirun -x LD_LIBRARY_PATH -wdir /scratch/qe109578_3Xd4N pw.x -in pw.inp

TID   HOST_NAME   COMMAND_LINE            STATUS            TERMINATION_TIME
00000 suncat0087 pw.x -in pw.inp   Done                     12/25/2018 18:20:58
00001 suncat0087 pw.x -in pw.inp   Done                     12/25/2018 18:20:58
00002 suncat0087 pw.x -in pw.inp   Done                     12/25/2018 18:20:58
00003 suncat0087 pw.x -in pw.inp   Done                     12/25/2018 18:20:58
00004 suncat0087 pw.x -in pw.inp   Done                     12/25/2018 18:20:58
00005 suncat0087 pw.x -in pw.inp   Done                     12/25/2018 18:20:58
00006 suncat0087 pw.x -in pw.inp   Done                     12/25/2018 18:20:58
00007 suncat0087 pw.x -in pw.inp   Done                     12/25/2018 18:20:58
00008 suncat0084 pw.x -in pw.inp   Done                     12/25/2018 18:20:58
00009 suncat0084 pw.x -in pw.inp   Done                     12/25/2018 18:20:58
00010 suncat0084 pw.x -in pw.inp   Done                     12/25/2018 18:20:58
00011 suncat0084 pw.x -in pw.inp   Done                     12/25/2018 18:20:58
00012 suncat0084 pw.x -in pw.inp   Done                     12/25/2018 18:20:58
00013 suncat0084 pw.x -in pw.inp   Done                     12/25/2018 18:20:58
00014 suncat0084 pw.x -in pw.inp   Done                     12/25/2018 18:20:58
00015 suncat0084 pw.x -in pw.inp   Done                     12/25/2018 18:20:58
00016 suncat0078 pw.x -in pw.inp   Done                     12/25/2018 18:20:58
00017 suncat0078 pw.x -in pw.inp   Done                     12/25/2018 18:20:58
00018 suncat0078 pw.x -in pw.inp   Done                     12/25/2018 18:20:58
00019 suncat0078 pw.x -in pw.inp   Done                     12/25/2018 18:20:58
00020 suncat0078 pw.x -in pw.inp   Done                     12/25/2018 18:20:58
00021 suncat0078 pw.x -in pw.inp   Done                     12/25/2018 18:20:58
00022 suncat0078 pw.x -in pw.inp   Done                     12/25/2018 18:20:58
00023 suncat0078 pw.x -in pw.inp   Done                     12/25/2018 18:20:58
00024 suncat0077 pw.x -in pw.inp   Done                     12/25/2018 18:20:58
00025 suncat0077 pw.x -in pw.inp   Done                     12/25/2018 18:20:58
00026 suncat0077 pw.x -in pw.inp   Done                     12/25/2018 18:20:58
00027 suncat0077 pw.x -in pw.inp   Done                     12/25/2018 18:20:58
00028 suncat0077 pw.x -in pw.inp   Done                     12/25/2018 18:20:58
00029 suncat0077 pw.x -in pw.inp   Done                     12/25/2018 18:20:58
00030 suncat0077 pw.x -in pw.inp   Done                     12/25/2018 18:20:58
00031 suncat0077 pw.x -in pw.inp   Done                     12/25/2018 18:20:58
00032 suncat0069 pw.x -in pw.inp   Done                     12/25/2018 18:20:58
00033 suncat0069 pw.x -in pw.inp   Done                     12/25/2018 18:20:58
00034 suncat0069 pw.x -in pw.inp   Done                     12/25/2018 18:20:58
00035 suncat0069 pw.x -in pw.inp   Done                     12/25/2018 18:20:58
00036 suncat0069 pw.x -in pw.inp   Done                     12/25/2018 18:20:58
00037 suncat0069 pw.x -in pw.inp   Done                     12/25/2018 18:20:58
00038 suncat0069 pw.x -in pw.inp   Done                     12/25/2018 18:20:58
00039 suncat0069 pw.x -in pw.inp   Done                     12/25/2018 18:20:58
00040 suncat0065 pw.x -in pw.inp   Done                     12/25/2018 18:20:58
00041 suncat0065 pw.x -in pw.inp   Done                     12/25/2018 18:20:58
00042 suncat0065 pw.x -in pw.inp   Done                     12/25/2018 18:20:58
00043 suncat0065 pw.x -in pw.inp   Done                     12/25/2018 18:20:58
00044 suncat0065 pw.x -in pw.inp   Done                     12/25/2018 18:20:58
00045 suncat0065 pw.x -in pw.inp   Done                     12/25/2018 18:20:58
00046 suncat0065 pw.x -in pw.inp   Done                     12/25/2018 18:20:58
00047 suncat0065 pw.x -in pw.inp   Done                     12/25/2018 18:20:58
00048 suncat0010 pw.x -in pw.inp   Done                     12/25/2018 18:20:58
00049 suncat0010 pw.x -in pw.inp   Done                     12/25/2018 18:20:58
00050 suncat0010 pw.x -in pw.inp   Done                     12/25/2018 18:20:58
00051 suncat0010 pw.x -in pw.inp   Done                     12/25/2018 18:20:58
00052 suncat0010 pw.x -in pw.inp   Done                     12/25/2018 18:20:58
00053 suncat0010 pw.x -in pw.inp   Done                     12/25/2018 18:20:58
00054 suncat0010 pw.x -in pw.inp   Done                     12/25/2018 18:20:58
00055 suncat0010 pw.x -in pw.inp   Done                     12/25/2018 18:20:58
00056 suncat0100 pw.x -in pw.inp   Done                     12/25/2018 18:20:58
00057 suncat0100 pw.x -in pw.inp   Done                     12/25/2018 18:20:58
00058 suncat0100 pw.x -in pw.inp   Done                     12/25/2018 18:20:58
00059 suncat0100 pw.x -in pw.inp   Done                     12/25/2018 18:20:58
00060 suncat0100 pw.x -in pw.inp   Done                     12/25/2018 18:20:58
00061 suncat0100 pw.x -in pw.inp   Done                     12/25/2018 18:20:58
00062 suncat0100 pw.x -in pw.inp   Done                     12/25/2018 18:20:58
00063 suncat0100 pw.x -in pw.inp   Done                     12/25/2018 18:20:58