     Program PWSCF v.5.1rc2 (svn rev. 11289) starts on 30Dec2018 at 22:54:24

     Current dimensions of program PWSCF are:
     Max number of different atomic species (ntypx) = 10
     Max number of k-points (npk) =  40000
     Max angular momentum in pseudopotentials (lmaxx) =  3
     Presently stress not available with electric field

     IMPORTANT: XC functional enforced from input :
     Exchange-correlation      = BEEF-VDW ( 1  4 27 13 2)
     Any further DFT definition will be discarded
     Please, verify this is what you really want

     Subspace diagonalization in iterative solution of the eigenvalue problem:
     a serial algorithm will be used

     Generating pointlists ...
     new r_m :   0.4125 (alat units)  0.7795 (a.u.) for type    1
     new r_m :   0.4125 (alat units)  0.7795 (a.u.) for type    2

     bravais-lattice index     =            0
     lattice parameter (alat)  =       1.8897  a.u.
     unit-cell volume          =    4020.1859 (a.u.)^3
     number of atoms/cell      =           12
     number of atomic types    =            2
     number of electrons       =       198.00
     number of Kohn-Sham states=          129
     kinetic-energy cutoff     =      36.7493  Ry
     charge density cutoff     =     367.4932  Ry
     convergence threshold     =      1.0E-06
     mixing beta               =       0.1000
     number of iterations used =           10  plain     mixing
     Exchange-correlation      = BEEF-VDW ( 1  4 27 13 2)
     nstep                     =           50

     celldm(1)=   1.889726  celldm(2)=   0.000000  celldm(3)=   0.000000
     celldm(4)=   0.000000  celldm(5)=   0.000000  celldm(6)=   0.000000

     crystal axes: (cart. coord. in units of alat)
               a(1) = (   5.316110   0.000000   0.000000 )
               a(2) = (  -2.658055   4.603886   0.000000 )
               a(3) = (   0.000000   0.000000  24.340585 )

     reciprocal axes: (cart. coord. in units 2 pi/alat)
               b(1) = (  0.188107  0.108604  0.000000 )
               b(2) = (  0.000000  0.217208  0.000000 )
               b(3) = (  0.000000  0.000000  0.041084 )

     PseudoPot. # 1 for Ni read from file:
     /afs/slac.stanford.edu/u/if/mamunm/psp/gbrv1.5pbe/Ni.UPF
     MD5 check sum: 1ee80287db30b12d2bc1f57a5b5d6409
     Pseudo is Ultrasoft + core correction, Zval = 18.0
     Generated by new atomic code, or converted to UPF format
     Using radial grid of  865 points,  6 beta functions with:
                l(1) =   0
                l(2) =   0
                l(3) =   1
                l(4) =   1
                l(5) =   2
                l(6) =   2
     Q(r) pseudized with 10 coefficients,  rinner =    0.980   0.980   0.980
                                                       0.980   0.980

     PseudoPot. # 2 for Cd read from file:
     /afs/slac.stanford.edu/u/if/mamunm/psp/gbrv1.5pbe/Cd.UPF
     MD5 check sum: 17164a7926edb8e0dc231208abae86a6
     Pseudo is Ultrasoft + core correction, Zval = 12.0
     Generated by new atomic code, or converted to UPF format
     Using radial grid of  889 points,  6 beta functions with:
                l(1) =   0
                l(2) =   0
                l(3) =   1
                l(4) =   1
                l(5) =   2
                l(6) =   2
     Q(r) pseudized with  6 coefficients,  rinner =    1.000   1.000   1.000
                                                       1.000   1.000

     vdW kernel table read from file vdW_kernel_table
     MD5 check sum: 095c7af220d748ca6e76c0b4c6cfb241

     atomic species   valence    mass     pseudopotential
        Ni1           18.00    58.69340     Ni( 1.00)
        Cd1           12.00   112.41400     Cd( 1.00)

     Starting magnetic structure
     atomic species   magnetization
        Ni1          0.111
        Cd1          0.167

     No symmetry found

   Cartesian axes

     site n.     atom                  positions (alat units)
         1           Ni1 tau(   1) = (   0.0000000   0.0000000  10.0000000  )
         2           Ni1 tau(   2) = (  -1.3290275   2.3019431  10.0000000  )
         3           Ni1 tau(   3) = (   1.3290275   2.3019431  10.0000000  )
         4           Cd1 tau(   4) = (   2.6580549   0.0000000  10.0000000  )
         5           Ni1 tau(   5) = (   2.6580549   1.5346287  12.1702927  )
         6           Ni1 tau(   6) = (   1.3290275   3.8365718  12.1702927  )
         7           Ni1 tau(   7) = (  -1.3290275   3.8365718  12.1702927  )
         8           Cd1 tau(   8) = (   0.0000000   1.5346287  12.1702927  )
         9           Ni1 tau(   9) = (  -0.0000000   3.0692574  14.3405855  )
        10           Ni1 tau(  10) = (   1.3290275   0.7673144  14.3405855  )
        11           Ni1 tau(  11) = (   3.9870824   0.7673144  14.3405855  )
        12           Cd1 tau(  12) = (   2.6580549   3.0692574  14.3405855  )

     number of k points=    40  Fermi-Dirac smearing, width (Ry)=  0.0110
                       cart. coord. in units 2pi/alat
        k(    1) = (   0.0000000   0.0000000   0.0000000), wk =   0.0277778
        k(    2) = (   0.0000000   0.0362013   0.0000000), wk =   0.0555556
        k(    3) = (   0.0000000   0.0724026   0.0000000), wk =   0.0555556
        k(    4) = (   0.0000000  -0.1086039   0.0000000), wk =   0.0277778
        k(    5) = (   0.0313512   0.0181007   0.0000000), wk =   0.0555556
        k(    6) = (   0.0313512   0.0543020   0.0000000), wk =   0.0555556
        k(    7) = (   0.0313512   0.0905033   0.0000000), wk =   0.0555556
        k(    8) = (   0.0313512  -0.0905033   0.0000000), wk =   0.0555556
        k(    9) = (   0.0313512  -0.0543020   0.0000000), wk =   0.0555556
        k(   10) = (   0.0313512  -0.0181007   0.0000000), wk =   0.0555556
        k(   11) = (   0.0627025   0.0362013   0.0000000), wk =   0.0555556
        k(   12) = (   0.0627025   0.0724026   0.0000000), wk =   0.0555556
        k(   13) = (   0.0627025   0.1086039   0.0000000), wk =   0.0555556
        k(   14) = (   0.0627025  -0.0724026   0.0000000), wk =   0.0555556
        k(   15) = (   0.0627025  -0.0362013   0.0000000), wk =   0.0555556
        k(   16) = (   0.0627025   0.0000000   0.0000000), wk =   0.0555556
        k(   17) = (  -0.0940537  -0.0543020   0.0000000), wk =   0.0277778
        k(   18) = (  -0.0940537  -0.0181007   0.0000000), wk =   0.0555556
        k(   19) = (  -0.0940537   0.0181007   0.0000000), wk =   0.0555556
        k(   20) = (  -0.0940537  -0.1629059   0.0000000), wk =   0.0277778
        k(   21) = (   0.0000000   0.0000000   0.0000000), wk =   0.0277778
        k(   22) = (   0.0000000   0.0362013   0.0000000), wk =   0.0555556
        k(   23) = (   0.0000000   0.0724026   0.0000000), wk =   0.0555556
        k(   24) = (   0.0000000  -0.1086039   0.0000000), wk =   0.0277778
        k(   25) = (   0.0313512   0.0181007   0.0000000), wk =   0.0555556
        k(   26) = (   0.0313512   0.0543020   0.0000000), wk =   0.0555556
        k(   27) = (   0.0313512   0.0905033   0.0000000), wk =   0.0555556
        k(   28) = (   0.0313512  -0.0905033   0.0000000), wk =   0.0555556
        k(   29) = (   0.0313512  -0.0543020   0.0000000), wk =   0.0555556
        k(   30) = (   0.0313512  -0.0181007   0.0000000), wk =   0.0555556
        k(   31) = (   0.0627025   0.0362013   0.0000000), wk =   0.0555556
        k(   32) = (   0.0627025   0.0724026   0.0000000), wk =   0.0555556
        k(   33) = (   0.0627025   0.1086039   0.0000000), wk =   0.0555556
        k(   34) = (   0.0627025  -0.0724026   0.0000000), wk =   0.0555556
        k(   35) = (   0.0627025  -0.0362013   0.0000000), wk =   0.0555556
        k(   36) = (   0.0627025   0.0000000   0.0000000), wk =   0.0555556
        k(   37) = (  -0.0940537  -0.0543020   0.0000000), wk =   0.0277778
        k(   38) = (  -0.0940537  -0.0181007   0.0000000), wk =   0.0555556
        k(   39) = (  -0.0940537   0.0181007   0.0000000), wk =   0.0555556
        k(   40) = (  -0.0940537  -0.1629059   0.0000000), wk =   0.0277778

     Largest allocated arrays     est. size (Mb)     dimensions
     Largest temporary arrays     est. size (Mb)     dimensions

     Check: negative/imaginary core charge=   -0.000002    0.000000

     Initial potential from superposition of free atoms
     Check: negative starting charge=(component1):   -0.038209
     Check: negative starting charge=(component2):   -0.027324

     starting charge  178.49988, renormalised to  198.00000

     negative rho (up, down):  4.238E-02 3.031E-02

     *
     * You are using vdW-DF for exchange-correlation in this calculation.
     * Please cite the following three references that made this development
     * possible:
     *
     *   M. Dion, H. Rydberg, E. Schroder, D. C. Langreth, and
     *   B. I. Lundqvist, Phys. Rev. Lett. 92, 246401 (2004).
     *
     *   T. Thonhauser, V. R. Cooper, S. Li, A. Puzder, P. Hyldgaard, and
     *   D. C. Langreth, Phys. Rev. B 76, 125112 (2007).
     *
     *   G. Roman-Perez and J. M. Soler, Phys. Rev. Lett. 103, 096102 (2009).
     *
     *
     * If you are using vdW-DF2, please also cite:
     *
     *   K. Lee, E. D. Murray, L. Kong, B. I. Lundqvist, and
     *   D. C. Langreth, Phys. Rev. B 82, 081101(R) (2010).
     *
     *
     * If you are calculating the stress with vdW-DF, please also cite:
     *
     *   R. Sabatini, E. Kucukbenli, B. Kolb, T. Thonhauser, and
     *   S. de Gironcoli, J. Phys.: Condens. Matter 24, 424209 (2012).
     *

     Carrying out vdW-DF run using the following parameters:

     Nqs =      20    Nr_points =    1024   r_max =   100.000
     q_mesh =
               0.00001000     0.04494208     0.09755937     0.15916263
               0.23128650     0.31572767     0.41458969     0.53033537
               0.66584808     0.82450364     1.01025438     1.22772762
               1.48234092     1.78043706     2.12944203     2.53805004
               3.01644009     3.57652955     4.23227104     5.00000000

     Gradients computed in reciprocal space

     Adding external electric field

     Computed dipole along edir(3) :
        Dipole                0.0000 Ry au,          0.0000 Debye
        Dipole field          0.0000 Ry au

        Potential amp.       -0.0000 Ry
        Total length         44.8471 bohr

[...]

     Starting wfc are  144 randomized atomic wfcs

     Self-consistent Calculation

     iteration #  1     ecut=    36.75 Ry     beta=0.10
     Davidson diagonalization with overlap
     ethr =  1.00E-02,  avg # of iterations =  7.9

[...]

     Magnetic moment per site:
     atom:    1    charge:    9.8267    magn:    1.0414    constr:    0.0000
     atom:    2    charge:    9.8267    magn:    1.0414    constr:    0.0000
     atom:    3    charge:    9.8267    magn:    1.0414    constr:    0.0000
     atom:    4    charge:    2.4543    magn:    0.3787    constr:    0.0000
     atom:    5    charge:    9.8302    magn:    1.0422    constr:    0.0000
     atom:    6    charge:    9.8302    magn:    1.0422    constr:    0.0000
     atom:    7    charge:    9.8302    magn:    1.0422    constr:    0.0000
     atom:    8    charge:    2.4569    magn:    0.3789    constr:    0.0000
[...]
        k(    4) = (   0.0000000  -0.1086039   0.0000000), wk =   0.0277778
        k(    5) = (   0.0313512   0.0181007   0.0000000), wk =   0.0555556
        k(    6) = (   0.0313512   0.0543020   0.0000000), wk =   0.0555556
        k(    7) = (   0.0313512   0.0905033   0.0000000), wk =   0.0555556
        k(    8) = (   0.0313512  -0.0905033   0.0000000), wk =   0.0555556
        k(    9) = (   0.0313512  -0.0543020   0.0000000), wk =   0.0555556
        k(   10) = (   0.0313512  -0.0181007   0.0000000), wk =   0.0555556
        k(   11) = (   0.0627025   0.0362013   0.0000000), wk =   0.0555556
        k(   12) = (   0.0627025   0.0724026   0.0000000), wk =   0.0555556
        k(   13) = (   0.0627025   0.1086039   0.0000000), wk =   0.0555556
        k(   14) = (   0.0627025  -0.0724026   0.0000000), wk =   0.0555556
        k(   15) = (   0.0627025  -0.0362013   0.0000000), wk =   0.0555556
        k(   16) = (   0.0627025   0.0000000   0.0000000), wk =   0.0555556
        k(   17) = (  -0.0940537  -0.0543020   0.0000000), wk =   0.0277778
        k(   18) = (  -0.0940537  -0.0181007   0.0000000), wk =   0.0555556
        k(   19) = (  -0.0940537   0.0181007   0.0000000), wk =   0.0555556
        k(   20) = (  -0.0940537  -0.1629059   0.0000000), wk =   0.0277778
        k(   21) = (   0.0000000   0.0000000   0.0000000), wk =   0.0277778
        k(   22) = (   0.0000000   0.0362013   0.0000000), wk =   0.0555556
        k(   23) = (   0.0000000   0.0724026   0.0000000), wk =   0.0555556
        k(   24) = (   0.0000000  -0.1086039   0.0000000), wk =   0.0277778
        k(   25) = (   0.0313512   0.0181007   0.0000000), wk =   0.0555556
        k(   26) = (   0.0313512   0.0543020   0.0000000), wk =   0.0555556
        k(   27) = (   0.0313512   0.0905033   0.0000000), wk =   0.0555556
        k(   28) = (   0.0313512  -0.0905033   0.0000000), wk =   0.0555556
        k(   29) = (   0.0313512  -0.0543020   0.0000000), wk =   0.0555556
        k(   30) = (   0.0313512  -0.0181007   0.0000000), wk =   0.0555556
        k(   31) = (   0.0627025   0.0362013   0.0000000), wk =   0.0555556
        k(   32) = (   0.0627025   0.0724026   0.0000000), wk =   0.0555556
        k(   33) = (   0.0627025   0.1086039   0.0000000), wk =   0.0555556
        k(   34) = (   0.0627025  -0.0724026   0.0000000), wk =   0.0555556
        k(   35) = (   0.0627025  -0.0362013   0.0000000), wk =   0.0555556
        k(   36) = (   0.0627025   0.0000000   0.0000000), wk =   0.0555556
        k(   37) = (  -0.0940537  -0.0543020   0.0000000), wk =   0.0277778
        k(   38) = (  -0.0940537  -0.0181007   0.0000000), wk =   0.0555556
        k(   39) = (  -0.0940537   0.0181007   0.0000000), wk =   0.0555556
        k(   40) = (  -0.0940537  -0.1629059   0.0000000), wk =   0.0277778

     Largest allocated arrays     est. size (Mb)     dimensions
     Largest temporary arrays     est. size (Mb)     dimensions

     Check: negative/imaginary core charge=   -0.000002    0.000000

     Initial potential from superposition of free atoms
     Check: negative starting charge=(component1):   -0.038408
     Check: negative starting charge=(component2):   -0.027465

     starting charge  178.49988, renormalised to  198.00000

[...]

     *
     * You are using vdW-DF for exchange-correlation in this calculation.
     * Please cite the following three references that made this development
     * possible:
     *
     *   M. Dion, H. Rydberg, E. Schroder, D. C. Langreth, and
     *   B. I. Lundqvist, Phys. Rev. Lett. 92, 246401 (2004).
     *
     *   T. Thonhauser, V. R. Cooper, S. Li, A. Puzder, P. Hyldgaard, and
     *   D. C. Langreth, Phys. Rev. B 76, 125112 (2007).
     *
     *   G. Roman-Perez and J. M. Soler, Phys. Rev. Lett. 103, 096102 (2009).
     *
     *
     * If you are using vdW-DF2, please also cite:
     *
     *   K. Lee, E. D. Murray, L. Kong, B. I. Lundqvist, and
     *   D. C. Langreth, Phys. Rev. B 82, 081101(R) (2010).
     *
     *
     * If you are calculating the stress with vdW-DF, please also cite:
     *
     *   R. Sabatini, E. Kucukbenli, B. Kolb, T. Thonhauser, and
     *   S. de Gironcoli, J. Phys.: Condens. Matter 24, 424209 (2012).
     *

     Carrying out vdW-DF run using the following parameters:

     Nqs =      20    Nr_points =    1024   r_max =   100.000
     q_mesh =
               0.00001000     0.04494208     0.09755937     0.15916263
               0.23128650     0.31572767     0.41458969     0.53033537
               0.66584808     0.82450364     1.01025438     1.22772762
               1.48234092     1.78043706     2.12944203     2.53805004
               3.01644009     3.57652955     4.23227104     5.00000000

     Gradients computed in reciprocal space

[...]

     Starting wfc are  144 randomized atomic wfcs

     Self-consistent Calculation

[...]

     total energy              =   -3447.91562651 Ry
     Harris-Foulkes estimate   =   -3447.91562606 Ry
     estimated scf accuracy    <       0.00000172 Ry

[...]

     iteration # 42     ecut=    36.75 Ry     beta=0.10
     Davidson diagonalization with overlap
     ethr =  8.68E-10,  avg # of iterations =  1.0

[...]

     negative rho (up, down):  3.475E-02 3.476E-02

[...]

     Adding external electric field

     Computed dipole along edir(3) :
        Dipole                0.0305 Ry au,          0.0775 Debye
        Dipole field          0.0001 Ry au

        Potential amp.       -0.0085 Ry
        Total length         44.8471 bohr

     Magnetic moment per site:
     atom:    1    charge:    9.3538    magn:    0.2354    constr:    0.0000
     atom:    2    charge:    9.3537    magn:    0.2355    constr:    0.0000
     atom:    3    charge:    9.3537    magn:    0.2355    constr:    0.0000
     atom:    4    charge:    2.2924    magn:   -0.0006    constr:    0.0000
     atom:    5    charge:    9.3533    magn:    0.2606    constr:    0.0000
     atom:    6    charge:    9.3530    magn:    0.2608    constr:    0.0000
     atom:    7    charge:    9.3531    magn:    0.2607    constr:    0.0000
     atom:    8    charge:    2.2968    magn:   -0.0016    constr:    0.0000
     atom:    9    charge:    9.3528    magn:    0.2429    constr:    0.0000
     atom:   10    charge:    9.3528    magn:    0.2429    constr:    0.0000
     atom:   11    charge:    9.3527    magn:    0.2429    constr:    0.0000
     atom:   12    charge:    2.2937    magn:   -0.0005    constr:    0.0000

     End of self-consistent calculation

 ------ SPIN UP ------------

[...]

 ------ SPIN DOWN ----------

[...]

          k = 0.0627 0.0000 0.0000 ( 15136 PWs)   bands (ev):

[...]

          k =-0.0941-0.1629 0.0000 ( 15114 PWs)   bands (ev):

  -102.0822-102.0794-102.0775-101.9748-101.9684-101.9671-101.8993-101.8969
  -101.8948 -62.5223 -62.5134 -62.5111 -62.5090 -62.5078 -62.5005 -62.4540
   -62.4409 -62.4347 -62.4191 -62.4153 -62.4123 -62.3918 -62.3838 -62.3700
   -62.3694 -62.3522 -62.3483 -62.3470 -62.3360 -62.3118 -62.3116 -62.3080
   -62.3060 -62.2182 -62.2157 -62.2135  -8.3288  -8.2467  -8.2090  -8.1880
    -8.1702  -8.0947  -8.0189  -8.0048  -7.9755  -7.9544  -7.9173  -7.8893
    -7.8628  -7.8513  -7.7757  -5.6430  -5.4342  -3.8069  -3.7302  -2.7901
    -2.6899  -2.4563  -2.0469  -1.7196  -1.5687  -1.4705  -1.4653  -1.4262
    -1.3786  -1.2930  -1.2680  -1.1080  -1.0463  -1.0119  -1.0083  -0.9672
    -0.8467  -0.7992  -0.7555  -0.7500  -0.6904  -0.6013  -0.5656  -0.4852
    -0.4390  -0.3887  -0.3749  -0.3209  -0.1971  -0.1415  -0.0695  -0.0678
    -0.0413  -0.0270   0.0313   0.0719   0.0762   0.0770   0.1816   0.2503
     0.3026   0.4363   0.5925   0.7412   0.9638   1.3277   1.4239   1.7207
     2.1257   2.3192   3.3167   3.6362   4.2161   4.4584   5.7886   5.9523
     6.5023   6.5536   6.7558   6.8508   7.0290   7.2225   7.6210   7.6258
     7.7793   7.8335   7.8793   7.9099   8.1947   8.3222   8.9751   9.1335
     9.3751

     the Fermi energy is     0.5301 ev

!    total energy              =   -3447.91562796 Ry
     Harris-Foulkes estimate   =   -3447.91562633 Ry
     estimated scf accuracy    <       0.00000087 Ry

     The total energy is the sum of the following terms:

     one-electron contribution =  -26074.29761739 Ry
     hartree contribution      =   13070.98432137 Ry
     xc contribution           =    -453.61914283 Ry
     ewald contribution        =   10009.11056982 Ry
     electric field correction =       0.00000291 Ry
     smearing contrib. (-TS)   =      -0.09376183 Ry

     total magnetization       =     3.47 Bohr mag/cell
     absolute magnetization    =     4.25 Bohr mag/cell

     convergence has been achieved in  42 iterations

 BEEF-vdW xc energy contributions
           1 :   -399.093825353495
           2 :    362.613218171732
           3 :   -301.232504424457
           4 :    232.696113047364
           5 :   -173.268861765374
           6 :    131.776834651117
           7 :   -107.974266358656
           8 :    95.3171306425439
           9 :   -85.9838452099167
          10 :    75.1364068417396
          11 :   -62.3831741542619
          12 :    50.3209148821211
          13 :   -41.7301471181115
          14 :    37.4263279420282
          15 :   -35.9488055386961
          16 :    34.8594375737497
          17 :   -32.4596365707159
          18 :    28.6935247332904
          19 :   -24.7919449972178
          20 :    22.1181092799403
          21 :   -21.1404861938745
          22 :    21.2063964039447
          23 :   -21.1470023381731
          24 :    20.1585005231834
          25 :   -18.3055791244772
          26 :    16.3408655007080
          27 :   -15.0650002830656
          28 :    14.7365010128096
          29 :   -14.9494564018710
          30 :    15.0055596941388
          31 :   -33.8218357562927
          32 :   -23.9262079496536

     Forces acting on atoms (Ry/au):

     negative rho (up, down):  3.475E-02 3.476E-02
     atom    1 type  1   force =    -0.00004048   -0.01404653    0.01421533
     atom    2 type  1   force =    -0.01212061    0.00703143    0.01413637
     atom    3 type  1   force =     0.01211604    0.00707607    0.01418421
     atom    4 type  2   force =     0.00001924   -0.00003070   -0.03877628
     atom    5 type  1   force =     0.00001926    0.01432054    0.00269029
     atom    6 type  1   force =     0.01236995   -0.00715131    0.00270923
     atom    7 type  1   force =    -0.01237833   -0.00717814    0.00270066
     atom    8 type  2   force =    -0.00001472    0.00000938   -0.01354189
     atom    9 type  1   force =     0.00000289    0.00068424    0.00060740
     atom   10 type  1   force =     0.00050760   -0.00036986    0.00071579
     atom   11 type  1   force =    -0.00052280   -0.00038206    0.00064121
     atom   12 type  2   force =     0.00004197    0.00003693   -0.00028233

     Total force =     0.059322     Total SCF correction =     0.002014

     entering subroutine stress ...

     negative rho (up, down):  3.475E-02 3.476E-02
          total   stress  (Ry/bohr**3)                   (kbar)     P=  -52.16
  -0.00038091   0.00000000   0.00000001        -56.03      0.00      0.00
   0.00000000  -0.00038088   0.00000001          0.00    -56.03      0.00
   0.00000001   0.00000001  -0.00030193          0.00      0.00    -44.42

 !ASE

     Writing output data file calc.save

     General routines

     Parallel routines

   This run was terminated on:   6:57:21  31Dec2018

   JOB DONE.
Job  /afs/slac/g/suncat/bin/suncat-tsmpirun -x LD_LIBRARY_PATH -wdir /scratch/qe648651_CR5TI pw.x -in pw.inp

TID   HOST_NAME   COMMAND_LINE            STATUS            TERMINATION_TIME
00000 suncat0141 pw.x -in pw.inp   Done                     12/31/2018 06:57:21
00001 suncat0141 pw.x -in pw.inp   Done                     12/31/2018 06:57:21
00002 suncat0141 pw.x -in pw.inp   Done                     12/31/2018 06:57:21
00003 suncat0141 pw.x -in pw.inp   Done                     12/31/2018 06:57:21
00004 suncat0141 pw.x -in pw.inp   Done                     12/31/2018 06:57:21
00005 suncat0141 pw.x -in pw.inp   Done                     12/31/2018 06:57:21
00006 suncat0141 pw.x -in pw.inp   Done                     12/31/2018 06:57:21
00007 suncat0141 pw.x -in pw.inp   Done                     12/31/2018 06:57:21
00008 suncat0140 pw.x -in pw.inp   Done                     12/31/2018 06:57:21
00009 suncat0140 pw.x -in pw.inp   Done                     12/31/2018 06:57:21
00010 suncat0140 pw.x -in pw.inp   Done                     12/31/2018 06:57:21
00011 suncat0140 pw.x -in pw.inp   Done                     12/31/2018 06:57:21
00012 suncat0140 pw.x -in pw.inp   Done                     12/31/2018 06:57:21
00013 suncat0140 pw.x -in pw.inp   Done                     12/31/2018 06:57:21
00014 suncat0140 pw.x -in pw.inp   Done                     12/31/2018 06:57:21
00015 suncat0140 pw.x -in pw.inp   Done                     12/31/2018 06:57:21
00016 suncat0135 pw.x -in pw.inp   Done                     12/31/2018 06:57:21
00017 suncat0135 pw.x -in pw.inp   Done                     12/31/2018 06:57:21
00018 suncat0135 pw.x -in pw.inp   Done                     12/31/2018 06:57:21
00019 suncat0135 pw.x -in pw.inp   Done                     12/31/2018 06:57:21
00020 suncat0135 pw.x -in pw.inp   Done                     12/31/2018 06:57:21
00021 suncat0135 pw.x -in pw.inp   Done                     12/31/2018 06:57:21
00022 suncat0135 pw.x -in pw.inp   Done                     12/31/2018 06:57:21
00023 suncat0135 pw.x -in pw.inp   Done                     12/31/2018 06:57:21
00024 suncat0134 pw.x -in pw.inp   Done                     12/31/2018 06:57:21
00025 suncat0134 pw.x -in pw.inp   Done                     12/31/2018 06:57:21
00026 suncat0134 pw.x -in pw.inp   Done                     12/31/2018 06:57:21
00027 suncat0134 pw.x -in pw.inp   Done                     12/31/2018 06:57:21
00028 suncat0134 pw.x -in pw.inp   Done                     12/31/2018 06:57:21
00029 suncat0134 pw.x -in pw.inp   Done                     12/31/2018 06:57:21
00030 suncat0134 pw.x -in pw.inp   Done                     12/31/2018 06:57:21
00031 suncat0134 pw.x -in pw.inp   Done                     12/31/2018 06:57:21
00032 suncat0272 pw.x -in pw.inp   Done                     12/31/2018 06:57:21
00033 suncat0272 pw.x -in pw.inp   Done                     12/31/2018 06:57:21
00034 suncat0272 pw.x -in pw.inp   Done                     12/31/2018 06:57:21
00035 suncat0272 pw.x -in pw.inp   Done                     12/31/2018 06:57:21
00036 suncat0272 pw.x -in pw.inp   Done                     12/31/2018 06:57:21
00037 suncat0272 pw.x -in pw.inp   Done                     12/31/2018 06:57:21
00038 suncat0272 pw.x -in pw.inp   Done                     12/31/2018 06:57:21
00039 suncat0272 pw.x -in pw.inp   Done                     12/31/2018 06:57:21
00040 suncat0262 pw.x -in pw.inp   Done                     12/31/2018 06:57:21
00041 suncat0262 pw.x -in pw.inp   Done                     12/31/2018 06:57:21
00042 suncat0262 pw.x -in pw.inp   Done                     12/31/2018 06:57:21
00043 suncat0262 pw.x -in pw.inp   Done                     12/31/2018 06:57:21
00044 suncat0262 pw.x -in pw.inp   Done                     12/31/2018 06:57:21
00045 suncat0262 pw.x -in pw.inp   Done                     12/31/2018 06:57:21
00046 suncat0262 pw.x -in pw.inp   Done                     12/31/2018 06:57:21
00047 suncat0262 pw.x -in pw.inp   Done                     12/31/2018 06:57:21
00048 suncat0258 pw.x -in pw.inp   Done                     12/31/2018 06:57:21
00049 suncat0258 pw.x -in pw.inp   Done                     12/31/2018 06:57:21
00050 suncat0258 pw.x -in pw.inp   Done                     12/31/2018 06:57:21
00051 suncat0258 pw.x -in pw.inp   Done                     12/31/2018 06:57:21
00052 suncat0258 pw.x -in pw.inp   Done                     12/31/2018 06:57:21
00053 suncat0258 pw.x -in pw.inp   Done                     12/31/2018 06:57:21
00054 suncat0258 pw.x -in pw.inp   Done                     12/31/2018 06:57:21
00055 suncat0258 pw.x -in pw.inp   Done                     12/31/2018 06:57:21
00056 suncat0257 pw.x -in pw.inp   Done                     12/31/2018 06:57:21
00057 suncat0257 pw.x -in pw.inp   Done                     12/31/2018 06:57:21
00058 suncat0257 pw.x -in pw.inp   Done                     12/31/2018 06:57:21
00059 suncat0257 pw.x -in pw.inp   Done                     12/31/2018 06:57:21
00060 suncat0257 pw.x -in pw.inp   Done                     12/31/2018 06:57:21
00061 suncat0257 pw.x -in pw.inp   Done                     12/31/2018 06:57:21
00062 suncat0257 pw.x -in pw.inp   Done                     12/31/2018 06:57:21
00063 suncat0257 pw.x -in pw.inp   Done                     12/31/2018 06:57:21