     Program PWSCF v.5.1rc2 (svn rev. 11289) starts on 27Dec2018 at  6: 8:23

     Current dimensions of program PWSCF are:
     Max number of different atomic species (ntypx) = 10
     Max number of k-points (npk) =  40000
     Max angular momentum in pseudopotentials (lmaxx) =  3
     Presently stress not available with electric field

     IMPORTANT: XC functional enforced from input :
     Exchange-correlation      = BEEF-VDW ( 1  4 27 13 2)
     Any further DFT definition will be discarded
     Please, verify this is what you really want

     Subspace diagonalization in iterative solution of the eigenvalue problem:
     a serial algorithm will be used

     bravais-lattice index     =            0
     lattice parameter (alat)  =       1.8897  a.u.
     unit-cell volume          =    4929.8716 (a.u.)^3
     number of atoms/cell      =           12
     number of atomic types    =            2
     number of electrons       =       165.00
     number of Kohn-Sham states=          112
     kinetic-energy cutoff     =      36.7493  Ry
     charge density cutoff     =     367.4932  Ry
     convergence threshold     =      1.0E-06
     mixing beta               =       0.1000
     number of iterations used =           10  plain     mixing
     Exchange-correlation      = BEEF-VDW ( 1  4 27 13 2)
     nstep                     =           50

     celldm(1)=   1.889726  celldm(2)=   0.000000  celldm(3)=   0.000000
     celldm(4)=   0.000000  celldm(5)=   0.000000  celldm(6)=   0.000000

     crystal axes: (cart. coord. in units of alat)
               a(1) = (   5.836234   0.000000   0.000000 )
               a(2) = (  -2.918117   5.054327   0.000000 )
               a(3) = (   0.000000   0.000000  24.765265 )

     reciprocal axes: (cart. coord. in units 2 pi/alat)
               b(1) = (  0.171343  0.098925  0.000000 )
               b(2) = (  0.000000  0.197850  0.000000 )
               b(3) = (  0.000000  0.000000  0.040379 )

     PseudoPot. # 1 for Nb read from file:
     /afs/slac.stanford.edu/u/if/mamunm/psp/gbrv1.5pbe/Nb.UPF
     MD5 check sum: 573aab8a2fa660278ed4a62cd769473f
     Pseudo is Ultrasoft + core correction, Zval = 13.0
     Generated by new atomic code, or converted to UPF format
     Using radial grid of  887 points,  6 beta functions with:
                l(1) =   0
                l(2) =   0
                l(3) =   1
                l(4) =   1
                l(5) =   2
                l(6) =   2
     Q(r) pseudized with  6 coefficients,  rinner =    1.000   1.000   1.000
                                                       1.000   1.000

     PseudoPot. # 2 for Pt read from file:
     /afs/slac.stanford.edu/u/if/mamunm/psp/gbrv1.5pbe/Pt.UPF
     MD5 check sum: f09d6de1a584b5a045c4fc126da2d0c4
     Pseudo is Ultrasoft + core correction, Zval = 16.0
     Generated by new atomic code, or converted to UPF format
     Using radial grid of  985 points,  6 beta functions with:
                l(1) =   0
                l(2) =   0
                l(3) =   1
                l(4) =   1
                l(5) =   2
                l(6) =   2
     Q(r) pseudized with  8 coefficients,  rinner =    1.300   1.300   1.300
                                                       1.300   1.300

     vdW kernel table read from file vdW_kernel_table
     MD5 check sum: 095c7af220d748ca6e76c0b4c6cfb241

     atomic species   valence    mass     pseudopotential
        Nb1           13.00    92.90637     Nb( 1.00)
        Pt1           16.00   195.08400     Pt( 1.00)

     No symmetry found

   Cartesian axes

     site n.     atom                  positions (alat units)
         1           Nb1 tau(   1) = (   0.0000000   0.0000000  10.0000000  )
         2           Nb1 tau(   2) = (  -1.4590585   2.5271635  10.0000000  )
         3           Nb1 tau(   3) = (   1.4590585   2.5271635  10.0000000  )
         4           Pt1 tau(   4) = (   2.9181170   0.0000000  10.0000000  )
         5           Nb1 tau(   5) = (   2.9181170   1.6847756  12.3826326  )
         6           Nb1 tau(   6) = (   1.4590585   4.2119391  12.3826326  )
         7           Nb1 tau(   7) = (  -1.4590585   4.2119391  12.3826326  )
         8           Pt1 tau(   8) = (   0.0000000   1.6847756  12.3826326  )
         9           Nb1 tau(   9) = (  -0.0000000   3.3695513  14.7652651  )
        10           Nb1 tau(  10) = (   1.4590585   0.8423878  14.7652651  )
        11           Nb1 tau(  11) = (   4.3771755   0.8423878  14.7652651  )
        12           Pt1 tau(  12) = (   2.9181170   3.3695513  14.7652651  )

     number of k points=    20  Fermi-Dirac smearing, width (Ry)=  0.0110
                       cart. coord. in units 2pi/alat
        k(    1) = (   0.0000000   0.0000000   0.0000000), wk =   0.0555556
        k(    2) = (   0.0000000   0.0329750   0.0000000), wk =   0.1111111
        k(    3) = (   0.0000000   0.0659501   0.0000000), wk =   0.1111111
        k(    4) = (   0.0000000  -0.0989251   0.0000000), wk =   0.0555556
        k(    5) = (   0.0285572   0.0164875   0.0000000), wk =   0.1111111
        k(    6) = (   0.0285572   0.0494626   0.0000000), wk =   0.1111111
        k(    7) = (   0.0285572   0.0824376   0.0000000), wk =   0.1111111
        k(    8) = (   0.0285572  -0.0824376   0.0000000), wk =   0.1111111
        k(    9) = (   0.0285572  -0.0494626   0.0000000), wk =   0.1111111
        k(   10) = (   0.0285572  -0.0164875   0.0000000), wk =   0.1111111
        k(   11) = (   0.0571145   0.0329750   0.0000000), wk =   0.1111111
        k(   12) = (   0.0571145   0.0659501   0.0000000), wk =   0.1111111
        k(   13) = (   0.0571145   0.0989251   0.0000000), wk =   0.1111111
        k(   14) = (   0.0571145  -0.0659501   0.0000000), wk =   0.1111111
        k(   15) = (   0.0571145  -0.0329750   0.0000000), wk =   0.1111111
        k(   16) = (   0.0571145   0.0000000   0.0000000), wk =   0.1111111
        k(   17) = (  -0.0856717  -0.0494626   0.0000000), wk =   0.0555556
        k(   18) = (  -0.0856717  -0.0164875   0.0000000), wk =   0.1111111
        k(   19) = (  -0.0856717   0.0164875   0.0000000), wk =   0.1111111
        k(   20) = (  -0.0856717  -0.1483877   0.0000000), wk =   0.0555556

     Largest allocated arrays     est. size (Mb)     dimensions
     Largest temporary arrays     est. size (Mb)     dimensions

     Initial potential from superposition of free atoms
     Check: negative starting charge=   -0.548363

     starting charge  163.47537, renormalised to  165.00000

     negative rho (up, down):  5.535E-01 0.000E+00

     *
     * You are using vdW-DF for exchange-correlation in this calculation.
     * Please cite the following three references that made this development
     * possible:
     *
     *   M. Dion, H. Rydberg, E. Schroder, D. C. Langreth, and
     *   B. I. Lundqvist, Phys. Rev. Lett. 92, 246401 (2004).
     *
     *   T. Thonhauser, V. R. Cooper, S. Li, A. Puzder, P. Hyldgaard, and
     *   D. C. Langreth, Phys. Rev. B 76, 125112 (2007).
     *
     *   G. Roman-Perez and J. M. Soler, Phys. Rev. Lett. 103, 096102 (2009).
     *
     *
     * If you are using vdW-DF2, please also cite:
     *
     *   K. Lee, E. D. Murray, L. Kong, B. I. Lundqvist, and
     *   D. C. Langreth, Phys. Rev. B 82, 081101(R) (2010).
     *
     *
     * If you are calculating the stress with vdW-DF, please also cite:
     *
     *   R. Sabatini, E. Kucukbenli, B. Kolb, T. Thonhauser, and
     *   S. de Gironcoli, J. Phys.: Condens. Matter 24, 424209 (2012).
     *

     Carrying out vdW-DF run using the following parameters:

     Nqs =      20    Nr_points =    1024   r_max =   100.000
     q_mesh =
               0.00001000     0.04494208     0.09755937     0.15916263
               0.23128650     0.31572767     0.41458969     0.53033537
               0.66584808     0.82450364     1.01025438     1.22772762
               1.48234092     1.78043706     2.12944203     2.53805004
               3.01644009     3.57652955     4.23227104     5.00000000

     Gradients computed in reciprocal space

     Adding external electric field

     Computed dipole along edir(3) :
        Dipole                0.0000 Ry au,          0.0000 Debye
        Dipole field          0.0000 Ry au

        Potential amp.       -0.0000 Ry
        Total length         45.6296 bohr

     Starting wfc are  153 randomized atomic wfcs

     Self-consistent Calculation

     iteration #  1     ecut=    36.75 Ry     beta=0.10
     Davidson diagonalization with overlap
     ethr =  1.00E-02,  avg # of iterations =  2.0

[...]

     total energy              =   -1704.07582072 Ry
     Harris-Foulkes estimate   =   -1704.69824560 Ry
     estimated scf accuracy    <       4.09424762 Ry

[...]

     End of self-consistent calculation

          k = 0.0000 0.0000 0.0000 ( 18535 PWs)   bands (ev):

   -53.0204 -53.0034 -52.8877 -52.8877 -52.8835 -52.8835 -52.8261 -52.7177
   -52.7177 -51.0322 -50.9923 -50.9923 -50.6366 -50.6366 -50.6362 -50.6362
   -50.6013 -50.5997 -29.5262 -29.4150 -29.3594 -29.2973 -29.2615 -29.2615
   -29.2343 -29.2343 -29.1494 -29.1494 -29.1301 -29.0072 -29.0072 -28.8753
   -28.8753 -28.7486 -28.6873 -28.6018 -28.5997 -28.5997 -28.4943 -28.4674
   -28.4674 -28.4604 -28.4604 -28.3764 -28.3764  -4.4054  -3.1293  -2.9170
    -2.6361  -2.6361  -2.2984  -2.2984  -2.2615  -2.0844  -2.0355  -2.0355
    -1.9314  -1.9314  -1.7385  -1.1585  -1.1168  -1.1168  -0.8242  -0.8242
    -0.5824   0.2414   0.2682   0.7309   1.1567   1.1567   1.3167   1.3167
     1.5540   1.5540   1.6286   1.8665   1.8665   1.8694   2.0446   2.0446
     2.4813   2.4813   2.6068   2.6596   2.6596   2.8385   2.9574   3.2706
     3.2706   3.5816   4.1366   4.1979   4.1979   4.5610   4.7650   4.7650
     4.7756   4.7756   5.2704   5.2704   5.4562   5.4562   5.5785   5.5785
     5.7067   5.7067   5.8755   5.9942   5.9942   6.0345   6.1166   6.2891

[...]

          k =-0.0857-0.0495 0.0000 ( 18584 PWs)   bands (ev):

[...]

     the Fermi energy is     2.1953 ev

!    total energy              =   -1703.94627624 Ry
     Harris-Foulkes estimate   =   -1703.94626260 Ry
     estimated scf accuracy    <       0.00000026 Ry

     The total energy is the sum of the following terms:

     one-electron contribution =  -13444.54078448 Ry
     hartree contribution      =    6726.29822389 Ry
     xc contribution           =    -347.06132725 Ry
     ewald contribution        =    5361.45508286 Ry
     electric field correction =       0.00000000 Ry
     smearing contrib. (-TS)   =      -0.09747126 Ry

     convergence has been achieved in  17 iterations

 BEEF-vdW xc energy contributions
           1 :   -303.307402425295
           2 :    279.295597755378
           3 :   -237.290682355027
           4 :    186.912477971467
           5 :   -137.985909409263
           6 :    97.5658506576410
           7 :   -68.4920822098034
           8 :    49.6805334362215
           9 :   -37.6871575712561
          10 :    28.6613981034401
          11 :   -19.8960312067201
          12 :    10.4878875153329
          13 :   -1.09011934650852
          14 :   -6.93669009884962
          15 :    12.4691986939386
[...]

     PseudoPot. # 1 for Nb read from file:
     /afs/slac.stanford.edu/u/if/mamunm/psp/gbrv1.5pbe/Nb.UPF
     MD5 check sum: 573aab8a2fa660278ed4a62cd769473f
     Pseudo is Ultrasoft + core correction, Zval = 13.0
     Generated by new atomic code, or converted to UPF format
     Using radial grid of  887 points,  6 beta functions with:
                l(1) =   0
                l(2) =   0
                l(3) =   1
                l(4) =   1
                l(5) =   2
                l(6) =   2
     Q(r) pseudized with  6 coefficients,  rinner =    1.000   1.000   1.000
                                                       1.000   1.000

     PseudoPot. # 2 for Pt read from file:
     /afs/slac.stanford.edu/u/if/mamunm/psp/gbrv1.5pbe/Pt.UPF
     MD5 check sum: f09d6de1a584b5a045c4fc126da2d0c4
     Pseudo is Ultrasoft + core correction, Zval = 16.0
     Generated by new atomic code, or converted to UPF format
     Using radial grid of  985 points,  6 beta functions with:
                l(1) =   0
                l(2) =   0
                l(3) =   1
                l(4) =   1
                l(5) =   2
                l(6) =   2
     Q(r) pseudized with  8 coefficients,  rinner =    1.300   1.300   1.300
                                                       1.300   1.300

     vdW kernel table read from file vdW_kernel_table
     MD5 check sum: 095c7af220d748ca6e76c0b4c6cfb241

     atomic species   valence    mass     pseudopotential
        Nb1           13.00    92.90637     Nb( 1.00)
        Pt1           16.00   195.08400     Pt( 1.00)

     No symmetry found

   Cartesian axes

     site n.     atom                  positions (alat units)
         1           Nb1 tau(   1) = (   0.0000000   0.0000000  10.0000000  )
         2           Nb1 tau(   2) = (  -1.4590585   2.5271635  10.0000000  )
         3           Nb1 tau(   3) = (   1.4590585   2.5271635  10.0000000  )
         4           Pt1 tau(   4) = (   2.9181170   0.0000000  10.0000000  )
         5           Nb1 tau(   5) = (   2.9181170   1.6847756  12.3826326  )
         6           Nb1 tau(   6) = (   1.4590585   4.2119391  12.3826326  )
         7           Nb1 tau(   7) = (  -1.4590585   4.2119391  12.3826326  )
         8           Pt1 tau(   8) = (   0.0000000   1.6847756  12.3826326  )
         9           Nb1 tau(   9) = (  -0.0000004   3.3276317  14.7030077  )
        10           Nb1 tau(  10) = (   1.4227546   0.8633470  14.7030083  )
        11           Nb1 tau(  11) = (   4.4134777   0.8633474  14.7030086  )
        12           Pt1 tau(  12) = (   2.9181150   3.3695511  14.7093541  )

     number of k points=    20  Fermi-Dirac smearing, width (Ry)=  0.0110
                       cart. coord. in units 2pi/alat
        k(    1) = (   0.0000000   0.0000000   0.0000000), wk =   0.0555556
        k(    2) = (   0.0000000   0.0329750   0.0000000), wk =   0.1111111
        k(    3) = (   0.0000000   0.0659501   0.0000000), wk =   0.1111111
        k(    4) = (   0.0000000  -0.0989251   0.0000000), wk =   0.0555556
        k(    5) = (   0.0285572   0.0164875   0.0000000), wk =   0.1111111
        k(    6) = (   0.0285572   0.0494626   0.0000000), wk =   0.1111111
        k(    7) = (   0.0285572   0.0824376   0.0000000), wk =   0.1111111
        k(    8) = (   0.0285572  -0.0824376   0.0000000), wk =   0.1111111
        k(    9) = (   0.0285572  -0.0494626   0.0000000), wk =   0.1111111
        k(   10) = (   0.0285572  -0.0164875   0.0000000), wk =   0.1111111
        k(   11) = (   0.0571145   0.0329750   0.0000000), wk =   0.1111111
        k(   12) = (   0.0571145   0.0659501   0.0000000), wk =   0.1111111
        k(   13) = (   0.0571145   0.0989251   0.0000000), wk =   0.1111111
        k(   14) = (   0.0571145  -0.0659501   0.0000000), wk =   0.1111111
        k(   15) = (   0.0571145  -0.0329750   0.0000000), wk =   0.1111111
        k(   16) = (   0.0571145   0.0000000   0.0000000), wk =   0.1111111
        k(   17) = (  -0.0856717  -0.0494626   0.0000000), wk =   0.0555556
        k(   18) = (  -0.0856717  -0.0164875   0.0000000), wk =   0.1111111
        k(   19) = (  -0.0856717   0.0164875   0.0000000), wk =   0.1111111
        k(   20) = (  -0.0856717  -0.1483877   0.0000000), wk =   0.0555556

     Largest allocated arrays     est. size (Mb)     dimensions
     Largest temporary arrays     est. size (Mb)     dimensions

     Initial potential from superposition of free atoms
     Check: negative starting charge=   -0.548175

     starting charge  163.47537, renormalised to  165.00000

[...]

     *
     * You are using vdW-DF for exchange-correlation in this calculation.
     * Please cite the following three references that made this development
     * possible:
     *
     *   M. Dion, H. Rydberg, E. Schroder, D. C. Langreth, and
     *   B. I. Lundqvist, Phys. Rev. Lett. 92, 246401 (2004).
     *
     *   T. Thonhauser, V. R. Cooper, S. Li, A. Puzder, P. Hyldgaard, and
     *   D. C. Langreth, Phys. Rev. B 76, 125112 (2007).
     *
     *   G. Roman-Perez and J. M. Soler, Phys. Rev. Lett. 103, 096102 (2009).
     *
     *
     * If you are using vdW-DF2, please also cite:
     *
     *   K. Lee, E. D. Murray, L. Kong, B. I. Lundqvist, and
     *   D. C. Langreth, Phys. Rev. B 82, 081101(R) (2010).
     *
     *
     * If you are calculating the stress with vdW-DF, please also cite:
     *
     *   R. Sabatini, E. Kucukbenli, B. Kolb, T. Thonhauser, and
     *   S. de Gironcoli, J. Phys.: Condens. Matter 24, 424209 (2012).
     *

     Carrying out vdW-DF run using the following parameters:

     Nqs =      20    Nr_points =    1024   r_max =   100.000
     q_mesh =
               0.00001000     0.04494208     0.09755937     0.15916263
               0.23128650     0.31572767     0.41458969     0.53033537
               0.66584808     0.82450364     1.01025438     1.22772762
               1.48234092     1.78043706     2.12944203     2.53805004
               3.01644009     3.57652955     4.23227104     5.00000000

     Gradients computed in reciprocal space

[...]

     Starting wfc are  153 randomized atomic wfcs

     Self-consistent Calculation

[...]

     total energy              =   -1703.95737216 Ry
     Harris-Foulkes estimate   =   -1703.95736622 Ry
     estimated scf accuracy    <       0.00000216 Ry

     iteration # 16     ecut=    36.75 Ry     beta=0.10
     Davidson diagonalization with overlap
     ethr =  1.31E-09,  avg # of iterations =  2.1

[...]

     negative rho (up, down):  5.222E-01 0.000E+00

     Adding external electric field

     Computed dipole along edir(3) :
        Dipole                0.0135 Ry au,          0.0344 Debye
        Dipole field          0.0000 Ry au

        Potential amp.       -0.0031 Ry
        Total length         45.6296 bohr

     End of self-consistent calculation

[...]

          k = 0.0571 0.0000 0.0000 ( 18535 PWs)   bands (ev):

[...]

          k =-0.0857-0.1484 0.0000 ( 18584 PWs)   bands (ev):

   -52.9671 -52.9324 -52.9250 -52.8826 -52.8819 -52.8382 -52.7496 -52.7180
   -52.6806 -51.0914 -51.0383 -51.0365 -50.6638 -50.6623 -50.6329 -50.6246
   -50.6231 -50.5870 -29.3297 -29.3184 -29.2618 -29.1950 -29.1557 -29.1322
   -29.0891 -29.0887 -29.0247 -29.0156 -28.9855 -28.9706 -28.9358 -28.8948
   -28.8736 -28.8570 -28.8392 -28.8018 -28.6974 -28.6947 -28.6680 -28.5146
   -28.5145 -28.5014 -28.4734 -28.4519 -28.3526  -3.1569  -2.7684  -2.2312
    -2.1169  -2.0137  -1.8686  -1.6694  -1.6297  -1.6213  -1.4482  -1.3954
    -1.1938  -1.1892  -1.0308  -1.0024  -0.9216  -0.8542  -0.6686  -0.6073
    -0.4898  -0.4666  -0.1764   0.4399   0.4713   0.4942   0.7713   1.0511
     1.1716   1.2034   1.2506   1.4259   1.5509   1.5640   1.6001   1.6756
     1.7772   1.8464   1.9781   2.0097   2.2239   2.4374   2.7002   2.7444
     2.8584   3.0548   3.0786   3.2303   3.3552   3.4552   3.8164   3.9048
     4.0479   4.2732   4.3440   4.4253   4.6032   4.6182   4.7493   4.8369
     5.0112   5.1922   5.4725   5.8302   5.9469   5.9596   6.5974   6.8228

     the Fermi energy is     2.1983 ev

!    total energy              =   -1703.95739100 Ry
     Harris-Foulkes estimate   =   -1703.95737234 Ry
     estimated scf accuracy    <       0.00000064 Ry

     The total energy is the sum of the following terms:

     one-electron contribution =  -13562.19466522 Ry
     hartree contribution      =    6785.19483864 Ry
     xc contribution           =    -347.19243658 Ry
     ewald contribution        =    5420.33063201 Ry
     electric field correction =       0.00000047 Ry
     smearing contrib. (-TS)   =      -0.09576032 Ry

     convergence has been achieved in  16 iterations

 BEEF-vdW xc energy contributions
           1 :   -303.627533638479
           2 :    279.659129455015
           3 :   -237.709743445395
           4 :    187.354484471404
           5 :   -138.387706834638
           6 :    97.8678215448162
           7 :   -68.6725990150700
           8 :    49.7706366207277
           9 :   -37.7568213950028
          10 :    28.7831016301001
          11 :   -20.1081059246754
          12 :    10.7780334520448
          13 :   -1.40602848531205
          14 :   -6.65752941638937
          15 :    12.2669512606849
          16 :   -15.1033393970262
          17 :    15.7519654410552
          18 :   -15.3168566660527
          19 :    14.8487073606044
          20 :   -14.9103228653707
          21 :    15.4580372671368
          22 :   -16.0325957534116
          23 :    16.0949933886285
          24 :   -15.3216020804360
          25 :    13.7305332919312
          26 :   -11.6242263036337
          27 :    9.41432532661850
          28 :   -7.44096697272721
          29 :    5.86981345485901
          30 :   -4.69689098751820
          31 :   -29.7329997981356
          32 :   -22.2880451454121

     Forces acting on atoms (Ry/au):

     negative rho (up, down):  5.222E-01 0.000E+00
     atom    1 type  1   force =     0.00000008    0.01470256    0.01192383
     atom    2 type  1   force =     0.01273258   -0.00735120    0.01192368
     atom    3 type  1   force =    -0.01273285   -0.00735118    0.01192359
     atom    4 type  2   force =     0.00000078   -0.00000024    0.01066016
     atom    5 type  1   force =    -0.00000006   -0.00100590   -0.00928592
     atom    6 type  1   force =    -0.00087120    0.00050313   -0.00928585
     atom    7 type  1   force =     0.00087110    0.00050287   -0.00928583
     atom    8 type  2   force =     0.00000041    0.00000009   -0.01827460
     atom    9 type  1   force =    -0.00000033    0.00083328   -0.00028156
     atom   10 type  1   force =     0.00072138   -0.00041670   -0.00028153
     atom   11 type  1   force =    -0.00072166   -0.00041660   -0.00028170
     atom   12 type  2   force =    -0.00000023   -0.00000011    0.00054575

     Total force =     0.042272     Total SCF correction =     0.004046

     entering subroutine stress ...

     negative rho (up, down):  5.222E-01 0.000E+00
          total   stress  (Ry/bohr**3)                   (kbar)     P=  -19.06
  -0.00017089  -0.00000000  -0.00000000        -25.14     -0.00     -0.00
  -0.00000000  -0.00017089   0.00000000         -0.00    -25.14      0.00
  -0.00000000   0.00000000  -0.00004701         -0.00      0.00     -6.92

 !ASE

     Writing output data file calc.save

     General routines

     Parallel routines

   This run was terminated on:   7:10:53  27Dec2018

   JOB DONE.
Job  /afs/slac/g/suncat/bin/suncat-tsmpirun -x LD_LIBRARY_PATH -wdir /scratch/qe110204_BM6G4 pw.x -in pw.inp

TID   HOST_NAME   COMMAND_LINE            STATUS            TERMINATION_TIME
00000 suncat0108 pw.x -in pw.inp   Done                     12/27/2018 07:10:53
00001 suncat0108 pw.x -in pw.inp   Done                     12/27/2018 07:10:53
00002 suncat0108 pw.x -in pw.inp   Done                     12/27/2018 07:10:53
00003 suncat0108 pw.x -in pw.inp   Done                     12/27/2018 07:10:53
00004 suncat0108 pw.x -in pw.inp   Done                     12/27/2018 07:10:53
00005 suncat0108 pw.x -in pw.inp   Done                     12/27/2018 07:10:53
00006 suncat0108 pw.x -in pw.inp   Done                     12/27/2018 07:10:53
00007 suncat0108 pw.x -in pw.inp   Done                     12/27/2018 07:10:53
00008 suncat0107 pw.x -in pw.inp   Done                     12/27/2018 07:10:53
00009 suncat0107 pw.x -in pw.inp   Done                     12/27/2018 07:10:53
00010 suncat0107 pw.x -in pw.inp   Done                     12/27/2018 07:10:53
00011 suncat0107 pw.x -in pw.inp   Done                     12/27/2018 07:10:53
00012 suncat0107 pw.x -in pw.inp   Done                     12/27/2018 07:10:53
00013 suncat0107 pw.x -in pw.inp   Done                     12/27/2018 07:10:53
00014 suncat0107 pw.x -in pw.inp   Done                     12/27/2018 07:10:53
00015 suncat0107 pw.x -in pw.inp   Done                     12/27/2018 07:10:53
00016 suncat0106 pw.x -in pw.inp   Done                     12/27/2018 07:10:53
00017 suncat0106 pw.x -in pw.inp   Done                     12/27/2018 07:10:53
00018 suncat0106 pw.x -in pw.inp   Done                     12/27/2018 07:10:53
00019 suncat0106 pw.x -in pw.inp   Done                     12/27/2018 07:10:53
00020 suncat0106 pw.x -in pw.inp   Done                     12/27/2018 07:10:53
00021 suncat0106 pw.x -in pw.inp   Done                     12/27/2018 07:10:53
00022 suncat0106 pw.x -in pw.inp   Done                     12/27/2018 07:10:53
00023 suncat0106 pw.x -in pw.inp   Done                     12/27/2018 07:10:53
00024 suncat0105 pw.x -in pw.inp   Done                     12/27/2018 07:10:53
00025 suncat0105 pw.x -in pw.inp   Done                     12/27/2018 07:10:53
00026 suncat0105 pw.x -in pw.inp   Done                     12/27/2018 07:10:53
00027 suncat0105 pw.x -in pw.inp   Done                     12/27/2018 07:10:53
00028 suncat0105 pw.x -in pw.inp   Done                     12/27/2018 07:10:53
00029 suncat0105 pw.x -in pw.inp   Done                     12/27/2018 07:10:53
00030 suncat0105 pw.x -in pw.inp   Done                     12/27/2018 07:10:53
00031 suncat0105 pw.x -in pw.inp   Done                     12/27/2018 07:10:53
00032 suncat0238 pw.x -in pw.inp   Done                     12/27/2018 07:10:53
00033 suncat0238 pw.x -in pw.inp   Done                     12/27/2018 07:10:53
00034 suncat0238 pw.x -in pw.inp   Done                     12/27/2018 07:10:53
00035 suncat0238 pw.x -in pw.inp   Done                     12/27/2018 07:10:53
00036 suncat0238 pw.x -in pw.inp   Done                     12/27/2018 07:10:53
00037 suncat0238 pw.x -in pw.inp   Done                     12/27/2018 07:10:53
00038 suncat0238 pw.x -in pw.inp   Done                     12/27/2018 07:10:53
00039 suncat0238 pw.x -in pw.inp   Done                     12/27/2018 07:10:53
00040 suncat0237 pw.x -in pw.inp   Done                     12/27/2018 07:10:53
00041 suncat0237 pw.x -in pw.inp   Done                     12/27/2018 07:10:53
00042 suncat0237 pw.x -in pw.inp   Done                     12/27/2018 07:10:53
00043 suncat0237 pw.x -in pw.inp   Done                     12/27/2018 07:10:53
00044 suncat0237 pw.x -in pw.inp   Done                     12/27/2018 07:10:53
00045 suncat0237 pw.x -in pw.inp   Done                     12/27/2018 07:10:53
00046 suncat0237 pw.x -in pw.inp   Done                     12/27/2018 07:10:53
00047 suncat0237 pw.x -in pw.inp   Done                     12/27/2018 07:10:53
00048 suncat0236 pw.x -in pw.inp   Done                     12/27/2018 07:10:53
00049 suncat0236 pw.x -in pw.inp   Done                     12/27/2018 07:10:53
00050 suncat0236 pw.x -in pw.inp   Done                     12/27/2018 07:10:53
00051 suncat0236 pw.x -in pw.inp   Done                     12/27/2018 07:10:53
00052 suncat0236 pw.x -in pw.inp   Done                     12/27/2018 07:10:53
00053 suncat0236 pw.x -in pw.inp   Done                     12/27/2018 07:10:53
00054 suncat0236 pw.x -in pw.inp   Done                     12/27/2018 07:10:53
00055 suncat0236 pw.x -in pw.inp   Done                     12/27/2018 07:10:53
00056 suncat0235 pw.x -in pw.inp   Done                     12/27/2018 07:10:53
00057 suncat0235 pw.x -in pw.inp   Done                     12/27/2018 07:10:53
00058 suncat0235 pw.x -in pw.inp   Done                     12/27/2018 07:10:53
00059 suncat0235 pw.x -in pw.inp   Done                     12/27/2018 07:10:53
00060 suncat0235 pw.x -in pw.inp   Done                     12/27/2018 07:10:53
00061 suncat0235 pw.x -in pw.inp   Done                     12/27/2018 07:10:53
00062 suncat0235 pw.x -in pw.inp   Done                     12/27/2018 07:10:53
00063 suncat0235 pw.x -in pw.inp   Done                     12/27/2018 07:10:53