     Program PWSCF v.5.1rc2 (svn rev. 11289) starts on  2Jan2019 at 15:17:14

     Current dimensions of program PWSCF are:
     Max number of different atomic species (ntypx) = 10
     Max number of k-points (npk) =  40000
     Max angular momentum in pseudopotentials (lmaxx) =  3
     Presently stress not available with electric field

     IMPORTANT: XC functional enforced from input :
     Exchange-correlation      = BEEF-VDW ( 1  4 27 13 2)
     Any further DFT definition will be discarded
     Please, verify this is what you really want

     Subspace diagonalization in iterative solution of the eigenvalue problem:
     a serial algorithm will be used

     bravais-lattice index     =            0
     lattice parameter (alat)  =       1.8897  a.u.
     unit-cell volume          =    4094.8410 (a.u.)^3
     number of atoms/cell      =           12
     number of atomic types    =            2
     number of electrons       =       222.00
     number of Kohn-Sham states=          141
     kinetic-energy cutoff     =      36.7493  Ry
     charge density cutoff     =     367.4932  Ry
     convergence threshold     =      1.0E-06
     mixing beta               =       0.1000
     number of iterations used =           10  plain     mixing
     Exchange-correlation      = BEEF-VDW ( 1  4 27 13 2)
     nstep                     =           50

     celldm(1)=   1.889726  celldm(2)=   0.000000  celldm(3)=   0.000000
     celldm(4)=   0.000000  celldm(5)=   0.000000  celldm(6)=   0.000000

     crystal axes: (cart. coord. in units of alat)
               a(1) = (   5.361191   0.000000   0.000000 )
               a(2) = (  -2.680595   4.642927   0.000000 )
               a(3) = (   0.000000   0.000000  24.377394 )

     reciprocal axes: (cart. coord. in units 2 pi/alat)
               b(1) = (  0.186526  0.107691  0.000000 )
               b(2) = (  0.000000  0.215381  0.000000 )
               b(3) = (  0.000000  0.000000  0.041022 )

     PseudoPot. # 1 for Zn read from file:
     /afs/slac.stanford.edu/u/if/mamunm/psp/gbrv1.5pbe/Zn.UPF
     MD5 check sum: df62231357ef9e81f77b2b3087fa5675
     Pseudo is Ultrasoft, Zval = 20.0
     Generated by new atomic code, or converted to UPF format
     Using radial grid of  943 points,  6 beta functions with:
                l(1) =   0
                l(2) =   0
                l(3) =   1
                l(4) =   1
                l(5) =   2
                l(6) =   2
     Q(r) pseudized with  8 coefficients,  rinner =    1.100   1.100   1.100
                                                       1.100   1.100

     PseudoPot. # 2 for Cr read from file:
     /afs/slac.stanford.edu/u/if/mamunm/psp/gbrv1.5pbe/Cr.UPF
     MD5 check sum: 0d52af634a40206e4dee301ad30da4bf
     Pseudo is Ultrasoft + core correction, Zval = 14.0
     Generated by new atomic code, or converted to UPF format
     Using radial grid of  857 points,  6 beta functions with:
                l(1) =   0
                l(2) =   0
                l(3) =   1
                l(4) =   1
                l(5) =   2
                l(6) =   2
     Q(r) pseudized with  8 coefficients,  rinner =    0.950   0.950   0.950
                                                       0.950   0.950

     vdW kernel table read from file vdW_kernel_table
     MD5 check sum: 095c7af220d748ca6e76c0b4c6cfb241

     atomic species   valence    mass     pseudopotential
        Zn1           20.00    65.38000     Zn( 1.00)
        Cr1           14.00    51.99610     Cr( 1.00)

     No symmetry found

   Cartesian axes

     site n.     atom                  positions (alat units)
         1           Zn1 tau(   1) = (   0.0000000   0.0000000  10.0000000  )
         2           Zn1 tau(   2) = (  -1.3402977   2.3214637  10.0000000  )
         3           Zn1 tau(   3) = (   1.3402977   2.3214637  10.0000000  )
         4           Cr1 tau(   4) = (   2.6805954   0.0000000  10.0000000  )
         5           Zn1 tau(   5) = (   2.6805954   1.5476425  12.1886970  )
         6           Zn1 tau(   6) = (   1.3402977   3.8691062  12.1886970  )
         7           Zn1 tau(   7) = (  -1.3402977   3.8691062  12.1886970  )
         8           Cr1 tau(   8) = (   0.0000000   1.5476425  12.1886970  )
         9           Zn1 tau(   9) = (  -0.0000000   3.0952850  14.3773940  )
        10           Zn1 tau(  10) = (   1.3402977   0.7738212  14.3773940  )
        11           Zn1 tau(  11) = (   4.0208931   0.7738212  14.3773940  )
        12           Cr1 tau(  12) = (   2.6805954   3.0952850  14.3773940  )

     number of k points=    20  Fermi-Dirac smearing, width (Ry)=  0.0110
                       cart. coord. in units 2pi/alat
        k(    1) = (   0.0000000   0.0000000   0.0000000), wk =   0.0555556
        k(    2) = (   0.0000000   0.0358969   0.0000000), wk =   0.1111111
        k(    3) = (   0.0000000   0.0717938   0.0000000), wk =   0.1111111
        k(    4) = (   0.0000000  -0.1076907   0.0000000), wk =   0.0555556
        k(    5) = (   0.0310876   0.0179484   0.0000000), wk =   0.1111111
        k(    6) = (   0.0310876   0.0538453   0.0000000), wk =   0.1111111
        k(    7) = (   0.0310876   0.0897422   0.0000000), wk =   0.1111111
        k(    8) = (   0.0310876  -0.0897422   0.0000000), wk =   0.1111111
        k(    9) = (   0.0310876  -0.0538453   0.0000000), wk =   0.1111111
        k(   10) = (   0.0310876  -0.0179484   0.0000000), wk =   0.1111111
        k(   11) = (   0.0621752   0.0358969   0.0000000), wk =   0.1111111
        k(   12) = (   0.0621752   0.0717938   0.0000000), wk =   0.1111111
        k(   13) = (   0.0621752   0.1076907   0.0000000), wk =   0.1111111
        k(   14) = (   0.0621752  -0.0717938   0.0000000), wk =   0.1111111
        k(   15) = (   0.0621752  -0.0358969   0.0000000), wk =   0.1111111
        k(   16) = (   0.0621752  -0.0000000   0.0000000), wk =   0.1111111
        k(   17) = (  -0.0932629  -0.0538453   0.0000000), wk =   0.0555556
        k(   18) = (  -0.0932629  -0.0179484   0.0000000), wk =   0.1111111
        k(   19) = (  -0.0932629   0.0179484   0.0000000), wk =   0.1111111
        k(   20) = (  -0.0932629  -0.1615360   0.0000000), wk =   0.0555556

     Largest allocated arrays     est. size (Mb)     dimensions
     Largest temporary arrays     est. size (Mb)     dimensions

     Check: negative/imaginary core charge=   -0.000002    0.000000

     Initial potential from superposition of free atoms
     Check: negative starting charge=   -0.004489

     starting charge  218.99869, renormalised to  222.00000

     negative rho (up, down):  4.550E-03 0.000E+00

     *
     * You are using vdW-DF for exchange-correlation in this calculation.
     * Please cite the following three references that made this development
     * possible:
     *
     *   M. Dion, H. Rydberg, E. Schroder, D. C. Langreth, and
     *   B. I. Lundqvist, Phys. Rev. Lett. 92, 246401 (2004).
     *
     *   T. Thonhauser, V. R. Cooper, S. Li, A. Puzder, P. Hyldgaard, and
     *   D. C. Langreth, Phys. Rev. B 76, 125112 (2007).
     *
     *   G. Roman-Perez and J. M. Soler, Phys. Rev. Lett. 103, 096102 (2009).
     *
     *
     * If you are using vdW-DF2, please also cite:
     *
     *   K. Lee, E. D. Murray, L. Kong, B. I. Lundqvist, and
     *   D. C. Langreth, Phys. Rev. B 82, 081101(R) (2010).
     *
     *
     * If you are calculating the stress with vdW-DF, please also cite:
     *
     *   R. Sabatini, E. Kucukbenli, B. Kolb, T. Thonhauser, and
     *   S. de Gironcoli, J. Phys.: Condens. Matter 24, 424209 (2012).
     *

     Carrying out vdW-DF run using the following parameters:

     Nqs =      20    Nr_points =    1024   r_max =   100.000
     q_mesh =
               0.00001000     0.04494208     0.09755937     0.15916263
               0.23128650     0.31572767     0.41458969     0.53033537
               0.66584808     0.82450364     1.01025438     1.22772762
               1.48234092     1.78043706     2.12944203     2.53805004
               3.01644009     3.57652955     4.23227104     5.00000000

     Gradients computed in reciprocal space

     Adding external electric field

     Computed dipole along edir(3) :
        Dipole               -0.0000 Ry au,         -0.0000 Debye
        Dipole field         -0.0000 Ry au

        Potential amp.        0.0000 Ry
        Total length         44.9149 bohr

     Starting wfc are  147 randomized atomic wfcs

     Self-consistent Calculation

     iteration #  1     ecut=    36.75 Ry     beta=0.10
     Davidson diagonalization with overlap
     ethr =  1.00E-02,  avg # of iterations =  7.6

[...]

     total energy              =   -4685.45982516 Ry
     Harris-Foulkes estimate   =   -4699.19205884 Ry
     estimated scf accuracy    <      75.09540033 Ry

[...]

     End of self-consistent calculation

          k = 0.0000 0.0000 0.0000 ( 15437 PWs)   bands (ev):

  -125.7013-125.6996-125.6996-125.4802-125.4802-125.4785-125.4785-125.4784
  -125.4784 -79.9161 -79.9025 -79.9025 -79.8682 -79.8682 -79.8600 -79.8502
   -79.8416 -79.8416 -79.6891 -79.6887 -79.6762 -79.6762 -79.6759 -79.6759
   -79.6559 -79.6557 -79.6482 -79.6481 -79.6479 -79.6479 -79.6294 -79.6294
   -79.6292 -79.6292 -79.6227 -79.6224 -70.7728 -70.6661 -70.6660 -42.1179
   -42.1178 -42.1048 -42.1015 -42.1015 -41.9258 -41.9258 -41.9256 -41.9256
    -8.6030  -7.3754  -7.3470  -7.3270  -7.2447  -7.2447  -7.1923  -7.0843
    -7.0796  -7.0796  -7.0275  -7.0275  -6.8742  -6.8742  -6.8425  -6.7771
    -6.6872  -6.6872  -6.6039  -6.5524  -6.5523  -6.5178  -6.4578  -6.4578
    -6.4563  -6.4165  -6.4165  -6.2655  -6.2655  -6.2106  -6.2106  -6.1711
    -6.1620  -6.1620  -6.1406  -6.1406  -6.1266  -6.1266  -6.0368  -6.0368
    -6.0111  -5.9968  -5.9589  -5.9192  -5.9192  -5.7638  -5.7603  -3.4144
    -1.7336  -1.7336  -1.5728  -1.4908  -1.4908  -0.8369  -0.6338  -0.6338
    -0.3960  -0.1205  -0.1205   0.2255   0.7955   0.7955   0.8207   0.9432
     0.9432   0.9621   0.9621   1.5442   1.7036   1.7036   1.7668   1.8124
     1.8124   3.8082   3.8082   3.8885   4.3406   4.3406   4.3689   4.4841
     5.0052   5.0622   5.0622   5.5604   6.0269   6.0680   6.4274   7.7824
     7.8698   7.8698   8.0464   8.1402   8.1402

[...]

          k =-0.0933-0.0538 0.0000 ( 15386 PWs)   bands (ev):

[...]

     the Fermi energy is     0.7674 ev

!    total energy              =   -4693.53248897 Ry
     Harris-Foulkes estimate   =   -4693.53248867 Ry
     estimated scf accuracy    <       0.00000089 Ry

     The total energy is the sum of the following terms:

     one-electron contribution =  -32866.17811438 Ry
     hartree contribution      =   16418.57578823 Ry
     xc contribution           =    -460.72362925 Ry
     ewald contribution        =   12214.87440593 Ry
     electric field correction =       0.00000001 Ry
     smearing contrib. (-TS)   =      -0.08093951 Ry

     convergence has been achieved in  18 iterations

 BEEF-vdW xc energy contributions
           1 :   -407.895501907367
           2 :    369.545982074497
           3 :   -305.168415900568
           4 :    233.436727304375
           5 :   -171.043019269148
           6 :    126.474152914715
[...]
                l(1) =   0
                l(2) =   0
                l(3) =   1
                l(4) =   1
                l(5) =   2
                l(6) =   2
     Q(r) pseudized with  8 coefficients,  rinner =    1.100   1.100   1.100
                                                       1.100   1.100

     PseudoPot. # 2 for Cr read from file:
     /afs/slac.stanford.edu/u/if/mamunm/psp/gbrv1.5pbe/Cr.UPF
     MD5 check sum: 0d52af634a40206e4dee301ad30da4bf
     Pseudo is Ultrasoft + core correction, Zval = 14.0
     Generated by new atomic code, or converted to UPF format
     Using radial grid of  857 points,  6 beta functions with:
                l(1) =   0
                l(2) =   0
                l(3) =   1
                l(4) =   1
                l(5) =   2
                l(6) =   2
     Q(r) pseudized with  8 coefficients,  rinner =    0.950   0.950   0.950
                                                       0.950   0.950

     vdW kernel table read from file vdW_kernel_table
     MD5 check sum: 095c7af220d748ca6e76c0b4c6cfb241

     atomic species   valence    mass     pseudopotential
        Zn1           20.00    65.38000     Zn( 1.00)
        Cr1           14.00    51.99610     Cr( 1.00)

     No symmetry found

   Cartesian axes

     site n.     atom                  positions (alat units)
         1           Zn1 tau(   1) = (   0.0000000   0.0000000  10.0000000  )
         2           Zn1 tau(   2) = (  -1.3402977   2.3214637  10.0000000  )
         3           Zn1 tau(   3) = (   1.3402977   2.3214637  10.0000000  )
         4           Cr1 tau(   4) = (   2.6805954   0.0000000  10.0000000  )
         5           Zn1 tau(   5) = (   2.6805954   1.5476425  12.1886970  )
         6           Zn1 tau(   6) = (   1.3402977   3.8691062  12.1886970  )
         7           Zn1 tau(   7) = (  -1.3402977   3.8691062  12.1886970  )
         8           Cr1 tau(   8) = (   0.0000000   1.5476425  12.1886970  )
         9           Zn1 tau(   9) = (  -0.0000024   3.1010715  14.5247530  )
        10           Zn1 tau(  10) = (   1.3453147   0.7709285  14.5247523  )
        11           Zn1 tau(  11) = (   4.0158765   0.7709285  14.5247538  )
        12           Cr1 tau(  12) = (   2.6805934   3.0952850  14.2027692  )

     number of k points=    20  Fermi-Dirac smearing, width (Ry)=  0.0110
                       cart. coord. in units 2pi/alat
        k(    1) = (   0.0000000   0.0000000   0.0000000), wk =   0.0555556
        k(    2) = (   0.0000000   0.0358969   0.0000000), wk =   0.1111111
        k(    3) = (   0.0000000   0.0717938   0.0000000), wk =   0.1111111
        k(    4) = (   0.0000000  -0.1076907   0.0000000), wk =   0.0555556
        k(    5) = (   0.0310876   0.0179484   0.0000000), wk =   0.1111111
        k(    6) = (   0.0310876   0.0538453   0.0000000), wk =   0.1111111
        k(    7) = (   0.0310876   0.0897422   0.0000000), wk =   0.1111111
        k(    8) = (   0.0310876  -0.0897422   0.0000000), wk =   0.1111111
        k(    9) = (   0.0310876  -0.0538453   0.0000000), wk =   0.1111111
        k(   10) = (   0.0310876  -0.0179484   0.0000000), wk =   0.1111111
        k(   11) = (   0.0621752   0.0358969   0.0000000), wk =   0.1111111
        k(   12) = (   0.0621752   0.0717938   0.0000000), wk =   0.1111111
        k(   13) = (   0.0621752   0.1076907   0.0000000), wk =   0.1111111
        k(   14) = (   0.0621752  -0.0717938   0.0000000), wk =   0.1111111
        k(   15) = (   0.0621752  -0.0358969   0.0000000), wk =   0.1111111
        k(   16) = (   0.0621752  -0.0000000   0.0000000), wk =   0.1111111
        k(   17) = (  -0.0932629  -0.0538453   0.0000000), wk =   0.0555556
        k(   18) = (  -0.0932629  -0.0179484   0.0000000), wk =   0.1111111
        k(   19) = (  -0.0932629   0.0179484   0.0000000), wk =   0.1111111
        k(   20) = (  -0.0932629  -0.1615360   0.0000000), wk =   0.0555556

     Largest allocated arrays     est. size (Mb)     dimensions
     Largest temporary arrays     est. size (Mb)     dimensions

     Check: negative/imaginary core charge=   -0.000002    0.000000

     Initial potential from superposition of free atoms
     Check: negative starting charge=   -0.004360

     starting charge  218.99869, renormalised to  222.00000

[...]

     *
     * You are using vdW-DF for exchange-correlation in this calculation.
     * Please cite the following three references that made this development
     * possible:
     *
     *   M. Dion, H. Rydberg, E. Schroder, D. C. Langreth, and
     *   B. I. Lundqvist, Phys. Rev. Lett. 92, 246401 (2004).
     *
     *   T. Thonhauser, V. R. Cooper, S. Li, A. Puzder, P. Hyldgaard, and
     *   D. C. Langreth, Phys. Rev. B 76, 125112 (2007).
     *
     *   G. Roman-Perez and J. M. Soler, Phys. Rev. Lett. 103, 096102 (2009).
     *
     *
     * If you are using vdW-DF2, please also cite:
     *
     *   K. Lee, E. D. Murray, L. Kong, B. I. Lundqvist, and
     *   D. C. Langreth, Phys. Rev. B 82, 081101(R) (2010).
     *
     *
     * If you are calculating the stress with vdW-DF, please also cite:
     *
     *   R. Sabatini, E. Kucukbenli, B. Kolb, T. Thonhauser, and
     *   S. de Gironcoli, J. Phys.: Condens. Matter 24, 424209 (2012).
     *

     Carrying out vdW-DF run using the following parameters:

     Nqs =      20    Nr_points =    1024   r_max =   100.000
     q_mesh =
               0.00001000     0.04494208     0.09755937     0.15916263
               0.23128650     0.31572767     0.41458969     0.53033537
               0.66584808     0.82450364     1.01025438     1.22772762
               1.48234092     1.78043706     2.12944203     2.53805004
               3.01644009     3.57652955     4.23227104     5.00000000

     Gradients computed in reciprocal space

[...]

     Starting wfc are  147 randomized atomic wfcs

     Self-consistent Calculation

[...]

     total energy              =   -4693.55048446 Ry
     Harris-Foulkes estimate   =   -4693.55048504 Ry
     estimated scf accuracy    <       0.00000182 Ry

     iteration # 21     ecut=    36.75 Ry     beta=0.10
     Davidson diagonalization with overlap
     ethr =  8.20E-10,  avg # of iterations =  2.0

[...]

     negative rho (up, down):  3.787E-03 0.000E+00

     Adding external electric field

     Computed dipole along edir(3) :
        Dipole               -0.0382 Ry au,         -0.0971 Debye
        Dipole field         -0.0001 Ry au

        Potential amp.        0.0105 Ry
        Total length         44.9149 bohr

     End of self-consistent calculation

[...]

          k = 0.0622-0.0000 0.0000 ( 15382 PWs)   bands (ev):

[...]

          k =-0.0933-0.1615 0.0000 ( 15386 PWs)   bands (ev):

  -125.6392-125.6386-125.6380-125.5302-125.5296-125.5291-125.3687-125.3681
  -125.3675 -79.8446 -79.8395 -79.8352 -79.8067 -79.8041 -79.8013 -79.7902
   -79.7876 -79.7844 -79.7350 -79.7306 -79.7271 -79.7040 -79.7007 -79.6973
   -79.6798 -79.6775 -79.6744 -79.5765 -79.5713 -79.5671 -79.5452 -79.5426
   -79.5398 -79.5150 -79.5126 -79.5096 -70.8413 -70.7029 -70.6540 -42.1665
   -42.1660 -42.1655 -42.1442 -42.0873 -41.9677 -41.9674 -41.9184 -41.9181
    -7.4082  -7.1470  -7.0470  -6.9782  -6.9466  -6.8989  -6.8687  -6.8416
    -6.8368  -6.8267  -6.8095  -6.7713  -6.7446  -6.6629  -6.6582  -6.6001
    -6.5998  -6.5882  -6.5443  -6.4803  -6.4610  -6.4587  -6.4339  -6.3938
    -6.3843  -6.3700  -6.3639  -6.3525  -6.3295  -6.3087  -6.3013  -6.2785
    -6.2688  -6.2545  -6.2441  -6.2259  -6.2173  -6.1762  -6.1607  -6.1340
    -6.0475  -6.0298  -6.0220  -5.9998  -5.9414  -5.9264  -5.8535  -4.6388
    -4.3220  -3.1736  -2.5440  -2.0193  -1.6718  -1.2935  -0.9939  -0.2678
    -0.1341   0.1172   0.1675   0.2565   0.3003   0.4372   0.6110   0.6810
     1.0211   1.1703   1.4810   1.5016   1.8840   2.1083   2.6382   2.7684
     3.0410   3.2792   5.2122   5.3432   5.4584   5.6865   5.7724   6.0893
     6.1117   6.1494   6.2153   6.2919   6.6108   6.6494   7.1823   7.2733
     7.5579   7.6174   7.6348   7.7298   7.8141

     the Fermi energy is     0.7126 ev

!    total energy              =   -4693.55047588 Ry
     Harris-Foulkes estimate   =   -4693.55048444 Ry
     estimated scf accuracy    <       0.00000032 Ry

     The total energy is the sum of the following terms:

     one-electron contribution =  -32493.10008492 Ry
     hartree contribution      =   16232.23602981 Ry
     xc contribution           =    -460.66419697 Ry
     ewald contribution        =   12028.05781489 Ry
     electric field correction =       0.00000448 Ry
     smearing contrib. (-TS)   =      -0.08004316 Ry

     convergence has been achieved in  21 iterations

 BEEF-vdW xc energy contributions
           1 :   -407.833136036900
           2 :    369.448468027313
           3 :   -305.030332952055
           4 :    233.287863948245
           5 :   -170.926359926396
           6 :    126.411119158125
           7 :   -98.7037013693981
           8 :    80.7867646941188
           9 :   -65.2588204288112
          10 :    48.5674762459250
          11 :   -31.8133438659378
          12 :    18.4190778801623
          13 :   -10.8068359893688
          14 :    8.45777371396514
          15 :   -8.41750991052032
          16 :    7.49091631078096
          17 :   -4.33443610504702
          18 :  -1.513157483293526E-002
          19 :    3.33460041130849
          20 :   -4.06659755601072
          21 :    2.44100618653192
          22 :  -0.166743703130066
          23 :  -0.915402046181669
          24 :   0.133918224370461
          25 :    1.68764912460261
          26 :   -3.01258168871891
          27 :    2.79815229228944
          28 :   -1.21193214590613
          29 :  -0.609580048983219
          30 :    1.48298766150805
          31 :   -32.7706927268587
          32 :   -22.5981241925185

     Forces acting on atoms (Ry/au):

     negative rho (up, down):  3.787E-03 0.000E+00
     atom    1 type  1   force =    -0.00000000   -0.00093664   -0.01927296
     atom    2 type  1   force =    -0.00081037    0.00046912   -0.01927294
     atom    3 type  1   force =     0.00081070    0.00046822   -0.01927306
     atom    4 type  2   force =    -0.00000004    0.00000002    0.04711188
     atom    5 type  1   force =     0.00000064   -0.01145587   -0.00111041
     atom    6 type  1   force =    -0.00992149    0.00572820   -0.00111065
     atom    7 type  1   force =     0.00992093    0.00572743   -0.00111101
     atom    8 type  2   force =     0.00000007    0.00000003    0.01218049
     atom    9 type  1   force =     0.00000102   -0.00035201    0.00099173
     atom   10 type  1   force =    -0.00030778    0.00017526    0.00099308
     atom   11 type  1   force =     0.00030585    0.00017578    0.00099190
     atom   12 type  2   force =     0.00000046    0.00000046   -0.00111804

     Total force =     0.062345     Total SCF correction =     0.003465

     entering subroutine stress ...

     negative rho (up, down):  3.787E-03 0.000E+00
          total   stress  (Ry/bohr**3)                   (kbar)     P=  -14.19
  -0.00012575  -0.00000000   0.00000000        -18.50     -0.00      0.00
  -0.00000000  -0.00012575   0.00000000         -0.00    -18.50      0.00
   0.00000000   0.00000000  -0.00003798          0.00      0.00     -5.59

 !ASE

     Writing output data file calc.save

     General routines

     Parallel routines

   This run was terminated on:  17: 2:35   2Jan2019

   JOB DONE.
Job  /afs/slac/g/suncat/bin/suncat-tsmpirun -x LD_LIBRARY_PATH -wdir /scratch/qe649468_P2MWE pw.x -in pw.inp

TID   HOST_NAME   COMMAND_LINE            STATUS            TERMINATION_TIME
00000 suncat0078 pw.x -in pw.inp   Done                     01/02/2019 17:02:35
00001 suncat0078 pw.x -in pw.inp   Done                     01/02/2019 17:02:35
00002 suncat0078 pw.x -in pw.inp   Done                     01/02/2019 17:02:35
00003 suncat0078 pw.x -in pw.inp   Done                     01/02/2019 17:02:35
00004 suncat0078 pw.x -in pw.inp   Done                     01/02/2019 17:02:35
00005 suncat0078 pw.x -in pw.inp   Done                     01/02/2019 17:02:35
00006 suncat0078 pw.x -in pw.inp   Done                     01/02/2019 17:02:35
00007 suncat0078 pw.x -in pw.inp   Done                     01/02/2019 17:02:35
00008 suncat0077 pw.x -in pw.inp   Done                     01/02/2019 17:02:35
00009 suncat0077 pw.x -in pw.inp   Done                     01/02/2019 17:02:35
00010 suncat0077 pw.x -in pw.inp   Done                     01/02/2019 17:02:35
00011 suncat0077 pw.x -in pw.inp   Done                     01/02/2019 17:02:35
00012 suncat0077 pw.x -in pw.inp   Done                     01/02/2019 17:02:35
00013 suncat0077 pw.x -in pw.inp   Done                     01/02/2019 17:02:35
00014 suncat0077 pw.x -in pw.inp   Done                     01/02/2019 17:02:35
00015 suncat0077 pw.x -in pw.inp   Done                     01/02/2019 17:02:35
00016 suncat0076 pw.x -in pw.inp   Done                     01/02/2019 17:02:35
00017 suncat0076 pw.x -in pw.inp   Done                     01/02/2019 17:02:35
00018 suncat0076 pw.x -in pw.inp   Done                     01/02/2019 17:02:35
00019 suncat0076 pw.x -in pw.inp   Done                     01/02/2019 17:02:35
00020 suncat0076 pw.x -in pw.inp   Done                     01/02/2019 17:02:35
00021 suncat0076 pw.x -in pw.inp   Done                     01/02/2019 17:02:35
00022 suncat0076 pw.x -in pw.inp   Done                     01/02/2019 17:02:35
00023 suncat0076 pw.x -in pw.inp   Done                     01/02/2019 17:02:35
00024 suncat0074 pw.x -in pw.inp   Done                     01/02/2019 17:02:35
00025 suncat0074 pw.x -in pw.inp   Done                     01/02/2019 17:02:35
00026 suncat0074 pw.x -in pw.inp   Done                     01/02/2019 17:02:35
00027 suncat0074 pw.x -in pw.inp   Done                     01/02/2019 17:02:35
00028 suncat0074 pw.x -in pw.inp   Done                     01/02/2019 17:02:35
00029 suncat0074 pw.x -in pw.inp   Done                     01/02/2019 17:02:35
00030 suncat0074 pw.x -in pw.inp   Done                     01/02/2019 17:02:35
00031 suncat0074 pw.x -in pw.inp   Done                     01/02/2019 17:02:35
00032 suncat0073 pw.x -in pw.inp   Done                     01/02/2019 17:02:35
00033 suncat0073 pw.x -in pw.inp   Done                     01/02/2019 17:02:35
00034 suncat0073 pw.x -in pw.inp   Done                     01/02/2019 17:02:35
00035 suncat0073 pw.x -in pw.inp   Done                     01/02/2019 17:02:35
00036 suncat0073 pw.x -in pw.inp   Done                     01/02/2019 17:02:35
00037 suncat0073 pw.x -in pw.inp   Done                     01/02/2019 17:02:35
00038 suncat0073 pw.x -in pw.inp   Done                     01/02/2019 17:02:35
00039 suncat0073 pw.x -in pw.inp   Done                     01/02/2019 17:02:35
00040 suncat0069 pw.x -in pw.inp   Done                     01/02/2019 17:02:35
00041 suncat0069 pw.x -in pw.inp   Done                     01/02/2019 17:02:35
00042 suncat0069 pw.x -in pw.inp   Done                     01/02/2019 17:02:35
00043 suncat0069 pw.x -in pw.inp   Done                     01/02/2019 17:02:35
00044 suncat0069 pw.x -in pw.inp   Done                     01/02/2019 17:02:35
00045 suncat0069 pw.x -in pw.inp   Done                     01/02/2019 17:02:35
00046 suncat0069 pw.x -in pw.inp   Done                     01/02/2019 17:02:35
00047 suncat0069 pw.x -in pw.inp   Done                     01/02/2019 17:02:35
00048 suncat0217 pw.x -in pw.inp   Done                     01/02/2019 17:02:35
00049 suncat0217 pw.x -in pw.inp   Done                     01/02/2019 17:02:35
00050 suncat0217 pw.x -in pw.inp   Done                     01/02/2019 17:02:35
00051 suncat0217 pw.x -in pw.inp   Done                     01/02/2019 17:02:35
00052 suncat0217 pw.x -in pw.inp   Done                     01/02/2019 17:02:35
00053 suncat0217 pw.x -in pw.inp   Done                     01/02/2019 17:02:35
00054 suncat0217 pw.x -in pw.inp   Done                     01/02/2019 17:02:35
00055 suncat0217 pw.x -in pw.inp   Done                     01/02/2019 17:02:35
00056 suncat0216 pw.x -in pw.inp   Done                     01/02/2019 17:02:35
00057 suncat0216 pw.x -in pw.inp   Done                     01/02/2019 17:02:35
00058 suncat0216 pw.x -in pw.inp   Done                     01/02/2019 17:02:35
00059 suncat0216 pw.x -in pw.inp   Done                     01/02/2019 17:02:35
00060 suncat0216 pw.x -in pw.inp   Done                     01/02/2019 17:02:35
00061 suncat0216 pw.x -in pw.inp   Done                     01/02/2019 17:02:35
00062 suncat0216 pw.x -in pw.inp   Done                     01/02/2019 17:02:35
00063 suncat0216 pw.x -in pw.inp   Done                     01/02/2019 17:02:35