     Program PWSCF v.5.1rc2 (svn rev. 11289) starts on  1Jan2019 at 12:35:25

     Current dimensions of program PWSCF are:
     Max number of different atomic species (ntypx) = 10
     Max number of k-points (npk) =  40000
     Max angular momentum in pseudopotentials (lmaxx) =  3
     Presently stress not available with electric field

     IMPORTANT: XC functional enforced from input :
     Exchange-correlation      = BEEF-VDW ( 1  4 27 13 2)
     Any further DFT definition will be discarded
     Please, verify this is what you really want

     Subspace diagonalization in iterative solution of the eigenvalue problem:
     a serial algorithm will be used

     Generating pointlists ...
     new r_m :   0.4125 (alat units)  0.7795 (a.u.) for type    1
     new r_m :   0.4125 (alat units)  0.7795 (a.u.) for type    2

     bravais-lattice index     =            0
     lattice parameter (alat)  =       1.8897  a.u.
     unit-cell volume          =    6420.5118 (a.u.)^3
     number of atoms/cell      =           12
     number of atomic types    =            2
     number of electrons       =       171.00
     number of Kohn-Sham states=          115
     kinetic-energy cutoff     =      36.7493  Ry
     charge density cutoff     =     367.4932  Ry
     convergence threshold     =      1.0E-06
     mixing beta               =       0.1000
     number of iterations used =           10  plain     mixing
     Exchange-correlation      = BEEF-VDW ( 1  4 27 13 2)
     nstep                     =           50

     celldm(1)=   1.889726  celldm(2)=   0.000000  celldm(3)=   0.000000
     celldm(4)=   0.000000  celldm(5)=   0.000000  celldm(6)=   0.000000

     crystal axes: (cart. coord. in units of alat)
               a(1) = (   6.580182   0.000000   0.000000 )
               a(2) = (  -3.290091   5.698605   0.000000 )
               a(3) = (   0.000000   0.000000  25.372696 )

     reciprocal axes: (cart. coord. in units 2 pi/alat)
               b(1) = (  0.151971  0.087741  0.000000 )
               b(2) = (  0.000000  0.175482  0.000000 )
               b(3) = (  0.000000  0.000000  0.039412 )

     PseudoPot. # 1 for Sn read from file:
     /afs/slac.stanford.edu/u/if/mamunm/psp/gbrv1.5pbe/Sn.UPF
     MD5 check sum: 469debedee59599fedebd795477fea03
     Pseudo is Ultrasoft + core correction, Zval = 14.0
     Generated by new atomic code, or converted to UPF format
     Using radial grid of  891 points,  6 beta functions with:
                l(1) =   0
                l(2) =   0
                l(3) =   1
                l(4) =   1
                l(5) =   2
                l(6) =   2
     Q(r) pseudized with  8 coefficients,  rinner =    1.350   1.350   1.350
                                                       1.350   1.350

     PseudoPot. # 2 for Mn read from file:
     /afs/slac.stanford.edu/u/if/mamunm/psp/gbrv1.5pbe/Mn.UPF
     MD5 check sum: 82ef2b46521d7a7d9e736dc3972e4928
     Pseudo is Ultrasoft + core correction, Zval = 15.0
     Generated by new atomic code, or converted to UPF format
     Using radial grid of  859 points,  6 beta functions with:
                l(1) =   0
                l(2) =   0
                l(3) =   1
                l(4) =   1
                l(5) =   2
                l(6) =   2
     Q(r) pseudized with  8 coefficients,  rinner =    0.950   0.950   0.950
                                                       0.950   0.950

     vdW kernel table read from file vdW_kernel_table
     MD5 check sum: 095c7af220d748ca6e76c0b4c6cfb241

     atomic species   valence    mass     pseudopotential
        Sn1           14.00   118.71000     Sn( 1.00)
        Mn1           15.00    54.93804     Mn( 1.00)

     Starting magnetic structure
     atomic species   magnetization
        Sn1          0.143
        Mn1          0.133

     No symmetry found

   Cartesian axes

     site n.     atom                  positions (alat units)
         1           Sn1 tau(   1) = (   0.0000000   0.0000000  10.0000000  )
         2           Sn1 tau(   2) = (  -1.6450455   2.8493023  10.0000000  )
         3           Sn1 tau(   3) = (   1.6450455   2.8493023  10.0000000  )
         4           Mn1 tau(   4) = (   3.2900909   0.0000000  10.0000000  )
         5           Sn1 tau(   5) = (   3.2900909   1.8995349  12.6863480  )
         6           Sn1 tau(   6) = (   1.6450455   4.7488372  12.6863480  )
         7           Sn1 tau(   7) = (  -1.6450455   4.7488372  12.6863480  )
         8           Mn1 tau(   8) = (   0.0000000   1.8995349  12.6863480  )
         9           Sn1 tau(   9) = (  -0.0000000   3.7990698  15.3726960  )
        10           Sn1 tau(  10) = (   1.6450455   0.9497674  15.3726960  )
        11           Sn1 tau(  11) = (   4.9351364   0.9497674  15.3726960  )
        12           Mn1 tau(  12) = (   3.2900909   3.7990698  15.3726960  )

     number of k points=    40  Fermi-Dirac smearing, width (Ry)=  0.0110
                       cart. coord. in units 2pi/alat
        k(    1) = (   0.0000000   0.0000000   0.0000000), wk =   0.0277778
        k(    2) = (   0.0000000   0.0292469   0.0000000), wk =   0.0555556
        k(    3) = (   0.0000000   0.0584939   0.0000000), wk =   0.0555556
        k(    4) = (   0.0000000  -0.0877408   0.0000000), wk =   0.0277778
        k(    5) = (   0.0253286   0.0146235   0.0000000), wk =   0.0555556
        k(    6) = (   0.0253286   0.0438704   0.0000000), wk =   0.0555556
        k(    7) = (   0.0253286   0.0731173   0.0000000), wk =   0.0555556
        k(    8) = (   0.0253286  -0.0731173   0.0000000), wk =   0.0555556
        k(    9) = (   0.0253286  -0.0438704   0.0000000), wk =   0.0555556
        k(   10) = (   0.0253286  -0.0146235   0.0000000), wk =   0.0555556
        k(   11) = (   0.0506572   0.0292469   0.0000000), wk =   0.0555556
        k(   12) = (   0.0506572   0.0584939   0.0000000), wk =   0.0555556
        k(   13) = (   0.0506572   0.0877408   0.0000000), wk =   0.0555556
        k(   14) = (   0.0506572  -0.0584939   0.0000000), wk =   0.0555556
        k(   15) = (   0.0506572  -0.0292469   0.0000000), wk =   0.0555556
        k(   16) = (   0.0506572   0.0000000   0.0000000), wk =   0.0555556
        k(   17) = (  -0.0759857  -0.0438704   0.0000000), wk =   0.0277778
        k(   18) = (  -0.0759857  -0.0146235   0.0000000), wk =   0.0555556
        k(   19) = (  -0.0759857   0.0146235   0.0000000), wk =   0.0555556
        k(   20) = (  -0.0759857  -0.1316112   0.0000000), wk =   0.0277778
        k(   21) = (   0.0000000   0.0000000   0.0000000), wk =   0.0277778
        k(   22) = (   0.0000000   0.0292469   0.0000000), wk =   0.0555556
        k(   23) = (   0.0000000   0.0584939   0.0000000), wk =   0.0555556
        k(   24) = (   0.0000000  -0.0877408   0.0000000), wk =   0.0277778
        k(   25) = (   0.0253286   0.0146235   0.0000000), wk =   0.0555556
        k(   26) = (   0.0253286   0.0438704   0.0000000), wk =   0.0555556
        k(   27) = (   0.0253286   0.0731173   0.0000000), wk =   0.0555556
        k(   28) = (   0.0253286  -0.0731173   0.0000000), wk =   0.0555556
        k(   29) = (   0.0253286  -0.0438704   0.0000000), wk =   0.0555556
        k(   30) = (   0.0253286  -0.0146235   0.0000000), wk =   0.0555556
        k(   31) = (   0.0506572   0.0292469   0.0000000), wk =   0.0555556
        k(   32) = (   0.0506572   0.0584939   0.0000000), wk =   0.0555556
        k(   33) = (   0.0506572   0.0877408   0.0000000), wk =   0.0555556
        k(   34) = (   0.0506572  -0.0584939   0.0000000), wk =   0.0555556
        k(   35) = (   0.0506572  -0.0292469   0.0000000), wk =   0.0555556
        k(   36) = (   0.0506572   0.0000000   0.0000000), wk =   0.0555556
        k(   37) = (  -0.0759857  -0.0438704   0.0000000), wk =   0.0277778
        k(   38) = (  -0.0759857  -0.0146235   0.0000000), wk =   0.0555556
        k(   39) = (  -0.0759857   0.0146235   0.0000000), wk =   0.0555556
        k(   40) = (  -0.0759857  -0.1316112   0.0000000), wk =   0.0277778

     Largest allocated arrays     est. size (Mb)     dimensions
     Largest temporary arrays     est. size (Mb)     dimensions

     Check: negative/imaginary core charge=   -0.000003    0.000000

     Initial potential from superposition of free atoms
     Check: negative starting charge=(component1):   -0.001282
     Check: negative starting charge=(component2):   -0.000975

     starting charge  160.49934, renormalised to  171.00000

     negative rho (up, down):  1.366E-03 1.038E-03

     *
     * You are using vdW-DF for exchange-correlation in this calculation.
     * Please cite the following three references that made this development
     * possible:
     *
     *   M. Dion, H. Rydberg, E. Schroder, D. C. Langreth, and
     *   B. I. Lundqvist, Phys. Rev. Lett. 92, 246401 (2004).
     *
     *   T. Thonhauser, V. R. Cooper, S. Li, A. Puzder, P. Hyldgaard, and
     *   D. C. Langreth, Phys. Rev. B 76, 125112 (2007).
     *
     *   G. Roman-Perez and J. M. Soler, Phys. Rev. Lett. 103, 096102 (2009).
     *
     *
     * If you are using vdW-DF2, please also cite:
     *
     *   K. Lee, E. D. Murray, L. Kong, B. I. Lundqvist, and
     *   D. C. Langreth, Phys. Rev. B 82, 081101(R) (2010).
     *
     *
     * If you are calculating the stress with vdW-DF, please also cite:
     *
     *   R. Sabatini, E. Kucukbenli, B. Kolb, T. Thonhauser, and
     *   S. de Gironcoli, J. Phys.: Condens. Matter 24, 424209 (2012).
     *

     Carrying out vdW-DF run using the following parameters:

     Nqs =      20    Nr_points =    1024   r_max =   100.000
     q_mesh =
               0.00001000     0.04494208     0.09755937     0.15916263
               0.23128650     0.31572767     0.41458969     0.53033537
               0.66584808     0.82450364     1.01025438     1.22772762
               1.48234092     1.78043706     2.12944203     2.53805004
               3.01644009     3.57652955     4.23227104     5.00000000

     Gradients computed in reciprocal space

     Adding external electric field

     Computed dipole along edir(3) :
        Dipole               -0.0000 Ry au,         -0.0000 Debye
        Dipole field         -0.0000 Ry au

        Potential amp.        0.0000 Ry
        Total length         46.7488 bohr

[...]

     Starting wfc are  120 randomized atomic wfcs

     Self-consistent Calculation

     iteration #  1     ecut=    36.75 Ry     beta=0.10
     Davidson diagonalization with overlap
     ethr =  1.00E-02,  avg # of iterations =  8.1

[...]

     Magnetic moment per site:
     atom:    1    charge:    3.6774    magn:    0.4813    constr:    0.0000
     atom:    2    charge:    3.6724    magn:    0.4807    constr:    0.0000
     atom:    3    charge:    3.6724    magn:    0.4807    constr:    0.0000
     atom:    4    charge:    6.1142    magn:    0.7663    constr:    0.0000
     atom:    5    charge:    3.6840    magn:    0.4823    constr:    0.0000
     atom:    6    charge:    3.6692    magn:    0.4804    constr:    0.0000
     atom:    7    charge:    3.6692    magn:    0.4804    constr:    0.0000
     atom:    8    charge:    6.1099    magn:    0.7659    constr:    0.0000
[...]
        k(    2) = (   0.0000000   0.0292469   0.0000000), wk =   0.0555556
        k(    3) = (   0.0000000   0.0584939   0.0000000), wk =   0.0555556
        k(    4) = (   0.0000000  -0.0877408   0.0000000), wk =   0.0277778
        k(    5) = (   0.0253286   0.0146235   0.0000000), wk =   0.0555556
        k(    6) = (   0.0253286   0.0438704   0.0000000), wk =   0.0555556
        k(    7) = (   0.0253286   0.0731173   0.0000000), wk =   0.0555556
        k(    8) = (   0.0253286  -0.0731173   0.0000000), wk =   0.0555556
        k(    9) = (   0.0253286  -0.0438704   0.0000000), wk =   0.0555556
        k(   10) = (   0.0253286  -0.0146235   0.0000000), wk =   0.0555556
        k(   11) = (   0.0506572   0.0292469   0.0000000), wk =   0.0555556
        k(   12) = (   0.0506572   0.0584939   0.0000000), wk =   0.0555556
        k(   13) = (   0.0506572   0.0877408   0.0000000), wk =   0.0555556
        k(   14) = (   0.0506572  -0.0584939   0.0000000), wk =   0.0555556
        k(   15) = (   0.0506572  -0.0292469   0.0000000), wk =   0.0555556
        k(   16) = (   0.0506572   0.0000000   0.0000000), wk =   0.0555556
        k(   17) = (  -0.0759857  -0.0438704   0.0000000), wk =   0.0277778
        k(   18) = (  -0.0759857  -0.0146235   0.0000000), wk =   0.0555556
        k(   19) = (  -0.0759857   0.0146235   0.0000000), wk =   0.0555556
        k(   20) = (  -0.0759857  -0.1316112   0.0000000), wk =   0.0277778
        k(   21) = (   0.0000000   0.0000000   0.0000000), wk =   0.0277778
        k(   22) = (   0.0000000   0.0292469   0.0000000), wk =   0.0555556
        k(   23) = (   0.0000000   0.0584939   0.0000000), wk =   0.0555556
        k(   24) = (   0.0000000  -0.0877408   0.0000000), wk =   0.0277778
        k(   25) = (   0.0253286   0.0146235   0.0000000), wk =   0.0555556
        k(   26) = (   0.0253286   0.0438704   0.0000000), wk =   0.0555556
        k(   27) = (   0.0253286   0.0731173   0.0000000), wk =   0.0555556
        k(   28) = (   0.0253286  -0.0731173   0.0000000), wk =   0.0555556
        k(   29) = (   0.0253286  -0.0438704   0.0000000), wk =   0.0555556
        k(   30) = (   0.0253286  -0.0146235   0.0000000), wk =   0.0555556
        k(   31) = (   0.0506572   0.0292469   0.0000000), wk =   0.0555556
        k(   32) = (   0.0506572   0.0584939   0.0000000), wk =   0.0555556
        k(   33) = (   0.0506572   0.0877408   0.0000000), wk =   0.0555556
        k(   34) = (   0.0506572  -0.0584939   0.0000000), wk =   0.0555556
        k(   35) = (   0.0506572  -0.0292469   0.0000000), wk =   0.0555556
        k(   36) = (   0.0506572   0.0000000   0.0000000), wk =   0.0555556
        k(   37) = (  -0.0759857  -0.0438704   0.0000000), wk =   0.0277778
        k(   38) = (  -0.0759857  -0.0146235   0.0000000), wk =   0.0555556
        k(   39) = (  -0.0759857   0.0146235   0.0000000), wk =   0.0555556
        k(   40) = (  -0.0759857  -0.1316112   0.0000000), wk =   0.0277778

     Largest allocated arrays     est. size (Mb)     dimensions
     Largest temporary arrays     est. size (Mb)     dimensions

     Check: negative/imaginary core charge=   -0.000003    0.000000

     Initial potential from superposition of free atoms
     Check: negative starting charge=(component1):   -0.001302
     Check: negative starting charge=(component2):   -0.000989

     starting charge  160.49934, renormalised to  171.00000

[...]

     *
     * You are using vdW-DF for exchange-correlation in this calculation.
     * Please cite the following three references that made this development
     * possible:
     *
     *   M. Dion, H. Rydberg, E. Schroder, D. C. Langreth, and
     *   B. I. Lundqvist, Phys. Rev. Lett. 92, 246401 (2004).
     *
     *   T. Thonhauser, V. R. Cooper, S. Li, A. Puzder, P. Hyldgaard, and
     *   D. C. Langreth, Phys. Rev. B 76, 125112 (2007).
     *
     *   G. Roman-Perez and J. M. Soler, Phys. Rev. Lett. 103, 096102 (2009).
     *
     *
     * If you are using vdW-DF2, please also cite:
     *
     *   K. Lee, E. D. Murray, L. Kong, B. I. Lundqvist, and
     *   D. C. Langreth, Phys. Rev. B 82, 081101(R) (2010).
     *
     *
     * If you are calculating the stress with vdW-DF, please also cite:
     *
     *   R. Sabatini, E. Kucukbenli, B. Kolb, T. Thonhauser, and
     *   S. de Gironcoli, J. Phys.: Condens. Matter 24, 424209 (2012).
     *

     Carrying out vdW-DF run using the following parameters:

     Nqs =      20    Nr_points =    1024   r_max =   100.000
     q_mesh =
               0.00001000     0.04494208     0.09755937     0.15916263
               0.23128650     0.31572767     0.41458969     0.53033537
               0.66584808     0.82450364     1.01025438     1.22772762
               1.48234092     1.78043706     2.12944203     2.53805004
               3.01644009     3.57652955     4.23227104     5.00000000

     Gradients computed in reciprocal space

[...]

     Starting wfc are  120 randomized atomic wfcs

     Self-consistent Calculation

[...]

     total energy              =   -2082.50041596 Ry
     Harris-Foulkes estimate   =   -2082.50041484 Ry
     estimated scf accuracy    <       0.00000112 Ry

[...]

     iteration # 39     ecut=    36.75 Ry     beta=0.10
     Davidson diagonalization with overlap
     ethr =  6.56E-10,  avg # of iterations =  2.5

[...]

     negative rho (up, down):  1.189E-03 9.560E-04

[...]

     Adding external electric field

     Computed dipole along edir(3) :
        Dipole               -0.0206 Ry au,         -0.0524 Debye
        Dipole field         -0.0000 Ry au

        Potential amp.        0.0038 Ry
        Total length         46.7488 bohr

     Magnetic moment per site:
     atom:    1    charge:    3.5168    magn:   -0.0020    constr:    0.0000
     atom:    2    charge:    3.5121    magn:   -0.0020    constr:    0.0000
     atom:    3    charge:    3.5121    magn:   -0.0020    constr:    0.0000
     atom:    4    charge:    6.0210    magn:    1.6454    constr:    0.0000
     atom:    5    charge:    3.5247    magn:   -0.0007    constr:    0.0000
     atom:    6    charge:    3.5106    magn:   -0.0007    constr:    0.0000
     atom:    7    charge:    3.5106    magn:   -0.0007    constr:    0.0000
     atom:    8    charge:    6.0113    magn:    1.5703    constr:    0.0000
     atom:    9    charge:    3.5155    magn:   -0.0020    constr:    0.0000
     atom:   10    charge:    3.5155    magn:   -0.0020    constr:    0.0000
     atom:   11    charge:    3.5155    magn:   -0.0020    constr:    0.0000
     atom:   12    charge:    6.0128    magn:    1.5546    constr:    0.0000

     End of self-consistent calculation

 ------ SPIN UP ------------

[...]

 ------ SPIN DOWN ----------

[...]

          k = 0.0507 0.0000 0.0000 ( 24148 PWs)   bands (ev):

[...]

          k =-0.0760-0.1316 0.0000 ( 24164 PWs)   bands (ev):

   -76.9518 -76.8139 -76.8066 -45.7742 -45.7363 -45.7360 -45.6286 -45.6107
   -45.6105 -45.6067 -45.6065 -45.5856 -21.3692 -21.3338 -21.3296 -21.3244
   -21.3165 -21.3093 -21.3081 -21.3010 -21.2906 -21.2853 -21.2743 -21.2711
   -21.2668 -21.2607 -21.2582 -21.2543 -21.2513 -21.2505 -21.2476 -21.2470
   -21.2400 -21.2339 -21.2311 -21.2305 -21.2267 -21.2241 -21.2212 -21.2203
   -21.2155 -21.2148 -21.2112 -21.2078 -21.2011 -21.2003 -21.1976 -21.1961
   -21.1944 -21.1929 -21.1816 -21.1807 -21.1720 -21.1653 -21.1489 -21.1395
   -21.1253  -8.8252  -8.5198  -7.5860  -7.1324  -6.5892  -6.4291  -5.7968
    -5.4447  -4.1310  -3.4252  -2.9334  -2.0163  -1.2467  -1.1378  -0.9881
    -0.7765  -0.6249  -0.2936  -0.1459   0.1388   0.1581   0.4066   0.7508
     0.9280   1.0682   1.0875   1.3097   1.3532   1.3993   1.4363   1.4983
     1.5749   1.5974   1.6488   1.7205   1.9029   2.0769   2.1706   2.3460
     2.5451   2.7516   2.9995   3.0772   3.1292   3.5679   3.8868   4.0516
     4.3064   4.4654   4.5901   4.9503   5.0090   5.1712   5.3647   5.4209
     5.4711   5.6229   5.7112

     the Fermi energy is     0.6368 ev

!    total energy              =   -2082.50041724 Ry
     Harris-Foulkes estimate   =   -2082.50041630 Ry
     estimated scf accuracy    <       0.00000054 Ry

     The total energy is the sum of the following terms:

     one-electron contribution =  -11700.93979072 Ry
     hartree contribution      =    5894.73302657 Ry
     xc contribution           =    -483.39900299 Ry
     ewald contribution        =    4207.14549930 Ry
     electric field correction =       0.00000083 Ry
     smearing contrib. (-TS)   =      -0.04015023 Ry

     total magnetization       =    12.09 Bohr mag/cell
     absolute magnetization    =    13.98 Bohr mag/cell

     convergence has been achieved in  39 iterations

 BEEF-vdW xc energy contributions
           1 :   -424.368799264340
           2 :    387.373168575182
           3 :   -325.185398171128
           4 :    255.608629665572
           5 :   -194.723046534598
           6 :    151.374209580565
           7 :   -125.886449118325
           8 :    112.472989865234
           9 :   -103.452533955312
          10 :    93.1715509879490
          11 :   -80.0802528109676
          12 :    66.3276775405681
          13 :   -55.4515155829703
          14 :    49.6803520567388
          15 :   -48.4919871355841
          16 :    49.1444646428984
          17 :   -48.5882801478275
          18 :    45.3439131615756
          19 :   -40.1558180038775
          20 :    35.1764933526456
          21 :   -32.3994419895813
          22 :    32.3947422720144
          23 :   -34.0763229612835
          24 :    35.5190307753344
          25 :   -35.2266630306897
          26 :    33.0155398994020
          27 :   -29.9867009722542
          28 :    27.6782638337055
          29 :   -27.0302971791650
          30 :    27.8493001698856
          31 :   -37.1621094159176
          32 :   -26.8669418252929

     Forces acting on atoms (Ry/au):

     negative rho (up, down):  1.189E-03 9.560E-04
     atom    1 type  1   force =    -0.00000078    0.00715891    0.00045285
     atom    2 type  1   force =     0.00619921   -0.00357912    0.00043852
     atom    3 type  1   force =    -0.00619936   -0.00357828    0.00043782
     atom    4 type  2   force =     0.00000003    0.00000550    0.02341983
     atom    5 type  1   force =     0.00000029   -0.00705782   -0.00612670
     atom    6 type  1   force =    -0.00611378    0.00353124   -0.00612554
     atom    7 type  1   force =     0.00611405    0.00353128   -0.00612511
     atom    8 type  2   force =    -0.00000020    0.00000312   -0.00303386
     atom    9 type  1   force =    -0.00000015   -0.00003256   -0.00107512
     atom   10 type  1   force =    -0.00003764    0.00001092   -0.00107745
     atom   11 type  1   force =     0.00003840    0.00001284   -0.00107689
     atom   12 type  2   force =    -0.00000006   -0.00000602   -0.00010833

     Total force =     0.031266     Total SCF correction =     0.002548

     entering subroutine stress ...

     negative rho (up, down):  1.189E-03 9.560E-04
          total   stress  (Ry/bohr**3)                   (kbar)     P=   -9.05
  -0.00007280  -0.00000000   0.00000000        -10.71     -0.00      0.00
  -0.00000000  -0.00007289   0.00000000         -0.00    -10.72      0.00
   0.00000000   0.00000000  -0.00003885          0.00      0.00     -5.72

 !ASE

     Writing output data file calc.save

     General routines

     Parallel routines

   This run was terminated on:  20:30:41   1Jan2019

   JOB DONE.
Job  /afs/slac/g/suncat/bin/suncat-tsmpirun -x LD_LIBRARY_PATH -wdir /scratch/qe649017_pPpdN pw.x -in pw.inp

TID   HOST_NAME   COMMAND_LINE            STATUS            TERMINATION_TIME
00000 suncat0278 pw.x -in pw.inp   Done                     01/01/2019 20:30:41
00001 suncat0278 pw.x -in pw.inp   Done                     01/01/2019 20:30:41
00002 suncat0278 pw.x -in pw.inp   Done                     01/01/2019 20:30:41
00003 suncat0278 pw.x -in pw.inp   Done                     01/01/2019 20:30:41
00004 suncat0278 pw.x -in pw.inp   Done                     01/01/2019 20:30:41
00005 suncat0278 pw.x -in pw.inp   Done                     01/01/2019 20:30:41
00006 suncat0278 pw.x -in pw.inp   Done                     01/01/2019 20:30:41
00007 suncat0278 pw.x -in pw.inp   Done                     01/01/2019 20:30:41
00008 suncat0271 pw.x -in pw.inp   Done                     01/01/2019 20:30:41
00009 suncat0271 pw.x -in pw.inp   Done                     01/01/2019 20:30:41
00010 suncat0271 pw.x -in pw.inp   Done                     01/01/2019 20:30:41
00011 suncat0271 pw.x -in pw.inp   Done                     01/01/2019 20:30:41
00012 suncat0271 pw.x -in pw.inp   Done                     01/01/2019 20:30:41
00013 suncat0271 pw.x -in pw.inp   Done                     01/01/2019 20:30:41
00014 suncat0271 pw.x -in pw.inp   Done                     01/01/2019 20:30:41
00015 suncat0271 pw.x -in pw.inp   Done                     01/01/2019 20:30:41
00016 suncat0266 pw.x -in pw.inp   Done                     01/01/2019 20:30:41
00017 suncat0266 pw.x -in pw.inp   Done                     01/01/2019 20:30:41
00018 suncat0266 pw.x -in pw.inp   Done                     01/01/2019 20:30:41
00019 suncat0266 pw.x -in pw.inp   Done                     01/01/2019 20:30:41
00020 suncat0266 pw.x -in pw.inp   Done                     01/01/2019 20:30:41
00021 suncat0266 pw.x -in pw.inp   Done                     01/01/2019 20:30:41
00022 suncat0266 pw.x -in pw.inp   Done                     01/01/2019 20:30:41
00023 suncat0266 pw.x -in pw.inp   Done                     01/01/2019 20:30:41
00024 suncat0251 pw.x -in pw.inp   Done                     01/01/2019 20:30:41
00025 suncat0251 pw.x -in pw.inp   Done                     01/01/2019 20:30:41
00026 suncat0251 pw.x -in pw.inp   Done                     01/01/2019 20:30:41
00027 suncat0251 pw.x -in pw.inp   Done                     01/01/2019 20:30:41
00028 suncat0251 pw.x -in pw.inp   Done                     01/01/2019 20:30:41
00029 suncat0251 pw.x -in pw.inp   Done                     01/01/2019 20:30:41
00030 suncat0251 pw.x -in pw.inp   Done                     01/01/2019 20:30:41
00031 suncat0251 pw.x -in pw.inp   Done                     01/01/2019 20:30:41
00032 suncat0244 pw.x -in pw.inp   Done                     01/01/2019 20:30:41
00033 suncat0244 pw.x -in pw.inp   Done                     01/01/2019 20:30:41
00034 suncat0244 pw.x -in pw.inp   Done                     01/01/2019 20:30:41
00035 suncat0244 pw.x -in pw.inp   Done                     01/01/2019 20:30:41
00036 suncat0244 pw.x -in pw.inp   Done                     01/01/2019 20:30:41
00037 suncat0244 pw.x -in pw.inp   Done                     01/01/2019 20:30:41
00038 suncat0244 pw.x -in pw.inp   Done                     01/01/2019 20:30:41
00039 suncat0244 pw.x -in pw.inp   Done                     01/01/2019 20:30:41
00040 suncat0239 pw.x -in pw.inp   Done                     01/01/2019 20:30:41
00041 suncat0239 pw.x -in pw.inp   Done                     01/01/2019 20:30:41
00042 suncat0239 pw.x -in pw.inp   Done                     01/01/2019 20:30:41
00043 suncat0239 pw.x -in pw.inp   Done                     01/01/2019 20:30:41
00044 suncat0239 pw.x -in pw.inp   Done                     01/01/2019 20:30:41
00045 suncat0239 pw.x -in pw.inp   Done                     01/01/2019 20:30:41
00046 suncat0239 pw.x -in pw.inp   Done                     01/01/2019 20:30:41
00047 suncat0239 pw.x -in pw.inp   Done                     01/01/2019 20:30:41
00048 suncat0099 pw.x -in pw.inp   Done                     01/01/2019 20:30:41
00049 suncat0099 pw.x -in pw.inp   Done                     01/01/2019 20:30:41
00050 suncat0099 pw.x -in pw.inp   Done                     01/01/2019 20:30:41
00051 suncat0099 pw.x -in pw.inp   Done                     01/01/2019 20:30:41
00052 suncat0099 pw.x -in pw.inp   Done                     01/01/2019 20:30:41
00053 suncat0099 pw.x -in pw.inp   Done                     01/01/2019 20:30:41
00054 suncat0099 pw.x -in pw.inp   Done                     01/01/2019 20:30:41
00055 suncat0099 pw.x -in pw.inp   Done                     01/01/2019 20:30:41
00056 suncat0098 pw.x -in pw.inp   Done                     01/01/2019 20:30:41
00057 suncat0098 pw.x -in pw.inp   Done                     01/01/2019 20:30:41
00058 suncat0098 pw.x -in pw.inp   Done                     01/01/2019 20:30:41
00059 suncat0098 pw.x -in pw.inp   Done                     01/01/2019 20:30:41
00060 suncat0098 pw.x -in pw.inp   Done                     01/01/2019 20:30:41
00061 suncat0098 pw.x -in pw.inp   Done                     01/01/2019 20:30:41
00062 suncat0098 pw.x -in pw.inp   Done                     01/01/2019 20:30:41
00063 suncat0098 pw.x -in pw.inp   Done                     01/01/2019 20:30:41