     Program PWSCF v.5.1rc2 (svn rev. 11289) starts on  1Jan2019 at 22:35:58

     Current dimensions of program PWSCF are:
     Max number of different atomic species (ntypx) = 10
     Max number of k-points (npk) =  40000
     Max angular momentum in pseudopotentials (lmaxx) =  3
     Presently stress not available with electric field

     IMPORTANT: XC functional enforced from input :
     Exchange-correlation      = BEEF-VDW ( 1  4 27 13 2)
     Any further DFT definition will be discarded
     Please, verify this is what you really want

     Subspace diagonalization in iterative solution of the eigenvalue problem:
     a serial algorithm will be used

     Generating pointlists ...
     new r_m :   0.4125 (alat units)  0.7795 (a.u.) for type    1
     new r_m :   0.4125 (alat units)  0.7795 (a.u.) for type    2

     bravais-lattice index     =            0
     lattice parameter (alat)  =       1.8897  a.u.
     unit-cell volume          =    4487.9919 (a.u.)^3
     number of atoms/cell      =           12
     number of atomic types    =            2
     number of electrons       =       153.00
     number of Kohn-Sham states=          106
     kinetic-energy cutoff     =      36.7493  Ry
     charge density cutoff     =     367.4932  Ry
     convergence threshold     =      1.0E-06
     mixing beta               =       0.1000
     number of iterations used =           10  plain     mixing
     Exchange-correlation      = BEEF-VDW ( 1  4 27 13 2)
     nstep                     =           50

     celldm(1)=   1.889726  celldm(2)=   0.000000  celldm(3)=   0.000000
     celldm(4)=   0.000000  celldm(5)=   0.000000  celldm(6)=   0.000000

     crystal axes: (cart. coord. in units of alat)
               a(1) = (   5.591168   0.000000   0.000000 )
               a(2) = (  -2.795584   4.842093   0.000000 )
               a(3) = (   0.000000   0.000000  24.565169 )

     reciprocal axes: (cart. coord. in units 2 pi/alat)
               b(1) = (  0.178854  0.103261  0.000000 )
               b(2) = (  0.000000  0.206522  0.000000 )
               b(3) = (  0.000000  0.000000  0.040708 )

     PseudoPot. # 1 for Ti read from file:
     /afs/slac.stanford.edu/u/if/mamunm/psp/gbrv1.5pbe/Ti.UPF
     MD5 check sum: 88a00a6731bd790ddea75d31a80cb452
     Pseudo is Ultrasoft + core correction, Zval = 12.0
     Generated by new atomic code, or converted to UPF format
     Using radial grid of  851 points,  6 beta functions with:
                l(1) =   0
                l(2) =   0
                l(3) =   1
                l(4) =   1
                l(5) =   2
                l(6) =   2
     Q(r) pseudized with  6 coefficients,  rinner =    1.000   1.000   1.000
                                                       1.000   1.000

     PseudoPot. # 2 for Mn read from file:
     /afs/slac.stanford.edu/u/if/mamunm/psp/gbrv1.5pbe/Mn.UPF
     MD5 check sum: 82ef2b46521d7a7d9e736dc3972e4928
     Pseudo is Ultrasoft + core correction, Zval = 15.0
     Generated by new atomic code, or converted to UPF format
     Using radial grid of  859 points,  6 beta functions with:
                l(1) =   0
                l(2) =   0
                l(3) =   1
                l(4) =   1
                l(5) =   2
                l(6) =   2
     Q(r) pseudized with  8 coefficients,  rinner =    0.950   0.950   0.950
                                                       0.950   0.950

     vdW kernel table read from file vdW_kernel_table
     MD5 check sum: 095c7af220d748ca6e76c0b4c6cfb241

     atomic species   valence    mass     pseudopotential
        Ti1           12.00    47.86700     Ti( 1.00)
        Mn1           15.00    54.93804     Mn( 1.00)

     Starting magnetic structure
     atomic species   magnetization
        Ti1          0.167
        Mn1          0.133

     No symmetry found

   Cartesian axes

     site n.     atom                  positions (alat units)
         1           Ti1 tau(   1) = (   0.0000000   0.0000000  10.0000000  )
         2           Ti1 tau(   2) = (  -1.3977920   2.4210467  10.0000000  )
         3           Ti1 tau(   3) = (   1.3977920   2.4210467  10.0000000  )
         4           Mn1 tau(   4) = (   2.7955839   0.0000000  10.0000000  )
         5           Ti1 tau(   5) = (   2.7955839   1.6140311  12.2825847  )
         6           Ti1 tau(   6) = (   1.3977920   4.0350778  12.2825847  )
         7           Ti1 tau(   7) = (  -1.3977920   4.0350778  12.2825847  )
         8           Mn1 tau(   8) = (  -0.0000000   1.6140311  12.2825847  )
         9           Ti1 tau(   9) = (  -0.0000000   3.2280623  14.5651695  )
        10           Ti1 tau(  10) = (   1.3977920   0.8070156  14.5651695  )
        11           Ti1 tau(  11) = (   4.1933759   0.8070156  14.5651695  )
        12           Mn1 tau(  12) = (   2.7955839   3.2280623  14.5651695  )

     number of k points=    40  Fermi-Dirac smearing, width (Ry)=  0.0110
                       cart. coord. in units 2pi/alat
        k(    1) = (   0.0000000   0.0000000   0.0000000), wk =   0.0277778
        k(    2) = (   0.0000000   0.0344204   0.0000000), wk =   0.0555556
        k(    3) = (   0.0000000   0.0688407   0.0000000), wk =   0.0555556
        k(    4) = (   0.0000000  -0.1032611   0.0000000), wk =   0.0277778
        k(    5) = (   0.0298089   0.0172102   0.0000000), wk =   0.0555556
        k(    6) = (   0.0298089   0.0516306   0.0000000), wk =   0.0555556
        k(    7) = (   0.0298089   0.0860509   0.0000000), wk =   0.0555556
        k(    8) = (   0.0298089  -0.0860509   0.0000000), wk =   0.0555556
        k(    9) = (   0.0298089  -0.0516306   0.0000000), wk =   0.0555556
        k(   10) = (   0.0298089  -0.0172102   0.0000000), wk =   0.0555556
        k(   11) = (   0.0596178   0.0344204   0.0000000), wk =   0.0555556
        k(   12) = (   0.0596178   0.0688407   0.0000000), wk =   0.0555556
        k(   13) = (   0.0596178   0.1032611   0.0000000), wk =   0.0555556
        k(   14) = (   0.0596178  -0.0688407   0.0000000), wk =   0.0555556
        k(   15) = (   0.0596178  -0.0344204   0.0000000), wk =   0.0555556
        k(   16) = (   0.0596178   0.0000000   0.0000000), wk =   0.0555556
        k(   17) = (  -0.0894268  -0.0516306   0.0000000), wk =   0.0277778
        k(   18) = (  -0.0894268  -0.0172102   0.0000000), wk =   0.0555556
        k(   19) = (  -0.0894268   0.0172102   0.0000000), wk =   0.0555556
        k(   20) = (  -0.0894268  -0.1548917   0.0000000), wk =   0.0277778
        k(   21) = (   0.0000000   0.0000000   0.0000000), wk =   0.0277778
        k(   22) = (   0.0000000   0.0344204   0.0000000), wk =   0.0555556
        k(   23) = (   0.0000000   0.0688407   0.0000000), wk =   0.0555556
        k(   24) = (   0.0000000  -0.1032611   0.0000000), wk =   0.0277778
        k(   25) = (   0.0298089   0.0172102   0.0000000), wk =   0.0555556
        k(   26) = (   0.0298089   0.0516306   0.0000000), wk =   0.0555556
        k(   27) = (   0.0298089   0.0860509   0.0000000), wk =   0.0555556
        k(   28) = (   0.0298089  -0.0860509   0.0000000), wk =   0.0555556
        k(   29) = (   0.0298089  -0.0516306   0.0000000), wk =   0.0555556
        k(   30) = (   0.0298089  -0.0172102   0.0000000), wk =   0.0555556
        k(   31) = (   0.0596178   0.0344204   0.0000000), wk =   0.0555556
        k(   32) = (   0.0596178   0.0688407   0.0000000), wk =   0.0555556
        k(   33) = (   0.0596178   0.1032611   0.0000000), wk =   0.0555556
        k(   34) = (   0.0596178  -0.0688407   0.0000000), wk =   0.0555556
        k(   35) = (   0.0596178  -0.0344204   0.0000000), wk =   0.0555556
        k(   36) = (   0.0596178   0.0000000   0.0000000), wk =   0.0555556
        k(   37) = (  -0.0894268  -0.0516306   0.0000000), wk =   0.0277778
        k(   38) = (  -0.0894268  -0.0172102   0.0000000), wk =   0.0555556
        k(   39) = (  -0.0894268   0.0172102   0.0000000), wk =   0.0555556
        k(   40) = (  -0.0894268  -0.1548917   0.0000000), wk =   0.0277778

     Largest allocated arrays     est. size (Mb)     dimensions
     Largest temporary arrays     est. size (Mb)     dimensions

     Check: negative/imaginary core charge=   -0.000007    0.000000

     Initial potential from superposition of free atoms
     Check: negative starting charge=(component1):   -0.006519
     Check: negative starting charge=(component2):   -0.004693

     starting charge  142.49935, renormalised to  153.00000

     negative rho (up, down):  7.000E-03 5.038E-03

     *
     * You are using vdW-DF for exchange-correlation in this calculation.
     * Please cite the following three references that made this development
     * possible:
     *
     *   M. Dion, H. Rydberg, E. Schroder, D. C. Langreth, and
     *   B. I. Lundqvist, Phys. Rev. Lett. 92, 246401 (2004).
     *
     *   T. Thonhauser, V. R. Cooper, S. Li, A. Puzder, P. Hyldgaard, and
     *   D. C. Langreth, Phys. Rev. B 76, 125112 (2007).
     *
     *   G. Roman-Perez and J. M. Soler, Phys. Rev. Lett. 103, 096102 (2009).
     *
     *
     * If you are using vdW-DF2, please also cite:
     *
     *   K. Lee, E. D. Murray, L. Kong, B. I. Lundqvist, and
     *   D. C. Langreth, Phys. Rev. B 82, 081101(R) (2010).
     *
     *
     * If you are calculating the stress with vdW-DF, please also cite:
     *
     *   R. Sabatini, E. Kucukbenli, B. Kolb, T. Thonhauser, and
     *   S. de Gironcoli, J. Phys.: Condens. Matter 24, 424209 (2012).
     *

     Carrying out vdW-DF run using the following parameters:

     Nqs =      20    Nr_points =    1024   r_max =   100.000
     q_mesh =
               0.00001000     0.04494208     0.09755937     0.15916263
               0.23128650     0.31572767     0.41458969     0.53033537
               0.66584808     0.82450364     1.01025438     1.22772762
               1.48234092     1.78043706     2.12944203     2.53805004
               3.01644009     3.57652955     4.23227104     5.00000000

     Gradients computed in reciprocal space

     Adding external electric field

     Computed dipole along edir(3) :
        Dipole                0.0000 Ry au,          0.0000 Debye
        Dipole field          0.0000 Ry au

        Potential amp.       -0.0000 Ry
        Total length         45.2609 bohr

[...]

     Starting wfc are  129 randomized atomic wfcs

     Self-consistent Calculation

     iteration #  1     ecut=    36.75 Ry     beta=0.10
     Davidson diagonalization with overlap
     ethr =  1.00E-02,  avg # of iterations =  6.0

[...]

     Magnetic moment per site:
     atom:    1    charge:    3.2875    magn:    0.5161    constr:    0.0000
     atom:    2    charge:    3.2875    magn:    0.5161    constr:    0.0000
     atom:    3    charge:    3.2875    magn:    0.5161    constr:    0.0000
     atom:    4    charge:    6.1625    magn:    0.7729    constr:    0.0000
     atom:    5    charge:    3.2898    magn:    0.5119    constr:    0.0000
     atom:    6    charge:    3.2898    magn:    0.5119    constr:    0.0000
     atom:    7    charge:    3.2898    magn:    0.5119    constr:    0.0000
     atom:    8    charge:    6.1627    magn:    0.7723    constr:    0.0000
[...]
        k(    1) = (   0.0000000   0.0000000   0.0000000), wk =   0.0277778
        k(    2) = (   0.0000000   0.0344204   0.0000000), wk =   0.0555556
        k(    3) = (   0.0000000   0.0688407   0.0000000), wk =   0.0555556
        k(    4) = (   0.0000000  -0.1032611   0.0000000), wk =   0.0277778
        k(    5) = (   0.0298089   0.0172102   0.0000000), wk =   0.0555556
        k(    6) = (   0.0298089   0.0516306   0.0000000), wk =   0.0555556
        k(    7) = (   0.0298089   0.0860509   0.0000000), wk =   0.0555556
        k(    8) = (   0.0298089  -0.0860509   0.0000000), wk =   0.0555556
        k(    9) = (   0.0298089  -0.0516306   0.0000000), wk =   0.0555556
        k(   10) = (   0.0298089  -0.0172102   0.0000000), wk =   0.0555556
        k(   11) = (   0.0596178   0.0344204   0.0000000), wk =   0.0555556
        k(   12) = (   0.0596178   0.0688407   0.0000000), wk =   0.0555556
        k(   13) = (   0.0596178   0.1032611   0.0000000), wk =   0.0555556
        k(   14) = (   0.0596178  -0.0688407   0.0000000), wk =   0.0555556
        k(   15) = (   0.0596178  -0.0344204   0.0000000), wk =   0.0555556
        k(   16) = (   0.0596178   0.0000000   0.0000000), wk =   0.0555556
        k(   17) = (  -0.0894268  -0.0516306   0.0000000), wk =   0.0277778
        k(   18) = (  -0.0894268  -0.0172102   0.0000000), wk =   0.0555556
        k(   19) = (  -0.0894268   0.0172102   0.0000000), wk =   0.0555556
        k(   20) = (  -0.0894268  -0.1548917   0.0000000), wk =   0.0277778
        k(   21) = (   0.0000000   0.0000000   0.0000000), wk =   0.0277778
        k(   22) = (   0.0000000   0.0344204   0.0000000), wk =   0.0555556
        k(   23) = (   0.0000000   0.0688407   0.0000000), wk =   0.0555556
        k(   24) = (   0.0000000  -0.1032611   0.0000000), wk =   0.0277778
        k(   25) = (   0.0298089   0.0172102   0.0000000), wk =   0.0555556
        k(   26) = (   0.0298089   0.0516306   0.0000000), wk =   0.0555556
        k(   27) = (   0.0298089   0.0860509   0.0000000), wk =   0.0555556
        k(   28) = (   0.0298089  -0.0860509   0.0000000), wk =   0.0555556
        k(   29) = (   0.0298089  -0.0516306   0.0000000), wk =   0.0555556
        k(   30) = (   0.0298089  -0.0172102   0.0000000), wk =   0.0555556
        k(   31) = (   0.0596178   0.0344204   0.0000000), wk =   0.0555556
        k(   32) = (   0.0596178   0.0688407   0.0000000), wk =   0.0555556
        k(   33) = (   0.0596178   0.1032611   0.0000000), wk =   0.0555556
        k(   34) = (   0.0596178  -0.0688407   0.0000000), wk =   0.0555556
        k(   35) = (   0.0596178  -0.0344204   0.0000000), wk =   0.0555556
        k(   36) = (   0.0596178   0.0000000   0.0000000), wk =   0.0555556
        k(   37) = (  -0.0894268  -0.0516306   0.0000000), wk =   0.0277778
        k(   38) = (  -0.0894268  -0.0172102   0.0000000), wk =   0.0555556
        k(   39) = (  -0.0894268   0.0172102   0.0000000), wk =   0.0555556
        k(   40) = (  -0.0894268  -0.1548917   0.0000000), wk =   0.0277778

     Largest allocated arrays     est. size (Mb)     dimensions
     Largest temporary arrays     est. size (Mb)     dimensions

     Check: negative/imaginary core charge=   -0.000007    0.000000

     Initial potential from superposition of free atoms
     Check: negative starting charge=(component1):   -0.007012
     Check: negative starting charge=(component2):   -0.005045

     starting charge  142.49935, renormalised to  153.00000

[...]

     *
     * You are using vdW-DF for exchange-correlation in this calculation.
     * Please cite the following three references that made this development
     * possible:
     *
     *   M. Dion, H. Rydberg, E. Schroder, D. C. Langreth, and
     *   B. I. Lundqvist, Phys. Rev. Lett. 92, 246401 (2004).
     *
     *   T. Thonhauser, V. R. Cooper, S. Li, A. Puzder, P. Hyldgaard, and
     *   D. C. Langreth, Phys. Rev. B 76, 125112 (2007).
     *
     *   G. Roman-Perez and J. M. Soler, Phys. Rev. Lett. 103, 096102 (2009).
     *
     *
     * If you are using vdW-DF2, please also cite:
     *
     *   K. Lee, E. D. Murray, L. Kong, B. I. Lundqvist, and
     *   D. C. Langreth, Phys. Rev. B 82, 081101(R) (2010).
     *
     *
     * If you are calculating the stress with vdW-DF, please also cite:
     *
     *   R. Sabatini, E. Kucukbenli, B. Kolb, T. Thonhauser, and
     *   S. de Gironcoli, J. Phys.: Condens. Matter 24, 424209 (2012).
     *

     Carrying out vdW-DF run using the following parameters:

     Nqs =      20    Nr_points =    1024   r_max =   100.000
     q_mesh =
               0.00001000     0.04494208     0.09755937     0.15916263
               0.23128650     0.31572767     0.41458969     0.53033537
               0.66584808     0.82450364     1.01025438     1.22772762
               1.48234092     1.78043706     2.12944203     2.53805004
               3.01644009     3.57652955     4.23227104     5.00000000

     Gradients computed in reciprocal space

[...]

     Starting wfc are  129 randomized atomic wfcs

     Self-consistent Calculation

[...]

     total energy              =   -1715.21724048 Ry
     Harris-Foulkes estimate   =   -1715.21723993 Ry
     estimated scf accuracy    <       0.00000260 Ry

[...]

     iteration # 54     ecut=    36.75 Ry     beta=0.10
     Davidson diagonalization with overlap
     ethr =  1.32E-09,  avg # of iterations =  2.5

[...]

     negative rho (up, down):  4.719E-03 2.900E-03

[...]

     Adding external electric field

     Computed dipole along edir(3) :
        Dipole                0.0036 Ry au,          0.0092 Debye
        Dipole field          0.0000 Ry au

        Potential amp.       -0.0009 Ry
        Total length         45.2609 bohr

     Magnetic moment per site:
     atom:    1    charge:    3.1281    magn:   -0.0898    constr:    0.0000
     atom:    2    charge:    3.1281    magn:   -0.0898    constr:    0.0000
     atom:    3    charge:    3.1281    magn:   -0.0898    constr:    0.0000
     atom:    4    charge:    5.9972    magn:    1.2330    constr:    0.0000
     atom:    5    charge:    3.1234    magn:   -0.0341    constr:    0.0000
     atom:    6    charge:    3.1234    magn:   -0.0341    constr:    0.0000
     atom:    7    charge:    3.1234    magn:   -0.0341    constr:    0.0000
     atom:    8    charge:    5.9789    magn:    0.9989    constr:    0.0000
     atom:    9    charge:    3.1297    magn:   -0.0941    constr:    0.0000
     atom:   10    charge:    3.1297    magn:   -0.0941    constr:    0.0000
     atom:   11    charge:    3.1297    magn:   -0.0941    constr:    0.0000
     atom:   12    charge:    6.0089    magn:    1.2245    constr:    0.0000

     End of self-consistent calculation

 ------ SPIN UP ------------

[...]

 ------ SPIN DOWN ----------

[...]

          k = 0.0596 0.0000 0.0000 ( 16880 PWs)   bands (ev):

[...]

          k =-0.0894-0.1549 0.0000 ( 16912 PWs)   bands (ev):

   -76.8339 -76.4809 -76.4736 -56.2070 -56.1935 -56.1631 -56.1587 -56.1322
   -56.1288 -55.9167 -55.8877 -55.8574 -45.5895 -45.5888 -45.5878 -45.2774
   -45.2766 -45.2701 -45.2693 -45.2198 -45.2132 -32.6543 -32.6243 -32.5902
   -32.5505 -32.5478 -32.4994 -32.4822 -32.4812 -32.4665 -32.4439 -32.4248
   -32.4110 -32.3679 -32.3664 -32.3445 -32.3361 -32.3155 -32.1597 -32.1407
   -32.1252 -32.1113 -32.1001 -32.0601 -32.0269 -32.0215 -32.0190 -31.8609
    -3.3888  -3.3258  -2.1555  -2.1277  -1.3907  -1.2275  -1.0986  -0.9418
    -0.9146  -0.8902  -0.3564  -0.2635  -0.1838  -0.1422  -0.1244  -0.1128
     0.1472   0.1582   0.1808   0.3214   0.3872   0.4056   0.4727   0.5324
     0.5679   0.6595   0.7388   0.7565   0.7654   0.9239   0.9808   1.1385
     1.3772   1.3846   1.4420   1.4595   1.4756   1.5845   1.9175   2.0951
     2.0959   2.2643   2.2938   2.4796   2.5283   2.5350   2.6016   2.6633
     2.7339   2.8188   2.8256   2.9650   2.9965   3.0475   3.0758   3.2384
     3.2871   3.4264

     the Fermi energy is     0.9036 ev

!    total energy              =   -1715.21724383 Ry
     Harris-Foulkes estimate   =   -1715.21724099 Ry
     estimated scf accuracy    <       0.00000085 Ry

     The total energy is the sum of the following terms:

     one-electron contribution =  -13270.40929251 Ry
     hartree contribution      =    6623.43173857 Ry
     xc contribution           =    -251.59316274 Ry
     ewald contribution        =    5183.48025275 Ry
     electric field correction =       0.00000004 Ry
     smearing contrib. (-TS)   =      -0.12677994 Ry

     total magnetization       =     4.66 Bohr mag/cell
     absolute magnetization    =    13.65 Bohr mag/cell

     convergence has been achieved in  54 iterations

 BEEF-vdW xc energy contributions
           1 :   -217.437413288563
           2 :    195.093569989917
           3 :   -158.229242862366
           4 :    118.294351475837
           5 :   -84.8797226823037
           6 :    62.1094643082225
           7 :   -48.5171624956484
           8 :    39.6371993765949
           9 :   -31.2795201240194
          10 :    21.5909921204973
          11 :   -11.1926752785464
          12 :    1.86709709846104
          13 :    5.02563034137810
          14 :   -9.38050519060769
          15 :    12.0925009576030
          16 :   -14.1874658306886
          17 :    16.0920940383624
          18 :   -17.5260845895844
          19 :    17.9219952794197
          20 :   -16.9574469956655
          21 :    14.8009121057274
          22 :   -11.9800223626538
          23 :    9.03680690572040
          24 :   -6.25348108376178
          25 :    3.61153404986501
          26 :  -0.965434395626886
          27 :   -1.74849870818511
          28 :    4.41896161123938
          29 :   -6.82315265156919
          30 :    8.75322928929651
          31 :   -21.9179549028214
          32 :   -15.5981234924235

     Forces acting on atoms (Ry/au):

     negative rho (up, down):  4.719E-03 2.900E-03
     atom    1 type  1   force =     0.00000086    0.01332883   -0.00184392
     atom    2 type  1   force =     0.01154325   -0.00666396   -0.00184410
     atom    3 type  1   force =    -0.01154297   -0.00666484   -0.00184364
     atom    4 type  2   force =    -0.00000083    0.00000035    0.00221196
     atom    5 type  1   force =    -0.00000001   -0.00141179    0.00293222
     atom    6 type  1   force =    -0.00122281    0.00070555    0.00293391
     atom    7 type  1   force =     0.00122282    0.00070554    0.00293288
     atom    8 type  2   force =     0.00000001    0.00000017   -0.00414598
     atom    9 type  1   force =    -0.00000027    0.00077262   -0.00009522
     atom   10 type  1   force =     0.00066861   -0.00038693   -0.00009472
     atom   11 type  1   force =    -0.00066879   -0.00038665   -0.00009575
     atom   12 type  2   force =     0.00000014    0.00000112   -0.00104765

     Total force =     0.024494     Total SCF correction =     0.001631

     entering subroutine stress ...

     negative rho (up, down):  4.719E-03 2.900E-03
          total   stress  (Ry/bohr**3)                   (kbar)     P=    0.68
   0.00000851  -0.00000000  -0.00000000          1.25     -0.00     -0.00
  -0.00000000   0.00000851   0.00000000         -0.00      1.25      0.00
  -0.00000000   0.00000000  -0.00000321         -0.00      0.00     -0.47

 !ASE

     Writing output data file calc.save

     General routines

     Parallel routines

   This run was terminated on:   1:53:31   2Jan2019

   JOB DONE.
Job  /afs/slac/g/suncat/bin/suncat-tsmpirun -x LD_LIBRARY_PATH -wdir /scratch/qe649205_pUg6j pw.x -in pw.inp

TID   HOST_NAME   COMMAND_LINE            STATUS            TERMINATION_TIME
00000 suncat0097 pw.x -in pw.inp   Done                     01/02/2019 01:53:31
00001 suncat0097 pw.x -in pw.inp   Done                     01/02/2019 01:53:31
00002 suncat0097 pw.x -in pw.inp   Done                     01/02/2019 01:53:31
00003 suncat0097 pw.x -in pw.inp   Done                     01/02/2019 01:53:31
00004 suncat0097 pw.x -in pw.inp   Done                     01/02/2019 01:53:31
00005 suncat0097 pw.x -in pw.inp   Done                     01/02/2019 01:53:31
00006 suncat0097 pw.x -in pw.inp   Done                     01/02/2019 01:53:31
00007 suncat0097 pw.x -in pw.inp   Done                     01/02/2019 01:53:31
00008 suncat0094 pw.x -in pw.inp   Done                     01/02/2019 01:53:31
00009 suncat0094 pw.x -in pw.inp   Done                     01/02/2019 01:53:31
00010 suncat0094 pw.x -in pw.inp   Done                     01/02/2019 01:53:31
00011 suncat0094 pw.x -in pw.inp   Done                     01/02/2019 01:53:31
00012 suncat0094 pw.x -in pw.inp   Done                     01/02/2019 01:53:31
00013 suncat0094 pw.x -in pw.inp   Done                     01/02/2019 01:53:31
00014 suncat0094 pw.x -in pw.inp   Done                     01/02/2019 01:53:31
00015 suncat0094 pw.x -in pw.inp   Done                     01/02/2019 01:53:31
00016 suncat0093 pw.x -in pw.inp   Done                     01/02/2019 01:53:31
00017 suncat0093 pw.x -in pw.inp   Done                     01/02/2019 01:53:31
00018 suncat0093 pw.x -in pw.inp   Done                     01/02/2019 01:53:31
00019 suncat0093 pw.x -in pw.inp   Done                     01/02/2019 01:53:31
00020 suncat0093 pw.x -in pw.inp   Done                     01/02/2019 01:53:31
00021 suncat0093 pw.x -in pw.inp   Done                     01/02/2019 01:53:31
00022 suncat0093 pw.x -in pw.inp   Done                     01/02/2019 01:53:31
00023 suncat0093 pw.x -in pw.inp   Done                     01/02/2019 01:53:31
00024 suncat0079 pw.x -in pw.inp   Done                     01/02/2019 01:53:31
00025 suncat0079 pw.x -in pw.inp   Done                     01/02/2019 01:53:31
00026 suncat0079 pw.x -in pw.inp   Done                     01/02/2019 01:53:31
00027 suncat0079 pw.x -in pw.inp   Done                     01/02/2019 01:53:31
00028 suncat0079 pw.x -in pw.inp   Done                     01/02/2019 01:53:31
00029 suncat0079 pw.x -in pw.inp   Done                     01/02/2019 01:53:31
00030 suncat0079 pw.x -in pw.inp   Done                     01/02/2019 01:53:31
00031 suncat0079 pw.x -in pw.inp   Done                     01/02/2019 01:53:31
00032 suncat0274 pw.x -in pw.inp   Done                     01/02/2019 01:53:31
00033 suncat0274 pw.x -in pw.inp   Done                     01/02/2019 01:53:31
00034 suncat0274 pw.x -in pw.inp   Done                     01/02/2019 01:53:31
00035 suncat0274 pw.x -in pw.inp   Done                     01/02/2019 01:53:31
00036 suncat0274 pw.x -in pw.inp   Done                     01/02/2019 01:53:31
00037 suncat0274 pw.x -in pw.inp   Done                     01/02/2019 01:53:31
00038 suncat0274 pw.x -in pw.inp   Done                     01/02/2019 01:53:31
00039 suncat0274 pw.x -in pw.inp   Done                     01/02/2019 01:53:31
00040 suncat0273 pw.x -in pw.inp   Done                     01/02/2019 01:53:31
00041 suncat0273 pw.x -in pw.inp   Done                     01/02/2019 01:53:31
00042 suncat0273 pw.x -in pw.inp   Done                     01/02/2019 01:53:31
00043 suncat0273 pw.x -in pw.inp   Done                     01/02/2019 01:53:31
00044 suncat0273 pw.x -in pw.inp   Done                     01/02/2019 01:53:31
00045 suncat0273 pw.x -in pw.inp   Done                     01/02/2019 01:53:31
00046 suncat0273 pw.x -in pw.inp   Done                     01/02/2019 01:53:31
00047 suncat0273 pw.x -in pw.inp   Done                     01/02/2019 01:53:31
00048 suncat0230 pw.x -in pw.inp   Done                     01/02/2019 01:53:31
00049 suncat0230 pw.x -in pw.inp   Done                     01/02/2019 01:53:31
00050 suncat0230 pw.x -in pw.inp   Done                     01/02/2019 01:53:31
00051 suncat0230 pw.x -in pw.inp   Done                     01/02/2019 01:53:31
00052 suncat0230 pw.x -in pw.inp   Done                     01/02/2019 01:53:31
00053 suncat0230 pw.x -in pw.inp   Done                     01/02/2019 01:53:31
00054 suncat0230 pw.x -in pw.inp   Done                     01/02/2019 01:53:31
00055 suncat0230 pw.x -in pw.inp   Done                     01/02/2019 01:53:31
00056 suncat0229 pw.x -in pw.inp   Done                     01/02/2019 01:53:31
00057 suncat0229 pw.x -in pw.inp   Done                     01/02/2019 01:53:31
00058 suncat0229 pw.x -in pw.inp   Done                     01/02/2019 01:53:31
00059 suncat0229 pw.x -in pw.inp   Done                     01/02/2019 01:53:31
00060 suncat0229 pw.x -in pw.inp   Done                     01/02/2019 01:53:31
00061 suncat0229 pw.x -in pw.inp   Done                     01/02/2019 01:53:31
00062 suncat0229 pw.x -in pw.inp   Done                     01/02/2019 01:53:31
00063 suncat0229 pw.x -in pw.inp   Done                     01/02/2019 01:53:31