     Program PWSCF v.5.1rc2 (svn rev. 11289) starts on 31Dec2018 at 22:29:13

     Current dimensions of program PWSCF are:
     Max number of different atomic species (ntypx) = 10
     Max number of k-points (npk) =  40000
     Max angular momentum in pseudopotentials (lmaxx) =  3
     Presently stress not available with electric field

     IMPORTANT: XC functional enforced from input :
     Exchange-correlation      = BEEF-VDW ( 1  4 27 13 2)
     Any further DFT definition will be discarded
     Please, verify this is what you really want

     Subspace diagonalization in iterative solution of the eigenvalue problem:
     a serial algorithm will be used

     bravais-lattice index     =            0
     lattice parameter (alat)  =       1.8897  a.u.
     unit-cell volume          =    5031.2089 (a.u.)^3
     number of atoms/cell      =           12
     number of atomic types    =            2
     number of electrons       =       168.00
     number of Kohn-Sham states=          114
     kinetic-energy cutoff     =      36.7493  Ry
     charge density cutoff     =     367.4932  Ry
     convergence threshold     =      1.0E-06
     mixing beta               =       0.1000
     number of iterations used =           10  plain     mixing
     Exchange-correlation      = BEEF-VDW ( 1  4 27 13 2)
     nstep                     =           50

     celldm(1)=   1.889726  celldm(2)=   0.000000  celldm(3)=   0.000000
     celldm(4)=   0.000000  celldm(5)=   0.000000  celldm(6)=   0.000000

     crystal axes: (cart. coord. in units of alat)
               a(1) = (   5.890633   0.000000   0.000000 )
               a(2) = (  -2.945316   5.101438   0.000000 )
               a(3) = (   0.000000   0.000000  24.809682 )

     reciprocal axes: (cart. coord. in units 2 pi/alat)
               b(1) = (  0.169761  0.098012  0.000000 )
               b(2) = (  0.000000  0.196023  0.000000 )
               b(3) = (  0.000000  0.000000  0.040307 )

     PseudoPot. # 1 for Rh read from file:
     /afs/slac.stanford.edu/u/if/mamunm/psp/gbrv1.5pbe/Rh.UPF
     MD5 check sum: 761627e959a2e3a1f56b0b5fe687810e
     Pseudo is Ultrasoft + core correction, Zval = 15.0
     Generated by new atomic code, or converted to UPF format
     Using radial grid of  969 points,  7 beta functions with:
                l(1) =   0
                l(2) =   0
                l(3) =   1
                l(4) =   1
                l(5) =   2
                l(6) =   2
                l(7) =   2
     Q(r) pseudized with  8 coefficients,  rinner =    1.200   1.200   1.200
                                                       1.200   1.200

     PseudoPot. # 2 for La read from file:
     /afs/slac.stanford.edu/u/if/mamunm/psp/gbrv1.5pbe/La.UPF
     MD5 check sum: 5937b0c7494ba0601a847275249473aa
     Pseudo is Ultrasoft + core correction, Zval = 11.0
     Generated by new atomic code, or converted to UPF format
     Using radial grid of  995 points,  8 beta functions with:
                l(1) =   0
                l(2) =   0
                l(3) =   1
                l(4) =   1
                l(5) =   2
                l(6) =   2
                l(7) =   3
                l(8) =   3
     Q(r) pseudized with  8 coefficients,  rinner =    1.700   1.700   1.700
                                                       1.700   1.700   1.700
                                                       1.700

     vdW kernel table read from file vdW_kernel_table
     MD5 check sum: 095c7af220d748ca6e76c0b4c6cfb241

     atomic species   valence    mass     pseudopotential
        Rh1           15.00   102.90550     Rh( 1.00)
        La1           11.00   138.90547     La( 1.00)

     No symmetry found

   Cartesian axes

     site n.     atom                  positions (alat units)
         1           Rh1 tau(   1) = (   0.0000000   0.0000000  10.0000000  )
         2           Rh1 tau(   2) = (   4.4179747   2.5507189  10.0000000  )
         3           Rh1 tau(   3) = (   1.4726582   2.5507189  10.0000000  )
         4           La1 tau(   4) = (   2.9453165   0.0000000  10.0000000  )
         5           Rh1 tau(   5) = (   2.9453165   1.7004793  12.4048408  )
         6           Rh1 tau(   6) = (   1.4726582   4.2511981  12.4048408  )
         7           Rh1 tau(   7) = (  -1.4726582   4.2511981  12.4048408  )
         8           La1 tau(   8) = (   0.0000000   1.7004793  12.4048408  )
         9           Rh1 tau(   9) = (  -0.0000000   3.4009585  14.8096817  )
        10           Rh1 tau(  10) = (   1.4726582   0.8502396  14.8096817  )
        11           Rh1 tau(  11) = (   4.4179747   0.8502396  14.8096817  )
        12           La1 tau(  12) = (   2.9453165   3.4009585  14.8096817  )

     number of k points=    20  Fermi-Dirac smearing, width (Ry)=  0.0110
                       cart. coord. in units 2pi/alat
        k(    1) = (   0.0000000   0.0000000   0.0000000), wk =   0.0555556
        k(    2) = (   0.0000000   0.0326705   0.0000000), wk =   0.1111111
        k(    3) = (   0.0000000   0.0653411   0.0000000), wk =   0.1111111
        k(    4) = (   0.0000000  -0.0980116   0.0000000), wk =   0.0555556
        k(    5) = (   0.0282935   0.0163353   0.0000000), wk =   0.1111111
        k(    6) = (   0.0282935   0.0490058   0.0000000), wk =   0.1111111
        k(    7) = (   0.0282935   0.0816763   0.0000000), wk =   0.1111111
        k(    8) = (   0.0282935  -0.0816763   0.0000000), wk =   0.1111111
        k(    9) = (   0.0282935  -0.0490058   0.0000000), wk =   0.1111111
        k(   10) = (   0.0282935  -0.0163353   0.0000000), wk =   0.1111111
        k(   11) = (   0.0565870   0.0326705   0.0000000), wk =   0.1111111
        k(   12) = (   0.0565870   0.0653411   0.0000000), wk =   0.1111111
        k(   13) = (   0.0565870   0.0980116   0.0000000), wk =   0.1111111
        k(   14) = (   0.0565870  -0.0653411   0.0000000), wk =   0.1111111
        k(   15) = (   0.0565870  -0.0326705   0.0000000), wk =   0.1111111
        k(   16) = (   0.0565870   0.0000000   0.0000000), wk =   0.1111111
        k(   17) = (  -0.0848805  -0.0490058   0.0000000), wk =   0.0555556
        k(   18) = (  -0.0848805  -0.0163353   0.0000000), wk =   0.1111111
        k(   19) = (  -0.0848805   0.0163353   0.0000000), wk =   0.1111111
        k(   20) = (  -0.0848805  -0.1470174   0.0000000), wk =   0.0555556

     Largest allocated arrays     est. size (Mb)     dimensions
     Largest temporary arrays     est. size (Mb)     dimensions

     Initial potential from superposition of free atoms
     Check: negative starting charge=   -0.694616

     starting charge  163.40291, renormalised to  168.00000

     negative rho (up, down):  7.142E-01 0.000E+00

     *
     * You are using vdW-DF for exchange-correlation in this calculation.
     * Please cite the following three references that made this development
     * possible:
     *
     *   M. Dion, H. Rydberg, E. Schroder, D. C. Langreth, and
     *   B. I. Lundqvist, Phys. Rev. Lett. 92, 246401 (2004).
     *
     *   T. Thonhauser, V. R. Cooper, S. Li, A. Puzder, P. Hyldgaard, and
     *   D. C. Langreth, Phys. Rev. B 76, 125112 (2007).
     *
     *   G. Roman-Perez and J. M. Soler, Phys. Rev. Lett. 103, 096102 (2009).
     *
     *
     * If you are using vdW-DF2, please also cite:
     *
     *   K. Lee, E. D. Murray, L. Kong, B. I. Lundqvist, and
     *   D. C. Langreth, Phys. Rev. B 82, 081101(R) (2010).
     *
     *
     * If you are calculating the stress with vdW-DF, please also cite:
     *
     *   R. Sabatini, E. Kucukbenli, B. Kolb, T. Thonhauser, and
     *   S. de Gironcoli, J. Phys.: Condens. Matter 24, 424209 (2012).
     *

     Carrying out vdW-DF run using the following parameters:

     Nqs =      20    Nr_points =    1024   r_max =   100.000
     q_mesh =
               0.00001000     0.04494208     0.09755937     0.15916263
               0.23128650     0.31572767     0.41458969     0.53033537
               0.66584808     0.82450364     1.01025438     1.22772762
               1.48234092     1.78043706     2.12944203     2.53805004
               3.01644009     3.57652955     4.23227104     5.00000000

     Gradients computed in reciprocal space

     Adding external electric field

     Computed dipole along edir(3) :
        Dipole                0.0000 Ry au,          0.0000 Debye
        Dipole field          0.0000 Ry au

        Potential amp.       -0.0000 Ry
        Total length         45.7114 bohr

     Starting wfc are  168 randomized atomic wfcs

     Self-consistent Calculation

     iteration #  1     ecut=    36.75 Ry     beta=0.10
     Davidson diagonalization with overlap
     ethr =  1.00E-02,  avg # of iterations =  2.0

[...]

     total energy              =   -1861.88977418 Ry
     Harris-Foulkes estimate   =   -1863.42784727 Ry
     estimated scf accuracy    <       8.99314847 Ry

[...]

     iteration #  9     ecut=    36.75 Ry     beta=0.10
     Davidson diagonalization with overlap
     c_bands:  1 eigenvalues not converged
     c_bands:  1 eigenvalues not converged
     ethr =  6.34E-06,  avg # of iterations =  9.3

[...]

     End of self-consistent calculation

          k = 0.0000 0.0000 0.0000 ( 18967 PWs)   bands (ev):

   -43.9655 -43.9336 -43.9090 -43.9089 -43.9045 -43.9045 -43.8062 -43.7695
   -43.7695 -43.6772 -43.6731 -43.6236 -43.6236 -43.6160 -43.6160 -43.5273
   -43.5255 -43.4996 -43.4926 -43.4925 -43.4895 -43.4895 -43.4872 -43.4704
   -43.4703 -43.4664 -43.4664 -30.0005 -29.9921 -29.1668 -13.8699 -13.7843
   -13.7399 -13.7399 -13.7232 -13.7232 -13.0858 -13.0453 -13.0453  -2.5573
    -1.9029  -1.9029  -1.8658  -1.6662  -1.6662  -1.5699  -1.3907  -1.3621
    -1.3620  -1.2246  -1.2246  -1.1329  -0.7507  -0.7152  -0.2536  -0.2536
    -0.1882  -0.1035  -0.1035   0.2972   0.3214   0.3780   0.5755   0.5756
     0.6622   0.6622   0.7212   0.8626   0.8627   1.0055   1.0055   1.2228
     1.2229   1.3249   1.6618   1.6619   1.7260   1.7260   1.9511   1.9512
     2.0567   2.1434   2.2848   2.2848   2.5184   2.7536   2.7695   2.7886
     3.5944   4.1529   4.4094   4.8355   4.9515   4.9515   5.0216   5.1385
     5.1385   5.1483   5.1483   5.1727   5.2299   5.2389   5.2389   5.3953
     5.3953   5.4118   5.4378   5.4378   5.4834   5.4834   5.6496   5.7160
     5.8233   5.8233

[...]

          k =-0.0849-0.0490 0.0000 ( 18924 PWs)   bands (ev):

[...]

     the Fermi energy is     2.0215 ev

!    total energy              =   -1862.18921384 Ry
     Harris-Foulkes estimate   =   -1862.18921766 Ry
     estimated scf accuracy    <       0.00000058 Ry

     The total energy is the sum of the following terms:

     one-electron contribution =  -13766.81972987 Ry
     hartree contribution      =    6924.19319573 Ry
     xc contribution           =    -432.42496911 Ry
     ewald contribution        =    5412.95404595 Ry
     electric field correction =       0.00000007 Ry
     smearing contrib. (-TS)   =      -0.09175660 Ry

     convergence has been achieved in  19 iterations

 BEEF-vdW xc energy contributions
           1 :   -378.808329274517
           2 :    347.946400105824
           3 :   -294.132396461198
[...]
     Pseudo is Ultrasoft + core correction, Zval = 15.0
     Generated by new atomic code, or converted to UPF format
     Using radial grid of  969 points,  7 beta functions with:
                l(1) =   0
                l(2) =   0
                l(3) =   1
                l(4) =   1
                l(5) =   2
                l(6) =   2
                l(7) =   2
     Q(r) pseudized with  8 coefficients,  rinner =    1.200   1.200   1.200
                                                       1.200   1.200

     PseudoPot. # 2 for La read from file:
     /afs/slac.stanford.edu/u/if/mamunm/psp/gbrv1.5pbe/La.UPF
     MD5 check sum: 5937b0c7494ba0601a847275249473aa
     Pseudo is Ultrasoft + core correction, Zval = 11.0
     Generated by new atomic code, or converted to UPF format
     Using radial grid of  995 points,  8 beta functions with:
                l(1) =   0
                l(2) =   0
                l(3) =   1
                l(4) =   1
                l(5) =   2
                l(6) =   2
                l(7) =   3
                l(8) =   3
     Q(r) pseudized with  8 coefficients,  rinner =    1.700   1.700   1.700
                                                       1.700   1.700   1.700
                                                       1.700

     vdW kernel table read from file vdW_kernel_table
     MD5 check sum: 095c7af220d748ca6e76c0b4c6cfb241

     atomic species   valence    mass     pseudopotential
        Rh1           15.00   102.90550     Rh( 1.00)
        La1           11.00   138.90547     La( 1.00)

     No symmetry found

   Cartesian axes

     site n.     atom                  positions (alat units)
         1           Rh1 tau(   1) = (   0.0000000   0.0000000  10.0000000  )
         2           Rh1 tau(   2) = (   4.4179747   2.5507189  10.0000000  )
         3           Rh1 tau(   3) = (   1.4726582   2.5507189  10.0000000  )
         4           La1 tau(   4) = (   2.9453165   0.0000000  10.0000000  )
         5           Rh1 tau(   5) = (   2.9453165   1.7004793  12.4048408  )
         6           Rh1 tau(   6) = (   1.4726582   4.2511981  12.4048408  )
         7           Rh1 tau(   7) = (  -1.4726582   4.2511981  12.4048408  )
         8           La1 tau(   8) = (   0.0000000   1.7004793  12.4048408  )
         9           Rh1 tau(   9) = (   0.0000044   3.4688743  14.6597091  )
        10           Rh1 tau(  10) = (   1.5314799   0.8162848  14.6597133  )
        11           Rh1 tau(  11) = (   4.3591612   0.8162873  14.6597095  )
        12           La1 tau(  12) = (   2.9453192   3.4009671  15.0478152  )

     number of k points=    20  Fermi-Dirac smearing, width (Ry)=  0.0110
                       cart. coord. in units 2pi/alat
        k(    1) = (   0.0000000   0.0000000   0.0000000), wk =   0.0555556
        k(    2) = (   0.0000000   0.0326705   0.0000000), wk =   0.1111111
        k(    3) = (   0.0000000   0.0653411   0.0000000), wk =   0.1111111
        k(    4) = (   0.0000000  -0.0980116   0.0000000), wk =   0.0555556
        k(    5) = (   0.0282935   0.0163353   0.0000000), wk =   0.1111111
        k(    6) = (   0.0282935   0.0490058   0.0000000), wk =   0.1111111
        k(    7) = (   0.0282935   0.0816763   0.0000000), wk =   0.1111111
        k(    8) = (   0.0282935  -0.0816763   0.0000000), wk =   0.1111111
        k(    9) = (   0.0282935  -0.0490058   0.0000000), wk =   0.1111111
        k(   10) = (   0.0282935  -0.0163353   0.0000000), wk =   0.1111111
        k(   11) = (   0.0565870   0.0326705   0.0000000), wk =   0.1111111
        k(   12) = (   0.0565870   0.0653411   0.0000000), wk =   0.1111111
        k(   13) = (   0.0565870   0.0980116   0.0000000), wk =   0.1111111
        k(   14) = (   0.0565870  -0.0653411   0.0000000), wk =   0.1111111
        k(   15) = (   0.0565870  -0.0326705   0.0000000), wk =   0.1111111
        k(   16) = (   0.0565870   0.0000000   0.0000000), wk =   0.1111111
        k(   17) = (  -0.0848805  -0.0490058   0.0000000), wk =   0.0555556
        k(   18) = (  -0.0848805  -0.0163353   0.0000000), wk =   0.1111111
        k(   19) = (  -0.0848805   0.0163353   0.0000000), wk =   0.1111111
        k(   20) = (  -0.0848805  -0.1470174   0.0000000), wk =   0.0555556

     Largest allocated arrays     est. size (Mb)     dimensions
     Largest temporary arrays     est. size (Mb)     dimensions

     Initial potential from superposition of free atoms
     Check: negative starting charge=   -0.697883

     starting charge  163.40291, renormalised to  168.00000

[...]

     *
     * You are using vdW-DF for exchange-correlation in this calculation.
     * Please cite the following three references that made this development
     * possible:
     *
     *   M. Dion, H. Rydberg, E. Schroder, D. C. Langreth, and
     *   B. I. Lundqvist, Phys. Rev. Lett. 92, 246401 (2004).
     *
     *   T. Thonhauser, V. R. Cooper, S. Li, A. Puzder, P. Hyldgaard, and
     *   D. C. Langreth, Phys. Rev. B 76, 125112 (2007).
     *
     *   G. Roman-Perez and J. M. Soler, Phys. Rev. Lett. 103, 096102 (2009).
     *
     *
     * If you are using vdW-DF2, please also cite:
     *
     *   K. Lee, E. D. Murray, L. Kong, B. I. Lundqvist, and
     *   D. C. Langreth, Phys. Rev. B 82, 081101(R) (2010).
     *
     *
     * If you are calculating the stress with vdW-DF, please also cite:
     *
     *   R. Sabatini, E. Kucukbenli, B. Kolb, T. Thonhauser, and
     *   S. de Gironcoli, J. Phys.: Condens. Matter 24, 424209 (2012).
     *

     Carrying out vdW-DF run using the following parameters:

     Nqs =      20    Nr_points =    1024   r_max =   100.000
     q_mesh =
               0.00001000     0.04494208     0.09755937     0.15916263
               0.23128650     0.31572767     0.41458969     0.53033537
               0.66584808     0.82450364     1.01025438     1.22772762
               1.48234092     1.78043706     2.12944203     2.53805004
               3.01644009     3.57652955     4.23227104     5.00000000

     Gradients computed in reciprocal space

[...]

     Starting wfc are  168 randomized atomic wfcs

     Self-consistent Calculation

[...]

     total energy              =   -1862.21487766 Ry
     Harris-Foulkes estimate   =   -1862.21487979 Ry
     estimated scf accuracy    <       0.00000135 Ry

     iteration # 19     ecut=    36.75 Ry     beta=0.10
     Davidson diagonalization with overlap
     ethr =  8.02E-10,  avg # of iterations =  2.1

[...]

     negative rho (up, down):  6.132E-01 0.000E+00

     Adding external electric field

     Computed dipole along edir(3) :
        Dipole                0.1598 Ry au,          0.4062 Debye
        Dipole field          0.0004 Ry au

        Potential amp.       -0.0365 Ry
        Total length         45.7114 bohr

     End of self-consistent calculation

[...]

          k = 0.0566 0.0000 0.0000 ( 18941 PWs)   bands (ev):

[...]

          k =-0.0849-0.1470 0.0000 ( 18924 PWs)   bands (ev):

   -43.8119 -43.7939 -43.7805 -43.7625 -43.7208 -43.7090 -43.7039 -43.6770
   -43.6117 -43.5734 -43.5344 -43.5302 -43.4945 -43.4572 -43.4511 -43.4206
   -43.4164 -43.4106 -43.4065 -43.3899 -43.3861 -43.3752 -43.3738 -43.3067
   -43.3030 -43.2956 -43.2862 -30.2384 -29.7772 -28.9328 -14.0275 -13.9997
   -13.9552 -13.6691 -13.6275 -13.5793 -12.9926 -12.9103 -12.9004  -1.4740
    -1.2315  -1.0147  -0.9309  -0.9184  -0.8618  -0.7822  -0.6585  -0.5554
    -0.5049  -0.4506  -0.4138  -0.3949  -0.2690  -0.1633  -0.0373   0.0805
     0.1726   0.2221   0.2983   0.4089   0.5183   0.5667   0.6000   0.6648
     0.7090   0.7537   0.7813   0.9313   0.9596   0.9662   1.0100   1.0751
     1.1622   1.2238   1.2604   1.3136   1.3205   1.3728   1.4511   1.4537
     1.4570   1.5639   1.6245   1.9874   2.1701   2.4370   2.4402   2.5294
     2.7305   2.8964   3.4301   3.6453   4.1131   4.6369   4.7583   4.9329
     4.9882   5.0010   5.0140   5.0626   5.0656   5.1416   5.2059   5.2282
     5.3752   5.4016   5.4161   5.5331   5.5603   5.5737   5.6271   5.6385
     5.6734   5.6965

     the Fermi energy is     2.2120 ev

!    total energy              =   -1862.21487424 Ry
     Harris-Foulkes estimate   =   -1862.21487841 Ry
     estimated scf accuracy    <       0.00000044 Ry

     The total energy is the sum of the following terms:

     one-electron contribution =  -13908.53024092 Ry
     hartree contribution      =    6995.73982734 Ry
     xc contribution           =    -432.40736957 Ry
     ewald contribution        =    5483.07387086 Ry
     electric field correction =       0.00006380 Ry
     smearing contrib. (-TS)   =      -0.09102576 Ry

     convergence has been achieved in  19 iterations

 BEEF-vdW xc energy contributions
           1 :   -379.001663366319
           2 :    348.186855176711
           3 :   -294.430000479106
           4 :    230.402057219476
           5 :   -169.146064401917
           6 :    120.216089174078
           7 :   -87.6113823300952
           8 :    69.8739781280840
           9 :   -61.9635861105768
          10 :    57.9388210463635
          11 :   -53.2866271197159
          12 :    46.0719376735678
          13 :   -36.7466387870248
          14 :    27.0561492621979
          15 :   -18.7555024979924
          16 :    12.7451175652770
          17 :   -8.89560090458485
          18 :    6.44179388145284
          19 :   -4.58430697246621
          20 :    2.92335074387370
          21 :   -1.52754103350054
          22 :   0.679404076650769
          23 :  -0.518559129882306
          24 :   0.831106973781914
          25 :   -1.11331389937374
          26 :   0.851199613862889
          27 :   0.172010550826428
          28 :   -1.73440927707719
          29 :    3.28374676072724
          30 :   -4.23188820636000
          31 :   -35.4840907564090
          32 :   -26.1745384365854

     Forces acting on atoms (Ry/au):

     negative rho (up, down):  6.132E-01 0.000E+00
     atom    1 type  1   force =     0.00000084   -0.01234204    0.01955618
     atom    2 type  1   force =    -0.01068829    0.00617138    0.01955688
     atom    3 type  1   force =     0.01069197    0.00617252    0.01955926
     atom    4 type  2   force =    -0.00000212   -0.00000098   -0.03394180
     atom    5 type  1   force =    -0.00000055    0.01273226   -0.00250588
     atom    6 type  1   force =     0.01102721   -0.00636632   -0.00250637
     atom    7 type  1   force =    -0.01102753   -0.00636575   -0.00250701
     atom    8 type  2   force =     0.00000157   -0.00000023   -0.01668747
     atom    9 type  1   force =    -0.00000003   -0.00007146   -0.00014012
     atom   10 type  1   force =    -0.00006248    0.00003621   -0.00014173
     atom   11 type  1   force =     0.00005851    0.00003363   -0.00014265
     atom   12 type  2   force =     0.00000090    0.00000077   -0.00009928

     Total force =     0.059501     Total SCF correction =     0.001316

     entering subroutine stress ...

     negative rho (up, down):  6.132E-01 0.000E+00
          total   stress  (Ry/bohr**3)                   (kbar)     P=  -25.08
  -0.00019283  -0.00000000  -0.00000000        -28.37     -0.00     -0.00
  -0.00000000  -0.00019283  -0.00000000         -0.00    -28.37     -0.00
  -0.00000000  -0.00000000  -0.00012587         -0.00     -0.00    -18.52

 !ASE

     Writing output data file calc.save

     General routines

     Parallel routines

   This run was terminated on:  23:55:18  31Dec2018

   JOB DONE.
Job  /afs/slac/g/suncat/bin/suncat-tsmpirun -x LD_LIBRARY_PATH -wdir /scratch/qe648883_a12wW pw.x -in pw.inp

TID   HOST_NAME   COMMAND_LINE            STATUS            TERMINATION_TIME
00000 suncat0077 pw.x -in pw.inp   Done                     12/31/2018 23:55:18
00001 suncat0077 pw.x -in pw.inp   Done                     12/31/2018 23:55:18
00002 suncat0077 pw.x -in pw.inp   Done                     12/31/2018 23:55:18
00003 suncat0077 pw.x -in pw.inp   Done                     12/31/2018 23:55:18
00004 suncat0077 pw.x -in pw.inp   Done                     12/31/2018 23:55:18
00005 suncat0077 pw.x -in pw.inp   Done                     12/31/2018 23:55:18
00006 suncat0077 pw.x -in pw.inp   Done                     12/31/2018 23:55:18
00007 suncat0077 pw.x -in pw.inp   Done                     12/31/2018 23:55:18
00008 suncat0069 pw.x -in pw.inp   Done                     12/31/2018 23:55:18
00009 suncat0069 pw.x -in pw.inp   Done                     12/31/2018 23:55:18
00010 suncat0069 pw.x -in pw.inp   Done                     12/31/2018 23:55:18
00011 suncat0069 pw.x -in pw.inp   Done                     12/31/2018 23:55:18
00012 suncat0069 pw.x -in pw.inp   Done                     12/31/2018 23:55:18
00013 suncat0069 pw.x -in pw.inp   Done                     12/31/2018 23:55:18
00014 suncat0069 pw.x -in pw.inp   Done                     12/31/2018 23:55:18
00015 suncat0069 pw.x -in pw.inp   Done                     12/31/2018 23:55:18
00016 suncat0066 pw.x -in pw.inp   Done                     12/31/2018 23:55:18
00017 suncat0066 pw.x -in pw.inp   Done                     12/31/2018 23:55:18
00018 suncat0066 pw.x -in pw.inp   Done                     12/31/2018 23:55:18
00019 suncat0066 pw.x -in pw.inp   Done                     12/31/2018 23:55:18
00020 suncat0066 pw.x -in pw.inp   Done                     12/31/2018 23:55:18
00021 suncat0066 pw.x -in pw.inp   Done                     12/31/2018 23:55:18
00022 suncat0066 pw.x -in pw.inp   Done                     12/31/2018 23:55:18
00023 suncat0066 pw.x -in pw.inp   Done                     12/31/2018 23:55:18
00024 suncat0053 pw.x -in pw.inp   Done                     12/31/2018 23:55:18
00025 suncat0053 pw.x -in pw.inp   Done                     12/31/2018 23:55:18
00026 suncat0053 pw.x -in pw.inp   Done                     12/31/2018 23:55:18
00027 suncat0053 pw.x -in pw.inp   Done                     12/31/2018 23:55:18
00028 suncat0053 pw.x -in pw.inp   Done                     12/31/2018 23:55:18
00029 suncat0053 pw.x -in pw.inp   Done                     12/31/2018 23:55:18
00030 suncat0053 pw.x -in pw.inp   Done                     12/31/2018 23:55:18
00031 suncat0053 pw.x -in pw.inp   Done                     12/31/2018 23:55:18
00032 suncat0163 pw.x -in pw.inp   Done                     12/31/2018 23:55:18
00033 suncat0163 pw.x -in pw.inp   Done                     12/31/2018 23:55:18
00034 suncat0163 pw.x -in pw.inp   Done                     12/31/2018 23:55:18
00035 suncat0163 pw.x -in pw.inp   Done                     12/31/2018 23:55:18
00036 suncat0163 pw.x -in pw.inp   Done                     12/31/2018 23:55:18
00037 suncat0163 pw.x -in pw.inp   Done                     12/31/2018 23:55:18
00038 suncat0163 pw.x -in pw.inp   Done                     12/31/2018 23:55:18
00039 suncat0163 pw.x -in pw.inp   Done                     12/31/2018 23:55:18
00040 suncat0162 pw.x -in pw.inp   Done                     12/31/2018 23:55:18
00041 suncat0162 pw.x -in pw.inp   Done                     12/31/2018 23:55:18
00042 suncat0162 pw.x -in pw.inp   Done                     12/31/2018 23:55:18
00043 suncat0162 pw.x -in pw.inp   Done                     12/31/2018 23:55:18
00044 suncat0162 pw.x -in pw.inp   Done                     12/31/2018 23:55:18
00045 suncat0162 pw.x -in pw.inp   Done                     12/31/2018 23:55:18
00046 suncat0162 pw.x -in pw.inp   Done                     12/31/2018 23:55:18
00047 suncat0162 pw.x -in pw.inp   Done                     12/31/2018 23:55:18
00048 suncat0147 pw.x -in pw.inp   Done                     12/31/2018 23:55:18
00049 suncat0147 pw.x -in pw.inp   Done                     12/31/2018 23:55:18
00050 suncat0147 pw.x -in pw.inp   Done                     12/31/2018 23:55:18
00051 suncat0147 pw.x -in pw.inp   Done                     12/31/2018 23:55:18
00052 suncat0147 pw.x -in pw.inp   Done                     12/31/2018 23:55:18
00053 suncat0147 pw.x -in pw.inp   Done                     12/31/2018 23:55:18
00054 suncat0147 pw.x -in pw.inp   Done                     12/31/2018 23:55:18
00055 suncat0147 pw.x -in pw.inp   Done                     12/31/2018 23:55:18
00056 suncat0138 pw.x -in pw.inp   Done                     12/31/2018 23:55:18
00057 suncat0138 pw.x -in pw.inp   Done                     12/31/2018 23:55:18
00058 suncat0138 pw.x -in pw.inp   Done                     12/31/2018 23:55:18
00059 suncat0138 pw.x -in pw.inp   Done                     12/31/2018 23:55:18
00060 suncat0138 pw.x -in pw.inp   Done                     12/31/2018 23:55:18
00061 suncat0138 pw.x -in pw.inp   Done                     12/31/2018 23:55:18
00062 suncat0138 pw.x -in pw.inp   Done                     12/31/2018 23:55:18
00063 suncat0138 pw.x -in pw.inp   Done                     12/31/2018 23:55:18