     Program PWSCF v.5.1rc2 (svn rev. 11289) starts on 25Dec2018 at 21:40:18

     Current dimensions of program PWSCF are:
     Max number of different atomic species (ntypx) = 10
     Max number of k-points (npk) =  40000
     Max angular momentum in pseudopotentials (lmaxx) =  3
     Presently stress not available with electric field

     IMPORTANT: XC functional enforced from input :
     Exchange-correlation      = BEEF-VDW ( 1  4 27 13 2)
     Any further DFT definition will be discarded
     Please, verify this is what you really want

     Subspace diagonalization in iterative solution of the eigenvalue problem:
     a serial algorithm will be used

     Generating pointlists ...
     new r_m :   0.4125 (alat units)  0.7795 (a.u.) for type    1
     new r_m :   0.4125 (alat units)  0.7795 (a.u.) for type    2

     bravais-lattice index     =            0
     lattice parameter (alat)  =       1.8897  a.u.
     unit-cell volume          =    4221.7741 (a.u.)^3
     number of atoms/cell      =           12
     number of atomic types    =            2
     number of electrons       =       186.00
     number of Kohn-Sham states=          123
     kinetic-energy cutoff     =      36.7493  Ry
     charge density cutoff     =     367.4932  Ry
     convergence threshold     =      1.0E-06
     mixing beta               =       0.1000
     number of iterations used =           10  plain     mixing
     Exchange-correlation      = BEEF-VDW ( 1  4 27 13 2)
     nstep                     =           50

     celldm(1)=   1.889726  celldm(2)=   0.000000  celldm(3)=   0.000000
     celldm(4)=   0.000000  celldm(5)=   0.000000  celldm(6)=   0.000000

     crystal axes: (cart. coord. in units of alat)
               a(1) = (   5.436773   0.000000   0.000000 )
               a(2) = (  -2.718387   4.708384   0.000000 )
               a(3) = (   0.000000   0.000000  24.439107 )

     reciprocal axes: (cart. coord. in units 2 pi/alat)
               b(1) = (  0.183933  0.106194  0.000000 )
               b(2) = (  0.000000  0.212387  0.000000 )
               b(3) = (  0.000000  0.000000  0.040918 )

     PseudoPot. # 1 for Fe read from file:
     /afs/slac.stanford.edu/u/if/mamunm/psp/gbrv1.5pbe/Fe.UPF
     MD5 check sum: a130daea23fe5165f5d574ae7f82ed95
     Pseudo is Ultrasoft + core correction, Zval = 16.0
     Generated by new atomic code, or converted to UPF format
     Using radial grid of  861 points,  6 beta functions with:
                l(1) =   0
                l(2) =   0
                l(3) =   1
                l(4) =   1
                l(5) =   2
                l(6) =   2
     Q(r) pseudized with  8 coefficients,  rinner =    1.000   1.000   1.000
                                                       1.000   1.000

     PseudoPot. # 2 for Sn read from file:
     /afs/slac.stanford.edu/u/if/mamunm/psp/gbrv1.5pbe/Sn.UPF
     MD5 check sum: 469debedee59599fedebd795477fea03
     Pseudo is Ultrasoft + core correction, Zval = 14.0
     Generated by new atomic code, or converted to UPF format
     Using radial grid of  891 points,  6 beta functions with:
                l(1) =   0
                l(2) =   0
                l(3) =   1
                l(4) =   1
                l(5) =   2
                l(6) =   2
     Q(r) pseudized with  8 coefficients,  rinner =    1.350   1.350   1.350
                                                       1.350   1.350

     vdW kernel table read from file vdW_kernel_table
     MD5 check sum: 095c7af220d748ca6e76c0b4c6cfb241

     atomic species   valence    mass     pseudopotential
        Fe1           16.00    55.84500     Fe( 1.00)
        Sn1           14.00   118.71000     Sn( 1.00)

     Starting magnetic structure
     atomic species   magnetization
        Fe1          0.125
        Sn1          0.143

     No symmetry found

   Cartesian axes

     site n.     atom                  positions (alat units)
         1           Fe1 tau(   1) = (   0.0000000   0.0000000  10.0000000  )
         2           Fe1 tau(   2) = (  -1.3591933   2.3541918  10.0000000  )
         3           Fe1 tau(   3) = (   1.3591933   2.3541918  10.0000000  )
         4           Sn1 tau(   4) = (   2.7183866   0.0000000  10.0000000  )
         5           Fe1 tau(   5) = (   2.7183866   1.5694612  12.2195534  )
         6           Fe1 tau(   6) = (   1.3591933   3.9236531  12.2195534  )
         7           Fe1 tau(   7) = (  -1.3591933   3.9236531  12.2195534  )
         8           Sn1 tau(   8) = (   0.0000000   1.5694612  12.2195534  )
         9           Fe1 tau(   9) = (  -0.0000000   3.1389225  14.4391067  )
        10           Fe1 tau(  10) = (   1.3591933   0.7847306  14.4391067  )
        11           Fe1 tau(  11) = (   4.0775799   0.7847306  14.4391067  )
        12           Sn1 tau(  12) = (   2.7183866   3.1389225  14.4391067  )

     number of k points=    40  Fermi-Dirac smearing, width (Ry)=  0.0110
                       cart. coord. in units 2pi/alat
        k(    1) = (   0.0000000   0.0000000   0.0000000), wk =   0.0277778
        k(    2) = (   0.0000000   0.0353979   0.0000000), wk =   0.0555556
        k(    3) = (   0.0000000   0.0707957   0.0000000), wk =   0.0555556
        k(    4) = (   0.0000000  -0.1061936   0.0000000), wk =   0.0277778
        k(    5) = (   0.0306554   0.0176989   0.0000000), wk =   0.0555556
        k(    6) = (   0.0306554   0.0530968   0.0000000), wk =   0.0555556
        k(    7) = (   0.0306554   0.0884946   0.0000000), wk =   0.0555556
        k(    8) = (   0.0306554  -0.0884946   0.0000000), wk =   0.0555556
        k(    9) = (   0.0306554  -0.0530968   0.0000000), wk =   0.0555556
        k(   10) = (   0.0306554  -0.0176989   0.0000000), wk =   0.0555556
        k(   11) = (   0.0613109   0.0353979   0.0000000), wk =   0.0555556
        k(   12) = (   0.0613109   0.0707957   0.0000000), wk =   0.0555556
        k(   13) = (   0.0613109   0.1061936   0.0000000), wk =   0.0555556
        k(   14) = (   0.0613109  -0.0707957   0.0000000), wk =   0.0555556
        k(   15) = (   0.0613109  -0.0353979   0.0000000), wk =   0.0555556
        k(   16) = (   0.0613109  -0.0000000   0.0000000), wk =   0.0555556
        k(   17) = (  -0.0919663  -0.0530968   0.0000000), wk =   0.0277778
        k(   18) = (  -0.0919663  -0.0176989   0.0000000), wk =   0.0555556
        k(   19) = (  -0.0919663   0.0176989   0.0000000), wk =   0.0555556
        k(   20) = (  -0.0919663  -0.1592903   0.0000000), wk =   0.0277778
        k(   21) = (   0.0000000   0.0000000   0.0000000), wk =   0.0277778
        k(   22) = (   0.0000000   0.0353979   0.0000000), wk =   0.0555556
        k(   23) = (   0.0000000   0.0707957   0.0000000), wk =   0.0555556
        k(   24) = (   0.0000000  -0.1061936   0.0000000), wk =   0.0277778
        k(   25) = (   0.0306554   0.0176989   0.0000000), wk =   0.0555556
        k(   26) = (   0.0306554   0.0530968   0.0000000), wk =   0.0555556
        k(   27) = (   0.0306554   0.0884946   0.0000000), wk =   0.0555556
        k(   28) = (   0.0306554  -0.0884946   0.0000000), wk =   0.0555556
        k(   29) = (   0.0306554  -0.0530968   0.0000000), wk =   0.0555556
        k(   30) = (   0.0306554  -0.0176989   0.0000000), wk =   0.0555556
        k(   31) = (   0.0613109   0.0353979   0.0000000), wk =   0.0555556
        k(   32) = (   0.0613109   0.0707957   0.0000000), wk =   0.0555556
        k(   33) = (   0.0613109   0.1061936   0.0000000), wk =   0.0555556
        k(   34) = (   0.0613109  -0.0707957   0.0000000), wk =   0.0555556
        k(   35) = (   0.0613109  -0.0353979   0.0000000), wk =   0.0555556
        k(   36) = (   0.0613109  -0.0000000   0.0000000), wk =   0.0555556
        k(   37) = (  -0.0919663  -0.0530968   0.0000000), wk =   0.0277778
        k(   38) = (  -0.0919663  -0.0176989   0.0000000), wk =   0.0555556
        k(   39) = (  -0.0919663   0.0176989   0.0000000), wk =   0.0555556
        k(   40) = (  -0.0919663  -0.1592903   0.0000000), wk =   0.0277778

     Largest allocated arrays     est. size (Mb)     dimensions
     Largest temporary arrays     est. size (Mb)     dimensions

     Check: negative/imaginary core charge=   -0.000006    0.000000

     Initial potential from superposition of free atoms
     Check: negative starting charge=(component1):   -0.000401
     Check: negative starting charge=(component2):   -0.000302

     starting charge  173.99981, renormalised to  186.00000

     negative rho (up, down):  4.291E-04 3.225E-04

     *
     * You are using vdW-DF for exchange-correlation in this calculation.
     * Please cite the following three references that made this development
     * possible:
     *
     *   M. Dion, H. Rydberg, E. Schroder, D. C. Langreth, and
     *   B. I. Lundqvist, Phys. Rev. Lett. 92, 246401 (2004).
     *
     *   T. Thonhauser, V. R. Cooper, S. Li, A. Puzder, P. Hyldgaard, and
     *   D. C. Langreth, Phys. Rev. B 76, 125112 (2007).
     *
     *   G. Roman-Perez and J. M. Soler, Phys. Rev. Lett. 103, 096102 (2009).
     *
     *
     * If you are using vdW-DF2, please also cite:
     *
     *   K. Lee, E. D. Murray, L. Kong, B. I. Lundqvist, and
     *   D. C. Langreth, Phys. Rev. B 82, 081101(R) (2010).
     *
     *
     * If you are calculating the stress with vdW-DF, please also cite:
     *
     *   R. Sabatini, E. Kucukbenli, B. Kolb, T. Thonhauser, and
     *   S. de Gironcoli, J. Phys.: Condens. Matter 24, 424209 (2012).
     *

     Carrying out vdW-DF run using the following parameters:

     Nqs =      20    Nr_points =    1024   r_max =   100.000
     q_mesh =
               0.00001000     0.04494208     0.09755937     0.15916263
               0.23128650     0.31572767     0.41458969     0.53033537
               0.66584808     0.82450364     1.01025438     1.22772762
               1.48234092     1.78043706     2.12944203     2.53805004
               3.01644009     3.57652955     4.23227104     5.00000000

     Gradients computed in reciprocal space

     Adding external electric field

     Computed dipole along edir(3) :
        Dipole               -0.0000 Ry au,         -0.0000 Debye
        Dipole field         -0.0000 Ry au

        Potential amp.        0.0000 Ry
        Total length         45.0286 bohr

[...]

     Starting wfc are  144 randomized atomic wfcs

     Self-consistent Calculation

     iteration #  1     ecut=    36.75 Ry     beta=0.10
     Davidson diagonalization with overlap
     ethr =  1.00E-02,  avg # of iterations =  8.0

[...]

     Magnetic moment per site:
     atom:    1    charge:    7.2978    magn:    0.9038    constr:    0.0000
     atom:    2    charge:    7.2978    magn:    0.9038    constr:    0.0000
     atom:    3    charge:    7.2978    magn:    0.9038    constr:    0.0000
     atom:    4    charge:    3.6905    magn:    0.4833    constr:    0.0000
     atom:    5    charge:    7.2827    magn:    0.9002    constr:    0.0000
     atom:    6    charge:    7.2827    magn:    0.9003    constr:    0.0000
     atom:    7    charge:    7.2827    magn:    0.9002    constr:    0.0000
     atom:    8    charge:    3.6807    magn:    0.4823    constr:    0.0000
[...]
        k(    3) = (   0.0000000   0.0707957   0.0000000), wk =   0.0555556
        k(    4) = (   0.0000000  -0.1061936   0.0000000), wk =   0.0277778
        k(    5) = (   0.0306554   0.0176989   0.0000000), wk =   0.0555556
        k(    6) = (   0.0306554   0.0530968   0.0000000), wk =   0.0555556
        k(    7) = (   0.0306554   0.0884946   0.0000000), wk =   0.0555556
        k(    8) = (   0.0306554  -0.0884946   0.0000000), wk =   0.0555556
        k(    9) = (   0.0306554  -0.0530968   0.0000000), wk =   0.0555556
        k(   10) = (   0.0306554  -0.0176989   0.0000000), wk =   0.0555556
        k(   11) = (   0.0613109   0.0353979   0.0000000), wk =   0.0555556
        k(   12) = (   0.0613109   0.0707957   0.0000000), wk =   0.0555556
        k(   13) = (   0.0613109   0.1061936   0.0000000), wk =   0.0555556
        k(   14) = (   0.0613109  -0.0707957   0.0000000), wk =   0.0555556
        k(   15) = (   0.0613109  -0.0353979   0.0000000), wk =   0.0555556
        k(   16) = (   0.0613109  -0.0000000   0.0000000), wk =   0.0555556
        k(   17) = (  -0.0919663  -0.0530968   0.0000000), wk =   0.0277778
        k(   18) = (  -0.0919663  -0.0176989   0.0000000), wk =   0.0555556
        k(   19) = (  -0.0919663   0.0176989   0.0000000), wk =   0.0555556
        k(   20) = (  -0.0919663  -0.1592903   0.0000000), wk =   0.0277778
        k(   21) = (   0.0000000   0.0000000   0.0000000), wk =   0.0277778
        k(   22) = (   0.0000000   0.0353979   0.0000000), wk =   0.0555556
        k(   23) = (   0.0000000   0.0707957   0.0000000), wk =   0.0555556
        k(   24) = (   0.0000000  -0.1061936   0.0000000), wk =   0.0277778
        k(   25) = (   0.0306554   0.0176989   0.0000000), wk =   0.0555556
        k(   26) = (   0.0306554   0.0530968   0.0000000), wk =   0.0555556
        k(   27) = (   0.0306554   0.0884946   0.0000000), wk =   0.0555556
        k(   28) = (   0.0306554  -0.0884946   0.0000000), wk =   0.0555556
        k(   29) = (   0.0306554  -0.0530968   0.0000000), wk =   0.0555556
        k(   30) = (   0.0306554  -0.0176989   0.0000000), wk =   0.0555556
        k(   31) = (   0.0613109   0.0353979   0.0000000), wk =   0.0555556
        k(   32) = (   0.0613109   0.0707957   0.0000000), wk =   0.0555556
        k(   33) = (   0.0613109   0.1061936   0.0000000), wk =   0.0555556
        k(   34) = (   0.0613109  -0.0707957   0.0000000), wk =   0.0555556
        k(   35) = (   0.0613109  -0.0353979   0.0000000), wk =   0.0555556
        k(   36) = (   0.0613109  -0.0000000   0.0000000), wk =   0.0555556
        k(   37) = (  -0.0919663  -0.0530968   0.0000000), wk =   0.0277778
        k(   38) = (  -0.0919663  -0.0176989   0.0000000), wk =   0.0555556
        k(   39) = (  -0.0919663   0.0176989   0.0000000), wk =   0.0555556
        k(   40) = (  -0.0919663  -0.1592903   0.0000000), wk =   0.0277778

     Largest allocated arrays     est. size (Mb)     dimensions
     Largest temporary arrays     est. size (Mb)     dimensions

     Check: negative/imaginary core charge=   -0.000006    0.000000

     Initial potential from superposition of free atoms
     Check: negative starting charge=(component1):   -0.000396
     Check: negative starting charge=(component2):   -0.000297

     starting charge  173.99981, renormalised to  186.00000

[...]

     *
     * You are using vdW-DF for exchange-correlation in this calculation.
     * Please cite the following three references that made this development
     * possible:
     *
     *   M. Dion, H. Rydberg, E. Schroder, D. C. Langreth, and
     *   B. I. Lundqvist, Phys. Rev. Lett. 92, 246401 (2004).
     *
     *   T. Thonhauser, V. R. Cooper, S. Li, A. Puzder, P. Hyldgaard, and
     *   D. C. Langreth, Phys. Rev. B 76, 125112 (2007).
     *
     *   G. Roman-Perez and J. M. Soler, Phys. Rev. Lett. 103, 096102 (2009).
     *
     *
     * If you are using vdW-DF2, please also cite:
     *
     *   K. Lee, E. D. Murray, L. Kong, B. I. Lundqvist, and
     *   D. C. Langreth, Phys. Rev. B 82, 081101(R) (2010).
     *
     *
     * If you are calculating the stress with vdW-DF, please also cite:
     *
     *   R. Sabatini, E. Kucukbenli, B. Kolb, T. Thonhauser, and
     *   S. de Gironcoli, J. Phys.: Condens. Matter 24, 424209 (2012).
     *

     Carrying out vdW-DF run using the following parameters:

     Nqs =      20    Nr_points =    1024   r_max =   100.000
     q_mesh =
               0.00001000     0.04494208     0.09755937     0.15916263
               0.23128650     0.31572767     0.41458969     0.53033537
               0.66584808     0.82450364     1.01025438     1.22772762
               1.48234092     1.78043706     2.12944203     2.53805004
               3.01644009     3.57652955     4.23227104     5.00000000

     Gradients computed in reciprocal space

[...]

     Starting wfc are  144 randomized atomic wfcs

     Self-consistent Calculation

[...]

     total energy              =   -2744.06770967 Ry
     Harris-Foulkes estimate   =   -2744.06770704 Ry
     estimated scf accuracy    <       0.00000139 Ry

[...]

     iteration # 30     ecut=    36.75 Ry     beta=0.10
     Davidson diagonalization with overlap
     ethr =  7.45E-10,  avg # of iterations =  1.1

[...]

     negative rho (up, down):  2.664E-04 1.220E-03

[...]

     Adding external electric field

     Computed dipole along edir(3) :
        Dipole                0.0147 Ry au,          0.0374 Debye
        Dipole field          0.0000 Ry au

        Potential amp.       -0.0039 Ry
        Total length         45.0286 bohr

     Magnetic moment per site:
     atom:    1    charge:    7.0980    magn:    1.2732    constr:    0.0000
     atom:    2    charge:    7.0980    magn:    1.2732    constr:    0.0000
     atom:    3    charge:    7.0979    magn:    1.2733    constr:    0.0000
     atom:    4    charge:    3.5239    magn:   -0.0066    constr:    0.0000
     atom:    5    charge:    7.0778    magn:    1.2073    constr:    0.0000
     atom:    6    charge:    7.0777    magn:    1.2073    constr:    0.0000
     atom:    7    charge:    7.0777    magn:    1.2074    constr:    0.0000
     atom:    8    charge:    3.5171    magn:   -0.0067    constr:    0.0000
     atom:    9    charge:    7.0938    magn:    1.2371    constr:    0.0000
     atom:   10    charge:    7.0937    magn:    1.2372    constr:    0.0000
     atom:   11    charge:    7.0938    magn:    1.2371    constr:    0.0000
     atom:   12    charge:    3.5185    magn:   -0.0056    constr:    0.0000

     End of self-consistent calculation

 ------ SPIN UP ------------

[...]

 ------ SPIN DOWN ----------

[...]

          k = 0.0613-0.0000 0.0000 ( 15888 PWs)   bands (ev):

[...]

          k =-0.0920-0.1593 0.0000 ( 15928 PWs)   bands (ev):

   -84.3689 -84.3635 -84.3582 -84.2555 -84.2530 -84.2507 -84.2456 -84.2317
   -84.2297 -50.5651 -50.5373 -50.5224 -50.5168 -50.5056 -50.4917 -50.4647
   -50.4492 -50.4332 -50.4205 -50.4195 -50.4174 -50.4043 -50.4026 -50.3817
   -50.3749 -50.3733 -50.3545 -50.3474 -50.3233 -50.3075 -50.2970 -50.2934
   -50.2676 -50.2516 -50.2321 -50.2306 -20.6895 -20.6851 -20.6738 -20.6616
   -20.6615 -20.4177 -20.4052 -20.3815 -20.3808 -20.3748 -20.3743 -20.3514
   -20.3457 -20.3274 -20.3240  -7.9864  -7.2026  -6.5001  -4.5089  -3.4204
    -3.3358  -3.1398  -1.8026  -1.6713  -1.5789  -1.1029  -1.0735  -0.9209
    -0.7526  -0.2351  -0.1498  -0.1323  -0.0645   0.0307   0.0690   0.1776
     0.2250   0.3343   0.4684   0.4925   0.6180   0.6857   0.8197   0.9532
     1.0214   1.0929   1.1089   1.2386   1.6172   1.6918   1.7091   1.7409
     1.7524   1.8728   1.9223   1.9813   2.0236   2.1028   2.1255   2.1874
     2.2060   2.3527   2.4836   2.5551   2.5614   2.6554   2.8176   2.9206
     3.1923   3.4016   3.4171   3.8685   4.1567   4.2053   5.4016   5.9210
     6.2101   6.4648   6.5439   6.6853   6.8008   6.9131   6.9893   7.0357
     7.4691   7.5794   7.5917

     the Fermi energy is     1.1388 ev

!    total energy              =   -2744.06772071 Ry
     Harris-Foulkes estimate   =   -2744.06770952 Ry
     estimated scf accuracy    <       0.00000097 Ry

     The total energy is the sum of the following terms:

     one-electron contribution =  -21319.29513384 Ry
     hartree contribution      =   10676.60925038 Ry
     xc contribution           =    -406.61944760 Ry
     ewald contribution        =    8305.30438128 Ry
     electric field correction =       0.00000064 Ry
     smearing contrib. (-TS)   =      -0.06677157 Ry

     total magnetization       =    22.60 Bohr mag/cell
     absolute magnetization    =    24.99 Bohr mag/cell

     convergence has been achieved in  30 iterations

 BEEF-vdW xc energy contributions
           1 :   -356.442365459683
           2 :    323.811501888660
           3 :   -269.055433452737
           4 :    208.113614755678
           5 :   -155.384516846661
           6 :    118.485792207065
           7 :   -97.0418718534798
           8 :    85.2842323239521
           9 :   -76.4173263204736
          10 :    66.1945983280993
          11 :   -54.1448307618438
          12 :    42.4178535837629
          13 :   -33.5177043047485
          14 :    28.4731196962005
          15 :   -26.4040334321614
          16 :    25.3755264978294
          17 :   -23.7208970413768
          18 :    20.9139398525707
          19 :   -17.5811580399024
          20 :    14.8254993605934
          21 :   -13.4111352227230
          22 :    13.3007921376121
          23 :   -13.7603187439328
          24 :    13.8675394518639
          25 :   -13.0784993671041
          26 :    11.5054484277312
          27 :   -9.78596564100388
          28 :    8.65031630051203
          29 :   -8.46859543052494
          30 :    9.03437062736856
          31 :   -31.2808818048474
          32 :   -22.3576038453002

     Forces acting on atoms (Ry/au):

     negative rho (up, down):  2.664E-04 1.220E-03
     atom    1 type  1   force =     0.00000932   -0.01766488    0.01845964
     atom    2 type  1   force =    -0.01528751    0.00885314    0.01844010
     atom    3 type  1   force =     0.01528157    0.00883838    0.01842952
     atom    4 type  2   force =    -0.00001448   -0.00004536   -0.05612561
     atom    5 type  1   force =    -0.00005033    0.01640555    0.00212253
     atom    6 type  1   force =     0.01421097   -0.00822803    0.00209254
     atom    7 type  1   force =    -0.01420727   -0.00816969    0.00214363
     atom    8 type  2   force =     0.00010175    0.00000551   -0.00234411
     atom    9 type  1   force =    -0.00002939    0.00092793   -0.00064607
     atom   10 type  1   force =     0.00075223   -0.00048363   -0.00064616
     atom   11 type  1   force =    -0.00079235   -0.00047400   -0.00063476
     atom   12 type  2   force =     0.00002550    0.00003509   -0.00129125

     Total force =     0.077059     Total SCF correction =     0.004328

     entering subroutine stress ...

     negative rho (up, down):  2.664E-04 1.220E-03
          total   stress  (Ry/bohr**3)                   (kbar)     P=  -13.77
  -0.00013231  -0.00000000  -0.00000000        -19.46     -0.00     -0.00
  -0.00000000  -0.00013229  -0.00000001         -0.00    -19.46     -0.00
  -0.00000000  -0.00000001  -0.00001618         -0.00     -0.00     -2.38

 !ASE

     Writing output data file calc.save

     General routines

     Parallel routines

   This run was terminated on:   2:30:52  26Dec2018

   JOB DONE.
Job  /afs/slac/g/suncat/bin/suncat-tsmpirun -x LD_LIBRARY_PATH -wdir /scratch/qe109645_mHfC0 pw.x -in pw.inp

TID   HOST_NAME   COMMAND_LINE            STATUS            TERMINATION_TIME
00000 suncat0028 pw.x -in pw.inp   Done                     12/26/2018 02:30:52
00001 suncat0028 pw.x -in pw.inp   Done                     12/26/2018 02:30:52
00002 suncat0028 pw.x -in pw.inp   Done                     12/26/2018 02:30:52
00003 suncat0028 pw.x -in pw.inp   Done                     12/26/2018 02:30:52
00004 suncat0028 pw.x -in pw.inp   Done                     12/26/2018 02:30:52
00005 suncat0028 pw.x -in pw.inp   Done                     12/26/2018 02:30:52
00006 suncat0028 pw.x -in pw.inp   Done                     12/26/2018 02:30:52
00007 suncat0028 pw.x -in pw.inp   Done                     12/26/2018 02:30:52
00008 suncat0027 pw.x -in pw.inp   Done                     12/26/2018 02:30:52
00009 suncat0027 pw.x -in pw.inp   Done                     12/26/2018 02:30:52
00010 suncat0027 pw.x -in pw.inp   Done                     12/26/2018 02:30:52
00011 suncat0027 pw.x -in pw.inp   Done                     12/26/2018 02:30:52
00012 suncat0027 pw.x -in pw.inp   Done                     12/26/2018 02:30:52
00013 suncat0027 pw.x -in pw.inp   Done                     12/26/2018 02:30:52
00014 suncat0027 pw.x -in pw.inp   Done                     12/26/2018 02:30:52
00015 suncat0027 pw.x -in pw.inp   Done                     12/26/2018 02:30:52
00016 suncat0026 pw.x -in pw.inp   Done                     12/26/2018 02:30:52
00017 suncat0026 pw.x -in pw.inp   Done                     12/26/2018 02:30:52
00018 suncat0026 pw.x -in pw.inp   Done                     12/26/2018 02:30:52
00019 suncat0026 pw.x -in pw.inp   Done                     12/26/2018 02:30:52
00020 suncat0026 pw.x -in pw.inp   Done                     12/26/2018 02:30:52
00021 suncat0026 pw.x -in pw.inp   Done                     12/26/2018 02:30:52
00022 suncat0026 pw.x -in pw.inp   Done                     12/26/2018 02:30:52
00023 suncat0026 pw.x -in pw.inp   Done                     12/26/2018 02:30:52
00024 suncat0021 pw.x -in pw.inp   Done                     12/26/2018 02:30:52
00025 suncat0021 pw.x -in pw.inp   Done                     12/26/2018 02:30:52
00026 suncat0021 pw.x -in pw.inp   Done                     12/26/2018 02:30:52
00027 suncat0021 pw.x -in pw.inp   Done                     12/26/2018 02:30:52
00028 suncat0021 pw.x -in pw.inp   Done                     12/26/2018 02:30:52
00029 suncat0021 pw.x -in pw.inp   Done                     12/26/2018 02:30:52
00030 suncat0021 pw.x -in pw.inp   Done                     12/26/2018 02:30:52
00031 suncat0021 pw.x -in pw.inp   Done                     12/26/2018 02:30:52
00032 suncat0191 pw.x -in pw.inp   Done                     12/26/2018 02:30:52
00033 suncat0191 pw.x -in pw.inp   Done                     12/26/2018 02:30:52
00034 suncat0191 pw.x -in pw.inp   Done                     12/26/2018 02:30:52
00035 suncat0191 pw.x -in pw.inp   Done                     12/26/2018 02:30:52
00036 suncat0191 pw.x -in pw.inp   Done                     12/26/2018 02:30:52
00037 suncat0191 pw.x -in pw.inp   Done                     12/26/2018 02:30:52
00038 suncat0191 pw.x -in pw.inp   Done                     12/26/2018 02:30:52
00039 suncat0191 pw.x -in pw.inp   Done                     12/26/2018 02:30:52
00040 suncat0113 pw.x -in pw.inp   Done                     12/26/2018 02:30:52
00041 suncat0113 pw.x -in pw.inp   Done                     12/26/2018 02:30:52
00042 suncat0113 pw.x -in pw.inp   Done                     12/26/2018 02:30:52
00043 suncat0113 pw.x -in pw.inp   Done                     12/26/2018 02:30:52
00044 suncat0113 pw.x -in pw.inp   Done                     12/26/2018 02:30:52
00045 suncat0113 pw.x -in pw.inp   Done                     12/26/2018 02:30:52
00046 suncat0113 pw.x -in pw.inp   Done                     12/26/2018 02:30:52
00047 suncat0113 pw.x -in pw.inp   Done                     12/26/2018 02:30:52
00048 suncat0110 pw.x -in pw.inp   Done                     12/26/2018 02:30:52
00049 suncat0110 pw.x -in pw.inp   Done                     12/26/2018 02:30:52
00050 suncat0110 pw.x -in pw.inp   Done                     12/26/2018 02:30:52
00051 suncat0110 pw.x -in pw.inp   Done                     12/26/2018 02:30:52
00052 suncat0110 pw.x -in pw.inp   Done                     12/26/2018 02:30:52
00053 suncat0110 pw.x -in pw.inp   Done                     12/26/2018 02:30:52
00054 suncat0110 pw.x -in pw.inp   Done                     12/26/2018 02:30:52
00055 suncat0110 pw.x -in pw.inp   Done                     12/26/2018 02:30:52
00056 suncat0109 pw.x -in pw.inp   Done                     12/26/2018 02:30:52
00057 suncat0109 pw.x -in pw.inp   Done                     12/26/2018 02:30:52
00058 suncat0109 pw.x -in pw.inp   Done                     12/26/2018 02:30:52
00059 suncat0109 pw.x -in pw.inp   Done                     12/26/2018 02:30:52
00060 suncat0109 pw.x -in pw.inp   Done                     12/26/2018 02:30:52
00061 suncat0109 pw.x -in pw.inp   Done                     12/26/2018 02:30:52
00062 suncat0109 pw.x -in pw.inp   Done                     12/26/2018 02:30:52
00063 suncat0109 pw.x -in pw.inp   Done                     12/26/2018 02:30:52