     Program PWSCF v.5.1rc2 (svn rev. 11289) starts on 26Dec2018 at  9:43:26

     Current dimensions of program PWSCF are:
     Max number of different atomic species (ntypx) = 10
     Max number of k-points (npk) =  40000
     Max angular momentum in pseudopotentials (lmaxx) =  3
     Presently stress not available with electric field

     IMPORTANT: XC functional enforced from input :
     Exchange-correlation      = BEEF-VDW ( 1  4 27 13 2)
     Any further DFT definition will be discarded
     Please, verify this is what you really want

     Subspace diagonalization in iterative solution of the eigenvalue problem:
     a serial algorithm will be used

     Generating pointlists ...
     new r_m :   0.4125 (alat units)  0.7795 (a.u.) for type    1
     new r_m :   0.4125 (alat units)  0.7795 (a.u.) for type    2

     bravais-lattice index     =            0
     lattice parameter (alat)  =       1.8897  a.u.
     unit-cell volume          =    5505.1202 (a.u.)^3
     number of atoms/cell      =           12
     number of atomic types    =            2
     number of electrons       =       162.00
     number of Kohn-Sham states=          111
     kinetic-energy cutoff     =      36.7493  Ry
     charge density cutoff     =     367.4932  Ry
     convergence threshold     =      1.0E-06
     mixing beta               =       0.1000
     number of iterations used =           10  plain     mixing
     Exchange-correlation      = BEEF-VDW ( 1  4 27 13 2)
     nstep                     =           50

     celldm(1)=   1.889726  celldm(2)=   0.000000  celldm(3)=   0.000000
     celldm(4)=   0.000000  celldm(5)=   0.000000  celldm(6)=   0.000000

     crystal axes: (cart. coord. in units of alat)
               a(1) = (   6.136994   0.000000   0.000000 )
               a(2) = (  -3.068497   5.314793   0.000000 )
               a(3) = (   0.000000   0.000000  25.010835 )

     reciprocal axes: (cart. coord. in units 2 pi/alat)
               b(1) = (  0.162946  0.094077  0.000000 )
               b(2) = (  0.000000  0.188154  0.000000 )
               b(3) = (  0.000000  0.000000  0.039983 )

     PseudoPot. # 1 for Hg read from file:
     /afs/slac.stanford.edu/u/if/mamunm/psp/gbrv1.5pbe/Hg.UPF
     MD5 check sum: 8f42caffe07f7fd9c0a564347f8c5498
     Pseudo is Ultrasoft + core correction, Zval = 12.0
     Generated by new atomic code, or converted to UPF format
     Using radial grid of  985 points,  6 beta functions with:
                l(1) =   0
                l(2) =   0
                l(3) =   1
                l(4) =   1
                l(5) =   2
                l(6) =   2
     Q(r) pseudized with  8 coefficients,  rinner =    2.000   2.000   2.000
                                                       2.000   2.000

     PseudoPot. # 2 for Ni read from file:
     /afs/slac.stanford.edu/u/if/mamunm/psp/gbrv1.5pbe/Ni.UPF
     MD5 check sum: 1ee80287db30b12d2bc1f57a5b5d6409
     Pseudo is Ultrasoft + core correction, Zval = 18.0
     Generated by new atomic code, or converted to UPF format
     Using radial grid of  865 points,  6 beta functions with:
                l(1) =   0
                l(2) =   0
                l(3) =   1
                l(4) =   1
                l(5) =   2
                l(6) =   2
     Q(r) pseudized with 10 coefficients,  rinner =    0.980   0.980   0.980
                                                       0.980   0.980

     vdW kernel table read from file vdW_kernel_table
     MD5 check sum: 095c7af220d748ca6e76c0b4c6cfb241

     atomic species   valence    mass     pseudopotential
        Hg1           12.00   200.59200     Hg( 1.00)
        Ni1           18.00    58.69340     Ni( 1.00)

     Starting magnetic structure
     atomic species   magnetization
        Hg1          0.167
        Ni1          0.111

     No symmetry found

   Cartesian axes

     site n.     atom                  positions (alat units)
         1           Hg1 tau(   1) = (   0.0000000   0.0000000  10.0000000  )
         2           Hg1 tau(   2) = (  -1.5342485   2.6573963  10.0000000  )
         3           Hg1 tau(   3) = (   1.5342485   2.6573963  10.0000000  )
         4           Ni1 tau(   4) = (   3.0684970   0.0000000  10.0000000  )
         5           Hg1 tau(   5) = (   3.0684970   1.7715976  12.5054173  )
         6           Hg1 tau(   6) = (   1.5342485   4.4289939  12.5054173  )
         7           Hg1 tau(   7) = (  -1.5342485   4.4289939  12.5054173  )
         8           Ni1 tau(   8) = (   0.0000000   1.7715976  12.5054173  )
         9           Hg1 tau(   9) = (  -0.0000000   3.5431951  15.0108346  )
        10           Hg1 tau(  10) = (   1.5342485   0.8857988  15.0108346  )
        11           Hg1 tau(  11) = (   4.6027455   0.8857988  15.0108346  )
        12           Ni1 tau(  12) = (   3.0684970   3.5431951  15.0108346  )

     number of k points=    40  Fermi-Dirac smearing, width (Ry)=  0.0110
                       cart. coord. in units 2pi/alat
        k(    1) = (   0.0000000   0.0000000   0.0000000), wk =   0.0277778
        k(    2) = (   0.0000000   0.0313590   0.0000000), wk =   0.0555556
        k(    3) = (   0.0000000   0.0627180   0.0000000), wk =   0.0555556
        k(    4) = (   0.0000000  -0.0940770   0.0000000), wk =   0.0277778
        k(    5) = (   0.0271577   0.0156795   0.0000000), wk =   0.0555556
        k(    6) = (   0.0271577   0.0470385   0.0000000), wk =   0.0555556
        k(    7) = (   0.0271577   0.0783975   0.0000000), wk =   0.0555556
        k(    8) = (   0.0271577  -0.0783975   0.0000000), wk =   0.0555556
        k(    9) = (   0.0271577  -0.0470385   0.0000000), wk =   0.0555556
        k(   10) = (   0.0271577  -0.0156795   0.0000000), wk =   0.0555556
        k(   11) = (   0.0543154   0.0313590   0.0000000), wk =   0.0555556
        k(   12) = (   0.0543154   0.0627180   0.0000000), wk =   0.0555556
        k(   13) = (   0.0543154   0.0940770   0.0000000), wk =   0.0555556
        k(   14) = (   0.0543154  -0.0627180   0.0000000), wk =   0.0555556
        k(   15) = (   0.0543154  -0.0313590   0.0000000), wk =   0.0555556
        k(   16) = (   0.0543154   0.0000000   0.0000000), wk =   0.0555556
        k(   17) = (  -0.0814731  -0.0470385   0.0000000), wk =   0.0277778
        k(   18) = (  -0.0814731  -0.0156795   0.0000000), wk =   0.0555556
        k(   19) = (  -0.0814731   0.0156795   0.0000000), wk =   0.0555556
        k(   20) = (  -0.0814731  -0.1411156   0.0000000), wk =   0.0277778
        k(   21) = (   0.0000000   0.0000000   0.0000000), wk =   0.0277778
        k(   22) = (   0.0000000   0.0313590   0.0000000), wk =   0.0555556
        k(   23) = (   0.0000000   0.0627180   0.0000000), wk =   0.0555556
        k(   24) = (   0.0000000  -0.0940770   0.0000000), wk =   0.0277778
        k(   25) = (   0.0271577   0.0156795   0.0000000), wk =   0.0555556
        k(   26) = (   0.0271577   0.0470385   0.0000000), wk =   0.0555556
        k(   27) = (   0.0271577   0.0783975   0.0000000), wk =   0.0555556
        k(   28) = (   0.0271577  -0.0783975   0.0000000), wk =   0.0555556
        k(   29) = (   0.0271577  -0.0470385   0.0000000), wk =   0.0555556
        k(   30) = (   0.0271577  -0.0156795   0.0000000), wk =   0.0555556
        k(   31) = (   0.0543154   0.0313590   0.0000000), wk =   0.0555556
        k(   32) = (   0.0543154   0.0627180   0.0000000), wk =   0.0555556
        k(   33) = (   0.0543154   0.0940770   0.0000000), wk =   0.0555556
        k(   34) = (   0.0543154  -0.0627180   0.0000000), wk =   0.0555556
        k(   35) = (   0.0543154  -0.0313590   0.0000000), wk =   0.0555556
        k(   36) = (   0.0543154   0.0000000   0.0000000), wk =   0.0555556
        k(   37) = (  -0.0814731  -0.0470385   0.0000000), wk =   0.0277778
        k(   38) = (  -0.0814731  -0.0156795   0.0000000), wk =   0.0555556
        k(   39) = (  -0.0814731   0.0156795   0.0000000), wk =   0.0555556
        k(   40) = (  -0.0814731  -0.1411156   0.0000000), wk =   0.0277778

     Largest allocated arrays     est. size (Mb)     dimensions
     Largest temporary arrays     est. size (Mb)     dimensions

     Initial potential from superposition of free atoms
     Check: negative starting charge=(component1):   -0.000228
     Check: negative starting charge=(component2):   -0.000182

     starting charge  155.99948, renormalised to  162.00000

     negative rho (up, down):  2.365E-04 1.891E-04

     *
     * You are using vdW-DF for exchange-correlation in this calculation.
     * Please cite the following three references that made this development
     * possible:
     *
     *   M. Dion, H. Rydberg, E. Schroder, D. C. Langreth, and
     *   B. I. Lundqvist, Phys. Rev. Lett. 92, 246401 (2004).
     *
     *   T. Thonhauser, V. R. Cooper, S. Li, A. Puzder, P. Hyldgaard, and
     *   D. C. Langreth, Phys. Rev. B 76, 125112 (2007).
     *
     *   G. Roman-Perez and J. M. Soler, Phys. Rev. Lett. 103, 096102 (2009).
     *
     *
     * If you are using vdW-DF2, please also cite:
     *
     *   K. Lee, E. D. Murray, L. Kong, B. I. Lundqvist, and
     *   D. C. Langreth, Phys. Rev. B 82, 081101(R) (2010).
     *
     *
     * If you are calculating the stress with vdW-DF, please also cite:
     *
     *   R. Sabatini, E. Kucukbenli, B. Kolb, T. Thonhauser, and
     *   S. de Gironcoli, J. Phys.: Condens. Matter 24, 424209 (2012).
     *

     Carrying out vdW-DF run using the following parameters:

     Nqs =      20    Nr_points =    1024   r_max =   100.000
     q_mesh =
               0.00001000     0.04494208     0.09755937     0.15916263
               0.23128650     0.31572767     0.41458969     0.53033537
               0.66584808     0.82450364     1.01025438     1.22772762
               1.48234092     1.78043706     2.12944203     2.53805004
               3.01644009     3.57652955     4.23227104     5.00000000

     Gradients computed in reciprocal space

     Adding external electric field

     Computed dipole along edir(3) :
        Dipole                0.0000 Ry au,          0.0000 Debye
        Dipole field          0.0000 Ry au

        Potential amp.       -0.0000 Ry
        Total length         46.0820 bohr

[...]

     Starting wfc are  120 randomized atomic wfcs

     Self-consistent Calculation

     iteration #  1     ecut=    36.75 Ry     beta=0.10
     Davidson diagonalization with overlap
     ethr =  1.00E-02,  avg # of iterations =  7.9

[...]

     Magnetic moment per site:
     atom:    1    charge:    1.9908    magn:    0.3049    constr:    0.0000
     atom:    2    charge:    1.9908    magn:    0.3049    constr:    0.0000
     atom:    3    charge:    1.9908    magn:    0.3049    constr:    0.0000
     atom:    4    charge:    9.6087    magn:    1.0193    constr:    0.0000
     atom:    5    charge:    1.9915    magn:    0.3050    constr:    0.0000
     atom:    6    charge:    1.9915    magn:    0.3050    constr:    0.0000
     atom:    7    charge:    1.9915    magn:    0.3050    constr:    0.0000
     atom:    8    charge:    9.5558    magn:    1.0646    constr:    0.0000
[...]
        k(    1) = (   0.0000000   0.0000000   0.0000000), wk =   0.0277778
        k(    2) = (   0.0000000   0.0313590   0.0000000), wk =   0.0555556
        k(    3) = (   0.0000000   0.0627180   0.0000000), wk =   0.0555556
        k(    4) = (   0.0000000  -0.0940770   0.0000000), wk =   0.0277778
        k(    5) = (   0.0271577   0.0156795   0.0000000), wk =   0.0555556
        k(    6) = (   0.0271577   0.0470385   0.0000000), wk =   0.0555556
        k(    7) = (   0.0271577   0.0783975   0.0000000), wk =   0.0555556
        k(    8) = (   0.0271577  -0.0783975   0.0000000), wk =   0.0555556
        k(    9) = (   0.0271577  -0.0470385   0.0000000), wk =   0.0555556
        k(   10) = (   0.0271577  -0.0156795   0.0000000), wk =   0.0555556
        k(   11) = (   0.0543154   0.0313590   0.0000000), wk =   0.0555556
        k(   12) = (   0.0543154   0.0627180   0.0000000), wk =   0.0555556
        k(   13) = (   0.0543154   0.0940770   0.0000000), wk =   0.0555556
        k(   14) = (   0.0543154  -0.0627180   0.0000000), wk =   0.0555556
        k(   15) = (   0.0543154  -0.0313590   0.0000000), wk =   0.0555556
        k(   16) = (   0.0543154   0.0000000   0.0000000), wk =   0.0555556
        k(   17) = (  -0.0814731  -0.0470385   0.0000000), wk =   0.0277778
        k(   18) = (  -0.0814731  -0.0156795   0.0000000), wk =   0.0555556
        k(   19) = (  -0.0814731   0.0156795   0.0000000), wk =   0.0555556
        k(   20) = (  -0.0814731  -0.1411156   0.0000000), wk =   0.0277778
        k(   21) = (   0.0000000   0.0000000   0.0000000), wk =   0.0277778
        k(   22) = (   0.0000000   0.0313590   0.0000000), wk =   0.0555556
        k(   23) = (   0.0000000   0.0627180   0.0000000), wk =   0.0555556
        k(   24) = (   0.0000000  -0.0940770   0.0000000), wk =   0.0277778
        k(   25) = (   0.0271577   0.0156795   0.0000000), wk =   0.0555556
        k(   26) = (   0.0271577   0.0470385   0.0000000), wk =   0.0555556
        k(   27) = (   0.0271577   0.0783975   0.0000000), wk =   0.0555556
        k(   28) = (   0.0271577  -0.0783975   0.0000000), wk =   0.0555556
        k(   29) = (   0.0271577  -0.0470385   0.0000000), wk =   0.0555556
        k(   30) = (   0.0271577  -0.0156795   0.0000000), wk =   0.0555556
        k(   31) = (   0.0543154   0.0313590   0.0000000), wk =   0.0555556
        k(   32) = (   0.0543154   0.0627180   0.0000000), wk =   0.0555556
        k(   33) = (   0.0543154   0.0940770   0.0000000), wk =   0.0555556
        k(   34) = (   0.0543154  -0.0627180   0.0000000), wk =   0.0555556
        k(   35) = (   0.0543154  -0.0313590   0.0000000), wk =   0.0555556
        k(   36) = (   0.0543154   0.0000000   0.0000000), wk =   0.0555556
        k(   37) = (  -0.0814731  -0.0470385   0.0000000), wk =   0.0277778
        k(   38) = (  -0.0814731  -0.0156795   0.0000000), wk =   0.0555556
        k(   39) = (  -0.0814731   0.0156795   0.0000000), wk =   0.0555556
        k(   40) = (  -0.0814731  -0.1411156   0.0000000), wk =   0.0277778

     Largest allocated arrays     est. size (Mb)     dimensions
     Largest temporary arrays     est. size (Mb)     dimensions

     Initial potential from superposition of free atoms
     Check: negative starting charge=(component1):   -0.000212
     Check: negative starting charge=(component2):   -0.000169

     starting charge  155.99948, renormalised to  162.00000

[...]

     *
     * You are using vdW-DF for exchange-correlation in this calculation.
     * Please cite the following three references that made this development
     * possible:
     *
     *   M. Dion, H. Rydberg, E. Schroder, D. C. Langreth, and
     *   B. I. Lundqvist, Phys. Rev. Lett. 92, 246401 (2004).
     *
     *   T. Thonhauser, V. R. Cooper, S. Li, A. Puzder, P. Hyldgaard, and
     *   D. C. Langreth, Phys. Rev. B 76, 125112 (2007).
     *
     *   G. Roman-Perez and J. M. Soler, Phys. Rev. Lett. 103, 096102 (2009).
     *
     *
     * If you are using vdW-DF2, please also cite:
     *
     *   K. Lee, E. D. Murray, L. Kong, B. I. Lundqvist, and
     *   D. C. Langreth, Phys. Rev. B 82, 081101(R) (2010).
     *
     *
     * If you are calculating the stress with vdW-DF, please also cite:
     *
     *   R. Sabatini, E. Kucukbenli, B. Kolb, T. Thonhauser, and
     *   S. de Gironcoli, J. Phys.: Condens. Matter 24, 424209 (2012).
     *

     Carrying out vdW-DF run using the following parameters:

     Nqs =      20    Nr_points =    1024   r_max =   100.000
     q_mesh =
               0.00001000     0.04494208     0.09755937     0.15916263
               0.23128650     0.31572767     0.41458969     0.53033537
               0.66584808     0.82450364     1.01025438     1.22772762
               1.48234092     1.78043706     2.12944203     2.53805004
               3.01644009     3.57652955     4.23227104     5.00000000

     Gradients computed in reciprocal space

[...]

     Starting wfc are  120 randomized atomic wfcs

     Self-consistent Calculation

[...]

     total energy              =   -2014.92246379 Ry
     Harris-Foulkes estimate   =   -2014.92248231 Ry
     estimated scf accuracy    <       0.00000163 Ry

[...]

     iteration # 41     ecut=    36.75 Ry     beta=0.10
     Davidson diagonalization with overlap
     ethr =  1.01E-09,  avg # of iterations =  3.8

[...]

     negative rho (up, down):  5.054E-04 5.024E-04

[...]

     Adding external electric field

     Computed dipole along edir(3) :
        Dipole                0.0466 Ry au,          0.1184 Debye
        Dipole field          0.0001 Ry au

        Potential amp.       -0.0098 Ry
        Total length         46.0820 bohr

     Magnetic moment per site:
     atom:    1    charge:    1.9870    magn:   -0.0000    constr:    0.0000
     atom:    2    charge:    1.9870    magn:   -0.0000    constr:    0.0000
     atom:    3    charge:    1.9870    magn:   -0.0000    constr:    0.0000
     atom:    4    charge:    9.3799    magn:    0.0138    constr:    0.0000
     atom:    5    charge:    1.9913    magn:   -0.0000    constr:    0.0000
     atom:    6    charge:    1.9913    magn:   -0.0000    constr:    0.0000
     atom:    7    charge:    1.9913    magn:   -0.0000    constr:    0.0000
     atom:    8    charge:    9.3798    magn:    0.0254    constr:    0.0000
     atom:    9    charge:    1.9812    magn:    0.0000    constr:    0.0000
     atom:   10    charge:    1.9812    magn:    0.0000    constr:    0.0000
     atom:   11    charge:    1.9812    magn:    0.0000    constr:    0.0000
     atom:   12    charge:    9.3715    magn:   -0.0016    constr:    0.0000

     End of self-consistent calculation

 ------ SPIN UP ------------

[...]

 ------ SPIN DOWN ----------

[...]

          k = 0.0543 0.0000 0.0000 ( 20681 PWs)   bands (ev):

[...]

          k =-0.0815-0.1411 0.0000 ( 20704 PWs)   bands (ev):

  -101.9375-101.7929-101.7074 -62.3713 -62.3533 -62.3532 -62.2579 -62.2577
   -62.1727 -62.1726 -62.1283 -62.0545  -7.7849  -7.5397  -7.4570  -7.3311
    -7.2524  -7.2045  -7.1605  -7.1076  -7.0944  -7.0940  -6.9975  -6.9675
    -6.9428  -6.8068  -6.8045  -6.7415  -6.7043  -6.6636  -6.6278  -6.5773
    -6.5218  -6.4912  -6.4156  -6.4100  -6.3938  -6.3829  -6.3665  -6.3564
    -6.3419  -6.3127  -6.2857  -6.2581  -6.2555  -6.2038  -6.1960  -6.1919
    -6.1596  -6.0716  -6.0461  -5.9740  -5.9454  -5.8972  -5.8599  -5.8080
    -5.7251  -5.6291  -5.5318  -4.4928  -4.3448  -3.2682  -2.5926  -2.5168
    -1.5247  -1.4212  -0.9343  -0.7623  -0.5441  -0.5079  -0.4641  -0.4309
    -0.4090  -0.3939  -0.2850  -0.2814  -0.1797  -0.0884   0.0187   0.0713
     0.1765   0.5362   0.8716   1.6204   1.9989   2.2750   3.7198   3.7750
     4.0643   4.1665   4.3302   4.5518   4.5663   5.1768   5.4123   5.4732
     5.5716   5.6486   5.9718   6.0042   6.2981   6.6619   6.7964   6.8141
     6.8920   6.9448   7.0112   7.1841   7.3744   7.4431   7.6151

     the Fermi energy is     0.4813 ev

!    total energy              =   -2014.92248993 Ry
     Harris-Foulkes estimate   =   -2014.92248462 Ry
     estimated scf accuracy    <       0.00000097 Ry

     The total energy is the sum of the following terms:

     one-electron contribution =  -12017.31054531 Ry
     hartree contribution      =    6080.95287071 Ry
     xc contribution           =    -474.31963796 Ry
     ewald contribution        =    4395.80475454 Ry
     electric field correction =       0.00000496 Ry
     smearing contrib. (-TS)   =      -0.04993687 Ry

     total magnetization       =     0.06 Bohr mag/cell
     absolute magnetization    =     0.09 Bohr mag/cell

     convergence has been achieved in  41 iterations

 BEEF-vdW xc energy contributions
           1 :   -416.266074145600
           2 :    381.451957804766
           3 :   -321.655582122971
           4 :    252.153890497777
           5 :   -187.615163941973
           6 :    137.330160532496
           7 :   -103.509880086414
           8 :    82.7340227497234
           9 :   -69.2356968916631
          10 :    58.1083512372062
          11 :   -47.0068269431312
          12 :    36.0035024263241
          13 :   -26.3004772299628
          14 :    18.8710842143386
          15 :   -13.7989959473159
          16 :    10.4155278353193
          17 :   -7.85103219005146
          18 :    5.51680091851080
          19 :   -3.27271141297445
          20 :    1.30272433057507
          21 :   0.126933502271868
          22 :  -0.875317255247637
          23 :    1.02307760268309
          24 :  -0.859345161856481
          25 :   0.775805482145188
          26 :   -1.10153852445876
          27 :    1.92884451159324
          28 :   -3.02616607662594
          29 :    3.91827674422899
          30 :   -4.13437560173622
          31 :   -37.6946658239654
          32 :   -27.3802613047794

     Forces acting on atoms (Ry/au):

     negative rho (up, down):  5.054E-04 5.024E-04
     atom    1 type  1   force =     0.00000006    0.01153287   -0.02338663
     atom    2 type  1   force =     0.00998785   -0.00576652   -0.02338666
     atom    3 type  1   force =    -0.00998760   -0.00576650   -0.02338647
     atom    4 type  2   force =    -0.00000065    0.00000063    0.03388363
     atom    5 type  1   force =     0.00000013   -0.01917852    0.01192455
     atom    6 type  1   force =    -0.01660871    0.00958875    0.01192477
     atom    7 type  1   force =     0.01660953    0.00958953    0.01192412
     atom    8 type  2   force =     0.00000040    0.00000017   -0.00238297
     atom    9 type  1   force =    -0.00000015   -0.00001953    0.00095495
     atom   10 type  1   force =    -0.00001609    0.00000962    0.00095489
     atom   11 type  1   force =     0.00001651    0.00000928    0.00095467
     atom   12 type  2   force =    -0.00000127    0.00000023    0.00002115

     Total force =     0.068749     Total SCF correction =     0.002429

     entering subroutine stress ...

     negative rho (up, down):  5.054E-04 5.024E-04
          total   stress  (Ry/bohr**3)                   (kbar)     P=  -13.09
  -0.00011446   0.00000000  -0.00000000        -16.84      0.00     -0.00
   0.00000000  -0.00011446  -0.00000000          0.00    -16.84     -0.00
  -0.00000000  -0.00000000  -0.00003797         -0.00     -0.00     -5.59

 !ASE

     Writing output data file calc.save

     General routines

     Parallel routines

   This run was terminated on:  15:28:19  26Dec2018

   JOB DONE.
Job  /afs/slac/g/suncat/bin/suncat-tsmpirun -x LD_LIBRARY_PATH -wdir /scratch/qe109816_KGUvL pw.x -in pw.inp

TID   HOST_NAME   COMMAND_LINE            STATUS            TERMINATION_TIME
00000 suncat0024 pw.x -in pw.inp   Done                     12/26/2018 15:28:19
00001 suncat0024 pw.x -in pw.inp   Done                     12/26/2018 15:28:19
00002 suncat0024 pw.x -in pw.inp   Done                     12/26/2018 15:28:19
00003 suncat0024 pw.x -in pw.inp   Done                     12/26/2018 15:28:19
00004 suncat0024 pw.x -in pw.inp   Done                     12/26/2018 15:28:19
00005 suncat0024 pw.x -in pw.inp   Done                     12/26/2018 15:28:19
00006 suncat0024 pw.x -in pw.inp   Done                     12/26/2018 15:28:19
00007 suncat0024 pw.x -in pw.inp   Done                     12/26/2018 15:28:19
00008 suncat0023 pw.x -in pw.inp   Done                     12/26/2018 15:28:19
00009 suncat0023 pw.x -in pw.inp   Done                     12/26/2018 15:28:19
00010 suncat0023 pw.x -in pw.inp   Done                     12/26/2018 15:28:19
00011 suncat0023 pw.x -in pw.inp   Done                     12/26/2018 15:28:19
00012 suncat0023 pw.x -in pw.inp   Done                     12/26/2018 15:28:19
00013 suncat0023 pw.x -in pw.inp   Done                     12/26/2018 15:28:19
00014 suncat0023 pw.x -in pw.inp   Done                     12/26/2018 15:28:19
00015 suncat0023 pw.x -in pw.inp   Done                     12/26/2018 15:28:19
00016 suncat0022 pw.x -in pw.inp   Done                     12/26/2018 15:28:19
00017 suncat0022 pw.x -in pw.inp   Done                     12/26/2018 15:28:19
00018 suncat0022 pw.x -in pw.inp   Done                     12/26/2018 15:28:19
00019 suncat0022 pw.x -in pw.inp   Done                     12/26/2018 15:28:19
00020 suncat0022 pw.x -in pw.inp   Done                     12/26/2018 15:28:19
00021 suncat0022 pw.x -in pw.inp   Done                     12/26/2018 15:28:19
00022 suncat0022 pw.x -in pw.inp   Done                     12/26/2018 15:28:19
00023 suncat0022 pw.x -in pw.inp   Done                     12/26/2018 15:28:19
00024 suncat0018 pw.x -in pw.inp   Done                     12/26/2018 15:28:19
00025 suncat0018 pw.x -in pw.inp   Done                     12/26/2018 15:28:19
00026 suncat0018 pw.x -in pw.inp   Done                     12/26/2018 15:28:19
00027 suncat0018 pw.x -in pw.inp   Done                     12/26/2018 15:28:19
00028 suncat0018 pw.x -in pw.inp   Done                     12/26/2018 15:28:19
00029 suncat0018 pw.x -in pw.inp   Done                     12/26/2018 15:28:19
00030 suncat0018 pw.x -in pw.inp   Done                     12/26/2018 15:28:19
00031 suncat0018 pw.x -in pw.inp   Done                     12/26/2018 15:28:19
00032 suncat0017 pw.x -in pw.inp   Done                     12/26/2018 15:28:19
00033 suncat0017 pw.x -in pw.inp   Done                     12/26/2018 15:28:19
00034 suncat0017 pw.x -in pw.inp   Done                     12/26/2018 15:28:19
00035 suncat0017 pw.x -in pw.inp   Done                     12/26/2018 15:28:19
00036 suncat0017 pw.x -in pw.inp   Done                     12/26/2018 15:28:19
00037 suncat0017 pw.x -in pw.inp   Done                     12/26/2018 15:28:19
00038 suncat0017 pw.x -in pw.inp   Done                     12/26/2018 15:28:19
00039 suncat0017 pw.x -in pw.inp   Done                     12/26/2018 15:28:19
00040 suncat0016 pw.x -in pw.inp   Done                     12/26/2018 15:28:19
00041 suncat0016 pw.x -in pw.inp   Done                     12/26/2018 15:28:19
00042 suncat0016 pw.x -in pw.inp   Done                     12/26/2018 15:28:19
00043 suncat0016 pw.x -in pw.inp   Done                     12/26/2018 15:28:19
00044 suncat0016 pw.x -in pw.inp   Done                     12/26/2018 15:28:19
00045 suncat0016 pw.x -in pw.inp   Done                     12/26/2018 15:28:19
00046 suncat0016 pw.x -in pw.inp   Done                     12/26/2018 15:28:19
00047 suncat0016 pw.x -in pw.inp   Done                     12/26/2018 15:28:19
00048 suncat0014 pw.x -in pw.inp   Done                     12/26/2018 15:28:19
00049 suncat0014 pw.x -in pw.inp   Done                     12/26/2018 15:28:19
00050 suncat0014 pw.x -in pw.inp   Done                     12/26/2018 15:28:19
00051 suncat0014 pw.x -in pw.inp   Done                     12/26/2018 15:28:19
00052 suncat0014 pw.x -in pw.inp   Done                     12/26/2018 15:28:19
00053 suncat0014 pw.x -in pw.inp   Done                     12/26/2018 15:28:19
00054 suncat0014 pw.x -in pw.inp   Done                     12/26/2018 15:28:19
00055 suncat0014 pw.x -in pw.inp   Done                     12/26/2018 15:28:19
00056 suncat0198 pw.x -in pw.inp   Done                     12/26/2018 15:28:19
00057 suncat0198 pw.x -in pw.inp   Done                     12/26/2018 15:28:19
00058 suncat0198 pw.x -in pw.inp   Done                     12/26/2018 15:28:19
00059 suncat0198 pw.x -in pw.inp   Done                     12/26/2018 15:28:19
00060 suncat0198 pw.x -in pw.inp   Done                     12/26/2018 15:28:19
00061 suncat0198 pw.x -in pw.inp   Done                     12/26/2018 15:28:19
00062 suncat0198 pw.x -in pw.inp   Done                     12/26/2018 15:28:19
00063 suncat0198 pw.x -in pw.inp   Done                     12/26/2018 15:28:19