     Program PWSCF v.5.1rc2 (svn rev. 11289) starts on 19Dec2018 at 15: 8:11

     Current dimensions of program PWSCF are:
     Max number of different atomic species (ntypx) = 10
     Max number of k-points (npk) =  40000
     Max angular momentum in pseudopotentials (lmaxx) =  3
     Presently stress not available with electric field

     IMPORTANT: XC functional enforced from input :
     Exchange-correlation      = BEEF-VDW ( 1  4 27 13 2)
     Any further DFT definition will be discarded
     Please, verify this is what you really want

     Subspace diagonalization in iterative solution of the eigenvalue problem:
     a serial algorithm will be used

     bravais-lattice index     =            0
     lattice parameter (alat)  =       1.8897  a.u.
     unit-cell volume          =    4930.3730 (a.u.)^3
     number of atoms/cell      =           12
     number of atomic types    =            2
     number of electrons       =       219.00
     number of Kohn-Sham states=          139
     kinetic-energy cutoff     =      36.7493  Ry
     charge density cutoff     =     367.4932  Ry
     convergence threshold     =      1.0E-06
     mixing beta               =       0.1000
     number of iterations used =           10  plain     mixing
     Exchange-correlation      = BEEF-VDW ( 1  4 27 13 2)
     nstep                     =           50

     celldm(1)=   1.889726  celldm(2)=   0.000000  celldm(3)=   0.000000
     celldm(4)=   0.000000  celldm(5)=   0.000000  celldm(6)=   0.000000

     crystal axes: (cart. coord. in units of alat)
               a(1) = (   5.836505   0.000000   0.000000 )
               a(2) = (  -2.918252   5.054561   0.000000 )
               a(3) = (   0.000000   0.000000  24.765486 )

     reciprocal axes: (cart. coord. in units 2 pi/alat)
               b(1) = (  0.171335  0.098921  0.000000 )
               b(2) = (  0.000000  0.197841  0.000000 )
               b(3) = (  0.000000  0.000000  0.040379 )

     PseudoPot. # 1 for Ag read from file:
     /afs/slac.stanford.edu/u/if/mamunm/psp/gbrv1.5pbe/Ag.UPF
     MD5 check sum: d66d668201baa78d5eb5b04ef7011058
     Pseudo is Ultrasoft + core correction, Zval = 19.0
     Generated by new atomic code, or converted to UPF format
     Using radial grid of  887 points,  6 beta functions with:
                l(1) =   0
                l(2) =   0
                l(3) =   1
                l(4) =   1
                l(5) =   2
                l(6) =   2
     Q(r) pseudized with  6 coefficients,  rinner =    1.300   1.300   1.300
                                                       1.300   1.300

     PseudoPot. # 2 for Pd read from file:
     /afs/slac.stanford.edu/u/if/mamunm/psp/gbrv1.5pbe/Pd.UPF
     MD5 check sum: 2d733d2bc2cbfd217af676df1668a4bc
     Pseudo is Ultrasoft + core correction, Zval = 16.0
     Generated by new atomic code, or converted to UPF format
     Using radial grid of  887 points,  6 beta functions with:
                l(1) =   0
                l(2) =   0
                l(3) =   1
                l(4) =   1
                l(5) =   2
                l(6) =   2
     Q(r) pseudized with  8 coefficients,  rinner =    1.130   1.130   1.130
                                                       1.130   1.130

     vdW kernel table read from file vdW_kernel_table
     MD5 check sum: 095c7af220d748ca6e76c0b4c6cfb241

     atomic species   valence    mass     pseudopotential
        Ag1           19.00   107.86820     Ag( 1.00)
        Pd1           16.00   106.42000     Pd( 1.00)

     No symmetry found

   Cartesian axes

     site n.     atom                  positions (alat units)
         1           Ag1 tau(   1) = (   0.0000000   0.0000000  10.0000000  )
         2           Ag1 tau(   2) = (  -1.4591262   2.5272807  10.0000000  )
         3           Ag1 tau(   3) = (   1.4591262   2.5272807  10.0000000  )
         4           Pd1 tau(   4) = (   2.9182524   0.0000000  10.0000000  )
         5           Ag1 tau(   5) = (   2.9182524   1.6848538  12.3827431  )
         6           Ag1 tau(   6) = (   1.4591262   4.2121345  12.3827431  )
         7           Ag1 tau(   7) = (  -1.4591262   4.2121345  12.3827431  )
         8           Pd1 tau(   8) = (   0.0000000   1.6848538  12.3827431  )
         9           Ag1 tau(   9) = (  -0.0000000   3.3697076  14.7654862  )
        10           Ag1 tau(  10) = (   1.4591262   0.8424269  14.7654862  )
        11           Ag1 tau(  11) = (   4.3773786   0.8424269  14.7654862  )
        12           Pd1 tau(  12) = (   2.9182524   3.3697076  14.7654862  )

     number of k points=    20  Fermi-Dirac smearing, width (Ry)=  0.0110
                       cart. coord. in units 2pi/alat
        k(    1) = (   0.0000000   0.0000000   0.0000000), wk =   0.0555556
        k(    2) = (   0.0000000   0.0329735   0.0000000), wk =   0.1111111
        k(    3) = (   0.0000000   0.0659470   0.0000000), wk =   0.1111111
        k(    4) = (   0.0000000  -0.0989206   0.0000000), wk =   0.0555556
        k(    5) = (   0.0285559   0.0164868   0.0000000), wk =   0.1111111
        k(    6) = (   0.0285559   0.0494603   0.0000000), wk =   0.1111111
        k(    7) = (   0.0285559   0.0824338   0.0000000), wk =   0.1111111
        k(    8) = (   0.0285559  -0.0824338   0.0000000), wk =   0.1111111
        k(    9) = (   0.0285559  -0.0494603   0.0000000), wk =   0.1111111
        k(   10) = (   0.0285559  -0.0164868   0.0000000), wk =   0.1111111
        k(   11) = (   0.0571118   0.0329735   0.0000000), wk =   0.1111111
        k(   12) = (   0.0571118   0.0659470   0.0000000), wk =   0.1111111
        k(   13) = (   0.0571118   0.0989206   0.0000000), wk =   0.1111111
        k(   14) = (   0.0571118  -0.0659470   0.0000000), wk =   0.1111111
        k(   15) = (   0.0571118  -0.0329735   0.0000000), wk =   0.1111111
        k(   16) = (   0.0571118   0.0000000   0.0000000), wk =   0.1111111
        k(   17) = (  -0.0856677  -0.0494603   0.0000000), wk =   0.0555556
        k(   18) = (  -0.0856677  -0.0164868   0.0000000), wk =   0.1111111
        k(   19) = (  -0.0856677   0.0164868   0.0000000), wk =   0.1111111
        k(   20) = (  -0.0856677  -0.1483808   0.0000000), wk =   0.0555556

     Largest allocated arrays     est. size (Mb)     dimensions
     Largest temporary arrays     est. size (Mb)     dimensions

     Initial potential from superposition of free atoms
     Check: negative starting charge=   -0.227013

     starting charge  212.99955, renormalised to  219.00000

     negative rho (up, down):  2.334E-01 0.000E+00

     *
     * You are using vdW-DF for exchange-correlation in this calculation.
     * Please cite the following three references that made this development
     * possible:
     *
     *   M. Dion, H. Rydberg, E. Schroder, D. C. Langreth, and
     *   B. I. Lundqvist, Phys. Rev. Lett. 92, 246401 (2004).
     *
     *   T. Thonhauser, V. R. Cooper, S. Li, A. Puzder, P. Hyldgaard, and
     *   D. C. Langreth, Phys. Rev. B 76, 125112 (2007).
     *
     *   G. Roman-Perez and J. M. Soler, Phys. Rev. Lett. 103, 096102 (2009).
     *
     *
     * If you are using vdW-DF2, please also cite:
     *
     *   K. Lee, E. D. Murray, L. Kong, B. I. Lundqvist, and
     *   D. C. Langreth, Phys. Rev. B 82, 081101(R) (2010).
     *
     *
     * If you are calculating the stress with vdW-DF, please also cite:
     *
     *   R. Sabatini, E. Kucukbenli, B. Kolb, T. Thonhauser, and
     *   S. de Gironcoli, J. Phys.: Condens. Matter 24, 424209 (2012).
     *

     Carrying out vdW-DF run using the following parameters:

     Nqs =      20    Nr_points =    1024   r_max =   100.000
     q_mesh =
               0.00001000     0.04494208     0.09755937     0.15916263
               0.23128650     0.31572767     0.41458969     0.53033537
               0.66584808     0.82450364     1.01025438     1.22772762
               1.48234092     1.78043706     2.12944203     2.53805004
               3.01644009     3.57652955     4.23227104     5.00000000

     Gradients computed in reciprocal space

     Adding external electric field

     Computed dipole along edir(3) :
        Dipole               -0.0000 Ry au,         -0.0000 Debye
        Dipole field         -0.0000 Ry au

        Potential amp.        0.0000 Ry
        Total length         45.6300 bohr

     Starting wfc are  153 randomized atomic wfcs

     Self-consistent Calculation

     iteration #  1     ecut=    36.75 Ry     beta=0.10
     Davidson diagonalization with overlap
     ethr =  1.00E-02,  avg # of iterations =  7.1

[...]

     total energy              =   -3269.85877454 Ry
     Harris-Foulkes estimate   =   -3272.55342921 Ry
     estimated scf accuracy    <      16.32768258 Ry

[...]

     End of self-consistent calculation

          k = 0.0000 0.0000 0.0000 ( 18535 PWs)   bands (ev):

   -90.5640 -90.5566 -90.5566 -90.4600 -90.4598 -90.4527 -90.4527 -90.4526
   -90.4526 -54.1371 -54.0880 -54.0880 -54.0644 -54.0588 -54.0588 -54.0358
   -54.0298 -54.0233 -54.0140 -54.0140 -53.9828 -53.9828 -53.9770 -53.9770
   -53.9350 -53.9350 -53.9337 -53.9329 -53.9329 -53.9275 -53.9260 -53.9257
   -53.9197 -53.9197 -53.9163 -53.9163 -48.1845 -48.1535 -48.1535 -48.0209
   -48.0209 -48.0206 -48.0206 -47.9326 -47.9321  -5.0684  -4.4524  -4.3056
    -4.2800  -4.2317  -4.1956  -4.1956  -4.1419  -4.0609  -4.0609  -3.9681
    -3.9681  -3.8997  -3.8319  -3.8319  -3.5089  -3.2454  -3.2454  -3.1779
    -3.1779  -3.0173  -2.9774  -2.9159  -2.7678  -2.7677  -2.7198  -2.7198
    -2.6087  -2.6087  -2.4853  -2.4853  -2.4279  -2.3938  -2.3938  -2.3067
    -2.1731  -2.1731  -2.1099  -2.1099  -1.8799  -1.8799  -1.7323  -1.6428
    -1.6428  -1.5253  -1.4307  -1.3993  -0.7219  -0.4199  -0.2027  -0.2027
    -0.1667  -0.1667  -0.0830  -0.0830   0.0598   0.0598   0.0935   0.1256
     0.1256   0.2980   0.2980   0.6220   1.9994   2.2473   2.4270   2.4270
     3.2155   3.2728   3.2728   3.6019   3.6019   3.6305   5.0572   5.4261
     5.7269   5.8462   5.8462   6.1872   6.4158   6.4158   6.6921   6.8247
     7.3137   7.3137   7.3369   7.5807   9.0378   9.2269   9.5926   9.5926
     9.5959   9.9087   9.9456

[...]

          k =-0.0857-0.0495 0.0000 ( 18584 PWs)   bands (ev):

[...]

     the Fermi energy is     1.1844 ev

!    total energy              =   -3269.25592018 Ry
     Harris-Foulkes estimate   =   -3269.25592277 Ry
     estimated scf accuracy    <       0.00000019 Ry

     The total energy is the sum of the following terms:

     one-electron contribution =  -24712.51204060 Ry
     hartree contribution      =   12363.74571730 Ry
     xc contribution           =    -368.55831203 Ry
     ewald contribution        =    9448.08508234 Ry
     electric field correction =       0.00000000 Ry
     smearing contrib. (-TS)   =      -0.01636720 Ry

     convergence has been achieved in  16 iterations

 BEEF-vdW xc energy contributions
           1 :   -319.826141081915
           2 :    290.373315055913
           3 :   -240.932475734429
           4 :    186.015731297358
           5 :   -139.050270749958
           6 :    107.595598578013
           7 :   -91.8499463636274
           8 :    86.5218085072697
[...]
                l(1) =   0
                l(2) =   0
                l(3) =   1
                l(4) =   1
                l(5) =   2
                l(6) =   2
     Q(r) pseudized with  6 coefficients,  rinner =    1.300   1.300   1.300
                                                       1.300   1.300

     PseudoPot. # 2 for Pd read from file:
     /afs/slac.stanford.edu/u/if/mamunm/psp/gbrv1.5pbe/Pd.UPF
     MD5 check sum: 2d733d2bc2cbfd217af676df1668a4bc
     Pseudo is Ultrasoft + core correction, Zval = 16.0
     Generated by new atomic code, or converted to UPF format
     Using radial grid of  887 points,  6 beta functions with:
                l(1) =   0
                l(2) =   0
                l(3) =   1
                l(4) =   1
                l(5) =   2
                l(6) =   2
     Q(r) pseudized with  8 coefficients,  rinner =    1.130   1.130   1.130
                                                       1.130   1.130

     vdW kernel table read from file vdW_kernel_table
     MD5 check sum: 095c7af220d748ca6e76c0b4c6cfb241

     atomic species   valence    mass     pseudopotential
        Ag1           19.00   107.86820     Ag( 1.00)
        Pd1           16.00   106.42000     Pd( 1.00)

     No symmetry found

   Cartesian axes

     site n.     atom                  positions (alat units)
         1           Ag1 tau(   1) = (   0.0000000   0.0000000  10.0000000  )
         2           Ag1 tau(   2) = (  -1.4591262   2.5272807  10.0000000  )
         3           Ag1 tau(   3) = (   1.4591262   2.5272807  10.0000000  )
         4           Pd1 tau(   4) = (   2.9182524   0.0000000  10.0000000  )
         5           Ag1 tau(   5) = (   2.9182524   1.6848538  12.3827431  )
         6           Ag1 tau(   6) = (   1.4591262   4.2121345  12.3827431  )
         7           Ag1 tau(   7) = (  -1.4591262   4.2121345  12.3827431  )
         8           Pd1 tau(   8) = (   0.0000000   1.6848538  12.3827431  )
         9           Ag1 tau(   9) = (  -0.0000033   3.3610403  14.7992126  )
        10           Ag1 tau(  10) = (   1.4516188   0.8467609  14.7992115  )
        11           Ag1 tau(  11) = (   4.3848843   0.8467645  14.7992098  )
        12           Pd1 tau(  12) = (   2.9182522   3.3697095  14.6920238  )

     number of k points=    20  Fermi-Dirac smearing, width (Ry)=  0.0110
                       cart. coord. in units 2pi/alat
        k(    1) = (   0.0000000   0.0000000   0.0000000), wk =   0.0555556
        k(    2) = (   0.0000000   0.0329735   0.0000000), wk =   0.1111111
        k(    3) = (   0.0000000   0.0659470   0.0000000), wk =   0.1111111
        k(    4) = (   0.0000000  -0.0989206   0.0000000), wk =   0.0555556
        k(    5) = (   0.0285559   0.0164868   0.0000000), wk =   0.1111111
        k(    6) = (   0.0285559   0.0494603   0.0000000), wk =   0.1111111
        k(    7) = (   0.0285559   0.0824338   0.0000000), wk =   0.1111111
        k(    8) = (   0.0285559  -0.0824338   0.0000000), wk =   0.1111111
        k(    9) = (   0.0285559  -0.0494603   0.0000000), wk =   0.1111111
        k(   10) = (   0.0285559  -0.0164868   0.0000000), wk =   0.1111111
        k(   11) = (   0.0571118   0.0329735   0.0000000), wk =   0.1111111
        k(   12) = (   0.0571118   0.0659470   0.0000000), wk =   0.1111111
        k(   13) = (   0.0571118   0.0989206   0.0000000), wk =   0.1111111
        k(   14) = (   0.0571118  -0.0659470   0.0000000), wk =   0.1111111
        k(   15) = (   0.0571118  -0.0329735   0.0000000), wk =   0.1111111
        k(   16) = (   0.0571118   0.0000000   0.0000000), wk =   0.1111111
        k(   17) = (  -0.0856677  -0.0494603   0.0000000), wk =   0.0555556
        k(   18) = (  -0.0856677  -0.0164868   0.0000000), wk =   0.1111111
        k(   19) = (  -0.0856677   0.0164868   0.0000000), wk =   0.1111111
        k(   20) = (  -0.0856677  -0.1483808   0.0000000), wk =   0.0555556

     Largest allocated arrays     est. size (Mb)     dimensions
     Largest temporary arrays     est. size (Mb)     dimensions

     Initial potential from superposition of free atoms
     Check: negative starting charge=   -0.226376

     starting charge  212.99955, renormalised to  219.00000

[...]

     *
     * You are using vdW-DF for exchange-correlation in this calculation.
     * Please cite the following three references that made this development
     * possible:
     *
     *   M. Dion, H. Rydberg, E. Schroder, D. C. Langreth, and
     *   B. I. Lundqvist, Phys. Rev. Lett. 92, 246401 (2004).
     *
     *   T. Thonhauser, V. R. Cooper, S. Li, A. Puzder, P. Hyldgaard, and
     *   D. C. Langreth, Phys. Rev. B 76, 125112 (2007).
     *
     *   G. Roman-Perez and J. M. Soler, Phys. Rev. Lett. 103, 096102 (2009).
     *
     *
     * If you are using vdW-DF2, please also cite:
     *
     *   K. Lee, E. D. Murray, L. Kong, B. I. Lundqvist, and
     *   D. C. Langreth, Phys. Rev. B 82, 081101(R) (2010).
     *
     *
     * If you are calculating the stress with vdW-DF, please also cite:
     *
     *   R. Sabatini, E. Kucukbenli, B. Kolb, T. Thonhauser, and
     *   S. de Gironcoli, J. Phys.: Condens. Matter 24, 424209 (2012).
     *

     Carrying out vdW-DF run using the following parameters:

     Nqs =      20    Nr_points =    1024   r_max =   100.000
     q_mesh =
               0.00001000     0.04494208     0.09755937     0.15916263
               0.23128650     0.31572767     0.41458969     0.53033537
               0.66584808     0.82450364     1.01025438     1.22772762
               1.48234092     1.78043706     2.12944203     2.53805004
               3.01644009     3.57652955     4.23227104     5.00000000

     Gradients computed in reciprocal space

[...]

     Starting wfc are  153 randomized atomic wfcs

     Self-consistent Calculation

[...]

     total energy              =   -3269.25835813 Ry
     Harris-Foulkes estimate   =   -3269.25835741 Ry
     estimated scf accuracy    <       0.00000200 Ry

     iteration # 15     ecut=    36.75 Ry     beta=0.10
     Davidson diagonalization with overlap
     ethr =  9.15E-10,  avg # of iterations =  2.0

[...]

     negative rho (up, down):  2.338E-01 0.000E+00

     Adding external electric field

     Computed dipole along edir(3) :
        Dipole                0.0030 Ry au,          0.0077 Debye
        Dipole field          0.0000 Ry au

        Potential amp.       -0.0007 Ry
        Total length         45.6300 bohr

     End of self-consistent calculation

[...]

          k = 0.0571 0.0000 0.0000 ( 18535 PWs)   bands (ev):

[...]

          k =-0.0857-0.1484 0.0000 ( 18584 PWs)   bands (ev):

   -90.5465 -90.5440 -90.5416 -90.4508 -90.4483 -90.4459 -90.4402 -90.4377
   -90.4353 -54.0977 -54.0740 -54.0596 -54.0466 -54.0346 -54.0318 -54.0300
   -54.0264 -54.0029 -54.0024 -53.9940 -53.9723 -53.9633 -53.9537 -53.9499
   -53.9447 -53.9428 -53.9401 -53.9323 -53.9244 -53.9194 -53.9170 -53.9141
   -53.9115 -53.9082 -53.9044 -53.9003 -48.1639 -48.1356 -48.1351 -48.0519
   -48.0514 -48.0178 -48.0173 -47.9758 -47.9286  -4.1783  -4.0246  -3.9013
    -3.8228  -3.7986  -3.7478  -3.6988  -3.6916  -3.6507  -3.6114  -3.5882
    -3.5444  -3.3710  -3.3592  -3.3271  -3.3160  -3.2069  -3.1852  -3.1583
    -3.0293  -2.9633  -2.9252  -2.8967  -2.8875  -2.8271  -2.7703  -2.7611
    -2.7340  -2.6398  -2.6158  -2.6043  -2.5883  -2.5526  -2.5355  -2.4483
    -2.4245  -2.3954  -2.3640  -2.3307  -2.2931  -2.2502  -2.2293  -2.2260
    -2.0415  -1.8955  -1.8727  -1.7108  -1.5210  -1.0172  -0.8285  -0.7044
    -0.6197  -0.4259  -0.3610  -0.3607  -0.3262  -0.3188  -0.3026  -0.2055
    -0.1522  -0.0262  -0.0178   0.1505   0.3630   1.6126   2.0556   2.2311
     2.2944   2.9705   3.2341   4.4765   4.5521   5.1848   5.2150   6.3906
     6.3986   6.9916   7.0053   7.1378   7.1404   7.6637   7.7263   8.1433
     8.2386   8.2523   8.2690   8.3692   8.4115   8.6639   8.6896   9.1362
     9.1772   9.6833   9.7993

     the Fermi energy is     1.1842 ev

!    total energy              =   -3269.25835525 Ry
     Harris-Foulkes estimate   =   -3269.25835828 Ry
     estimated scf accuracy    <       0.00000050 Ry

     The total energy is the sum of the following terms:

     one-electron contribution =  -24677.18838896 Ry
     hartree contribution      =   12346.12379419 Ry
     xc contribution           =    -368.55490237 Ry
     ewald contribution        =    9430.37757335 Ry
     electric field correction =       0.00000002 Ry
     smearing contrib. (-TS)   =      -0.01643148 Ry

     convergence has been achieved in  15 iterations

 BEEF-vdW xc energy contributions
           1 :   -319.855484232632
           2 :    290.397732865998
           3 :   -240.950983280788
           4 :    186.032313101021
           5 :   -139.071058123230
           6 :    107.624171519421
           7 :   -91.8843802085528
           8 :    86.5560253723901
           9 :   -84.6337857083491
          10 :    80.9628458002546
          11 :   -73.9591143098501
          12 :    65.0835611703203
          13 :   -56.9123771876338
          14 :    51.1958671903614
          15 :   -47.9898195611043
          16 :    46.0691611229427
          17 :   -44.0365834692191
          18 :    41.2509211729488
          19 :   -38.0232742186695
          20 :    35.1220756187232
          21 :   -33.0765687457231
          22 :    31.7942895471717
          23 :   -30.7006693825163
          24 :    29.2176573309927
          25 :   -27.2002856542202
          26 :    25.0243525455056
          27 :   -23.2936334707967
          28 :    22.3981856176927
          29 :   -22.2427837715074
          30 :    22.3206441849730
          31 :   -31.6267549555085
          32 :   -23.1024593122821

     Forces acting on atoms (Ry/au):

     negative rho (up, down):  2.338E-01 0.000E+00
     atom    1 type  1   force =    -0.00000018    0.00249123   -0.00434323
     atom    2 type  1   force =     0.00215743   -0.00124574   -0.00434321
     atom    3 type  1   force =    -0.00215743   -0.00124545   -0.00434310
     atom    4 type  2   force =     0.00000014   -0.00000009    0.01059570
     atom    5 type  1   force =     0.00000009   -0.00341865   -0.00075169
     atom    6 type  1   force =    -0.00296106    0.00170938   -0.00075164
     atom    7 type  1   force =     0.00296102    0.00170914   -0.00075159
     atom    8 type  2   force =    -0.00000011    0.00000029    0.00278643
     atom    9 type  1   force =     0.00000050    0.00059941    0.00052694
     atom   10 type  1   force =     0.00051882   -0.00029943    0.00052718
     atom   11 type  1   force =    -0.00051884   -0.00030016    0.00052722
     atom   12 type  2   force =    -0.00000038    0.00000008    0.00032099

     Total force =     0.015298     Total SCF correction =     0.003285
     SCF correction compared to forces is large: reduce conv_thr to get better values

     entering subroutine stress ...

     negative rho (up, down):  2.338E-01 0.000E+00
          total   stress  (Ry/bohr**3)                   (kbar)     P=   -5.97
  -0.00005210  -0.00000000   0.00000000         -7.66     -0.00      0.00
  -0.00000000  -0.00005210  -0.00000000         -0.00     -7.66     -0.00
   0.00000000  -0.00000000  -0.00001753          0.00     -0.00     -2.58

 !ASE

     Writing output data file calc.save

     General routines

     Parallel routines

   This run was terminated on:  16:32: 2  19Dec2018

   JOB DONE.
Job  /afs/slac/g/suncat/bin/suncat-tsmpirun -x LD_LIBRARY_PATH -wdir /scratch/qe773185_Y4glM pw.x -in pw.inp

TID   HOST_NAME   COMMAND_LINE            STATUS            TERMINATION_TIME
00000 suncat0071 pw.x -in pw.inp   Done                     12/19/2018 16:32:02
00001 suncat0071 pw.x -in pw.inp   Done                     12/19/2018 16:32:02
00002 suncat0071 pw.x -in pw.inp   Done                     12/19/2018 16:32:02
00003 suncat0071 pw.x -in pw.inp   Done                     12/19/2018 16:32:02
00004 suncat0071 pw.x -in pw.inp   Done                     12/19/2018 16:32:02
00005 suncat0071 pw.x -in pw.inp   Done                     12/19/2018 16:32:02
00006 suncat0071 pw.x -in pw.inp   Done                     12/19/2018 16:32:02
00007 suncat0071 pw.x -in pw.inp   Done                     12/19/2018 16:32:02
00008 suncat0065 pw.x -in pw.inp   Done                     12/19/2018 16:32:02
00009 suncat0065 pw.x -in pw.inp   Done                     12/19/2018 16:32:02
00010 suncat0065 pw.x -in pw.inp   Done                     12/19/2018 16:32:02
00011 suncat0065 pw.x -in pw.inp   Done                     12/19/2018 16:32:02
00012 suncat0065 pw.x -in pw.inp   Done                     12/19/2018 16:32:02
00013 suncat0065 pw.x -in pw.inp   Done                     12/19/2018 16:32:02
00014 suncat0065 pw.x -in pw.inp   Done                     12/19/2018 16:32:02
00015 suncat0065 pw.x -in pw.inp   Done                     12/19/2018 16:32:02
00016 suncat0064 pw.x -in pw.inp   Done                     12/19/2018 16:32:02
00017 suncat0064 pw.x -in pw.inp   Done                     12/19/2018 16:32:02
00018 suncat0064 pw.x -in pw.inp   Done                     12/19/2018 16:32:02
00019 suncat0064 pw.x -in pw.inp   Done                     12/19/2018 16:32:02
00020 suncat0064 pw.x -in pw.inp   Done                     12/19/2018 16:32:02
00021 suncat0064 pw.x -in pw.inp   Done                     12/19/2018 16:32:02
00022 suncat0064 pw.x -in pw.inp   Done                     12/19/2018 16:32:02
00023 suncat0064 pw.x -in pw.inp   Done                     12/19/2018 16:32:02
00024 suncat0063 pw.x -in pw.inp   Done                     12/19/2018 16:32:02
00025 suncat0063 pw.x -in pw.inp   Done                     12/19/2018 16:32:02
00026 suncat0063 pw.x -in pw.inp   Done                     12/19/2018 16:32:02
00027 suncat0063 pw.x -in pw.inp   Done                     12/19/2018 16:32:02
00028 suncat0063 pw.x -in pw.inp   Done                     12/19/2018 16:32:02
00029 suncat0063 pw.x -in pw.inp   Done                     12/19/2018 16:32:02
00030 suncat0063 pw.x -in pw.inp   Done                     12/19/2018 16:32:02
00031 suncat0063 pw.x -in pw.inp   Done                     12/19/2018 16:32:02
00032 suncat0062 pw.x -in pw.inp   Done                     12/19/2018 16:32:02
00033 suncat0062 pw.x -in pw.inp   Done                     12/19/2018 16:32:02
00034 suncat0062 pw.x -in pw.inp   Done                     12/19/2018 16:32:02
00035 suncat0062 pw.x -in pw.inp   Done                     12/19/2018 16:32:02
00036 suncat0062 pw.x -in pw.inp   Done                     12/19/2018 16:32:02
00037 suncat0062 pw.x -in pw.inp   Done                     12/19/2018 16:32:02
00038 suncat0062 pw.x -in pw.inp   Done                     12/19/2018 16:32:02
00039 suncat0062 pw.x -in pw.inp   Done                     12/19/2018 16:32:02
00040 suncat0057 pw.x -in pw.inp   Done                     12/19/2018 16:32:02
00041 suncat0057 pw.x -in pw.inp   Done                     12/19/2018 16:32:02
00042 suncat0057 pw.x -in pw.inp   Done                     12/19/2018 16:32:02
00043 suncat0057 pw.x -in pw.inp   Done                     12/19/2018 16:32:02
00044 suncat0057 pw.x -in pw.inp   Done                     12/19/2018 16:32:02
00045 suncat0057 pw.x -in pw.inp   Done                     12/19/2018 16:32:02
00046 suncat0057 pw.x -in pw.inp   Done                     12/19/2018 16:32:02
00047 suncat0057 pw.x -in pw.inp   Done                     12/19/2018 16:32:02
00048 suncat0056 pw.x -in pw.inp   Done                     12/19/2018 16:32:02
00049 suncat0056 pw.x -in pw.inp   Done                     12/19/2018 16:32:02
00050 suncat0056 pw.x -in pw.inp   Done                     12/19/2018 16:32:02
00051 suncat0056 pw.x -in pw.inp   Done                     12/19/2018 16:32:02
00052 suncat0056 pw.x -in pw.inp   Done                     12/19/2018 16:32:02
00053 suncat0056 pw.x -in pw.inp   Done                     12/19/2018 16:32:02
00054 suncat0056 pw.x -in pw.inp   Done                     12/19/2018 16:32:02
00055 suncat0056 pw.x -in pw.inp   Done                     12/19/2018 16:32:02
00056 suncat0055 pw.x -in pw.inp   Done                     12/19/2018 16:32:02
00057 suncat0055 pw.x -in pw.inp   Done                     12/19/2018 16:32:02
00058 suncat0055 pw.x -in pw.inp   Done                     12/19/2018 16:32:02
00059 suncat0055 pw.x -in pw.inp   Done                     12/19/2018 16:32:02
00060 suncat0055 pw.x -in pw.inp   Done                     12/19/2018 16:32:02
00061 suncat0055 pw.x -in pw.inp   Done                     12/19/2018 16:32:02
00062 suncat0055 pw.x -in pw.inp   Done                     12/19/2018 16:32:02
00063 suncat0055 pw.x -in pw.inp   Done                     12/19/2018 16:32:02