     Program PWSCF v.5.1rc2 (svn rev. 11289) starts on 27Dec2018 at 18:11:50

     Current dimensions of program PWSCF are:
     Max number of different atomic species (ntypx) = 10
     Max number of k-points (npk) =  40000
     Max angular momentum in pseudopotentials (lmaxx) =  3
     Presently stress not available with electric field

     IMPORTANT: XC functional enforced from input :
     Exchange-correlation      = BEEF-VDW ( 1  4 27 13 2)
     Any further DFT definition will be discarded
     Please, verify this is what you really want

     Subspace diagonalization in iterative solution of the eigenvalue problem:
     a serial algorithm will be used

     bravais-lattice index     =            0
     lattice parameter (alat)  =       1.8897  a.u.
     unit-cell volume          =    4916.4480 (a.u.)^3
     number of atoms/cell      =           12
     number of atomic types    =            2
     number of electrons       =       183.00
     number of Kohn-Sham states=          121
     kinetic-energy cutoff     =      36.7493  Ry
     charge density cutoff     =     367.4932  Ry
     convergence threshold     =      1.0E-06
     mixing beta               =       0.1000
     number of iterations used =           10  plain     mixing
     Exchange-correlation      = BEEF-VDW ( 1  4 27 13 2)
     nstep                     =           50

     celldm(1)=   1.889726  celldm(2)=   0.000000  celldm(3)=   0.000000
     celldm(4)=   0.000000  celldm(5)=   0.000000  celldm(6)=   0.000000

     crystal axes: (cart. coord. in units of alat)
               a(1) = (   5.828980   0.000000   0.000000 )
               a(2) = (  -2.914490   5.048045   0.000000 )
               a(3) = (   0.000000   0.000000  24.759342 )

     reciprocal axes: (cart. coord. in units 2 pi/alat)
               b(1) = (  0.171557  0.099048  0.000000 )
               b(2) = (  0.000000  0.198097  0.000000 )
               b(3) = (  0.000000  0.000000  0.040389 )

     PseudoPot. # 1 for Pd read from file:
     /afs/slac.stanford.edu/u/if/mamunm/psp/gbrv1.5pbe/Pd.UPF
     MD5 check sum: 2d733d2bc2cbfd217af676df1668a4bc
     Pseudo is Ultrasoft + core correction, Zval = 16.0
     Generated by new atomic code, or converted to UPF format
     Using radial grid of  887 points,  6 beta functions with:
                l(1) =   0
                l(2) =   0
                l(3) =   1
                l(4) =   1
                l(5) =   2
                l(6) =   2
     Q(r) pseudized with  8 coefficients,  rinner =    1.130   1.130   1.130
                                                       1.130   1.130

     PseudoPot. # 2 for Tl read from file:
     /afs/slac.stanford.edu/u/if/mamunm/psp/gbrv1.5pbe/Tl.UPF
     MD5 check sum: b76cf1f7e72655a2b2c53cf6385d7059
     Pseudo is Ultrasoft + core correction, Zval = 13.0
     Generated by new atomic code, or converted to UPF format
     Using radial grid of  899 points,  6 beta functions with:
                l(1) =   0
                l(2) =   0
                l(3) =   1
                l(4) =   1
                l(5) =   2
                l(6) =   2
     Q(r) pseudized with  6 coefficients,  rinner =    1.100   1.100   1.100
                                                       1.100   1.100

     vdW kernel table read from file vdW_kernel_table
     MD5 check sum: 095c7af220d748ca6e76c0b4c6cfb241

     atomic species   valence    mass     pseudopotential
        Pd1           16.00   106.42000     Pd( 1.00)
        Tl1           13.00   204.38000     Tl( 1.00)

     No symmetry found

   Cartesian axes

     site n.     atom                  positions (alat units)
         1           Pd1 tau(   1) = (   0.0000000   0.0000000  10.0000000  )
         2           Pd1 tau(   2) = (  -1.4572450   2.5240223  10.0000000  )
         3           Pd1 tau(   3) = (   1.4572450   2.5240223  10.0000000  )
         4           Tl1 tau(   4) = (   2.9144900   0.0000000  10.0000000  )
         5           Pd1 tau(   5) = (   2.9144900   1.6826816  12.3796711  )
         6           Pd1 tau(   6) = (   1.4572450   4.2067039  12.3796711  )
         7           Pd1 tau(   7) = (  -1.4572450   4.2067039  12.3796711  )
         8           Tl1 tau(   8) = (   0.0000000   1.6826816  12.3796711  )
         9           Pd1 tau(   9) = (  -0.0000000   3.3653631  14.7593422  )
        10           Pd1 tau(  10) = (   1.4572450   0.8413408  14.7593422  )
        11           Pd1 tau(  11) = (   4.3717349   0.8413408  14.7593422  )
        12           Tl1 tau(  12) = (   2.9144900   3.3653631  14.7593422  )

     number of k points=    20  Fermi-Dirac smearing, width (Ry)=  0.0110
                       cart. coord. in units 2pi/alat
        k(    1) = (   0.0000000   0.0000000   0.0000000), wk =   0.0555556
        k(    2) = (   0.0000000   0.0330161   0.0000000), wk =   0.1111111
        k(    3) = (   0.0000000   0.0660322   0.0000000), wk =   0.1111111
        k(    4) = (   0.0000000  -0.0990483   0.0000000), wk =   0.0555556
        k(    5) = (   0.0285928   0.0165080   0.0000000), wk =   0.1111111
        k(    6) = (   0.0285928   0.0495241   0.0000000), wk =   0.1111111
        k(    7) = (   0.0285928   0.0825402   0.0000000), wk =   0.1111111
        k(    8) = (   0.0285928  -0.0825402   0.0000000), wk =   0.1111111
        k(    9) = (   0.0285928  -0.0495241   0.0000000), wk =   0.1111111
        k(   10) = (   0.0285928  -0.0165080   0.0000000), wk =   0.1111111
        k(   11) = (   0.0571855   0.0330161   0.0000000), wk =   0.1111111
        k(   12) = (   0.0571855   0.0660322   0.0000000), wk =   0.1111111
        k(   13) = (   0.0571855   0.0990483   0.0000000), wk =   0.1111111
        k(   14) = (   0.0571855  -0.0660322   0.0000000), wk =   0.1111111
        k(   15) = (   0.0571855  -0.0330161   0.0000000), wk =   0.1111111
        k(   16) = (   0.0571855   0.0000000   0.0000000), wk =   0.1111111
        k(   17) = (  -0.0857783  -0.0495241   0.0000000), wk =   0.0555556
        k(   18) = (  -0.0857783  -0.0165080   0.0000000), wk =   0.1111111
        k(   19) = (  -0.0857783   0.0165080   0.0000000), wk =   0.1111111
        k(   20) = (  -0.0857783  -0.1485724   0.0000000), wk =   0.0555556

     Largest allocated arrays     est. size (Mb)     dimensions
     Largest temporary arrays     est. size (Mb)     dimensions

     Initial potential from superposition of free atoms
     Check: negative starting charge=   -0.833706

     starting charge  178.48534, renormalised to  183.00000

     negative rho (up, down):  8.548E-01 0.000E+00

     *
     * You are using vdW-DF for exchange-correlation in this calculation.
     * Please cite the following three references that made this development
     * possible:
     *
     *   M. Dion, H. Rydberg, E. Schroder, D. C. Langreth, and
     *   B. I. Lundqvist, Phys. Rev. Lett. 92, 246401 (2004).
     *
     *   T. Thonhauser, V. R. Cooper, S. Li, A. Puzder, P. Hyldgaard, and
     *   D. C. Langreth, Phys. Rev. B 76, 125112 (2007).
     *
     *   G. Roman-Perez and J. M. Soler, Phys. Rev. Lett. 103, 096102 (2009).
     *
     *
     * If you are using vdW-DF2, please also cite:
     *
     *   K. Lee, E. D. Murray, L. Kong, B. I. Lundqvist, and
     *   D. C. Langreth, Phys. Rev. B 82, 081101(R) (2010).
     *
     *
     * If you are calculating the stress with vdW-DF, please also cite:
     *
     *   R. Sabatini, E. Kucukbenli, B. Kolb, T. Thonhauser, and
     *   S. de Gironcoli, J. Phys.: Condens. Matter 24, 424209 (2012).
     *

     Carrying out vdW-DF run using the following parameters:

     Nqs =      20    Nr_points =    1024   r_max =   100.000
     q_mesh =
               0.00001000     0.04494208     0.09755937     0.15916263
               0.23128650     0.31572767     0.41458969     0.53033537
               0.66584808     0.82450364     1.01025438     1.22772762
               1.48234092     1.78043706     2.12944203     2.53805004
               3.01644009     3.57652955     4.23227104     5.00000000

     Gradients computed in reciprocal space

     Adding external electric field

     Computed dipole along edir(3) :
        Dipole                0.0000 Ry au,          0.0000 Debye
        Dipole field          0.0000 Ry au

        Potential amp.       -0.0000 Ry
        Total length         45.6187 bohr

     Starting wfc are  135 randomized atomic wfcs

     Self-consistent Calculation

     iteration #  1     ecut=    36.75 Ry     beta=0.10
     Davidson diagonalization with overlap
     ethr =  1.00E-02,  avg # of iterations =  7.2

[...]

     total energy              =   -2238.82351844 Ry
     Harris-Foulkes estimate   =   -2240.66057960 Ry
     estimated scf accuracy    <      11.26586411 Ry

[...]

     End of self-consistent calculation

          k = 0.0000 0.0000 0.0000 ( 18535 PWs)   bands (ev):

   -48.5560 -48.5333 -48.5333 -48.5036 -48.5036 -48.4852 -48.4628 -48.3796
   -48.3796 -48.3499 -48.3499 -48.3363 -48.3363 -48.3332 -48.3310 -48.2852
   -48.2834 -48.1960 -48.1959 -48.1957 -48.1957 -48.1795 -48.1687 -48.1606
   -48.1606 -48.1553 -48.1553 -10.4224 -10.4224 -10.4068 -10.3916 -10.3915
   -10.3007 -10.2863 -10.2863 -10.2852 -10.2852 -10.2794 -10.2093 -10.2093
   -10.1839 -10.1839  -7.1204  -5.8731  -5.5874  -2.9272  -2.6632  -2.5339
    -2.1044  -2.0835  -2.0835  -2.0066  -2.0066  -1.8846  -1.8846  -1.7466
    -1.7465  -1.7397  -1.2705  -1.2705  -1.2524  -1.2524  -1.0107  -0.9779
    -0.9499  -0.6143  -0.6143  -0.5745  -0.5263  -0.5263  -0.1466  -0.1466
    -0.0857  -0.0496  -0.0496   0.0686   0.0686   0.2148   0.2148   0.2537
     0.3205   0.3205   0.4183   0.4183   0.6109   0.8036   0.8036   0.9297
     1.0844   1.1267   1.2701   1.3854   1.3854   2.0235   2.2744   2.6941
     2.6941   2.9562   2.9562   3.0688   3.5414   4.5054   5.0338   5.4448
     5.4713   5.8261   6.4571   6.4571   6.6547   6.8777   6.8777   7.3129
     7.6186   7.6186   8.5731   8.6344   9.0769   9.3589   9.5165   9.5165
     9.9017

[...]

          k =-0.0858-0.0495 0.0000 ( 18472 PWs)   bands (ev):

[...]

     the Fermi energy is     1.1132 ev

!    total energy              =   -2238.59030496 Ry
     Harris-Foulkes estimate   =   -2238.59502108 Ry
     estimated scf accuracy    <       0.00000025 Ry

     The total energy is the sum of the following terms:

     one-electron contribution =  -16864.48052983 Ry
     hartree contribution      =    8492.16243974 Ry
     xc contribution           =    -485.27603853 Ry
     ewald contribution        =    6619.05168271 Ry
     electric field correction =       0.00000000 Ry
     smearing contrib. (-TS)   =      -0.04785905 Ry

     convergence has been achieved in  15 iterations

 BEEF-vdW xc energy contributions
           1 :   -426.355383285976
           2 :    392.259721280754
           3 :   -333.421716080890
           4 :    264.585842106249
           5 :   -200.292653097978
           6 :    150.191000122886
           7 :   -117.002136024713
           8 :    97.4719241968295
           9 :   -85.4050824497456
          10 :    75.1150138941621
          11 :   -63.7233478574653
          12 :    51.5199450965066
          13 :   -40.6696026466311
[...]
     Pseudo is Ultrasoft + core correction, Zval = 16.0
     Generated by new atomic code, or converted to UPF format
     Using radial grid of  887 points,  6 beta functions with:
                l(1) =   0
                l(2) =   0
                l(3) =   1
                l(4) =   1
                l(5) =   2
                l(6) =   2
     Q(r) pseudized with  8 coefficients,  rinner =    1.130   1.130   1.130
                                                       1.130   1.130

     PseudoPot. # 2 for Tl read from file:
     /afs/slac.stanford.edu/u/if/mamunm/psp/gbrv1.5pbe/Tl.UPF
     MD5 check sum: b76cf1f7e72655a2b2c53cf6385d7059
     Pseudo is Ultrasoft + core correction, Zval = 13.0
     Generated by new atomic code, or converted to UPF format
     Using radial grid of  899 points,  6 beta functions with:
                l(1) =   0
                l(2) =   0
                l(3) =   1
                l(4) =   1
                l(5) =   2
                l(6) =   2
     Q(r) pseudized with  6 coefficients,  rinner =    1.100   1.100   1.100
                                                       1.100   1.100

     vdW kernel table read from file vdW_kernel_table
     MD5 check sum: 095c7af220d748ca6e76c0b4c6cfb241

     atomic species   valence    mass     pseudopotential
        Pd1           16.00   106.42000     Pd( 1.00)
        Tl1           13.00   204.38000     Tl( 1.00)

     No symmetry found

   Cartesian axes

     site n.     atom                  positions (alat units)
         1           Pd1 tau(   1) = (   0.0000000   0.0000000  10.0000000  )
         2           Pd1 tau(   2) = (  -1.4572450   2.5240223  10.0000000  )
         3           Pd1 tau(   3) = (   1.4572450   2.5240223  10.0000000  )
         4           Tl1 tau(   4) = (   2.9144900   0.0000000  10.0000000  )
         5           Pd1 tau(   5) = (   2.9144900   1.6826816  12.3796711  )
         6           Pd1 tau(   6) = (   1.4572450   4.2067039  12.3796711  )
         7           Pd1 tau(   7) = (  -1.4572450   4.2067039  12.3796711  )
         8           Tl1 tau(   8) = (   0.0000000   1.6826816  12.3796711  )
         9           Pd1 tau(   9) = (  -0.0000080   3.3856192  14.6829116  )
        10           Pd1 tau(  10) = (   1.4747851   0.8312116  14.6829099  )
        11           Pd1 tau(  11) = (   4.3541888   0.8312164  14.6829110  )
        12           Tl1 tau(  12) = (   2.9144759   3.3653619  14.9555539  )

     number of k points=    20  Fermi-Dirac smearing, width (Ry)=  0.0110
                       cart. coord. in units 2pi/alat
        k(    1) = (   0.0000000   0.0000000   0.0000000), wk =   0.0555556
        k(    2) = (   0.0000000   0.0330161   0.0000000), wk =   0.1111111
        k(    3) = (   0.0000000   0.0660322   0.0000000), wk =   0.1111111
        k(    4) = (   0.0000000  -0.0990483   0.0000000), wk =   0.0555556
        k(    5) = (   0.0285928   0.0165080   0.0000000), wk =   0.1111111
        k(    6) = (   0.0285928   0.0495241   0.0000000), wk =   0.1111111
        k(    7) = (   0.0285928   0.0825402   0.0000000), wk =   0.1111111
        k(    8) = (   0.0285928  -0.0825402   0.0000000), wk =   0.1111111
        k(    9) = (   0.0285928  -0.0495241   0.0000000), wk =   0.1111111
        k(   10) = (   0.0285928  -0.0165080   0.0000000), wk =   0.1111111
        k(   11) = (   0.0571855   0.0330161   0.0000000), wk =   0.1111111
        k(   12) = (   0.0571855   0.0660322   0.0000000), wk =   0.1111111
        k(   13) = (   0.0571855   0.0990483   0.0000000), wk =   0.1111111
        k(   14) = (   0.0571855  -0.0660322   0.0000000), wk =   0.1111111
        k(   15) = (   0.0571855  -0.0330161   0.0000000), wk =   0.1111111
        k(   16) = (   0.0571855   0.0000000   0.0000000), wk =   0.1111111
        k(   17) = (  -0.0857783  -0.0495241   0.0000000), wk =   0.0555556
        k(   18) = (  -0.0857783  -0.0165080   0.0000000), wk =   0.1111111
        k(   19) = (  -0.0857783   0.0165080   0.0000000), wk =   0.1111111
        k(   20) = (  -0.0857783  -0.1485724   0.0000000), wk =   0.0555556

     Largest allocated arrays     est. size (Mb)     dimensions
     Largest temporary arrays     est. size (Mb)     dimensions

     Initial potential from superposition of free atoms
     Check: negative starting charge=   -0.833330

     starting charge  178.48534, renormalised to  183.00000

[...]

     *
     * You are using vdW-DF for exchange-correlation in this calculation.
     * Please cite the following three references that made this development
     * possible:
     *
     *   M. Dion, H. Rydberg, E. Schroder, D. C. Langreth, and
     *   B. I. Lundqvist, Phys. Rev. Lett. 92, 246401 (2004).
     *
     *   T. Thonhauser, V. R. Cooper, S. Li, A. Puzder, P. Hyldgaard, and
     *   D. C. Langreth, Phys. Rev. B 76, 125112 (2007).
     *
     *   G. Roman-Perez and J. M. Soler, Phys. Rev. Lett. 103, 096102 (2009).
     *
     *
     * If you are using vdW-DF2, please also cite:
     *
     *   K. Lee, E. D. Murray, L. Kong, B. I. Lundqvist, and
     *   D. C. Langreth, Phys. Rev. B 82, 081101(R) (2010).
     *
     *
     * If you are calculating the stress with vdW-DF, please also cite:
     *
     *   R. Sabatini, E. Kucukbenli, B. Kolb, T. Thonhauser, and
     *   S. de Gironcoli, J. Phys.: Condens. Matter 24, 424209 (2012).
     *

     Carrying out vdW-DF run using the following parameters:

     Nqs =      20    Nr_points =    1024   r_max =   100.000
     q_mesh =
               0.00001000     0.04494208     0.09755937     0.15916263
               0.23128650     0.31572767     0.41458969     0.53033537
               0.66584808     0.82450364     1.01025438     1.22772762
               1.48234092     1.78043706     2.12944203     2.53805004
               3.01644009     3.57652955     4.23227104     5.00000000

     Gradients computed in reciprocal space

[...]

     Starting wfc are  135 randomized atomic wfcs

     Self-consistent Calculation

[...]

     total energy              =   -2238.60233067 Ry
     Harris-Foulkes estimate   =   -2238.60233647 Ry
     estimated scf accuracy    <       0.00003493 Ry

     iteration # 16     ecut=    36.75 Ry     beta=0.10
     Davidson diagonalization with overlap
     ethr =  9.36E-09,  avg # of iterations =  1.2

[...]

     negative rho (up, down):  8.735E-01 0.000E+00

     Adding external electric field

     Computed dipole along edir(3) :
        Dipole                0.0346 Ry au,          0.0880 Debye
        Dipole field          0.0001 Ry au

        Potential amp.       -0.0081 Ry
        Total length         45.6187 bohr

     End of self-consistent calculation

[...]

          k = 0.0572 0.0000 0.0000 ( 18507 PWs)   bands (ev):

[...]

          k =-0.0858-0.1486 0.0000 ( 18472 PWs)   bands (ev):

   -48.4827 -48.4624 -48.4587 -48.4532 -48.4513 -48.4390 -48.4126 -48.3815
   -48.3428 -48.3366 -48.3146 -48.3080 -48.3014 -48.2916 -48.2748 -48.2630
   -48.2556 -48.2386 -48.2121 -48.2046 -48.1907 -48.1867 -48.1791 -48.1580
   -48.1262 -48.1206 -48.1151 -10.3600 -10.3310 -10.3162 -10.3026 -10.2894
   -10.2312 -10.2293 -10.1943 -10.1907 -10.1808 -10.1735 -10.1671 -10.1642
   -10.1584 -10.1202  -6.0548  -5.5615  -5.1500  -3.0803  -2.6460  -2.6120
    -2.2384  -2.2128  -1.9292  -1.8862  -1.8117  -1.8006  -1.7673  -1.6520
    -1.6076  -1.5828  -1.4834  -1.3683  -1.3568  -1.2650  -1.0947  -1.0650
    -0.9019  -0.8492  -0.7904  -0.7742  -0.7195  -0.6796  -0.6493  -0.6445
    -0.5802  -0.4631  -0.4233  -0.2783  -0.2276  -0.2173  -0.2100  -0.1529
    -0.1341  -0.0386   0.0208   0.0451   0.0814   0.1967   0.2622   0.3877
     0.5423   0.7713   1.0015   1.0306   1.6407   2.0432   2.5080   2.8448
     3.0534   3.6341   4.3458   4.5853   4.7086   6.0611   6.1962   6.7185
     6.8376   6.8990   6.9207   7.0295   7.1080   7.5286   7.8061   7.9958
     8.0751   8.0830   8.2319   8.3488   8.5095   8.9094   8.9754   9.0655
     9.2461

     the Fermi energy is     1.1585 ev

!    total energy              =   -2238.60231781 Ry
     Harris-Foulkes estimate   =   -2238.60233351 Ry
     estimated scf accuracy    <       0.00000060 Ry

     The total energy is the sum of the following terms:

     one-electron contribution =  -16904.35124359 Ry
     hartree contribution      =    8512.29128408 Ry
     xc contribution           =    -485.26619517 Ry
     ewald contribution        =    6638.77324207 Ry
     electric field correction =       0.00000306 Ry
     smearing contrib. (-TS)   =      -0.04940826 Ry

     convergence has been achieved in  16 iterations

 BEEF-vdW xc energy contributions
           1 :   -426.522781798056
           2 :    392.431195919935
           3 :   -333.594816965655
           4 :    264.751899005623
           5 :   -200.443924827081
           6 :    150.327028565157
           7 :   -117.129960265749
           8 :    97.6010964334529
           9 :   -85.5421380934002
          10 :    75.2610863668274
          11 :   -63.8757477562478
          12 :    51.6757635570969
          13 :   -40.8283481814414
          14 :    33.4514103401365
          15 :   -30.1945813937809
          16 :    29.9593931477474
          17 :   -30.6743033069348
          18 :    30.4918719248224
          19 :   -28.6733745904822
          20 :    25.7182377620078
          21 :   -22.7956652127133
          22 :    20.9123679899025
          23 :   -20.3334012356449
          24 :    20.5409062190409
          25 :   -20.6683198671691
          26 :    20.0791975672248
          27 :   -18.7261241827899
          28 :    17.1006941658139
          29 :   -15.8559093480090
          30 :    15.3686632900352
          31 :   -38.5264044987762
          32 :   -28.3930501107458

     Forces acting on atoms (Ry/au):

     negative rho (up, down):  8.735E-01 0.000E+00
     atom    1 type  1   force =    -0.00000000   -0.00604925    0.00939006
     atom    2 type  1   force =    -0.00523932    0.00302524    0.00939021
     atom    3 type  1   force =     0.00523927    0.00302503    0.00939006
     atom    4 type  2   force =    -0.00000134   -0.00000454   -0.02102925
     atom    5 type  1   force =     0.00000052    0.00678310   -0.00140085
     atom    6 type  1   force =     0.00587402   -0.00339075   -0.00140002
     atom    7 type  1   force =    -0.00587371   -0.00339099   -0.00140093
     atom    8 type  2   force =     0.00000070   -0.00000041   -0.00872122
     atom    9 type  1   force =     0.00000018    0.00036369    0.00134302
     atom   10 type  1   force =     0.00031411   -0.00018202    0.00134311
     atom   11 type  1   force =    -0.00031442   -0.00018183    0.00134263
     atom   12 type  2   force =    -0.00000000    0.00000273    0.00175319

     Total force =     0.032332     Total SCF correction =     0.003294
     SCF correction compared to forces is large: reduce conv_thr to get better values

     entering subroutine stress ...

     negative rho (up, down):  8.735E-01 0.000E+00
          total   stress  (Ry/bohr**3)                   (kbar)     P=   -9.77
  -0.00008373  -0.00000000   0.00000000        -12.32     -0.00      0.00
  -0.00000000  -0.00008373   0.00000000         -0.00    -12.32      0.00
   0.00000000   0.00000000  -0.00003170          0.00      0.00     -4.66

 !ASE

     Writing output data file calc.save

     General routines

     Parallel routines

   This run was terminated on:  19:20:13  27Dec2018

   JOB DONE.
Job  /afs/slac/g/suncat/bin/suncat-tsmpirun -x LD_LIBRARY_PATH -wdir /scratch/qe110487_sZHOE pw.x -in pw.inp

TID   HOST_NAME   COMMAND_LINE            STATUS            TERMINATION_TIME
00000 suncat0271 pw.x -in pw.inp   Done                     12/27/2018 19:20:13
00001 suncat0271 pw.x -in pw.inp   Done                     12/27/2018 19:20:13
00002 suncat0271 pw.x -in pw.inp   Done                     12/27/2018 19:20:13
00003 suncat0271 pw.x -in pw.inp   Done                     12/27/2018 19:20:13
00004 suncat0271 pw.x -in pw.inp   Done                     12/27/2018 19:20:13
00005 suncat0271 pw.x -in pw.inp   Done                     12/27/2018 19:20:13
00006 suncat0271 pw.x -in pw.inp   Done                     12/27/2018 19:20:13
00007 suncat0271 pw.x -in pw.inp   Done                     12/27/2018 19:20:13
00008 suncat0260 pw.x -in pw.inp   Done                     12/27/2018 19:20:13
00009 suncat0260 pw.x -in pw.inp   Done                     12/27/2018 19:20:13
00010 suncat0260 pw.x -in pw.inp   Done                     12/27/2018 19:20:13
00011 suncat0260 pw.x -in pw.inp   Done                     12/27/2018 19:20:13
00012 suncat0260 pw.x -in pw.inp   Done                     12/27/2018 19:20:13
00013 suncat0260 pw.x -in pw.inp   Done                     12/27/2018 19:20:13
00014 suncat0260 pw.x -in pw.inp   Done                     12/27/2018 19:20:13
00015 suncat0260 pw.x -in pw.inp   Done                     12/27/2018 19:20:13
00016 suncat0259 pw.x -in pw.inp   Done                     12/27/2018 19:20:13
00017 suncat0259 pw.x -in pw.inp   Done                     12/27/2018 19:20:13
00018 suncat0259 pw.x -in pw.inp   Done                     12/27/2018 19:20:13
00019 suncat0259 pw.x -in pw.inp   Done                     12/27/2018 19:20:13
00020 suncat0259 pw.x -in pw.inp   Done                     12/27/2018 19:20:13
00021 suncat0259 pw.x -in pw.inp   Done                     12/27/2018 19:20:13
00022 suncat0259 pw.x -in pw.inp   Done                     12/27/2018 19:20:13
00023 suncat0259 pw.x -in pw.inp   Done                     12/27/2018 19:20:13
00024 suncat0232 pw.x -in pw.inp   Done                     12/27/2018 19:20:13
00025 suncat0232 pw.x -in pw.inp   Done                     12/27/2018 19:20:13
00026 suncat0232 pw.x -in pw.inp   Done                     12/27/2018 19:20:13
00027 suncat0232 pw.x -in pw.inp   Done                     12/27/2018 19:20:13
00028 suncat0232 pw.x -in pw.inp   Done                     12/27/2018 19:20:13
00029 suncat0232 pw.x -in pw.inp   Done                     12/27/2018 19:20:13
00030 suncat0232 pw.x -in pw.inp   Done                     12/27/2018 19:20:13
00031 suncat0232 pw.x -in pw.inp   Done                     12/27/2018 19:20:13
00032 suncat0220 pw.x -in pw.inp   Done                     12/27/2018 19:20:13
00033 suncat0220 pw.x -in pw.inp   Done                     12/27/2018 19:20:13
00034 suncat0220 pw.x -in pw.inp   Done                     12/27/2018 19:20:13
00035 suncat0220 pw.x -in pw.inp   Done                     12/27/2018 19:20:13
00036 suncat0220 pw.x -in pw.inp   Done                     12/27/2018 19:20:13
00037 suncat0220 pw.x -in pw.inp   Done                     12/27/2018 19:20:13
00038 suncat0220 pw.x -in pw.inp   Done                     12/27/2018 19:20:13
00039 suncat0220 pw.x -in pw.inp   Done                     12/27/2018 19:20:13
00040 suncat0219 pw.x -in pw.inp   Done                     12/27/2018 19:20:13
00041 suncat0219 pw.x -in pw.inp   Done                     12/27/2018 19:20:13
00042 suncat0219 pw.x -in pw.inp   Done                     12/27/2018 19:20:13
00043 suncat0219 pw.x -in pw.inp   Done                     12/27/2018 19:20:13
00044 suncat0219 pw.x -in pw.inp   Done                     12/27/2018 19:20:13
00045 suncat0219 pw.x -in pw.inp   Done                     12/27/2018 19:20:13
00046 suncat0219 pw.x -in pw.inp   Done                     12/27/2018 19:20:13
00047 suncat0219 pw.x -in pw.inp   Done                     12/27/2018 19:20:13
00048 suncat0201 pw.x -in pw.inp   Done                     12/27/2018 19:20:13
00049 suncat0201 pw.x -in pw.inp   Done                     12/27/2018 19:20:13
00050 suncat0201 pw.x -in pw.inp   Done                     12/27/2018 19:20:13
00051 suncat0201 pw.x -in pw.inp   Done                     12/27/2018 19:20:13
00052 suncat0201 pw.x -in pw.inp   Done                     12/27/2018 19:20:13
00053 suncat0201 pw.x -in pw.inp   Done                     12/27/2018 19:20:13
00054 suncat0201 pw.x -in pw.inp   Done                     12/27/2018 19:20:13
00055 suncat0201 pw.x -in pw.inp   Done                     12/27/2018 19:20:13
00056 suncat0200 pw.x -in pw.inp   Done                     12/27/2018 19:20:13
00057 suncat0200 pw.x -in pw.inp   Done                     12/27/2018 19:20:13
00058 suncat0200 pw.x -in pw.inp   Done                     12/27/2018 19:20:13
00059 suncat0200 pw.x -in pw.inp   Done                     12/27/2018 19:20:13
00060 suncat0200 pw.x -in pw.inp   Done                     12/27/2018 19:20:13
00061 suncat0200 pw.x -in pw.inp   Done                     12/27/2018 19:20:13
00062 suncat0200 pw.x -in pw.inp   Done                     12/27/2018 19:20:13
00063 suncat0200 pw.x -in pw.inp   Done                     12/27/2018 19:20:13