     Program PWSCF v.5.1rc2 (svn rev. 11289) starts on 27Dec2018 at 20:23:49

     Current dimensions of program PWSCF are:
     Max number of different atomic species (ntypx) = 10
     Max number of k-points (npk) =  40000
     Max angular momentum in pseudopotentials (lmaxx) =  3
     Presently stress not available with electric field

     IMPORTANT: XC functional enforced from input :
     Exchange-correlation      = BEEF-VDW ( 1  4 27 13 2)
     Any further DFT definition will be discarded
     Please, verify this is what you really want

     Subspace diagonalization in iterative solution of the eigenvalue problem:
     a serial algorithm will be used

     bravais-lattice index     =            0
     lattice parameter (alat)  =       1.8897  a.u.
     unit-cell volume          =    4719.6709 (a.u.)^3
     number of atoms/cell      =           12
     number of atomic types    =            2
     number of electrons       =       171.00
     number of Kohn-Sham states=          115
     kinetic-energy cutoff     =      36.7493  Ry
     charge density cutoff     =     367.4932  Ry
     convergence threshold     =      1.0E-06
     mixing beta               =       0.1000
     number of iterations used =           10  plain     mixing
     Exchange-correlation      = BEEF-VDW ( 1  4 27 13 2)
     nstep                     =           50

     celldm(1)=   1.889726  celldm(2)=   0.000000  celldm(3)=   0.000000
     celldm(4)=   0.000000  celldm(5)=   0.000000  celldm(6)=   0.000000

     crystal axes: (cart. coord. in units of alat)
               a(1) = (   5.721305   0.000000   0.000000 )
               a(2) = (  -2.860653   4.954796   0.000000 )
               a(3) = (   0.000000   0.000000  24.671426 )

     reciprocal axes: (cart. coord. in units 2 pi/alat)
               b(1) = (  0.174785  0.100912  0.000000 )
               b(2) = (  0.000000  0.201825  0.000000 )
               b(3) = (  0.000000  0.000000  0.040533 )

     PseudoPot. # 1 for Re read from file:
     /afs/slac.stanford.edu/u/if/mamunm/psp/gbrv1.5pbe/Re.UPF
     MD5 check sum: 85f993410f3e006da9d71c142b4ad953
     Pseudo is Ultrasoft + core correction, Zval = 15.0
     Generated by new atomic code, or converted to UPF format
     Using radial grid of  981 points,  8 beta functions with:
                l(1) =   0
                l(2) =   0
                l(3) =   1
                l(4) =   1
                l(5) =   2
                l(6) =   2
                l(7) =   3
                l(8) =   3
     Q(r) pseudized with  8 coefficients,  rinner =    1.150   1.150   1.150
                                                       1.150   1.150   1.150
                                                       1.150

     PseudoPot. # 2 for Zr read from file:
     /afs/slac.stanford.edu/u/if/mamunm/psp/gbrv1.5pbe/Zr.UPF
     MD5 check sum: 5db81b1e868ab7776c4564c113de050b
     Pseudo is Ultrasoft + core correction, Zval = 12.0
     Generated by new atomic code, or converted to UPF format
     Using radial grid of  887 points,  6 beta functions with:
                l(1) =   0
                l(2) =   0
                l(3) =   1
                l(4) =   1
                l(5) =   2
                l(6) =   2
     Q(r) pseudized with  6 coefficients,  rinner =    1.200   1.200   1.200
                                                       1.200   1.200

     vdW kernel table read from file vdW_kernel_table
     MD5 check sum: 095c7af220d748ca6e76c0b4c6cfb241

     atomic species   valence    mass     pseudopotential
        Re1           15.00   186.20700     Re( 1.00)
        Zr1           12.00    91.22400     Zr( 1.00)

     No symmetry found

   Cartesian axes

     site n.     atom                  positions (alat units)
         1           Re1 tau(   1) = (   0.0000000   0.0000000  10.0000000  )
         2           Re1 tau(   2) = (  -1.4303263   2.4773978  10.0000000  )
         3           Re1 tau(   3) = (   1.4303263   2.4773978  10.0000000  )
         4           Zr1 tau(   4) = (   2.8606526   0.0000000  10.0000000  )
         5           Re1 tau(   5) = (   2.8606526   1.6515985  12.3357131  )
         6           Re1 tau(   6) = (   1.4303263   4.1289964  12.3357131  )
         7           Re1 tau(   7) = (  -1.4303263   4.1289964  12.3357131  )
         8           Zr1 tau(   8) = (   0.0000000   1.6515985  12.3357131  )
         9           Re1 tau(   9) = (  -0.0000000   3.3031971  14.6714261  )
        10           Re1 tau(  10) = (   1.4303263   0.8257993  14.6714261  )
        11           Re1 tau(  11) = (   4.2909789   0.8257993  14.6714261  )
        12           Zr1 tau(  12) = (   2.8606526   3.3031971  14.6714261  )

     number of k points=    20  Fermi-Dirac smearing, width (Ry)=  0.0110
                       cart. coord. in units 2pi/alat
        k(    1) = (   0.0000000   0.0000000   0.0000000), wk =   0.0555556
        k(    2) = (   0.0000000   0.0336374   0.0000000), wk =   0.1111111
        k(    3) = (   0.0000000   0.0672749   0.0000000), wk =   0.1111111
        k(    4) = (   0.0000000  -0.1009123   0.0000000), wk =   0.0555556
        k(    5) = (   0.0291309   0.0168187   0.0000000), wk =   0.1111111
        k(    6) = (   0.0291309   0.0504562   0.0000000), wk =   0.1111111
        k(    7) = (   0.0291309   0.0840936   0.0000000), wk =   0.1111111
        k(    8) = (   0.0291309  -0.0840936   0.0000000), wk =   0.1111111
        k(    9) = (   0.0291309  -0.0504562   0.0000000), wk =   0.1111111
        k(   10) = (   0.0291309  -0.0168187   0.0000000), wk =   0.1111111
        k(   11) = (   0.0582618   0.0336374   0.0000000), wk =   0.1111111
        k(   12) = (   0.0582618   0.0672749   0.0000000), wk =   0.1111111
        k(   13) = (   0.0582618   0.1009123   0.0000000), wk =   0.1111111
        k(   14) = (   0.0582618  -0.0672749   0.0000000), wk =   0.1111111
        k(   15) = (   0.0582618  -0.0336374   0.0000000), wk =   0.1111111
        k(   16) = (   0.0582618   0.0000000   0.0000000), wk =   0.1111111
        k(   17) = (  -0.0873926  -0.0504562   0.0000000), wk =   0.0555556
        k(   18) = (  -0.0873926  -0.0168187   0.0000000), wk =   0.1111111
        k(   19) = (  -0.0873926   0.0168187   0.0000000), wk =   0.1111111
        k(   20) = (  -0.0873926  -0.1513685   0.0000000), wk =   0.0555556

     Largest allocated arrays     est. size (Mb)     dimensions
     Largest temporary arrays     est. size (Mb)     dimensions

     Initial potential from superposition of free atoms
     Check: negative starting charge=   -1.327062

     starting charge  166.49315, renormalised to  171.00000

     negative rho (up, down):  1.363E+00 0.000E+00

     *
     * You are using vdW-DF for exchange-correlation in this calculation.
     * Please cite the following three references that made this development
     * possible:
     *
     *   M. Dion, H. Rydberg, E. Schroder, D. C. Langreth, and
     *   B. I. Lundqvist, Phys. Rev. Lett. 92, 246401 (2004).
     *
     *   T. Thonhauser, V. R. Cooper, S. Li, A. Puzder, P. Hyldgaard, and
     *   D. C. Langreth, Phys. Rev. B 76, 125112 (2007).
     *
     *   G. Roman-Perez and J. M. Soler, Phys. Rev. Lett. 103, 096102 (2009).
     *
     *
     * If you are using vdW-DF2, please also cite:
     *
     *   K. Lee, E. D. Murray, L. Kong, B. I. Lundqvist, and
     *   D. C. Langreth, Phys. Rev. B 82, 081101(R) (2010).
     *
     *
     * If you are calculating the stress with vdW-DF, please also cite:
     *
     *   R. Sabatini, E. Kucukbenli, B. Kolb, T. Thonhauser, and
     *   S. de Gironcoli, J. Phys.: Condens. Matter 24, 424209 (2012).
     *

     Carrying out vdW-DF run using the following parameters:

     Nqs =      20    Nr_points =    1024   r_max =   100.000
     q_mesh =
               0.00001000     0.04494208     0.09755937     0.15916263
               0.23128650     0.31572767     0.41458969     0.53033537
               0.66584808     0.82450364     1.01025438     1.22772762
               1.48234092     1.78043706     2.12944203     2.53805004
               3.01644009     3.57652955     4.23227104     5.00000000

     Gradients computed in reciprocal space

     Adding external electric field

     Computed dipole along edir(3) :
        Dipole                0.0000 Ry au,          0.0000 Debye
        Dipole field          0.0000 Ry au

        Potential amp.       -0.0000 Ry
        Total length         45.4567 bohr

     Starting wfc are  156 randomized atomic wfcs

     Self-consistent Calculation

     iteration #  1     ecut=    36.75 Ry     beta=0.10
     Davidson diagonalization with overlap
     ethr =  1.00E-02,  avg # of iterations =  2.0

[...]

     total energy              =   -2028.54377599 Ry
     Harris-Foulkes estimate   =   -2028.96127614 Ry
     estimated scf accuracy    <       2.66980040 Ry

[...]

     End of self-consistent calculation

          k = 0.0000 0.0000 0.0000 ( 17825 PWs)   bands (ev):

   -77.8429 -77.8084 -77.8084 -77.7046 -77.7028 -77.6717 -77.6717 -77.6713
   -77.6713 -46.1949 -46.1923 -45.7030 -39.8848 -39.7236 -39.7236 -39.6951
   -39.6703 -39.6305 -39.5985 -39.5985 -39.4800 -39.4438 -39.4438 -39.4211
   -39.4211 -39.3990 -39.3926 -39.3926 -39.3105 -39.3036 -39.3036 -39.2603
   -39.2603 -39.1527 -39.1353 -39.1136 -39.1136 -39.1094 -39.1094 -24.3222
   -24.2918 -24.1669 -24.1669 -24.1591 -24.1591 -23.8000 -23.7799 -23.7799
    -5.2230  -3.6046  -3.0533  -2.5544  -2.5544  -2.3370  -2.3370  -2.2641
    -1.6839  -1.5810  -1.5810  -1.5799  -1.5724  -1.5724  -1.2756  -0.3031
    -0.0600  -0.0600   0.6824   0.6824   0.8159   0.9027   1.2273   1.4772
     1.6308   1.6308   1.6815   1.6815   1.9117   1.9117   1.9851   2.1804
     2.1804   2.3237   2.3237   2.6612   3.1578   3.1932   3.2018   3.2018
     3.4799   3.6275   3.6275   4.0295   4.0295   4.3547   4.5122   4.5122
     4.6792   4.6792   5.0550   5.6328   5.6328   5.9377   5.9690   6.2206
     6.3257   6.4066   6.4066   6.6406   6.6893   6.7708   6.7710   6.9434
     6.9435   7.2384   7.3171

[...]

          k =-0.0874-0.0505 0.0000 ( 17748 PWs)   bands (ev):

[...]

     the Fermi energy is     2.4487 ev

!    total energy              =   -2028.41264752 Ry
     Harris-Foulkes estimate   =   -2028.41265033 Ry
     estimated scf accuracy    <       0.00000035 Ry

     The total energy is the sum of the following terms:

     one-electron contribution =  -15114.19631953 Ry
     hartree contribution      =    7544.51708618 Ry
     xc contribution           =    -541.92943475 Ry
     ewald contribution        =    6083.29055955 Ry
     electric field correction =       0.00000000 Ry
     smearing contrib. (-TS)   =      -0.09453897 Ry

     convergence has been achieved in  17 iterations

 BEEF-vdW xc energy contributions
           1 :   -479.753490371360
           2 :    444.735172880690
           3 :   -382.277303194931
           4 :    304.870339060050
           5 :   -225.982834796689
           6 :    156.426837613146
           7 :   -102.162958648074
           8 :    64.0025516129957
           9 :   -38.9518721532572
          10 :    22.4106778369904
          11 :   -10.2756961881267
[...]
     MD5 check sum: 85f993410f3e006da9d71c142b4ad953
     Pseudo is Ultrasoft + core correction, Zval = 15.0
     Generated by new atomic code, or converted to UPF format
     Using radial grid of  981 points,  8 beta functions with:
                l(1) =   0
                l(2) =   0
                l(3) =   1
                l(4) =   1
                l(5) =   2
                l(6) =   2
                l(7) =   3
                l(8) =   3
     Q(r) pseudized with  8 coefficients,  rinner =    1.150   1.150   1.150
                                                       1.150   1.150   1.150
                                                       1.150

     PseudoPot. # 2 for Zr read from file:
     /afs/slac.stanford.edu/u/if/mamunm/psp/gbrv1.5pbe/Zr.UPF
     MD5 check sum: 5db81b1e868ab7776c4564c113de050b
     Pseudo is Ultrasoft + core correction, Zval = 12.0
     Generated by new atomic code, or converted to UPF format
     Using radial grid of  887 points,  6 beta functions with:
                l(1) =   0
                l(2) =   0
                l(3) =   1
                l(4) =   1
                l(5) =   2
                l(6) =   2
     Q(r) pseudized with  6 coefficients,  rinner =    1.200   1.200   1.200
                                                       1.200   1.200

     vdW kernel table read from file vdW_kernel_table
     MD5 check sum: 095c7af220d748ca6e76c0b4c6cfb241

     atomic species   valence    mass     pseudopotential
        Re1           15.00   186.20700     Re( 1.00)
        Zr1           12.00    91.22400     Zr( 1.00)

     No symmetry found

   Cartesian axes

     site n.     atom                  positions (alat units)
         1           Re1 tau(   1) = (   0.0000000   0.0000000  10.0000000  )
         2           Re1 tau(   2) = (  -1.4303263   2.4773978  10.0000000  )
         3           Re1 tau(   3) = (   1.4303263   2.4773978  10.0000000  )
         4           Zr1 tau(   4) = (   2.8606526   0.0000000  10.0000000  )
         5           Re1 tau(   5) = (   2.8606526   1.6515985  12.3357131  )
         6           Re1 tau(   6) = (   1.4303263   4.1289964  12.3357131  )
         7           Re1 tau(   7) = (  -1.4303263   4.1289964  12.3357131  )
         8           Zr1 tau(   8) = (   0.0000000   1.6515985  12.3357131  )
         9           Re1 tau(   9) = (  -0.0000069   3.4064782  14.4691177  )
        10           Re1 tau(  10) = (   1.5197564   0.7741453  14.4691143  )
        11           Re1 tau(  11) = (   4.2015365   0.7741540  14.4691137  )
        12           Zr1 tau(  12) = (   2.8606508   3.3031905  14.9631900  )

     number of k points=    20  Fermi-Dirac smearing, width (Ry)=  0.0110
                       cart. coord. in units 2pi/alat
        k(    1) = (   0.0000000   0.0000000   0.0000000), wk =   0.0555556
        k(    2) = (   0.0000000   0.0336374   0.0000000), wk =   0.1111111
        k(    3) = (   0.0000000   0.0672749   0.0000000), wk =   0.1111111
        k(    4) = (   0.0000000  -0.1009123   0.0000000), wk =   0.0555556
        k(    5) = (   0.0291309   0.0168187   0.0000000), wk =   0.1111111
        k(    6) = (   0.0291309   0.0504562   0.0000000), wk =   0.1111111
        k(    7) = (   0.0291309   0.0840936   0.0000000), wk =   0.1111111
        k(    8) = (   0.0291309  -0.0840936   0.0000000), wk =   0.1111111
        k(    9) = (   0.0291309  -0.0504562   0.0000000), wk =   0.1111111
        k(   10) = (   0.0291309  -0.0168187   0.0000000), wk =   0.1111111
        k(   11) = (   0.0582618   0.0336374   0.0000000), wk =   0.1111111
        k(   12) = (   0.0582618   0.0672749   0.0000000), wk =   0.1111111
        k(   13) = (   0.0582618   0.1009123   0.0000000), wk =   0.1111111
        k(   14) = (   0.0582618  -0.0672749   0.0000000), wk =   0.1111111
        k(   15) = (   0.0582618  -0.0336374   0.0000000), wk =   0.1111111
        k(   16) = (   0.0582618   0.0000000   0.0000000), wk =   0.1111111
        k(   17) = (  -0.0873926  -0.0504562   0.0000000), wk =   0.0555556
        k(   18) = (  -0.0873926  -0.0168187   0.0000000), wk =   0.1111111
        k(   19) = (  -0.0873926   0.0168187   0.0000000), wk =   0.1111111
        k(   20) = (  -0.0873926  -0.1513685   0.0000000), wk =   0.0555556

     Largest allocated arrays     est. size (Mb)     dimensions
     Largest temporary arrays     est. size (Mb)     dimensions

     Initial potential from superposition of free atoms
     Check: negative starting charge=   -1.332999

     starting charge  166.49315, renormalised to  171.00000

[...]

     *
     * You are using vdW-DF for exchange-correlation in this calculation.
     * Please cite the following three references that made this development
     * possible:
     *
     *   M. Dion, H. Rydberg, E. Schroder, D. C. Langreth, and
     *   B. I. Lundqvist, Phys. Rev. Lett. 92, 246401 (2004).
     *
     *   T. Thonhauser, V. R. Cooper, S. Li, A. Puzder, P. Hyldgaard, and
     *   D. C. Langreth, Phys. Rev. B 76, 125112 (2007).
     *
     *   G. Roman-Perez and J. M. Soler, Phys. Rev. Lett. 103, 096102 (2009).
     *
     *
     * If you are using vdW-DF2, please also cite:
     *
     *   K. Lee, E. D. Murray, L. Kong, B. I. Lundqvist, and
     *   D. C. Langreth, Phys. Rev. B 82, 081101(R) (2010).
     *
     *
     * If you are calculating the stress with vdW-DF, please also cite:
     *
     *   R. Sabatini, E. Kucukbenli, B. Kolb, T. Thonhauser, and
     *   S. de Gironcoli, J. Phys.: Condens. Matter 24, 424209 (2012).
     *

     Carrying out vdW-DF run using the following parameters:

     Nqs =      20    Nr_points =    1024   r_max =   100.000
     q_mesh =
               0.00001000     0.04494208     0.09755937     0.15916263
               0.23128650     0.31572767     0.41458969     0.53033537
               0.66584808     0.82450364     1.01025438     1.22772762
               1.48234092     1.78043706     2.12944203     2.53805004
               3.01644009     3.57652955     4.23227104     5.00000000

     Gradients computed in reciprocal space

[...]

     Starting wfc are  156 randomized atomic wfcs

     Self-consistent Calculation

[...]

     total energy              =   -2028.46536660 Ry
     Harris-Foulkes estimate   =   -2028.46536800 Ry
     estimated scf accuracy    <       0.00000164 Ry

     iteration # 17     ecut=    36.75 Ry     beta=0.10
     Davidson diagonalization with overlap
     ethr =  9.60E-10,  avg # of iterations =  2.1

[...]

     negative rho (up, down):  1.377E+00 0.000E+00

     Adding external electric field

     Computed dipole along edir(3) :
        Dipole                0.1880 Ry au,          0.4779 Debye
        Dipole field          0.0005 Ry au

        Potential amp.       -0.0455 Ry
        Total length         45.4567 bohr

     End of self-consistent calculation

[...]

          k = 0.0583 0.0000 0.0000 ( 17763 PWs)   bands (ev):

[...]

          k =-0.0874-0.1514 0.0000 ( 17748 PWs)   bands (ev):

   -77.6657 -77.6535 -77.6415 -77.4608 -77.4502 -77.4392 -77.4310 -77.4000
   -77.3938 -46.4546 -45.9313 -45.3349 -39.7049 -39.6072 -39.5285 -39.5157
   -39.4335 -39.4226 -39.3676 -39.3527 -39.3475 -39.2979 -39.2300 -39.2060
   -39.1795 -39.1503 -39.1175 -39.0995 -39.0935 -39.0874 -39.0657 -39.0343
   -39.0144 -38.9739 -38.9713 -38.9546 -38.9406 -38.8846 -38.8384 -24.5919
   -24.3789 -24.3589 -24.0490 -23.9423 -23.9124 -23.4872 -23.4549 -23.4517
    -3.5818  -3.1794  -1.9072  -1.7644  -1.5374  -1.5302  -1.3022  -1.2165
    -1.1486  -0.8870  -0.7948  -0.5145  -0.4606  -0.3048  -0.0966  -0.0032
     0.0359   0.2181   0.3354   0.4379   0.5887   0.6907   0.9401   1.0747
     1.1677   1.1995   1.2334   1.4282   1.4570   1.5102   1.5421   1.7497
     1.7842   1.9838   2.2650   2.4183   2.4208   2.5532   2.5835   2.7410
     2.9488   3.1711   3.3336   3.4666   3.5534   3.6755   3.7117   3.7480
     4.1146   4.1680   4.5101   4.5738   4.6849   5.1169   5.1986   5.5118
     5.6968   5.8336   6.0541   6.1314   6.2310   6.4314   6.6545   6.7621
     7.4040   7.4528   7.6446

     the Fermi energy is     2.7127 ev

!    total energy              =   -2028.46536237 Ry
     Harris-Foulkes estimate   =   -2028.46537013 Ry
     estimated scf accuracy    <       0.00000066 Ry

     The total energy is the sum of the following terms:

     one-electron contribution =  -15322.59407921 Ry
     hartree contribution      =    7649.84156005 Ry
     xc contribution           =    -542.18847141 Ry
     ewald contribution        =    6186.55739668 Ry
     electric field correction =       0.00009414 Ry
     smearing contrib. (-TS)   =      -0.08186262 Ry

     convergence has been achieved in  17 iterations

 BEEF-vdW xc energy contributions
           1 :   -480.405748143327
           2 :    445.478351029410
           3 :   -383.155849937250
           4 :    305.849003673398
           5 :   -226.942326031751
           6 :    157.210065908167
           7 :   -102.662507864610
           8 :    64.2298899533988
           9 :   -39.0347442729567
          10 :    22.5231301095004
          11 :   -10.5505973352733
          12 :   0.673844367373704
          13 :    7.65314611797373
          14 :   -13.7681702342690
          15 :    16.8332847662071
          16 :   -16.6603107065995
          17 :    14.0064896806096
          18 :   -10.3229773379708
          19 :    7.16926661314812
          20 :   -5.61181620041077
          21 :    5.88259353469743
          22 :   -7.42098498003429
          23 :    9.23097055212486
          24 :   -10.3583902778125
          25 :    10.2734723670076
          26 :   -9.01998137502187
          27 :    7.10594003315521
          28 :   -5.21954413457956
          29 :    3.91365536587318
          30 :   -3.39860634142883
          31 :   -41.3987661552579
          32 :   -30.6944923176271

     Forces acting on atoms (Ry/au):

     negative rho (up, down):  1.377E+00 0.000E+00
     atom    1 type  1   force =    -0.00000026   -0.02326927    0.02041493
     atom    2 type  1   force =    -0.02015073    0.01163200    0.02041233
     atom    3 type  1   force =     0.02015446    0.01163765    0.02041236
     atom    4 type  2   force =    -0.00000114   -0.00000023   -0.05013712
     atom    5 type  1   force =     0.00000850    0.02812280    0.01426279
     atom    6 type  1   force =     0.02435937   -0.01405456    0.01426994
     atom    7 type  1   force =    -0.02435897   -0.01406382    0.01425796
     atom    8 type  2   force =    -0.00000777   -0.00000142   -0.05089964
     atom    9 type  1   force =    -0.00000280    0.00021986   -0.00053455
     atom   10 type  1   force =     0.00018951   -0.00011270   -0.00053535
     atom   11 type  1   force =    -0.00018944   -0.00010847   -0.00053162
     atom   12 type  2   force =    -0.00000071   -0.00000183   -0.00139202

     Total force =     0.104715     Total SCF correction =     0.003801

     entering subroutine stress ...

     negative rho (up, down):  1.377E+00 0.000E+00
          total   stress  (Ry/bohr**3)                   (kbar)     P=  -25.35
  -0.00024154  -0.00000000  -0.00000000        -35.53     -0.00     -0.00
  -0.00000000  -0.00024154  -0.00000000         -0.00    -35.53     -0.00
  -0.00000000  -0.00000000  -0.00003384         -0.00     -0.00     -4.98

 !ASE

     Writing output data file calc.save

     General routines

     Parallel routines

   This run was terminated on:  22: 8:13  27Dec2018

   JOB DONE.
Job  /afs/slac/g/suncat/bin/suncat-tsmpirun -x LD_LIBRARY_PATH -wdir /scratch/qe110663_YOq8w pw.x -in pw.inp

TID   HOST_NAME   COMMAND_LINE            STATUS            TERMINATION_TIME
00000 suncat0138 pw.x -in pw.inp   Done                     12/27/2018 22:08:13
00001 suncat0138 pw.x -in pw.inp   Done                     12/27/2018 22:08:13
00002 suncat0138 pw.x -in pw.inp   Done                     12/27/2018 22:08:13
00003 suncat0138 pw.x -in pw.inp   Done                     12/27/2018 22:08:13
00004 suncat0138 pw.x -in pw.inp   Done                     12/27/2018 22:08:13
00005 suncat0138 pw.x -in pw.inp   Done                     12/27/2018 22:08:13
00006 suncat0138 pw.x -in pw.inp   Done                     12/27/2018 22:08:13
00007 suncat0138 pw.x -in pw.inp   Done                     12/27/2018 22:08:13
00008 suncat0113 pw.x -in pw.inp   Done                     12/27/2018 22:08:13
00009 suncat0113 pw.x -in pw.inp   Done                     12/27/2018 22:08:13
00010 suncat0113 pw.x -in pw.inp   Done                     12/27/2018 22:08:13
00011 suncat0113 pw.x -in pw.inp   Done                     12/27/2018 22:08:13
00012 suncat0113 pw.x -in pw.inp   Done                     12/27/2018 22:08:13
00013 suncat0113 pw.x -in pw.inp   Done                     12/27/2018 22:08:13
00014 suncat0113 pw.x -in pw.inp   Done                     12/27/2018 22:08:13
00015 suncat0113 pw.x -in pw.inp   Done                     12/27/2018 22:08:13
00016 suncat0110 pw.x -in pw.inp   Done                     12/27/2018 22:08:13
00017 suncat0110 pw.x -in pw.inp   Done                     12/27/2018 22:08:13
00018 suncat0110 pw.x -in pw.inp   Done                     12/27/2018 22:08:13
00019 suncat0110 pw.x -in pw.inp   Done                     12/27/2018 22:08:13
00020 suncat0110 pw.x -in pw.inp   Done                     12/27/2018 22:08:13
00021 suncat0110 pw.x -in pw.inp   Done                     12/27/2018 22:08:13
00022 suncat0110 pw.x -in pw.inp   Done                     12/27/2018 22:08:13
00023 suncat0110 pw.x -in pw.inp   Done                     12/27/2018 22:08:13
00024 suncat0109 pw.x -in pw.inp   Done                     12/27/2018 22:08:13
00025 suncat0109 pw.x -in pw.inp   Done                     12/27/2018 22:08:13
00026 suncat0109 pw.x -in pw.inp   Done                     12/27/2018 22:08:13
00027 suncat0109 pw.x -in pw.inp   Done                     12/27/2018 22:08:13
00028 suncat0109 pw.x -in pw.inp   Done                     12/27/2018 22:08:13
00029 suncat0109 pw.x -in pw.inp   Done                     12/27/2018 22:08:13
00030 suncat0109 pw.x -in pw.inp   Done                     12/27/2018 22:08:13
00031 suncat0109 pw.x -in pw.inp   Done                     12/27/2018 22:08:13
00032 suncat0262 pw.x -in pw.inp   Done                     12/27/2018 22:08:13
00033 suncat0262 pw.x -in pw.inp   Done                     12/27/2018 22:08:13
00034 suncat0262 pw.x -in pw.inp   Done                     12/27/2018 22:08:13
00035 suncat0262 pw.x -in pw.inp   Done                     12/27/2018 22:08:13
00036 suncat0262 pw.x -in pw.inp   Done                     12/27/2018 22:08:13
00037 suncat0262 pw.x -in pw.inp   Done                     12/27/2018 22:08:13
00038 suncat0262 pw.x -in pw.inp   Done                     12/27/2018 22:08:13
00039 suncat0262 pw.x -in pw.inp   Done                     12/27/2018 22:08:13
00040 suncat0258 pw.x -in pw.inp   Done                     12/27/2018 22:08:13
00041 suncat0258 pw.x -in pw.inp   Done                     12/27/2018 22:08:13
00042 suncat0258 pw.x -in pw.inp   Done                     12/27/2018 22:08:13
00043 suncat0258 pw.x -in pw.inp   Done                     12/27/2018 22:08:13
00044 suncat0258 pw.x -in pw.inp   Done                     12/27/2018 22:08:13
00045 suncat0258 pw.x -in pw.inp   Done                     12/27/2018 22:08:13
00046 suncat0258 pw.x -in pw.inp   Done                     12/27/2018 22:08:13
00047 suncat0258 pw.x -in pw.inp   Done                     12/27/2018 22:08:13
00048 suncat0257 pw.x -in pw.inp   Done                     12/27/2018 22:08:13
00049 suncat0257 pw.x -in pw.inp   Done                     12/27/2018 22:08:13
00050 suncat0257 pw.x -in pw.inp   Done                     12/27/2018 22:08:13
00051 suncat0257 pw.x -in pw.inp   Done                     12/27/2018 22:08:13
00052 suncat0257 pw.x -in pw.inp   Done                     12/27/2018 22:08:13
00053 suncat0257 pw.x -in pw.inp   Done                     12/27/2018 22:08:13
00054 suncat0257 pw.x -in pw.inp   Done                     12/27/2018 22:08:13
00055 suncat0257 pw.x -in pw.inp   Done                     12/27/2018 22:08:13
00056 suncat0251 pw.x -in pw.inp   Done                     12/27/2018 22:08:13
00057 suncat0251 pw.x -in pw.inp   Done                     12/27/2018 22:08:13
00058 suncat0251 pw.x -in pw.inp   Done                     12/27/2018 22:08:13
00059 suncat0251 pw.x -in pw.inp   Done                     12/27/2018 22:08:13
00060 suncat0251 pw.x -in pw.inp   Done                     12/27/2018 22:08:13
00061 suncat0251 pw.x -in pw.inp   Done                     12/27/2018 22:08:13
00062 suncat0251 pw.x -in pw.inp   Done                     12/27/2018 22:08:13
00063 suncat0251 pw.x -in pw.inp   Done                     12/27/2018 22:08:13