     Program PWSCF v.5.1rc2 (svn rev. 11289) starts on 19Dec2018 at  8:54:13

     Current dimensions of program PWSCF are:
     Max number of different atomic species (ntypx) = 10
     Max number of k-points (npk) =  40000
     Max angular momentum in pseudopotentials (lmaxx) =  3
     Presently stress not available with electric field

     IMPORTANT: XC functional enforced from input :
     Exchange-correlation      = BEEF-VDW ( 1  4 27 13 2)
     Any further DFT definition will be discarded
     Please, verify this is what you really want

     Subspace diagonalization in iterative solution of the eigenvalue problem:
     a serial algorithm will be used

     Found symmetry operation: I + ( -0.5000  0.0000  0.0000)
     This is a supercell, fractional translations are disabled

     bravais-lattice index     =            0
     lattice parameter (alat)  =       1.8897  a.u.
     unit-cell volume          =    4850.4361 (a.u.)^3
     number of atoms/cell      =           12
     number of atomic types    =            2
     number of electrons       =       150.00
     number of Kohn-Sham states=          105
     kinetic-energy cutoff     =      36.7493  Ry
     charge density cutoff     =     367.4932  Ry
     convergence threshold     =      1.0E-06
     mixing beta               =       0.1000
     number of iterations used =           10  plain     mixing
     Exchange-correlation      = BEEF-VDW ( 1  4 27 13 2)
     nstep                     =           50

     celldm(1)=   1.889726  celldm(2)=   0.000000  celldm(3)=   0.000000
     celldm(4)=   0.000000  celldm(5)=   0.000000  celldm(6)=   0.000000

     crystal axes: (cart. coord. in units of alat)
               a(1) = (   5.535126   0.000000   0.000000 )
               a(2) = (  -2.767563   5.256058   0.000000 )
               a(3) = (   0.000000   0.000000  24.705664 )

     reciprocal axes: (cart. coord. in units 2 pi/alat)
               b(1) = (  0.180664  0.095128  0.000000 )
               b(2) = (  0.000000  0.190257  0.000000 )
               b(3) = (  0.000000  0.000000  0.040477 )

     PseudoPot. # 1 for V  read from file:
     /afs/slac.stanford.edu/u/if/mamunm/psp/gbrv1.5pbe/V.UPF
     MD5 check sum: 22b79981416ebb76fdaf5b1b8640f6fb
     Pseudo is Ultrasoft + core correction, Zval = 13.0
     Generated by new atomic code, or converted to UPF format
     Using radial grid of  853 points,  6 beta functions with:
                l(1) =   0
                l(2) =   0
                l(3) =   1
                l(4) =   1
                l(5) =   2
                l(6) =   2
     Q(r) pseudized with  8 coefficients,  rinner =    1.100   1.100   1.100
                                                       1.100   1.100

     PseudoPot. # 2 for Cd read from file:
     /afs/slac.stanford.edu/u/if/mamunm/psp/gbrv1.5pbe/Cd.UPF
     MD5 check sum: 17164a7926edb8e0dc231208abae86a6
     Pseudo is Ultrasoft + core correction, Zval = 12.0
     Generated by new atomic code, or converted to UPF format
     Using radial grid of  889 points,  6 beta functions with:
                l(1) =   0
                l(2) =   0
                l(3) =   1
                l(4) =   1
                l(5) =   2
                l(6) =   2
     Q(r) pseudized with  6 coefficients,  rinner =    1.000   1.000   1.000
                                                       1.000   1.000

     vdW kernel table read from file vdW_kernel_table
     MD5 check sum: 095c7af220d748ca6e76c0b4c6cfb241

     atomic species   valence    mass     pseudopotential
        V1            13.00    50.94150     V ( 1.00)
        Cd1           12.00   112.41400     Cd( 1.00)

     No symmetry found

   Cartesian axes

     site n.     atom                  positions (alat units)
         1           V1  tau(   1) = (   0.0000000   0.0000000  10.0000000  )
         2           V1  tau(   2) = (   2.7675629   0.0000000  10.0000000  )
         3           Cd1 tau(   3) = (   1.3837814   2.6280290  10.0000000  )
         4           Cd1 tau(   4) = (  -1.3837814   2.6280290  10.0000000  )
         5           V1  tau(   5) = (   2.7675629   1.4572526  12.3528322  )
         6           V1  tau(   6) = (   0.0000000   1.4572526  12.3528322  )
         7           Cd1 tau(   7) = (  -1.3837814   4.0852816  12.3528322  )
         8           Cd1 tau(   8) = (   1.3837814   4.0852816  12.3528322  )
         9           V1  tau(   9) = (   0.0000000   2.9145052  14.7056643  )
        10           V1  tau(  10) = (   2.7675629   2.9145052  14.7056643  )
        11           Cd1 tau(  11) = (   4.1513443   0.2864762  14.7056643  )
        12           Cd1 tau(  12) = (   1.3837814   0.2864762  14.7056643  )

     number of k points=    20  Fermi-Dirac smearing, width (Ry)=  0.0110
                       cart. coord. in units 2pi/alat
        k(    1) = (   0.0000000   0.0000000   0.0000000), wk =   0.0555556
        k(    2) = (   0.0000000   0.0317094   0.0000000), wk =   0.1111111
        k(    3) = (   0.0000000   0.0634189   0.0000000), wk =   0.1111111
        k(    4) = (   0.0000000  -0.0951283   0.0000000), wk =   0.0555556
        k(    5) = (   0.0301107   0.0158547   0.0000000), wk =   0.1111111
        k(    6) = (   0.0301107   0.0475642   0.0000000), wk =   0.1111111
        k(    7) = (   0.0301107   0.0792736   0.0000000), wk =   0.1111111
        k(    8) = (   0.0301107  -0.0792736   0.0000000), wk =   0.1111111
        k(    9) = (   0.0301107  -0.0475642   0.0000000), wk =   0.1111111
        k(   10) = (   0.0301107  -0.0158547   0.0000000), wk =   0.1111111
        k(   11) = (   0.0602215   0.0317094   0.0000000), wk =   0.1111111
        k(   12) = (   0.0602215   0.0634189   0.0000000), wk =   0.1111111
        k(   13) = (   0.0602215   0.0951283   0.0000000), wk =   0.1111111
        k(   14) = (   0.0602215  -0.0634189   0.0000000), wk =   0.1111111
        k(   15) = (   0.0602215  -0.0317094   0.0000000), wk =   0.1111111
        k(   16) = (   0.0602215   0.0000000   0.0000000), wk =   0.1111111
        k(   17) = (  -0.0903322  -0.0475642   0.0000000), wk =   0.0555556
        k(   18) = (  -0.0903322  -0.0158547   0.0000000), wk =   0.1111111
        k(   19) = (  -0.0903322   0.0158547   0.0000000), wk =   0.1111111
        k(   20) = (  -0.0903322  -0.1426925   0.0000000), wk =   0.0555556

     Largest allocated arrays     est. size (Mb)     dimensions
     Largest temporary arrays     est. size (Mb)     dimensions

     Initial potential from superposition of free atoms
     Check: negative starting charge=   -0.132482

     starting charge  146.99239, renormalised to  150.00000

     negative rho (up, down):  1.352E-01 0.000E+00

     *
     * You are using vdW-DF for exchange-correlation in this calculation.
     * Please cite the following three references that made this development
     * possible:
     *
     *   M. Dion, H. Rydberg, E. Schroder, D. C. Langreth, and
     *   B. I. Lundqvist, Phys. Rev. Lett. 92, 246401 (2004).
     *
     *   T. Thonhauser, V. R. Cooper, S. Li, A. Puzder, P. Hyldgaard, and
     *   D. C. Langreth, Phys. Rev. B 76, 125112 (2007).
     *
     *   G. Roman-Perez and J. M. Soler, Phys. Rev. Lett. 103, 096102 (2009).
     *
     *
     * If you are using vdW-DF2, please also cite:
     *
     *   K. Lee, E. D. Murray, L. Kong, B. I. Lundqvist, and
     *   D. C. Langreth, Phys. Rev. B 82, 081101(R) (2010).
     *
     *
     * If you are calculating the stress with vdW-DF, please also cite:
     *
     *   R. Sabatini, E. Kucukbenli, B. Kolb, T. Thonhauser, and
     *   S. de Gironcoli, J. Phys.: Condens. Matter 24, 424209 (2012).
     *

     Carrying out vdW-DF run using the following parameters:

     Nqs =      20    Nr_points =    1024   r_max =   100.000
     q_mesh =
               0.00001000     0.04494208     0.09755937     0.15916263
               0.23128650     0.31572767     0.41458969     0.53033537
               0.66584808     0.82450364     1.01025438     1.22772762
               1.48234092     1.78043706     2.12944203     2.53805004
               3.01644009     3.57652955     4.23227104     5.00000000

     Gradients computed in reciprocal space

     Adding external electric field

     Computed dipole along edir(3) :
        Dipole               -0.0000 Ry au,         -0.0000 Debye
        Dipole field         -0.0000 Ry au

        Potential amp.        0.0000 Ry
        Total length         45.5198 bohr

     Starting wfc are  114 randomized atomic wfcs

     Self-consistent Calculation

     iteration #  1     ecut=    36.75 Ry     beta=0.10
     Davidson diagonalization with overlap
     ethr =  1.00E-02,  avg # of iterations =  6.0

[...]

     total energy              =   -1570.51071891 Ry
     Harris-Foulkes estimate   =   -1570.97242255 Ry
     estimated scf accuracy    <       2.79111928 Ry

[...]

     End of self-consistent calculation

          k = 0.0000 0.0000 0.0000 ( 18191 PWs)   bands (ev):

   -63.6130 -63.6115 -63.5746 -63.5732 -63.4867 -63.4481 -37.5653 -37.5437
   -37.5289 -37.5088 -37.4499 -37.4496 -37.4451 -37.4185 -37.4130 -37.3986
   -37.3835 -37.3833 -37.3470 -37.1988 -37.1671 -37.1229 -37.1207 -37.0750
    -9.1282  -8.9402  -8.8252  -8.7890  -8.6456  -8.5825  -8.5159  -8.5019
    -8.4073  -8.3521  -8.3040  -8.2755  -7.9999  -7.9827  -7.9114  -7.7950
    -7.7918  -7.7517  -7.6657  -7.6613  -7.6042  -7.6038  -7.5499  -7.4439
    -7.4257  -7.3914  -7.3871  -7.2776  -7.2121  -6.8789  -6.8431  -5.1680
    -2.9035  -1.7200  -1.1517  -1.0254  -0.9921  -0.9614  -0.7450  -0.5622
    -0.2981  -0.2187  -0.1523  -0.0080   0.0277   0.3431   0.3757   0.5026
     0.6072   0.8514   0.9695   0.9898   1.1379   1.1381   1.2679   1.4263
     1.6223   1.6282   1.6390   1.8257   1.9616   1.9918   2.1882   2.2195
     2.3148   2.3216   2.3376   2.5911   2.6300   2.6683   2.7699   3.2625
     3.4074   4.0946   4.3759   4.4940   4.7051   4.8932   4.9615   5.0660
     5.5772

[...]

          k =-0.0903-0.0476 0.0000 ( 18264 PWs)   bands (ev):

[...]

     the Fermi energy is     0.7998 ev

!    total energy              =   -1570.59646785 Ry
     Harris-Foulkes estimate   =   -1570.59646913 Ry
     estimated scf accuracy    <       0.00000036 Ry

     The total energy is the sum of the following terms:

     one-electron contribution =  -11552.18041420 Ry
     hartree contribution      =    5816.48962408 Ry
     xc contribution           =    -366.92245673 Ry
     ewald contribution        =    4532.11984733 Ry
     electric field correction =       0.00000000 Ry
     smearing contrib. (-TS)   =      -0.10306834 Ry

     convergence has been achieved in  23 iterations

 BEEF-vdW xc energy contributions
           1 :   -319.851000640317
           2 :    290.960109599766
           3 :   -242.521970360935
           4 :    188.741153843208
           5 :   -142.472646630436
           6 :    110.544411646631
           7 :   -92.6389218599121
           8 :    83.5819076473279
           9 :   -77.2176388986987
          10 :    69.6189636233161
          11 :   -60.2274423118237
          12 :    50.8871014694065
          13 :   -43.8477632620488
[...]
00031 suncat2059 pw.x -in pw.inp   Done                     12/19/2018 08:59:10

[...]

   This run was terminated on:   9: 3:43  19Dec2018

[...]

     Program PWSCF v.5.1rc2 (svn rev. 11289) starts on 19Dec2018 at  9: 3:51

[...]

   This run was terminated on:   9: 8:51  19Dec2018

[...]

     Program PWSCF v.5.1rc2 (svn rev. 11289) starts on 19Dec2018 at  9: 8:57

[...]

     Found symmetry operation: I + ( -0.5000  0.0000  0.0000)
     This is a supercell, fractional translations are disabled

[...]

     Program PWSCF v.5.1rc2 (svn rev. 11289) starts on 19Dec2018 at  9:28: 5

[...]

   This run was terminated on:   9:42: 9  19Dec2018

[...]

     Program PWSCF v.5.1rc2 (svn rev. 11289) starts on 19Dec2018 at  9:42:17

     Current dimensions of program PWSCF are:
     Max number of different atomic species (ntypx) = 10
     Max number of k-points (npk) =  40000
     Max angular momentum in pseudopotentials (lmaxx) =  3
     Presently stress not available with electric field

     IMPORTANT: XC functional enforced from input :
     Exchange-correlation      = BEEF-VDW ( 1  4 27 13 2)
     Any further DFT definition will be discarded
     Please, verify this is what you really want

     Subspace diagonalization in iterative solution of the eigenvalue problem:
     a serial algorithm will be used

     bravais-lattice index     =            0
     lattice parameter (alat)  =       1.8897  a.u.
     unit-cell volume          =    4850.4361 (a.u.)^3
     number of atoms/cell      =           12
     number of atomic types    =            2
     number of electrons       =       150.00
     number of Kohn-Sham states=          105
     kinetic-energy cutoff     =      36.7493  Ry
     charge density cutoff     =     367.4932  Ry
     convergence threshold     =      1.0E-06
     mixing beta               =       0.1000
     number of iterations used =           10  plain     mixing
     Exchange-correlation      = BEEF-VDW ( 1  4 27 13 2)
     nstep                     =           50

     celldm(1)=   1.889726  celldm(2)=   0.000000  celldm(3)=   0.000000
     celldm(4)=   0.000000  celldm(5)=   0.000000  celldm(6)=   0.000000

     crystal axes: (cart. coord. in units of alat)
               a(1) = (   5.535126   0.000000   0.000000 )
               a(2) = (  -2.767563   5.256058   0.000000 )
               a(3) = (   0.000000   0.000000  24.705664 )

     reciprocal axes: (cart. coord. in units 2 pi/alat)
               b(1) = (  0.180664  0.095128  0.000000 )
               b(2) = (  0.000000  0.190257  0.000000 )
               b(3) = (  0.000000  0.000000  0.040477 )

     PseudoPot. # 1 for V  read from file:
     /afs/slac.stanford.edu/u/if/mamunm/psp/gbrv1.5pbe/V.UPF
     MD5 check sum: 22b79981416ebb76fdaf5b1b8640f6fb
     Pseudo is Ultrasoft + core correction, Zval = 13.0
     Generated by new atomic code, or converted to UPF format
     Using radial grid of  853 points,  6 beta functions with:
                l(1) =   0
                l(2) =   0
                l(3) =   1
                l(4) =   1
                l(5) =   2
                l(6) =   2
     Q(r) pseudized with  8 coefficients,  rinner =    1.100   1.100   1.100
                                                       1.100   1.100

     PseudoPot. # 2 for Cd read from file:
     /afs/slac.stanford.edu/u/if/mamunm/psp/gbrv1.5pbe/Cd.UPF
     MD5 check sum: 17164a7926edb8e0dc231208abae86a6
     Pseudo is Ultrasoft + core correction, Zval = 12.0
     Generated by new atomic code, or converted to UPF format
     Using radial grid of  889 points,  6 beta functions with:
                l(1) =   0
                l(2) =   0
                l(3) =   1
                l(4) =   1
                l(5) =   2
                l(6) =   2
     Q(r) pseudized with  6 coefficients,  rinner =    1.000   1.000   1.000
                                                       1.000   1.000

     vdW kernel table read from file vdW_kernel_table
     MD5 check sum: 095c7af220d748ca6e76c0b4c6cfb241

     atomic species   valence    mass     pseudopotential
        V1            13.00    50.94150     V ( 1.00)
        Cd1           12.00   112.41400     Cd( 1.00)

     No symmetry found

   Cartesian axes

     site n.     atom                  positions (alat units)
         1           V1  tau(   1) = (   0.0000000   0.0000000  10.0000000  )
         2           V1  tau(   2) = (   2.7675629   0.0000000  10.0000000  )
         3           Cd1 tau(   3) = (   1.3837814   2.6280290  10.0000000  )
         4           Cd1 tau(   4) = (  -1.3837814   2.6280290  10.0000000  )
         5           V1  tau(   5) = (   2.7675629   1.4572526  12.3528322  )
         6           V1  tau(   6) = (   0.0000000   1.4572526  12.3528322  )
         7           Cd1 tau(   7) = (  -1.3837814   4.0852816  12.3528322  )
         8           Cd1 tau(   8) = (   1.3837814   4.0852816  12.3528322  )
         9           V1  tau(   9) = (   0.0000406   2.4429081  14.3774646  )
        10           V1  tau(  10) = (   2.7676073   2.4431458  14.3774345  )
        11           Cd1 tau(  11) = (   1.3845741   5.1956742  15.0745688  )
        12           Cd1 tau(  12) = (  -1.3845525   5.1956742  15.0745849  )

     number of k points=    20  Fermi-Dirac smearing, width (Ry)=  0.0110
                       cart. coord. in units 2pi/alat
        k(    1) = (   0.0000000   0.0000000   0.0000000), wk =   0.0555556
        k(    2) = (   0.0000000   0.0317094   0.0000000), wk =   0.1111111
        k(    3) = (   0.0000000   0.0634189   0.0000000), wk =   0.1111111
        k(    4) = (   0.0000000  -0.0951283   0.0000000), wk =   0.0555556
        k(    5) = (   0.0301107   0.0158547   0.0000000), wk =   0.1111111
        k(    6) = (   0.0301107   0.0475642   0.0000000), wk =   0.1111111
        k(    7) = (   0.0301107   0.0792736   0.0000000), wk =   0.1111111
        k(    8) = (   0.0301107  -0.0792736   0.0000000), wk =   0.1111111
        k(    9) = (   0.0301107  -0.0475642   0.0000000), wk =   0.1111111
        k(   10) = (   0.0301107  -0.0158547   0.0000000), wk =   0.1111111
        k(   11) = (   0.0602215   0.0317094   0.0000000), wk =   0.1111111
        k(   12) = (   0.0602215   0.0634189   0.0000000), wk =   0.1111111
        k(   13) = (   0.0602215   0.0951283   0.0000000), wk =   0.1111111
        k(   14) = (   0.0602215  -0.0634189   0.0000000), wk =   0.1111111
        k(   15) = (   0.0602215  -0.0317094   0.0000000), wk =   0.1111111
        k(   16) = (   0.0602215   0.0000000   0.0000000), wk =   0.1111111
        k(   17) = (  -0.0903322  -0.0475642   0.0000000), wk =   0.0555556
        k(   18) = (  -0.0903322  -0.0158547   0.0000000), wk =   0.1111111
        k(   19) = (  -0.0903322   0.0158547   0.0000000), wk =   0.1111111
        k(   20) = (  -0.0903322  -0.1426925   0.0000000), wk =   0.0555556

     Largest allocated arrays     est. size (Mb)     dimensions
     Largest temporary arrays     est. size (Mb)     dimensions

     Initial potential from superposition of free atoms
     Check: negative starting charge=   -0.133382

     starting charge  146.99239, renormalised to  150.00000

[...]

     *
     * You are using vdW-DF for exchange-correlation in this calculation.
     * Please cite the following three references that made this development
     * possible:
     *
     *   M. Dion, H. Rydberg, E. Schroder, D. C. Langreth, and
     *   B. I. Lundqvist, Phys. Rev. Lett. 92, 246401 (2004).
     *
     *   T. Thonhauser, V. R. Cooper, S. Li, A. Puzder, P. Hyldgaard, and
     *   D. C. Langreth, Phys. Rev. B 76, 125112 (2007).
     *
     *   G. Roman-Perez and J. M. Soler, Phys. Rev. Lett. 103, 096102 (2009).
     *
     *
     * If you are using vdW-DF2, please also cite:
     *
     *   K. Lee, E. D. Murray, L. Kong, B. I. Lundqvist, and
     *   D. C. Langreth, Phys. Rev. B 82, 081101(R) (2010).
     *
     *
     * If you are calculating the stress with vdW-DF, please also cite:
     *
     *   R. Sabatini, E. Kucukbenli, B. Kolb, T. Thonhauser, and
     *   S. de Gironcoli, J. Phys.: Condens. Matter 24, 424209 (2012).
     *

     Carrying out vdW-DF run using the following parameters:

     Nqs =      20    Nr_points =    1024   r_max =   100.000
     q_mesh =
               0.00001000     0.04494208     0.09755937     0.15916263
               0.23128650     0.31572767     0.41458969     0.53033537
               0.66584808     0.82450364     1.01025438     1.22772762
               1.48234092     1.78043706     2.12944203     2.53805004
               3.01644009     3.57652955     4.23227104     5.00000000

     Gradients computed in reciprocal space

[...]

     Starting wfc are  114 randomized atomic wfcs

     Self-consistent Calculation

[...]

     total energy              =   -1570.65258036 Ry
     Harris-Foulkes estimate   =   -1570.65258031 Ry
     estimated scf accuracy    <       0.00000169 Ry

     iteration # 20     ecut=    36.75 Ry     beta=0.10
     Davidson diagonalization with overlap
     ethr =  1.13E-09,  avg # of iterations =  2.0

[...]

     negative rho (up, down):  1.399E-01 0.000E+00

     Adding external electric field

     Computed dipole along edir(3) :
        Dipole               -0.0278 Ry au,         -0.0707 Debye
        Dipole field         -0.0001 Ry au

        Potential amp.        0.0066 Ry
        Total length         45.5198 bohr

     End of self-consistent calculation

[...]

          k = 0.0602 0.0000 0.0000 ( 18212 PWs)   bands (ev):

[...]

          k =-0.0903-0.1427 0.0000 ( 18264 PWs)   bands (ev):

   -63.6973 -63.6973 -63.4626 -63.4625 -63.2705 -63.2703 -37.6911 -37.6911
   -37.6048 -37.6048 -37.5109 -37.5109 -37.3553 -37.3553 -37.3102 -37.3101
   -37.2531 -37.2530 -37.1839 -37.1838 -37.1276 -37.1275 -36.6832 -36.6830
    -8.6252  -8.6251  -8.4282  -8.4280  -8.3571  -8.3571  -8.2282  -8.2281
    -8.2030  -8.2028  -8.0342  -8.0338  -7.9887  -7.9886  -7.9340  -7.9299
    -7.9081  -7.9071  -7.8550  -7.8530  -7.8244  -7.8234  -7.8113  -7.8106
    -7.7084  -7.7067  -7.6333  -7.6329  -7.5840  -7.5835  -5.1936  -5.1929
    -3.6599  -3.6578  -2.2128  -2.2119  -1.4000  -1.3997  -0.5742  -0.5739
    -0.1757  -0.1755  -0.0651  -0.0650   0.2646   0.2650   0.4019   0.4020
     0.5359   0.5361   0.7995   0.7995   0.9157   0.9161   1.0830   1.0830
     1.3638   1.3640   1.5631   1.5633   1.9029   1.9030   2.0781   2.0783
     2.5430   2.5431   2.6684   2.6685   2.9950   2.9953   3.4822   3.4829
     4.1604   4.1608   5.3571   5.3575   6.0350   6.0350   6.2068   6.2071
     6.3708

     the Fermi energy is     0.7528 ev

!    total energy              =   -1570.65257933 Ry
     Harris-Foulkes estimate   =   -1570.65258042 Ry
     estimated scf accuracy    <       0.00000094 Ry

     The total energy is the sum of the following terms:

     one-electron contribution =  -11523.43587432 Ry
     hartree contribution      =    5802.18412565 Ry
     xc contribution           =    -367.07787436 Ry
     ewald contribution        =    4517.77436228 Ry
     electric field correction =       0.00000200 Ry
     smearing contrib. (-TS)   =      -0.09732058 Ry

     convergence has been achieved in  20 iterations

 BEEF-vdW xc energy contributions
           1 :   -320.001208190952
           2 :    291.081317301832
           3 :   -242.581720669513
           4 :    188.710016319855
           5 :   -142.340155444337
           6 :    110.326143598570
           7 :   -92.3607824492582
           8 :    83.2635618980675
           9 :   -76.8800328623245
          10 :    69.3035353858442
          11 :   -59.9897550927858
          12 :    50.7571705535290
          13 :   -43.7958841559549
          14 :    40.0537081175941
          15 :   -38.8176446756820
          16 :    38.4186027354571
          17 :   -37.3633874603376
          18 :    35.1159839045317
          19 :   -32.1518152831056
          20 :    29.4225301394586
          21 :   -27.6789788106864
          22 :    27.0645516527226
          23 :   -27.1373312131053
          24 :    27.2048182815878
          25 :   -26.7268009778261
          26 :    25.5679396768949
          27 :   -24.0081642599672
          28 :    22.5455369445233
          29 :   -21.6137970830988
          30 :    21.3554390634258
          31 :   -30.1775869554152
          32 :   -21.9595646056857

     Forces acting on atoms (Ry/au):

     negative rho (up, down):  1.399E-01 0.000E+00
     atom    1 type  1   force =     0.00000073    0.01852454    0.03692122
     atom    2 type  1   force =     0.00000145    0.01852465    0.03692582
     atom    3 type  2   force =     0.00000322   -0.01396330   -0.04053752
     atom    4 type  2   force =     0.00000248   -0.01396143   -0.04054338
     atom    5 type  1   force =    -0.00001518   -0.01626012   -0.00836009
     atom    6 type  1   force =    -0.00001539   -0.01624077   -0.00836788
     atom    7 type  2   force =    -0.00000113    0.01179872    0.01207190
     atom    8 type  2   force =     0.00001992    0.01179610    0.01206806
     atom    9 type  1   force =    -0.00001346    0.00005681    0.00001749
     atom   10 type  1   force =    -0.00001437   -0.00009547    0.00003352
     atom   11 type  2   force =    -0.00045881   -0.00008820   -0.00011300
     atom   12 type  2   force =     0.00049054   -0.00009153   -0.00011614

     Total force =     0.091259     Total SCF correction =     0.002641

     entering subroutine stress ...

     negative rho (up, down):  1.399E-01 0.000E+00
          total   stress  (Ry/bohr**3)                   (kbar)     P=   -7.55
  -0.00006779   0.00000001   0.00000000         -9.97      0.00      0.00
   0.00000001  -0.00007721  -0.00000774          0.00    -11.36     -1.14
   0.00000000  -0.00000774  -0.00000891          0.00     -1.14     -1.31

 !ASE

     Writing output data file calc.save

     General routines

     Parallel routines

   This run was terminated on:   9:46:47  19Dec2018

   JOB DONE.
Job  /afs/slac/g/suncat/bin/suncat-tsmpirun -x LD_LIBRARY_PATH -wdir /scratch/qe530745_uD4sT pw.x -in pw.inp

TID   HOST_NAME   COMMAND_LINE            STATUS            TERMINATION_TIME
00000 suncat2060 pw.x -in pw.inp   Done                     12/19/2018 09:46:47
00001 suncat2060 pw.x -in pw.inp   Done                     12/19/2018 09:46:47
00002 suncat2060 pw.x -in pw.inp   Done                     12/19/2018 09:46:47
00003 suncat2060 pw.x -in pw.inp   Done                     12/19/2018 09:46:47
00004 suncat2060 pw.x -in pw.inp   Done                     12/19/2018 09:46:47
00005 suncat2060 pw.x -in pw.inp   Done                     12/19/2018 09:46:47
00006 suncat2060 pw.x -in pw.inp   Done                     12/19/2018 09:46:47
00007 suncat2060 pw.x -in pw.inp   Done                     12/19/2018 09:46:47
00008 suncat2060 pw.x -in pw.inp   Done                     12/19/2018 09:46:47
00009 suncat2060 pw.x -in pw.inp   Done                     12/19/2018 09:46:47
00010 suncat2060 pw.x -in pw.inp   Done                     12/19/2018 09:46:47
00011 suncat2060 pw.x -in pw.inp   Done                     12/19/2018 09:46:47
00012 suncat2060 pw.x -in pw.inp   Done                     12/19/2018 09:46:47
00013 suncat2060 pw.x -in pw.inp   Done                     12/19/2018 09:46:47
00014 suncat2060 pw.x -in pw.inp   Done                     12/19/2018 09:46:47
00015 suncat2060 pw.x -in pw.inp   Done                     12/19/2018 09:46:47
00016 suncat2059 pw.x -in pw.inp   Done                     12/19/2018 09:46:47
00017 suncat2059 pw.x -in pw.inp   Done                     12/19/2018 09:46:47
00018 suncat2059 pw.x -in pw.inp   Done                     12/19/2018 09:46:47
00019 suncat2059 pw.x -in pw.inp   Done                     12/19/2018 09:46:47
00020 suncat2059 pw.x -in pw.inp   Done                     12/19/2018 09:46:47
00021 suncat2059 pw.x -in pw.inp   Done                     12/19/2018 09:46:47
00022 suncat2059 pw.x -in pw.inp   Done                     12/19/2018 09:46:47
00023 suncat2059 pw.x -in pw.inp   Done                     12/19/2018 09:46:47
00024 suncat2059 pw.x -in pw.inp   Done                     12/19/2018 09:46:47
00025 suncat2059 pw.x -in pw.inp   Done                     12/19/2018 09:46:47
00026 suncat2059 pw.x -in pw.inp   Done                     12/19/2018 09:46:47
00027 suncat2059 pw.x -in pw.inp   Done                     12/19/2018 09:46:47
00028 suncat2059 pw.x -in pw.inp   Done                     12/19/2018 09:46:47
00029 suncat2059 pw.x -in pw.inp   Done                     12/19/2018 09:46:47
00030 suncat2059 pw.x -in pw.inp   Done                     12/19/2018 09:46:47
00031 suncat2059 pw.x -in pw.inp   Done                     12/19/2018 09:46:47