     Program PWSCF v.5.1rc2 (svn rev. 11289) starts on 31Dec2018 at 21:24:10

     Current dimensions of program PWSCF are:
     Max number of different atomic species (ntypx) = 10
     Max number of k-points (npk) =  40000
     Max angular momentum in pseudopotentials (lmaxx) =  3
     Presently stress not available with electric field

     IMPORTANT: XC functional enforced from input :
     Exchange-correlation      = BEEF-VDW ( 1  4 27 13 2)
     Any further DFT definition will be discarded
     Please, verify this is what you really want

     Subspace diagonalization in iterative solution of the eigenvalue problem:
     a serial algorithm will be used

     bravais-lattice index     =            0
     lattice parameter (alat)  =       1.8897  a.u.
     unit-cell volume          =    4451.5456 (a.u.)^3
     number of atoms/cell      =           12
     number of atomic types    =            2
     number of electrons       =       168.00
     number of Kohn-Sham states=          114
     kinetic-energy cutoff     =      36.7493  Ry
     charge density cutoff     =     367.4932  Ry
     convergence threshold     =      1.0E-06
     mixing beta               =       0.1000
     number of iterations used =           10  plain     mixing
     Exchange-correlation      = BEEF-VDW ( 1  4 27 13 2)
     nstep                     =           50

     celldm(1)=   1.889726  celldm(2)=   0.000000  celldm(3)=   0.000000
     celldm(4)=   0.000000  celldm(5)=   0.000000  celldm(6)=   0.000000

     crystal axes: (cart. coord. in units of alat)
               a(1) = (   5.570347   0.000000   0.000000 )
               a(2) = (  -2.785173   4.824062   0.000000 )
               a(3) = (   0.000000   0.000000  24.548169 )

     reciprocal axes: (cart. coord. in units 2 pi/alat)
               b(1) = (  0.179522  0.103647  0.000000 )
               b(2) = (  0.000000  0.207294  0.000000 )
               b(3) = (  0.000000  0.000000  0.040736 )

     PseudoPot. # 1 for Rh read from file:
     /afs/slac.stanford.edu/u/if/mamunm/psp/gbrv1.5pbe/Rh.UPF
     MD5 check sum: 761627e959a2e3a1f56b0b5fe687810e
     Pseudo is Ultrasoft + core correction, Zval = 15.0
     Generated by new atomic code, or converted to UPF format
     Using radial grid of  969 points,  7 beta functions with:
                l(1) =   0
                l(2) =   0
                l(3) =   1
                l(4) =   1
                l(5) =   2
                l(6) =   2
                l(7) =   2
     Q(r) pseudized with  8 coefficients,  rinner =    1.200   1.200   1.200
                                                       1.200   1.200

     PseudoPot. # 2 for Au read from file:
     /afs/slac.stanford.edu/u/if/mamunm/psp/gbrv1.5pbe/Au.UPF
     MD5 check sum: 9d7f43293ad2c663164586bc4b293ffc
     Pseudo is Ultrasoft + core correction, Zval = 11.0
     Generated by new atomic code, or converted to UPF format
     Using radial grid of  985 points,  7 beta functions with:
                l(1) =   0
                l(2) =   0
                l(3) =   1
                l(4) =   1
                l(5) =   2
                l(6) =   2
                l(7) =   3
     Q(r) pseudized with  6 coefficients,  rinner =    1.900   1.900   1.900
                                                       1.900   1.900   1.900
                                                       1.900

     vdW kernel table read from file vdW_kernel_table
     MD5 check sum: 095c7af220d748ca6e76c0b4c6cfb241

     atomic species   valence    mass     pseudopotential
        Rh1           15.00   102.90550     Rh( 1.00)
        Au1           11.00   196.96657     Au( 1.00)

     No symmetry found

   Cartesian axes

     site n.     atom                  positions (alat units)
         1           Rh1 tau(   1) = (   0.0000000   0.0000000  10.0000000  )
         2           Rh1 tau(   2) = (  -1.3925867   2.4120310  10.0000000  )
         3           Rh1 tau(   3) = (   1.3925867   2.4120310  10.0000000  )
         4           Au1 tau(   4) = (   2.7851735   0.0000000  10.0000000  )
         5           Rh1 tau(   5) = (   2.7851735   1.6080206  12.2740846  )
         6           Rh1 tau(   6) = (   1.3925867   4.0200516  12.2740846  )
         7           Rh1 tau(   7) = (  -1.3925867   4.0200516  12.2740846  )
         8           Au1 tau(   8) = (   0.0000000   1.6080206  12.2740846  )
         9           Rh1 tau(   9) = (  -0.0000000   3.2160413  14.5481692  )
        10           Rh1 tau(  10) = (   1.3925867   0.8040103  14.5481692  )
        11           Rh1 tau(  11) = (   4.1777602   0.8040103  14.5481692  )
        12           Au1 tau(  12) = (   2.7851735   3.2160413  14.5481692  )

     number of k points=    20  Fermi-Dirac smearing, width (Ry)=  0.0110
                       cart. coord. in units 2pi/alat
        k(    1) = (   0.0000000   0.0000000   0.0000000), wk =   0.0555556
        k(    2) = (   0.0000000   0.0345490   0.0000000), wk =   0.1111111
        k(    3) = (   0.0000000   0.0690981   0.0000000), wk =   0.1111111
        k(    4) = (   0.0000000  -0.1036471   0.0000000), wk =   0.0555556
        k(    5) = (   0.0299203   0.0172745   0.0000000), wk =   0.1111111
        k(    6) = (   0.0299203   0.0518235   0.0000000), wk =   0.1111111
        k(    7) = (   0.0299203   0.0863726   0.0000000), wk =   0.1111111
        k(    8) = (   0.0299203  -0.0863726   0.0000000), wk =   0.1111111
        k(    9) = (   0.0299203  -0.0518235   0.0000000), wk =   0.1111111
        k(   10) = (   0.0299203  -0.0172745   0.0000000), wk =   0.1111111
        k(   11) = (   0.0598407   0.0345490   0.0000000), wk =   0.1111111
        k(   12) = (   0.0598407   0.0690981   0.0000000), wk =   0.1111111
        k(   13) = (   0.0598407   0.1036471   0.0000000), wk =   0.1111111
        k(   14) = (   0.0598407  -0.0690981   0.0000000), wk =   0.1111111
        k(   15) = (   0.0598407  -0.0345490   0.0000000), wk =   0.1111111
        k(   16) = (   0.0598407   0.0000000   0.0000000), wk =   0.1111111
        k(   17) = (  -0.0897610  -0.0518235   0.0000000), wk =   0.0555556
        k(   18) = (  -0.0897610  -0.0172745   0.0000000), wk =   0.1111111
        k(   19) = (  -0.0897610   0.0172745   0.0000000), wk =   0.1111111
        k(   20) = (  -0.0897610  -0.1554706   0.0000000), wk =   0.0555556

     Largest allocated arrays     est. size (Mb)     dimensions
     Largest temporary arrays     est. size (Mb)     dimensions

     Check: negative/imaginary core charge=   -0.000001    0.000000

     Initial potential from superposition of free atoms
     Check: negative starting charge=   -0.498271

     starting charge  163.49875, renormalised to  168.00000

     negative rho (up, down):  5.120E-01 0.000E+00

     *
     * You are using vdW-DF for exchange-correlation in this calculation.
     * Please cite the following three references that made this development
     * possible:
     *
     *   M. Dion, H. Rydberg, E. Schroder, D. C. Langreth, and
     *   B. I. Lundqvist, Phys. Rev. Lett. 92, 246401 (2004).
     *
     *   T. Thonhauser, V. R. Cooper, S. Li, A. Puzder, P. Hyldgaard, and
     *   D. C. Langreth, Phys. Rev. B 76, 125112 (2007).
     *
     *   G. Roman-Perez and J. M. Soler, Phys. Rev. Lett. 103, 096102 (2009).
     *
     *
     * If you are using vdW-DF2, please also cite:
     *
     *   K. Lee, E. D. Murray, L. Kong, B. I. Lundqvist, and
     *   D. C. Langreth, Phys. Rev. B 82, 081101(R) (2010).
     *
     *
     * If you are calculating the stress with vdW-DF, please also cite:
     *
     *   R. Sabatini, E. Kucukbenli, B. Kolb, T. Thonhauser, and
     *   S. de Gironcoli, J. Phys.: Condens. Matter 24, 424209 (2012).
     *

     Carrying out vdW-DF run using the following parameters:

     Nqs =      20    Nr_points =    1024   r_max =   100.000
     q_mesh =
               0.00001000     0.04494208     0.09755937     0.15916263
               0.23128650     0.31572767     0.41458969     0.53033537
               0.66584808     0.82450364     1.01025438     1.22772762
               1.48234092     1.78043706     2.12944203     2.53805004
               3.01644009     3.57652955     4.23227104     5.00000000

     Gradients computed in reciprocal space

     Adding external electric field

     Computed dipole along edir(3) :
        Dipole                0.0000 Ry au,          0.0000 Debye
        Dipole field          0.0000 Ry au

        Potential amp.       -0.0000 Ry
        Total length         45.2296 bohr

     Starting wfc are  135 randomized atomic wfcs

     Self-consistent Calculation

     iteration #  1     ecut=    36.75 Ry     beta=0.10
     Davidson diagonalization with overlap
     ethr =  1.00E-02,  avg # of iterations =  7.7

[...]

     total energy              =   -1900.04847467 Ry
     Harris-Foulkes estimate   =   -1900.73919195 Ry
     estimated scf accuracy    <       4.30984620 Ry

[...]

     End of self-consistent calculation

          k = 0.0000 0.0000 0.0000 ( 16703 PWs)   bands (ev):

   -45.4075 -45.3112 -45.3112 -45.2410 -45.2315 -45.2314 -45.1449 -45.1350
   -45.1264 -45.0141 -45.0141 -44.9868 -44.9867 -44.9626 -44.9626 -44.8046
   -44.7997 -44.7882 -44.7882 -44.7857 -44.7857 -44.7788 -44.7462 -44.7386
   -44.7386 -44.7214 -44.7213  -6.0517  -4.7122  -4.6303  -4.6290  -4.6290
    -4.3973  -4.3973  -4.1303  -4.0868  -4.0863  -4.0863  -3.9851  -3.9851
    -3.6028  -3.1005  -3.0817  -3.0817  -2.8971  -2.8971  -2.4035  -2.0710
    -1.8857  -1.8444  -1.6543  -1.6543  -1.4474  -1.4474  -1.2370  -1.2370
    -1.2326  -1.2326  -0.8276  -0.7055  -0.4333  -0.4333  -0.2888  -0.2888
    -0.1797  -0.1797   0.0075   0.3391   0.3391   0.4621   0.5110   0.8280
     0.8280   0.9977   1.0185   1.0185   1.1108   1.1108   1.3015   1.3015
     1.3696   1.3696   1.4736   1.4823   1.4823   1.6912   1.6912   1.8240
     2.0813   2.1254   2.2567   2.9059   2.9059   3.2376   4.4256   4.5602
     4.5602   4.5998   4.7111   4.7111   5.6349   5.9311   6.2511   6.9657
     7.0765   7.3936   8.0600   8.3632   8.4360   8.4360   8.4583   8.4583
     9.6177   9.6541

[...]

          k =-0.0898-0.0518 0.0000 ( 16776 PWs)   bands (ev):

[...]

     the Fermi energy is     1.1364 ev

!    total energy              =   -1899.75265730 Ry
     Harris-Foulkes estimate   =   -1899.75791845 Ry
     estimated scf accuracy    <       0.00000020 Ry

     The total energy is the sum of the following terms:

     one-electron contribution =  -15589.85499064 Ry
     hartree contribution      =    7849.58586253 Ry
     xc contribution           =    -471.01081944 Ry
     ewald contribution        =    6311.65780112 Ry
     electric field correction =       0.00000000 Ry
     smearing contrib. (-TS)   =      -0.13051087 Ry

     convergence has been achieved in  19 iterations

 BEEF-vdW xc energy contributions
           1 :   -414.482160855250
           2 :    382.567480577324
           3 :   -326.650105966623
           4 :    259.469382243577
           5 :   -194.183645492096
           6 :    140.483197754396
           7 :   -102.523523891370
           8 :    79.0814974965526
           9 :   -65.5026748565882
[...]
     Generated by new atomic code, or converted to UPF format
     Using radial grid of  969 points,  7 beta functions with:
                l(1) =   0
                l(2) =   0
                l(3) =   1
                l(4) =   1
                l(5) =   2
                l(6) =   2
                l(7) =   2
     Q(r) pseudized with  8 coefficients,  rinner =    1.200   1.200   1.200
                                                       1.200   1.200

     PseudoPot. # 2 for Au read from file:
     /afs/slac.stanford.edu/u/if/mamunm/psp/gbrv1.5pbe/Au.UPF
     MD5 check sum: 9d7f43293ad2c663164586bc4b293ffc
     Pseudo is Ultrasoft + core correction, Zval = 11.0
     Generated by new atomic code, or converted to UPF format
     Using radial grid of  985 points,  7 beta functions with:
                l(1) =   0
                l(2) =   0
                l(3) =   1
                l(4) =   1
                l(5) =   2
                l(6) =   2
                l(7) =   3
     Q(r) pseudized with  6 coefficients,  rinner =    1.900   1.900   1.900
                                                       1.900   1.900   1.900
                                                       1.900

     vdW kernel table read from file vdW_kernel_table
     MD5 check sum: 095c7af220d748ca6e76c0b4c6cfb241

     atomic species   valence    mass     pseudopotential
        Rh1           15.00   102.90550     Rh( 1.00)
        Au1           11.00   196.96657     Au( 1.00)

     No symmetry found

   Cartesian axes

     site n.     atom                  positions (alat units)
         1           Rh1 tau(   1) = (   0.0000000   0.0000000  10.0000000  )
         2           Rh1 tau(   2) = (  -1.3925867   2.4120310  10.0000000  )
         3           Rh1 tau(   3) = (   1.3925867   2.4120310  10.0000000  )
         4           Au1 tau(   4) = (   2.7851735   0.0000000  10.0000000  )
         5           Rh1 tau(   5) = (   2.7851735   1.6080206  12.2740846  )
         6           Rh1 tau(   6) = (   1.3925867   4.0200516  12.2740846  )
         7           Rh1 tau(   7) = (  -1.3925867   4.0200516  12.2740846  )
         8           Au1 tau(   8) = (   0.0000000   1.6080206  12.2740846  )
         9           Rh1 tau(   9) = (   0.0000021   3.2582329  14.4775758  )
        10           Rh1 tau(  10) = (   1.4291313   0.7829074  14.4775800  )
        11           Rh1 tau(  11) = (   4.1412205   0.7829106  14.4775770  )
        12           Au1 tau(  12) = (   2.7851707   3.2160612  14.7060762  )

     number of k points=    20  Fermi-Dirac smearing, width (Ry)=  0.0110
                       cart. coord. in units 2pi/alat
        k(    1) = (   0.0000000   0.0000000   0.0000000), wk =   0.0555556
        k(    2) = (   0.0000000   0.0345490   0.0000000), wk =   0.1111111
        k(    3) = (   0.0000000   0.0690981   0.0000000), wk =   0.1111111
        k(    4) = (   0.0000000  -0.1036471   0.0000000), wk =   0.0555556
        k(    5) = (   0.0299203   0.0172745   0.0000000), wk =   0.1111111
        k(    6) = (   0.0299203   0.0518235   0.0000000), wk =   0.1111111
        k(    7) = (   0.0299203   0.0863726   0.0000000), wk =   0.1111111
        k(    8) = (   0.0299203  -0.0863726   0.0000000), wk =   0.1111111
        k(    9) = (   0.0299203  -0.0518235   0.0000000), wk =   0.1111111
        k(   10) = (   0.0299203  -0.0172745   0.0000000), wk =   0.1111111
        k(   11) = (   0.0598407   0.0345490   0.0000000), wk =   0.1111111
        k(   12) = (   0.0598407   0.0690981   0.0000000), wk =   0.1111111
        k(   13) = (   0.0598407   0.1036471   0.0000000), wk =   0.1111111
        k(   14) = (   0.0598407  -0.0690981   0.0000000), wk =   0.1111111
        k(   15) = (   0.0598407  -0.0345490   0.0000000), wk =   0.1111111
        k(   16) = (   0.0598407   0.0000000   0.0000000), wk =   0.1111111
        k(   17) = (  -0.0897610  -0.0518235   0.0000000), wk =   0.0555556
        k(   18) = (  -0.0897610  -0.0172745   0.0000000), wk =   0.1111111
        k(   19) = (  -0.0897610   0.0172745   0.0000000), wk =   0.1111111
        k(   20) = (  -0.0897610  -0.1554706   0.0000000), wk =   0.0555556

     Largest allocated arrays     est. size (Mb)     dimensions
     Largest temporary arrays     est. size (Mb)     dimensions

     Check: negative/imaginary core charge=   -0.000001    0.000000

     Initial potential from superposition of free atoms
     Check: negative starting charge=   -0.495213

     starting charge  163.49875, renormalised to  168.00000

[...]

     *
     * You are using vdW-DF for exchange-correlation in this calculation.
     * Please cite the following three references that made this development
     * possible:
     *
     *   M. Dion, H. Rydberg, E. Schroder, D. C. Langreth, and
     *   B. I. Lundqvist, Phys. Rev. Lett. 92, 246401 (2004).
     *
     *   T. Thonhauser, V. R. Cooper, S. Li, A. Puzder, P. Hyldgaard, and
     *   D. C. Langreth, Phys. Rev. B 76, 125112 (2007).
     *
     *   G. Roman-Perez and J. M. Soler, Phys. Rev. Lett. 103, 096102 (2009).
     *
     *
     * If you are using vdW-DF2, please also cite:
     *
     *   K. Lee, E. D. Murray, L. Kong, B. I. Lundqvist, and
     *   D. C. Langreth, Phys. Rev. B 82, 081101(R) (2010).
     *
     *
     * If you are calculating the stress with vdW-DF, please also cite:
     *
     *   R. Sabatini, E. Kucukbenli, B. Kolb, T. Thonhauser, and
     *   S. de Gironcoli, J. Phys.: Condens. Matter 24, 424209 (2012).
     *

     Carrying out vdW-DF run using the following parameters:

     Nqs =      20    Nr_points =    1024   r_max =   100.000
     q_mesh =
               0.00001000     0.04494208     0.09755937     0.15916263
               0.23128650     0.31572767     0.41458969     0.53033537
               0.66584808     0.82450364     1.01025438     1.22772762
               1.48234092     1.78043706     2.12944203     2.53805004
               3.01644009     3.57652955     4.23227104     5.00000000

     Gradients computed in reciprocal space

[...]

     Starting wfc are  135 randomized atomic wfcs

     Self-consistent Calculation

[...]

     total energy              =   -1899.76928328 Ry
     Harris-Foulkes estimate   =   -1899.76928261 Ry
     estimated scf accuracy    <       0.00000161 Ry

     iteration # 17     ecut=    36.75 Ry     beta=0.10
     Davidson diagonalization with overlap
     ethr =  9.59E-10,  avg # of iterations =  3.0

[...]

     negative rho (up, down):  5.133E-01 0.000E+00

     Adding external electric field

     Computed dipole along edir(3) :
        Dipole               -0.0106 Ry au,         -0.0269 Debye
        Dipole field         -0.0000 Ry au

        Potential amp.        0.0027 Ry
        Total length         45.2296 bohr

     End of self-consistent calculation

[...]

          k = 0.0598 0.0000 0.0000 ( 16738 PWs)   bands (ev):

[...]

          k =-0.0898-0.1555 0.0000 ( 16776 PWs)   bands (ev):

   -45.3975 -45.3363 -45.3018 -45.2987 -45.2619 -45.2225 -45.1754 -45.1368
   -45.1165 -45.0630 -45.0217 -45.0178 -44.9746 -44.9572 -44.9471 -44.9338
   -44.9174 -44.9008 -44.8895 -44.8571 -44.8438 -44.8405 -44.8271 -44.7984
   -44.7573 -44.7441 -44.7348  -4.8730  -4.3504  -4.1138  -4.1007  -3.9814
    -3.7974  -3.7419  -3.5842  -3.5415  -3.4941  -3.2708  -3.1805  -3.1583
    -3.1267  -3.0191  -2.8182  -2.7290  -2.6634  -2.5643  -2.5415  -2.3939
    -2.3251  -2.1359  -1.8840  -1.8528  -1.7183  -1.6766  -1.5139  -1.5077
    -1.4347  -1.1827  -1.1466  -1.0602  -0.8478  -0.8259  -0.7682  -0.7566
    -0.7565  -0.6048  -0.5802  -0.4988  -0.3656  -0.2737  -0.2142  -0.1371
    -0.1034   0.0919   0.1337   0.1437   0.2026   0.3427   0.4359   0.4720
     0.5762   0.6679   0.7855   0.8426   0.9632   1.0956   1.1446   1.1580
     1.3309   1.5309   1.8790   2.9900   3.2663   3.5745   4.0408   4.4643
     4.7949   5.5290   5.6951   6.5089   6.6400   7.1833   7.1875   7.7632
     7.7878   7.8443   7.8529   8.8679   8.9697   9.0069   9.1654   9.4260
     9.4609   9.7316

     the Fermi energy is     1.1226 ev

!    total energy              =   -1899.76928384 Ry
     Harris-Foulkes estimate   =   -1899.76928347 Ry
     estimated scf accuracy    <       0.00000054 Ry

     The total energy is the sum of the following terms:

     one-electron contribution =  -15645.01094192 Ry
     hartree contribution      =    7877.02736526 Ry
     xc contribution           =    -471.04697003 Ry
     ewald contribution        =    6339.38788266 Ry
     electric field correction =       0.00000032 Ry
     smearing contrib. (-TS)   =      -0.12662013 Ry

     convergence has been achieved in  17 iterations

 BEEF-vdW xc energy contributions
           1 :   -414.733289775603
           2 :    382.827337857172
           3 :   -326.921000110343
           4 :    259.742484494621
           5 :   -194.441460100811
           6 :    140.708852024031
           7 :   -102.710748372973
           8 :    79.2390954213462
           9 :   -65.6509808276455
          10 :    56.5419180294185
          11 :   -47.9874982908254
          12 :    38.5530279862063
          13 :   -28.9506659131763
          14 :    20.8205643915308
          15 :   -15.4082362906933
          16 :    12.7839194715264
          17 :   -11.8684215819960
          18 :    11.0927952818492
          19 :   -9.24957396640752
          20 :    6.05821423235324
          21 :   -2.18497584212309
          22 :   -1.22531532181404
          23 :    3.19982664525548
          24 :   -3.42189912657375
          25 :    2.32902390288461
          26 :  -0.827330648218208
          27 :  -0.190852782656918
          28 :   0.259860540118325
          29 :   0.515642839668601
          30 :   -1.62540941352745
          31 :   -37.5277137267950
          32 :   -27.8510724335235

     Forces acting on atoms (Ry/au):

     negative rho (up, down):  5.133E-01 0.000E+00
     atom    1 type  1   force =     0.00000109   -0.01255261    0.01335649
     atom    2 type  1   force =    -0.01087186    0.00627712    0.01335716
     atom    3 type  1   force =     0.01087434    0.00627786    0.01335746
     atom    4 type  2   force =     0.00000378   -0.00000984   -0.03415546
     atom    5 type  1   force =     0.00000089    0.01286303    0.00027336
     atom    6 type  1   force =     0.01114101   -0.00643166    0.00027440
     atom    7 type  1   force =    -0.01113876   -0.00643047    0.00027253
     atom    8 type  2   force =    -0.00000906    0.00000006   -0.00892985
     atom    9 type  1   force =    -0.00000062   -0.00023688    0.00043731
     atom   10 type  1   force =    -0.00020378    0.00012326    0.00043654
     atom   11 type  1   force =     0.00020413    0.00012328    0.00043718
     atom   12 type  2   force =    -0.00000116   -0.00000316    0.00088289

     Total force =     0.052464     Total SCF correction =     0.002142

     entering subroutine stress ...

     negative rho (up, down):  5.133E-01 0.000E+00
          total   stress  (Ry/bohr**3)                   (kbar)     P=  -28.22
  -0.00022868  -0.00000000  -0.00000000        -33.64     -0.00     -0.00
  -0.00000000  -0.00022868  -0.00000000         -0.00    -33.64     -0.00
  -0.00000000  -0.00000000  -0.00011809         -0.00     -0.00    -17.37

 !ASE

     Writing output data file calc.save

     General routines

     Parallel routines

   This run was terminated on:  22:27:36  31Dec2018

   JOB DONE.
Job  /afs/slac/g/suncat/bin/suncat-tsmpirun -x LD_LIBRARY_PATH -wdir /scratch/qe648863_c9ICL pw.x -in pw.inp

TID   HOST_NAME   COMMAND_LINE            STATUS            TERMINATION_TIME
00000 suncat0139 pw.x -in pw.inp   Done                     12/31/2018 22:27:36
00001 suncat0139 pw.x -in pw.inp   Done                     12/31/2018 22:27:36
00002 suncat0139 pw.x -in pw.inp   Done                     12/31/2018 22:27:36
00003 suncat0139 pw.x -in pw.inp   Done                     12/31/2018 22:27:36
00004 suncat0139 pw.x -in pw.inp   Done                     12/31/2018 22:27:36
00005 suncat0139 pw.x -in pw.inp   Done                     12/31/2018 22:27:36
00006 suncat0139 pw.x -in pw.inp   Done                     12/31/2018 22:27:36
00007 suncat0139 pw.x -in pw.inp   Done                     12/31/2018 22:27:36
00008 suncat0133 pw.x -in pw.inp   Done                     12/31/2018 22:27:36
00009 suncat0133 pw.x -in pw.inp   Done                     12/31/2018 22:27:36
00010 suncat0133 pw.x -in pw.inp   Done                     12/31/2018 22:27:36
00011 suncat0133 pw.x -in pw.inp   Done                     12/31/2018 22:27:36
00012 suncat0133 pw.x -in pw.inp   Done                     12/31/2018 22:27:36
00013 suncat0133 pw.x -in pw.inp   Done                     12/31/2018 22:27:36
00014 suncat0133 pw.x -in pw.inp   Done                     12/31/2018 22:27:36
00015 suncat0133 pw.x -in pw.inp   Done                     12/31/2018 22:27:36
00016 suncat0132 pw.x -in pw.inp   Done                     12/31/2018 22:27:36
00017 suncat0132 pw.x -in pw.inp   Done                     12/31/2018 22:27:36
00018 suncat0132 pw.x -in pw.inp   Done                     12/31/2018 22:27:36
00019 suncat0132 pw.x -in pw.inp   Done                     12/31/2018 22:27:36
00020 suncat0132 pw.x -in pw.inp   Done                     12/31/2018 22:27:36
00021 suncat0132 pw.x -in pw.inp   Done                     12/31/2018 22:27:36
00022 suncat0132 pw.x -in pw.inp   Done                     12/31/2018 22:27:36
00023 suncat0132 pw.x -in pw.inp   Done                     12/31/2018 22:27:36
00024 suncat0131 pw.x -in pw.inp   Done                     12/31/2018 22:27:36
00025 suncat0131 pw.x -in pw.inp   Done                     12/31/2018 22:27:36
00026 suncat0131 pw.x -in pw.inp   Done                     12/31/2018 22:27:36
00027 suncat0131 pw.x -in pw.inp   Done                     12/31/2018 22:27:36
00028 suncat0131 pw.x -in pw.inp   Done                     12/31/2018 22:27:36
00029 suncat0131 pw.x -in pw.inp   Done                     12/31/2018 22:27:36
00030 suncat0131 pw.x -in pw.inp   Done                     12/31/2018 22:27:36
00031 suncat0131 pw.x -in pw.inp   Done                     12/31/2018 22:27:36
00032 suncat0130 pw.x -in pw.inp   Done                     12/31/2018 22:27:36
00033 suncat0130 pw.x -in pw.inp   Done                     12/31/2018 22:27:36
00034 suncat0130 pw.x -in pw.inp   Done                     12/31/2018 22:27:36
00035 suncat0130 pw.x -in pw.inp   Done                     12/31/2018 22:27:36
00036 suncat0130 pw.x -in pw.inp   Done                     12/31/2018 22:27:36
00037 suncat0130 pw.x -in pw.inp   Done                     12/31/2018 22:27:36
00038 suncat0130 pw.x -in pw.inp   Done                     12/31/2018 22:27:36
00039 suncat0130 pw.x -in pw.inp   Done                     12/31/2018 22:27:36
00040 suncat0124 pw.x -in pw.inp   Done                     12/31/2018 22:27:36
00041 suncat0124 pw.x -in pw.inp   Done                     12/31/2018 22:27:36
00042 suncat0124 pw.x -in pw.inp   Done                     12/31/2018 22:27:36
00043 suncat0124 pw.x -in pw.inp   Done                     12/31/2018 22:27:36
00044 suncat0124 pw.x -in pw.inp   Done                     12/31/2018 22:27:36
00045 suncat0124 pw.x -in pw.inp   Done                     12/31/2018 22:27:36
00046 suncat0124 pw.x -in pw.inp   Done                     12/31/2018 22:27:36
00047 suncat0124 pw.x -in pw.inp   Done                     12/31/2018 22:27:36
00048 suncat0123 pw.x -in pw.inp   Done                     12/31/2018 22:27:36
00049 suncat0123 pw.x -in pw.inp   Done                     12/31/2018 22:27:36
00050 suncat0123 pw.x -in pw.inp   Done                     12/31/2018 22:27:36
00051 suncat0123 pw.x -in pw.inp   Done                     12/31/2018 22:27:36
00052 suncat0123 pw.x -in pw.inp   Done                     12/31/2018 22:27:36
00053 suncat0123 pw.x -in pw.inp   Done                     12/31/2018 22:27:36
00054 suncat0123 pw.x -in pw.inp   Done                     12/31/2018 22:27:36
00055 suncat0123 pw.x -in pw.inp   Done                     12/31/2018 22:27:36
00056 suncat0122 pw.x -in pw.inp   Done                     12/31/2018 22:27:36
00057 suncat0122 pw.x -in pw.inp   Done                     12/31/2018 22:27:36
00058 suncat0122 pw.x -in pw.inp   Done                     12/31/2018 22:27:36
00059 suncat0122 pw.x -in pw.inp   Done                     12/31/2018 22:27:36
00060 suncat0122 pw.x -in pw.inp   Done                     12/31/2018 22:27:36
00061 suncat0122 pw.x -in pw.inp   Done                     12/31/2018 22:27:36
00062 suncat0122 pw.x -in pw.inp   Done                     12/31/2018 22:27:36
00063 suncat0122 pw.x -in pw.inp   Done                     12/31/2018 22:27:36