     Program PWSCF v.5.1rc2 (svn rev. 11289) starts on 30Dec2018 at  5:11:25

     Current dimensions of program PWSCF are:
     Max number of different atomic species (ntypx) = 10
     Max number of k-points (npk) =  40000
     Max angular momentum in pseudopotentials (lmaxx) =  3
     Presently stress not available with electric field

     IMPORTANT: XC functional enforced from input :
     Exchange-correlation      = BEEF-VDW ( 1  4 27 13 2)
     Any further DFT definition will be discarded
     Please, verify this is what you really want

     Subspace diagonalization in iterative solution of the eigenvalue problem:
     a serial algorithm will be used

     bravais-lattice index     =            0
     lattice parameter (alat)  =       1.8897  a.u.
     unit-cell volume          =    5247.1659 (a.u.)^3
     number of atoms/cell      =           12
     number of atomic types    =            2
     number of electrons       =       204.00
     number of Kohn-Sham states=          132
     kinetic-energy cutoff     =      36.7493  Ry
     charge density cutoff     =     367.4932  Ry
     convergence threshold     =      1.0E-06
     mixing beta               =       0.1000
     number of iterations used =           10  plain     mixing
     Exchange-correlation      = BEEF-VDW ( 1  4 27 13 2)
     nstep                     =           50

     celldm(1)=   1.889726  celldm(2)=   0.000000  celldm(3)=   0.000000
     celldm(4)=   0.000000  celldm(5)=   0.000000  celldm(6)=   0.000000

     crystal axes: (cart. coord. in units of alat)
               a(1) = (   6.004489   0.000000   0.000000 )
               a(2) = (  -3.002244   5.200040   0.000000 )
               a(3) = (   0.000000   0.000000  24.902645 )

     reciprocal axes: (cart. coord. in units 2 pi/alat)
               b(1) = (  0.166542  0.096153  0.000000 )
               b(2) = (  0.000000  0.192306  0.000000 )
               b(3) = (  0.000000  0.000000  0.040156 )

     PseudoPot. # 1 for Ga read from file:
     /afs/slac.stanford.edu/u/if/mamunm/psp/gbrv1.5pbe/Ga.UPF
     MD5 check sum: ccd671392a58a050fbb373893b4fcd66
     Pseudo is Ultrasoft + core correction, Zval = 19.0
     Generated by new atomic code, or converted to UPF format
     Using radial grid of  871 points,  6 beta functions with:
                l(1) =   0
                l(2) =   0
                l(3) =   1
                l(4) =   1
                l(5) =   2
                l(6) =   2
     Q(r) pseudized with  8 coefficients,  rinner =    1.250   1.250   1.250
                                                       1.250   1.250

     PseudoPot. # 2 for Au read from file:
     /afs/slac.stanford.edu/u/if/mamunm/psp/gbrv1.5pbe/Au.UPF
     MD5 check sum: 9d7f43293ad2c663164586bc4b293ffc
     Pseudo is Ultrasoft + core correction, Zval = 11.0
     Generated by new atomic code, or converted to UPF format
     Using radial grid of  985 points,  7 beta functions with:
                l(1) =   0
                l(2) =   0
                l(3) =   1
                l(4) =   1
                l(5) =   2
                l(6) =   2
                l(7) =   3
     Q(r) pseudized with  6 coefficients,  rinner =    1.900   1.900   1.900
                                                       1.900   1.900   1.900
                                                       1.900

     vdW kernel table read from file vdW_kernel_table
     MD5 check sum: 095c7af220d748ca6e76c0b4c6cfb241

     atomic species   valence    mass     pseudopotential
        Ga1           19.00    69.72300     Ga( 1.00)
        Au1           11.00   196.96657     Au( 1.00)

     No symmetry found

   Cartesian axes

     site n.     atom                  positions (alat units)
         1           Ga1 tau(   1) = (   0.0000000   0.0000000  10.0000000  )
         2           Ga1 tau(   2) = (  -1.5011222   2.6000200  10.0000000  )
         3           Ga1 tau(   3) = (   1.5011222   2.6000200  10.0000000  )
         4           Au1 tau(   4) = (   3.0022444   0.0000000  10.0000000  )
         5           Ga1 tau(   5) = (   3.0022444   1.7333466  12.4513223  )
         6           Ga1 tau(   6) = (   1.5011222   4.3333666  12.4513223  )
         7           Ga1 tau(   7) = (  -1.5011222   4.3333666  12.4513223  )
         8           Au1 tau(   8) = (   0.0000000   1.7333466  12.4513223  )
         9           Ga1 tau(   9) = (  -0.0000000   3.4666933  14.9026446  )
        10           Ga1 tau(  10) = (   1.5011222   0.8666733  14.9026446  )
        11           Ga1 tau(  11) = (   4.5033667   0.8666733  14.9026446  )
        12           Au1 tau(  12) = (   3.0022444   3.4666933  14.9026446  )

     number of k points=    20  Fermi-Dirac smearing, width (Ry)=  0.0110
                       cart. coord. in units 2pi/alat
        k(    1) = (   0.0000000   0.0000000   0.0000000), wk =   0.0555556
        k(    2) = (   0.0000000   0.0320510   0.0000000), wk =   0.1111111
        k(    3) = (   0.0000000   0.0641021   0.0000000), wk =   0.1111111
        k(    4) = (   0.0000000  -0.0961531   0.0000000), wk =   0.0555556
        k(    5) = (   0.0277570   0.0160255   0.0000000), wk =   0.1111111
        k(    6) = (   0.0277570   0.0480766   0.0000000), wk =   0.1111111
        k(    7) = (   0.0277570   0.0801276   0.0000000), wk =   0.1111111
        k(    8) = (   0.0277570  -0.0801276   0.0000000), wk =   0.1111111
        k(    9) = (   0.0277570  -0.0480766   0.0000000), wk =   0.1111111
        k(   10) = (   0.0277570  -0.0160255   0.0000000), wk =   0.1111111
        k(   11) = (   0.0555140   0.0320510   0.0000000), wk =   0.1111111
        k(   12) = (   0.0555140   0.0641021   0.0000000), wk =   0.1111111
        k(   13) = (   0.0555140   0.0961531   0.0000000), wk =   0.1111111
        k(   14) = (   0.0555140  -0.0641021   0.0000000), wk =   0.1111111
        k(   15) = (   0.0555140  -0.0320510   0.0000000), wk =   0.1111111
        k(   16) = (   0.0555140   0.0000000   0.0000000), wk =   0.1111111
        k(   17) = (  -0.0832710  -0.0480766   0.0000000), wk =   0.0555556
        k(   18) = (  -0.0832710  -0.0160255   0.0000000), wk =   0.1111111
        k(   19) = (  -0.0832710   0.0160255   0.0000000), wk =   0.1111111
        k(   20) = (  -0.0832710  -0.1442297   0.0000000), wk =   0.0555556

     Largest allocated arrays     est. size (Mb)     dimensions
     Largest temporary arrays     est. size (Mb)     dimensions

     Check: negative/imaginary core charge=   -0.000001    0.000000

     Initial potential from superposition of free atoms
     Check: negative starting charge=   -0.001014

     starting charge  194.99962, renormalised to  204.00000

     negative rho (up, down):  1.061E-03 0.000E+00

     *
     * You are using vdW-DF for exchange-correlation in this calculation.
     * Please cite the following three references that made this development
     * possible:
     *
     *   M. Dion, H. Rydberg, E. Schroder, D. C. Langreth, and
     *   B. I. Lundqvist, Phys. Rev. Lett. 92, 246401 (2004).
     *
     *   T. Thonhauser, V. R. Cooper, S. Li, A. Puzder, P. Hyldgaard, and
     *   D. C. Langreth, Phys. Rev. B 76, 125112 (2007).
     *
     *   G. Roman-Perez and J. M. Soler, Phys. Rev. Lett. 103, 096102 (2009).
     *
     *
     * If you are using vdW-DF2, please also cite:
     *
     *   K. Lee, E. D. Murray, L. Kong, B. I. Lundqvist, and
     *   D. C. Langreth, Phys. Rev. B 82, 081101(R) (2010).
     *
     *
     * If you are calculating the stress with vdW-DF, please also cite:
     *
     *   R. Sabatini, E. Kucukbenli, B. Kolb, T. Thonhauser, and
     *   S. de Gironcoli, J. Phys.: Condens. Matter 24, 424209 (2012).
     *

     Carrying out vdW-DF run using the following parameters:

     Nqs =      20    Nr_points =    1024   r_max =   100.000
     q_mesh =
               0.00001000     0.04494208     0.09755937     0.15916263
               0.23128650     0.31572767     0.41458969     0.53033537
               0.66584808     0.82450364     1.01025438     1.22772762
               1.48234092     1.78043706     2.12944203     2.53805004
               3.01644009     3.57652955     4.23227104     5.00000000

     Gradients computed in reciprocal space

     Adding external electric field

     Computed dipole along edir(3) :
        Dipole               -0.0000 Ry au,         -0.0000 Debye
        Dipole field         -0.0000 Ry au

        Potential amp.        0.0000 Ry
        Total length         45.8827 bohr

     Starting wfc are  135 randomized atomic wfcs

     Self-consistent Calculation

     iteration #  1     ecut=    36.75 Ry     beta=0.10
     Davidson diagonalization with overlap
     ethr =  1.00E-02,  avg # of iterations =  7.5

[...]

     total energy              =   -4101.14871545 Ry
     Harris-Foulkes estimate   =   -4111.19832092 Ry
     estimated scf accuracy    <      56.72934921 Ry

[...]

     End of self-consistent calculation

          k = 0.0000 0.0000 0.0000 ( 19543 PWs)   bands (ev):

   -94.5797 -94.5784 -94.5784 -94.5687 -94.5682 -94.5682 -94.5662 -94.5662
   -94.5656 -94.5536 -94.5535 -94.5534 -94.5534 -94.5533 -94.5533 -94.5411
   -94.5410 -94.5396 -94.5396 -94.5395 -94.5395 -94.5328 -94.5328 -94.5327
   -94.5327 -94.5321 -94.5320 -15.0628 -15.0393 -15.0393 -15.0356 -15.0085
   -15.0005 -14.9904 -14.9742 -14.9742 -14.9699 -14.9699 -14.9669 -14.9669
   -14.9413 -14.9413 -14.9380 -14.9294 -14.9104 -14.8942 -14.8942 -14.8830
   -14.8770 -14.8770 -14.8749 -14.8517 -14.8517 -14.8391 -14.8391 -14.8351
   -14.8336 -14.8336 -14.8248 -14.8248 -14.8158 -14.8158 -14.7913 -14.7913
   -14.7852 -14.7852 -14.7821 -14.7608 -14.7544 -14.7544 -14.7250 -14.7228
    -9.7852  -8.2644  -6.5276  -5.7829  -5.7829  -5.0252  -5.0252  -4.8716
    -4.8716  -4.2141  -4.1287  -3.9577  -3.9577  -3.8566  -3.8566  -3.6031
    -3.6031  -3.2680  -2.8868  -2.6110  -2.6110  -2.4142  -2.4008  -2.4008
    -1.8985  -1.6027  -1.5903  -1.5903  -1.4731  -1.4731  -1.0242  -0.0391
    -0.0391   0.4293   0.4293   0.8688   1.0176   2.0253   3.6177   4.0012
     4.0012   4.0227   4.0227   4.0409   4.5820   4.7846   5.1523   5.4254
     5.6346   6.4917   6.4917   6.6426   6.8747   7.1172   7.3781   7.3781
     7.6108   8.0660   8.1099   8.1099

[...]

          k =-0.0833-0.0481 0.0000 ( 19772 PWs)   bands (ev):

[...]

     the Fermi energy is     0.2416 ev

!    total energy              =   -4099.44722062 Ry
     Harris-Foulkes estimate   =   -4099.44721438 Ry
     estimated scf accuracy    <       0.00000077 Ry

     The total energy is the sum of the following terms:

     one-electron contribution =  -22057.23208432 Ry
     hartree contribution      =   11055.36514148 Ry
     xc contribution           =    -639.34544821 Ry
     ewald contribution        =    7541.79152838 Ry
     electric field correction =       0.00000000 Ry
     smearing contrib. (-TS)   =      -0.02635794 Ry

     convergence has been achieved in  15 iterations

 BEEF-vdW xc energy contributions
           1 :   -570.881351112555
           2 :    522.038157443411
           3 :   -438.719118973565
           4 :    342.997381427214
           5 :   -255.319134671131
[...]
                l(3) =   1
                l(4) =   1
                l(5) =   2
                l(6) =   2
     Q(r) pseudized with  8 coefficients,  rinner =    1.250   1.250   1.250
                                                       1.250   1.250

     PseudoPot. # 2 for Au read from file:
     /afs/slac.stanford.edu/u/if/mamunm/psp/gbrv1.5pbe/Au.UPF
     MD5 check sum: 9d7f43293ad2c663164586bc4b293ffc
     Pseudo is Ultrasoft + core correction, Zval = 11.0
     Generated by new atomic code, or converted to UPF format
     Using radial grid of  985 points,  7 beta functions with:
                l(1) =   0
                l(2) =   0
                l(3) =   1
                l(4) =   1
                l(5) =   2
                l(6) =   2
                l(7) =   3
     Q(r) pseudized with  6 coefficients,  rinner =    1.900   1.900   1.900
                                                       1.900   1.900   1.900
                                                       1.900

     vdW kernel table read from file vdW_kernel_table
     MD5 check sum: 095c7af220d748ca6e76c0b4c6cfb241

     atomic species   valence    mass     pseudopotential
        Ga1           19.00    69.72300     Ga( 1.00)
        Au1           11.00   196.96657     Au( 1.00)

     No symmetry found

   Cartesian axes

     site n.     atom                  positions (alat units)
         1           Ga1 tau(   1) = (   0.0000000   0.0000000  10.0000000  )
         2           Ga1 tau(   2) = (  -1.5011222   2.6000200  10.0000000  )
         3           Ga1 tau(   3) = (   1.5011222   2.6000200  10.0000000  )
         4           Au1 tau(   4) = (   3.0022444   0.0000000  10.0000000  )
         5           Ga1 tau(   5) = (   3.0022444   1.7333466  12.4513223  )
         6           Ga1 tau(   6) = (   1.5011222   4.3333666  12.4513223  )
         7           Ga1 tau(   7) = (  -1.5011222   4.3333666  12.4513223  )
         8           Au1 tau(   8) = (   0.0000000   1.7333466  12.4513223  )
         9           Ga1 tau(   9) = (  -0.0000042   3.4236845  14.9834883  )
        10           Ga1 tau(  10) = (   1.4638780   0.8881974  14.9833928  )
        11           Ga1 tau(  11) = (   4.5405903   0.8881907  14.9834368  )
        12           Au1 tau(  12) = (   3.0022552   3.4667139  14.8142297  )

     number of k points=    20  Fermi-Dirac smearing, width (Ry)=  0.0110
                       cart. coord. in units 2pi/alat
        k(    1) = (   0.0000000   0.0000000   0.0000000), wk =   0.0555556
        k(    2) = (   0.0000000   0.0320510   0.0000000), wk =   0.1111111
        k(    3) = (   0.0000000   0.0641021   0.0000000), wk =   0.1111111
        k(    4) = (   0.0000000  -0.0961531   0.0000000), wk =   0.0555556
        k(    5) = (   0.0277570   0.0160255   0.0000000), wk =   0.1111111
        k(    6) = (   0.0277570   0.0480766   0.0000000), wk =   0.1111111
        k(    7) = (   0.0277570   0.0801276   0.0000000), wk =   0.1111111
        k(    8) = (   0.0277570  -0.0801276   0.0000000), wk =   0.1111111
        k(    9) = (   0.0277570  -0.0480766   0.0000000), wk =   0.1111111
        k(   10) = (   0.0277570  -0.0160255   0.0000000), wk =   0.1111111
        k(   11) = (   0.0555140   0.0320510   0.0000000), wk =   0.1111111
        k(   12) = (   0.0555140   0.0641021   0.0000000), wk =   0.1111111
        k(   13) = (   0.0555140   0.0961531   0.0000000), wk =   0.1111111
        k(   14) = (   0.0555140  -0.0641021   0.0000000), wk =   0.1111111
        k(   15) = (   0.0555140  -0.0320510   0.0000000), wk =   0.1111111
        k(   16) = (   0.0555140   0.0000000   0.0000000), wk =   0.1111111
        k(   17) = (  -0.0832710  -0.0480766   0.0000000), wk =   0.0555556
        k(   18) = (  -0.0832710  -0.0160255   0.0000000), wk =   0.1111111
        k(   19) = (  -0.0832710   0.0160255   0.0000000), wk =   0.1111111
        k(   20) = (  -0.0832710  -0.1442297   0.0000000), wk =   0.0555556

     Largest allocated arrays     est. size (Mb)     dimensions
     Largest temporary arrays     est. size (Mb)     dimensions

     Check: negative/imaginary core charge=   -0.000001    0.000000

     Initial potential from superposition of free atoms
     Check: negative starting charge=   -0.001046

     starting charge  194.99962, renormalised to  204.00000

[...]

     *
     * You are using vdW-DF for exchange-correlation in this calculation.
     * Please cite the following three references that made this development
     * possible:
     *
     *   M. Dion, H. Rydberg, E. Schroder, D. C. Langreth, and
     *   B. I. Lundqvist, Phys. Rev. Lett. 92, 246401 (2004).
     *
     *   T. Thonhauser, V. R. Cooper, S. Li, A. Puzder, P. Hyldgaard, and
     *   D. C. Langreth, Phys. Rev. B 76, 125112 (2007).
     *
     *   G. Roman-Perez and J. M. Soler, Phys. Rev. Lett. 103, 096102 (2009).
     *
     *
     * If you are using vdW-DF2, please also cite:
     *
     *   K. Lee, E. D. Murray, L. Kong, B. I. Lundqvist, and
     *   D. C. Langreth, Phys. Rev. B 82, 081101(R) (2010).
     *
     *
     * If you are calculating the stress with vdW-DF, please also cite:
     *
     *   R. Sabatini, E. Kucukbenli, B. Kolb, T. Thonhauser, and
     *   S. de Gironcoli, J. Phys.: Condens. Matter 24, 424209 (2012).
     *

     Carrying out vdW-DF run using the following parameters:

     Nqs =      20    Nr_points =    1024   r_max =   100.000
     q_mesh =
               0.00001000     0.04494208     0.09755937     0.15916263
               0.23128650     0.31572767     0.41458969     0.53033537
               0.66584808     0.82450364     1.01025438     1.22772762
               1.48234092     1.78043706     2.12944203     2.53805004
               3.01644009     3.57652955     4.23227104     5.00000000

     Gradients computed in reciprocal space

[...]

     Starting wfc are  135 randomized atomic wfcs

     Self-consistent Calculation

[...]

     total energy              =   -4099.47825105 Ry
     Harris-Foulkes estimate   =   -4099.47824967 Ry
     estimated scf accuracy    <       0.00000160 Ry

     iteration # 15     ecut=    36.75 Ry     beta=0.10
     Davidson diagonalization with overlap
     ethr =  7.82E-10,  avg # of iterations =  2.0

[...]

     negative rho (up, down):  8.603E-04 0.000E+00

     Adding external electric field

     Computed dipole along edir(3) :
        Dipole                0.0303 Ry au,          0.0769 Debye
        Dipole field          0.0001 Ry au

        Potential amp.       -0.0067 Ry
        Total length         45.8827 bohr

     End of self-consistent calculation

[...]

          k = 0.0555 0.0000 0.0000 ( 19741 PWs)   bands (ev):

[...]

          k =-0.0833-0.1442 0.0000 ( 19772 PWs)   bands (ev):

   -94.5431 -94.5430 -94.5429 -94.5399 -94.5395 -94.5391 -94.5309 -94.5307
   -94.5306 -94.5281 -94.5280 -94.5278 -94.5276 -94.5274 -94.5268 -94.5208
   -94.5206 -94.5203 -94.5102 -94.5101 -94.5100 -94.4974 -94.4969 -94.4964
   -94.4902 -94.4900 -94.4898 -14.9942 -14.9656 -14.9610 -14.9482 -14.9349
   -14.9322 -14.9229 -14.9203 -14.9116 -14.9099 -14.9034 -14.9032 -14.8927
   -14.8873 -14.8821 -14.8757 -14.8678 -14.8654 -14.8591 -14.8546 -14.8505
   -14.8474 -14.8428 -14.8414 -14.8355 -14.8335 -14.8314 -14.8303 -14.8265
   -14.8209 -14.8181 -14.8149 -14.8141 -14.8059 -14.8049 -14.7989 -14.7971
   -14.7922 -14.7911 -14.7786 -14.7720 -14.7678 -14.7534 -14.7353 -14.7110
    -8.3679  -8.2085  -6.9439  -6.8493  -6.0519  -5.6770  -5.2281  -5.0040
    -4.7357  -4.3794  -4.3231  -4.1912  -4.0972  -4.0016  -3.9982  -3.8958
    -3.7868  -3.7637  -3.5924  -3.5879  -3.0524  -2.9855  -2.8852  -2.6345
    -2.2326  -1.7734  -0.7164   0.0480   0.2657   0.9511   1.0798   1.2893
     1.4683   2.1778   2.4280   2.4553   2.5078   2.8176   3.0770   3.3804
     3.8016   3.9939   4.0423   4.4284   4.8682   4.8991   5.1830   5.1996
     5.2309   5.3393   5.4455   5.6539   5.8494   6.0083   6.0839   6.3356
     6.4103   6.4626   6.8042   7.1352

     the Fermi energy is     0.2765 ev

!    total energy              =   -4099.47825615 Ry
     Harris-Foulkes estimate   =   -4099.47825134 Ry
     estimated scf accuracy    <       0.00000042 Ry

     The total energy is the sum of the following terms:

     one-electron contribution =  -21909.97860751 Ry
     hartree contribution      =   10981.94633429 Ry
     xc contribution           =    -639.35125241 Ry
     ewald contribution        =    7467.93130619 Ry
     electric field correction =       0.00000219 Ry
     smearing contrib. (-TS)   =      -0.02603890 Ry

     convergence has been achieved in  15 iterations

 BEEF-vdW xc energy contributions
           1 :   -571.718590359439
           2 :    522.862150249199
           3 :   -439.523631501483
           4 :    343.787036525366
           5 :   -256.107273675847
           6 :    188.112150910726
           7 :   -140.714850320337
           8 :    107.529257875584
           9 :   -80.8243364337478
          10 :    56.2970564030426
          11 :   -34.2856976998389
          12 :    17.5758037078994
          13 :   -8.03123961878714
          14 :    4.59333875176151
          15 :   -3.81664955689018
          16 :    2.15799819793506
          17 :    1.86786449750548
          18 :   -7.19913056935866
          19 :    11.5390859657396
          20 :   -13.3043463273557
          21 :    12.7267783481079
          22 :   -11.4285650560255
          23 :    10.9884709644583
          24 :   -11.7145257286260
          25 :    12.5535234249307
          26 :   -12.1164241229251
          27 :    9.93082496551392
          28 :   -6.91270572528970
          29 :    4.70843406845427
          30 :   -4.45470571645012
          31 :   -42.9696645774443
          32 :   -29.8426059686433

     Forces acting on atoms (Ry/au):

     negative rho (up, down):  8.603E-04 0.000E+00
     atom    1 type  1   force =     0.00000103    0.00542559   -0.00477167
     atom    2 type  1   force =     0.00469948   -0.00271431   -0.00476635
     atom    3 type  1   force =    -0.00470390   -0.00271244   -0.00476670
     atom    4 type  2   force =    -0.00000018   -0.00000007    0.00363784
     atom    5 type  1   force =     0.00000108   -0.00278837    0.00236456
     atom    6 type  1   force =    -0.00241258    0.00139272    0.00236339
     atom    7 type  1   force =     0.00241479    0.00139575    0.00236833
     atom    8 type  2   force =    -0.00000117    0.00000124    0.00322320
     atom    9 type  1   force =     0.00000075    0.00142930    0.00016627
     atom   10 type  1   force =     0.00123890   -0.00071433    0.00016249
     atom   11 type  1   force =    -0.00123669   -0.00071666    0.00016239
     atom   12 type  2   force =    -0.00000152    0.00000158   -0.00014376

     Total force =     0.015051     Total SCF correction =     0.002169
     SCF correction compared to forces is large: reduce conv_thr to get better values

     entering subroutine stress ...

     negative rho (up, down):  8.603E-04 0.000E+00
          total   stress  (Ry/bohr**3)                   (kbar)     P=   -7.16
  -0.00007058  -0.00000000  -0.00000000        -10.38     -0.00     -0.00
  -0.00000000  -0.00007058  -0.00000000         -0.00    -10.38     -0.00
  -0.00000000  -0.00000000  -0.00000493         -0.00     -0.00     -0.73

 !ASE

     Writing output data file calc.save

     General routines

     Parallel routines

   This run was terminated on:   7:52:25  30Dec2018

   JOB DONE.
Job  /afs/slac/g/suncat/bin/suncat-tsmpirun -x LD_LIBRARY_PATH -wdir /scratch/qe648443_dGRev pw.x -in pw.inp

TID   HOST_NAME   COMMAND_LINE            STATUS            TERMINATION_TIME
00000 suncat0146 pw.x -in pw.inp   Done                     12/30/2018 07:52:25
00001 suncat0146 pw.x -in pw.inp   Done                     12/30/2018 07:52:25
00002 suncat0146 pw.x -in pw.inp   Done                     12/30/2018 07:52:25
00003 suncat0146 pw.x -in pw.inp   Done                     12/30/2018 07:52:25
00004 suncat0146 pw.x -in pw.inp   Done                     12/30/2018 07:52:25
00005 suncat0146 pw.x -in pw.inp   Done                     12/30/2018 07:52:25
00006 suncat0146 pw.x -in pw.inp   Done                     12/30/2018 07:52:25
00007 suncat0146 pw.x -in pw.inp   Done                     12/30/2018 07:52:25
00008 suncat0136 pw.x -in pw.inp   Done                     12/30/2018 07:52:25
00009 suncat0136 pw.x -in pw.inp   Done                     12/30/2018 07:52:25
00010 suncat0136 pw.x -in pw.inp   Done                     12/30/2018 07:52:25
00011 suncat0136 pw.x -in pw.inp   Done                     12/30/2018 07:52:25
00012 suncat0136 pw.x -in pw.inp   Done                     12/30/2018 07:52:25
00013 suncat0136 pw.x -in pw.inp   Done                     12/30/2018 07:52:25
00014 suncat0136 pw.x -in pw.inp   Done                     12/30/2018 07:52:25
00015 suncat0136 pw.x -in pw.inp   Done                     12/30/2018 07:52:25
00016 suncat0248 pw.x -in pw.inp   Done                     12/30/2018 07:52:25
00017 suncat0248 pw.x -in pw.inp   Done                     12/30/2018 07:52:25
00018 suncat0248 pw.x -in pw.inp   Done                     12/30/2018 07:52:25
00019 suncat0248 pw.x -in pw.inp   Done                     12/30/2018 07:52:25
00020 suncat0248 pw.x -in pw.inp   Done                     12/30/2018 07:52:25
00021 suncat0248 pw.x -in pw.inp   Done                     12/30/2018 07:52:25
00022 suncat0248 pw.x -in pw.inp   Done                     12/30/2018 07:52:25
00023 suncat0248 pw.x -in pw.inp   Done                     12/30/2018 07:52:25
00024 suncat0247 pw.x -in pw.inp   Done                     12/30/2018 07:52:25
00025 suncat0247 pw.x -in pw.inp   Done                     12/30/2018 07:52:25
00026 suncat0247 pw.x -in pw.inp   Done                     12/30/2018 07:52:25
00027 suncat0247 pw.x -in pw.inp   Done                     12/30/2018 07:52:25
00028 suncat0247 pw.x -in pw.inp   Done                     12/30/2018 07:52:25
00029 suncat0247 pw.x -in pw.inp   Done                     12/30/2018 07:52:25
00030 suncat0247 pw.x -in pw.inp   Done                     12/30/2018 07:52:25
00031 suncat0247 pw.x -in pw.inp   Done                     12/30/2018 07:52:25
00032 suncat0246 pw.x -in pw.inp   Done                     12/30/2018 07:52:25
00033 suncat0246 pw.x -in pw.inp   Done                     12/30/2018 07:52:25
00034 suncat0246 pw.x -in pw.inp   Done                     12/30/2018 07:52:25
00035 suncat0246 pw.x -in pw.inp   Done                     12/30/2018 07:52:25
00036 suncat0246 pw.x -in pw.inp   Done                     12/30/2018 07:52:25
00037 suncat0246 pw.x -in pw.inp   Done                     12/30/2018 07:52:25
00038 suncat0246 pw.x -in pw.inp   Done                     12/30/2018 07:52:25
00039 suncat0246 pw.x -in pw.inp   Done                     12/30/2018 07:52:25
00040 suncat0245 pw.x -in pw.inp   Done                     12/30/2018 07:52:25
00041 suncat0245 pw.x -in pw.inp   Done                     12/30/2018 07:52:25
00042 suncat0245 pw.x -in pw.inp   Done                     12/30/2018 07:52:25
00043 suncat0245 pw.x -in pw.inp   Done                     12/30/2018 07:52:25
00044 suncat0245 pw.x -in pw.inp   Done                     12/30/2018 07:52:25
00045 suncat0245 pw.x -in pw.inp   Done                     12/30/2018 07:52:25
00046 suncat0245 pw.x -in pw.inp   Done                     12/30/2018 07:52:25
00047 suncat0245 pw.x -in pw.inp   Done                     12/30/2018 07:52:25
00048 suncat0214 pw.x -in pw.inp   Done                     12/30/2018 07:52:25
00049 suncat0214 pw.x -in pw.inp   Done                     12/30/2018 07:52:25
00050 suncat0214 pw.x -in pw.inp   Done                     12/30/2018 07:52:25
00051 suncat0214 pw.x -in pw.inp   Done                     12/30/2018 07:52:25
00052 suncat0214 pw.x -in pw.inp   Done                     12/30/2018 07:52:25
00053 suncat0214 pw.x -in pw.inp   Done                     12/30/2018 07:52:25
00054 suncat0214 pw.x -in pw.inp   Done                     12/30/2018 07:52:25
00055 suncat0214 pw.x -in pw.inp   Done                     12/30/2018 07:52:25
00056 suncat0213 pw.x -in pw.inp   Done                     12/30/2018 07:52:25
00057 suncat0213 pw.x -in pw.inp   Done                     12/30/2018 07:52:25
00058 suncat0213 pw.x -in pw.inp   Done                     12/30/2018 07:52:25
00059 suncat0213 pw.x -in pw.inp   Done                     12/30/2018 07:52:25
00060 suncat0213 pw.x -in pw.inp   Done                     12/30/2018 07:52:25
00061 suncat0213 pw.x -in pw.inp   Done                     12/30/2018 07:52:25
00062 suncat0213 pw.x -in pw.inp   Done                     12/30/2018 07:52:25
00063 suncat0213 pw.x -in pw.inp   Done                     12/30/2018 07:52:25