     Program PWSCF v.5.1rc2 (svn rev. 11289) starts on 20Dec2018 at  9: 3:20

     Current dimensions of program PWSCF are:
     Max number of different atomic species (ntypx) = 10
     Max number of k-points (npk) =  40000
     Max angular momentum in pseudopotentials (lmaxx) =  3
     Presently stress not available with electric field

     IMPORTANT: XC functional enforced from input :
     Exchange-correlation      = BEEF-VDW ( 1  4 27 13 2)
     Any further DFT definition will be discarded
     Please, verify this is what you really want

     Subspace diagonalization in iterative solution of the eigenvalue problem:
     a serial algorithm will be used

     Generating pointlists ...
     new r_m :   0.4125 (alat units)  0.7795 (a.u.) for type    1
     new r_m :   0.4125 (alat units)  0.7795 (a.u.) for type    2

     bravais-lattice index     =            0
     lattice parameter (alat)  =       1.8897  a.u.
     unit-cell volume          =    3924.9094 (a.u.)^3
     number of atoms/cell      =           12
     number of atomic types    =            2
     number of electrons       =       195.00
     number of Kohn-Sham states=          127
     kinetic-energy cutoff     =      36.7493  Ry
     charge density cutoff     =     367.4932  Ry
     convergence threshold     =      1.0E-06
     mixing beta               =       0.1000
     number of iterations used =           10  plain     mixing
     Exchange-correlation      = BEEF-VDW ( 1  4 27 13 2)
     nstep                     =           50

     celldm(1)=   1.889726  celldm(2)=   0.000000  celldm(3)=   0.000000
     celldm(4)=   0.000000  celldm(5)=   0.000000  celldm(6)=   0.000000

     crystal axes: (cart. coord. in units of alat)
               a(1) = (   5.257875   0.000000   0.000000 )
               a(2) = (  -2.628938   4.553454   0.000000 )
               a(3) = (   0.000000   0.000000  24.293037 )

     reciprocal axes: (cart. coord. in units 2 pi/alat)
               b(1) = (  0.190191  0.109807  0.000000 )
               b(2) = (  0.000000  0.219614  0.000000 )
               b(3) = (  0.000000  0.000000  0.041164 )

     PseudoPot. # 1 for Co read from file:
     /afs/slac.stanford.edu/u/if/mamunm/psp/gbrv1.5pbe/Co.UPF
     MD5 check sum: 5f91765df6ddd3222702df6e7b74a16d
     Pseudo is Ultrasoft + core correction, Zval = 17.0
     Generated by new atomic code, or converted to UPF format
     Using radial grid of  863 points,  6 beta functions with:
                l(1) =   0
                l(2) =   0
                l(3) =   1
                l(4) =   1
                l(5) =   2
                l(6) =   2
     Q(r) pseudized with  8 coefficients,  rinner =    1.200   1.200   1.200
                                                       1.200   1.200

     PseudoPot. # 2 for Sn read from file:
     /afs/slac.stanford.edu/u/if/mamunm/psp/gbrv1.5pbe/Sn.UPF
     MD5 check sum: 469debedee59599fedebd795477fea03
     Pseudo is Ultrasoft + core correction, Zval = 14.0
     Generated by new atomic code, or converted to UPF format
     Using radial grid of  891 points,  6 beta functions with:
                l(1) =   0
                l(2) =   0
                l(3) =   1
                l(4) =   1
                l(5) =   2
                l(6) =   2
     Q(r) pseudized with  8 coefficients,  rinner =    1.350   1.350   1.350
                                                       1.350   1.350

     vdW kernel table read from file vdW_kernel_table
     MD5 check sum: 095c7af220d748ca6e76c0b4c6cfb241

     atomic species   valence    mass     pseudopotential
        Co1           17.00    58.93319     Co( 1.00)
        Sn1           14.00   118.71000     Sn( 1.00)

     Starting magnetic structure
     atomic species   magnetization
        Co1          0.118
        Sn1          0.143

     No symmetry found

   Cartesian axes

     site n.     atom                  positions (alat units)
         1           Co1 tau(   1) = (   0.0000000   0.0000000  10.0000000  )
         2           Co1 tau(   2) = (  -1.3144689   2.2767269  10.0000000  )
         3           Co1 tau(   3) = (   1.3144689   2.2767269  10.0000000  )
         4           Sn1 tau(   4) = (   2.6289377   0.0000000  10.0000000  )
         5           Co1 tau(   5) = (   2.6289377   1.5178179  12.1465187  )
         6           Co1 tau(   6) = (   1.3144689   3.7945448  12.1465187  )
         7           Co1 tau(   7) = (  -1.3144689   3.7945448  12.1465187  )
         8           Sn1 tau(   8) = (   0.0000000   1.5178179  12.1465187  )
         9           Co1 tau(   9) = (  -0.0000000   3.0356358  14.2930373  )
        10           Co1 tau(  10) = (   1.3144689   0.7589090  14.2930373  )
        11           Co1 tau(  11) = (   3.9434066   0.7589090  14.2930373  )
        12           Sn1 tau(  12) = (   2.6289377   3.0356358  14.2930373  )

     number of k points=    40  Fermi-Dirac smearing, width (Ry)=  0.0110
                       cart. coord. in units 2pi/alat
        k(    1) = (   0.0000000   0.0000000   0.0000000), wk =   0.0277778
        k(    2) = (   0.0000000   0.0366023   0.0000000), wk =   0.0555556
        k(    3) = (   0.0000000   0.0732045   0.0000000), wk =   0.0555556
        k(    4) = (   0.0000000  -0.1098068   0.0000000), wk =   0.0277778
        k(    5) = (   0.0316985   0.0183011   0.0000000), wk =   0.0555556
        k(    6) = (   0.0316985   0.0549034   0.0000000), wk =   0.0555556
        k(    7) = (   0.0316985   0.0915056   0.0000000), wk =   0.0555556
        k(    8) = (   0.0316985  -0.0915056   0.0000000), wk =   0.0555556
        k(    9) = (   0.0316985  -0.0549034   0.0000000), wk =   0.0555556
        k(   10) = (   0.0316985  -0.0183011   0.0000000), wk =   0.0555556
        k(   11) = (   0.0633970   0.0366023   0.0000000), wk =   0.0555556
        k(   12) = (   0.0633970   0.0732045   0.0000000), wk =   0.0555556
        k(   13) = (   0.0633970   0.1098068   0.0000000), wk =   0.0555556
        k(   14) = (   0.0633970  -0.0732045   0.0000000), wk =   0.0555556
        k(   15) = (   0.0633970  -0.0366023   0.0000000), wk =   0.0555556
        k(   16) = (   0.0633970   0.0000000   0.0000000), wk =   0.0555556
        k(   17) = (  -0.0950954  -0.0549034   0.0000000), wk =   0.0277778
        k(   18) = (  -0.0950954  -0.0183011   0.0000000), wk =   0.0555556
        k(   19) = (  -0.0950954   0.0183011   0.0000000), wk =   0.0555556
        k(   20) = (  -0.0950954  -0.1647101   0.0000000), wk =   0.0277778
        k(   21) = (   0.0000000   0.0000000   0.0000000), wk =   0.0277778
        k(   22) = (   0.0000000   0.0366023   0.0000000), wk =   0.0555556
        k(   23) = (   0.0000000   0.0732045   0.0000000), wk =   0.0555556
        k(   24) = (   0.0000000  -0.1098068   0.0000000), wk =   0.0277778
        k(   25) = (   0.0316985   0.0183011   0.0000000), wk =   0.0555556
        k(   26) = (   0.0316985   0.0549034   0.0000000), wk =   0.0555556
        k(   27) = (   0.0316985   0.0915056   0.0000000), wk =   0.0555556
        k(   28) = (   0.0316985  -0.0915056   0.0000000), wk =   0.0555556
        k(   29) = (   0.0316985  -0.0549034   0.0000000), wk =   0.0555556
        k(   30) = (   0.0316985  -0.0183011   0.0000000), wk =   0.0555556
        k(   31) = (   0.0633970   0.0366023   0.0000000), wk =   0.0555556
        k(   32) = (   0.0633970   0.0732045   0.0000000), wk =   0.0555556
        k(   33) = (   0.0633970   0.1098068   0.0000000), wk =   0.0555556
        k(   34) = (   0.0633970  -0.0732045   0.0000000), wk =   0.0555556
        k(   35) = (   0.0633970  -0.0366023   0.0000000), wk =   0.0555556
        k(   36) = (   0.0633970   0.0000000   0.0000000), wk =   0.0555556
        k(   37) = (  -0.0950954  -0.0549034   0.0000000), wk =   0.0277778
        k(   38) = (  -0.0950954  -0.0183011   0.0000000), wk =   0.0555556
        k(   39) = (  -0.0950954   0.0183011   0.0000000), wk =   0.0555556
        k(   40) = (  -0.0950954  -0.1647101   0.0000000), wk =   0.0277778

     Largest allocated arrays     est. size (Mb)     dimensions
     Largest temporary arrays     est. size (Mb)     dimensions

     Check: negative/imaginary core charge=   -0.000005    0.000000

     Initial potential from superposition of free atoms
     Check: negative starting charge=(component1):   -0.000406
     Check: negative starting charge=(component2):   -0.000307

     starting charge  182.99980, renormalised to  195.00000

     negative rho (up, down):  4.324E-04 3.275E-04

     *
     * You are using vdW-DF for exchange-correlation in this calculation.
     * Please cite the following three references that made this development
     * possible:
     *
     *   M. Dion, H. Rydberg, E. Schroder, D. C. Langreth, and
     *   B. I. Lundqvist, Phys. Rev. Lett. 92, 246401 (2004).
     *
     *   T. Thonhauser, V. R. Cooper, S. Li, A. Puzder, P. Hyldgaard, and
     *   D. C. Langreth, Phys. Rev. B 76, 125112 (2007).
     *
     *   G. Roman-Perez and J. M. Soler, Phys. Rev. Lett. 103, 096102 (2009).
     *
     *
     * If you are using vdW-DF2, please also cite:
     *
     *   K. Lee, E. D. Murray, L. Kong, B. I. Lundqvist, and
     *   D. C. Langreth, Phys. Rev. B 82, 081101(R) (2010).
     *
     *
     * If you are calculating the stress with vdW-DF, please also cite:
     *
     *   R. Sabatini, E. Kucukbenli, B. Kolb, T. Thonhauser, and
     *   S. de Gironcoli, J. Phys.: Condens. Matter 24, 424209 (2012).
     *

     Carrying out vdW-DF run using the following parameters:

     Nqs =      20    Nr_points =    1024   r_max =   100.000
     q_mesh =
               0.00001000     0.04494208     0.09755937     0.15916263
               0.23128650     0.31572767     0.41458969     0.53033537
               0.66584808     0.82450364     1.01025438     1.22772762
               1.48234092     1.78043706     2.12944203     2.53805004
               3.01644009     3.57652955     4.23227104     5.00000000

     Gradients computed in reciprocal space

     Adding external electric field

     Computed dipole along edir(3) :
        Dipole                0.0000 Ry au,          0.0000 Debye
        Dipole field          0.0000 Ry au

        Potential amp.       -0.0000 Ry
        Total length         44.7595 bohr

[...]

     Starting wfc are  144 randomized atomic wfcs

     Self-consistent Calculation

     iteration #  1     ecut=    36.75 Ry     beta=0.10
     Davidson diagonalization with overlap
     ethr =  1.00E-02,  avg # of iterations =  8.2

[...]

     Magnetic moment per site:
     atom:    1    charge:    8.4796    magn:    0.9534    constr:    0.0000
     atom:    2    charge:    8.4796    magn:    0.9534    constr:    0.0000
     atom:    3    charge:    8.4796    magn:    0.9534    constr:    0.0000
     atom:    4    charge:    3.6933    magn:    0.4814    constr:    0.0000
     atom:    5    charge:    8.4814    magn:    0.9531    constr:    0.0000
     atom:    6    charge:    8.4814    magn:    0.9531    constr:    0.0000
     atom:    7    charge:    8.4814    magn:    0.9531    constr:    0.0000
     atom:    8    charge:    3.6939    magn:    0.4813    constr:    0.0000
[...]
        k(    4) = (   0.0000000  -0.1098068   0.0000000), wk =   0.0277778
        k(    5) = (   0.0316985   0.0183011   0.0000000), wk =   0.0555556
        k(    6) = (   0.0316985   0.0549034   0.0000000), wk =   0.0555556
        k(    7) = (   0.0316985   0.0915056   0.0000000), wk =   0.0555556
        k(    8) = (   0.0316985  -0.0915056   0.0000000), wk =   0.0555556
        k(    9) = (   0.0316985  -0.0549034   0.0000000), wk =   0.0555556
        k(   10) = (   0.0316985  -0.0183011   0.0000000), wk =   0.0555556
        k(   11) = (   0.0633970   0.0366023   0.0000000), wk =   0.0555556
        k(   12) = (   0.0633970   0.0732045   0.0000000), wk =   0.0555556
        k(   13) = (   0.0633970   0.1098068   0.0000000), wk =   0.0555556
        k(   14) = (   0.0633970  -0.0732045   0.0000000), wk =   0.0555556
        k(   15) = (   0.0633970  -0.0366023   0.0000000), wk =   0.0555556
        k(   16) = (   0.0633970   0.0000000   0.0000000), wk =   0.0555556
        k(   17) = (  -0.0950954  -0.0549034   0.0000000), wk =   0.0277778
        k(   18) = (  -0.0950954  -0.0183011   0.0000000), wk =   0.0555556
        k(   19) = (  -0.0950954   0.0183011   0.0000000), wk =   0.0555556
        k(   20) = (  -0.0950954  -0.1647101   0.0000000), wk =   0.0277778
        k(   21) = (   0.0000000   0.0000000   0.0000000), wk =   0.0277778
        k(   22) = (   0.0000000   0.0366023   0.0000000), wk =   0.0555556
        k(   23) = (   0.0000000   0.0732045   0.0000000), wk =   0.0555556
        k(   24) = (   0.0000000  -0.1098068   0.0000000), wk =   0.0277778
        k(   25) = (   0.0316985   0.0183011   0.0000000), wk =   0.0555556
        k(   26) = (   0.0316985   0.0549034   0.0000000), wk =   0.0555556
        k(   27) = (   0.0316985   0.0915056   0.0000000), wk =   0.0555556
        k(   28) = (   0.0316985  -0.0915056   0.0000000), wk =   0.0555556
        k(   29) = (   0.0316985  -0.0549034   0.0000000), wk =   0.0555556
        k(   30) = (   0.0316985  -0.0183011   0.0000000), wk =   0.0555556
        k(   31) = (   0.0633970   0.0366023   0.0000000), wk =   0.0555556
        k(   32) = (   0.0633970   0.0732045   0.0000000), wk =   0.0555556
        k(   33) = (   0.0633970   0.1098068   0.0000000), wk =   0.0555556
        k(   34) = (   0.0633970  -0.0732045   0.0000000), wk =   0.0555556
        k(   35) = (   0.0633970  -0.0366023   0.0000000), wk =   0.0555556
        k(   36) = (   0.0633970   0.0000000   0.0000000), wk =   0.0555556
        k(   37) = (  -0.0950954  -0.0549034   0.0000000), wk =   0.0277778
        k(   38) = (  -0.0950954  -0.0183011   0.0000000), wk =   0.0555556
        k(   39) = (  -0.0950954   0.0183011   0.0000000), wk =   0.0555556
        k(   40) = (  -0.0950954  -0.1647101   0.0000000), wk =   0.0277778

     Largest allocated arrays     est. size (Mb)     dimensions
     Largest temporary arrays     est. size (Mb)     dimensions

     Check: negative/imaginary core charge=   -0.000005    0.000000

     Initial potential from superposition of free atoms
     Check: negative starting charge=(component1):   -0.000405
     Check: negative starting charge=(component2):   -0.000307

     starting charge  182.99980, renormalised to  195.00000

[...]

     *
     * You are using vdW-DF for exchange-correlation in this calculation.
     * Please cite the following three references that made this development
     * possible:
     *
     *   M. Dion, H. Rydberg, E. Schroder, D. C. Langreth, and
     *   B. I. Lundqvist, Phys. Rev. Lett. 92, 246401 (2004).
     *
     *   T. Thonhauser, V. R. Cooper, S. Li, A. Puzder, P. Hyldgaard, and
     *   D. C. Langreth, Phys. Rev. B 76, 125112 (2007).
     *
     *   G. Roman-Perez and J. M. Soler, Phys. Rev. Lett. 103, 096102 (2009).
     *
     *
     * If you are using vdW-DF2, please also cite:
     *
     *   K. Lee, E. D. Murray, L. Kong, B. I. Lundqvist, and
     *   D. C. Langreth, Phys. Rev. B 82, 081101(R) (2010).
     *
     *
     * If you are calculating the stress with vdW-DF, please also cite:
     *
     *   R. Sabatini, E. Kucukbenli, B. Kolb, T. Thonhauser, and
     *   S. de Gironcoli, J. Phys.: Condens. Matter 24, 424209 (2012).
     *

     Carrying out vdW-DF run using the following parameters:

     Nqs =      20    Nr_points =    1024   r_max =   100.000
     q_mesh =
               0.00001000     0.04494208     0.09755937     0.15916263
               0.23128650     0.31572767     0.41458969     0.53033537
               0.66584808     0.82450364     1.01025438     1.22772762
               1.48234092     1.78043706     2.12944203     2.53805004
               3.01644009     3.57652955     4.23227104     5.00000000

     Gradients computed in reciprocal space

[...]

     Starting wfc are  144 randomized atomic wfcs

     Self-consistent Calculation

[...]

     total energy              =   -3177.75636076 Ry
     Harris-Foulkes estimate   =   -3177.75636072 Ry
     estimated scf accuracy    <       0.00000110 Ry

[...]

     iteration # 43     ecut=    36.75 Ry     beta=0.10
     Davidson diagonalization with overlap
     ethr =  5.65E-10,  avg # of iterations =  1.0

[...]

     negative rho (up, down):  5.241E-04 3.242E-04

[...]

     Adding external electric field

     Computed dipole along edir(3) :
        Dipole                0.0444 Ry au,          0.1128 Debye
        Dipole field          0.0001 Ry au

        Potential amp.       -0.0127 Ry
        Total length         44.7595 bohr

     Magnetic moment per site:
     atom:    1    charge:    8.3012    magn:    0.8231    constr:    0.0000
     atom:    2    charge:    8.3012    magn:    0.8231    constr:    0.0000
     atom:    3    charge:    8.3012    magn:    0.8230    constr:    0.0000
     atom:    4    charge:    3.5264    magn:   -0.0044    constr:    0.0000
     atom:    5    charge:    8.2964    magn:    0.7460    constr:    0.0000
     atom:    6    charge:    8.2964    magn:    0.7461    constr:    0.0000
     atom:    7    charge:    8.2964    magn:    0.7461    constr:    0.0000
     atom:    8    charge:    3.5303    magn:   -0.0062    constr:    0.0000
     atom:    9    charge:    8.2975    magn:    0.8347    constr:    0.0000
     atom:   10    charge:    8.2975    magn:    0.8348    constr:    0.0000
     atom:   11    charge:    8.2977    magn:    0.8347    constr:    0.0000
     atom:   12    charge:    3.5226    magn:   -0.0035    constr:    0.0000

     End of self-consistent calculation

 ------ SPIN UP ------------

[...]

 ------ SPIN DOWN ----------

[...]

          k = 0.0634 0.0000 0.0000 ( 14769 PWs)   bands (ev):

[...]

          k =-0.0951-0.1647 0.0000 ( 14754 PWs)   bands (ev):

   -92.8135 -92.8088 -92.8041 -92.6979 -92.6848 -92.6822 -92.6277 -92.6230
   -92.6185 -56.2265 -56.1989 -56.1963 -56.1913 -56.1892 -56.1797 -56.1602
   -56.1413 -56.1134 -56.1119 -56.0982 -56.0796 -56.0693 -56.0665 -56.0423
   -56.0324 -56.0223 -56.0095 -56.0063 -55.9896 -55.9806 -55.9782 -55.9629
   -55.9466 -55.9236 -55.9163 -55.9044 -20.5855 -20.5789 -20.5729 -20.5559
   -20.5553 -20.3848 -20.3447 -20.3429 -20.3360 -20.3037 -20.3026 -20.2916
   -20.2870 -20.2866 -20.2787  -8.1628  -7.3666  -6.5495  -4.7562  -3.6133
    -3.5149  -3.3544  -1.9932  -1.9200  -1.8369  -1.4655  -1.4336  -1.3172
    -1.1460  -0.7182  -0.5952  -0.5848  -0.5582  -0.3911  -0.3709  -0.3225
    -0.2503  -0.1294  -0.0348  -0.0018   0.0838   0.1929   0.2989   0.3427
     0.4365   0.4730   0.5354   0.6042   0.8643   0.9276   0.9683   1.0121
     1.0303   1.0872   1.1836   1.1973   1.2466   1.2541   1.2898   1.4167
     1.4185   1.6165   1.7153   1.8570   1.9044   1.9863   2.0947   2.4681
     2.7647   2.8349   2.8472   3.5963   3.8614   4.2034   5.4350   6.1725
     6.4696   6.8012   6.8536   7.0474   7.0783   7.0936   7.3299   7.3660
     7.6789   7.7829   8.0681   8.2213   8.3228   8.3914   8.6457

     the Fermi energy is     1.2509 ev

!    total energy              =   -3177.75636092 Ry
     Harris-Foulkes estimate   =   -3177.75636115 Ry
     estimated scf accuracy    <       0.00000042 Ry

     The total energy is the sum of the following terms:

     one-electron contribution =  -25335.09871215 Ry
     hartree contribution      =   12692.46790320 Ry
     xc contribution           =    -438.09759694 Ry
     ewald contribution        =    9903.07423538 Ry
     electric field correction =       0.00000630 Ry
     smearing contrib. (-TS)   =      -0.10219671 Ry

     total magnetization       =    12.59 Bohr mag/cell
     absolute magnetization    =    14.48 Bohr mag/cell

     convergence has been achieved in  43 iterations

 BEEF-vdW xc energy contributions
           1 :   -385.699655102031
           2 :    351.015113328646
           3 :   -291.978748064352
           4 :    224.536450970983
           5 :   -163.579339056472
           6 :    117.641370499932
           7 :   -87.2977045659783
           8 :    67.4195985499980
           9 :   -51.5255068733964
          10 :    35.6202639841957
          11 :   -19.6477155299083
          12 :    6.27838527837224
          13 :    1.68715348841738
          14 :   -3.49322726987293
          15 :   0.927840505912513
          16 :    2.86699318687499
          17 :   -5.28130617758063
          18 :    5.53592792075528
          19 :   -4.68093341719521
          20 :    4.46863621292687
          21 :   -5.97459977845108
          22 :    8.86908468057209
          23 :   -11.7330574689166
          24 :    13.0816333484759
          25 :   -12.3537842265279
          26 :    10.2149512034425
          27 :   -8.04743132396578
          28 :    7.02913269155385
          29 :   -7.43752515576512
          30 :    8.59320729328419
          31 :   -32.9366092168221
          32 :   -23.2759052535985

     Forces acting on atoms (Ry/au):

     negative rho (up, down):  5.241E-04 3.242E-04
     atom    1 type  1   force =     0.00000587   -0.01843810    0.00874141
     atom    2 type  1   force =    -0.01595425    0.00922273    0.00873200
     atom    3 type  1   force =     0.01596628    0.00922303    0.00873821
     atom    4 type  2   force =    -0.00000050   -0.00001321   -0.06231488
     atom    5 type  1   force =    -0.00001331    0.01752771    0.01217840
     atom    6 type  1   force =     0.01518321   -0.00877300    0.01214179
     atom    7 type  1   force =    -0.01517664   -0.00875446    0.01214960
     atom    8 type  2   force =     0.00002624   -0.00001142   -0.00121130
     atom    9 type  1   force =    -0.00000503    0.00015027    0.00003510
     atom   10 type  1   force =     0.00018472    0.00005226    0.00003541
     atom   11 type  1   force =    -0.00022144    0.00003682    0.00001913
     atom   12 type  2   force =     0.00000484   -0.00022264    0.00075515

     Total force =     0.080616     Total SCF correction =     0.003154

     entering subroutine stress ...

     negative rho (up, down):  5.241E-04 3.242E-04
          total   stress  (Ry/bohr**3)                   (kbar)     P=   -9.30
  -0.00009538   0.00000000  -0.00000000        -14.03      0.00     -0.00
   0.00000000  -0.00009536  -0.00000004          0.00    -14.03     -0.01
  -0.00000000  -0.00000004   0.00000110         -0.00     -0.01      0.16

 !ASE

     Writing output data file calc.save

     General routines

     Parallel routines

   This run was terminated on:  13:15: 3  20Dec2018

   JOB DONE.
Job  /afs/slac/g/suncat/bin/suncat-tsmpirun -x LD_LIBRARY_PATH -wdir /scratch/qe773541_n0YBG pw.x -in pw.inp

TID   HOST_NAME   COMMAND_LINE            STATUS            TERMINATION_TIME
00000 suncat0007 pw.x -in pw.inp   Done                     12/20/2018 13:15:03
00001 suncat0007 pw.x -in pw.inp   Done                     12/20/2018 13:15:03
00002 suncat0007 pw.x -in pw.inp   Done                     12/20/2018 13:15:03
00003 suncat0007 pw.x -in pw.inp   Done                     12/20/2018 13:15:03
00004 suncat0007 pw.x -in pw.inp   Done                     12/20/2018 13:15:03
00005 suncat0007 pw.x -in pw.inp   Done                     12/20/2018 13:15:03
00006 suncat0007 pw.x -in pw.inp   Done                     12/20/2018 13:15:03
00007 suncat0007 pw.x -in pw.inp   Done                     12/20/2018 13:15:03
00008 suncat0006 pw.x -in pw.inp   Done                     12/20/2018 13:15:03
00009 suncat0006 pw.x -in pw.inp   Done                     12/20/2018 13:15:03
00010 suncat0006 pw.x -in pw.inp   Done                     12/20/2018 13:15:03
00011 suncat0006 pw.x -in pw.inp   Done                     12/20/2018 13:15:03
00012 suncat0006 pw.x -in pw.inp   Done                     12/20/2018 13:15:03
00013 suncat0006 pw.x -in pw.inp   Done                     12/20/2018 13:15:03
00014 suncat0006 pw.x -in pw.inp   Done                     12/20/2018 13:15:03
00015 suncat0006 pw.x -in pw.inp   Done                     12/20/2018 13:15:03
00016 suncat0005 pw.x -in pw.inp   Done                     12/20/2018 13:15:03
00017 suncat0005 pw.x -in pw.inp   Done                     12/20/2018 13:15:03
00018 suncat0005 pw.x -in pw.inp   Done                     12/20/2018 13:15:03
00019 suncat0005 pw.x -in pw.inp   Done                     12/20/2018 13:15:03
00020 suncat0005 pw.x -in pw.inp   Done                     12/20/2018 13:15:03
00021 suncat0005 pw.x -in pw.inp   Done                     12/20/2018 13:15:03
00022 suncat0005 pw.x -in pw.inp   Done                     12/20/2018 13:15:03
00023 suncat0005 pw.x -in pw.inp   Done                     12/20/2018 13:15:03
00024 suncat0179 pw.x -in pw.inp   Done                     12/20/2018 13:15:03
00025 suncat0179 pw.x -in pw.inp   Done                     12/20/2018 13:15:03
00026 suncat0179 pw.x -in pw.inp   Done                     12/20/2018 13:15:03
00027 suncat0179 pw.x -in pw.inp   Done                     12/20/2018 13:15:03
00028 suncat0179 pw.x -in pw.inp   Done                     12/20/2018 13:15:03
00029 suncat0179 pw.x -in pw.inp   Done                     12/20/2018 13:15:03
00030 suncat0179 pw.x -in pw.inp   Done                     12/20/2018 13:15:03
00031 suncat0179 pw.x -in pw.inp   Done                     12/20/2018 13:15:03
00032 suncat0277 pw.x -in pw.inp   Done                     12/20/2018 13:15:03
00033 suncat0277 pw.x -in pw.inp   Done                     12/20/2018 13:15:03
00034 suncat0277 pw.x -in pw.inp   Done                     12/20/2018 13:15:03
00035 suncat0277 pw.x -in pw.inp   Done                     12/20/2018 13:15:03
00036 suncat0277 pw.x -in pw.inp   Done                     12/20/2018 13:15:03
00037 suncat0277 pw.x -in pw.inp   Done                     12/20/2018 13:15:03
00038 suncat0277 pw.x -in pw.inp   Done                     12/20/2018 13:15:03
00039 suncat0277 pw.x -in pw.inp   Done                     12/20/2018 13:15:03
00040 suncat0276 pw.x -in pw.inp   Done                     12/20/2018 13:15:03
00041 suncat0276 pw.x -in pw.inp   Done                     12/20/2018 13:15:03
00042 suncat0276 pw.x -in pw.inp   Done                     12/20/2018 13:15:03
00043 suncat0276 pw.x -in pw.inp   Done                     12/20/2018 13:15:03
00044 suncat0276 pw.x -in pw.inp   Done                     12/20/2018 13:15:03
00045 suncat0276 pw.x -in pw.inp   Done                     12/20/2018 13:15:03
00046 suncat0276 pw.x -in pw.inp   Done                     12/20/2018 13:15:03
00047 suncat0276 pw.x -in pw.inp   Done                     12/20/2018 13:15:03
00048 suncat0274 pw.x -in pw.inp   Done                     12/20/2018 13:15:03
00049 suncat0274 pw.x -in pw.inp   Done                     12/20/2018 13:15:03
00050 suncat0274 pw.x -in pw.inp   Done                     12/20/2018 13:15:03
00051 suncat0274 pw.x -in pw.inp   Done                     12/20/2018 13:15:03
00052 suncat0274 pw.x -in pw.inp   Done                     12/20/2018 13:15:03
00053 suncat0274 pw.x -in pw.inp   Done                     12/20/2018 13:15:03
00054 suncat0274 pw.x -in pw.inp   Done                     12/20/2018 13:15:03
00055 suncat0274 pw.x -in pw.inp   Done                     12/20/2018 13:15:03
00056 suncat0273 pw.x -in pw.inp   Done                     12/20/2018 13:15:03
00057 suncat0273 pw.x -in pw.inp   Done                     12/20/2018 13:15:03
00058 suncat0273 pw.x -in pw.inp   Done                     12/20/2018 13:15:03
00059 suncat0273 pw.x -in pw.inp   Done                     12/20/2018 13:15:03
00060 suncat0273 pw.x -in pw.inp   Done                     12/20/2018 13:15:03
00061 suncat0273 pw.x -in pw.inp   Done                     12/20/2018 13:15:03
00062 suncat0273 pw.x -in pw.inp   Done                     12/20/2018 13:15:03
00063 suncat0273 pw.x -in pw.inp   Done                     12/20/2018 13:15:03