     Program PWSCF v.5.1rc2 (svn rev. 11289) starts on 31Dec2018 at  6:57:45

     Current dimensions of program PWSCF are:
     Max number of different atomic species (ntypx) = 10
     Max number of k-points (npk) =  40000
     Max angular momentum in pseudopotentials (lmaxx) =  3
     Presently stress not available with electric field

     IMPORTANT: XC functional enforced from input :
     Exchange-correlation      = BEEF-VDW ( 1  4 27 13 2)
     Any further DFT definition will be discarded
     Please, verify this is what you really want

     Subspace diagonalization in iterative solution of the eigenvalue problem:
     a serial algorithm will be used

     bravais-lattice index     =            0
     lattice parameter (alat)  =       1.8897  a.u.
     unit-cell volume          =    4576.5975 (a.u.)^3
     number of atoms/cell      =           12
     number of atomic types    =            2
     number of electrons       =       183.00
     number of Kohn-Sham states=          121
     kinetic-energy cutoff     =      36.7493  Ry
     charge density cutoff     =     367.4932  Ry
     convergence threshold     =      1.0E-06
     mixing beta               =       0.1000
     number of iterations used =           10  plain     mixing
     Exchange-correlation      = BEEF-VDW ( 1  4 27 13 2)
     nstep                     =           50

     celldm(1)=   1.889726  celldm(2)=   0.000000  celldm(3)=   0.000000
     celldm(4)=   0.000000  celldm(5)=   0.000000  celldm(6)=   0.000000

     crystal axes: (cart. coord. in units of alat)
               a(1) = (   5.641385   0.000000   0.000000 )
               a(2) = (  -2.820692   4.885583   0.000000 )
               a(3) = (   0.000000   0.000000  24.606171 )

     reciprocal axes: (cart. coord. in units 2 pi/alat)
               b(1) = (  0.177261  0.102342  0.000000 )
               b(2) = (  0.000000  0.204684  0.000000 )
               b(3) = (  0.000000  0.000000  0.040640 )

     PseudoPot. # 1 for Os read from file:
     /afs/slac.stanford.edu/u/if/mamunm/psp/gbrv1.5pbe/Os.UPF
     MD5 check sum: a3fb40a04f0c37c25c34bbc47164c9a8
     Pseudo is Ultrasoft + core correction, Zval = 16.0
     Generated by new atomic code, or converted to UPF format
     Using radial grid of  983 points,  8 beta functions with:
                l(1) =   0
                l(2) =   0
                l(3) =   1
                l(4) =   1
                l(5) =   2
                l(6) =   2
                l(7) =   3
                l(8) =   3
     Q(r) pseudized with  8 coefficients,  rinner =    1.150   1.150   1.150
                                                       1.150   1.150   1.150
                                                       1.150

     PseudoPot. # 2 for In read from file:
     /afs/slac.stanford.edu/u/if/mamunm/psp/gbrv1.5pbe/In.UPF
     MD5 check sum: 90777abd96fbb83f2e67db2a40c566b9
     Pseudo is Ultrasoft + core correction, Zval = 13.0
     Generated by new atomic code, or converted to UPF format
     Using radial grid of  889 points,  6 beta functions with:
                l(1) =   0
                l(2) =   0
                l(3) =   1
                l(4) =   1
                l(5) =   2
                l(6) =   2
     Q(r) pseudized with  6 coefficients,  rinner =    1.400   1.400   1.400
                                                       1.400   1.400

     vdW kernel table read from file vdW_kernel_table
     MD5 check sum: 095c7af220d748ca6e76c0b4c6cfb241

     atomic species   valence    mass     pseudopotential
        Os1           16.00   190.23000     Os( 1.00)
        In1           13.00   114.81800     In( 1.00)

     No symmetry found

   Cartesian axes

     site n.     atom                  positions (alat units)
         1           Os1 tau(   1) = (   0.0000000   0.0000000  10.0000000  )
         2           Os1 tau(   2) = (  -1.4103462   2.4427913  10.0000000  )
         3           Os1 tau(   3) = (   1.4103462   2.4427913  10.0000000  )
         4           In1 tau(   4) = (   2.8206924   0.0000000  10.0000000  )
         5           Os1 tau(   5) = (   2.8206924   1.6285275  12.3030857  )
         6           Os1 tau(   6) = (   1.4103462   4.0713188  12.3030857  )
         7           Os1 tau(   7) = (  -1.4103462   4.0713188  12.3030857  )
         8           In1 tau(   8) = (   0.0000000   1.6285275  12.3030857  )
         9           Os1 tau(   9) = (  -0.0000000   3.2570550  14.6061714  )
        10           Os1 tau(  10) = (   1.4103462   0.8142638  14.6061714  )
        11           Os1 tau(  11) = (   4.2310386   0.8142638  14.6061714  )
        12           In1 tau(  12) = (   2.8206924   3.2570550  14.6061714  )

     number of k points=    20  Fermi-Dirac smearing, width (Ry)=  0.0110
                       cart. coord. in units 2pi/alat
        k(    1) = (   0.0000000   0.0000000   0.0000000), wk =   0.0555556
        k(    2) = (   0.0000000   0.0341140   0.0000000), wk =   0.1111111
        k(    3) = (   0.0000000   0.0682280   0.0000000), wk =   0.1111111
        k(    4) = (   0.0000000  -0.1023419   0.0000000), wk =   0.0555556
        k(    5) = (   0.0295436   0.0170570   0.0000000), wk =   0.1111111
        k(    6) = (   0.0295436   0.0511710   0.0000000), wk =   0.1111111
        k(    7) = (   0.0295436   0.0852850   0.0000000), wk =   0.1111111
        k(    8) = (   0.0295436  -0.0852850   0.0000000), wk =   0.1111111
        k(    9) = (   0.0295436  -0.0511710   0.0000000), wk =   0.1111111
        k(   10) = (   0.0295436  -0.0170570   0.0000000), wk =   0.1111111
        k(   11) = (   0.0590871   0.0341140   0.0000000), wk =   0.1111111
        k(   12) = (   0.0590871   0.0682280   0.0000000), wk =   0.1111111
        k(   13) = (   0.0590871   0.1023419   0.0000000), wk =   0.1111111
        k(   14) = (   0.0590871  -0.0682280   0.0000000), wk =   0.1111111
        k(   15) = (   0.0590871  -0.0341140   0.0000000), wk =   0.1111111
        k(   16) = (   0.0590871   0.0000000   0.0000000), wk =   0.1111111
        k(   17) = (  -0.0886307  -0.0511710   0.0000000), wk =   0.0555556
        k(   18) = (  -0.0886307  -0.0170570   0.0000000), wk =   0.1111111
        k(   19) = (  -0.0886307   0.0170570   0.0000000), wk =   0.1111111
        k(   20) = (  -0.0886307  -0.1535129   0.0000000), wk =   0.0555556

     Largest allocated arrays     est. size (Mb)     dimensions
     Largest temporary arrays     est. size (Mb)     dimensions

     Initial potential from superposition of free atoms
     Check: negative starting charge=   -1.121144

     starting charge  173.99967, renormalised to  183.00000

     negative rho (up, down):  1.179E+00 0.000E+00

     *
     * You are using vdW-DF for exchange-correlation in this calculation.
     * Please cite the following three references that made this development
     * possible:
     *
     *   M. Dion, H. Rydberg, E. Schroder, D. C. Langreth, and
     *   B. I. Lundqvist, Phys. Rev. Lett. 92, 246401 (2004).
     *
     *   T. Thonhauser, V. R. Cooper, S. Li, A. Puzder, P. Hyldgaard, and
     *   D. C. Langreth, Phys. Rev. B 76, 125112 (2007).
     *
     *   G. Roman-Perez and J. M. Soler, Phys. Rev. Lett. 103, 096102 (2009).
     *
     *
     * If you are using vdW-DF2, please also cite:
     *
     *   K. Lee, E. D. Murray, L. Kong, B. I. Lundqvist, and
     *   D. C. Langreth, Phys. Rev. B 82, 081101(R) (2010).
     *
     *
     * If you are calculating the stress with vdW-DF, please also cite:
     *
     *   R. Sabatini, E. Kucukbenli, B. Kolb, T. Thonhauser, and
     *   S. de Gironcoli, J. Phys.: Condens. Matter 24, 424209 (2012).
     *

     Carrying out vdW-DF run using the following parameters:

     Nqs =      20    Nr_points =    1024   r_max =   100.000
     q_mesh =
               0.00001000     0.04494208     0.09755937     0.15916263
               0.23128650     0.31572767     0.41458969     0.53033537
               0.66584808     0.82450364     1.01025438     1.22772762
               1.48234092     1.78043706     2.12944203     2.53805004
               3.01644009     3.57652955     4.23227104     5.00000000

     Gradients computed in reciprocal space

     Adding external electric field

     Computed dipole along edir(3) :
        Dipole                0.0000 Ry au,          0.0000 Debye
        Dipole field          0.0000 Ry au

        Potential amp.       -0.0000 Ry
        Total length         45.3365 bohr

     Starting wfc are  144 randomized atomic wfcs

     Self-consistent Calculation

     iteration #  1     ecut=    36.75 Ry     beta=0.10
     Davidson diagonalization with overlap
     ethr =  1.00E-02,  avg # of iterations =  7.8

[...]

     total energy              =   -2202.84886072 Ry
     Harris-Foulkes estimate   =   -2203.85230810 Ry
     estimated scf accuracy    <       6.43039096 Ry

[...]

     End of self-consistent calculation

          k = 0.0000 0.0000 0.0000 ( 17255 PWs)   bands (ev):

   -84.1459 -84.1178 -84.1177 -83.9807 -83.9797 -83.9536 -83.9535 -83.9533
   -83.9532 -43.7271 -43.5794 -43.5793 -43.5691 -43.5625 -43.4998 -43.4998
   -43.4726 -43.3614 -43.3613 -43.3233 -43.2825 -43.2825 -43.2201 -43.1923
   -43.1922 -43.1769 -43.1769 -43.1365 -43.1279 -43.1278 -43.1157 -43.1005
   -43.0708 -43.0707 -43.0642 -43.0642 -12.4455 -12.4455 -12.4322 -12.3872
   -12.3872 -12.2167 -12.1991 -12.1991 -12.1892 -12.1892 -12.1883 -12.1234
   -12.1234 -12.1117 -12.1117  -7.4938  -5.5973  -5.0501  -3.6711  -3.2407
    -3.1281  -2.4671  -2.4671  -2.0148  -1.9000  -1.9000  -1.7493  -1.7493
    -1.6285  -1.6285  -1.5110  -0.6981  -0.6980  -0.2738  -0.2095  -0.2095
    -0.0120   0.3793   0.3793   0.4187   0.8376   0.9294   0.9294   1.5400
     1.6461   1.7579   1.7580   2.0034   2.0034   2.0802   2.0966   2.0966
     2.2244   2.2244   2.5913   2.5913   2.7493   2.7494   3.0132   3.0133
     3.0880   3.6382   3.6382   3.7754   3.7823   4.0428   4.5144   4.5920
     4.5920   4.7464   4.8501   5.2582   5.2582   6.2004   6.2429   6.4402
     6.7161   7.1300   7.9194   8.0485   8.4382   8.4382   8.4480   8.4480
     8.9281

[...]

          k =-0.0886-0.0512 0.0000 ( 17264 PWs)   bands (ev):

[...]

     the Fermi energy is     2.3137 ev

!    total energy              =   -2201.82617628 Ry
     Harris-Foulkes estimate   =   -2201.82616803 Ry
     estimated scf accuracy    <       0.00000068 Ry

     The total energy is the sum of the following terms:

     one-electron contribution =  -17970.48384239 Ry
     hartree contribution      =    8993.11279159 Ry
     xc contribution           =    -465.72719968 Ry
     ewald contribution        =    7241.36691497 Ry
     electric field correction =       0.00000000 Ry
     smearing contrib. (-TS)   =      -0.09484077 Ry

     convergence has been achieved in  16 iterations

 BEEF-vdW xc energy contributions
           1 :   -407.959591420919
           2 :    376.771105980976
           3 :   -322.282600232847
           4 :    257.232920749338
           5 :   -194.803474155369
           6 :    144.640007904807
           7 :   -110.681286991366
           8 :    91.2956284664918
           9 :   -81.3170495943497
[...]
     Generated by new atomic code, or converted to UPF format
     Using radial grid of  983 points,  8 beta functions with:
                l(1) =   0
                l(2) =   0
                l(3) =   1
                l(4) =   1
                l(5) =   2
                l(6) =   2
                l(7) =   3
                l(8) =   3
     Q(r) pseudized with  8 coefficients,  rinner =    1.150   1.150   1.150
                                                       1.150   1.150   1.150
                                                       1.150

     PseudoPot. # 2 for In read from file:
     /afs/slac.stanford.edu/u/if/mamunm/psp/gbrv1.5pbe/In.UPF
     MD5 check sum: 90777abd96fbb83f2e67db2a40c566b9
     Pseudo is Ultrasoft + core correction, Zval = 13.0
     Generated by new atomic code, or converted to UPF format
     Using radial grid of  889 points,  6 beta functions with:
                l(1) =   0
                l(2) =   0
                l(3) =   1
                l(4) =   1
                l(5) =   2
                l(6) =   2
     Q(r) pseudized with  6 coefficients,  rinner =    1.400   1.400   1.400
                                                       1.400   1.400

     vdW kernel table read from file vdW_kernel_table
     MD5 check sum: 095c7af220d748ca6e76c0b4c6cfb241

     atomic species   valence    mass     pseudopotential
        Os1           16.00   190.23000     Os( 1.00)
        In1           13.00   114.81800     In( 1.00)

     No symmetry found

   Cartesian axes

     site n.     atom                  positions (alat units)
         1           Os1 tau(   1) = (   0.0000000   0.0000000  10.0000000  )
         2           Os1 tau(   2) = (  -1.4103462   2.4427913  10.0000000  )
         3           Os1 tau(   3) = (   1.4103462   2.4427913  10.0000000  )
         4           In1 tau(   4) = (   2.8206924   0.0000000  10.0000000  )
         5           Os1 tau(   5) = (   2.8206924   1.6285275  12.3030857  )
         6           Os1 tau(   6) = (   1.4103462   4.0713188  12.3030857  )
         7           Os1 tau(   7) = (  -1.4103462   4.0713188  12.3030857  )
         8           In1 tau(   8) = (   0.0000000   1.6285275  12.3030857  )
         9           Os1 tau(   9) = (   0.0000109   3.3544816  14.4459699  )
        10           Os1 tau(  10) = (   1.4947859   0.7655243  14.4459494  )
        11           Os1 tau(  11) = (   4.1466173   0.7655267  14.4459818  )
        12           In1 tau(  12) = (   2.8207084   3.2570618  14.9844590  )

     number of k points=    20  Fermi-Dirac smearing, width (Ry)=  0.0110
                       cart. coord. in units 2pi/alat
        k(    1) = (   0.0000000   0.0000000   0.0000000), wk =   0.0555556
        k(    2) = (   0.0000000   0.0341140   0.0000000), wk =   0.1111111
        k(    3) = (   0.0000000   0.0682280   0.0000000), wk =   0.1111111
        k(    4) = (   0.0000000  -0.1023419   0.0000000), wk =   0.0555556
        k(    5) = (   0.0295436   0.0170570   0.0000000), wk =   0.1111111
        k(    6) = (   0.0295436   0.0511710   0.0000000), wk =   0.1111111
        k(    7) = (   0.0295436   0.0852850   0.0000000), wk =   0.1111111
        k(    8) = (   0.0295436  -0.0852850   0.0000000), wk =   0.1111111
        k(    9) = (   0.0295436  -0.0511710   0.0000000), wk =   0.1111111
        k(   10) = (   0.0295436  -0.0170570   0.0000000), wk =   0.1111111
        k(   11) = (   0.0590871   0.0341140   0.0000000), wk =   0.1111111
        k(   12) = (   0.0590871   0.0682280   0.0000000), wk =   0.1111111
        k(   13) = (   0.0590871   0.1023419   0.0000000), wk =   0.1111111
        k(   14) = (   0.0590871  -0.0682280   0.0000000), wk =   0.1111111
        k(   15) = (   0.0590871  -0.0341140   0.0000000), wk =   0.1111111
        k(   16) = (   0.0590871   0.0000000   0.0000000), wk =   0.1111111
        k(   17) = (  -0.0886307  -0.0511710   0.0000000), wk =   0.0555556
        k(   18) = (  -0.0886307  -0.0170570   0.0000000), wk =   0.1111111
        k(   19) = (  -0.0886307   0.0170570   0.0000000), wk =   0.1111111
        k(   20) = (  -0.0886307  -0.1535129   0.0000000), wk =   0.0555556

     Largest allocated arrays     est. size (Mb)     dimensions
     Largest temporary arrays     est. size (Mb)     dimensions

     Initial potential from superposition of free atoms
     Check: negative starting charge=   -1.122906

     starting charge  173.99967, renormalised to  183.00000

[...]

     *
     * You are using vdW-DF for exchange-correlation in this calculation.
     * Please cite the following three references that made this development
     * possible:
     *
     *   M. Dion, H. Rydberg, E. Schroder, D. C. Langreth, and
     *   B. I. Lundqvist, Phys. Rev. Lett. 92, 246401 (2004).
     *
     *   T. Thonhauser, V. R. Cooper, S. Li, A. Puzder, P. Hyldgaard, and
     *   D. C. Langreth, Phys. Rev. B 76, 125112 (2007).
     *
     *   G. Roman-Perez and J. M. Soler, Phys. Rev. Lett. 103, 096102 (2009).
     *
     *
     * If you are using vdW-DF2, please also cite:
     *
     *   K. Lee, E. D. Murray, L. Kong, B. I. Lundqvist, and
     *   D. C. Langreth, Phys. Rev. B 82, 081101(R) (2010).
     *
     *
     * If you are calculating the stress with vdW-DF, please also cite:
     *
     *   R. Sabatini, E. Kucukbenli, B. Kolb, T. Thonhauser, and
     *   S. de Gironcoli, J. Phys.: Condens. Matter 24, 424209 (2012).
     *

     Carrying out vdW-DF run using the following parameters:

     Nqs =      20    Nr_points =    1024   r_max =   100.000
     q_mesh =
               0.00001000     0.04494208     0.09755937     0.15916263
               0.23128650     0.31572767     0.41458969     0.53033537
               0.66584808     0.82450364     1.01025438     1.22772762
               1.48234092     1.78043706     2.12944203     2.53805004
               3.01644009     3.57652955     4.23227104     5.00000000

     Gradients computed in reciprocal space

[...]

     Starting wfc are  144 randomized atomic wfcs

     Self-consistent Calculation

[...]

     total energy              =   -2201.87174775 Ry
     Harris-Foulkes estimate   =   -2201.87174719 Ry
     estimated scf accuracy    <       0.00000114 Ry

     iteration # 19     ecut=    36.75 Ry     beta=0.10
     Davidson diagonalization with overlap
     ethr =  6.23E-10,  avg # of iterations =  1.1

[...]

     negative rho (up, down):  1.101E+00 0.000E+00

     Adding external electric field

     Computed dipole along edir(3) :
        Dipole                0.1083 Ry au,          0.2751 Debye
        Dipole field          0.0003 Ry au

        Potential amp.       -0.0270 Ry
        Total length         45.3365 bohr

     End of self-consistent calculation

[...]

          k = 0.0591 0.0000 0.0000 ( 17214 PWs)   bands (ev):

[...]

          k =-0.0886-0.1535 0.0000 ( 17264 PWs)   bands (ev):

   -84.1062 -84.0961 -84.0863 -83.9638 -83.9390 -83.9338 -83.8025 -83.7935
   -83.7845 -43.7023 -43.6243 -43.5541 -43.5237 -43.4547 -43.4531 -43.3987
   -43.3968 -43.3290 -43.3053 -43.2505 -43.2246 -43.1780 -43.1652 -43.1496
   -43.1281 -43.1270 -43.1150 -43.1058 -43.0674 -43.0664 -43.0479 -43.0238
   -42.9879 -42.9692 -42.9669 -42.9224 -12.3590 -12.3272 -12.3092 -12.2783
   -12.2776 -12.0730 -12.0713 -12.0331 -12.0297 -12.0237 -12.0140 -12.0122
   -11.9981 -11.9964 -11.9878  -5.7489  -5.3428  -4.0199  -3.7892  -3.3159
    -3.1428  -2.8127  -2.6307  -1.8510  -1.7361  -1.6291  -1.5779  -1.4736
    -1.4461  -1.3012  -1.1001  -0.8841  -0.7375  -0.6585  -0.5172  -0.4443
    -0.3075  -0.0285   0.0124   0.0906   0.1974   0.3977   0.4388   0.6367
     0.7233   0.7429   0.8476   0.9912   1.5373   1.6370   1.7584   1.8751
     1.9078   2.0341   2.1614   2.1753   2.3145   2.4027   2.4811   2.5191
     2.8957   3.1109   3.4403   3.5268   3.7072   3.8540   4.5557   4.5717
     5.2959   5.8221   5.9001   6.0094   6.4286   6.9463   7.6170   7.7312
     8.1748   8.3301   8.4449   8.5269   8.5608   8.8016   9.1047   9.3327
     9.3853

     the Fermi energy is     2.4380 ev

!    total energy              =   -2201.87175170 Ry
     Harris-Foulkes estimate   =   -2201.87174935 Ry
     estimated scf accuracy    <       0.00000058 Ry

     The total energy is the sum of the following terms:

     one-electron contribution =  -18075.19395688 Ry
     hartree contribution      =    9045.86809833 Ry
     xc contribution           =    -465.86419231 Ry
     ewald contribution        =    7293.41435010 Ry
     electric field correction =       0.00003218 Ry
     smearing contrib. (-TS)   =      -0.09608312 Ry

     convergence has been achieved in  19 iterations

 BEEF-vdW xc energy contributions
           1 :   -408.236833526468
           2 :    377.093865311775
           3 :   -322.669606286132
           4 :    257.659904325822
           5 :   -195.202614402805
           6 :    144.919381340983
           7 :   -110.763274576017
           8 :    91.1608758798935
           9 :   -81.0304528142049
          10 :    74.5587331618500
          11 :   -67.5091682943190
          12 :    58.2559073021820
          13 :   -47.4682610127966
          14 :    36.9556049635189
          15 :   -28.4141889994169
          16 :    22.6354395759670
          17 :   -19.3700600089470
          18 :    17.6927614994933
          19 :   -16.5525033000194
          20 :    15.2083482895433
          21 :   -13.4021453846959
          22 :    11.2792868754343
          23 :   -9.17737003733953
          24 :    7.41124245384992
          25 :   -6.13971031094610
          26 :    5.33374997768504
          27 :   -4.82695877664463
          28 :    4.40667613615750
          29 :   -3.90702020979944
          30 :    3.26897765393380
          31 :   -38.2138193350100
          32 :   -28.8214830988966

     Forces acting on atoms (Ry/au):

     negative rho (up, down):  1.101E+00 0.000E+00
     atom    1 type  1   force =    -0.00000052   -0.02309254    0.02121505
     atom    2 type  1   force =    -0.02000146    0.01154588    0.02121382
     atom    3 type  1   force =     0.02000597    0.01154842    0.02121497
     atom    4 type  2   force =     0.00000229    0.00000192   -0.05611525
     atom    5 type  1   force =     0.00000443    0.02876516    0.00604454
     atom    6 type  1   force =     0.02491536   -0.01437999    0.00604708
     atom    7 type  1   force =    -0.02491806   -0.01438734    0.00604215
     atom    8 type  2   force =    -0.00000003   -0.00000006   -0.02702813
     atom    9 type  1   force =     0.00000043   -0.00041098    0.00029764
     atom   10 type  1   force =    -0.00035727    0.00020771    0.00030147
     atom   11 type  1   force =     0.00035171    0.00020238    0.00030523
     atom   12 type  2   force =    -0.00000283   -0.00000056    0.00046143

     Total force =     0.097074     Total SCF correction =     0.003480

     entering subroutine stress ...

     negative rho (up, down):  1.101E+00 0.000E+00
          total   stress  (Ry/bohr**3)                   (kbar)     P=  -24.96
  -0.00024515   0.00000000  -0.00000000        -36.06      0.00     -0.00
   0.00000000  -0.00024516   0.00000001          0.00    -36.06      0.00
  -0.00000000   0.00000001  -0.00001876         -0.00      0.00     -2.76

 !ASE

     Writing output data file calc.save

     General routines

     Parallel routines

   This run was terminated on:   9:15:40  31Dec2018

   JOB DONE.
Job  /afs/slac/g/suncat/bin/suncat-tsmpirun -x LD_LIBRARY_PATH -wdir /scratch/qe648697_bMvE2 pw.x -in pw.inp

TID   HOST_NAME   COMMAND_LINE            STATUS            TERMINATION_TIME
00000 suncat0141 pw.x -in pw.inp   Done                     12/31/2018 09:15:40
00001 suncat0141 pw.x -in pw.inp   Done                     12/31/2018 09:15:40
00002 suncat0141 pw.x -in pw.inp   Done                     12/31/2018 09:15:40
00003 suncat0141 pw.x -in pw.inp   Done                     12/31/2018 09:15:40
00004 suncat0141 pw.x -in pw.inp   Done                     12/31/2018 09:15:40
00005 suncat0141 pw.x -in pw.inp   Done                     12/31/2018 09:15:40
00006 suncat0141 pw.x -in pw.inp   Done                     12/31/2018 09:15:40
00007 suncat0141 pw.x -in pw.inp   Done                     12/31/2018 09:15:40
00008 suncat0140 pw.x -in pw.inp   Done                     12/31/2018 09:15:40
00009 suncat0140 pw.x -in pw.inp   Done                     12/31/2018 09:15:40
00010 suncat0140 pw.x -in pw.inp   Done                     12/31/2018 09:15:40
00011 suncat0140 pw.x -in pw.inp   Done                     12/31/2018 09:15:40
00012 suncat0140 pw.x -in pw.inp   Done                     12/31/2018 09:15:40
00013 suncat0140 pw.x -in pw.inp   Done                     12/31/2018 09:15:40
00014 suncat0140 pw.x -in pw.inp   Done                     12/31/2018 09:15:40
00015 suncat0140 pw.x -in pw.inp   Done                     12/31/2018 09:15:40
00016 suncat0135 pw.x -in pw.inp   Done                     12/31/2018 09:15:40
00017 suncat0135 pw.x -in pw.inp   Done                     12/31/2018 09:15:40
00018 suncat0135 pw.x -in pw.inp   Done                     12/31/2018 09:15:40
00019 suncat0135 pw.x -in pw.inp   Done                     12/31/2018 09:15:40
00020 suncat0135 pw.x -in pw.inp   Done                     12/31/2018 09:15:40
00021 suncat0135 pw.x -in pw.inp   Done                     12/31/2018 09:15:40
00022 suncat0135 pw.x -in pw.inp   Done                     12/31/2018 09:15:40
00023 suncat0135 pw.x -in pw.inp   Done                     12/31/2018 09:15:40
00024 suncat0134 pw.x -in pw.inp   Done                     12/31/2018 09:15:40
00025 suncat0134 pw.x -in pw.inp   Done                     12/31/2018 09:15:40
00026 suncat0134 pw.x -in pw.inp   Done                     12/31/2018 09:15:40
00027 suncat0134 pw.x -in pw.inp   Done                     12/31/2018 09:15:40
00028 suncat0134 pw.x -in pw.inp   Done                     12/31/2018 09:15:40
00029 suncat0134 pw.x -in pw.inp   Done                     12/31/2018 09:15:40
00030 suncat0134 pw.x -in pw.inp   Done                     12/31/2018 09:15:40
00031 suncat0134 pw.x -in pw.inp   Done                     12/31/2018 09:15:40
00032 suncat0272 pw.x -in pw.inp   Done                     12/31/2018 09:15:40
00033 suncat0272 pw.x -in pw.inp   Done                     12/31/2018 09:15:40
00034 suncat0272 pw.x -in pw.inp   Done                     12/31/2018 09:15:40
00035 suncat0272 pw.x -in pw.inp   Done                     12/31/2018 09:15:40
00036 suncat0272 pw.x -in pw.inp   Done                     12/31/2018 09:15:40
00037 suncat0272 pw.x -in pw.inp   Done                     12/31/2018 09:15:40
00038 suncat0272 pw.x -in pw.inp   Done                     12/31/2018 09:15:40
00039 suncat0272 pw.x -in pw.inp   Done                     12/31/2018 09:15:40
00040 suncat0262 pw.x -in pw.inp   Done                     12/31/2018 09:15:40
00041 suncat0262 pw.x -in pw.inp   Done                     12/31/2018 09:15:40
00042 suncat0262 pw.x -in pw.inp   Done                     12/31/2018 09:15:40
00043 suncat0262 pw.x -in pw.inp   Done                     12/31/2018 09:15:40
00044 suncat0262 pw.x -in pw.inp   Done                     12/31/2018 09:15:40
00045 suncat0262 pw.x -in pw.inp   Done                     12/31/2018 09:15:40
00046 suncat0262 pw.x -in pw.inp   Done                     12/31/2018 09:15:40
00047 suncat0262 pw.x -in pw.inp   Done                     12/31/2018 09:15:40
00048 suncat0258 pw.x -in pw.inp   Done                     12/31/2018 09:15:40
00049 suncat0258 pw.x -in pw.inp   Done                     12/31/2018 09:15:40
00050 suncat0258 pw.x -in pw.inp   Done                     12/31/2018 09:15:40
00051 suncat0258 pw.x -in pw.inp   Done                     12/31/2018 09:15:40
00052 suncat0258 pw.x -in pw.inp   Done                     12/31/2018 09:15:40
00053 suncat0258 pw.x -in pw.inp   Done                     12/31/2018 09:15:40
00054 suncat0258 pw.x -in pw.inp   Done                     12/31/2018 09:15:40
00055 suncat0258 pw.x -in pw.inp   Done                     12/31/2018 09:15:40
00056 suncat0257 pw.x -in pw.inp   Done                     12/31/2018 09:15:40
00057 suncat0257 pw.x -in pw.inp   Done                     12/31/2018 09:15:40
00058 suncat0257 pw.x -in pw.inp   Done                     12/31/2018 09:15:40
00059 suncat0257 pw.x -in pw.inp   Done                     12/31/2018 09:15:40
00060 suncat0257 pw.x -in pw.inp   Done                     12/31/2018 09:15:40
00061 suncat0257 pw.x -in pw.inp   Done                     12/31/2018 09:15:40
00062 suncat0257 pw.x -in pw.inp   Done                     12/31/2018 09:15:40
00063 suncat0257 pw.x -in pw.inp   Done                     12/31/2018 09:15:40