     Program PWSCF v.5.1rc2 (svn rev. 11289) starts on 27Dec2018 at 13: 2: 3

     Current dimensions of program PWSCF are:
     Max number of different atomic species (ntypx) = 10
     Max number of k-points (npk) =  40000
     Max angular momentum in pseudopotentials (lmaxx) =  3
     Presently stress not available with electric field

     IMPORTANT: XC functional enforced from input :
     Exchange-correlation      = BEEF-VDW ( 1  4 27 13 2)
     Any further DFT definition will be discarded
     Please, verify this is what you really want

     Subspace diagonalization in iterative solution of the eigenvalue problem:
     a serial algorithm will be used

     bravais-lattice index     =            0
     lattice parameter (alat)  =       1.8897  a.u.
     unit-cell volume          =    4725.7264 (a.u.)^3
     number of atoms/cell      =           12
     number of atomic types    =            2
     number of electrons       =       186.00
     number of Kohn-Sham states=          123
     kinetic-energy cutoff     =      36.7493  Ry
     charge density cutoff     =     367.4932  Ry
     convergence threshold     =      1.0E-06
     mixing beta               =       0.1000
     number of iterations used =           10  plain     mixing
     Exchange-correlation      = BEEF-VDW ( 1  4 27 13 2)
     nstep                     =           50

     celldm(1)=   1.889726  celldm(2)=   0.000000  celldm(3)=   0.000000
     celldm(4)=   0.000000  celldm(5)=   0.000000  celldm(6)=   0.000000

     crystal axes: (cart. coord. in units of alat)
               a(1) = (   5.724657   0.000000   0.000000 )
               a(2) = (  -2.862328   4.957698   0.000000 )
               a(3) = (   0.000000   0.000000  24.674163 )

     reciprocal axes: (cart. coord. in units 2 pi/alat)
               b(1) = (  0.174683  0.100853  0.000000 )
               b(2) = (  0.000000  0.201707  0.000000 )
               b(3) = (  0.000000  0.000000  0.040528 )

     PseudoPot. # 1 for Os read from file:
     /afs/slac.stanford.edu/u/if/mamunm/psp/gbrv1.5pbe/Os.UPF
     MD5 check sum: a3fb40a04f0c37c25c34bbc47164c9a8
     Pseudo is Ultrasoft + core correction, Zval = 16.0
     Generated by new atomic code, or converted to UPF format
     Using radial grid of  983 points,  8 beta functions with:
                l(1) =   0
                l(2) =   0
                l(3) =   1
                l(4) =   1
                l(5) =   2
                l(6) =   2
                l(7) =   3
                l(8) =   3
     Q(r) pseudized with  8 coefficients,  rinner =    1.150   1.150   1.150
                                                       1.150   1.150   1.150
                                                       1.150

     PseudoPot. # 2 for Pb read from file:
     /afs/slac.stanford.edu/u/if/mamunm/psp/gbrv1.5pbe/Pb.UPF
     MD5 check sum: 3d1c1779aa92214d1e8f3a7db79003e2
     Pseudo is Ultrasoft + core correction, Zval = 14.0
     Generated by new atomic code, or converted to UPF format
     Using radial grid of  899 points,  6 beta functions with:
                l(1) =   0
                l(2) =   0
                l(3) =   1
                l(4) =   1
                l(5) =   2
                l(6) =   2
     Q(r) pseudized with  6 coefficients,  rinner =    1.000   1.000   1.000
                                                       1.000   1.000

     vdW kernel table read from file vdW_kernel_table
     MD5 check sum: 095c7af220d748ca6e76c0b4c6cfb241

     atomic species   valence    mass     pseudopotential
        Os1           16.00   190.23000     Os( 1.00)
        Pb1           14.00   207.20000     Pb( 1.00)

     No symmetry found

   Cartesian axes

     site n.     atom                  positions (alat units)
         1           Os1 tau(   1) = (   0.0000000   0.0000000  10.0000000  )
         2           Os1 tau(   2) = (  -1.4311642   2.4788491  10.0000000  )
         3           Os1 tau(   3) = (   1.4311642   2.4788491  10.0000000  )
         4           Pb1 tau(   4) = (   2.8623284   0.0000000  10.0000000  )
         5           Os1 tau(   5) = (   2.8623284   1.6525661  12.3370814  )
         6           Os1 tau(   6) = (   1.4311642   4.1314152  12.3370814  )
         7           Os1 tau(   7) = (  -1.4311642   4.1314152  12.3370814  )
         8           Pb1 tau(   8) = (   0.0000000   1.6525661  12.3370814  )
         9           Os1 tau(   9) = (  -0.0000000   3.3051322  14.6741627  )
        10           Os1 tau(  10) = (   1.4311642   0.8262830  14.6741627  )
        11           Os1 tau(  11) = (   4.2934926   0.8262830  14.6741627  )
        12           Pb1 tau(  12) = (   2.8623284   3.3051322  14.6741627  )

     number of k points=    20  Fermi-Dirac smearing, width (Ry)=  0.0110
                       cart. coord. in units 2pi/alat
        k(    1) = (   0.0000000   0.0000000   0.0000000), wk =   0.0555556
        k(    2) = (   0.0000000   0.0336178   0.0000000), wk =   0.1111111
        k(    3) = (   0.0000000   0.0672355   0.0000000), wk =   0.1111111
        k(    4) = (   0.0000000  -0.1008533   0.0000000), wk =   0.0555556
        k(    5) = (   0.0291138   0.0168089   0.0000000), wk =   0.1111111
        k(    6) = (   0.0291138   0.0504266   0.0000000), wk =   0.1111111
        k(    7) = (   0.0291138   0.0840444   0.0000000), wk =   0.1111111
        k(    8) = (   0.0291138  -0.0840444   0.0000000), wk =   0.1111111
        k(    9) = (   0.0291138  -0.0504266   0.0000000), wk =   0.1111111
        k(   10) = (   0.0291138  -0.0168089   0.0000000), wk =   0.1111111
        k(   11) = (   0.0582277   0.0336178   0.0000000), wk =   0.1111111
        k(   12) = (   0.0582277   0.0672355   0.0000000), wk =   0.1111111
        k(   13) = (   0.0582277   0.1008533   0.0000000), wk =   0.1111111
        k(   14) = (   0.0582277  -0.0672355   0.0000000), wk =   0.1111111
        k(   15) = (   0.0582277  -0.0336178   0.0000000), wk =   0.1111111
        k(   16) = (   0.0582277   0.0000000   0.0000000), wk =   0.1111111
        k(   17) = (  -0.0873415  -0.0504266   0.0000000), wk =   0.0555556
        k(   18) = (  -0.0873415  -0.0168089   0.0000000), wk =   0.1111111
        k(   19) = (  -0.0873415   0.0168089   0.0000000), wk =   0.1111111
        k(   20) = (  -0.0873415  -0.1512799   0.0000000), wk =   0.0555556

     Largest allocated arrays     est. size (Mb)     dimensions
     Largest temporary arrays     est. size (Mb)     dimensions

     Initial potential from superposition of free atoms
     Check: negative starting charge=   -1.160194

     starting charge  181.49262, renormalised to  186.00000

     negative rho (up, down):  1.189E+00 0.000E+00

     *
     * You are using vdW-DF for exchange-correlation in this calculation.
     * Please cite the following three references that made this development
     * possible:
     *
     *   M. Dion, H. Rydberg, E. Schroder, D. C. Langreth, and
     *   B. I. Lundqvist, Phys. Rev. Lett. 92, 246401 (2004).
     *
     *   T. Thonhauser, V. R. Cooper, S. Li, A. Puzder, P. Hyldgaard, and
     *   D. C. Langreth, Phys. Rev. B 76, 125112 (2007).
     *
     *   G. Roman-Perez and J. M. Soler, Phys. Rev. Lett. 103, 096102 (2009).
     *
     *
     * If you are using vdW-DF2, please also cite:
     *
     *   K. Lee, E. D. Murray, L. Kong, B. I. Lundqvist, and
     *   D. C. Langreth, Phys. Rev. B 82, 081101(R) (2010).
     *
     *
     * If you are calculating the stress with vdW-DF, please also cite:
     *
     *   R. Sabatini, E. Kucukbenli, B. Kolb, T. Thonhauser, and
     *   S. de Gironcoli, J. Phys.: Condens. Matter 24, 424209 (2012).
     *

     Carrying out vdW-DF run using the following parameters:

     Nqs =      20    Nr_points =    1024   r_max =   100.000
     q_mesh =
               0.00001000     0.04494208     0.09755937     0.15916263
               0.23128650     0.31572767     0.41458969     0.53033537
               0.66584808     0.82450364     1.01025438     1.22772762
               1.48234092     1.78043706     2.12944203     2.53805004
               3.01644009     3.57652955     4.23227104     5.00000000

     Gradients computed in reciprocal space

     Adding external electric field

     Computed dipole along edir(3) :
        Dipole               -0.0000 Ry au,         -0.0000 Debye
        Dipole field         -0.0000 Ry au

        Potential amp.        0.0000 Ry
        Total length         45.4617 bohr

     Starting wfc are  144 randomized atomic wfcs

     Self-consistent Calculation

     iteration #  1     ecut=    36.75 Ry     beta=0.10
     Davidson diagonalization with overlap
     ethr =  1.00E-02,  avg # of iterations =  8.3

     Threshold (ethr) on eigenvalues was too large:
     Diagonalizing with lowered threshold

     Davidson diagonalization with overlap
     ethr =  6.09E-04,  avg # of iterations =  3.4

[...]

     total energy              =   -2295.49199002 Ry
     Harris-Foulkes estimate   =   -2295.66722838 Ry
     estimated scf accuracy    <       1.16398816 Ry

[...]

     End of self-consistent calculation

          k = 0.0000 0.0000 0.0000 ( 17837 PWs)   bands (ev):

   -83.8004 -83.7776 -83.7776 -83.6124 -83.6118 -83.5902 -83.5901 -83.5901
   -83.5900 -43.3285 -43.2253 -43.2252 -43.1969 -43.1687 -43.1461 -43.1460
   -43.1120 -43.0119 -42.9914 -42.9913 -42.9371 -42.9371 -42.8768 -42.8767
   -42.8727 -42.8375 -42.8374 -42.8085 -42.8031 -42.8030 -42.7768 -42.7666
   -42.7415 -42.7414 -42.7363 -42.7362 -14.9600 -14.9600 -14.9513 -14.9067
   -14.9067 -14.5513 -14.5406 -14.5406 -14.5328 -14.5328 -14.5291 -14.4805
   -14.4805 -14.4642 -14.4642  -8.9569  -7.3951  -7.1709  -3.4216  -3.1766
    -2.8976  -2.1688  -2.1688  -1.6175  -1.5980  -1.5980  -1.5118  -1.5118
    -1.4064  -1.4064  -1.2975  -0.6337  -0.6337  -0.1207  -0.0682   0.1128
     0.1129   0.5746   0.5746   0.6972   0.8381   0.8381   1.0592   1.2624
     1.4404   1.4404   1.7235   1.9533   1.9533   2.2651   2.2651   2.2840
     2.4015   2.4016   2.7743   2.7744   2.8337   2.8337   2.9435   3.1760
     3.1760   3.2616   3.4185   3.7672   3.7673   3.8840   4.2130   4.2260
     4.2260   4.5888   4.7161   4.8265   4.9196   5.0181   5.0181   6.0275
     6.7507   6.8136   7.3259   8.1531   8.2985   8.2985   8.3018   8.3018
     8.8265   8.8266   8.8663

[...]

          k =-0.0873-0.0504 0.0000 ( 17764 PWs)   bands (ev):

[...]

     the Fermi energy is     2.5908 ev

!    total energy              =   -2295.26055900 Ry
     Harris-Foulkes estimate   =   -2295.26058691 Ry
     estimated scf accuracy    <       0.00000037 Ry

     The total energy is the sum of the following terms:

     one-electron contribution =  -17895.05003384 Ry
     hartree contribution      =    8954.28932761 Ry
     xc contribution           =    -544.40428894 Ry
     ewald contribution        =    7190.00936325 Ry
     electric field correction =       0.00000000 Ry
     smearing contrib. (-TS)   =      -0.10492708 Ry

     convergence has been achieved in  16 iterations

 BEEF-vdW xc energy contributions
           1 :   -479.824942187999
           2 :    445.079090791407
           3 :   -383.695025445483
[...]
                l(3) =   1
                l(4) =   1
                l(5) =   2
                l(6) =   2
                l(7) =   3
                l(8) =   3
     Q(r) pseudized with  8 coefficients,  rinner =    1.150   1.150   1.150
                                                       1.150   1.150   1.150
                                                       1.150

     PseudoPot. # 2 for Pb read from file:
     /afs/slac.stanford.edu/u/if/mamunm/psp/gbrv1.5pbe/Pb.UPF
     MD5 check sum: 3d1c1779aa92214d1e8f3a7db79003e2
     Pseudo is Ultrasoft + core correction, Zval = 14.0
     Generated by new atomic code, or converted to UPF format
     Using radial grid of  899 points,  6 beta functions with:
                l(1) =   0
                l(2) =   0
                l(3) =   1
                l(4) =   1
                l(5) =   2
                l(6) =   2
     Q(r) pseudized with  6 coefficients,  rinner =    1.000   1.000   1.000
                                                       1.000   1.000

     vdW kernel table read from file vdW_kernel_table
     MD5 check sum: 095c7af220d748ca6e76c0b4c6cfb241

     atomic species   valence    mass     pseudopotential
        Os1           16.00   190.23000     Os( 1.00)
        Pb1           14.00   207.20000     Pb( 1.00)

     No symmetry found

   Cartesian axes

     site n.     atom                  positions (alat units)
         1           Os1 tau(   1) = (   0.0000000   0.0000000  10.0000000  )
         2           Os1 tau(   2) = (  -1.4311642   2.4788491  10.0000000  )
         3           Os1 tau(   3) = (   1.4311642   2.4788491  10.0000000  )
         4           Pb1 tau(   4) = (   2.8623284   0.0000000  10.0000000  )
         5           Os1 tau(   5) = (   2.8623284   1.6525661  12.3370814  )
         6           Os1 tau(   6) = (   1.4311642   4.1314152  12.3370814  )
         7           Os1 tau(   7) = (  -1.4311642   4.1314152  12.3370814  )
         8           Pb1 tau(   8) = (   0.0000000   1.6525661  12.3370814  )
         9           Os1 tau(   9) = (  -0.0000719   3.4437861  14.4489664  )
        10           Os1 tau(  10) = (   1.5513537   0.7568672  14.4489970  )
        11           Os1 tau(  11) = (   4.1732475   0.7569090  14.4489520  )
        12           Pb1 tau(  12) = (   2.8622518   3.3051377  15.2802971  )

     number of k points=    20  Fermi-Dirac smearing, width (Ry)=  0.0110
                       cart. coord. in units 2pi/alat
        k(    1) = (   0.0000000   0.0000000   0.0000000), wk =   0.0555556
        k(    2) = (   0.0000000   0.0336178   0.0000000), wk =   0.1111111
        k(    3) = (   0.0000000   0.0672355   0.0000000), wk =   0.1111111
        k(    4) = (   0.0000000  -0.1008533   0.0000000), wk =   0.0555556
        k(    5) = (   0.0291138   0.0168089   0.0000000), wk =   0.1111111
        k(    6) = (   0.0291138   0.0504266   0.0000000), wk =   0.1111111
        k(    7) = (   0.0291138   0.0840444   0.0000000), wk =   0.1111111
        k(    8) = (   0.0291138  -0.0840444   0.0000000), wk =   0.1111111
        k(    9) = (   0.0291138  -0.0504266   0.0000000), wk =   0.1111111
        k(   10) = (   0.0291138  -0.0168089   0.0000000), wk =   0.1111111
        k(   11) = (   0.0582277   0.0336178   0.0000000), wk =   0.1111111
        k(   12) = (   0.0582277   0.0672355   0.0000000), wk =   0.1111111
        k(   13) = (   0.0582277   0.1008533   0.0000000), wk =   0.1111111
        k(   14) = (   0.0582277  -0.0672355   0.0000000), wk =   0.1111111
        k(   15) = (   0.0582277  -0.0336178   0.0000000), wk =   0.1111111
        k(   16) = (   0.0582277   0.0000000   0.0000000), wk =   0.1111111
        k(   17) = (  -0.0873415  -0.0504266   0.0000000), wk =   0.0555556
        k(   18) = (  -0.0873415  -0.0168089   0.0000000), wk =   0.1111111
        k(   19) = (  -0.0873415   0.0168089   0.0000000), wk =   0.1111111
        k(   20) = (  -0.0873415  -0.1512799   0.0000000), wk =   0.0555556

     Largest allocated arrays     est. size (Mb)     dimensions
     Largest temporary arrays     est. size (Mb)     dimensions

     Initial potential from superposition of free atoms
     Check: negative starting charge=   -1.159728

     starting charge  181.49262, renormalised to  186.00000

[...]

     *
     * You are using vdW-DF for exchange-correlation in this calculation.
     * Please cite the following three references that made this development
     * possible:
     *
     *   M. Dion, H. Rydberg, E. Schroder, D. C. Langreth, and
     *   B. I. Lundqvist, Phys. Rev. Lett. 92, 246401 (2004).
     *
     *   T. Thonhauser, V. R. Cooper, S. Li, A. Puzder, P. Hyldgaard, and
     *   D. C. Langreth, Phys. Rev. B 76, 125112 (2007).
     *
     *   G. Roman-Perez and J. M. Soler, Phys. Rev. Lett. 103, 096102 (2009).
     *
     *
     * If you are using vdW-DF2, please also cite:
     *
     *   K. Lee, E. D. Murray, L. Kong, B. I. Lundqvist, and
     *   D. C. Langreth, Phys. Rev. B 82, 081101(R) (2010).
     *
     *
     * If you are calculating the stress with vdW-DF, please also cite:
     *
     *   R. Sabatini, E. Kucukbenli, B. Kolb, T. Thonhauser, and
     *   S. de Gironcoli, J. Phys.: Condens. Matter 24, 424209 (2012).
     *

     Carrying out vdW-DF run using the following parameters:

     Nqs =      20    Nr_points =    1024   r_max =   100.000
     q_mesh =
               0.00001000     0.04494208     0.09755937     0.15916263
               0.23128650     0.31572767     0.41458969     0.53033537
               0.66584808     0.82450364     1.01025438     1.22772762
               1.48234092     1.78043706     2.12944203     2.53805004
               3.01644009     3.57652955     4.23227104     5.00000000

     Gradients computed in reciprocal space

[...]

     Starting wfc are  144 randomized atomic wfcs

     Self-consistent Calculation

[...]

     iteration # 10     ecut=    36.75 Ry     beta=0.10
     Davidson diagonalization with overlap
     c_bands:  1 eigenvalues not converged
     ethr =  6.72E-06,  avg # of iterations =  5.0

[...]

     total energy              =   -2295.35395318 Ry
     Harris-Foulkes estimate   =   -2295.35395547 Ry
     estimated scf accuracy    <       0.00000115 Ry

     iteration # 18     ecut=    36.75 Ry     beta=0.10
     Davidson diagonalization with overlap
     ethr =  6.18E-10,  avg # of iterations =  2.0

[...]

     negative rho (up, down):  1.136E+00 0.000E+00

     Adding external electric field

     Computed dipole along edir(3) :
        Dipole                0.2082 Ry au,          0.5292 Debye
        Dipole field          0.0006 Ry au

        Potential amp.       -0.0503 Ry
        Total length         45.4617 bohr

     End of self-consistent calculation

[...]

          k = 0.0582 0.0000 0.0000 ( 17795 PWs)   bands (ev):

[...]

          k =-0.0873-0.1513 0.0000 ( 17764 PWs)   bands (ev):

   -83.6770 -83.6682 -83.6599 -83.5357 -83.5047 -83.5016 -83.3053 -83.2979
   -83.2905 -43.3004 -43.2095 -43.1559 -43.0987 -43.0804 -43.0378 -42.9727
   -42.9656 -42.8992 -42.8451 -42.8043 -42.7816 -42.7698 -42.7288 -42.7103
   -42.7001 -42.6677 -42.6554 -42.6417 -42.6088 -42.6004 -42.5886 -42.5727
   -42.5222 -42.5059 -42.5049 -42.4620 -14.7474 -14.7252 -14.7038 -14.6769
   -14.6727 -14.3440 -14.3147 -14.3060 -14.3034 -14.2651 -14.2594 -14.2577
   -14.2501 -14.2405 -14.2346  -7.6947  -6.7834  -6.0599  -4.1961  -3.2395
    -3.1232  -2.7786  -2.4014  -1.5358  -1.4511  -1.4391  -1.3250  -1.2101
    -1.2067  -1.1059  -0.7742  -0.5795  -0.5344  -0.4456  -0.3258  -0.2457
    -0.1600   0.2247   0.3078   0.4250   0.5172   0.7594   0.8327   0.9873
     1.0585   1.0786   1.2421   1.3809   1.8048   1.8495   1.9668   2.0874
     2.2082   2.3830   2.4657   2.4686   2.5917   2.7400   2.7688   2.8399
     2.8692   3.3599   3.4022   3.6161   3.6955   4.1433   4.2961   4.6409
     4.8148   5.1787   5.6674   5.8212   6.1309   6.6088   7.1763   7.3510
     7.6217   8.0068   8.0300   8.3397   8.4960   8.5702   8.6845   8.9868
     9.0458   9.2222   9.3567

     the Fermi energy is     2.8480 ev

!    total energy              =   -2295.35393488 Ry
     Harris-Foulkes estimate   =   -2295.35395348 Ry
     estimated scf accuracy    <       0.00000045 Ry

     The total energy is the sum of the following terms:

     one-electron contribution =  -17961.36811322 Ry
     hartree contribution      =    8988.43743274 Ry
     xc contribution           =    -544.54213078 Ry
     ewald contribution        =    7222.21928837 Ry
     electric field correction =       0.00011528 Ry
     smearing contrib. (-TS)   =      -0.10052728 Ry

     convergence has been achieved in  18 iterations

 BEEF-vdW xc energy contributions
           1 :   -480.195161426902
           2 :    445.480070951293
           3 :   -384.139770000548
           4 :    309.447467360592
           5 :   -235.594097564029
           6 :    173.677062059031
           7 :   -129.211258638716
           8 :    101.762805215684
           9 :   -86.5604786474372
          10 :    77.2210844178618
          11 :   -68.4199407634047
          12 :    57.5132961198202
          13 :   -44.7154919499651
          14 :    32.0796131233511
          15 :   -21.9731458871640
          16 :    15.7940267199419
          17 :   -13.4231498902141
          18 :    13.4903426726993
          19 :   -14.1713692522168
          20 :    14.0464005947235
          21 :   -12.6127410348930
          22 :    10.2722048547166
          23 :   -7.89775329745157
          24 :    6.26292943704811
          25 :   -5.63787756205170
          26 :    5.71940416272344
          27 :   -5.87565945452377
          28 :    5.53131019790339
          29 :   -4.47570869234130
          30 :    2.94176450533337
          31 :   -42.8478370754111
          32 :   -32.2872521545345

     Forces acting on atoms (Ry/au):

     negative rho (up, down):  1.136E+00 0.000E+00
     atom    1 type  1   force =    -0.00000110   -0.02629881    0.03349024
     atom    2 type  1   force =    -0.02277379    0.01314610    0.03348632
     atom    3 type  1   force =     0.02278157    0.01315246    0.03348203
     atom    4 type  2   force =    -0.00000297    0.00000455   -0.07516256
     atom    5 type  1   force =    -0.00000456    0.03739450    0.00431009
     atom    6 type  1   force =     0.03238215   -0.01870259    0.00432863
     atom    7 type  1   force =    -0.03237779   -0.01869306    0.00432246
     atom    8 type  2   force =    -0.00000535   -0.00001367   -0.03787912
     atom    9 type  1   force =     0.00000029   -0.00155320   -0.00053161
     atom   10 type  1   force =    -0.00134480    0.00077813   -0.00054015
     atom   11 type  1   force =     0.00134958    0.00078130   -0.00053730
     atom   12 type  2   force =    -0.00000323    0.00000429    0.00123096

     Total force =     0.129551     Total SCF correction =     0.003652

     entering subroutine stress ...

     negative rho (up, down):  1.136E+00 0.000E+00
          total   stress  (Ry/bohr**3)                   (kbar)     P=  -19.07
  -0.00017952  -0.00000000   0.00000000        -26.41     -0.00      0.00
  -0.00000000  -0.00017953   0.00000001         -0.00    -26.41      0.00
   0.00000000   0.00000001  -0.00002986          0.00      0.00     -4.39

 !ASE

     Writing output data file calc.save

     General routines

     Parallel routines

   This run was terminated on:  14:31:26  27Dec2018

   JOB DONE.
Job  /afs/slac/g/suncat/bin/suncat-tsmpirun -x LD_LIBRARY_PATH -wdir /scratch/qe110338_aqICV pw.x -in pw.inp

TID   HOST_NAME   COMMAND_LINE            STATUS            TERMINATION_TIME
00000 suncat0277 pw.x -in pw.inp   Done                     12/27/2018 14:31:26
00001 suncat0277 pw.x -in pw.inp   Done                     12/27/2018 14:31:26
00002 suncat0277 pw.x -in pw.inp   Done                     12/27/2018 14:31:26
00003 suncat0277 pw.x -in pw.inp   Done                     12/27/2018 14:31:26
00004 suncat0277 pw.x -in pw.inp   Done                     12/27/2018 14:31:26
00005 suncat0277 pw.x -in pw.inp   Done                     12/27/2018 14:31:26
00006 suncat0277 pw.x -in pw.inp   Done                     12/27/2018 14:31:26
00007 suncat0277 pw.x -in pw.inp   Done                     12/27/2018 14:31:26
00008 suncat0276 pw.x -in pw.inp   Done                     12/27/2018 14:31:26
00009 suncat0276 pw.x -in pw.inp   Done                     12/27/2018 14:31:26
00010 suncat0276 pw.x -in pw.inp   Done                     12/27/2018 14:31:26
00011 suncat0276 pw.x -in pw.inp   Done                     12/27/2018 14:31:26
00012 suncat0276 pw.x -in pw.inp   Done                     12/27/2018 14:31:26
00013 suncat0276 pw.x -in pw.inp   Done                     12/27/2018 14:31:26
00014 suncat0276 pw.x -in pw.inp   Done                     12/27/2018 14:31:26
00015 suncat0276 pw.x -in pw.inp   Done                     12/27/2018 14:31:26
00016 suncat0274 pw.x -in pw.inp   Done                     12/27/2018 14:31:26
00017 suncat0274 pw.x -in pw.inp   Done                     12/27/2018 14:31:26
00018 suncat0274 pw.x -in pw.inp   Done                     12/27/2018 14:31:26
00019 suncat0274 pw.x -in pw.inp   Done                     12/27/2018 14:31:26
00020 suncat0274 pw.x -in pw.inp   Done                     12/27/2018 14:31:26
00021 suncat0274 pw.x -in pw.inp   Done                     12/27/2018 14:31:26
00022 suncat0274 pw.x -in pw.inp   Done                     12/27/2018 14:31:26
00023 suncat0274 pw.x -in pw.inp   Done                     12/27/2018 14:31:26
00024 suncat0273 pw.x -in pw.inp   Done                     12/27/2018 14:31:26
00025 suncat0273 pw.x -in pw.inp   Done                     12/27/2018 14:31:26
00026 suncat0273 pw.x -in pw.inp   Done                     12/27/2018 14:31:26
00027 suncat0273 pw.x -in pw.inp   Done                     12/27/2018 14:31:26
00028 suncat0273 pw.x -in pw.inp   Done                     12/27/2018 14:31:26
00029 suncat0273 pw.x -in pw.inp   Done                     12/27/2018 14:31:26
00030 suncat0273 pw.x -in pw.inp   Done                     12/27/2018 14:31:26
00031 suncat0273 pw.x -in pw.inp   Done                     12/27/2018 14:31:26
00032 suncat0230 pw.x -in pw.inp   Done                     12/27/2018 14:31:26
00033 suncat0230 pw.x -in pw.inp   Done                     12/27/2018 14:31:26
00034 suncat0230 pw.x -in pw.inp   Done                     12/27/2018 14:31:26
00035 suncat0230 pw.x -in pw.inp   Done                     12/27/2018 14:31:26
00036 suncat0230 pw.x -in pw.inp   Done                     12/27/2018 14:31:26
00037 suncat0230 pw.x -in pw.inp   Done                     12/27/2018 14:31:26
00038 suncat0230 pw.x -in pw.inp   Done                     12/27/2018 14:31:26
00039 suncat0230 pw.x -in pw.inp   Done                     12/27/2018 14:31:26
00040 suncat0229 pw.x -in pw.inp   Done                     12/27/2018 14:31:26
00041 suncat0229 pw.x -in pw.inp   Done                     12/27/2018 14:31:26
00042 suncat0229 pw.x -in pw.inp   Done                     12/27/2018 14:31:26
00043 suncat0229 pw.x -in pw.inp   Done                     12/27/2018 14:31:26
00044 suncat0229 pw.x -in pw.inp   Done                     12/27/2018 14:31:26
00045 suncat0229 pw.x -in pw.inp   Done                     12/27/2018 14:31:26
00046 suncat0229 pw.x -in pw.inp   Done                     12/27/2018 14:31:26
00047 suncat0229 pw.x -in pw.inp   Done                     12/27/2018 14:31:26
00048 suncat0205 pw.x -in pw.inp   Done                     12/27/2018 14:31:26
00049 suncat0205 pw.x -in pw.inp   Done                     12/27/2018 14:31:26
00050 suncat0205 pw.x -in pw.inp   Done                     12/27/2018 14:31:26
00051 suncat0205 pw.x -in pw.inp   Done                     12/27/2018 14:31:26
00052 suncat0205 pw.x -in pw.inp   Done                     12/27/2018 14:31:26
00053 suncat0205 pw.x -in pw.inp   Done                     12/27/2018 14:31:26
00054 suncat0205 pw.x -in pw.inp   Done                     12/27/2018 14:31:26
00055 suncat0205 pw.x -in pw.inp   Done                     12/27/2018 14:31:26
00056 suncat0204 pw.x -in pw.inp   Done                     12/27/2018 14:31:26
00057 suncat0204 pw.x -in pw.inp   Done                     12/27/2018 14:31:26
00058 suncat0204 pw.x -in pw.inp   Done                     12/27/2018 14:31:26
00059 suncat0204 pw.x -in pw.inp   Done                     12/27/2018 14:31:26
00060 suncat0204 pw.x -in pw.inp   Done                     12/27/2018 14:31:26
00061 suncat0204 pw.x -in pw.inp   Done                     12/27/2018 14:31:26
00062 suncat0204 pw.x -in pw.inp   Done                     12/27/2018 14:31:26
00063 suncat0204 pw.x -in pw.inp   Done                     12/27/2018 14:31:26