     Program PWSCF v.5.1rc2 (svn rev. 11289) starts on  2Jan2019 at 21:28:33

     Current dimensions of program PWSCF are:
     Max number of different atomic species (ntypx) = 10
     Max number of k-points (npk) =  40000
     Max angular momentum in pseudopotentials (lmaxx) =  3
     Presently stress not available with electric field

     IMPORTANT: XC functional enforced from input :
     Exchange-correlation      = BEEF-VDW ( 1  4 27 13 2)
     Any further DFT definition will be discarded
     Please, verify this is what you really want

     Subspace diagonalization in iterative solution of the eigenvalue problem:
     a serial algorithm will be used

     bravais-lattice index     =            0
     lattice parameter (alat)  =       1.8897  a.u.
     unit-cell volume          =    5553.0280 (a.u.)^3
     number of atoms/cell      =           12
     number of atomic types    =            2
     number of electrons       =       153.00
     number of Kohn-Sham states=          106
     kinetic-energy cutoff     =      36.7493  Ry
     charge density cutoff     =     367.4932  Ry
     convergence threshold     =      1.0E-06
     mixing beta               =       0.1000
     number of iterations used =           10  plain     mixing
     Exchange-correlation      = BEEF-VDW ( 1  4 27 13 2)
     nstep                     =           50

     celldm(1)=   1.889726  celldm(2)=   0.000000  celldm(3)=   0.000000
     celldm(4)=   0.000000  celldm(5)=   0.000000  celldm(6)=   0.000000

     crystal axes: (cart. coord. in units of alat)
               a(1) = (   6.161205   0.000000   0.000000 )
               a(2) = (  -3.080603   5.335760   0.000000 )
               a(3) = (   0.000000   0.000000  25.030603 )

     reciprocal axes: (cart. coord. in units 2 pi/alat)
               b(1) = (  0.162306  0.093707  0.000000 )
               b(2) = (  0.000000  0.187415  0.000000 )
               b(3) = (  0.000000  0.000000  0.039951 )

     PseudoPot. # 1 for Zr read from file:
     /afs/slac.stanford.edu/u/if/mamunm/psp/gbrv1.5pbe/Zr.UPF
     MD5 check sum: 5db81b1e868ab7776c4564c113de050b
     Pseudo is Ultrasoft + core correction, Zval = 12.0
     Generated by new atomic code, or converted to UPF format
     Using radial grid of  887 points,  6 beta functions with:
                l(1) =   0
                l(2) =   0
                l(3) =   1
                l(4) =   1
                l(5) =   2
                l(6) =   2
     Q(r) pseudized with  6 coefficients,  rinner =    1.200   1.200   1.200
                                                       1.200   1.200

     PseudoPot. # 2 for Tc read from file:
     /afs/slac.stanford.edu/u/if/mamunm/psp/gbrv1.5pbe/Tc.UPF
     MD5 check sum: 9eb49e5b028550b2339a02317eb7b844
     Pseudo is Ultrasoft + core correction, Zval = 15.0
     Generated by new atomic code, or converted to UPF format
     Using radial grid of  965 points,  6 beta functions with:
                l(1) =   0
                l(2) =   0
                l(3) =   1
                l(4) =   1
                l(5) =   2
                l(6) =   2
     Q(r) pseudized with  8 coefficients,  rinner =    1.300   1.300   1.300
                                                       1.300   1.300

     vdW kernel table read from file vdW_kernel_table
     MD5 check sum: 095c7af220d748ca6e76c0b4c6cfb241

     atomic species   valence    mass     pseudopotential
        Zr1           12.00    91.22400     Zr( 1.00)
        Tc1           15.00    97.90721     Tc( 1.00)

     No symmetry found

   Cartesian axes

     site n.     atom                  positions (alat units)
         1           Zr1 tau(   1) = (   0.0000000   0.0000000  10.0000000  )
         2           Zr1 tau(   2) = (  -1.5403013   2.6678800  10.0000000  )
         3           Zr1 tau(   3) = (   1.5403013   2.6678800  10.0000000  )
         4           Tc1 tau(   4) = (   3.0806025   0.0000000  10.0000000  )
         5           Zr1 tau(   5) = (   3.0806025   1.7785867  12.5153014  )
         6           Zr1 tau(   6) = (   1.5403013   4.4464667  12.5153014  )
         7           Zr1 tau(   7) = (  -1.5403013   4.4464667  12.5153014  )
         8           Tc1 tau(   8) = (   0.0000000   1.7785867  12.5153014  )
         9           Zr1 tau(   9) = (  -0.0000000   3.5571734  15.0306029  )
        10           Zr1 tau(  10) = (   1.5403013   0.8892933  15.0306029  )
        11           Zr1 tau(  11) = (   4.6209038   0.8892933  15.0306029  )
        12           Tc1 tau(  12) = (   3.0806025   3.5571734  15.0306029  )

     number of k points=    20  Fermi-Dirac smearing, width (Ry)=  0.0110
                       cart. coord. in units 2pi/alat
        k(    1) = (   0.0000000   0.0000000   0.0000000), wk =   0.0555556
        k(    2) = (   0.0000000   0.0312358   0.0000000), wk =   0.1111111
        k(    3) = (   0.0000000   0.0624716   0.0000000), wk =   0.1111111
        k(    4) = (   0.0000000  -0.0937074   0.0000000), wk =   0.0555556
        k(    5) = (   0.0270510   0.0156179   0.0000000), wk =   0.1111111
        k(    6) = (   0.0270510   0.0468537   0.0000000), wk =   0.1111111
        k(    7) = (   0.0270510   0.0780895   0.0000000), wk =   0.1111111
        k(    8) = (   0.0270510  -0.0780895   0.0000000), wk =   0.1111111
        k(    9) = (   0.0270510  -0.0468537   0.0000000), wk =   0.1111111
        k(   10) = (   0.0270510  -0.0156179   0.0000000), wk =   0.1111111
        k(   11) = (   0.0541020   0.0312358   0.0000000), wk =   0.1111111
        k(   12) = (   0.0541020   0.0624716   0.0000000), wk =   0.1111111
        k(   13) = (   0.0541020   0.0937074   0.0000000), wk =   0.1111111
        k(   14) = (   0.0541020  -0.0624716   0.0000000), wk =   0.1111111
        k(   15) = (   0.0541020  -0.0312358   0.0000000), wk =   0.1111111
        k(   16) = (   0.0541020   0.0000000   0.0000000), wk =   0.1111111
        k(   17) = (  -0.0811530  -0.0468537   0.0000000), wk =   0.0555556
        k(   18) = (  -0.0811530  -0.0156179   0.0000000), wk =   0.1111111
        k(   19) = (  -0.0811530   0.0156179   0.0000000), wk =   0.1111111
        k(   20) = (  -0.0811530  -0.1405610   0.0000000), wk =   0.0555556

     Largest allocated arrays     est. size (Mb)     dimensions
     Largest temporary arrays     est. size (Mb)     dimensions

     Check: negative/imaginary core charge=   -0.000009    0.000000

     Initial potential from superposition of free atoms
     Check: negative starting charge=   -0.939275

     starting charge  149.98057, renormalised to  153.00000

     negative rho (up, down):  9.582E-01 0.000E+00

     *
     * You are using vdW-DF for exchange-correlation in this calculation.
     * Please cite the following three references that made this development
     * possible:
     *
     *   M. Dion, H. Rydberg, E. Schroder, D. C. Langreth, and
     *   B. I. Lundqvist, Phys. Rev. Lett. 92, 246401 (2004).
     *
     *   T. Thonhauser, V. R. Cooper, S. Li, A. Puzder, P. Hyldgaard, and
     *   D. C. Langreth, Phys. Rev. B 76, 125112 (2007).
     *
     *   G. Roman-Perez and J. M. Soler, Phys. Rev. Lett. 103, 096102 (2009).
     *
     *
     * If you are using vdW-DF2, please also cite:
     *
     *   K. Lee, E. D. Murray, L. Kong, B. I. Lundqvist, and
     *   D. C. Langreth, Phys. Rev. B 82, 081101(R) (2010).
     *
     *
     * If you are calculating the stress with vdW-DF, please also cite:
     *
     *   R. Sabatini, E. Kucukbenli, B. Kolb, T. Thonhauser, and
     *   S. de Gironcoli, J. Phys.: Condens. Matter 24, 424209 (2012).
     *

     Carrying out vdW-DF run using the following parameters:

     Nqs =      20    Nr_points =    1024   r_max =   100.000
     q_mesh =
               0.00001000     0.04494208     0.09755937     0.15916263
               0.23128650     0.31572767     0.41458969     0.53033537
               0.66584808     0.82450364     1.01025438     1.22772762
               1.48234092     1.78043706     2.12944203     2.53805004
               3.01644009     3.57652955     4.23227104     5.00000000

     Gradients computed in reciprocal space

     Adding external electric field

     Computed dipole along edir(3) :
        Dipole                0.0000 Ry au,          0.0000 Debye
        Dipole field          0.0000 Ry au

        Potential amp.       -0.0000 Ry
        Total length         46.1185 bohr

     Starting wfc are  156 randomized atomic wfcs

     Self-consistent Calculation

     iteration #  1     ecut=    36.75 Ry     beta=0.10
     Davidson diagonalization with overlap
     ethr =  1.00E-02,  avg # of iterations =  2.0

[...]

     total energy              =   -1423.05694965 Ry
     Harris-Foulkes estimate   =   -1424.28239922 Ry
     estimated scf accuracy    <       7.06349926 Ry

[...]

     End of self-consistent calculation

          k = 0.0000 0.0000 0.0000 ( 20887 PWs)   bands (ev):

   -64.8283 -64.6231 -64.6230 -47.5089 -47.5008 -47.3963 -47.3963 -47.3944
   -47.3944 -47.2031 -47.1018 -47.1018 -36.8268 -36.8268 -36.7966 -36.6360
   -36.6360 -36.6355 -36.6355 -36.6183 -36.6166 -25.9888 -25.9210 -25.7678
   -25.6819 -25.6819 -25.5988 -25.5988 -25.5987 -25.5987 -25.5935 -25.5482
   -25.4303 -25.4303 -25.2197 -25.2197 -25.1868 -25.1533 -25.0155 -25.0142
   -25.0142 -25.0079 -25.0079 -24.9754 -24.9754 -24.8505 -24.7650 -24.7650
    -3.4398  -2.2550  -1.6443  -1.4131  -1.3282  -1.3282  -1.1891  -1.1051
    -1.1051  -0.7070  -0.7070  -0.7014  -0.7005  -0.7005  -0.6642   0.2612
     0.2612   0.4505   0.9874   0.9874   1.0421   1.2128   1.5944   1.8161
     1.9526   2.0339   2.0339   2.1888   2.1888   2.2580   2.2580   2.3800
     2.3800   2.4592   2.4592   2.6391   2.8457   3.0401   3.1075   3.1075
     3.2329   3.2329   3.7781   3.7781   3.9007   3.9120   3.9120   4.1044
     4.4499   4.9850   4.9850   5.0549   5.0549   5.0981   5.3229   5.7434
     5.7474   5.7532

[...]

          k =-0.0812-0.0469 0.0000 ( 20824 PWs)   bands (ev):

[...]

     the Fermi energy is     1.7420 ev

!    total energy              =   -1423.42964613 Ry
     Harris-Foulkes estimate   =   -1423.42964417 Ry
     estimated scf accuracy    <       0.00000060 Ry

     The total energy is the sum of the following terms:

     one-electron contribution =  -10225.75571745 Ry
     hartree contribution      =    5106.52606607 Ry
     xc contribution           =    -264.70618913 Ry
     ewald contribution        =    3960.62304161 Ry
     electric field correction =       0.00000000 Ry
     smearing contrib. (-TS)   =      -0.11684724 Ry

     convergence has been achieved in  19 iterations

 BEEF-vdW xc energy contributions
           1 :   -228.621599533458
           2 :    208.146180972544
           3 :   -172.923604870835
           4 :    131.812285419854
           5 :   -93.3300284491088
           6 :    62.8063116124640
           7 :   -41.4167777658287
           8 :    27.0947434974279
           9 :   -16.5420069526806
          10 :    7.15399949461590
          11 :    1.94020605898632
          12 :   -9.99086710453054
          13 :    15.5386194198289
          14 :   -17.5210132771459
          15 :    15.9613215518110
[...]

     PseudoPot. # 1 for Zr read from file:
     /afs/slac.stanford.edu/u/if/mamunm/psp/gbrv1.5pbe/Zr.UPF
     MD5 check sum: 5db81b1e868ab7776c4564c113de050b
     Pseudo is Ultrasoft + core correction, Zval = 12.0
     Generated by new atomic code, or converted to UPF format
     Using radial grid of  887 points,  6 beta functions with:
                l(1) =   0
                l(2) =   0
                l(3) =   1
                l(4) =   1
                l(5) =   2
                l(6) =   2
     Q(r) pseudized with  6 coefficients,  rinner =    1.200   1.200   1.200
                                                       1.200   1.200

     PseudoPot. # 2 for Tc read from file:
     /afs/slac.stanford.edu/u/if/mamunm/psp/gbrv1.5pbe/Tc.UPF
     MD5 check sum: 9eb49e5b028550b2339a02317eb7b844
     Pseudo is Ultrasoft + core correction, Zval = 15.0
     Generated by new atomic code, or converted to UPF format
     Using radial grid of  965 points,  6 beta functions with:
                l(1) =   0
                l(2) =   0
                l(3) =   1
                l(4) =   1
                l(5) =   2
                l(6) =   2
     Q(r) pseudized with  8 coefficients,  rinner =    1.300   1.300   1.300
                                                       1.300   1.300

     vdW kernel table read from file vdW_kernel_table
     MD5 check sum: 095c7af220d748ca6e76c0b4c6cfb241

     atomic species   valence    mass     pseudopotential
        Zr1           12.00    91.22400     Zr( 1.00)
        Tc1           15.00    97.90721     Tc( 1.00)

     No symmetry found

   Cartesian axes

     site n.     atom                  positions (alat units)
         1           Zr1 tau(   1) = (   0.0000000   0.0000000  10.0000000  )
         2           Zr1 tau(   2) = (  -1.5403013   2.6678800  10.0000000  )
         3           Zr1 tau(   3) = (   1.5403013   2.6678800  10.0000000  )
         4           Tc1 tau(   4) = (   3.0806025   0.0000000  10.0000000  )
         5           Zr1 tau(   5) = (   3.0806025   1.7785867  12.5153014  )
         6           Zr1 tau(   6) = (   1.5403013   4.4464667  12.5153014  )
         7           Zr1 tau(   7) = (  -1.5403013   4.4464667  12.5153014  )
         8           Tc1 tau(   8) = (   0.0000000   1.7785867  12.5153014  )
         9           Zr1 tau(   9) = (  -0.0000015   3.4994085  15.0408274  )
        10           Zr1 tau(  10) = (   1.4902826   0.9181651  15.0408399  )
        11           Zr1 tau(  11) = (   4.6709285   0.9181724  15.0408319  )
        12           Tc1 tau(  12) = (   3.0806048   3.5571772  14.5604753  )

     number of k points=    20  Fermi-Dirac smearing, width (Ry)=  0.0110
                       cart. coord. in units 2pi/alat
        k(    1) = (   0.0000000   0.0000000   0.0000000), wk =   0.0555556
        k(    2) = (   0.0000000   0.0312358   0.0000000), wk =   0.1111111
        k(    3) = (   0.0000000   0.0624716   0.0000000), wk =   0.1111111
        k(    4) = (   0.0000000  -0.0937074   0.0000000), wk =   0.0555556
        k(    5) = (   0.0270510   0.0156179   0.0000000), wk =   0.1111111
        k(    6) = (   0.0270510   0.0468537   0.0000000), wk =   0.1111111
        k(    7) = (   0.0270510   0.0780895   0.0000000), wk =   0.1111111
        k(    8) = (   0.0270510  -0.0780895   0.0000000), wk =   0.1111111
        k(    9) = (   0.0270510  -0.0468537   0.0000000), wk =   0.1111111
        k(   10) = (   0.0270510  -0.0156179   0.0000000), wk =   0.1111111
        k(   11) = (   0.0541020   0.0312358   0.0000000), wk =   0.1111111
        k(   12) = (   0.0541020   0.0624716   0.0000000), wk =   0.1111111
        k(   13) = (   0.0541020   0.0937074   0.0000000), wk =   0.1111111
        k(   14) = (   0.0541020  -0.0624716   0.0000000), wk =   0.1111111
        k(   15) = (   0.0541020  -0.0312358   0.0000000), wk =   0.1111111
        k(   16) = (   0.0541020   0.0000000   0.0000000), wk =   0.1111111
        k(   17) = (  -0.0811530  -0.0468537   0.0000000), wk =   0.0555556
        k(   18) = (  -0.0811530  -0.0156179   0.0000000), wk =   0.1111111
        k(   19) = (  -0.0811530   0.0156179   0.0000000), wk =   0.1111111
        k(   20) = (  -0.0811530  -0.1405610   0.0000000), wk =   0.0555556

     Largest allocated arrays     est. size (Mb)     dimensions
     Largest temporary arrays     est. size (Mb)     dimensions

     Check: negative/imaginary core charge=   -0.000009    0.000000

     Initial potential from superposition of free atoms
     Check: negative starting charge=   -0.934611

     starting charge  149.98057, renormalised to  153.00000

[...]

     *
     * You are using vdW-DF for exchange-correlation in this calculation.
     * Please cite the following three references that made this development
     * possible:
     *
     *   M. Dion, H. Rydberg, E. Schroder, D. C. Langreth, and
     *   B. I. Lundqvist, Phys. Rev. Lett. 92, 246401 (2004).
     *
     *   T. Thonhauser, V. R. Cooper, S. Li, A. Puzder, P. Hyldgaard, and
     *   D. C. Langreth, Phys. Rev. B 76, 125112 (2007).
     *
     *   G. Roman-Perez and J. M. Soler, Phys. Rev. Lett. 103, 096102 (2009).
     *
     *
     * If you are using vdW-DF2, please also cite:
     *
     *   K. Lee, E. D. Murray, L. Kong, B. I. Lundqvist, and
     *   D. C. Langreth, Phys. Rev. B 82, 081101(R) (2010).
     *
     *
     * If you are calculating the stress with vdW-DF, please also cite:
     *
     *   R. Sabatini, E. Kucukbenli, B. Kolb, T. Thonhauser, and
     *   S. de Gironcoli, J. Phys.: Condens. Matter 24, 424209 (2012).
     *

     Carrying out vdW-DF run using the following parameters:

     Nqs =      20    Nr_points =    1024   r_max =   100.000
     q_mesh =
               0.00001000     0.04494208     0.09755937     0.15916263
               0.23128650     0.31572767     0.41458969     0.53033537
               0.66584808     0.82450364     1.01025438     1.22772762
               1.48234092     1.78043706     2.12944203     2.53805004
               3.01644009     3.57652955     4.23227104     5.00000000

     Gradients computed in reciprocal space

[...]

     Starting wfc are  156 randomized atomic wfcs

     Self-consistent Calculation

[...]

     total energy              =   -1423.45892880 Ry
     Harris-Foulkes estimate   =   -1423.45892807 Ry
     estimated scf accuracy    <       0.00000391 Ry

     iteration # 19     ecut=    36.75 Ry     beta=0.10
     Davidson diagonalization with overlap
     ethr =  2.55E-09,  avg # of iterations =  2.0

[...]

     negative rho (up, down):  9.629E-01 0.000E+00

     Adding external electric field

     Computed dipole along edir(3) :
        Dipole                0.0997 Ry au,          0.2534 Debye
        Dipole field          0.0002 Ry au

        Potential amp.       -0.0208 Ry
        Total length         46.1185 bohr

     End of self-consistent calculation

[...]

          k = 0.0541 0.0000 0.0000 ( 20893 PWs)   bands (ev):

[...]

          k =-0.0812-0.1406 0.0000 ( 20824 PWs)   bands (ev):

   -64.7879 -64.5313 -64.5144 -47.4405 -47.3877 -47.3792 -47.3561 -47.3429
   -47.3063 -46.9972 -46.9625 -46.9270 -36.7807 -36.7791 -36.7654 -36.5808
   -36.5674 -36.5662 -36.5276 -36.5259 -36.5117 -25.7288 -25.6733 -25.6143
   -25.5524 -25.5136 -25.4740 -25.4642 -25.4244 -25.4138 -25.4112 -25.3669
   -25.3304 -25.3230 -25.2859 -25.2742 -25.2732 -25.2554 -25.0067 -24.9971
   -24.9670 -24.9418 -24.9005 -24.8654 -24.8597 -24.8460 -24.8194 -24.6324
    -1.9091  -1.8477  -0.9883  -0.9481  -0.6537  -0.5819  -0.4876  -0.4058
    -0.3936  -0.3165   0.0025   0.0292   0.0533   0.1907   0.3397   0.4095
     0.5527   0.6655   0.6997   0.8113   0.8510   0.9926   1.1374   1.1608
     1.2010   1.3100   1.5609   1.6107   1.7273   1.7787   1.8128   1.9172
     2.0300   2.0939   2.1253   2.2258   2.4990   2.5875   2.6781   2.8272
     2.8333   3.1293   3.3566   3.4753   3.5217   3.6105   3.6672   3.9144
     3.9403   4.2401   4.3199   4.4622   4.5043   4.5743   4.7704   4.9793
     4.9907   5.0851

     the Fermi energy is     1.8226 ev

!    total energy              =   -1423.45893143 Ry
     Harris-Foulkes estimate   =   -1423.45892905 Ry
     estimated scf accuracy    <       0.00000069 Ry

     The total energy is the sum of the following terms:

     one-electron contribution =  -10409.81805370 Ry
     hartree contribution      =    5199.03972635 Ry
     xc contribution           =    -264.90024058 Ry
     ewald contribution        =    4052.33156406 Ry
     electric field correction =       0.00002250 Ry
     smearing contrib. (-TS)   =      -0.11195005 Ry

     convergence has been achieved in  19 iterations

 BEEF-vdW xc energy contributions
           1 :   -228.940621550685
           2 :    208.528756213608
           3 :   -173.382399503341
           4 :    132.289679193092
           5 :   -93.7177227895262
           6 :    63.0008104266861
           7 :   -41.3836519845942
           8 :    26.9011618304396
           9 :   -16.3280396072184
          10 :    7.05583657888758
          11 :    1.86724749762698
          12 :   -9.79850545413791
          13 :    15.3457642396440
          14 :   -17.4382135984753
          15 :    16.0303781945092
          16 :   -12.1548011208623
          17 :    7.38903351957072
          18 :   -3.13145709789978
          19 :   9.965803687245511E-002
          20 :    1.71315458908842
          21 :   -2.71327085057825
          22 :    3.27732018431982
          23 :   -3.49464957849199
          24 :    3.18241235735542
          25 :   -2.10856938301183
          26 :   0.242385714479667
          27 :    2.12533585899109
          28 :   -4.46287035153023
          29 :    6.21642634489189
          30 :   -7.03759864447926
          31 :   -24.6547928760680
          32 :   -18.2715771333876

     Forces acting on atoms (Ry/au):

     negative rho (up, down):  9.629E-01 0.000E+00
     atom    1 type  1   force =    -0.00000016    0.02192076   -0.00452787
     atom    2 type  1   force =     0.01898373   -0.01096073   -0.00452784
     atom    3 type  1   force =    -0.01898432   -0.01096034   -0.00452857
     atom    4 type  2   force =     0.00000001   -0.00000020    0.03922680
     atom    5 type  1   force =     0.00000060   -0.01478271   -0.00940221
     atom    6 type  1   force =    -0.01280185    0.00739241   -0.00940486
     atom    7 type  1   force =     0.01280146    0.00739183   -0.00940462
     atom    8 type  2   force =     0.00000012   -0.00000057    0.00439000
     atom    9 type  1   force =    -0.00000018   -0.00016962   -0.00059454
     atom   10 type  1   force =    -0.00014554    0.00008428   -0.00059509
     atom   11 type  1   force =     0.00014559    0.00008534   -0.00059502
     atom   12 type  2   force =     0.00000055   -0.00000044   -0.00003618

     Total force =     0.063112     Total SCF correction =     0.003350

     entering subroutine stress ...

     negative rho (up, down):  9.629E-01 0.000E+00
          total   stress  (Ry/bohr**3)                   (kbar)     P=  -11.78
  -0.00010629   0.00000000   0.00000000        -15.64      0.00      0.00
   0.00000000  -0.00010629  -0.00000000          0.00    -15.64     -0.00
   0.00000000  -0.00000000  -0.00002758          0.00     -0.00     -4.06

 !ASE

     Writing output data file calc.save

     General routines

     Parallel routines

   This run was terminated on:  23:43: 4   2Jan2019

   JOB DONE.
Job  /afs/slac/g/suncat/bin/suncat-tsmpirun -x LD_LIBRARY_PATH -wdir /scratch/qe649571_uUr0T pw.x -in pw.inp

TID   HOST_NAME   COMMAND_LINE            STATUS            TERMINATION_TIME
00000 suncat0146 pw.x -in pw.inp   Done                     01/02/2019 23:43:04
00001 suncat0146 pw.x -in pw.inp   Done                     01/02/2019 23:43:04
00002 suncat0146 pw.x -in pw.inp   Done                     01/02/2019 23:43:04
00003 suncat0146 pw.x -in pw.inp   Done                     01/02/2019 23:43:04
00004 suncat0146 pw.x -in pw.inp   Done                     01/02/2019 23:43:04
00005 suncat0146 pw.x -in pw.inp   Done                     01/02/2019 23:43:04
00006 suncat0146 pw.x -in pw.inp   Done                     01/02/2019 23:43:04
00007 suncat0146 pw.x -in pw.inp   Done                     01/02/2019 23:43:04
00008 suncat0136 pw.x -in pw.inp   Done                     01/02/2019 23:43:04
00009 suncat0136 pw.x -in pw.inp   Done                     01/02/2019 23:43:04
00010 suncat0136 pw.x -in pw.inp   Done                     01/02/2019 23:43:04
00011 suncat0136 pw.x -in pw.inp   Done                     01/02/2019 23:43:04
00012 suncat0136 pw.x -in pw.inp   Done                     01/02/2019 23:43:04
00013 suncat0136 pw.x -in pw.inp   Done                     01/02/2019 23:43:04
00014 suncat0136 pw.x -in pw.inp   Done                     01/02/2019 23:43:04
00015 suncat0136 pw.x -in pw.inp   Done                     01/02/2019 23:43:04
00016 suncat0248 pw.x -in pw.inp   Done                     01/02/2019 23:43:04
00017 suncat0248 pw.x -in pw.inp   Done                     01/02/2019 23:43:04
00018 suncat0248 pw.x -in pw.inp   Done                     01/02/2019 23:43:04
00019 suncat0248 pw.x -in pw.inp   Done                     01/02/2019 23:43:04
00020 suncat0248 pw.x -in pw.inp   Done                     01/02/2019 23:43:04
00021 suncat0248 pw.x -in pw.inp   Done                     01/02/2019 23:43:04
00022 suncat0248 pw.x -in pw.inp   Done                     01/02/2019 23:43:04
00023 suncat0248 pw.x -in pw.inp   Done                     01/02/2019 23:43:04
00024 suncat0247 pw.x -in pw.inp   Done                     01/02/2019 23:43:04
00025 suncat0247 pw.x -in pw.inp   Done                     01/02/2019 23:43:04
00026 suncat0247 pw.x -in pw.inp   Done                     01/02/2019 23:43:04
00027 suncat0247 pw.x -in pw.inp   Done                     01/02/2019 23:43:04
00028 suncat0247 pw.x -in pw.inp   Done                     01/02/2019 23:43:04
00029 suncat0247 pw.x -in pw.inp   Done                     01/02/2019 23:43:04
00030 suncat0247 pw.x -in pw.inp   Done                     01/02/2019 23:43:04
00031 suncat0247 pw.x -in pw.inp   Done                     01/02/2019 23:43:04
00032 suncat0246 pw.x -in pw.inp   Done                     01/02/2019 23:43:04
00033 suncat0246 pw.x -in pw.inp   Done                     01/02/2019 23:43:04
00034 suncat0246 pw.x -in pw.inp   Done                     01/02/2019 23:43:04
00035 suncat0246 pw.x -in pw.inp   Done                     01/02/2019 23:43:04
00036 suncat0246 pw.x -in pw.inp   Done                     01/02/2019 23:43:04
00037 suncat0246 pw.x -in pw.inp   Done                     01/02/2019 23:43:04
00038 suncat0246 pw.x -in pw.inp   Done                     01/02/2019 23:43:04
00039 suncat0246 pw.x -in pw.inp   Done                     01/02/2019 23:43:04
00040 suncat0245 pw.x -in pw.inp   Done                     01/02/2019 23:43:04
00041 suncat0245 pw.x -in pw.inp   Done                     01/02/2019 23:43:04
00042 suncat0245 pw.x -in pw.inp   Done                     01/02/2019 23:43:04
00043 suncat0245 pw.x -in pw.inp   Done                     01/02/2019 23:43:04
00044 suncat0245 pw.x -in pw.inp   Done                     01/02/2019 23:43:04
00045 suncat0245 pw.x -in pw.inp   Done                     01/02/2019 23:43:04
00046 suncat0245 pw.x -in pw.inp   Done                     01/02/2019 23:43:04
00047 suncat0245 pw.x -in pw.inp   Done                     01/02/2019 23:43:04
00048 suncat0214 pw.x -in pw.inp   Done                     01/02/2019 23:43:04
00049 suncat0214 pw.x -in pw.inp   Done                     01/02/2019 23:43:04
00050 suncat0214 pw.x -in pw.inp   Done                     01/02/2019 23:43:04
00051 suncat0214 pw.x -in pw.inp   Done                     01/02/2019 23:43:04
00052 suncat0214 pw.x -in pw.inp   Done                     01/02/2019 23:43:04
00053 suncat0214 pw.x -in pw.inp   Done                     01/02/2019 23:43:04
00054 suncat0214 pw.x -in pw.inp   Done                     01/02/2019 23:43:04
00055 suncat0214 pw.x -in pw.inp   Done                     01/02/2019 23:43:04
00056 suncat0213 pw.x -in pw.inp   Done                     01/02/2019 23:43:04
00057 suncat0213 pw.x -in pw.inp   Done                     01/02/2019 23:43:04
00058 suncat0213 pw.x -in pw.inp   Done                     01/02/2019 23:43:04
00059 suncat0213 pw.x -in pw.inp   Done                     01/02/2019 23:43:04
00060 suncat0213 pw.x -in pw.inp   Done                     01/02/2019 23:43:04
00061 suncat0213 pw.x -in pw.inp   Done                     01/02/2019 23:43:04
00062 suncat0213 pw.x -in pw.inp   Done                     01/02/2019 23:43:04
00063 suncat0213 pw.x -in pw.inp   Done                     01/02/2019 23:43:04