     Program PWSCF v.5.1rc2 (svn rev. 11289) starts on  1Jan2019 at 14:31:14

     Current dimensions of program PWSCF are:
     Max number of different atomic species (ntypx) = 10
     Max number of k-points (npk) =  40000
     Max angular momentum in pseudopotentials (lmaxx) =  3
     Presently stress not available with electric field

     IMPORTANT: XC functional enforced from input :
     Exchange-correlation      = BEEF-VDW ( 1  4 27 13 2)
     Any further DFT definition will be discarded
     Please, verify this is what you really want

     Subspace diagonalization in iterative solution of the eigenvalue problem:
     a serial algorithm will be used

     bravais-lattice index     =            0
     lattice parameter (alat)  =       1.8897  a.u.
     unit-cell volume          =    5987.0302 (a.u.)^3
     number of atoms/cell      =           12
     number of atomic types    =            2
     number of electrons       =       171.00
     number of Kohn-Sham states=          115
     kinetic-energy cutoff     =      36.7493  Ry
     charge density cutoff     =     367.4932  Ry
     convergence threshold     =      1.0E-06
     mixing beta               =       0.1000
     number of iterations used =           10  plain     mixing
     Exchange-correlation      = BEEF-VDW ( 1  4 27 13 2)
     nstep                     =           50

     celldm(1)=   1.889726  celldm(2)=   0.000000  celldm(3)=   0.000000
     celldm(4)=   0.000000  celldm(5)=   0.000000  celldm(6)=   0.000000

     crystal axes: (cart. coord. in units of alat)
               a(1) = (   6.375228   0.000000   0.000000 )
               a(2) = (  -3.187614   5.521109   0.000000 )
               a(3) = (   0.000000   0.000000  25.205352 )

     reciprocal axes: (cart. coord. in units 2 pi/alat)
               b(1) = (  0.156857  0.090562  0.000000 )
               b(2) = (  0.000000  0.181123  0.000000 )
               b(3) = (  0.000000  0.000000  0.039674 )

     PseudoPot. # 1 for Sn read from file:
     /afs/slac.stanford.edu/u/if/mamunm/psp/gbrv1.5pbe/Sn.UPF
     MD5 check sum: 469debedee59599fedebd795477fea03
     Pseudo is Ultrasoft + core correction, Zval = 14.0
     Generated by new atomic code, or converted to UPF format
     Using radial grid of  891 points,  6 beta functions with:
                l(1) =   0
                l(2) =   0
                l(3) =   1
                l(4) =   1
                l(5) =   2
                l(6) =   2
     Q(r) pseudized with  8 coefficients,  rinner =    1.350   1.350   1.350
                                                       1.350   1.350

     PseudoPot. # 2 for Rh read from file:
     /afs/slac.stanford.edu/u/if/mamunm/psp/gbrv1.5pbe/Rh.UPF
     MD5 check sum: 761627e959a2e3a1f56b0b5fe687810e
     Pseudo is Ultrasoft + core correction, Zval = 15.0
     Generated by new atomic code, or converted to UPF format
     Using radial grid of  969 points,  7 beta functions with:
                l(1) =   0
                l(2) =   0
                l(3) =   1
                l(4) =   1
                l(5) =   2
                l(6) =   2
                l(7) =   2
     Q(r) pseudized with  8 coefficients,  rinner =    1.200   1.200   1.200
                                                       1.200   1.200

     vdW kernel table read from file vdW_kernel_table
     MD5 check sum: 095c7af220d748ca6e76c0b4c6cfb241

     atomic species   valence    mass     pseudopotential
        Sn1           14.00   118.71000     Sn( 1.00)
        Rh1           15.00   102.90550     Rh( 1.00)

     No symmetry found

   Cartesian axes

     site n.     atom                  positions (alat units)
         1           Sn1 tau(   1) = (   0.0000000   0.0000000  10.0000000  )
         2           Sn1 tau(   2) = (  -1.5938070   2.7605547  10.0000000  )
         3           Sn1 tau(   3) = (   1.5938070   2.7605547  10.0000000  )
         4           Rh1 tau(   4) = (   3.1876140   0.0000000  10.0000000  )
         5           Sn1 tau(   5) = (   3.1876140   1.8403698  12.6026760  )
         6           Sn1 tau(   6) = (   1.5938070   4.6009245  12.6026760  )
         7           Sn1 tau(   7) = (  -1.5938070   4.6009245  12.6026760  )
         8           Rh1 tau(   8) = (   0.0000000   1.8403698  12.6026760  )
         9           Sn1 tau(   9) = (  -0.0000000   3.6807396  15.2053519  )
        10           Sn1 tau(  10) = (   1.5938070   0.9201849  15.2053519  )
        11           Sn1 tau(  11) = (   4.7814210   0.9201849  15.2053519  )
        12           Rh1 tau(  12) = (   3.1876140   3.6807396  15.2053519  )

     number of k points=    20  Fermi-Dirac smearing, width (Ry)=  0.0110
                       cart. coord. in units 2pi/alat
        k(    1) = (   0.0000000   0.0000000   0.0000000), wk =   0.0555556
        k(    2) = (   0.0000000   0.0301872   0.0000000), wk =   0.1111111
        k(    3) = (   0.0000000   0.0603743   0.0000000), wk =   0.1111111
        k(    4) = (   0.0000000  -0.0905615   0.0000000), wk =   0.0555556
        k(    5) = (   0.0261429   0.0150936   0.0000000), wk =   0.1111111
        k(    6) = (   0.0261429   0.0452808   0.0000000), wk =   0.1111111
        k(    7) = (   0.0261429   0.0754679   0.0000000), wk =   0.1111111
        k(    8) = (   0.0261429  -0.0754679   0.0000000), wk =   0.1111111
        k(    9) = (   0.0261429  -0.0452808   0.0000000), wk =   0.1111111
        k(   10) = (   0.0261429  -0.0150936   0.0000000), wk =   0.1111111
        k(   11) = (   0.0522857   0.0301872   0.0000000), wk =   0.1111111
        k(   12) = (   0.0522857   0.0603743   0.0000000), wk =   0.1111111
        k(   13) = (   0.0522857   0.0905615   0.0000000), wk =   0.1111111
        k(   14) = (   0.0522857  -0.0603743   0.0000000), wk =   0.1111111
        k(   15) = (   0.0522857  -0.0301872   0.0000000), wk =   0.1111111
        k(   16) = (   0.0522857   0.0000000   0.0000000), wk =   0.1111111
        k(   17) = (  -0.0784286  -0.0452808   0.0000000), wk =   0.0555556
        k(   18) = (  -0.0784286  -0.0150936   0.0000000), wk =   0.1111111
        k(   19) = (  -0.0784286   0.0150936   0.0000000), wk =   0.1111111
        k(   20) = (  -0.0784286  -0.1358423   0.0000000), wk =   0.0555556

     Largest allocated arrays     est. size (Mb)     dimensions
     Largest temporary arrays     est. size (Mb)     dimensions

     Initial potential from superposition of free atoms
     Check: negative starting charge=   -0.165037

     starting charge  160.49930, renormalised to  171.00000

     negative rho (up, down):  1.758E-01 0.000E+00

     *
     * You are using vdW-DF for exchange-correlation in this calculation.
     * Please cite the following three references that made this development
     * possible:
     *
     *   M. Dion, H. Rydberg, E. Schroder, D. C. Langreth, and
     *   B. I. Lundqvist, Phys. Rev. Lett. 92, 246401 (2004).
     *
     *   T. Thonhauser, V. R. Cooper, S. Li, A. Puzder, P. Hyldgaard, and
     *   D. C. Langreth, Phys. Rev. B 76, 125112 (2007).
     *
     *   G. Roman-Perez and J. M. Soler, Phys. Rev. Lett. 103, 096102 (2009).
     *
     *
     * If you are using vdW-DF2, please also cite:
     *
     *   K. Lee, E. D. Murray, L. Kong, B. I. Lundqvist, and
     *   D. C. Langreth, Phys. Rev. B 82, 081101(R) (2010).
     *
     *
     * If you are calculating the stress with vdW-DF, please also cite:
     *
     *   R. Sabatini, E. Kucukbenli, B. Kolb, T. Thonhauser, and
     *   S. de Gironcoli, J. Phys.: Condens. Matter 24, 424209 (2012).
     *

     Carrying out vdW-DF run using the following parameters:

     Nqs =      20    Nr_points =    1024   r_max =   100.000
     q_mesh =
               0.00001000     0.04494208     0.09755937     0.15916263
               0.23128650     0.31572767     0.41458969     0.53033537
               0.66584808     0.82450364     1.01025438     1.22772762
               1.48234092     1.78043706     2.12944203     2.53805004
               3.01644009     3.57652955     4.23227104     5.00000000

     Gradients computed in reciprocal space

     Adding external electric field

     Computed dipole along edir(3) :
        Dipole               -0.0000 Ry au,         -0.0000 Debye
        Dipole field         -0.0000 Ry au

        Potential amp.        0.0000 Ry
        Total length         46.4404 bohr

     Starting wfc are  117 randomized atomic wfcs

     Self-consistent Calculation

     iteration #  1     ecut=    36.75 Ry     beta=0.10
     Davidson diagonalization with overlap
     ethr =  1.00E-02,  avg # of iterations =  8.0

[...]

     total energy              =   -1961.45666364 Ry
     Harris-Foulkes estimate   =   -1967.80931771 Ry
     estimated scf accuracy    <      36.76986157 Ry

[...]

     End of self-consistent calculation

          k = 0.0000 0.0000 0.0000 ( 22585 PWs)   bands (ev):

   -44.7242 -44.6799 -44.6799 -44.3832 -44.3832 -44.3830 -44.3830 -44.2828
   -44.2825 -21.1600 -21.1338 -21.1338 -21.1097 -21.0871 -21.0768 -21.0474
   -21.0474 -21.0409 -21.0409 -21.0349 -21.0349 -21.0058 -21.0039 -20.9984
   -20.9877 -20.9877 -20.9461 -20.9461 -20.9432 -20.9331 -20.9331 -20.9321
   -20.9183 -20.9183 -20.9119 -20.8941 -20.8941 -20.8923 -20.8923 -20.8861
   -20.8731 -20.8731 -20.8633 -20.8633 -20.8433 -20.8433 -20.8389 -20.8384
   -20.8384 -20.8193 -20.8134 -20.8134 -20.7680 -20.7669  -9.7837  -8.4689
    -6.7480  -5.7586  -5.7586  -5.0332  -5.0332  -4.0524  -4.0524  -3.7209
    -3.0188  -2.4873  -2.1938  -2.1938  -1.9654  -1.0099  -1.0099  -0.9072
    -0.9072  -0.6621  -0.2456  -0.2456  -0.1822  -0.1822  -0.1612  -0.1095
    -0.1095   0.1967   0.3142   0.3142   0.3200   0.3200   0.6325   0.6325
     0.6887   1.9836   2.1268   2.8058   3.2286   3.2286   3.2730   3.2730
     4.1693   4.3557   4.5065   4.6174   5.0002   5.5193   5.5194   5.6825
     5.7948   5.9771   6.3321   6.3321   6.6922   7.1588   7.2338   7.2339
     7.7514   7.7688   7.8576

[...]

          k =-0.0784-0.0453 0.0000 ( 22536 PWs)   bands (ev):

[...]

     the Fermi energy is     0.9273 ev

!    total energy              =   -1962.82555845 Ry
     Harris-Foulkes estimate   =   -1962.82703201 Ry
     estimated scf accuracy    <       0.00000091 Ry

     The total energy is the sum of the following terms:

     one-electron contribution =  -12044.11366934 Ry
     hartree contribution      =    6081.24705293 Ry
     xc contribution           =    -493.74149227 Ry
     ewald contribution        =    4493.82734725 Ry
     electric field correction =       0.00000000 Ry
     smearing contrib. (-TS)   =      -0.04479702 Ry

     convergence has been achieved in  18 iterations

 BEEF-vdW xc energy contributions
           1 :   -433.133482158049
           2 :    396.690643605820
           3 :   -334.741504516276
           4 :    264.337187751732
           5 :   -201.760493554394
           6 :    156.823797422310
           7 :   -130.659590233542
           8 :    117.492663446087
           9 :   -109.029992912052
          10 :    99.0010701517805
          11 :   -85.6382899440501
          12 :    71.2387892943843
          13 :   -59.6149031972834
          14 :    53.2316175357755
[...]
     /afs/slac.stanford.edu/u/if/mamunm/psp/gbrv1.5pbe/Sn.UPF
     MD5 check sum: 469debedee59599fedebd795477fea03
     Pseudo is Ultrasoft + core correction, Zval = 14.0
     Generated by new atomic code, or converted to UPF format
     Using radial grid of  891 points,  6 beta functions with:
                l(1) =   0
                l(2) =   0
                l(3) =   1
                l(4) =   1
                l(5) =   2
                l(6) =   2
     Q(r) pseudized with  8 coefficients,  rinner =    1.350   1.350   1.350
                                                       1.350   1.350

     PseudoPot. # 2 for Rh read from file:
     /afs/slac.stanford.edu/u/if/mamunm/psp/gbrv1.5pbe/Rh.UPF
     MD5 check sum: 761627e959a2e3a1f56b0b5fe687810e
     Pseudo is Ultrasoft + core correction, Zval = 15.0
     Generated by new atomic code, or converted to UPF format
     Using radial grid of  969 points,  7 beta functions with:
                l(1) =   0
                l(2) =   0
                l(3) =   1
                l(4) =   1
                l(5) =   2
                l(6) =   2
                l(7) =   2
     Q(r) pseudized with  8 coefficients,  rinner =    1.200   1.200   1.200
                                                       1.200   1.200

     vdW kernel table read from file vdW_kernel_table
     MD5 check sum: 095c7af220d748ca6e76c0b4c6cfb241

     atomic species   valence    mass     pseudopotential
        Sn1           14.00   118.71000     Sn( 1.00)
        Rh1           15.00   102.90550     Rh( 1.00)

     No symmetry found

   Cartesian axes

     site n.     atom                  positions (alat units)
         1           Sn1 tau(   1) = (   0.0000000   0.0000000  10.0000000  )
         2           Sn1 tau(   2) = (  -1.5938070   2.7605547  10.0000000  )
         3           Sn1 tau(   3) = (   1.5938070   2.7605547  10.0000000  )
         4           Rh1 tau(   4) = (   3.1876140   0.0000000  10.0000000  )
         5           Sn1 tau(   5) = (   3.1876140   1.8403698  12.6026760  )
         6           Sn1 tau(   6) = (   1.5938070   4.6009245  12.6026760  )
         7           Sn1 tau(   7) = (  -1.5938070   4.6009245  12.6026760  )
         8           Rh1 tau(   8) = (   0.0000000   1.8403698  12.6026760  )
         9           Sn1 tau(   9) = (  -0.0000292   3.6140971  15.2130947  )
        10           Sn1 tau(  10) = (   1.5360483   0.9535925  15.2129972  )
        11           Sn1 tau(  11) = (   4.8391813   0.9535309  15.2129855  )
        12           Rh1 tau(  12) = (   3.1876265   3.6807279  14.6552477  )

     number of k points=    20  Fermi-Dirac smearing, width (Ry)=  0.0110
                       cart. coord. in units 2pi/alat
        k(    1) = (   0.0000000   0.0000000   0.0000000), wk =   0.0555556
        k(    2) = (   0.0000000   0.0301872   0.0000000), wk =   0.1111111
        k(    3) = (   0.0000000   0.0603743   0.0000000), wk =   0.1111111
        k(    4) = (   0.0000000  -0.0905615   0.0000000), wk =   0.0555556
        k(    5) = (   0.0261429   0.0150936   0.0000000), wk =   0.1111111
        k(    6) = (   0.0261429   0.0452808   0.0000000), wk =   0.1111111
        k(    7) = (   0.0261429   0.0754679   0.0000000), wk =   0.1111111
        k(    8) = (   0.0261429  -0.0754679   0.0000000), wk =   0.1111111
        k(    9) = (   0.0261429  -0.0452808   0.0000000), wk =   0.1111111
        k(   10) = (   0.0261429  -0.0150936   0.0000000), wk =   0.1111111
        k(   11) = (   0.0522857   0.0301872   0.0000000), wk =   0.1111111
        k(   12) = (   0.0522857   0.0603743   0.0000000), wk =   0.1111111
        k(   13) = (   0.0522857   0.0905615   0.0000000), wk =   0.1111111
        k(   14) = (   0.0522857  -0.0603743   0.0000000), wk =   0.1111111
        k(   15) = (   0.0522857  -0.0301872   0.0000000), wk =   0.1111111
        k(   16) = (   0.0522857   0.0000000   0.0000000), wk =   0.1111111
        k(   17) = (  -0.0784286  -0.0452808   0.0000000), wk =   0.0555556
        k(   18) = (  -0.0784286  -0.0150936   0.0000000), wk =   0.1111111
        k(   19) = (  -0.0784286   0.0150936   0.0000000), wk =   0.1111111
        k(   20) = (  -0.0784286  -0.1358423   0.0000000), wk =   0.0555556

     Largest allocated arrays     est. size (Mb)     dimensions
     Largest temporary arrays     est. size (Mb)     dimensions

     Initial potential from superposition of free atoms
     Check: negative starting charge=   -0.165933

     starting charge  160.49930, renormalised to  171.00000

[...]

     *
     * You are using vdW-DF for exchange-correlation in this calculation.
     * Please cite the following three references that made this development
     * possible:
     *
     *   M. Dion, H. Rydberg, E. Schroder, D. C. Langreth, and
     *   B. I. Lundqvist, Phys. Rev. Lett. 92, 246401 (2004).
     *
     *   T. Thonhauser, V. R. Cooper, S. Li, A. Puzder, P. Hyldgaard, and
     *   D. C. Langreth, Phys. Rev. B 76, 125112 (2007).
     *
     *   G. Roman-Perez and J. M. Soler, Phys. Rev. Lett. 103, 096102 (2009).
     *
     *
     * If you are using vdW-DF2, please also cite:
     *
     *   K. Lee, E. D. Murray, L. Kong, B. I. Lundqvist, and
     *   D. C. Langreth, Phys. Rev. B 82, 081101(R) (2010).
     *
     *
     * If you are calculating the stress with vdW-DF, please also cite:
     *
     *   R. Sabatini, E. Kucukbenli, B. Kolb, T. Thonhauser, and
     *   S. de Gironcoli, J. Phys.: Condens. Matter 24, 424209 (2012).
     *

     Carrying out vdW-DF run using the following parameters:

     Nqs =      20    Nr_points =    1024   r_max =   100.000
     q_mesh =
               0.00001000     0.04494208     0.09755937     0.15916263
               0.23128650     0.31572767     0.41458969     0.53033537
               0.66584808     0.82450364     1.01025438     1.22772762
               1.48234092     1.78043706     2.12944203     2.53805004
               3.01644009     3.57652955     4.23227104     5.00000000

     Gradients computed in reciprocal space

[...]

     Starting wfc are  117 randomized atomic wfcs

     Self-consistent Calculation

[...]

     total energy              =   -1962.86346141 Ry
     Harris-Foulkes estimate   =   -1962.86346177 Ry
     estimated scf accuracy    <       0.00000633 Ry

     iteration # 22     ecut=    36.75 Ry     beta=0.10
     Davidson diagonalization with overlap
     ethr =  3.70E-09,  avg # of iterations =  1.0

[...]

     negative rho (up, down):  1.638E-01 0.000E+00

     Adding external electric field

     Computed dipole along edir(3) :
        Dipole                0.0698 Ry au,          0.1775 Debye
        Dipole field          0.0001 Ry au

        Potential amp.       -0.0136 Ry
        Total length         46.4404 bohr

     End of self-consistent calculation

[...]

          k = 0.0523 0.0000 0.0000 ( 22539 PWs)   bands (ev):

[...]

          k =-0.0784-0.1358 0.0000 ( 22536 PWs)   bands (ev):

   -44.7655 -44.7220 -44.7218 -44.6730 -44.6185 -44.6183 -44.3423 -44.3421
   -44.2390 -21.1284 -21.0636 -21.0591 -21.0518 -21.0410 -21.0381 -21.0231
   -21.0206 -21.0090 -21.0085 -20.9825 -20.9723 -20.9635 -20.9620 -20.9525
   -20.9483 -20.9473 -20.9401 -20.9280 -20.9214 -20.9174 -20.9126 -20.9051
   -20.9008 -20.9007 -20.8989 -20.8959 -20.8911 -20.8800 -20.8770 -20.8752
   -20.8732 -20.8723 -20.8714 -20.8627 -20.8588 -20.8539 -20.8536 -20.8430
   -20.8392 -20.8262 -20.8224 -20.8093 -20.7906 -20.7704  -8.7930  -8.4534
    -7.3903  -6.9924  -6.2688  -6.2197  -5.4977  -5.0410  -3.6314  -3.3102
    -2.8408  -2.1841  -1.7013  -1.4652  -1.3358  -1.2636  -1.1789  -0.9464
    -0.8590  -0.6179  -0.4295  -0.2606  -0.2078  -0.0614   0.0494   0.1332
     0.1604   0.3878   0.6463   0.7529   1.1038   1.1626   1.2802   1.7675
     1.8894   2.1405   2.2130   2.2760   2.6897   3.0366   3.3698   3.4413
     3.5632   3.6480   4.3753   4.7335   4.7357   5.1222   5.4115   5.5990
     5.7337   5.8762   5.9748   6.1691   6.3587   6.3780   6.6111   6.6855
     6.7555   6.7879   6.8366

     the Fermi energy is     0.9404 ev

!    total energy              =   -1962.86346188 Ry
     Harris-Foulkes estimate   =   -1962.86346182 Ry
     estimated scf accuracy    <       0.00000045 Ry

     The total energy is the sum of the following terms:

     one-electron contribution =  -12267.88650961 Ry
     hartree contribution      =    6193.04949824 Ry
     xc contribution           =    -493.86920526 Ry
     ewald contribution        =    4605.88597442 Ry
     electric field correction =       0.00001023 Ry
     smearing contrib. (-TS)   =      -0.04322991 Ry

     convergence has been achieved in  22 iterations

 BEEF-vdW xc energy contributions
           1 :   -433.314533330096
           2 :    396.947675407915
           3 :   -335.088844385427
           4 :    264.707352166475
           5 :   -202.041548619619
           6 :    156.928814614225
           7 :   -130.581427862632
           8 :    117.311496272104
           9 :   -108.870916663454
          10 :    98.9672548745605
          11 :   -85.7573572367435
          12 :    71.4517396109523
          13 :   -59.8127191572393
          14 :    53.3184403810531
          15 :   -51.6581041094359
          16 :    52.1904966325662
          17 :   -51.7767586660815
          18 :    48.6812704736871
          19 :   -43.3838632102568
          20 :    37.9454106436623
          21 :   -34.4892968719457
          22 :    33.8301031737687
          23 :   -35.0802153681043
          24 :    36.3668240623621
          25 :   -36.0921287004388
          26 :    33.8894637960876
          27 :   -30.7105219753009
          28 :    28.0776984738022
          29 :   -27.0584395341987
          30 :    27.6347500925543
          31 :   -38.7463881987960
          32 :   -28.3896393311165

     Forces acting on atoms (Ry/au):

     negative rho (up, down):  1.638E-01 0.000E+00
     atom    1 type  1   force =    -0.00000369    0.01834667   -0.00470156
     atom    2 type  1   force =     0.01589033   -0.00917338   -0.00470331
     atom    3 type  1   force =    -0.01589028   -0.00917163   -0.00470273
     atom    4 type  2   force =     0.00000030    0.00000093    0.04512239
     atom    5 type  1   force =     0.00000065   -0.01082826   -0.00914696
     atom    6 type  1   force =    -0.00938242    0.00541038   -0.00914321
     atom    7 type  1   force =     0.00938111    0.00541475   -0.00914459
     atom    8 type  2   force =     0.00000032    0.00000101    0.00109494
     atom    9 type  1   force =    -0.00000192    0.00027691   -0.00117248
     atom   10 type  1   force =     0.00023934   -0.00013946   -0.00116144
     atom   11 type  1   force =    -0.00023427   -0.00013604   -0.00116413
     atom   12 type  2   force =     0.00000054   -0.00000189   -0.00117691

     Total force =     0.061007     Total SCF correction =     0.001352

     entering subroutine stress ...

     negative rho (up, down):  1.638E-01 0.000E+00
          total   stress  (Ry/bohr**3)                   (kbar)     P=  -14.17
  -0.00010499  -0.00000000   0.00000000        -15.44     -0.00      0.00
  -0.00000000  -0.00010499   0.00000000         -0.00    -15.45      0.00
   0.00000000   0.00000000  -0.00007907          0.00      0.00    -11.63

 !ASE

     Writing output data file calc.save

     General routines

     Parallel routines

   This run was terminated on:  17: 6:53   1Jan2019

   JOB DONE.
Job  /afs/slac/g/suncat/bin/suncat-tsmpirun -x LD_LIBRARY_PATH -wdir /scratch/qe649053_xNKWq pw.x -in pw.inp

TID   HOST_NAME   COMMAND_LINE            STATUS            TERMINATION_TIME
00000 suncat0178 pw.x -in pw.inp   Done                     01/01/2019 17:06:54
00001 suncat0178 pw.x -in pw.inp   Done                     01/01/2019 17:06:54
00002 suncat0178 pw.x -in pw.inp   Done                     01/01/2019 17:06:54
00003 suncat0178 pw.x -in pw.inp   Done                     01/01/2019 17:06:54
00004 suncat0178 pw.x -in pw.inp   Done                     01/01/2019 17:06:54
00005 suncat0178 pw.x -in pw.inp   Done                     01/01/2019 17:06:54
00006 suncat0178 pw.x -in pw.inp   Done                     01/01/2019 17:06:54
00007 suncat0178 pw.x -in pw.inp   Done                     01/01/2019 17:06:54
00008 suncat0177 pw.x -in pw.inp   Done                     01/01/2019 17:06:54
00009 suncat0177 pw.x -in pw.inp   Done                     01/01/2019 17:06:54
00010 suncat0177 pw.x -in pw.inp   Done                     01/01/2019 17:06:54
00011 suncat0177 pw.x -in pw.inp   Done                     01/01/2019 17:06:54
00012 suncat0177 pw.x -in pw.inp   Done                     01/01/2019 17:06:54
00013 suncat0177 pw.x -in pw.inp   Done                     01/01/2019 17:06:54
00014 suncat0177 pw.x -in pw.inp   Done                     01/01/2019 17:06:54
00015 suncat0177 pw.x -in pw.inp   Done                     01/01/2019 17:06:54
00016 suncat0113 pw.x -in pw.inp   Done                     01/01/2019 17:06:54
00017 suncat0113 pw.x -in pw.inp   Done                     01/01/2019 17:06:54
00018 suncat0113 pw.x -in pw.inp   Done                     01/01/2019 17:06:54
00019 suncat0113 pw.x -in pw.inp   Done                     01/01/2019 17:06:54
00020 suncat0113 pw.x -in pw.inp   Done                     01/01/2019 17:06:54
00021 suncat0113 pw.x -in pw.inp   Done                     01/01/2019 17:06:54
00022 suncat0113 pw.x -in pw.inp   Done                     01/01/2019 17:06:54
00023 suncat0113 pw.x -in pw.inp   Done                     01/01/2019 17:06:54
00024 suncat0267 pw.x -in pw.inp   Done                     01/01/2019 17:06:54
00025 suncat0267 pw.x -in pw.inp   Done                     01/01/2019 17:06:54
00026 suncat0267 pw.x -in pw.inp   Done                     01/01/2019 17:06:54
00027 suncat0267 pw.x -in pw.inp   Done                     01/01/2019 17:06:54
00028 suncat0267 pw.x -in pw.inp   Done                     01/01/2019 17:06:54
00029 suncat0267 pw.x -in pw.inp   Done                     01/01/2019 17:06:54
00030 suncat0267 pw.x -in pw.inp   Done                     01/01/2019 17:06:54
00031 suncat0267 pw.x -in pw.inp   Done                     01/01/2019 17:06:54
00032 suncat0254 pw.x -in pw.inp   Done                     01/01/2019 17:06:54
00033 suncat0254 pw.x -in pw.inp   Done                     01/01/2019 17:06:54
00034 suncat0254 pw.x -in pw.inp   Done                     01/01/2019 17:06:54
00035 suncat0254 pw.x -in pw.inp   Done                     01/01/2019 17:06:54
00036 suncat0254 pw.x -in pw.inp   Done                     01/01/2019 17:06:54
00037 suncat0254 pw.x -in pw.inp   Done                     01/01/2019 17:06:54
00038 suncat0254 pw.x -in pw.inp   Done                     01/01/2019 17:06:54
00039 suncat0254 pw.x -in pw.inp   Done                     01/01/2019 17:06:54
00040 suncat0253 pw.x -in pw.inp   Done                     01/01/2019 17:06:54
00041 suncat0253 pw.x -in pw.inp   Done                     01/01/2019 17:06:54
00042 suncat0253 pw.x -in pw.inp   Done                     01/01/2019 17:06:54
00043 suncat0253 pw.x -in pw.inp   Done                     01/01/2019 17:06:54
00044 suncat0253 pw.x -in pw.inp   Done                     01/01/2019 17:06:54
00045 suncat0253 pw.x -in pw.inp   Done                     01/01/2019 17:06:54
00046 suncat0253 pw.x -in pw.inp   Done                     01/01/2019 17:06:54
00047 suncat0253 pw.x -in pw.inp   Done                     01/01/2019 17:06:54
00048 suncat0228 pw.x -in pw.inp   Done                     01/01/2019 17:06:54
00049 suncat0228 pw.x -in pw.inp   Done                     01/01/2019 17:06:54
00050 suncat0228 pw.x -in pw.inp   Done                     01/01/2019 17:06:54
00051 suncat0228 pw.x -in pw.inp   Done                     01/01/2019 17:06:54
00052 suncat0228 pw.x -in pw.inp   Done                     01/01/2019 17:06:54
00053 suncat0228 pw.x -in pw.inp   Done                     01/01/2019 17:06:54
00054 suncat0228 pw.x -in pw.inp   Done                     01/01/2019 17:06:54
00055 suncat0228 pw.x -in pw.inp   Done                     01/01/2019 17:06:54
00056 suncat0227 pw.x -in pw.inp   Done                     01/01/2019 17:06:54
00057 suncat0227 pw.x -in pw.inp   Done                     01/01/2019 17:06:54
00058 suncat0227 pw.x -in pw.inp   Done                     01/01/2019 17:06:54
00059 suncat0227 pw.x -in pw.inp   Done                     01/01/2019 17:06:54
00060 suncat0227 pw.x -in pw.inp   Done                     01/01/2019 17:06:54
00061 suncat0227 pw.x -in pw.inp   Done                     01/01/2019 17:06:54
00062 suncat0227 pw.x -in pw.inp   Done                     01/01/2019 17:06:54
00063 suncat0227 pw.x -in pw.inp   Done                     01/01/2019 17:06:54