     Program PWSCF v.5.1rc2 (svn rev. 11289) starts on 25Dec2018 at 18: 2:53

     Current dimensions of program PWSCF are:
     Max number of different atomic species (ntypx) = 10
     Max number of k-points (npk) =  40000
     Max angular momentum in pseudopotentials (lmaxx) =  3
     Presently stress not available with electric field

     IMPORTANT: XC functional enforced from input :
     Exchange-correlation      = BEEF-VDW ( 1  4 27 13 2)
     Any further DFT definition will be discarded
     Please, verify this is what you really want

     Subspace diagonalization in iterative solution of the eigenvalue problem:
     a serial algorithm will be used

     bravais-lattice index     =            0
     lattice parameter (alat)  =       1.8897  a.u.
     unit-cell volume          =    3924.0816 (a.u.)^3
     number of atoms/cell      =           12
     number of atomic types    =            2
     number of electrons       =       216.00
     number of Kohn-Sham states=          138
     kinetic-energy cutoff     =      36.7493  Ry
     charge density cutoff     =     367.4932  Ry
     convergence threshold     =      1.0E-06
     mixing beta               =       0.1000
     number of iterations used =           10  plain     mixing
     Exchange-correlation      = BEEF-VDW ( 1  4 27 13 2)
     nstep                     =           50

     celldm(1)=   1.889726  celldm(2)=   0.000000  celldm(3)=   0.000000
     celldm(4)=   0.000000  celldm(5)=   0.000000  celldm(6)=   0.000000

     crystal axes: (cart. coord. in units of alat)
               a(1) = (   5.257366   0.000000   0.000000 )
               a(2) = (  -2.628683   4.553012   0.000000 )
               a(3) = (   0.000000   0.000000  24.292621 )

     reciprocal axes: (cart. coord. in units 2 pi/alat)
               b(1) = (  0.190209  0.109817  0.000000 )
               b(2) = (  0.000000  0.219635  0.000000 )
               b(3) = (  0.000000  0.000000  0.041165 )

     PseudoPot. # 1 for Cu read from file:
     /afs/slac.stanford.edu/u/if/mamunm/psp/gbrv1.5pbe/Cu.UPF
     MD5 check sum: 6e991ff952a84172a2a52a1c1e996048
     Pseudo is Ultrasoft + core correction, Zval = 19.0
     Generated by new atomic code, or converted to UPF format
     Using radial grid of  867 points,  6 beta functions with:
                l(1) =   0
                l(2) =   0
                l(3) =   1
                l(4) =   1
                l(5) =   2
                l(6) =   2
     Q(r) pseudized with  8 coefficients,  rinner =    1.150   1.150   1.150
                                                       1.150   1.150

     PseudoPot. # 2 for Rh read from file:
     /afs/slac.stanford.edu/u/if/mamunm/psp/gbrv1.5pbe/Rh.UPF
     MD5 check sum: 761627e959a2e3a1f56b0b5fe687810e
     Pseudo is Ultrasoft + core correction, Zval = 15.0
     Generated by new atomic code, or converted to UPF format
     Using radial grid of  969 points,  7 beta functions with:
                l(1) =   0
                l(2) =   0
                l(3) =   1
                l(4) =   1
                l(5) =   2
                l(6) =   2
                l(7) =   2
     Q(r) pseudized with  8 coefficients,  rinner =    1.200   1.200   1.200
                                                       1.200   1.200

     vdW kernel table read from file vdW_kernel_table
     MD5 check sum: 095c7af220d748ca6e76c0b4c6cfb241

     atomic species   valence    mass     pseudopotential
        Cu1           19.00    63.54600     Cu( 1.00)
        Rh1           15.00   102.90550     Rh( 1.00)

     No symmetry found

   Cartesian axes

     site n.     atom                  positions (alat units)
         1           Cu1 tau(   1) = (   0.0000000   0.0000000  10.0000000  )
         2           Cu1 tau(   2) = (  -1.3143415   2.2765062  10.0000000  )
         3           Cu1 tau(   3) = (   1.3143415   2.2765062  10.0000000  )
         4           Rh1 tau(   4) = (   2.6286830   0.0000000  10.0000000  )
         5           Cu1 tau(   5) = (   2.6286830   1.5176708  12.1463107  )
         6           Cu1 tau(   6) = (   1.3143415   3.7941770  12.1463107  )
         7           Cu1 tau(   7) = (  -1.3143415   3.7941770  12.1463107  )
         8           Rh1 tau(   8) = (   0.0000000   1.5176708  12.1463107  )
         9           Cu1 tau(   9) = (  -0.0000000   3.0353416  14.2926213  )
        10           Cu1 tau(  10) = (   1.3143415   0.7588354  14.2926213  )
        11           Cu1 tau(  11) = (   3.9430244   0.7588354  14.2926213  )
        12           Rh1 tau(  12) = (   2.6286830   3.0353416  14.2926213  )

     number of k points=    20  Fermi-Dirac smearing, width (Ry)=  0.0110
                       cart. coord. in units 2pi/alat
        k(    1) = (   0.0000000   0.0000000   0.0000000), wk =   0.0555556
        k(    2) = (   0.0000000   0.0366058   0.0000000), wk =   0.1111111
        k(    3) = (   0.0000000   0.0732116   0.0000000), wk =   0.1111111
        k(    4) = (   0.0000000  -0.1098174   0.0000000), wk =   0.0555556
        k(    5) = (   0.0317016   0.0183029   0.0000000), wk =   0.1111111
        k(    6) = (   0.0317016   0.0549087   0.0000000), wk =   0.1111111
        k(    7) = (   0.0317016   0.0915145   0.0000000), wk =   0.1111111
        k(    8) = (   0.0317016  -0.0915145   0.0000000), wk =   0.1111111
        k(    9) = (   0.0317016  -0.0549087   0.0000000), wk =   0.1111111
        k(   10) = (   0.0317016  -0.0183029   0.0000000), wk =   0.1111111
        k(   11) = (   0.0634031   0.0366058   0.0000000), wk =   0.1111111
        k(   12) = (   0.0634031   0.0732116   0.0000000), wk =   0.1111111
        k(   13) = (   0.0634031   0.1098174   0.0000000), wk =   0.1111111
        k(   14) = (   0.0634031  -0.0732116   0.0000000), wk =   0.1111111
        k(   15) = (   0.0634031  -0.0366058   0.0000000), wk =   0.1111111
        k(   16) = (   0.0634031   0.0000000   0.0000000), wk =   0.1111111
        k(   17) = (  -0.0951047  -0.0549087   0.0000000), wk =   0.0555556
        k(   18) = (  -0.0951047  -0.0183029   0.0000000), wk =   0.1111111
        k(   19) = (  -0.0951047   0.0183029   0.0000000), wk =   0.1111111
        k(   20) = (  -0.0951047  -0.1647261   0.0000000), wk =   0.0555556

     Largest allocated arrays     est. size (Mb)     dimensions
     Largest temporary arrays     est. size (Mb)     dimensions

     Initial potential from superposition of free atoms
     Check: negative starting charge=   -0.164641

     starting charge  205.49969, renormalised to  216.00000

     negative rho (up, down):  1.731E-01 0.000E+00

     *
     * You are using vdW-DF for exchange-correlation in this calculation.
     * Please cite the following three references that made this development
     * possible:
     *
     *   M. Dion, H. Rydberg, E. Schroder, D. C. Langreth, and
     *   B. I. Lundqvist, Phys. Rev. Lett. 92, 246401 (2004).
     *
     *   T. Thonhauser, V. R. Cooper, S. Li, A. Puzder, P. Hyldgaard, and
     *   D. C. Langreth, Phys. Rev. B 76, 125112 (2007).
     *
     *   G. Roman-Perez and J. M. Soler, Phys. Rev. Lett. 103, 096102 (2009).
     *
     *
     * If you are using vdW-DF2, please also cite:
     *
     *   K. Lee, E. D. Murray, L. Kong, B. I. Lundqvist, and
     *   D. C. Langreth, Phys. Rev. B 82, 081101(R) (2010).
     *
     *
     * If you are calculating the stress with vdW-DF, please also cite:
     *
     *   R. Sabatini, E. Kucukbenli, B. Kolb, T. Thonhauser, and
     *   S. de Gironcoli, J. Phys.: Condens. Matter 24, 424209 (2012).
     *

     Carrying out vdW-DF run using the following parameters:

     Nqs =      20    Nr_points =    1024   r_max =   100.000
     q_mesh =
               0.00001000     0.04494208     0.09755937     0.15916263
               0.23128650     0.31572767     0.41458969     0.53033537
               0.66584808     0.82450364     1.01025438     1.22772762
               1.48234092     1.78043706     2.12944203     2.53805004
               3.01644009     3.57652955     4.23227104     5.00000000

     Gradients computed in reciprocal space

     Adding external electric field

     Computed dipole along edir(3) :
        Dipole                0.0000 Ry au,          0.0000 Debye
        Dipole field          0.0000 Ry au

        Potential amp.       -0.0000 Ry
        Total length         44.7587 bohr

     Starting wfc are  153 randomized atomic wfcs

     Self-consistent Calculation

     iteration #  1     ecut=    36.75 Ry     beta=0.10
     Davidson diagonalization with overlap
     ethr =  1.00E-02,  avg # of iterations =  6.9

[...]

     total energy              =   -4156.82222041 Ry
     Harris-Foulkes estimate   =   -4168.68445157 Ry
     estimated scf accuracy    <      67.16452815 Ry

[...]

     End of self-consistent calculation

          k = 0.0000 0.0000 0.0000 ( 14813 PWs)   bands (ev):

  -111.6700-111.6654-111.6654-111.5252-111.5248-111.5206-111.5206-111.5202
  -111.5202 -69.0907 -69.0907 -69.0871 -69.0676 -69.0643 -69.0643 -69.0573
   -69.0246 -69.0246 -68.9750 -68.9750 -68.9730 -68.9730 -68.9728 -68.9722
   -68.9520 -68.9515 -68.9234 -68.9234 -68.9230 -68.9230 -68.8588 -68.8566
   -68.8527 -68.8527 -68.8516 -68.8516 -45.3142 -45.2616 -45.2616 -45.0509
   -45.0509 -45.0506 -45.0506 -44.9358 -44.9355  -6.9231  -5.1944  -4.2109
    -3.9130  -3.9130  -3.7846  -3.7846  -3.3430  -3.3085  -3.3085  -3.2308
    -3.2308  -3.1888  -3.1690  -2.9317  -2.4767  -2.4767  -2.3811  -2.1064
    -2.1064  -2.0675  -2.0008  -1.9192  -1.9171  -1.9171  -1.8279  -1.8106
    -1.8106  -1.7175  -1.7175  -1.6843  -1.6843  -1.5699  -1.5699  -1.2816
    -1.1649  -1.1649  -1.1630  -1.1630  -1.1011  -1.1011  -0.9740  -0.8989
    -0.8567  -0.8232  -0.8232  -0.7633  -0.6672  -0.6469  -0.2292  -0.1506
    -0.1506  -0.0672  -0.0672   0.0705   0.0705   0.2220   0.2220   0.3084
     0.3084   0.4991   0.5838   0.5838   1.0315   1.4552   1.8422   1.8422
     2.8550   2.9910   2.9910   3.2040   3.2040   3.2649   4.7015   5.0028
     5.4371   6.1545   6.1545   6.3458   6.6077   6.6077   6.7528   7.1553
     7.4685   7.5937   7.5937   8.1098   8.6970   9.1328  10.1022  10.1022
    10.1526  10.3222

[...]

          k =-0.0951-0.0549 0.0000 ( 14754 PWs)   bands (ev):

[...]

     the Fermi energy is     0.5344 ev

!    total energy              =   -4160.98146506 Ry
     Harris-Foulkes estimate   =   -4160.98145581 Ry
     estimated scf accuracy    <       0.00000082 Ry

     The total energy is the sum of the following terms:

     one-electron contribution =  -31854.38871634 Ry
     hartree contribution      =   15950.45475736 Ry
     xc contribution           =    -453.19841231 Ry
     ewald contribution        =   12196.21277848 Ry
     electric field correction =       0.00000003 Ry
     smearing contrib. (-TS)   =      -0.06187227 Ry

     convergence has been achieved in  19 iterations

 BEEF-vdW xc energy contributions
           1 :   -400.332561361949
           2 :    363.896547036080
           3 :   -301.935894673423
           4 :    231.232648471974
           5 :   -167.352788214826
           6 :    119.148979848003
           7 :   -87.2234110659200
[...]
                l(1) =   0
                l(2) =   0
                l(3) =   1
                l(4) =   1
                l(5) =   2
                l(6) =   2
     Q(r) pseudized with  8 coefficients,  rinner =    1.150   1.150   1.150
                                                       1.150   1.150

     PseudoPot. # 2 for Rh read from file:
     /afs/slac.stanford.edu/u/if/mamunm/psp/gbrv1.5pbe/Rh.UPF
     MD5 check sum: 761627e959a2e3a1f56b0b5fe687810e
     Pseudo is Ultrasoft + core correction, Zval = 15.0
     Generated by new atomic code, or converted to UPF format
     Using radial grid of  969 points,  7 beta functions with:
                l(1) =   0
                l(2) =   0
                l(3) =   1
                l(4) =   1
                l(5) =   2
                l(6) =   2
                l(7) =   2
     Q(r) pseudized with  8 coefficients,  rinner =    1.200   1.200   1.200
                                                       1.200   1.200

     vdW kernel table read from file vdW_kernel_table
     MD5 check sum: 095c7af220d748ca6e76c0b4c6cfb241

     atomic species   valence    mass     pseudopotential
        Cu1           19.00    63.54600     Cu( 1.00)
        Rh1           15.00   102.90550     Rh( 1.00)

     No symmetry found

   Cartesian axes

     site n.     atom                  positions (alat units)
         1           Cu1 tau(   1) = (   0.0000000   0.0000000  10.0000000  )
         2           Cu1 tau(   2) = (  -1.3143415   2.2765062  10.0000000  )
         3           Cu1 tau(   3) = (   1.3143415   2.2765062  10.0000000  )
         4           Rh1 tau(   4) = (   2.6286830   0.0000000  10.0000000  )
         5           Cu1 tau(   5) = (   2.6286830   1.5176708  12.1463107  )
         6           Cu1 tau(   6) = (   1.3143415   3.7941770  12.1463107  )
         7           Cu1 tau(   7) = (  -1.3143415   3.7941770  12.1463107  )
         8           Rh1 tau(   8) = (   0.0000000   1.5176708  12.1463107  )
         9           Cu1 tau(   9) = (   0.0000044   3.0552852  14.2916227  )
        10           Cu1 tau(  10) = (   1.3316160   0.7488582  14.2916249  )
        11           Cu1 tau(  11) = (   3.9257450   0.7488571  14.2916214  )
        12           Rh1 tau(  12) = (   2.6286833   3.0353419  14.2506234  )

     number of k points=    20  Fermi-Dirac smearing, width (Ry)=  0.0110
                       cart. coord. in units 2pi/alat
        k(    1) = (   0.0000000   0.0000000   0.0000000), wk =   0.0555556
        k(    2) = (   0.0000000   0.0366058   0.0000000), wk =   0.1111111
        k(    3) = (   0.0000000   0.0732116   0.0000000), wk =   0.1111111
        k(    4) = (   0.0000000  -0.1098174   0.0000000), wk =   0.0555556
        k(    5) = (   0.0317016   0.0183029   0.0000000), wk =   0.1111111
        k(    6) = (   0.0317016   0.0549087   0.0000000), wk =   0.1111111
        k(    7) = (   0.0317016   0.0915145   0.0000000), wk =   0.1111111
        k(    8) = (   0.0317016  -0.0915145   0.0000000), wk =   0.1111111
        k(    9) = (   0.0317016  -0.0549087   0.0000000), wk =   0.1111111
        k(   10) = (   0.0317016  -0.0183029   0.0000000), wk =   0.1111111
        k(   11) = (   0.0634031   0.0366058   0.0000000), wk =   0.1111111
        k(   12) = (   0.0634031   0.0732116   0.0000000), wk =   0.1111111
        k(   13) = (   0.0634031   0.1098174   0.0000000), wk =   0.1111111
        k(   14) = (   0.0634031  -0.0732116   0.0000000), wk =   0.1111111
        k(   15) = (   0.0634031  -0.0366058   0.0000000), wk =   0.1111111
        k(   16) = (   0.0634031   0.0000000   0.0000000), wk =   0.1111111
        k(   17) = (  -0.0951047  -0.0549087   0.0000000), wk =   0.0555556
        k(   18) = (  -0.0951047  -0.0183029   0.0000000), wk =   0.1111111
        k(   19) = (  -0.0951047   0.0183029   0.0000000), wk =   0.1111111
        k(   20) = (  -0.0951047  -0.1647261   0.0000000), wk =   0.0555556

     Largest allocated arrays     est. size (Mb)     dimensions
     Largest temporary arrays     est. size (Mb)     dimensions

     Initial potential from superposition of free atoms
     Check: negative starting charge=   -0.165765

     starting charge  205.49969, renormalised to  216.00000

[...]

     *
     * You are using vdW-DF for exchange-correlation in this calculation.
     * Please cite the following three references that made this development
     * possible:
     *
     *   M. Dion, H. Rydberg, E. Schroder, D. C. Langreth, and
     *   B. I. Lundqvist, Phys. Rev. Lett. 92, 246401 (2004).
     *
     *   T. Thonhauser, V. R. Cooper, S. Li, A. Puzder, P. Hyldgaard, and
     *   D. C. Langreth, Phys. Rev. B 76, 125112 (2007).
     *
     *   G. Roman-Perez and J. M. Soler, Phys. Rev. Lett. 103, 096102 (2009).
     *
     *
     * If you are using vdW-DF2, please also cite:
     *
     *   K. Lee, E. D. Murray, L. Kong, B. I. Lundqvist, and
     *   D. C. Langreth, Phys. Rev. B 82, 081101(R) (2010).
     *
     *
     * If you are calculating the stress with vdW-DF, please also cite:
     *
     *   R. Sabatini, E. Kucukbenli, B. Kolb, T. Thonhauser, and
     *   S. de Gironcoli, J. Phys.: Condens. Matter 24, 424209 (2012).
     *

     Carrying out vdW-DF run using the following parameters:

     Nqs =      20    Nr_points =    1024   r_max =   100.000
     q_mesh =
               0.00001000     0.04494208     0.09755937     0.15916263
               0.23128650     0.31572767     0.41458969     0.53033537
               0.66584808     0.82450364     1.01025438     1.22772762
               1.48234092     1.78043706     2.12944203     2.53805004
               3.01644009     3.57652955     4.23227104     5.00000000

     Gradients computed in reciprocal space

[...]

     Starting wfc are  153 randomized atomic wfcs

     Self-consistent Calculation

[...]

     total energy              =   -4160.98203145 Ry
     Harris-Foulkes estimate   =   -4160.98202920 Ry
     estimated scf accuracy    <       0.00000164 Ry

     iteration # 19     ecut=    36.75 Ry     beta=0.10
     Davidson diagonalization with overlap
     ethr =  7.61E-10,  avg # of iterations =  1.4

[...]

     negative rho (up, down):  1.705E-01 0.000E+00

     Adding external electric field

     Computed dipole along edir(3) :
        Dipole                0.0002 Ry au,          0.0004 Debye
        Dipole field          0.0000 Ry au

        Potential amp.       -0.0000 Ry
        Total length         44.7587 bohr

     End of self-consistent calculation

[...]

          k = 0.0634 0.0000 0.0000 ( 14769 PWs)   bands (ev):

[...]

          k =-0.0951-0.1647 0.0000 ( 14754 PWs)   bands (ev):

  -111.6808-111.6792-111.6777-111.5239-111.5228-111.5224-111.5210-111.5209
  -111.5196 -69.1019 -69.0916 -69.0896 -69.0877 -69.0860 -69.0797 -69.0586
   -69.0490 -69.0351 -68.9749 -68.9741 -68.9656 -68.9644 -68.9606 -68.9597
   -68.9550 -68.9542 -68.9427 -68.9411 -68.9258 -68.9249 -68.8562 -68.8546
   -68.8533 -68.8524 -68.8514 -68.8496 -45.3105 -45.2634 -45.2628 -45.0772
   -45.0766 -45.0529 -45.0523 -44.9665 -44.9377  -5.2408  -5.1625  -3.9276
    -3.7207  -3.4396  -3.3121  -3.3040  -3.1801  -2.9332  -2.9204  -2.9002
    -2.6902  -2.6539  -2.6379  -2.5841  -2.5426  -2.3855  -2.3288  -2.3263
    -2.3183  -2.2874  -2.2377  -2.0246  -2.0014  -1.9136  -1.8965  -1.8580
    -1.8495  -1.8412  -1.7922  -1.7721  -1.7475  -1.7173  -1.7128  -1.6557
    -1.6525  -1.6203  -1.5493  -1.4599  -1.4501  -1.4029  -1.3957  -1.2980
    -1.2969  -1.2551  -1.2541  -1.0757  -1.0292  -0.9447  -0.8921  -0.8814
    -0.7453  -0.5369  -0.4697  -0.4515  -0.4003  -0.3545  -0.3448  -0.1154
    -0.0608  -0.0122   0.0685   0.2068   0.5764   1.1241   1.6889   2.0957
     2.5530   2.5892   3.2184   4.1949   4.2771   5.0618   5.1713   6.3250
     6.3378   6.9111   6.9430   7.1940   7.1975   7.7552   7.9646   8.1897
     8.2241   8.3240   8.6371   8.6534   8.7097   8.7846   8.8867   9.5728
     9.7111   9.9869

     the Fermi energy is     0.5317 ev

!    total energy              =   -4160.98204126 Ry
     Harris-Foulkes estimate   =   -4160.98203151 Ry
     estimated scf accuracy    <       0.00000097 Ry

     The total energy is the sum of the following terms:

     one-electron contribution =  -31895.17681140 Ry
     hartree contribution      =   15970.79399853 Ry
     xc contribution           =    -453.20613068 Ry
     ewald contribution        =   12216.66871888 Ry
     electric field correction =       0.00000000 Ry
     smearing contrib. (-TS)   =      -0.06181659 Ry

     convergence has been achieved in  19 iterations

 BEEF-vdW xc energy contributions
           1 :   -400.342293298600
           2 :    363.916395156610
           3 :   -301.967011844244
           4 :    231.265325361559
           5 :   -167.373098936606
           6 :    119.148979211863
           7 :   -87.2072478443031
           8 :    66.3906404432202
           9 :   -50.2695377103276
          10 :    34.9306706893861
          11 :   -20.2037766827398
          12 :    8.26466797720843
          13 :   -1.09878691846336
          14 :   -1.30898972521487
          15 :    1.01213187478874
          16 :  -0.668158459667723
          17 :    1.85257899912688
          18 :   -4.31641281324062
          19 :    6.56656642749431
          20 :   -7.20451588726962
          21 :    6.00616972583703
          22 :   -4.02108240973666
          23 :    2.72822591907988
          24 :   -2.94732436658603
          25 :    4.30623838084449
          26 :   -5.60094595514141
          27 :    5.72587110432835
          28 :   -4.47597591332789
          29 :    2.65633882068767
          30 :   -1.45882683714029
          31 :   -33.3534930262633
          32 :   -23.2946811708933

     Forces acting on atoms (Ry/au):

     negative rho (up, down):  1.705E-01 0.000E+00
     atom    1 type  1   force =     0.00000159   -0.00442960   -0.00008531
     atom    2 type  1   force =    -0.00383593    0.00221671   -0.00008802
     atom    3 type  1   force =     0.00383556    0.00221344   -0.00008644
     atom    4 type  2   force =     0.00000021   -0.00000019    0.00869515
     atom    5 type  1   force =    -0.00000069   -0.00212820   -0.00352359
     atom    6 type  1   force =    -0.00184473    0.00106323   -0.00352611
     atom    7 type  1   force =     0.00184364    0.00106483   -0.00352486
     atom    8 type  2   force =    -0.00000030   -0.00000059    0.00235988
     atom    9 type  1   force =    -0.00000057   -0.00129866   -0.00033341
     atom   10 type  1   force =    -0.00112413    0.00064882   -0.00033681
     atom   11 type  1   force =     0.00112463    0.00065104   -0.00033599
     atom   12 type  2   force =     0.00000071   -0.00000082    0.00078552

     Total force =     0.014034     Total SCF correction =     0.003721
     SCF correction compared to forces is large: reduce conv_thr to get better values

     entering subroutine stress ...

     negative rho (up, down):  1.705E-01 0.000E+00
          total   stress  (Ry/bohr**3)                   (kbar)     P=  -22.95
  -0.00017969  -0.00000000  -0.00000000        -26.43     -0.00     -0.00
  -0.00000000  -0.00017969   0.00000000         -0.00    -26.43      0.00
  -0.00000000   0.00000000  -0.00010864         -0.00      0.00    -15.98

 !ASE

     Writing output data file calc.save

     General routines

     Parallel routines

   This run was terminated on:  19:12:19  25Dec2018

   JOB DONE.
Job  /afs/slac/g/suncat/bin/suncat-tsmpirun -x LD_LIBRARY_PATH -wdir /scratch/qe109589_HRyow pw.x -in pw.inp

TID   HOST_NAME   COMMAND_LINE            STATUS            TERMINATION_TIME
00000 suncat0050 pw.x -in pw.inp   Done                     12/25/2018 19:12:19
00001 suncat0050 pw.x -in pw.inp   Done                     12/25/2018 19:12:19
00002 suncat0050 pw.x -in pw.inp   Done                     12/25/2018 19:12:19
00003 suncat0050 pw.x -in pw.inp   Done                     12/25/2018 19:12:19
00004 suncat0050 pw.x -in pw.inp   Done                     12/25/2018 19:12:19
00005 suncat0050 pw.x -in pw.inp   Done                     12/25/2018 19:12:19
00006 suncat0050 pw.x -in pw.inp   Done                     12/25/2018 19:12:19
00007 suncat0050 pw.x -in pw.inp   Done                     12/25/2018 19:12:19
00008 suncat0049 pw.x -in pw.inp   Done                     12/25/2018 19:12:19
00009 suncat0049 pw.x -in pw.inp   Done                     12/25/2018 19:12:19
00010 suncat0049 pw.x -in pw.inp   Done                     12/25/2018 19:12:19
00011 suncat0049 pw.x -in pw.inp   Done                     12/25/2018 19:12:19
00012 suncat0049 pw.x -in pw.inp   Done                     12/25/2018 19:12:19
00013 suncat0049 pw.x -in pw.inp   Done                     12/25/2018 19:12:19
00014 suncat0049 pw.x -in pw.inp   Done                     12/25/2018 19:12:19
00015 suncat0049 pw.x -in pw.inp   Done                     12/25/2018 19:12:19
00016 suncat0031 pw.x -in pw.inp   Done                     12/25/2018 19:12:19
00017 suncat0031 pw.x -in pw.inp   Done                     12/25/2018 19:12:19
00018 suncat0031 pw.x -in pw.inp   Done                     12/25/2018 19:12:19
00019 suncat0031 pw.x -in pw.inp   Done                     12/25/2018 19:12:19
00020 suncat0031 pw.x -in pw.inp   Done                     12/25/2018 19:12:19
00021 suncat0031 pw.x -in pw.inp   Done                     12/25/2018 19:12:19
00022 suncat0031 pw.x -in pw.inp   Done                     12/25/2018 19:12:19
00023 suncat0031 pw.x -in pw.inp   Done                     12/25/2018 19:12:19
00024 suncat0030 pw.x -in pw.inp   Done                     12/25/2018 19:12:19
00025 suncat0030 pw.x -in pw.inp   Done                     12/25/2018 19:12:19
00026 suncat0030 pw.x -in pw.inp   Done                     12/25/2018 19:12:19
00027 suncat0030 pw.x -in pw.inp   Done                     12/25/2018 19:12:19
00028 suncat0030 pw.x -in pw.inp   Done                     12/25/2018 19:12:19
00029 suncat0030 pw.x -in pw.inp   Done                     12/25/2018 19:12:19
00030 suncat0030 pw.x -in pw.inp   Done                     12/25/2018 19:12:19
00031 suncat0030 pw.x -in pw.inp   Done                     12/25/2018 19:12:19
00032 suncat0280 pw.x -in pw.inp   Done                     12/25/2018 19:12:19
00033 suncat0280 pw.x -in pw.inp   Done                     12/25/2018 19:12:19
00034 suncat0280 pw.x -in pw.inp   Done                     12/25/2018 19:12:19
00035 suncat0280 pw.x -in pw.inp   Done                     12/25/2018 19:12:19
00036 suncat0280 pw.x -in pw.inp   Done                     12/25/2018 19:12:19
00037 suncat0280 pw.x -in pw.inp   Done                     12/25/2018 19:12:19
00038 suncat0280 pw.x -in pw.inp   Done                     12/25/2018 19:12:19
00039 suncat0280 pw.x -in pw.inp   Done                     12/25/2018 19:12:19
00040 suncat0279 pw.x -in pw.inp   Done                     12/25/2018 19:12:19
00041 suncat0279 pw.x -in pw.inp   Done                     12/25/2018 19:12:19
00042 suncat0279 pw.x -in pw.inp   Done                     12/25/2018 19:12:19
00043 suncat0279 pw.x -in pw.inp   Done                     12/25/2018 19:12:19
00044 suncat0279 pw.x -in pw.inp   Done                     12/25/2018 19:12:19
00045 suncat0279 pw.x -in pw.inp   Done                     12/25/2018 19:12:19
00046 suncat0279 pw.x -in pw.inp   Done                     12/25/2018 19:12:19
00047 suncat0279 pw.x -in pw.inp   Done                     12/25/2018 19:12:19
00048 suncat0278 pw.x -in pw.inp   Done                     12/25/2018 19:12:19
00049 suncat0278 pw.x -in pw.inp   Done                     12/25/2018 19:12:19
00050 suncat0278 pw.x -in pw.inp   Done                     12/25/2018 19:12:19
00051 suncat0278 pw.x -in pw.inp   Done                     12/25/2018 19:12:19
00052 suncat0278 pw.x -in pw.inp   Done                     12/25/2018 19:12:19
00053 suncat0278 pw.x -in pw.inp   Done                     12/25/2018 19:12:19
00054 suncat0278 pw.x -in pw.inp   Done                     12/25/2018 19:12:19
00055 suncat0278 pw.x -in pw.inp   Done                     12/25/2018 19:12:19
00056 suncat0099 pw.x -in pw.inp   Done                     12/25/2018 19:12:19
00057 suncat0099 pw.x -in pw.inp   Done                     12/25/2018 19:12:19
00058 suncat0099 pw.x -in pw.inp   Done                     12/25/2018 19:12:19
00059 suncat0099 pw.x -in pw.inp   Done                     12/25/2018 19:12:19
00060 suncat0099 pw.x -in pw.inp   Done                     12/25/2018 19:12:19
00061 suncat0099 pw.x -in pw.inp   Done                     12/25/2018 19:12:19
00062 suncat0099 pw.x -in pw.inp   Done                     12/25/2018 19:12:19
00063 suncat0099 pw.x -in pw.inp   Done                     12/25/2018 19:12:19