     Program PWSCF v.5.1rc2 (svn rev. 11289) starts on 27Dec2018 at  7: 7: 1

     Current dimensions of program PWSCF are:
     Max number of different atomic species (ntypx) = 10
     Max number of k-points (npk) =  40000
     Max angular momentum in pseudopotentials (lmaxx) =  3
     Presently stress not available with electric field

     IMPORTANT: XC functional enforced from input :
     Exchange-correlation      = BEEF-VDW ( 1  4 27 13 2)
     Any further DFT definition will be discarded
     Please, verify this is what you really want

     Subspace diagonalization in iterative solution of the eigenvalue problem:
     a serial algorithm will be used

     bravais-lattice index     =            0
     lattice parameter (alat)  =       1.8897  a.u.
     unit-cell volume          =    4955.7317 (a.u.)^3
     number of atoms/cell      =           12
     number of atomic types    =            2
     number of electrons       =       162.00
     number of Kohn-Sham states=          111
     kinetic-energy cutoff     =      36.7493  Ry
     charge density cutoff     =     367.4932  Ry
     convergence threshold     =      1.0E-06
     mixing beta               =       0.1000
     number of iterations used =           10  plain     mixing
     Exchange-correlation      = BEEF-VDW ( 1  4 27 13 2)
     nstep                     =           50

     celldm(1)=   1.889726  celldm(2)=   0.000000  celldm(3)=   0.000000
     celldm(4)=   0.000000  celldm(5)=   0.000000  celldm(6)=   0.000000

     crystal axes: (cart. coord. in units of alat)
               a(1) = (   5.850177   0.000000   0.000000 )
               a(2) = (  -2.925088   5.066402   0.000000 )
               a(3) = (   0.000000   0.000000  24.776649 )

     reciprocal axes: (cart. coord. in units 2 pi/alat)
               b(1) = (  0.170935  0.098689  0.000000 )
               b(2) = (  0.000000  0.197379  0.000000 )
               b(3) = (  0.000000  0.000000  0.040361 )

     PseudoPot. # 1 for Nb read from file:
     /afs/slac.stanford.edu/u/if/mamunm/psp/gbrv1.5pbe/Nb.UPF
     MD5 check sum: 573aab8a2fa660278ed4a62cd769473f
     Pseudo is Ultrasoft + core correction, Zval = 13.0
     Generated by new atomic code, or converted to UPF format
     Using radial grid of  887 points,  6 beta functions with:
                l(1) =   0
                l(2) =   0
                l(3) =   1
                l(4) =   1
                l(5) =   2
                l(6) =   2
     Q(r) pseudized with  6 coefficients,  rinner =    1.000   1.000   1.000
                                                       1.000   1.000

     PseudoPot. # 2 for Tc read from file:
     /afs/slac.stanford.edu/u/if/mamunm/psp/gbrv1.5pbe/Tc.UPF
     MD5 check sum: 9eb49e5b028550b2339a02317eb7b844
     Pseudo is Ultrasoft + core correction, Zval = 15.0
     Generated by new atomic code, or converted to UPF format
     Using radial grid of  965 points,  6 beta functions with:
                l(1) =   0
                l(2) =   0
                l(3) =   1
                l(4) =   1
                l(5) =   2
                l(6) =   2
     Q(r) pseudized with  8 coefficients,  rinner =    1.300   1.300   1.300
                                                       1.300   1.300

     vdW kernel table read from file vdW_kernel_table
     MD5 check sum: 095c7af220d748ca6e76c0b4c6cfb241

     atomic species   valence    mass     pseudopotential
        Nb1           13.00    92.90637     Nb( 1.00)
        Tc1           15.00    97.90721     Tc( 1.00)

     No symmetry found

   Cartesian axes

     site n.     atom                  positions (alat units)
         1           Nb1 tau(   1) = (   0.0000000   0.0000000  10.0000000  )
         2           Nb1 tau(   2) = (  -1.4625442   2.5332008  10.0000000  )
         3           Nb1 tau(   3) = (   1.4625442   2.5332008  10.0000000  )
         4           Tc1 tau(   4) = (   2.9250884   0.0000000  10.0000000  )
         5           Nb1 tau(   5) = (   2.9250884   1.6888006  12.3883247  )
         6           Nb1 tau(   6) = (   1.4625442   4.2220014  12.3883247  )
         7           Nb1 tau(   7) = (  -1.4625442   4.2220014  12.3883247  )
         8           Tc1 tau(   8) = (   0.0000000   1.6888006  12.3883247  )
         9           Nb1 tau(   9) = (  -0.0000000   3.3776011  14.7766493  )
        10           Nb1 tau(  10) = (   1.4625442   0.8444003  14.7766493  )
        11           Nb1 tau(  11) = (   4.3876326   0.8444003  14.7766493  )
        12           Tc1 tau(  12) = (   2.9250884   3.3776011  14.7766493  )

     number of k points=    20  Fermi-Dirac smearing, width (Ry)=  0.0110
                       cart. coord. in units 2pi/alat
        k(    1) = (   0.0000000   0.0000000   0.0000000), wk =   0.0555556
        k(    2) = (   0.0000000   0.0328965   0.0000000), wk =   0.1111111
        k(    3) = (   0.0000000   0.0657929   0.0000000), wk =   0.1111111
        k(    4) = (   0.0000000  -0.0986894   0.0000000), wk =   0.0555556
        k(    5) = (   0.0284892   0.0164482   0.0000000), wk =   0.1111111
        k(    6) = (   0.0284892   0.0493447   0.0000000), wk =   0.1111111
        k(    7) = (   0.0284892   0.0822411   0.0000000), wk =   0.1111111
        k(    8) = (   0.0284892  -0.0822411   0.0000000), wk =   0.1111111
        k(    9) = (   0.0284892  -0.0493447   0.0000000), wk =   0.1111111
        k(   10) = (   0.0284892  -0.0164482   0.0000000), wk =   0.1111111
        k(   11) = (   0.0569783   0.0328965   0.0000000), wk =   0.1111111
        k(   12) = (   0.0569783   0.0657929   0.0000000), wk =   0.1111111
        k(   13) = (   0.0569783   0.0986894   0.0000000), wk =   0.1111111
        k(   14) = (   0.0569783  -0.0657929   0.0000000), wk =   0.1111111
        k(   15) = (   0.0569783  -0.0328965   0.0000000), wk =   0.1111111
        k(   16) = (   0.0569783   0.0000000   0.0000000), wk =   0.1111111
        k(   17) = (  -0.0854675  -0.0493447   0.0000000), wk =   0.0555556
        k(   18) = (  -0.0854675  -0.0164482   0.0000000), wk =   0.1111111
        k(   19) = (  -0.0854675   0.0164482   0.0000000), wk =   0.1111111
        k(   20) = (  -0.0854675  -0.1480341   0.0000000), wk =   0.0555556

     Largest allocated arrays     est. size (Mb)     dimensions
     Largest temporary arrays     est. size (Mb)     dimensions

     Check: negative/imaginary core charge=   -0.000009    0.000000

     Initial potential from superposition of free atoms
     Check: negative starting charge=   -0.382398

     starting charge  158.97532, renormalised to  162.00000

     negative rho (up, down):  3.897E-01 0.000E+00

     *
     * You are using vdW-DF for exchange-correlation in this calculation.
     * Please cite the following three references that made this development
     * possible:
     *
     *   M. Dion, H. Rydberg, E. Schroder, D. C. Langreth, and
     *   B. I. Lundqvist, Phys. Rev. Lett. 92, 246401 (2004).
     *
     *   T. Thonhauser, V. R. Cooper, S. Li, A. Puzder, P. Hyldgaard, and
     *   D. C. Langreth, Phys. Rev. B 76, 125112 (2007).
     *
     *   G. Roman-Perez and J. M. Soler, Phys. Rev. Lett. 103, 096102 (2009).
     *
     *
     * If you are using vdW-DF2, please also cite:
     *
     *   K. Lee, E. D. Murray, L. Kong, B. I. Lundqvist, and
     *   D. C. Langreth, Phys. Rev. B 82, 081101(R) (2010).
     *
     *
     * If you are calculating the stress with vdW-DF, please also cite:
     *
     *   R. Sabatini, E. Kucukbenli, B. Kolb, T. Thonhauser, and
     *   S. de Gironcoli, J. Phys.: Condens. Matter 24, 424209 (2012).
     *

     Carrying out vdW-DF run using the following parameters:

     Nqs =      20    Nr_points =    1024   r_max =   100.000
     q_mesh =
               0.00001000     0.04494208     0.09755937     0.15916263
               0.23128650     0.31572767     0.41458969     0.53033537
               0.66584808     0.82450364     1.01025438     1.22772762
               1.48234092     1.78043706     2.12944203     2.53805004
               3.01644009     3.57652955     4.23227104     5.00000000

     Gradients computed in reciprocal space

     Adding external electric field

     Computed dipole along edir(3) :
        Dipole                0.0000 Ry au,          0.0000 Debye
        Dipole field          0.0000 Ry au

        Potential amp.       -0.0000 Ry
        Total length         45.6506 bohr

     Starting wfc are  156 randomized atomic wfcs

     Self-consistent Calculation

     iteration #  1     ecut=    36.75 Ry     beta=0.10
     Davidson diagonalization with overlap
     ethr =  1.00E-02,  avg # of iterations =  2.0

[...]

     total energy              =   -1591.96417354 Ry
     Harris-Foulkes estimate   =   -1594.00315251 Ry
     estimated scf accuracy    <      11.86250548 Ry

[...]

     End of self-consistent calculation

          k = 0.0000 0.0000 0.0000 ( 18739 PWs)   bands (ev):

   -64.7147 -64.4895 -64.4893 -53.1406 -53.1150 -53.0058 -53.0058 -52.9986
   -52.9986 -52.9977 -52.8992 -52.8992 -36.7238 -36.7158 -36.7158 -36.5096
   -36.5040 -36.5016 -36.5016 -36.5001 -36.5001 -29.6928 -29.5648 -29.4906
   -29.3922 -29.3922 -29.3813 -29.3377 -29.3377 -29.2468 -29.2468 -29.2178
   -29.0977 -29.0977 -28.9973 -28.9973 -28.8797 -28.7951 -28.7740 -28.7565
   -28.7565 -28.6589 -28.6248 -28.6248 -28.6186 -28.6186 -28.5708 -28.5708
    -3.6286  -2.3312  -1.9689  -1.8645  -1.8433  -1.8433  -1.5452  -1.4887
    -1.4887  -1.2058  -1.2058  -1.1908  -1.0389  -1.0389  -1.0260   0.0197
     0.0197   0.1416   0.8804   0.8804   0.9715   1.0049   1.3221   1.7757
     1.7757   1.9095   1.9195   1.9195   1.9332   1.9583   1.9583   2.1140
     2.1140   2.3357   2.3357   2.4581   2.9884   2.9947   3.2213   3.2213
     3.2434   3.2434   3.8122   3.8122   4.0080   4.2870   4.4137   4.4137
     4.4687   4.6907   4.6907   4.9014   4.9014   5.4278   5.4278   5.6140
     5.6140   5.8910   5.9644   5.9956   5.9956   6.0597   6.0598

[...]

          k =-0.0855-0.0493 0.0000 ( 18624 PWs)   bands (ev):

[...]

     the Fermi energy is     1.9989 ev

!    total energy              =   -1592.41638292 Ry
     Harris-Foulkes estimate   =   -1592.41818057 Ry
     estimated scf accuracy    <       0.00000077 Ry

     The total energy is the sum of the following terms:

     one-electron contribution =  -12905.99311844 Ry
     hartree contribution      =    6446.90468232 Ry
     xc contribution           =    -270.35957892 Ry
     ewald contribution        =    5137.15173702 Ry
     electric field correction =       0.00000006 Ry
     smearing contrib. (-TS)   =      -0.12010496 Ry

     convergence has been achieved in  19 iterations

 BEEF-vdW xc energy contributions
           1 :   -233.610078561925
           2 :    213.303335795243
           3 :   -178.138928712289
           4 :    136.694076002859
           5 :   -97.5376382661051
           6 :    66.4649159961382
           7 :   -45.2742645593826
           8 :    32.2440833159951
           9 :   -23.8336807567372
          10 :    16.6294136284393
          11 :   -8.73478459444084
          12 :   0.148679362945359
          13 :    7.77078380803951
          14 :   -13.3546542322219
[...]
     /afs/slac.stanford.edu/u/if/mamunm/psp/gbrv1.5pbe/Nb.UPF
     MD5 check sum: 573aab8a2fa660278ed4a62cd769473f
     Pseudo is Ultrasoft + core correction, Zval = 13.0
     Generated by new atomic code, or converted to UPF format
     Using radial grid of  887 points,  6 beta functions with:
                l(1) =   0
                l(2) =   0
                l(3) =   1
                l(4) =   1
                l(5) =   2
                l(6) =   2
     Q(r) pseudized with  6 coefficients,  rinner =    1.000   1.000   1.000
                                                       1.000   1.000

     PseudoPot. # 2 for Tc read from file:
     /afs/slac.stanford.edu/u/if/mamunm/psp/gbrv1.5pbe/Tc.UPF
     MD5 check sum: 9eb49e5b028550b2339a02317eb7b844
     Pseudo is Ultrasoft + core correction, Zval = 15.0
     Generated by new atomic code, or converted to UPF format
     Using radial grid of  965 points,  6 beta functions with:
                l(1) =   0
                l(2) =   0
                l(3) =   1
                l(4) =   1
                l(5) =   2
                l(6) =   2
     Q(r) pseudized with  8 coefficients,  rinner =    1.300   1.300   1.300
                                                       1.300   1.300

     vdW kernel table read from file vdW_kernel_table
     MD5 check sum: 095c7af220d748ca6e76c0b4c6cfb241

     atomic species   valence    mass     pseudopotential
        Nb1           13.00    92.90637     Nb( 1.00)
        Tc1           15.00    97.90721     Tc( 1.00)

     No symmetry found

   Cartesian axes

     site n.     atom                  positions (alat units)
         1           Nb1 tau(   1) = (   0.0000000   0.0000000  10.0000000  )
         2           Nb1 tau(   2) = (  -1.4625442   2.5332008  10.0000000  )
         3           Nb1 tau(   3) = (   1.4625442   2.5332008  10.0000000  )
         4           Tc1 tau(   4) = (   2.9250884   0.0000000  10.0000000  )
         5           Nb1 tau(   5) = (   2.9250884   1.6888006  12.3883247  )
         6           Nb1 tau(   6) = (   1.4625442   4.2220014  12.3883247  )
         7           Nb1 tau(   7) = (  -1.4625442   4.2220014  12.3883247  )
         8           Tc1 tau(   8) = (   0.0000000   1.6888006  12.3883247  )
         9           Nb1 tau(   9) = (   0.0000002   3.3292224  14.8259979  )
        10           Nb1 tau(  10) = (   1.4206482   0.8685884  14.8259947  )
        11           Nb1 tau(  11) = (   4.4295263   0.8685881  14.8259988  )
        12           Tc1 tau(  12) = (   2.9250852   3.3776053  14.6518836  )

     number of k points=    20  Fermi-Dirac smearing, width (Ry)=  0.0110
                       cart. coord. in units 2pi/alat
        k(    1) = (   0.0000000   0.0000000   0.0000000), wk =   0.0555556
        k(    2) = (   0.0000000   0.0328965   0.0000000), wk =   0.1111111
        k(    3) = (   0.0000000   0.0657929   0.0000000), wk =   0.1111111
        k(    4) = (   0.0000000  -0.0986894   0.0000000), wk =   0.0555556
        k(    5) = (   0.0284892   0.0164482   0.0000000), wk =   0.1111111
        k(    6) = (   0.0284892   0.0493447   0.0000000), wk =   0.1111111
        k(    7) = (   0.0284892   0.0822411   0.0000000), wk =   0.1111111
        k(    8) = (   0.0284892  -0.0822411   0.0000000), wk =   0.1111111
        k(    9) = (   0.0284892  -0.0493447   0.0000000), wk =   0.1111111
        k(   10) = (   0.0284892  -0.0164482   0.0000000), wk =   0.1111111
        k(   11) = (   0.0569783   0.0328965   0.0000000), wk =   0.1111111
        k(   12) = (   0.0569783   0.0657929   0.0000000), wk =   0.1111111
        k(   13) = (   0.0569783   0.0986894   0.0000000), wk =   0.1111111
        k(   14) = (   0.0569783  -0.0657929   0.0000000), wk =   0.1111111
        k(   15) = (   0.0569783  -0.0328965   0.0000000), wk =   0.1111111
        k(   16) = (   0.0569783   0.0000000   0.0000000), wk =   0.1111111
        k(   17) = (  -0.0854675  -0.0493447   0.0000000), wk =   0.0555556
        k(   18) = (  -0.0854675  -0.0164482   0.0000000), wk =   0.1111111
        k(   19) = (  -0.0854675   0.0164482   0.0000000), wk =   0.1111111
        k(   20) = (  -0.0854675  -0.1480341   0.0000000), wk =   0.0555556

     Largest allocated arrays     est. size (Mb)     dimensions
     Largest temporary arrays     est. size (Mb)     dimensions

     Check: negative/imaginary core charge=   -0.000010    0.000000

     Initial potential from superposition of free atoms
     Check: negative starting charge=   -0.382498

     starting charge  158.97532, renormalised to  162.00000

[...]

     *
     * You are using vdW-DF for exchange-correlation in this calculation.
     * Please cite the following three references that made this development
     * possible:
     *
     *   M. Dion, H. Rydberg, E. Schroder, D. C. Langreth, and
     *   B. I. Lundqvist, Phys. Rev. Lett. 92, 246401 (2004).
     *
     *   T. Thonhauser, V. R. Cooper, S. Li, A. Puzder, P. Hyldgaard, and
     *   D. C. Langreth, Phys. Rev. B 76, 125112 (2007).
     *
     *   G. Roman-Perez and J. M. Soler, Phys. Rev. Lett. 103, 096102 (2009).
     *
     *
     * If you are using vdW-DF2, please also cite:
     *
     *   K. Lee, E. D. Murray, L. Kong, B. I. Lundqvist, and
     *   D. C. Langreth, Phys. Rev. B 82, 081101(R) (2010).
     *
     *
     * If you are calculating the stress with vdW-DF, please also cite:
     *
     *   R. Sabatini, E. Kucukbenli, B. Kolb, T. Thonhauser, and
     *   S. de Gironcoli, J. Phys.: Condens. Matter 24, 424209 (2012).
     *

     Carrying out vdW-DF run using the following parameters:

     Nqs =      20    Nr_points =    1024   r_max =   100.000
     q_mesh =
               0.00001000     0.04494208     0.09755937     0.15916263
               0.23128650     0.31572767     0.41458969     0.53033537
               0.66584808     0.82450364     1.01025438     1.22772762
               1.48234092     1.78043706     2.12944203     2.53805004
               3.01644009     3.57652955     4.23227104     5.00000000

     Gradients computed in reciprocal space

[...]

     Starting wfc are  156 randomized atomic wfcs

     Self-consistent Calculation

[...]

     total energy              =   -1592.42545349 Ry
     Harris-Foulkes estimate   =   -1592.42545193 Ry
     estimated scf accuracy    <       0.00000168 Ry

     iteration # 19     ecut=    36.75 Ry     beta=0.10
     Davidson diagonalization with overlap
     ethr =  1.04E-09,  avg # of iterations =  2.2

[...]

     negative rho (up, down):  3.993E-01 0.000E+00

     Adding external electric field

     Computed dipole along edir(3) :
        Dipole                0.0195 Ry au,          0.0496 Debye
        Dipole field          0.0000 Ry au

        Potential amp.       -0.0045 Ry
        Total length         45.6506 bohr

     End of self-consistent calculation

[...]

          k = 0.0570 0.0000 0.0000 ( 18657 PWs)   bands (ev):

[...]

          k =-0.0855-0.1480 0.0000 ( 18624 PWs)   bands (ev):

   -64.6975 -64.4706 -64.4645 -53.0782 -53.0584 -53.0332 -53.0122 -52.9884
   -52.9721 -52.9436 -52.9199 -52.8831 -36.7042 -36.6933 -36.6880 -36.4945
   -36.4879 -36.4864 -36.4807 -36.4702 -36.4647 -29.4503 -29.4375 -29.3676
   -29.3143 -29.2535 -29.2349 -29.1902 -29.1804 -29.1273 -29.1143 -29.1117
   -29.0756 -29.0479 -28.9987 -28.9940 -28.9710 -28.9585 -28.9350 -28.8870
   -28.8532 -28.8518 -28.7590 -28.7121 -28.7089 -28.6386 -28.6155 -28.5747
    -2.0654  -2.0121  -1.1597  -1.1190  -0.9586  -0.7975  -0.7514  -0.7196
    -0.6781  -0.5852  -0.2618  -0.2041  -0.1556  -0.0112   0.0539   0.1048
     0.3971   0.4545   0.5132   0.6089   0.7772   0.7807   0.9002   1.1514
     1.1618   1.2129   1.3100   1.4202   1.5323   1.5577   1.6563   1.6731
     1.8097   1.8472   1.9203   1.9594   2.0546   2.1055   2.4910   2.5860
     2.7070   2.9353   3.1052   3.2204   3.2694   3.3638   3.4479   3.6170
     3.6469   3.8867   3.9425   4.0751   4.1021   4.2377   4.3713   4.5501
     4.6549   4.8710   4.9320   5.0767   5.4845   5.6842   5.7924

     the Fermi energy is     2.0288 ev

!    total energy              =   -1592.42545572 Ry
     Harris-Foulkes estimate   =   -1592.42545358 Ry
     estimated scf accuracy    <       0.00000044 Ry

     The total energy is the sum of the following terms:

     one-electron contribution =  -12903.43517867 Ry
     hartree contribution      =    6445.72852482 Ry
     xc contribution           =    -270.35218408 Ry
     ewald contribution        =    5135.75163900 Ry
     electric field correction =       0.00000096 Ry
     smearing contrib. (-TS)   =      -0.11825775 Ry

     convergence has been achieved in  19 iterations

 BEEF-vdW xc energy contributions
           1 :   -233.730310538405
           2 :    213.422925586490
           3 :   -178.258791447828
           4 :    136.816012443649
           5 :   -97.6611359498722
           6 :    66.5844058186905
           7 :   -45.3810905403788
           8 :    32.3326565339241
           9 :   -23.9063584203851
          10 :    16.6959310858439
          11 :   -8.80695098255569
          12 :   0.233817200687781
          13 :    7.67342057258634
          14 :   -13.2531495091938
          15 :    15.5160507406512
          16 :   -14.6546134811097
          17 :    11.8995448164207
          18 :   -8.89348700233575
          19 :    6.93804446148965
          20 :   -6.50969372027919
          21 :    7.23836353430437
          22 :   -8.29677851235306
          23 :    8.93305419965526
          24 :   -8.86109252165568
          25 :    8.32663664941217
          26 :   -7.87082558632369
          27 :    7.95295190027818
          28 :   -8.65433481486457
          29 :    9.61091528883043
          30 :   -10.1978437970193
          31 :   -25.1476886269243
          32 :   -18.8093084178775

     Forces acting on atoms (Ry/au):

     negative rho (up, down):  3.993E-01 0.000E+00
     atom    1 type  1   force =    -0.00000010    0.01677063   -0.00845043
     atom    2 type  1   force =     0.01452372   -0.00838543   -0.00845046
     atom    3 type  1   force =    -0.01452369   -0.00838524   -0.00845040
     atom    4 type  2   force =     0.00000021    0.00000004    0.01145842
     atom    5 type  1   force =     0.00000043   -0.00879173    0.00452239
     atom    6 type  1   force =    -0.00761385    0.00439578    0.00452225
     atom    7 type  1   force =     0.00761418    0.00439573    0.00452222
     atom    8 type  2   force =    -0.00000024    0.00000015    0.00452006
     atom    9 type  1   force =    -0.00000007    0.00018527   -0.00087660
     atom   10 type  1   force =     0.00016054   -0.00009254   -0.00087615
     atom   11 type  1   force =    -0.00016073   -0.00009254   -0.00087654
     atom   12 type  2   force =    -0.00000040   -0.00000012   -0.00156476

     Total force =     0.038831     Total SCF correction =     0.003211

     entering subroutine stress ...

     negative rho (up, down):  3.993E-01 0.000E+00
          total   stress  (Ry/bohr**3)                   (kbar)     P=  -27.76
  -0.00028560   0.00000000  -0.00000000        -42.01      0.00     -0.00
   0.00000000  -0.00028559  -0.00000000          0.00    -42.01     -0.00
  -0.00000000  -0.00000000   0.00000516         -0.00     -0.00      0.76

 !ASE

     Writing output data file calc.save

     General routines

     Parallel routines

   This run was terminated on:   8:26:44  27Dec2018

   JOB DONE.
Job  /afs/slac/g/suncat/bin/suncat-tsmpirun -x LD_LIBRARY_PATH -wdir /scratch/qe110216_aIroT pw.x -in pw.inp

TID   HOST_NAME   COMMAND_LINE            STATUS            TERMINATION_TIME
00000 suncat0093 pw.x -in pw.inp   Done                     12/27/2018 08:26:44
00001 suncat0093 pw.x -in pw.inp   Done                     12/27/2018 08:26:44
00002 suncat0093 pw.x -in pw.inp   Done                     12/27/2018 08:26:44
00003 suncat0093 pw.x -in pw.inp   Done                     12/27/2018 08:26:44
00004 suncat0093 pw.x -in pw.inp   Done                     12/27/2018 08:26:44
00005 suncat0093 pw.x -in pw.inp   Done                     12/27/2018 08:26:44
00006 suncat0093 pw.x -in pw.inp   Done                     12/27/2018 08:26:44
00007 suncat0093 pw.x -in pw.inp   Done                     12/27/2018 08:26:44
00008 suncat0089 pw.x -in pw.inp   Done                     12/27/2018 08:26:44
00009 suncat0089 pw.x -in pw.inp   Done                     12/27/2018 08:26:44
00010 suncat0089 pw.x -in pw.inp   Done                     12/27/2018 08:26:44
00011 suncat0089 pw.x -in pw.inp   Done                     12/27/2018 08:26:44
00012 suncat0089 pw.x -in pw.inp   Done                     12/27/2018 08:26:44
00013 suncat0089 pw.x -in pw.inp   Done                     12/27/2018 08:26:44
00014 suncat0089 pw.x -in pw.inp   Done                     12/27/2018 08:26:44
00015 suncat0089 pw.x -in pw.inp   Done                     12/27/2018 08:26:44
00016 suncat0088 pw.x -in pw.inp   Done                     12/27/2018 08:26:44
00017 suncat0088 pw.x -in pw.inp   Done                     12/27/2018 08:26:44
00018 suncat0088 pw.x -in pw.inp   Done                     12/27/2018 08:26:44
00019 suncat0088 pw.x -in pw.inp   Done                     12/27/2018 08:26:44
00020 suncat0088 pw.x -in pw.inp   Done                     12/27/2018 08:26:44
00021 suncat0088 pw.x -in pw.inp   Done                     12/27/2018 08:26:44
00022 suncat0088 pw.x -in pw.inp   Done                     12/27/2018 08:26:44
00023 suncat0088 pw.x -in pw.inp   Done                     12/27/2018 08:26:44
00024 suncat0079 pw.x -in pw.inp   Done                     12/27/2018 08:26:44
00025 suncat0079 pw.x -in pw.inp   Done                     12/27/2018 08:26:44
00026 suncat0079 pw.x -in pw.inp   Done                     12/27/2018 08:26:44
00027 suncat0079 pw.x -in pw.inp   Done                     12/27/2018 08:26:44
00028 suncat0079 pw.x -in pw.inp   Done                     12/27/2018 08:26:44
00029 suncat0079 pw.x -in pw.inp   Done                     12/27/2018 08:26:44
00030 suncat0079 pw.x -in pw.inp   Done                     12/27/2018 08:26:44
00031 suncat0079 pw.x -in pw.inp   Done                     12/27/2018 08:26:44
00032 suncat0064 pw.x -in pw.inp   Done                     12/27/2018 08:26:44
00033 suncat0064 pw.x -in pw.inp   Done                     12/27/2018 08:26:44
00034 suncat0064 pw.x -in pw.inp   Done                     12/27/2018 08:26:44
00035 suncat0064 pw.x -in pw.inp   Done                     12/27/2018 08:26:44
00036 suncat0064 pw.x -in pw.inp   Done                     12/27/2018 08:26:44
00037 suncat0064 pw.x -in pw.inp   Done                     12/27/2018 08:26:44
00038 suncat0064 pw.x -in pw.inp   Done                     12/27/2018 08:26:44
00039 suncat0064 pw.x -in pw.inp   Done                     12/27/2018 08:26:44
00040 suncat0129 pw.x -in pw.inp   Done                     12/27/2018 08:26:44
00041 suncat0129 pw.x -in pw.inp   Done                     12/27/2018 08:26:44
00042 suncat0129 pw.x -in pw.inp   Done                     12/27/2018 08:26:44
00043 suncat0129 pw.x -in pw.inp   Done                     12/27/2018 08:26:44
00044 suncat0129 pw.x -in pw.inp   Done                     12/27/2018 08:26:44
00045 suncat0129 pw.x -in pw.inp   Done                     12/27/2018 08:26:44
00046 suncat0129 pw.x -in pw.inp   Done                     12/27/2018 08:26:44
00047 suncat0129 pw.x -in pw.inp   Done                     12/27/2018 08:26:44
00048 suncat0254 pw.x -in pw.inp   Done                     12/27/2018 08:26:44
00049 suncat0254 pw.x -in pw.inp   Done                     12/27/2018 08:26:44
00050 suncat0254 pw.x -in pw.inp   Done                     12/27/2018 08:26:44
00051 suncat0254 pw.x -in pw.inp   Done                     12/27/2018 08:26:44
00052 suncat0254 pw.x -in pw.inp   Done                     12/27/2018 08:26:44
00053 suncat0254 pw.x -in pw.inp   Done                     12/27/2018 08:26:44
00054 suncat0254 pw.x -in pw.inp   Done                     12/27/2018 08:26:44
00055 suncat0254 pw.x -in pw.inp   Done                     12/27/2018 08:26:44
00056 suncat0253 pw.x -in pw.inp   Done                     12/27/2018 08:26:44
00057 suncat0253 pw.x -in pw.inp   Done                     12/27/2018 08:26:44
00058 suncat0253 pw.x -in pw.inp   Done                     12/27/2018 08:26:44
00059 suncat0253 pw.x -in pw.inp   Done                     12/27/2018 08:26:44
00060 suncat0253 pw.x -in pw.inp   Done                     12/27/2018 08:26:44
00061 suncat0253 pw.x -in pw.inp   Done                     12/27/2018 08:26:44
00062 suncat0253 pw.x -in pw.inp   Done                     12/27/2018 08:26:44
00063 suncat0253 pw.x -in pw.inp   Done                     12/27/2018 08:26:44