     Program PWSCF v.5.1rc2 (svn rev. 11289) starts on 27Dec2018 at  8:51:24

     Current dimensions of program PWSCF are:
     Max number of different atomic species (ntypx) = 10
     Max number of k-points (npk) =  40000
     Max angular momentum in pseudopotentials (lmaxx) =  3
     Presently stress not available with electric field

     IMPORTANT: XC functional enforced from input :
     Exchange-correlation      = BEEF-VDW ( 1  4 27 13 2)
     Any further DFT definition will be discarded
     Please, verify this is what you really want

     Subspace diagonalization in iterative solution of the eigenvalue problem:
     a serial algorithm will be used

     Generating pointlists ...
     new r_m :   0.4125 (alat units)  0.7795 (a.u.) for type    1
     new r_m :   0.4125 (alat units)  0.7795 (a.u.) for type    2

     bravais-lattice index     =            0
     lattice parameter (alat)  =       1.8897  a.u.
     unit-cell volume          =    3739.2623 (a.u.)^3
     number of atoms/cell      =           12
     number of atomic types    =            2
     number of electrons       =       207.00
     number of Kohn-Sham states=          133
     kinetic-energy cutoff     =      36.7493  Ry
     charge density cutoff     =     367.4932  Ry
     convergence threshold     =      1.0E-06
     mixing beta               =       0.1000
     number of iterations used =           10  plain     mixing
     Exchange-correlation      = BEEF-VDW ( 1  4 27 13 2)
     nstep                     =           50

     celldm(1)=   1.889726  celldm(2)=   0.000000  celldm(3)=   0.000000
     celldm(4)=   0.000000  celldm(5)=   0.000000  celldm(6)=   0.000000

     crystal axes: (cart. coord. in units of alat)
               a(1) = (   5.142041   0.000000   0.000000 )
               a(2) = (  -2.571020   4.453138   0.000000 )
               a(3) = (   0.000000   0.000000  24.198459 )

     reciprocal axes: (cart. coord. in units 2 pi/alat)
               b(1) = (  0.194475  0.112280  0.000000 )
               b(2) = (  0.000000  0.224561  0.000000 )
               b(3) = (  0.000000  0.000000  0.041325 )

     PseudoPot. # 1 for Ni read from file:
     /afs/slac.stanford.edu/u/if/mamunm/psp/gbrv1.5pbe/Ni.UPF
     MD5 check sum: 1ee80287db30b12d2bc1f57a5b5d6409
     Pseudo is Ultrasoft + core correction, Zval = 18.0
     Generated by new atomic code, or converted to UPF format
     Using radial grid of  865 points,  6 beta functions with:
                l(1) =   0
                l(2) =   0
                l(3) =   1
                l(4) =   1
                l(5) =   2
                l(6) =   2
     Q(r) pseudized with 10 coefficients,  rinner =    0.980   0.980   0.980
                                                       0.980   0.980

     PseudoPot. # 2 for Rh read from file:
     /afs/slac.stanford.edu/u/if/mamunm/psp/gbrv1.5pbe/Rh.UPF
     MD5 check sum: 761627e959a2e3a1f56b0b5fe687810e
     Pseudo is Ultrasoft + core correction, Zval = 15.0
     Generated by new atomic code, or converted to UPF format
     Using radial grid of  969 points,  7 beta functions with:
                l(1) =   0
                l(2) =   0
                l(3) =   1
                l(4) =   1
                l(5) =   2
                l(6) =   2
                l(7) =   2
     Q(r) pseudized with  8 coefficients,  rinner =    1.200   1.200   1.200
                                                       1.200   1.200

     vdW kernel table read from file vdW_kernel_table
     MD5 check sum: 095c7af220d748ca6e76c0b4c6cfb241

     atomic species   valence    mass     pseudopotential
        Ni1           18.00    58.69340     Ni( 1.00)
        Rh1           15.00   102.90550     Rh( 1.00)

     Starting magnetic structure
     atomic species   magnetization
        Ni1          0.111
        Rh1          0.133

     No symmetry found

   Cartesian axes

     site n.     atom                  positions (alat units)
         1           Ni1 tau(   1) = (   0.0000000   0.0000000  10.0000000  )
         2           Ni1 tau(   2) = (  -1.2855101   2.2265689  10.0000000  )
         3           Ni1 tau(   3) = (   1.2855101   2.2265689  10.0000000  )
         4           Rh1 tau(   4) = (   2.5710203   0.0000000  10.0000000  )
         5           Ni1 tau(   5) = (   2.5710203   1.4843792  12.0992293  )
         6           Ni1 tau(   6) = (   1.2855101   3.7109481  12.0992293  )
         7           Ni1 tau(   7) = (  -1.2855101   3.7109481  12.0992293  )
         8           Rh1 tau(   8) = (   0.0000000   1.4843792  12.0992293  )
         9           Ni1 tau(   9) = (  -0.0000000   2.9687585  14.1984585  )
        10           Ni1 tau(  10) = (   1.2855101   0.7421896  14.1984585  )
        11           Ni1 tau(  11) = (   3.8565304   0.7421896  14.1984585  )
        12           Rh1 tau(  12) = (   2.5710203   2.9687585  14.1984585  )

     number of k points=    40  Fermi-Dirac smearing, width (Ry)=  0.0110
                       cart. coord. in units 2pi/alat
        k(    1) = (   0.0000000   0.0000000   0.0000000), wk =   0.0277778
        k(    2) = (   0.0000000   0.0374268   0.0000000), wk =   0.0555556
        k(    3) = (   0.0000000   0.0748536   0.0000000), wk =   0.0555556
        k(    4) = (   0.0000000  -0.1122804   0.0000000), wk =   0.0277778
        k(    5) = (   0.0324126   0.0187134   0.0000000), wk =   0.0555556
        k(    6) = (   0.0324126   0.0561402   0.0000000), wk =   0.0555556
        k(    7) = (   0.0324126   0.0935670   0.0000000), wk =   0.0555556
        k(    8) = (   0.0324126  -0.0935670   0.0000000), wk =   0.0555556
        k(    9) = (   0.0324126  -0.0561402   0.0000000), wk =   0.0555556
        k(   10) = (   0.0324126  -0.0187134   0.0000000), wk =   0.0555556
        k(   11) = (   0.0648251   0.0374268   0.0000000), wk =   0.0555556
        k(   12) = (   0.0648251   0.0748536   0.0000000), wk =   0.0555556
        k(   13) = (   0.0648251   0.1122804   0.0000000), wk =   0.0555556
        k(   14) = (   0.0648251  -0.0748536   0.0000000), wk =   0.0555556
        k(   15) = (   0.0648251  -0.0374268   0.0000000), wk =   0.0555556
        k(   16) = (   0.0648251   0.0000000   0.0000000), wk =   0.0555556
        k(   17) = (  -0.0972377  -0.0561402   0.0000000), wk =   0.0277778
        k(   18) = (  -0.0972377  -0.0187134   0.0000000), wk =   0.0555556
        k(   19) = (  -0.0972377   0.0187134   0.0000000), wk =   0.0555556
        k(   20) = (  -0.0972377  -0.1684206   0.0000000), wk =   0.0277778
        k(   21) = (   0.0000000   0.0000000   0.0000000), wk =   0.0277778
        k(   22) = (   0.0000000   0.0374268   0.0000000), wk =   0.0555556
        k(   23) = (   0.0000000   0.0748536   0.0000000), wk =   0.0555556
        k(   24) = (   0.0000000  -0.1122804   0.0000000), wk =   0.0277778
        k(   25) = (   0.0324126   0.0187134   0.0000000), wk =   0.0555556
        k(   26) = (   0.0324126   0.0561402   0.0000000), wk =   0.0555556
        k(   27) = (   0.0324126   0.0935670   0.0000000), wk =   0.0555556
        k(   28) = (   0.0324126  -0.0935670   0.0000000), wk =   0.0555556
        k(   29) = (   0.0324126  -0.0561402   0.0000000), wk =   0.0555556
        k(   30) = (   0.0324126  -0.0187134   0.0000000), wk =   0.0555556
        k(   31) = (   0.0648251   0.0374268   0.0000000), wk =   0.0555556
        k(   32) = (   0.0648251   0.0748536   0.0000000), wk =   0.0555556
        k(   33) = (   0.0648251   0.1122804   0.0000000), wk =   0.0555556
        k(   34) = (   0.0648251  -0.0748536   0.0000000), wk =   0.0555556
        k(   35) = (   0.0648251  -0.0374268   0.0000000), wk =   0.0555556
        k(   36) = (   0.0648251   0.0000000   0.0000000), wk =   0.0555556
        k(   37) = (  -0.0972377  -0.0561402   0.0000000), wk =   0.0277778
        k(   38) = (  -0.0972377  -0.0187134   0.0000000), wk =   0.0555556
        k(   39) = (  -0.0972377   0.0187134   0.0000000), wk =   0.0555556
        k(   40) = (  -0.0972377  -0.1684206   0.0000000), wk =   0.0277778

     Largest allocated arrays     est. size (Mb)     dimensions
     Largest temporary arrays     est. size (Mb)     dimensions

     Check: negative/imaginary core charge=   -0.000002    0.000000

     Initial potential from superposition of free atoms
     Check: negative starting charge=(component1):   -0.090246
     Check: negative starting charge=(component2):   -0.069024

     starting charge  187.49970, renormalised to  207.00000

     negative rho (up, down):  9.963E-02 7.620E-02

     *
     * You are using vdW-DF for exchange-correlation in this calculation.
     * Please cite the following three references that made this development
     * possible:
     *
     *   M. Dion, H. Rydberg, E. Schroder, D. C. Langreth, and
     *   B. I. Lundqvist, Phys. Rev. Lett. 92, 246401 (2004).
     *
     *   T. Thonhauser, V. R. Cooper, S. Li, A. Puzder, P. Hyldgaard, and
     *   D. C. Langreth, Phys. Rev. B 76, 125112 (2007).
     *
     *   G. Roman-Perez and J. M. Soler, Phys. Rev. Lett. 103, 096102 (2009).
     *
     *
     * If you are using vdW-DF2, please also cite:
     *
     *   K. Lee, E. D. Murray, L. Kong, B. I. Lundqvist, and
     *   D. C. Langreth, Phys. Rev. B 82, 081101(R) (2010).
     *
     *
     * If you are calculating the stress with vdW-DF, please also cite:
     *
     *   R. Sabatini, E. Kucukbenli, B. Kolb, T. Thonhauser, and
     *   S. de Gironcoli, J. Phys.: Condens. Matter 24, 424209 (2012).
     *

     Carrying out vdW-DF run using the following parameters:

     Nqs =      20    Nr_points =    1024   r_max =   100.000
     q_mesh =
               0.00001000     0.04494208     0.09755937     0.15916263
               0.23128650     0.31572767     0.41458969     0.53033537
               0.66584808     0.82450364     1.01025438     1.22772762
               1.48234092     1.78043706     2.12944203     2.53805004
               3.01644009     3.57652955     4.23227104     5.00000000

     Gradients computed in reciprocal space

     Adding external electric field

     Computed dipole along edir(3) :
        Dipole                0.0000 Ry au,          0.0000 Debye
        Dipole field          0.0000 Ry au

        Potential amp.       -0.0000 Ry
        Total length         44.5852 bohr

[...]

     Starting wfc are  153 randomized atomic wfcs

     Self-consistent Calculation

     iteration #  1     ecut=    36.75 Ry     beta=0.10
     Davidson diagonalization with overlap
     ethr =  1.00E-02,  avg # of iterations =  7.5

[...]

     Magnetic moment per site:
     atom:    1    charge:    9.8064    magn:    1.0387    constr:    0.0000
     atom:    2    charge:    9.8064    magn:    1.0387    constr:    0.0000
     atom:    3    charge:    9.8064    magn:    1.0387    constr:    0.0000
     atom:    4    charge:    2.9177    magn:    0.3627    constr:    0.0000
     atom:    5    charge:    9.8073    magn:    1.0389    constr:    0.0000
     atom:    6    charge:    9.8073    magn:    1.0389    constr:    0.0000
     atom:    7    charge:    9.8073    magn:    1.0389    constr:    0.0000
[...]
        k(    6) = (   0.0324126   0.0561402   0.0000000), wk =   0.0555556
        k(    7) = (   0.0324126   0.0935670   0.0000000), wk =   0.0555556
        k(    8) = (   0.0324126  -0.0935670   0.0000000), wk =   0.0555556
        k(    9) = (   0.0324126  -0.0561402   0.0000000), wk =   0.0555556
        k(   10) = (   0.0324126  -0.0187134   0.0000000), wk =   0.0555556
        k(   11) = (   0.0648251   0.0374268   0.0000000), wk =   0.0555556
        k(   12) = (   0.0648251   0.0748536   0.0000000), wk =   0.0555556
        k(   13) = (   0.0648251   0.1122804   0.0000000), wk =   0.0555556
        k(   14) = (   0.0648251  -0.0748536   0.0000000), wk =   0.0555556
        k(   15) = (   0.0648251  -0.0374268   0.0000000), wk =   0.0555556
        k(   16) = (   0.0648251   0.0000000   0.0000000), wk =   0.0555556
        k(   17) = (  -0.0972377  -0.0561402   0.0000000), wk =   0.0277778
        k(   18) = (  -0.0972377  -0.0187134   0.0000000), wk =   0.0555556
        k(   19) = (  -0.0972377   0.0187134   0.0000000), wk =   0.0555556
        k(   20) = (  -0.0972377  -0.1684206   0.0000000), wk =   0.0277778
        k(   21) = (   0.0000000   0.0000000   0.0000000), wk =   0.0277778
        k(   22) = (   0.0000000   0.0374268   0.0000000), wk =   0.0555556
        k(   23) = (   0.0000000   0.0748536   0.0000000), wk =   0.0555556
        k(   24) = (   0.0000000  -0.1122804   0.0000000), wk =   0.0277778
        k(   25) = (   0.0324126   0.0187134   0.0000000), wk =   0.0555556
        k(   26) = (   0.0324126   0.0561402   0.0000000), wk =   0.0555556
        k(   27) = (   0.0324126   0.0935670   0.0000000), wk =   0.0555556
        k(   28) = (   0.0324126  -0.0935670   0.0000000), wk =   0.0555556
        k(   29) = (   0.0324126  -0.0561402   0.0000000), wk =   0.0555556
        k(   30) = (   0.0324126  -0.0187134   0.0000000), wk =   0.0555556
        k(   31) = (   0.0648251   0.0374268   0.0000000), wk =   0.0555556
        k(   32) = (   0.0648251   0.0748536   0.0000000), wk =   0.0555556
        k(   33) = (   0.0648251   0.1122804   0.0000000), wk =   0.0555556
        k(   34) = (   0.0648251  -0.0748536   0.0000000), wk =   0.0555556
        k(   35) = (   0.0648251  -0.0374268   0.0000000), wk =   0.0555556
        k(   36) = (   0.0648251   0.0000000   0.0000000), wk =   0.0555556
        k(   37) = (  -0.0972377  -0.0561402   0.0000000), wk =   0.0277778
        k(   38) = (  -0.0972377  -0.0187134   0.0000000), wk =   0.0555556
        k(   39) = (  -0.0972377   0.0187134   0.0000000), wk =   0.0555556
        k(   40) = (  -0.0972377  -0.1684206   0.0000000), wk =   0.0277778

     Largest allocated arrays     est. size (Mb)     dimensions
     Largest temporary arrays     est. size (Mb)     dimensions

     Check: negative/imaginary core charge=   -0.000002    0.000000

     Initial potential from superposition of free atoms
     Check: negative starting charge=(component1):   -0.090298
     Check: negative starting charge=(component2):   -0.069064

     starting charge  187.49970, renormalised to  207.00000

[...]

     *
     * You are using vdW-DF for exchange-correlation in this calculation.
     * Please cite the following three references that made this development
     * possible:
     *
     *   M. Dion, H. Rydberg, E. Schroder, D. C. Langreth, and
     *   B. I. Lundqvist, Phys. Rev. Lett. 92, 246401 (2004).
     *
     *   T. Thonhauser, V. R. Cooper, S. Li, A. Puzder, P. Hyldgaard, and
     *   D. C. Langreth, Phys. Rev. B 76, 125112 (2007).
     *
     *   G. Roman-Perez and J. M. Soler, Phys. Rev. Lett. 103, 096102 (2009).
     *
     *
     * If you are using vdW-DF2, please also cite:
     *
     *   K. Lee, E. D. Murray, L. Kong, B. I. Lundqvist, and
     *   D. C. Langreth, Phys. Rev. B 82, 081101(R) (2010).
     *
     *
     * If you are calculating the stress with vdW-DF, please also cite:
     *
     *   R. Sabatini, E. Kucukbenli, B. Kolb, T. Thonhauser, and
     *   S. de Gironcoli, J. Phys.: Condens. Matter 24, 424209 (2012).
     *

     Carrying out vdW-DF run using the following parameters:

     Nqs =      20    Nr_points =    1024   r_max =   100.000
     q_mesh =
               0.00001000     0.04494208     0.09755937     0.15916263
               0.23128650     0.31572767     0.41458969     0.53033537
               0.66584808     0.82450364     1.01025438     1.22772762
               1.48234092     1.78043706     2.12944203     2.53805004
               3.01644009     3.57652955     4.23227104     5.00000000

     Gradients computed in reciprocal space

[...]

     Starting wfc are  153 randomized atomic wfcs

     Self-consistent Calculation

[...]

     total energy              =   -3616.34723187 Ry
     Harris-Foulkes estimate   =   -3616.34723179 Ry
     estimated scf accuracy    <       0.00000119 Ry

[...]

     iteration # 42     ecut=    36.75 Ry     beta=0.10
     Davidson diagonalization with overlap
     ethr =  5.76E-10,  avg # of iterations =  1.0

[...]

     negative rho (up, down):  7.745E-02 8.962E-02

[...]

     Adding external electric field

     Computed dipole along edir(3) :
        Dipole               -0.0017 Ry au,         -0.0042 Debye
        Dipole field         -0.0000 Ry au

        Potential amp.        0.0005 Ry
        Total length         44.5852 bohr

     Magnetic moment per site:
     atom:    1    charge:    9.3579    magn:    0.4689    constr:    0.0000
     atom:    2    charge:    9.3578    magn:    0.4690    constr:    0.0000
     atom:    3    charge:    9.3579    magn:    0.4690    constr:    0.0000
     atom:    4    charge:    2.7083    magn:    0.1206    constr:    0.0000
     atom:    5    charge:    9.3549    magn:    0.5080    constr:    0.0000
     atom:    6    charge:    9.3550    magn:    0.5080    constr:    0.0000
     atom:    7    charge:    9.3549    magn:    0.5080    constr:    0.0000
     atom:    8    charge:    2.7114    magn:    0.1423    constr:    0.0000
     atom:    9    charge:    9.3522    magn:    0.4716    constr:    0.0000
     atom:   10    charge:    9.3524    magn:    0.4715    constr:    0.0000
     atom:   11    charge:    9.3526    magn:    0.4715    constr:    0.0000
     atom:   12    charge:    2.7075    magn:    0.1208    constr:    0.0000

     End of self-consistent calculation

 ------ SPIN UP ------------

[...]

 ------ SPIN DOWN ----------

[...]

          k = 0.0648 0.0000 0.0000 ( 14075 PWs)   bands (ev):

[...]

          k =-0.0972-0.1684 0.0000 ( 14074 PWs)   bands (ev):

  -102.0421-102.0385-102.0347-101.8375-101.8334-101.8299-101.8140-101.8102
  -101.8068 -62.4808 -62.4514 -62.4486 -62.4471 -62.4434 -62.4330 -62.4324
   -62.4218 -62.3911 -62.3149 -62.2962 -62.2956 -62.2856 -62.2795 -62.2766
   -62.2676 -62.2568 -62.2537 -62.2334 -62.2210 -62.1996 -62.1470 -62.1437
   -62.1392 -62.1183 -62.1142 -62.1106 -45.3600 -45.3335 -45.3317 -45.0314
   -45.0297 -45.0180 -45.0163 -44.8877 -44.8708  -5.0317  -5.0016  -3.7132
    -3.3537  -3.2486  -3.0941  -2.9085  -2.6513  -2.5691  -2.4610  -2.2262
    -2.1585  -2.1162  -2.0237  -1.8587  -1.7897  -1.6901  -1.6190  -1.5598
    -1.4307  -1.3719  -1.2356  -1.1639  -0.9989  -0.9461  -0.9429  -0.9141
    -0.7705  -0.7643  -0.7364  -0.6766  -0.6578  -0.6083  -0.5614  -0.5413
    -0.5163  -0.4939  -0.4406  -0.3947  -0.3666  -0.0822  -0.0388   0.0239
     0.0872   0.1232   0.1356   0.1810   0.2496   0.3021   0.3732   0.4386
     0.4841   0.5026   0.5622   0.6977   0.7179   0.7439   0.8909   0.9369
     0.9693   1.1319   1.1893   1.1974   1.5572   2.5136   2.6156   2.9079
     3.4954   3.6878   4.1840   4.9447   5.0357   6.0404   6.1368   6.9136
     6.9173   7.4375   7.4674   7.6587   7.6601   8.6468   8.6884   8.7216
     8.8967   9.2454   9.2597   9.7070   9.8709

     the Fermi energy is     0.8085 ev

!    total energy              =   -3616.34723156 Ry
     Harris-Foulkes estimate   =   -3616.34723192 Ry
     estimated scf accuracy    <       0.00000082 Ry

     The total energy is the sum of the following terms:

     one-electron contribution =  -30301.00633066 Ry
     hartree contribution      =   15168.63267735 Ry
     xc contribution           =    -423.98787886 Ry
     ewald contribution        =   11940.12588810 Ry
     electric field correction =       0.00000001 Ry
     smearing contrib. (-TS)   =      -0.11158750 Ry

     total magnetization       =     9.25 Bohr mag/cell
     absolute magnetization    =    10.34 Bohr mag/cell

     convergence has been achieved in  42 iterations

 BEEF-vdW xc energy contributions
           1 :   -372.639136346319
           2 :    338.682979185402
           3 :   -281.323891846498
           4 :    216.812320137207
           5 :   -160.232912480043
           6 :    120.084671423627
           7 :   -96.6487826652229
           8 :    84.2764115748734
           9 :   -75.7785616577705
          10 :    66.3119726452815
          11 :   -54.9245596015573
          12 :    43.5364636223197
          13 :   -34.6115277169082
          14 :    29.2127844387187
          15 :   -26.5211627526790
          16 :    24.7313890292525
          17 :   -22.4077344304509
          18 :    19.2877904054084
          19 :   -16.1151347110803
          20 :    13.8041121220296
          21 :   -12.6529960106215
          22 :    12.1597062968054
          23 :   -11.4907841269612
          24 :    10.1600584350895
          25 :   -8.37976163613791
          26 :    6.83945603331028
          27 :   -6.12974576673946
          28 :    6.26800280007387
          29 :   -6.68486800737764
          30 :    6.65767755794673
          31 :   -32.1351202276644
          32 :   -22.8535925661065

     Forces acting on atoms (Ry/au):

     negative rho (up, down):  7.745E-02 8.962E-02
     atom    1 type  1   force =     0.00001499   -0.00459656    0.00679516
     atom    2 type  1   force =    -0.00400189    0.00231435    0.00680845
     atom    3 type  1   force =     0.00400355    0.00229846    0.00679602
     atom    4 type  2   force =     0.00000086    0.00000740   -0.00294174
     atom    5 type  1   force =    -0.00000237    0.00192799   -0.00305894
     atom    6 type  1   force =     0.00158712   -0.00099657   -0.00299164
     atom    7 type  1   force =    -0.00158170   -0.00099188   -0.00296077
     atom    8 type  2   force =     0.00000745    0.00000888   -0.00627216
     atom    9 type  1   force =    -0.00004722   -0.00054797   -0.00059452
     atom   10 type  1   force =    -0.00048750    0.00025097   -0.00063079
     atom   11 type  1   force =     0.00048510    0.00030364   -0.00055934
     atom   12 type  2   force =     0.00002161    0.00002129   -0.00038971

     Total force =     0.017043     Total SCF correction =     0.003089
     SCF correction compared to forces is large: reduce conv_thr to get better values

     entering subroutine stress ...

     negative rho (up, down):  7.745E-02 8.962E-02
          total   stress  (Ry/bohr**3)                   (kbar)     P=  -63.25
  -0.00045481   0.00000002  -0.00000000        -66.90      0.00     -0.00
   0.00000002  -0.00045486   0.00000001          0.00    -66.91      0.00
  -0.00000000   0.00000001  -0.00038013         -0.00      0.00    -55.92

 !ASE

     Writing output data file calc.save

     General routines

     Parallel routines

   This run was terminated on:  13:53:24  27Dec2018

   JOB DONE.
Job  /afs/slac/g/suncat/bin/suncat-tsmpirun -x LD_LIBRARY_PATH -wdir /scratch/qe110279_fS5S1 pw.x -in pw.inp

TID   HOST_NAME   COMMAND_LINE            STATUS            TERMINATION_TIME
00000 suncat0108 pw.x -in pw.inp   Done                     12/27/2018 13:53:24
00001 suncat0108 pw.x -in pw.inp   Done                     12/27/2018 13:53:24
00002 suncat0108 pw.x -in pw.inp   Done                     12/27/2018 13:53:24
00003 suncat0108 pw.x -in pw.inp   Done                     12/27/2018 13:53:24
00004 suncat0108 pw.x -in pw.inp   Done                     12/27/2018 13:53:24
00005 suncat0108 pw.x -in pw.inp   Done                     12/27/2018 13:53:24
00006 suncat0108 pw.x -in pw.inp   Done                     12/27/2018 13:53:24
00007 suncat0108 pw.x -in pw.inp   Done                     12/27/2018 13:53:24
00008 suncat0107 pw.x -in pw.inp   Done                     12/27/2018 13:53:24
00009 suncat0107 pw.x -in pw.inp   Done                     12/27/2018 13:53:24
00010 suncat0107 pw.x -in pw.inp   Done                     12/27/2018 13:53:24
00011 suncat0107 pw.x -in pw.inp   Done                     12/27/2018 13:53:24
00012 suncat0107 pw.x -in pw.inp   Done                     12/27/2018 13:53:24
00013 suncat0107 pw.x -in pw.inp   Done                     12/27/2018 13:53:24
00014 suncat0107 pw.x -in pw.inp   Done                     12/27/2018 13:53:24
00015 suncat0107 pw.x -in pw.inp   Done                     12/27/2018 13:53:24
00016 suncat0106 pw.x -in pw.inp   Done                     12/27/2018 13:53:24
00017 suncat0106 pw.x -in pw.inp   Done                     12/27/2018 13:53:24
00018 suncat0106 pw.x -in pw.inp   Done                     12/27/2018 13:53:24
00019 suncat0106 pw.x -in pw.inp   Done                     12/27/2018 13:53:24
00020 suncat0106 pw.x -in pw.inp   Done                     12/27/2018 13:53:24
00021 suncat0106 pw.x -in pw.inp   Done                     12/27/2018 13:53:24
00022 suncat0106 pw.x -in pw.inp   Done                     12/27/2018 13:53:24
00023 suncat0106 pw.x -in pw.inp   Done                     12/27/2018 13:53:24
00024 suncat0105 pw.x -in pw.inp   Done                     12/27/2018 13:53:24
00025 suncat0105 pw.x -in pw.inp   Done                     12/27/2018 13:53:24
00026 suncat0105 pw.x -in pw.inp   Done                     12/27/2018 13:53:24
00027 suncat0105 pw.x -in pw.inp   Done                     12/27/2018 13:53:24
00028 suncat0105 pw.x -in pw.inp   Done                     12/27/2018 13:53:24
00029 suncat0105 pw.x -in pw.inp   Done                     12/27/2018 13:53:24
00030 suncat0105 pw.x -in pw.inp   Done                     12/27/2018 13:53:24
00031 suncat0105 pw.x -in pw.inp   Done                     12/27/2018 13:53:24
00032 suncat0238 pw.x -in pw.inp   Done                     12/27/2018 13:53:24
00033 suncat0238 pw.x -in pw.inp   Done                     12/27/2018 13:53:24
00034 suncat0238 pw.x -in pw.inp   Done                     12/27/2018 13:53:24
00035 suncat0238 pw.x -in pw.inp   Done                     12/27/2018 13:53:24
00036 suncat0238 pw.x -in pw.inp   Done                     12/27/2018 13:53:24
00037 suncat0238 pw.x -in pw.inp   Done                     12/27/2018 13:53:24
00038 suncat0238 pw.x -in pw.inp   Done                     12/27/2018 13:53:24
00039 suncat0238 pw.x -in pw.inp   Done                     12/27/2018 13:53:24
00040 suncat0237 pw.x -in pw.inp   Done                     12/27/2018 13:53:24
00041 suncat0237 pw.x -in pw.inp   Done                     12/27/2018 13:53:24
00042 suncat0237 pw.x -in pw.inp   Done                     12/27/2018 13:53:24
00043 suncat0237 pw.x -in pw.inp   Done                     12/27/2018 13:53:24
00044 suncat0237 pw.x -in pw.inp   Done                     12/27/2018 13:53:24
00045 suncat0237 pw.x -in pw.inp   Done                     12/27/2018 13:53:24
00046 suncat0237 pw.x -in pw.inp   Done                     12/27/2018 13:53:24
00047 suncat0237 pw.x -in pw.inp   Done                     12/27/2018 13:53:24
00048 suncat0236 pw.x -in pw.inp   Done                     12/27/2018 13:53:24
00049 suncat0236 pw.x -in pw.inp   Done                     12/27/2018 13:53:24
00050 suncat0236 pw.x -in pw.inp   Done                     12/27/2018 13:53:24
00051 suncat0236 pw.x -in pw.inp   Done                     12/27/2018 13:53:24
00052 suncat0236 pw.x -in pw.inp   Done                     12/27/2018 13:53:24
00053 suncat0236 pw.x -in pw.inp   Done                     12/27/2018 13:53:24
00054 suncat0236 pw.x -in pw.inp   Done                     12/27/2018 13:53:24
00055 suncat0236 pw.x -in pw.inp   Done                     12/27/2018 13:53:24
00056 suncat0235 pw.x -in pw.inp   Done                     12/27/2018 13:53:24
00057 suncat0235 pw.x -in pw.inp   Done                     12/27/2018 13:53:24
00058 suncat0235 pw.x -in pw.inp   Done                     12/27/2018 13:53:24
00059 suncat0235 pw.x -in pw.inp   Done                     12/27/2018 13:53:24
00060 suncat0235 pw.x -in pw.inp   Done                     12/27/2018 13:53:24
00061 suncat0235 pw.x -in pw.inp   Done                     12/27/2018 13:53:24
00062 suncat0235 pw.x -in pw.inp   Done                     12/27/2018 13:53:24
00063 suncat0235 pw.x -in pw.inp   Done                     12/27/2018 13:53:24