     Program PWSCF v.5.1rc2 (svn rev. 11289) starts on  2Jan2019 at 21:20:46

     Current dimensions of program PWSCF are:
     Max number of different atomic species (ntypx) = 10
     Max number of k-points (npk) =  40000
     Max angular momentum in pseudopotentials (lmaxx) =  3
     Presently stress not available with electric field

     IMPORTANT: XC functional enforced from input :
     Exchange-correlation      = BEEF-VDW ( 1  4 27 13 2)
     Any further DFT definition will be discarded
     Please, verify this is what you really want

     Subspace diagonalization in iterative solution of the eigenvalue problem:
     a serial algorithm will be used

     bravais-lattice index     =            0
     lattice parameter (alat)  =       1.8897  a.u.
     unit-cell volume          =    5808.0752 (a.u.)^3
     number of atoms/cell      =           12
     number of atomic types    =            2
     number of electrons       =       147.00
     number of Kohn-Sham states=          103
     kinetic-energy cutoff     =      36.7493  Ry
     charge density cutoff     =     367.4932  Ry
     convergence threshold     =      1.0E-06
     mixing beta               =       0.1000
     number of iterations used =           10  plain     mixing
     Exchange-correlation      = BEEF-VDW ( 1  4 27 13 2)
     nstep                     =           50

     celldm(1)=   1.889726  celldm(2)=   0.000000  celldm(3)=   0.000000
     celldm(4)=   0.000000  celldm(5)=   0.000000  celldm(6)=   0.000000

     crystal axes: (cart. coord. in units of alat)
               a(1) = (   6.288106   0.000000   0.000000 )
               a(2) = (  -3.144053   5.445659   0.000000 )
               a(3) = (   0.000000   0.000000  25.134217 )

     reciprocal axes: (cart. coord. in units 2 pi/alat)
               b(1) = (  0.159030  0.091816  0.000000 )
               b(2) = (  0.000000  0.183632  0.000000 )
               b(3) = (  0.000000  0.000000  0.039786 )

     PseudoPot. # 1 for Zr read from file:
     /afs/slac.stanford.edu/u/if/mamunm/psp/gbrv1.5pbe/Zr.UPF
     MD5 check sum: 5db81b1e868ab7776c4564c113de050b
     Pseudo is Ultrasoft + core correction, Zval = 12.0
     Generated by new atomic code, or converted to UPF format
     Using radial grid of  887 points,  6 beta functions with:
                l(1) =   0
                l(2) =   0
                l(3) =   1
                l(4) =   1
                l(5) =   2
                l(6) =   2
     Q(r) pseudized with  6 coefficients,  rinner =    1.200   1.200   1.200
                                                       1.200   1.200

     PseudoPot. # 2 for Ta read from file:
     /afs/slac.stanford.edu/u/if/mamunm/psp/gbrv1.5pbe/Ta.UPF
     MD5 check sum: f8bbe9446314a3b8ea5d9f3e3836c939
     Pseudo is Ultrasoft + core correction, Zval = 13.0
     Generated by new atomic code, or converted to UPF format
     Using radial grid of  921 points,  7 beta functions with:
                l(1) =   0
                l(2) =   0
                l(3) =   1
                l(4) =   1
                l(5) =   2
                l(6) =   2
                l(7) =   3
     Q(r) pseudized with  6 coefficients,  rinner =    1.300   1.300   1.300
                                                       1.300   1.300   1.300
                                                       1.300

     vdW kernel table read from file vdW_kernel_table
     MD5 check sum: 095c7af220d748ca6e76c0b4c6cfb241

     atomic species   valence    mass     pseudopotential
        Zr1           12.00    91.22400     Zr( 1.00)
        Ta1           13.00   180.94788     Ta( 1.00)

     No symmetry found

   Cartesian axes

     site n.     atom                  positions (alat units)
         1           Zr1 tau(   1) = (   0.0000000   0.0000000  10.0000000  )
         2           Zr1 tau(   2) = (  -1.5720264   2.7228296  10.0000000  )
         3           Zr1 tau(   3) = (   1.5720264   2.7228296  10.0000000  )
         4           Ta1 tau(   4) = (   3.1440528   0.0000000  10.0000000  )
         5           Zr1 tau(   5) = (   3.1440528   1.8152197  12.5671083  )
         6           Zr1 tau(   6) = (   1.5720264   4.5380493  12.5671083  )
         7           Zr1 tau(   7) = (  -1.5720264   4.5380493  12.5671083  )
         8           Ta1 tau(   8) = (   0.0000000   1.8152197  12.5671083  )
         9           Zr1 tau(   9) = (  -0.0000000   3.6304394  15.1342167  )
        10           Zr1 tau(  10) = (   1.5720264   0.9076099  15.1342167  )
        11           Zr1 tau(  11) = (   4.7160792   0.9076099  15.1342167  )
        12           Ta1 tau(  12) = (   3.1440528   3.6304394  15.1342167  )

     number of k points=    20  Fermi-Dirac smearing, width (Ry)=  0.0110
                       cart. coord. in units 2pi/alat
        k(    1) = (   0.0000000   0.0000000   0.0000000), wk =   0.0555556
        k(    2) = (   0.0000000   0.0306054   0.0000000), wk =   0.1111111
        k(    3) = (   0.0000000   0.0612108   0.0000000), wk =   0.1111111
        k(    4) = (   0.0000000  -0.0918162   0.0000000), wk =   0.0555556
        k(    5) = (   0.0265051   0.0153027   0.0000000), wk =   0.1111111
        k(    6) = (   0.0265051   0.0459081   0.0000000), wk =   0.1111111
        k(    7) = (   0.0265051   0.0765135   0.0000000), wk =   0.1111111
        k(    8) = (   0.0265051  -0.0765135   0.0000000), wk =   0.1111111
        k(    9) = (   0.0265051  -0.0459081   0.0000000), wk =   0.1111111
        k(   10) = (   0.0265051  -0.0153027   0.0000000), wk =   0.1111111
        k(   11) = (   0.0530101   0.0306054   0.0000000), wk =   0.1111111
        k(   12) = (   0.0530101   0.0612108   0.0000000), wk =   0.1111111
        k(   13) = (   0.0530101   0.0918162   0.0000000), wk =   0.1111111
        k(   14) = (   0.0530101  -0.0612108   0.0000000), wk =   0.1111111
        k(   15) = (   0.0530101  -0.0306054   0.0000000), wk =   0.1111111
        k(   16) = (   0.0530101   0.0000000   0.0000000), wk =   0.1111111
        k(   17) = (  -0.0795152  -0.0459081   0.0000000), wk =   0.0555556
        k(   18) = (  -0.0795152  -0.0153027   0.0000000), wk =   0.1111111
        k(   19) = (  -0.0795152   0.0153027   0.0000000), wk =   0.1111111
        k(   20) = (  -0.0795152  -0.1377244   0.0000000), wk =   0.0555556

     Largest allocated arrays     est. size (Mb)     dimensions
     Largest temporary arrays     est. size (Mb)     dimensions

     Initial potential from superposition of free atoms
     Check: negative starting charge=   -0.829751

     starting charge  146.97732, renormalised to  147.00000

     negative rho (up, down):  8.299E-01 0.000E+00

     *
     * You are using vdW-DF for exchange-correlation in this calculation.
     * Please cite the following three references that made this development
     * possible:
     *
     *   M. Dion, H. Rydberg, E. Schroder, D. C. Langreth, and
     *   B. I. Lundqvist, Phys. Rev. Lett. 92, 246401 (2004).
     *
     *   T. Thonhauser, V. R. Cooper, S. Li, A. Puzder, P. Hyldgaard, and
     *   D. C. Langreth, Phys. Rev. B 76, 125112 (2007).
     *
     *   G. Roman-Perez and J. M. Soler, Phys. Rev. Lett. 103, 096102 (2009).
     *
     *
     * If you are using vdW-DF2, please also cite:
     *
     *   K. Lee, E. D. Murray, L. Kong, B. I. Lundqvist, and
     *   D. C. Langreth, Phys. Rev. B 82, 081101(R) (2010).
     *
     *
     * If you are calculating the stress with vdW-DF, please also cite:
     *
     *   R. Sabatini, E. Kucukbenli, B. Kolb, T. Thonhauser, and
     *   S. de Gironcoli, J. Phys.: Condens. Matter 24, 424209 (2012).
     *

     Carrying out vdW-DF run using the following parameters:

     Nqs =      20    Nr_points =    1024   r_max =   100.000
     q_mesh =
               0.00001000     0.04494208     0.09755937     0.15916263
               0.23128650     0.31572767     0.41458969     0.53033537
               0.66584808     0.82450364     1.01025438     1.22772762
               1.48234092     1.78043706     2.12944203     2.53805004
               3.01644009     3.57652955     4.23227104     5.00000000

     Gradients computed in reciprocal space

     Adding external electric field

     Computed dipole along edir(3) :
        Dipole               -0.0000 Ry au,         -0.0000 Debye
        Dipole field         -0.0000 Ry au

        Potential amp.        0.0000 Ry
        Total length         46.3094 bohr

     Starting wfc are  156 randomized atomic wfcs

     Self-consistent Calculation

     iteration #  1     ecut=    36.75 Ry     beta=0.10
     Davidson diagonalization with overlap
     ethr =  1.00E-02,  avg # of iterations =  2.0

[...]

     total energy              =   -1326.34710319 Ry
     Harris-Foulkes estimate   =   -1327.73988816 Ry
     estimated scf accuracy    <       7.80648399 Ry

[...]

     iteration # 10     ecut=    36.75 Ry     beta=0.10
     Davidson diagonalization with overlap
     c_bands:  1 eigenvalues not converged
     c_bands:  1 eigenvalues not converged
     ethr =  1.57E-06,  avg # of iterations =  7.8

[...]

     End of self-consistent calculation

          k = 0.0000 0.0000 0.0000 ( 21859 PWs)   bands (ev):

   -66.8939 -66.8938 -66.8122 -47.6218 -47.6169 -47.5338 -47.5338 -47.5326
   -47.5326 -47.3087 -47.2276 -47.2274 -33.2505 -33.2467 -33.1760 -33.1760
   -33.1749 -33.1749 -33.1163 -33.1141 -33.1140 -26.0328 -25.9908 -25.8111
   -25.7496 -25.7495 -25.6868 -25.6868 -25.6632 -25.6631 -25.6416 -25.6375
   -25.5440 -25.5440 -25.3326 -25.3326 -25.3326 -25.3087 -25.2222 -25.2222
   -25.2103 -25.2103 -25.1633 -25.1287 -25.1286 -25.0086 -24.9341 -24.9340
    -4.0460  -2.8594  -2.1759  -1.4306  -1.3694  -1.2771  -1.2771  -1.0796
    -1.0796  -0.8903  -0.6529  -0.6529  -0.5367  -0.5358  -0.5358   0.4041
     0.4041   0.4147   1.2863   1.5202   1.5549   1.5549   1.5918   1.9709
     1.9958   2.1863   2.1863   2.2663   2.3570   2.3570   2.5834   2.5834
     2.6152   2.6152   2.6414   2.6414   2.8002   2.8002   2.8117   2.8723
     3.3913   3.3913   3.5179   3.8807   3.8807   4.1787   4.3734   4.6650
     4.6651   4.8573   4.8573   4.9403   4.9403   5.2866   5.3324

[...]

          k =-0.0795-0.0459 0.0000 ( 21824 PWs)   bands (ev):

[...]

     the Fermi energy is     1.5579 ev

!    total energy              =   -1327.13977285 Ry
     Harris-Foulkes estimate   =   -1327.13976857 Ry
     estimated scf accuracy    <       0.00000078 Ry

     The total energy is the sum of the following terms:

     one-electron contribution =   -8947.40747703 Ry
     hartree contribution      =    4462.08515993 Ry
     xc contribution           =    -295.99444020 Ry
     ewald contribution        =    3454.29807200 Ry
     electric field correction =       0.00000000 Ry
     smearing contrib. (-TS)   =      -0.12108755 Ry

     convergence has been achieved in  16 iterations

 BEEF-vdW xc energy contributions
           1 :   -256.716677834367
           2 :    234.518438658332
           3 :   -196.489107205523
           4 :    152.502051430730
           5 :   -111.924083223509
           6 :    80.4470469371465
           7 :   -59.0301498166899
           8 :    45.0430189429220
[...]

     PseudoPot. # 1 for Zr read from file:
     /afs/slac.stanford.edu/u/if/mamunm/psp/gbrv1.5pbe/Zr.UPF
     MD5 check sum: 5db81b1e868ab7776c4564c113de050b
     Pseudo is Ultrasoft + core correction, Zval = 12.0
     Generated by new atomic code, or converted to UPF format
     Using radial grid of  887 points,  6 beta functions with:
                l(1) =   0
                l(2) =   0
                l(3) =   1
                l(4) =   1
                l(5) =   2
                l(6) =   2
     Q(r) pseudized with  6 coefficients,  rinner =    1.200   1.200   1.200
                                                       1.200   1.200

     PseudoPot. # 2 for Ta read from file:
     /afs/slac.stanford.edu/u/if/mamunm/psp/gbrv1.5pbe/Ta.UPF
     MD5 check sum: f8bbe9446314a3b8ea5d9f3e3836c939
     Pseudo is Ultrasoft + core correction, Zval = 13.0
     Generated by new atomic code, or converted to UPF format
     Using radial grid of  921 points,  7 beta functions with:
                l(1) =   0
                l(2) =   0
                l(3) =   1
                l(4) =   1
                l(5) =   2
                l(6) =   2
                l(7) =   3
     Q(r) pseudized with  6 coefficients,  rinner =    1.300   1.300   1.300
                                                       1.300   1.300   1.300
                                                       1.300

     vdW kernel table read from file vdW_kernel_table
     MD5 check sum: 095c7af220d748ca6e76c0b4c6cfb241

     atomic species   valence    mass     pseudopotential
        Zr1           12.00    91.22400     Zr( 1.00)
        Ta1           13.00   180.94788     Ta( 1.00)

     No symmetry found

   Cartesian axes

     site n.     atom                  positions (alat units)
         1           Zr1 tau(   1) = (   0.0000000   0.0000000  10.0000000  )
         2           Zr1 tau(   2) = (  -1.5720264   2.7228296  10.0000000  )
         3           Zr1 tau(   3) = (   1.5720264   2.7228296  10.0000000  )
         4           Ta1 tau(   4) = (   3.1440528   0.0000000  10.0000000  )
         5           Zr1 tau(   5) = (   3.1440528   1.8152197  12.5671083  )
         6           Zr1 tau(   6) = (   1.5720264   4.5380493  12.5671083  )
         7           Zr1 tau(   7) = (  -1.5720264   4.5380493  12.5671083  )
         8           Ta1 tau(   8) = (   0.0000000   1.8152197  12.5671083  )
         9           Zr1 tau(   9) = (   0.0000151   3.5735138  15.0835856  )
        10           Zr1 tau(  10) = (   1.5227292   0.9360723  15.0836130  )
        11           Zr1 tau(  11) = (   4.7653820   0.9360582  15.0836093  )
        12           Ta1 tau(  12) = (   3.1440355   3.6304387  14.8977276  )

     number of k points=    20  Fermi-Dirac smearing, width (Ry)=  0.0110
                       cart. coord. in units 2pi/alat
        k(    1) = (   0.0000000   0.0000000   0.0000000), wk =   0.0555556
        k(    2) = (   0.0000000   0.0306054   0.0000000), wk =   0.1111111
        k(    3) = (   0.0000000   0.0612108   0.0000000), wk =   0.1111111
        k(    4) = (   0.0000000  -0.0918162   0.0000000), wk =   0.0555556
        k(    5) = (   0.0265051   0.0153027   0.0000000), wk =   0.1111111
        k(    6) = (   0.0265051   0.0459081   0.0000000), wk =   0.1111111
        k(    7) = (   0.0265051   0.0765135   0.0000000), wk =   0.1111111
        k(    8) = (   0.0265051  -0.0765135   0.0000000), wk =   0.1111111
        k(    9) = (   0.0265051  -0.0459081   0.0000000), wk =   0.1111111
        k(   10) = (   0.0265051  -0.0153027   0.0000000), wk =   0.1111111
        k(   11) = (   0.0530101   0.0306054   0.0000000), wk =   0.1111111
        k(   12) = (   0.0530101   0.0612108   0.0000000), wk =   0.1111111
        k(   13) = (   0.0530101   0.0918162   0.0000000), wk =   0.1111111
        k(   14) = (   0.0530101  -0.0612108   0.0000000), wk =   0.1111111
        k(   15) = (   0.0530101  -0.0306054   0.0000000), wk =   0.1111111
        k(   16) = (   0.0530101   0.0000000   0.0000000), wk =   0.1111111
        k(   17) = (  -0.0795152  -0.0459081   0.0000000), wk =   0.0555556
        k(   18) = (  -0.0795152  -0.0153027   0.0000000), wk =   0.1111111
        k(   19) = (  -0.0795152   0.0153027   0.0000000), wk =   0.1111111
        k(   20) = (  -0.0795152  -0.1377244   0.0000000), wk =   0.0555556

     Largest allocated arrays     est. size (Mb)     dimensions
     Largest temporary arrays     est. size (Mb)     dimensions

     Initial potential from superposition of free atoms
     Check: negative starting charge=   -0.830416

     starting charge  146.97732, renormalised to  147.00000

[...]

     *
     * You are using vdW-DF for exchange-correlation in this calculation.
     * Please cite the following three references that made this development
     * possible:
     *
     *   M. Dion, H. Rydberg, E. Schroder, D. C. Langreth, and
     *   B. I. Lundqvist, Phys. Rev. Lett. 92, 246401 (2004).
     *
     *   T. Thonhauser, V. R. Cooper, S. Li, A. Puzder, P. Hyldgaard, and
     *   D. C. Langreth, Phys. Rev. B 76, 125112 (2007).
     *
     *   G. Roman-Perez and J. M. Soler, Phys. Rev. Lett. 103, 096102 (2009).
     *
     *
     * If you are using vdW-DF2, please also cite:
     *
     *   K. Lee, E. D. Murray, L. Kong, B. I. Lundqvist, and
     *   D. C. Langreth, Phys. Rev. B 82, 081101(R) (2010).
     *
     *
     * If you are calculating the stress with vdW-DF, please also cite:
     *
     *   R. Sabatini, E. Kucukbenli, B. Kolb, T. Thonhauser, and
     *   S. de Gironcoli, J. Phys.: Condens. Matter 24, 424209 (2012).
     *

     Carrying out vdW-DF run using the following parameters:

     Nqs =      20    Nr_points =    1024   r_max =   100.000
     q_mesh =
               0.00001000     0.04494208     0.09755937     0.15916263
               0.23128650     0.31572767     0.41458969     0.53033537
               0.66584808     0.82450364     1.01025438     1.22772762
               1.48234092     1.78043706     2.12944203     2.53805004
               3.01644009     3.57652955     4.23227104     5.00000000

     Gradients computed in reciprocal space

[...]

     Starting wfc are  156 randomized atomic wfcs

     Self-consistent Calculation

[...]

     total energy              =   -1327.15301564 Ry
     Harris-Foulkes estimate   =   -1327.15301397 Ry
     estimated scf accuracy    <       0.00000161 Ry

     iteration # 17     ecut=    36.75 Ry     beta=0.10
     Davidson diagonalization with overlap
     ethr =  1.09E-09,  avg # of iterations =  2.6

[...]

     negative rho (up, down):  8.580E-01 0.000E+00

     Adding external electric field

     Computed dipole along edir(3) :
        Dipole                0.0491 Ry au,          0.1247 Debye
        Dipole field          0.0001 Ry au

        Potential amp.       -0.0098 Ry
        Total length         46.3094 bohr

     End of self-consistent calculation

[...]

          k = 0.0530 0.0000 0.0000 ( 21865 PWs)   bands (ev):

[...]

          k =-0.0795-0.1377 0.0000 ( 21824 PWs)   bands (ev):

   -66.8529 -66.7609 -66.7178 -47.5806 -47.5547 -47.5393 -47.5258 -47.5136
   -47.4971 -47.1997 -47.1726 -47.1448 -33.2070 -33.1348 -33.1309 -33.0817
   -33.0742 -33.0695 -33.0654 -33.0384 -33.0346 -25.8582 -25.8096 -25.7383
   -25.6754 -25.6528 -25.6138 -25.6030 -25.5646 -25.5531 -25.5469 -25.5318
   -25.5155 -25.4916 -25.4712 -25.4591 -25.4403 -25.4056 -25.2361 -25.2143
   -25.1841 -25.1455 -25.1069 -25.0805 -25.0774 -25.0626 -25.0402 -24.8806
    -2.6627  -2.4627  -1.5959  -1.2920  -0.8689  -0.5424  -0.4935  -0.4877
    -0.4513  -0.4232   0.1592   0.2590   0.2799   0.3550   0.4272   0.4527
     0.6779   0.7939   0.8723   0.8812   0.9441   0.9820   1.1911   1.2294
     1.2673   1.3612   1.4413   1.5411   1.5597   1.6034   1.7635   1.8568
     1.9375   2.1761   2.2616   2.3761   2.4518   2.5085   2.9752   3.0107
     3.1685   3.3964   3.5582   3.6858   3.7581   3.7705   3.8380   3.9991
     4.0884   4.1349   4.2345   4.2874   4.4211   4.4548   4.5269

     the Fermi energy is     1.5838 ev

!    total energy              =   -1327.15301960 Ry
     Harris-Foulkes estimate   =   -1327.15301541 Ry
     estimated scf accuracy    <       0.00000051 Ry

     The total energy is the sum of the following terms:

     one-electron contribution =   -9076.30834288 Ry
     hartree contribution      =    4526.81702360 Ry
     xc contribution           =    -296.16643839 Ry
     ewald contribution        =    3518.62161933 Ry
     electric field correction =       0.00000521 Ry
     smearing contrib. (-TS)   =      -0.11688647 Ry

     convergence has been achieved in  17 iterations

 BEEF-vdW xc energy contributions
           1 :   -256.902132637614
           2 :    234.756409569629
           3 :   -196.785919595237
           4 :    152.804158779474
           5 :   -112.146545339745
           6 :    80.5268803559405
           7 :   -58.9704208606050
           8 :    44.9170322579288
           9 :   -34.5392181511883
          10 :    24.9362974539165
          11 :   -15.2138343727876
          12 :    6.21555405057791
          13 :   0.612455611342625
          14 :   -4.41622879645956
          15 :    5.51741809718720
          16 :   -5.17307634474980
          17 :    4.79383926048621
          18 :   -5.16988357529351
          19 :    6.17120127190697
          20 :   -7.04047675639038
          21 :    7.02179795130286
          22 :   -5.89701174782357
          23 :    4.11262298134392
          24 :   -2.47178004008435
          25 :    1.63492365762630
          26 :   -1.75536513103287
          27 :    2.45171399090702
          28 :   -3.09464744750380
          29 :    3.20420725156538
          30 :   -2.71123687786707
          31 :   -26.6451641737185
          32 :   -19.8483385717908

     Forces acting on atoms (Ry/au):

     negative rho (up, down):  8.580E-01 0.000E+00
     atom    1 type  1   force =     0.00000061    0.01196362    0.00539346
     atom    2 type  1   force =     0.01036110   -0.00598263    0.00539445
     atom    3 type  1   force =    -0.01036086   -0.00598283    0.00539437
     atom    4 type  2   force =    -0.00000059    0.00000093    0.03207370
     atom    5 type  1   force =     0.00000016   -0.01132490   -0.01245713
     atom    6 type  1   force =    -0.00980504    0.00566422   -0.01246225
     atom    7 type  1   force =     0.00980412    0.00566387   -0.01245746
     atom    8 type  2   force =    -0.00000019   -0.00000242   -0.00615213
     atom    9 type  1   force =    -0.00000172    0.00024850   -0.00136321
     atom   10 type  1   force =     0.00021652   -0.00012507   -0.00136783
     atom   11 type  1   force =    -0.00021595   -0.00012278   -0.00136726
     atom   12 type  2   force =     0.00000184   -0.00000052   -0.00062872

     Total force =     0.049394     Total SCF correction =     0.001861

     entering subroutine stress ...

     negative rho (up, down):  8.580E-01 0.000E+00
          total   stress  (Ry/bohr**3)                   (kbar)     P=  -11.26
  -0.00008695  -0.00000000   0.00000000        -12.79     -0.00      0.00
  -0.00000000  -0.00008694   0.00000000         -0.00    -12.79      0.00
   0.00000000   0.00000000  -0.00005565          0.00      0.00     -8.19

 !ASE

     Writing output data file calc.save

     General routines

     Parallel routines

   This run was terminated on:  22:17:26   2Jan2019

   JOB DONE.
Job  /afs/slac/g/suncat/bin/suncat-tsmpirun -x LD_LIBRARY_PATH -wdir /scratch/qe649569_P4BV2 pw.x -in pw.inp

TID   HOST_NAME   COMMAND_LINE            STATUS            TERMINATION_TIME
00000 suncat0059 pw.x -in pw.inp   Done                     01/02/2019 22:17:26
00001 suncat0059 pw.x -in pw.inp   Done                     01/02/2019 22:17:26
00002 suncat0059 pw.x -in pw.inp   Done                     01/02/2019 22:17:26
00003 suncat0059 pw.x -in pw.inp   Done                     01/02/2019 22:17:26
00004 suncat0059 pw.x -in pw.inp   Done                     01/02/2019 22:17:26
00005 suncat0059 pw.x -in pw.inp   Done                     01/02/2019 22:17:26
00006 suncat0059 pw.x -in pw.inp   Done                     01/02/2019 22:17:26
00007 suncat0059 pw.x -in pw.inp   Done                     01/02/2019 22:17:26
00008 suncat0054 pw.x -in pw.inp   Done                     01/02/2019 22:17:26
00009 suncat0054 pw.x -in pw.inp   Done                     01/02/2019 22:17:26
00010 suncat0054 pw.x -in pw.inp   Done                     01/02/2019 22:17:26
00011 suncat0054 pw.x -in pw.inp   Done                     01/02/2019 22:17:26
00012 suncat0054 pw.x -in pw.inp   Done                     01/02/2019 22:17:26
00013 suncat0054 pw.x -in pw.inp   Done                     01/02/2019 22:17:26
00014 suncat0054 pw.x -in pw.inp   Done                     01/02/2019 22:17:26
00015 suncat0054 pw.x -in pw.inp   Done                     01/02/2019 22:17:26
00016 suncat0052 pw.x -in pw.inp   Done                     01/02/2019 22:17:26
00017 suncat0052 pw.x -in pw.inp   Done                     01/02/2019 22:17:26
00018 suncat0052 pw.x -in pw.inp   Done                     01/02/2019 22:17:26
00019 suncat0052 pw.x -in pw.inp   Done                     01/02/2019 22:17:26
00020 suncat0052 pw.x -in pw.inp   Done                     01/02/2019 22:17:26
00021 suncat0052 pw.x -in pw.inp   Done                     01/02/2019 22:17:26
00022 suncat0052 pw.x -in pw.inp   Done                     01/02/2019 22:17:26
00023 suncat0052 pw.x -in pw.inp   Done                     01/02/2019 22:17:26
00024 suncat0048 pw.x -in pw.inp   Done                     01/02/2019 22:17:26
00025 suncat0048 pw.x -in pw.inp   Done                     01/02/2019 22:17:26
00026 suncat0048 pw.x -in pw.inp   Done                     01/02/2019 22:17:26
00027 suncat0048 pw.x -in pw.inp   Done                     01/02/2019 22:17:26
00028 suncat0048 pw.x -in pw.inp   Done                     01/02/2019 22:17:26
00029 suncat0048 pw.x -in pw.inp   Done                     01/02/2019 22:17:26
00030 suncat0048 pw.x -in pw.inp   Done                     01/02/2019 22:17:26
00031 suncat0048 pw.x -in pw.inp   Done                     01/02/2019 22:17:26
00032 suncat0169 pw.x -in pw.inp   Done                     01/02/2019 22:17:26
00033 suncat0169 pw.x -in pw.inp   Done                     01/02/2019 22:17:26
00034 suncat0169 pw.x -in pw.inp   Done                     01/02/2019 22:17:26
00035 suncat0169 pw.x -in pw.inp   Done                     01/02/2019 22:17:26
00036 suncat0169 pw.x -in pw.inp   Done                     01/02/2019 22:17:26
00037 suncat0169 pw.x -in pw.inp   Done                     01/02/2019 22:17:26
00038 suncat0169 pw.x -in pw.inp   Done                     01/02/2019 22:17:26
00039 suncat0169 pw.x -in pw.inp   Done                     01/02/2019 22:17:26
00040 suncat0168 pw.x -in pw.inp   Done                     01/02/2019 22:17:26
00041 suncat0168 pw.x -in pw.inp   Done                     01/02/2019 22:17:26
00042 suncat0168 pw.x -in pw.inp   Done                     01/02/2019 22:17:26
00043 suncat0168 pw.x -in pw.inp   Done                     01/02/2019 22:17:26
00044 suncat0168 pw.x -in pw.inp   Done                     01/02/2019 22:17:26
00045 suncat0168 pw.x -in pw.inp   Done                     01/02/2019 22:17:26
00046 suncat0168 pw.x -in pw.inp   Done                     01/02/2019 22:17:26
00047 suncat0168 pw.x -in pw.inp   Done                     01/02/2019 22:17:26
00048 suncat0156 pw.x -in pw.inp   Done                     01/02/2019 22:17:26
00049 suncat0156 pw.x -in pw.inp   Done                     01/02/2019 22:17:26
00050 suncat0156 pw.x -in pw.inp   Done                     01/02/2019 22:17:26
00051 suncat0156 pw.x -in pw.inp   Done                     01/02/2019 22:17:26
00052 suncat0156 pw.x -in pw.inp   Done                     01/02/2019 22:17:26
00053 suncat0156 pw.x -in pw.inp   Done                     01/02/2019 22:17:26
00054 suncat0156 pw.x -in pw.inp   Done                     01/02/2019 22:17:26
00055 suncat0156 pw.x -in pw.inp   Done                     01/02/2019 22:17:26
00056 suncat0153 pw.x -in pw.inp   Done                     01/02/2019 22:17:26
00057 suncat0153 pw.x -in pw.inp   Done                     01/02/2019 22:17:26
00058 suncat0153 pw.x -in pw.inp   Done                     01/02/2019 22:17:26
00059 suncat0153 pw.x -in pw.inp   Done                     01/02/2019 22:17:26
00060 suncat0153 pw.x -in pw.inp   Done                     01/02/2019 22:17:26
00061 suncat0153 pw.x -in pw.inp   Done                     01/02/2019 22:17:26
00062 suncat0153 pw.x -in pw.inp   Done                     01/02/2019 22:17:26
00063 suncat0153 pw.x -in pw.inp   Done                     01/02/2019 22:17:26