     Program PWSCF v.5.1rc2 (svn rev. 11289) starts on 20Dec2018 at  8:44:40

     Current dimensions of program PWSCF are:
     Max number of different atomic species (ntypx) = 10
     Max number of k-points (npk) =  40000
     Max angular momentum in pseudopotentials (lmaxx) =  3
     Presently stress not available with electric field

     IMPORTANT: XC functional enforced from input :
     Exchange-correlation      = BEEF-VDW ( 1  4 27 13 2)
     Any further DFT definition will be discarded
     Please, verify this is what you really want

     Subspace diagonalization in iterative solution of the eigenvalue problem:
     a serial algorithm will be used

     Generating pointlists ...
     new r_m :   0.4125 (alat units)  0.7795 (a.u.) for type    1
     new r_m :   0.4125 (alat units)  0.7795 (a.u.) for type    2

     bravais-lattice index     =            0
     lattice parameter (alat)  =       1.8897  a.u.
     unit-cell volume          =    3690.6207 (a.u.)^3
     number of atoms/cell      =           12
     number of atomic types    =            2
     number of electrons       =       201.00
     number of Kohn-Sham states=          130
     kinetic-energy cutoff     =      36.7493  Ry
     charge density cutoff     =     367.4932  Ry
     convergence threshold     =      1.0E-06
     mixing beta               =       0.1000
     number of iterations used =           10  plain     mixing
     Exchange-correlation      = BEEF-VDW ( 1  4 27 13 2)
     nstep                     =           50

     celldm(1)=   1.889726  celldm(2)=   0.000000  celldm(3)=   0.000000
     celldm(4)=   0.000000  celldm(5)=   0.000000  celldm(6)=   0.000000

     crystal axes: (cart. coord. in units of alat)
               a(1) = (   5.111151   0.000000   0.000000 )
               a(2) = (  -2.555575   4.426386   0.000000 )
               a(3) = (   0.000000   0.000000  24.173237 )

     reciprocal axes: (cart. coord. in units 2 pi/alat)
               b(1) = (  0.195651  0.112959  0.000000 )
               b(2) = (  0.000000  0.225918  0.000000 )
               b(3) = (  0.000000  0.000000  0.041368 )

     PseudoPot. # 1 for Co read from file:
     /afs/slac.stanford.edu/u/if/mamunm/psp/gbrv1.5pbe/Co.UPF
     MD5 check sum: 5f91765df6ddd3222702df6e7b74a16d
     Pseudo is Ultrasoft + core correction, Zval = 17.0
     Generated by new atomic code, or converted to UPF format
     Using radial grid of  863 points,  6 beta functions with:
                l(1) =   0
                l(2) =   0
                l(3) =   1
                l(4) =   1
                l(5) =   2
                l(6) =   2
     Q(r) pseudized with  8 coefficients,  rinner =    1.200   1.200   1.200
                                                       1.200   1.200

     PseudoPot. # 2 for Pd read from file:
     /afs/slac.stanford.edu/u/if/mamunm/psp/gbrv1.5pbe/Pd.UPF
     MD5 check sum: 2d733d2bc2cbfd217af676df1668a4bc
     Pseudo is Ultrasoft + core correction, Zval = 16.0
     Generated by new atomic code, or converted to UPF format
     Using radial grid of  887 points,  6 beta functions with:
                l(1) =   0
                l(2) =   0
                l(3) =   1
                l(4) =   1
                l(5) =   2
                l(6) =   2
     Q(r) pseudized with  8 coefficients,  rinner =    1.130   1.130   1.130
                                                       1.130   1.130

     vdW kernel table read from file vdW_kernel_table
     MD5 check sum: 095c7af220d748ca6e76c0b4c6cfb241

     atomic species   valence    mass     pseudopotential
        Co1           17.00    58.93319     Co( 1.00)
        Pd1           16.00   106.42000     Pd( 1.00)

     Starting magnetic structure
     atomic species   magnetization
        Co1          0.118
        Pd1          0.125

     No symmetry found

   Cartesian axes

     site n.     atom                  positions (alat units)
         1           Co1 tau(   1) = (   0.0000000   0.0000000  10.0000000  )
         2           Co1 tau(   2) = (  -1.2777877   2.2131932  10.0000000  )
         3           Co1 tau(   3) = (   1.2777877   2.2131932  10.0000000  )
         4           Pd1 tau(   4) = (   2.5555753   0.0000000  10.0000000  )
         5           Co1 tau(   5) = (   2.5555753   1.4754621  12.0866185  )
         6           Co1 tau(   6) = (   1.2777877   3.6886553  12.0866185  )
         7           Co1 tau(   7) = (  -1.2777877   3.6886553  12.0866185  )
         8           Pd1 tau(   8) = (   0.0000000   1.4754621  12.0866185  )
         9           Co1 tau(   9) = (  -0.0000000   2.9509242  14.1732371  )
        10           Co1 tau(  10) = (   1.2777877   0.7377311  14.1732371  )
        11           Co1 tau(  11) = (   3.8333630   0.7377311  14.1732371  )
        12           Pd1 tau(  12) = (   2.5555753   2.9509242  14.1732371  )

     number of k points=    40  Fermi-Dirac smearing, width (Ry)=  0.0110
                       cart. coord. in units 2pi/alat
        k(    1) = (   0.0000000   0.0000000   0.0000000), wk =   0.0277778
        k(    2) = (   0.0000000   0.0376530   0.0000000), wk =   0.0555556
        k(    3) = (   0.0000000   0.0753060   0.0000000), wk =   0.0555556
        k(    4) = (   0.0000000  -0.1129590   0.0000000), wk =   0.0277778
        k(    5) = (   0.0326084   0.0188265   0.0000000), wk =   0.0555556
        k(    6) = (   0.0326084   0.0564795   0.0000000), wk =   0.0555556
        k(    7) = (   0.0326084   0.0941325   0.0000000), wk =   0.0555556
        k(    8) = (   0.0326084  -0.0941325   0.0000000), wk =   0.0555556
        k(    9) = (   0.0326084  -0.0564795   0.0000000), wk =   0.0555556
        k(   10) = (   0.0326084  -0.0188265   0.0000000), wk =   0.0555556
        k(   11) = (   0.0652169   0.0376530   0.0000000), wk =   0.0555556
        k(   12) = (   0.0652169   0.0753060   0.0000000), wk =   0.0555556
        k(   13) = (   0.0652169   0.1129590   0.0000000), wk =   0.0555556
        k(   14) = (   0.0652169  -0.0753060   0.0000000), wk =   0.0555556
        k(   15) = (   0.0652169  -0.0376530   0.0000000), wk =   0.0555556
        k(   16) = (   0.0652169  -0.0000000   0.0000000), wk =   0.0555556
        k(   17) = (  -0.0978253  -0.0564795   0.0000000), wk =   0.0277778
        k(   18) = (  -0.0978253  -0.0188265   0.0000000), wk =   0.0555556
        k(   19) = (  -0.0978253   0.0188265   0.0000000), wk =   0.0555556
        k(   20) = (  -0.0978253  -0.1694384   0.0000000), wk =   0.0277778
        k(   21) = (   0.0000000   0.0000000   0.0000000), wk =   0.0277778
        k(   22) = (   0.0000000   0.0376530   0.0000000), wk =   0.0555556
        k(   23) = (   0.0000000   0.0753060   0.0000000), wk =   0.0555556
        k(   24) = (   0.0000000  -0.1129590   0.0000000), wk =   0.0277778
        k(   25) = (   0.0326084   0.0188265   0.0000000), wk =   0.0555556
        k(   26) = (   0.0326084   0.0564795   0.0000000), wk =   0.0555556
        k(   27) = (   0.0326084   0.0941325   0.0000000), wk =   0.0555556
        k(   28) = (   0.0326084  -0.0941325   0.0000000), wk =   0.0555556
        k(   29) = (   0.0326084  -0.0564795   0.0000000), wk =   0.0555556
        k(   30) = (   0.0326084  -0.0188265   0.0000000), wk =   0.0555556
        k(   31) = (   0.0652169   0.0376530   0.0000000), wk =   0.0555556
        k(   32) = (   0.0652169   0.0753060   0.0000000), wk =   0.0555556
        k(   33) = (   0.0652169   0.1129590   0.0000000), wk =   0.0555556
        k(   34) = (   0.0652169  -0.0753060   0.0000000), wk =   0.0555556
        k(   35) = (   0.0652169  -0.0376530   0.0000000), wk =   0.0555556
        k(   36) = (   0.0652169  -0.0000000   0.0000000), wk =   0.0555556
        k(   37) = (  -0.0978253  -0.0564795   0.0000000), wk =   0.0277778
        k(   38) = (  -0.0978253  -0.0188265   0.0000000), wk =   0.0555556
        k(   39) = (  -0.0978253   0.0188265   0.0000000), wk =   0.0555556
        k(   40) = (  -0.0978253  -0.1694384   0.0000000), wk =   0.0277778

     Largest allocated arrays     est. size (Mb)     dimensions
     Largest temporary arrays     est. size (Mb)     dimensions

     Check: negative/imaginary core charge=   -0.000005    0.000000

     Initial potential from superposition of free atoms
     Check: negative starting charge=(component1):   -0.123028
     Check: negative starting charge=(component2):   -0.095684

     starting charge  190.49992, renormalised to  201.00000

     negative rho (up, down):  1.298E-01 1.010E-01

     *
     * You are using vdW-DF for exchange-correlation in this calculation.
     * Please cite the following three references that made this development
     * possible:
     *
     *   M. Dion, H. Rydberg, E. Schroder, D. C. Langreth, and
     *   B. I. Lundqvist, Phys. Rev. Lett. 92, 246401 (2004).
     *
     *   T. Thonhauser, V. R. Cooper, S. Li, A. Puzder, P. Hyldgaard, and
     *   D. C. Langreth, Phys. Rev. B 76, 125112 (2007).
     *
     *   G. Roman-Perez and J. M. Soler, Phys. Rev. Lett. 103, 096102 (2009).
     *
     *
     * If you are using vdW-DF2, please also cite:
     *
     *   K. Lee, E. D. Murray, L. Kong, B. I. Lundqvist, and
     *   D. C. Langreth, Phys. Rev. B 82, 081101(R) (2010).
     *
     *
     * If you are calculating the stress with vdW-DF, please also cite:
     *
     *   R. Sabatini, E. Kucukbenli, B. Kolb, T. Thonhauser, and
     *   S. de Gironcoli, J. Phys.: Condens. Matter 24, 424209 (2012).
     *

     Carrying out vdW-DF run using the following parameters:

     Nqs =      20    Nr_points =    1024   r_max =   100.000
     q_mesh =
               0.00001000     0.04494208     0.09755937     0.15916263
               0.23128650     0.31572767     0.41458969     0.53033537
               0.66584808     0.82450364     1.01025438     1.22772762
               1.48234092     1.78043706     2.12944203     2.53805004
               3.01644009     3.57652955     4.23227104     5.00000000

     Gradients computed in reciprocal space

     Adding external electric field

     Computed dipole along edir(3) :
        Dipole                0.0000 Ry au,          0.0000 Debye
        Dipole field          0.0000 Ry au

        Potential amp.       -0.0000 Ry
        Total length         44.5388 bohr

[...]

     Starting wfc are  153 randomized atomic wfcs

     Self-consistent Calculation

     iteration #  1     ecut=    36.75 Ry     beta=0.10
     Davidson diagonalization with overlap
     ethr =  1.00E-02,  avg # of iterations =  6.6

[...]

     Magnetic moment per site:
     atom:    1    charge:    8.4698    magn:    0.9686    constr:    0.0000
     atom:    2    charge:    8.4698    magn:    0.9686    constr:    0.0000
     atom:    3    charge:    8.4698    magn:    0.9686    constr:    0.0000
     atom:    4    charge:    3.4065    magn:    0.4021    constr:    0.0000
     atom:    5    charge:    8.4636    magn:    0.9612    constr:    0.0000
     atom:    6    charge:    8.4636    magn:    0.9612    constr:    0.0000
     atom:    7    charge:    8.4636    magn:    0.9612    constr:    0.0000
     atom:    8    charge:    3.4061    magn:    0.3993    constr:    0.0000
[...]
        k(    8) = (   0.0326084  -0.0941325   0.0000000), wk =   0.0555556
        k(    9) = (   0.0326084  -0.0564795   0.0000000), wk =   0.0555556
        k(   10) = (   0.0326084  -0.0188265   0.0000000), wk =   0.0555556
        k(   11) = (   0.0652169   0.0376530   0.0000000), wk =   0.0555556
        k(   12) = (   0.0652169   0.0753060   0.0000000), wk =   0.0555556
        k(   13) = (   0.0652169   0.1129590   0.0000000), wk =   0.0555556
        k(   14) = (   0.0652169  -0.0753060   0.0000000), wk =   0.0555556
        k(   15) = (   0.0652169  -0.0376530   0.0000000), wk =   0.0555556
        k(   16) = (   0.0652169  -0.0000000   0.0000000), wk =   0.0555556
        k(   17) = (  -0.0978253  -0.0564795   0.0000000), wk =   0.0277778
        k(   18) = (  -0.0978253  -0.0188265   0.0000000), wk =   0.0555556
        k(   19) = (  -0.0978253   0.0188265   0.0000000), wk =   0.0555556
        k(   20) = (  -0.0978253  -0.1694384   0.0000000), wk =   0.0277778
        k(   21) = (   0.0000000   0.0000000   0.0000000), wk =   0.0277778
        k(   22) = (   0.0000000   0.0376530   0.0000000), wk =   0.0555556
        k(   23) = (   0.0000000   0.0753060   0.0000000), wk =   0.0555556
        k(   24) = (   0.0000000  -0.1129590   0.0000000), wk =   0.0277778
        k(   25) = (   0.0326084   0.0188265   0.0000000), wk =   0.0555556
        k(   26) = (   0.0326084   0.0564795   0.0000000), wk =   0.0555556
        k(   27) = (   0.0326084   0.0941325   0.0000000), wk =   0.0555556
        k(   28) = (   0.0326084  -0.0941325   0.0000000), wk =   0.0555556
        k(   29) = (   0.0326084  -0.0564795   0.0000000), wk =   0.0555556
        k(   30) = (   0.0326084  -0.0188265   0.0000000), wk =   0.0555556
        k(   31) = (   0.0652169   0.0376530   0.0000000), wk =   0.0555556
        k(   32) = (   0.0652169   0.0753060   0.0000000), wk =   0.0555556
        k(   33) = (   0.0652169   0.1129590   0.0000000), wk =   0.0555556
        k(   34) = (   0.0652169  -0.0753060   0.0000000), wk =   0.0555556
        k(   35) = (   0.0652169  -0.0376530   0.0000000), wk =   0.0555556
        k(   36) = (   0.0652169  -0.0000000   0.0000000), wk =   0.0555556
        k(   37) = (  -0.0978253  -0.0564795   0.0000000), wk =   0.0277778
        k(   38) = (  -0.0978253  -0.0188265   0.0000000), wk =   0.0555556
        k(   39) = (  -0.0978253   0.0188265   0.0000000), wk =   0.0555556
        k(   40) = (  -0.0978253  -0.1694384   0.0000000), wk =   0.0277778

     Largest allocated arrays     est. size (Mb)     dimensions
     Largest temporary arrays     est. size (Mb)     dimensions

     Check: negative/imaginary core charge=   -0.000005    0.000000

     Initial potential from superposition of free atoms
     Check: negative starting charge=(component1):   -0.124401
     Check: negative starting charge=(component2):   -0.096753

     starting charge  190.49992, renormalised to  201.00000

[...]

     *
     * You are using vdW-DF for exchange-correlation in this calculation.
     * Please cite the following three references that made this development
     * possible:
     *
     *   M. Dion, H. Rydberg, E. Schroder, D. C. Langreth, and
     *   B. I. Lundqvist, Phys. Rev. Lett. 92, 246401 (2004).
     *
     *   T. Thonhauser, V. R. Cooper, S. Li, A. Puzder, P. Hyldgaard, and
     *   D. C. Langreth, Phys. Rev. B 76, 125112 (2007).
     *
     *   G. Roman-Perez and J. M. Soler, Phys. Rev. Lett. 103, 096102 (2009).
     *
     *
     * If you are using vdW-DF2, please also cite:
     *
     *   K. Lee, E. D. Murray, L. Kong, B. I. Lundqvist, and
     *   D. C. Langreth, Phys. Rev. B 82, 081101(R) (2010).
     *
     *
     * If you are calculating the stress with vdW-DF, please also cite:
     *
     *   R. Sabatini, E. Kucukbenli, B. Kolb, T. Thonhauser, and
     *   S. de Gironcoli, J. Phys.: Condens. Matter 24, 424209 (2012).
     *

     Carrying out vdW-DF run using the following parameters:

     Nqs =      20    Nr_points =    1024   r_max =   100.000
     q_mesh =
               0.00001000     0.04494208     0.09755937     0.15916263
               0.23128650     0.31572767     0.41458969     0.53033537
               0.66584808     0.82450364     1.01025438     1.22772762
               1.48234092     1.78043706     2.12944203     2.53805004
               3.01644009     3.57652955     4.23227104     5.00000000

     Gradients computed in reciprocal space

[...]

     Starting wfc are  153 randomized atomic wfcs

     Self-consistent Calculation

[...]

     iteration # 23     ecut=    36.75 Ry     beta=0.10
     Davidson diagonalization with overlap
     c_bands:  1 eigenvalues not converged
     ethr =  3.96E-08,  avg # of iterations =  1.5

[...]

     total energy              =   -3295.01875786 Ry
     Harris-Foulkes estimate   =   -3295.01875737 Ry
     estimated scf accuracy    <       0.00000169 Ry

[...]

     iteration # 30     ecut=    36.75 Ry     beta=0.10
     Davidson diagonalization with overlap
     ethr =  8.42E-10,  avg # of iterations =  1.0

[...]

     negative rho (up, down):  1.179E-01 1.166E-01

[...]

     Adding external electric field

     Computed dipole along edir(3) :
        Dipole               -0.0143 Ry au,         -0.0363 Debye
        Dipole field         -0.0000 Ry au

        Potential amp.        0.0043 Ry
        Total length         44.5388 bohr

     Magnetic moment per site:
     atom:    1    charge:    8.2984    magn:    1.0489    constr:    0.0000
     atom:    2    charge:    8.2985    magn:    1.0488    constr:    0.0000
     atom:    3    charge:    8.2985    magn:    1.0488    constr:    0.0000
     atom:    4    charge:    3.3161    magn:    0.0741    constr:    0.0000
     atom:    5    charge:    8.2913    magn:    1.0709    constr:    0.0000
     atom:    6    charge:    8.2914    magn:    1.0708    constr:    0.0000
     atom:    7    charge:    8.2913    magn:    1.0710    constr:    0.0000
     atom:    8    charge:    3.3165    magn:    0.0884    constr:    0.0000
     atom:    9    charge:    8.2929    magn:    1.0476    constr:    0.0000
     atom:   10    charge:    8.2929    magn:    1.0476    constr:    0.0000
     atom:   11    charge:    8.2929    magn:    1.0476    constr:    0.0000
     atom:   12    charge:    3.3048    magn:    0.0679    constr:    0.0000

     End of self-consistent calculation

 ------ SPIN UP ------------

[...]

 ------ SPIN DOWN ----------

[...]

          k = 0.0652-0.0000 0.0000 ( 13893 PWs)   bands (ev):

[...]

          k =-0.0978-0.1694 0.0000 ( 13914 PWs)   bands (ev):

   -92.9108 -92.9041 -92.8969 -92.7221 -92.7116 -92.7093 -92.7050 -92.7043
   -92.6983 -56.3414 -56.2927 -56.2871 -56.2759 -56.2703 -56.2666 -56.2583
   -56.2539 -56.1951 -56.1458 -56.1292 -56.1024 -56.0923 -56.0763 -56.0701
   -56.0680 -56.0632 -56.0608 -56.0587 -56.0558 -56.0544 -56.0521 -56.0442
   -56.0414 -56.0387 -55.9938 -55.9920 -49.6218 -49.6186 -49.6126 -49.2740
   -49.2709 -49.1590 -49.1116 -49.1087 -48.9526  -5.0356  -4.9254  -3.8601
    -3.5156  -3.4202  -3.3063  -3.0097  -2.9490  -2.8239  -2.6667  -2.5826
    -2.3858  -2.2095  -2.1828  -2.0351  -1.9283  -1.8032  -1.7101  -1.5187
    -1.4883  -1.2082  -1.1275  -1.0780  -0.8510  -0.7369  -0.5574  -0.4022
    -0.3502  -0.2949  -0.1811  -0.0761  -0.0701  -0.0116   0.0061   0.0719
     0.1267   0.1864   0.2196   0.3636   0.3725   0.5090   0.6154   0.6479
     0.8500   0.8884   0.9368   1.0390   1.0451   1.1141   1.1793   1.2482
     1.2565   1.3735   1.4888   1.5237   1.5376   1.5801   1.6514   1.8062
     1.8974   1.9410   1.9844   2.0278   2.1440   3.1052   3.2215   3.5722
     3.7005   4.3543   4.4420   5.1874   5.2419   6.3846   6.4291   7.1127
     7.1174   7.6039   7.6394   7.8314   7.8369   8.8652   8.9044   8.9691
     9.1247   9.4307

     the Fermi energy is     1.1015 ev

!    total energy              =   -3295.01875918 Ry
     Harris-Foulkes estimate   =   -3295.01875769 Ry
     estimated scf accuracy    <       0.00000088 Ry

     The total energy is the sum of the following terms:

     one-electron contribution =  -28556.79291337 Ry
     hartree contribution      =   14295.14591464 Ry
     xc contribution           =    -401.74102172 Ry
     ewald contribution        =   11368.44782228 Ry
     electric field correction =       0.00000070 Ry
     smearing contrib. (-TS)   =      -0.07856170 Ry

     total magnetization       =    17.70 Bohr mag/cell
     absolute magnetization    =    19.64 Bohr mag/cell

     convergence has been achieved in  30 iterations

 BEEF-vdW xc energy contributions
           1 :   -353.001278766022
           2 :    320.820939119442
           3 :   -265.984307299900
           4 :    203.173277891908
           5 :   -146.109402814172
           6 :    102.752486394420
           7 :   -73.8887629509876
           8 :    55.1465900631017
           9 :   -40.8055856414119
          10 :    27.1255761794135
          11 :   -13.6437298492432
          12 :    2.25134833918514
          13 :    4.87431660667693
          14 :   -7.02499844525806
          15 :    5.41421584952150
          16 :   -2.33436586633775
          17 :  -0.216057834578351
          18 :    1.47469564030541
          19 :   -1.92873994610488
          20 :    2.55742132038847
          21 :   -3.94280618040023
          22 :    5.84849698604751
          23 :   -7.47130962521783
          24 :    8.07390034213404
          25 :   -7.50922428950093
          26 :    6.28035846705859
          27 :   -5.15623016894153
          28 :    4.64951342491202
          29 :   -4.73023938128722
          30 :    4.93530157394548
          31 :   -30.8578408150504
          32 :   -21.8000338671692

     Forces acting on atoms (Ry/au):

     negative rho (up, down):  1.179E-01 1.166E-01
     atom    1 type  1   force =     0.00004286   -0.01551750    0.00311854
     atom    2 type  1   force =    -0.01344638    0.00777280    0.00316568
     atom    3 type  1   force =     0.01343228    0.00771498    0.00312334
     atom    4 type  2   force =    -0.00000967   -0.00000008   -0.03189856
     atom    5 type  1   force =     0.00001351    0.00844350    0.00672758
     atom    6 type  1   force =     0.00736511   -0.00419373    0.00667702
     atom    7 type  1   force =    -0.00735902   -0.00420715    0.00669323
     atom    8 type  2   force =    -0.00000421   -0.00001979    0.00261632
     atom    9 type  1   force =    -0.00015461   -0.00055090   -0.00033887
     atom   10 type  1   force =    -0.00051882    0.00014367   -0.00040255
     atom   11 type  1   force =     0.00050045    0.00031110   -0.00034667
     atom   12 type  2   force =     0.00013850    0.00010310    0.00086494

     Total force =     0.046126     Total SCF correction =     0.005575
     SCF correction compared to forces is large: reduce conv_thr to get better values

     entering subroutine stress ...

     negative rho (up, down):  1.179E-01 1.166E-01
          total   stress  (Ry/bohr**3)                   (kbar)     P=   -0.12
   0.00000849  -0.00000001  -0.00000001          1.25     -0.00     -0.00
  -0.00000001   0.00000847   0.00000002         -0.00      1.25      0.00
  -0.00000001   0.00000002  -0.00001945         -0.00      0.00     -2.86

 !ASE

     Writing output data file calc.save

     General routines

     Parallel routines

   This run was terminated on:  11:40:41  20Dec2018

   JOB DONE.
Job  /afs/slac/g/suncat/bin/suncat-tsmpirun -x LD_LIBRARY_PATH -wdir /scratch/qe773529_rZUs2 pw.x -in pw.inp

TID   HOST_NAME   COMMAND_LINE            STATUS            TERMINATION_TIME
00000 suncat0258 pw.x -in pw.inp   Done                     12/20/2018 11:40:41
00001 suncat0258 pw.x -in pw.inp   Done                     12/20/2018 11:40:41
00002 suncat0258 pw.x -in pw.inp   Done                     12/20/2018 11:40:41
00003 suncat0258 pw.x -in pw.inp   Done                     12/20/2018 11:40:41
00004 suncat0258 pw.x -in pw.inp   Done                     12/20/2018 11:40:41
00005 suncat0258 pw.x -in pw.inp   Done                     12/20/2018 11:40:41
00006 suncat0258 pw.x -in pw.inp   Done                     12/20/2018 11:40:41
00007 suncat0258 pw.x -in pw.inp   Done                     12/20/2018 11:40:41
00008 suncat0257 pw.x -in pw.inp   Done                     12/20/2018 11:40:41
00009 suncat0257 pw.x -in pw.inp   Done                     12/20/2018 11:40:41
00010 suncat0257 pw.x -in pw.inp   Done                     12/20/2018 11:40:41
00011 suncat0257 pw.x -in pw.inp   Done                     12/20/2018 11:40:41
00012 suncat0257 pw.x -in pw.inp   Done                     12/20/2018 11:40:41
00013 suncat0257 pw.x -in pw.inp   Done                     12/20/2018 11:40:41
00014 suncat0257 pw.x -in pw.inp   Done                     12/20/2018 11:40:41
00015 suncat0257 pw.x -in pw.inp   Done                     12/20/2018 11:40:41
00016 suncat0256 pw.x -in pw.inp   Done                     12/20/2018 11:40:41
00017 suncat0256 pw.x -in pw.inp   Done                     12/20/2018 11:40:41
00018 suncat0256 pw.x -in pw.inp   Done                     12/20/2018 11:40:41
00019 suncat0256 pw.x -in pw.inp   Done                     12/20/2018 11:40:41
00020 suncat0256 pw.x -in pw.inp   Done                     12/20/2018 11:40:41
00021 suncat0256 pw.x -in pw.inp   Done                     12/20/2018 11:40:41
00022 suncat0256 pw.x -in pw.inp   Done                     12/20/2018 11:40:41
00023 suncat0256 pw.x -in pw.inp   Done                     12/20/2018 11:40:41
00024 suncat0255 pw.x -in pw.inp   Done                     12/20/2018 11:40:41
00025 suncat0255 pw.x -in pw.inp   Done                     12/20/2018 11:40:41
00026 suncat0255 pw.x -in pw.inp   Done                     12/20/2018 11:40:41
00027 suncat0255 pw.x -in pw.inp   Done                     12/20/2018 11:40:41
00028 suncat0255 pw.x -in pw.inp   Done                     12/20/2018 11:40:41
00029 suncat0255 pw.x -in pw.inp   Done                     12/20/2018 11:40:41
00030 suncat0255 pw.x -in pw.inp   Done                     12/20/2018 11:40:41
00031 suncat0255 pw.x -in pw.inp   Done                     12/20/2018 11:40:41
00032 suncat0222 pw.x -in pw.inp   Done                     12/20/2018 11:40:41
00033 suncat0222 pw.x -in pw.inp   Done                     12/20/2018 11:40:41
00034 suncat0222 pw.x -in pw.inp   Done                     12/20/2018 11:40:41
00035 suncat0222 pw.x -in pw.inp   Done                     12/20/2018 11:40:41
00036 suncat0222 pw.x -in pw.inp   Done                     12/20/2018 11:40:41
00037 suncat0222 pw.x -in pw.inp   Done                     12/20/2018 11:40:41
00038 suncat0222 pw.x -in pw.inp   Done                     12/20/2018 11:40:41
00039 suncat0222 pw.x -in pw.inp   Done                     12/20/2018 11:40:41
00040 suncat0221 pw.x -in pw.inp   Done                     12/20/2018 11:40:41
00041 suncat0221 pw.x -in pw.inp   Done                     12/20/2018 11:40:41
00042 suncat0221 pw.x -in pw.inp   Done                     12/20/2018 11:40:41
00043 suncat0221 pw.x -in pw.inp   Done                     12/20/2018 11:40:41
00044 suncat0221 pw.x -in pw.inp   Done                     12/20/2018 11:40:41
00045 suncat0221 pw.x -in pw.inp   Done                     12/20/2018 11:40:41
00046 suncat0221 pw.x -in pw.inp   Done                     12/20/2018 11:40:41
00047 suncat0221 pw.x -in pw.inp   Done                     12/20/2018 11:40:41
00048 suncat0220 pw.x -in pw.inp   Done                     12/20/2018 11:40:41
00049 suncat0220 pw.x -in pw.inp   Done                     12/20/2018 11:40:41
00050 suncat0220 pw.x -in pw.inp   Done                     12/20/2018 11:40:41
00051 suncat0220 pw.x -in pw.inp   Done                     12/20/2018 11:40:41
00052 suncat0220 pw.x -in pw.inp   Done                     12/20/2018 11:40:41
00053 suncat0220 pw.x -in pw.inp   Done                     12/20/2018 11:40:41
00054 suncat0220 pw.x -in pw.inp   Done                     12/20/2018 11:40:41
00055 suncat0220 pw.x -in pw.inp   Done                     12/20/2018 11:40:41
00056 suncat0219 pw.x -in pw.inp   Done                     12/20/2018 11:40:41
00057 suncat0219 pw.x -in pw.inp   Done                     12/20/2018 11:40:41
00058 suncat0219 pw.x -in pw.inp   Done                     12/20/2018 11:40:41
00059 suncat0219 pw.x -in pw.inp   Done                     12/20/2018 11:40:41
00060 suncat0219 pw.x -in pw.inp   Done                     12/20/2018 11:40:41
00061 suncat0219 pw.x -in pw.inp   Done                     12/20/2018 11:40:41
00062 suncat0219 pw.x -in pw.inp   Done                     12/20/2018 11:40:41
00063 suncat0219 pw.x -in pw.inp   Done                     12/20/2018 11:40:41