     Program PWSCF v.5.1rc2 (svn rev. 11289) starts on  1Jan2019 at 21:36:33

     Current dimensions of program PWSCF are:
     Max number of different atomic species (ntypx) = 10
     Max number of k-points (npk) =  40000
     Max angular momentum in pseudopotentials (lmaxx) =  3
     Presently stress not available with electric field

     IMPORTANT: XC functional enforced from input :
     Exchange-correlation      = BEEF-VDW ( 1  4 27 13 2)
     Any further DFT definition will be discarded
     Please, verify this is what you really want

     Subspace diagonalization in iterative solution of the eigenvalue problem:
     a serial algorithm will be used

     bravais-lattice index     =            0
     lattice parameter (alat)  =       1.8897  a.u.
     unit-cell volume          =    5026.5472 (a.u.)^3
     number of atoms/cell      =           12
     number of atomic types    =            2
     number of electrons       =       144.00
     number of Kohn-Sham states=          102
     kinetic-energy cutoff     =      36.7493  Ry
     charge density cutoff     =     367.4932  Ry
     convergence threshold     =      1.0E-06
     mixing beta               =       0.1000
     number of iterations used =           10  plain     mixing
     Exchange-correlation      = BEEF-VDW ( 1  4 27 13 2)
     nstep                     =           50

     celldm(1)=   1.889726  celldm(2)=   0.000000  celldm(3)=   0.000000
     celldm(4)=   0.000000  celldm(5)=   0.000000  celldm(6)=   0.000000

     crystal axes: (cart. coord. in units of alat)
               a(1) = (   5.888144   0.000000   0.000000 )
               a(2) = (  -2.944072   5.099283   0.000000 )
               a(3) = (   0.000000   0.000000  24.807650 )

     reciprocal axes: (cart. coord. in units 2 pi/alat)
               b(1) = (  0.169833  0.098053  0.000000 )
               b(2) = (  0.000000  0.196106  0.000000 )
               b(3) = (  0.000000  0.000000  0.040310 )

     PseudoPot. # 1 for Ti read from file:
     /afs/slac.stanford.edu/u/if/mamunm/psp/gbrv1.5pbe/Ti.UPF
     MD5 check sum: 88a00a6731bd790ddea75d31a80cb452
     Pseudo is Ultrasoft + core correction, Zval = 12.0
     Generated by new atomic code, or converted to UPF format
     Using radial grid of  851 points,  6 beta functions with:
                l(1) =   0
                l(2) =   0
                l(3) =   1
                l(4) =   1
                l(5) =   2
                l(6) =   2
     Q(r) pseudized with  6 coefficients,  rinner =    1.000   1.000   1.000
                                                       1.000   1.000

     PseudoPot. # 2 for Cd read from file:
     /afs/slac.stanford.edu/u/if/mamunm/psp/gbrv1.5pbe/Cd.UPF
     MD5 check sum: 17164a7926edb8e0dc231208abae86a6
     Pseudo is Ultrasoft + core correction, Zval = 12.0
     Generated by new atomic code, or converted to UPF format
     Using radial grid of  889 points,  6 beta functions with:
                l(1) =   0
                l(2) =   0
                l(3) =   1
                l(4) =   1
                l(5) =   2
                l(6) =   2
     Q(r) pseudized with  6 coefficients,  rinner =    1.000   1.000   1.000
                                                       1.000   1.000

     vdW kernel table read from file vdW_kernel_table
     MD5 check sum: 095c7af220d748ca6e76c0b4c6cfb241

     atomic species   valence    mass     pseudopotential
        Ti1           12.00    47.86700     Ti( 1.00)
        Cd1           12.00   112.41400     Cd( 1.00)

     No symmetry found

   Cartesian axes

     site n.     atom                  positions (alat units)
         1           Ti1 tau(   1) = (   0.0000000   0.0000000  10.0000000  )
         2           Ti1 tau(   2) = (  -1.4720361   2.5496413  10.0000000  )
         3           Ti1 tau(   3) = (   1.4720361   2.5496413  10.0000000  )
         4           Cd1 tau(   4) = (   2.9440722   0.0000000  10.0000000  )
         5           Ti1 tau(   5) = (   2.9440722   1.6997609  12.4038249  )
         6           Ti1 tau(   6) = (   1.4720361   4.2494022  12.4038249  )
         7           Ti1 tau(   7) = (  -1.4720361   4.2494022  12.4038249  )
         8           Cd1 tau(   8) = (   0.0000000   1.6997609  12.4038249  )
         9           Ti1 tau(   9) = (  -0.0000000   3.3995218  14.8076498  )
        10           Ti1 tau(  10) = (   1.4720361   0.8498804  14.8076498  )
        11           Ti1 tau(  11) = (   4.4161083   0.8498804  14.8076498  )
        12           Cd1 tau(  12) = (   2.9440722   3.3995218  14.8076498  )

     number of k points=    20  Fermi-Dirac smearing, width (Ry)=  0.0110
                       cart. coord. in units 2pi/alat
        k(    1) = (   0.0000000   0.0000000   0.0000000), wk =   0.0555556
        k(    2) = (   0.0000000   0.0326843   0.0000000), wk =   0.1111111
        k(    3) = (   0.0000000   0.0653687   0.0000000), wk =   0.1111111
        k(    4) = (   0.0000000  -0.0980530   0.0000000), wk =   0.0555556
        k(    5) = (   0.0283055   0.0163422   0.0000000), wk =   0.1111111
        k(    6) = (   0.0283055   0.0490265   0.0000000), wk =   0.1111111
        k(    7) = (   0.0283055   0.0817108   0.0000000), wk =   0.1111111
        k(    8) = (   0.0283055  -0.0817108   0.0000000), wk =   0.1111111
        k(    9) = (   0.0283055  -0.0490265   0.0000000), wk =   0.1111111
        k(   10) = (   0.0283055  -0.0163422   0.0000000), wk =   0.1111111
        k(   11) = (   0.0566109   0.0326843   0.0000000), wk =   0.1111111
        k(   12) = (   0.0566109   0.0653687   0.0000000), wk =   0.1111111
        k(   13) = (   0.0566109   0.0980530   0.0000000), wk =   0.1111111
        k(   14) = (   0.0566109  -0.0653687   0.0000000), wk =   0.1111111
        k(   15) = (   0.0566109  -0.0326843   0.0000000), wk =   0.1111111
        k(   16) = (   0.0566109   0.0000000   0.0000000), wk =   0.1111111
        k(   17) = (  -0.0849164  -0.0490265   0.0000000), wk =   0.0555556
        k(   18) = (  -0.0849164  -0.0163422   0.0000000), wk =   0.1111111
        k(   19) = (  -0.0849164   0.0163422   0.0000000), wk =   0.1111111
        k(   20) = (  -0.0849164  -0.1470795   0.0000000), wk =   0.0555556

     Largest allocated arrays     est. size (Mb)     dimensions
     Largest temporary arrays     est. size (Mb)     dimensions

     Check: negative/imaginary core charge=   -0.000005    0.000000

     Initial potential from superposition of free atoms
     Check: negative starting charge=   -0.074906

     starting charge  133.49948, renormalised to  144.00000

     negative rho (up, down):  8.080E-02 0.000E+00

     *
     * You are using vdW-DF for exchange-correlation in this calculation.
     * Please cite the following three references that made this development
     * possible:
     *
     *   M. Dion, H. Rydberg, E. Schroder, D. C. Langreth, and
     *   B. I. Lundqvist, Phys. Rev. Lett. 92, 246401 (2004).
     *
     *   T. Thonhauser, V. R. Cooper, S. Li, A. Puzder, P. Hyldgaard, and
     *   D. C. Langreth, Phys. Rev. B 76, 125112 (2007).
     *
     *   G. Roman-Perez and J. M. Soler, Phys. Rev. Lett. 103, 096102 (2009).
     *
     *
     * If you are using vdW-DF2, please also cite:
     *
     *   K. Lee, E. D. Murray, L. Kong, B. I. Lundqvist, and
     *   D. C. Langreth, Phys. Rev. B 82, 081101(R) (2010).
     *
     *
     * If you are calculating the stress with vdW-DF, please also cite:
     *
     *   R. Sabatini, E. Kucukbenli, B. Kolb, T. Thonhauser, and
     *   S. de Gironcoli, J. Phys.: Condens. Matter 24, 424209 (2012).
     *

     Carrying out vdW-DF run using the following parameters:

     Nqs =      20    Nr_points =    1024   r_max =   100.000
     q_mesh =
               0.00001000     0.04494208     0.09755937     0.15916263
               0.23128650     0.31572767     0.41458969     0.53033537
               0.66584808     0.82450364     1.01025438     1.22772762
               1.48234092     1.78043706     2.12944203     2.53805004
               3.01644009     3.57652955     4.23227104     5.00000000

     Gradients computed in reciprocal space

     Adding external electric field

     Computed dipole along edir(3) :
        Dipole                0.0000 Ry au,          0.0000 Debye
        Dipole field          0.0000 Ry au

        Potential amp.       -0.0000 Ry
        Total length         45.7077 bohr

     Starting wfc are  117 randomized atomic wfcs

     Self-consistent Calculation

     iteration #  1     ecut=    36.75 Ry     beta=0.10
     Davidson diagonalization with overlap
     ethr =  1.00E-02,  avg # of iterations =  3.7

[...]

     total energy              =   -1427.96206408 Ry
     Harris-Foulkes estimate   =   -1429.26610381 Ry
     estimated scf accuracy    <       7.83119894 Ry

[...]

     End of self-consistent calculation

          k = 0.0000 0.0000 0.0000 ( 18967 PWs)   bands (ev):

   -56.3902 -56.3879 -56.3381 -56.3381 -56.3376 -56.3375 -56.1428 -56.0937
   -56.0935 -32.7657 -32.7367 -32.7115 -32.7058 -32.7057 -32.6867 -32.6867
   -32.6805 -32.6751 -32.6750 -32.6581 -32.6581 -32.5784 -32.4896 -32.4810
   -32.4393 -32.4392 -32.3278 -32.3277 -32.3162 -32.3161 -32.3013 -32.3013
   -32.2809 -32.2473 -32.1118 -32.1116  -7.9011  -7.9011  -7.8696  -7.8696
    -7.8440  -7.8439  -7.8439  -7.8010  -7.7573  -7.7573  -7.7505  -7.7344
    -7.7344  -7.6208  -7.6208  -5.7162  -4.3127  -3.2804  -1.6158  -1.4249
    -1.3536  -0.4769  -0.4769  -0.2558  -0.2558  -0.2333  -0.1306  -0.0360
    -0.0360   0.1902   0.1902   0.4443   0.4443   0.6468   0.7074   0.7332
     1.1140   1.1140   1.2059   1.2059   1.2398   1.4397   1.4397   1.6372
     1.6372   1.6552   1.7239   1.9924   2.4222   2.5211   2.5212   2.6799
     2.6799   2.6933   2.6934   2.7911   2.7912   2.9760   2.9761   3.1662
     3.2497   3.2498   3.3779   3.3779   3.4996   3.5702

[...]

          k =-0.0849-0.0490 0.0000 ( 18916 PWs)   bands (ev):

[...]

     the Fermi energy is     0.7892 ev

!    total energy              =   -1427.05534177 Ry
     Harris-Foulkes estimate   =   -1427.05533954 Ry
     estimated scf accuracy    <       0.00000061 Ry

     The total energy is the sum of the following terms:

     one-electron contribution =  -10274.73256130 Ry
     hartree contribution      =    5149.87287547 Ry
     xc contribution           =    -290.87482693 Ry
     ewald contribution        =    3988.80090028 Ry
     electric field correction =       0.00000001 Ry
     smearing contrib. (-TS)   =      -0.12172929 Ry

     convergence has been achieved in  20 iterations

 BEEF-vdW xc energy contributions
           1 :   -252.032376989680
           2 :    227.607087107103
           3 :   -187.075147399649
           4 :    142.750133417245
           5 :   -105.180890453886
           6 :    79.2034941589882
           7 :   -63.5834566575722
           8 :    53.6291821855907
           9 :   -44.7032440682240
          10 :    34.5678465780924
          11 :   -23.6827038116862
          12 :    13.8898650424798
          13 :   -6.70254862519710
          14 :    2.31979896387406
          15 :   0.207139317755434
          16 :   -2.07113598717103
[...]
               b(3) = (  0.000000  0.000000  0.040310 )

     PseudoPot. # 1 for Ti read from file:
     /afs/slac.stanford.edu/u/if/mamunm/psp/gbrv1.5pbe/Ti.UPF
     MD5 check sum: 88a00a6731bd790ddea75d31a80cb452
     Pseudo is Ultrasoft + core correction, Zval = 12.0
     Generated by new atomic code, or converted to UPF format
     Using radial grid of  851 points,  6 beta functions with:
                l(1) =   0
                l(2) =   0
                l(3) =   1
                l(4) =   1
                l(5) =   2
                l(6) =   2
     Q(r) pseudized with  6 coefficients,  rinner =    1.000   1.000   1.000
                                                       1.000   1.000

     PseudoPot. # 2 for Cd read from file:
     /afs/slac.stanford.edu/u/if/mamunm/psp/gbrv1.5pbe/Cd.UPF
     MD5 check sum: 17164a7926edb8e0dc231208abae86a6
     Pseudo is Ultrasoft + core correction, Zval = 12.0
     Generated by new atomic code, or converted to UPF format
     Using radial grid of  889 points,  6 beta functions with:
                l(1) =   0
                l(2) =   0
                l(3) =   1
                l(4) =   1
                l(5) =   2
                l(6) =   2
     Q(r) pseudized with  6 coefficients,  rinner =    1.000   1.000   1.000
                                                       1.000   1.000

     vdW kernel table read from file vdW_kernel_table
     MD5 check sum: 095c7af220d748ca6e76c0b4c6cfb241

     atomic species   valence    mass     pseudopotential
        Ti1           12.00    47.86700     Ti( 1.00)
        Cd1           12.00   112.41400     Cd( 1.00)

     No symmetry found

   Cartesian axes

     site n.     atom                  positions (alat units)
         1           Ti1 tau(   1) = (   0.0000000   0.0000000  10.0000000  )
         2           Ti1 tau(   2) = (  -1.4720361   2.5496413  10.0000000  )
         3           Ti1 tau(   3) = (   1.4720361   2.5496413  10.0000000  )
         4           Cd1 tau(   4) = (   2.9440722   0.0000000  10.0000000  )
         5           Ti1 tau(   5) = (   2.9440722   1.6997609  12.4038249  )
         6           Ti1 tau(   6) = (   1.4720361   4.2494022  12.4038249  )
         7           Ti1 tau(   7) = (  -1.4720361   4.2494022  12.4038249  )
         8           Cd1 tau(   8) = (   0.0000000   1.6997609  12.4038249  )
         9           Ti1 tau(   9) = (  -0.0000388   3.4235063  14.7259442  )
        10           Ti1 tau(  10) = (   1.4927896   0.8378780  14.7259377  )
        11           Ti1 tau(  11) = (   4.3953451   0.8379102  14.7259235  )
        12           Cd1 tau(  12) = (   2.9442418   3.3996226  14.9540417  )

     number of k points=    20  Fermi-Dirac smearing, width (Ry)=  0.0110
                       cart. coord. in units 2pi/alat
        k(    1) = (   0.0000000   0.0000000   0.0000000), wk =   0.0555556
        k(    2) = (   0.0000000   0.0326843   0.0000000), wk =   0.1111111
        k(    3) = (   0.0000000   0.0653687   0.0000000), wk =   0.1111111
        k(    4) = (   0.0000000  -0.0980530   0.0000000), wk =   0.0555556
        k(    5) = (   0.0283055   0.0163422   0.0000000), wk =   0.1111111
        k(    6) = (   0.0283055   0.0490265   0.0000000), wk =   0.1111111
        k(    7) = (   0.0283055   0.0817108   0.0000000), wk =   0.1111111
        k(    8) = (   0.0283055  -0.0817108   0.0000000), wk =   0.1111111
        k(    9) = (   0.0283055  -0.0490265   0.0000000), wk =   0.1111111
        k(   10) = (   0.0283055  -0.0163422   0.0000000), wk =   0.1111111
        k(   11) = (   0.0566109   0.0326843   0.0000000), wk =   0.1111111
        k(   12) = (   0.0566109   0.0653687   0.0000000), wk =   0.1111111
        k(   13) = (   0.0566109   0.0980530   0.0000000), wk =   0.1111111
        k(   14) = (   0.0566109  -0.0653687   0.0000000), wk =   0.1111111
        k(   15) = (   0.0566109  -0.0326843   0.0000000), wk =   0.1111111
        k(   16) = (   0.0566109   0.0000000   0.0000000), wk =   0.1111111
        k(   17) = (  -0.0849164  -0.0490265   0.0000000), wk =   0.0555556
        k(   18) = (  -0.0849164  -0.0163422   0.0000000), wk =   0.1111111
        k(   19) = (  -0.0849164   0.0163422   0.0000000), wk =   0.1111111
        k(   20) = (  -0.0849164  -0.1470795   0.0000000), wk =   0.0555556

     Largest allocated arrays     est. size (Mb)     dimensions
     Largest temporary arrays     est. size (Mb)     dimensions

     Check: negative/imaginary core charge=   -0.000005    0.000000

     Initial potential from superposition of free atoms
     Check: negative starting charge=   -0.074127

     starting charge  133.49948, renormalised to  144.00000

[...]

     *
     * You are using vdW-DF for exchange-correlation in this calculation.
     * Please cite the following three references that made this development
     * possible:
     *
     *   M. Dion, H. Rydberg, E. Schroder, D. C. Langreth, and
     *   B. I. Lundqvist, Phys. Rev. Lett. 92, 246401 (2004).
     *
     *   T. Thonhauser, V. R. Cooper, S. Li, A. Puzder, P. Hyldgaard, and
     *   D. C. Langreth, Phys. Rev. B 76, 125112 (2007).
     *
     *   G. Roman-Perez and J. M. Soler, Phys. Rev. Lett. 103, 096102 (2009).
     *
     *
     * If you are using vdW-DF2, please also cite:
     *
     *   K. Lee, E. D. Murray, L. Kong, B. I. Lundqvist, and
     *   D. C. Langreth, Phys. Rev. B 82, 081101(R) (2010).
     *
     *
     * If you are calculating the stress with vdW-DF, please also cite:
     *
     *   R. Sabatini, E. Kucukbenli, B. Kolb, T. Thonhauser, and
     *   S. de Gironcoli, J. Phys.: Condens. Matter 24, 424209 (2012).
     *

     Carrying out vdW-DF run using the following parameters:

     Nqs =      20    Nr_points =    1024   r_max =   100.000
     q_mesh =
               0.00001000     0.04494208     0.09755937     0.15916263
               0.23128650     0.31572767     0.41458969     0.53033537
               0.66584808     0.82450364     1.01025438     1.22772762
               1.48234092     1.78043706     2.12944203     2.53805004
               3.01644009     3.57652955     4.23227104     5.00000000

     Gradients computed in reciprocal space

[...]

     Starting wfc are  117 randomized atomic wfcs

     Self-consistent Calculation

[...]

     total energy              =   -1427.06556103 Ry
     Harris-Foulkes estimate   =   -1427.06556150 Ry
     estimated scf accuracy    <       0.00000101 Ry

     iteration # 22     ecut=    36.75 Ry     beta=0.10
     Davidson diagonalization with overlap
     ethr =  7.02E-10,  avg # of iterations =  2.1

[...]

     negative rho (up, down):  7.404E-02 0.000E+00

     Adding external electric field

     Computed dipole along edir(3) :
        Dipole               -0.0300 Ry au,         -0.0762 Debye
        Dipole field         -0.0001 Ry au

        Potential amp.        0.0069 Ry
        Total length         45.7077 bohr

     End of self-consistent calculation

[...]

          k = 0.0566 0.0000 0.0000 ( 18925 PWs)   bands (ev):

[...]

          k =-0.0849-0.1471 0.0000 ( 18916 PWs)   bands (ev):

   -56.4083 -56.3916 -56.3742 -56.3497 -56.3296 -56.3132 -56.1204 -56.1045
   -56.0880 -32.7649 -32.7519 -32.7267 -32.7233 -32.6964 -32.6777 -32.6668
   -32.6661 -32.6289 -32.5907 -32.5905 -32.5766 -32.5570 -32.5308 -32.5111
   -32.4942 -32.4611 -32.3950 -32.3766 -32.3531 -32.3525 -32.3461 -32.3067
   -32.2758 -32.2285 -32.2008 -32.1178  -7.8949  -7.8585  -7.8349  -7.8285
    -7.8069  -7.8020  -7.7910  -7.7852  -7.7772  -7.7723  -7.7473  -7.7296
    -7.7052  -7.6824  -7.6354  -4.3870  -4.1081  -3.2360  -2.5473  -1.7326
    -1.4684  -1.4416  -0.7563  -0.5100  -0.3327  -0.2668  -0.0826   0.0115
     0.0271   0.2212   0.3256   0.3449   0.4277   0.4748   0.5878   0.7230
     0.7661   0.7842   0.8937   0.9370   1.0816   1.0840   1.3835   1.3963
     1.4752   1.5652   1.5769   1.6178   1.9909   2.3371   2.3663   2.3837
     2.4079   2.4526   2.5386   2.5635   2.6476   2.7069   2.7329   2.7735
     2.9808   3.0636   3.1177   3.2731   3.3382   3.3833

     the Fermi energy is     0.7531 ev

!    total energy              =   -1427.06556255 Ry
     Harris-Foulkes estimate   =   -1427.06556120 Ry
     estimated scf accuracy    <       0.00000035 Ry

     The total energy is the sum of the following terms:

     one-electron contribution =  -10308.39696536 Ry
     hartree contribution      =    5166.66662417 Ry
     xc contribution           =    -290.92842393 Ry
     ewald contribution        =    4005.71572294 Ry
     electric field correction =       0.00000225 Ry
     smearing contrib. (-TS)   =      -0.12252262 Ry

     convergence has been achieved in  22 iterations

 BEEF-vdW xc energy contributions
           1 :   -252.205360385358
           2 :    227.785918134704
           3 :   -187.254315692208
           4 :    142.915475699303
           5 :   -105.324225837170
           6 :    79.3333469920435
           7 :   -63.7186309805945
           8 :    53.7821688908109
           9 :   -44.8698226312084
          10 :    34.7305193107728
          11 :   -23.8238588455548
          12 :    14.0039369436317
          13 :   -6.79974498351578
          14 :    2.41972655869927
          15 :   8.890456561476867E-002
          16 :   -1.93559820120015
          17 :    3.73493900136509
          18 :   -5.29220535310571
          19 :    6.01293000280918
          20 :   -5.48611021751839
          21 :    3.77799144664789
          22 :   -1.31609622780491
          23 :   -1.43239262548877
          24 :    4.19365819577416
          25 :   -6.89731856546143
          26 :    9.53339163779168
          27 :   -12.0287725383544
          28 :    14.2496479394609
          29 :   -16.0995472552421
          30 :    17.5864273332469
          31 :   -25.0055827318075
          32 :   -18.0070411911524

     Forces acting on atoms (Ry/au):

     negative rho (up, down):  7.404E-02 0.000E+00
     atom    1 type  1   force =    -0.00000334   -0.00354786    0.01067157
     atom    2 type  1   force =    -0.00308402    0.00177747    0.01068517
     atom    3 type  1   force =     0.00307109    0.00177407    0.01066718
     atom    4 type  2   force =    -0.00001303    0.00001525   -0.02088123
     atom    5 type  1   force =    -0.00001511    0.00530408    0.00135992
     atom    6 type  1   force =     0.00458959   -0.00265364    0.00135322
     atom    7 type  1   force =    -0.00459688   -0.00263974    0.00135486
     atom    8 type  2   force =     0.00007245   -0.00002592   -0.01022492
     atom    9 type  1   force =     0.00002238   -0.00044050   -0.00183809
     atom   10 type  1   force =    -0.00037755    0.00024614   -0.00182643
     atom   11 type  1   force =     0.00038095    0.00022347   -0.00183198
     atom   12 type  2   force =    -0.00004653   -0.00003281    0.00051074

     Total force =     0.031954     Total SCF correction =     0.001514

     entering subroutine stress ...

     negative rho (up, down):  7.404E-02 0.000E+00
          total   stress  (Ry/bohr**3)                   (kbar)     P=   -7.62
  -0.00006667   0.00000000  -0.00000001         -9.81      0.00     -0.00
   0.00000000  -0.00006667  -0.00000001          0.00     -9.81     -0.00
  -0.00000001  -0.00000001  -0.00002204         -0.00     -0.00     -3.24

 !ASE

     Writing output data file calc.save

     General routines

     Parallel routines

   This run was terminated on:  22:25:33   1Jan2019

   JOB DONE.
Job  /afs/slac/g/suncat/bin/suncat-tsmpirun -x LD_LIBRARY_PATH -wdir /scratch/qe649188_EokOn pw.x -in pw.inp

TID   HOST_NAME   COMMAND_LINE            STATUS            TERMINATION_TIME
00000 suncat0178 pw.x -in pw.inp   Done                     01/01/2019 22:25:33
00001 suncat0178 pw.x -in pw.inp   Done                     01/01/2019 22:25:33
00002 suncat0178 pw.x -in pw.inp   Done                     01/01/2019 22:25:33
00003 suncat0178 pw.x -in pw.inp   Done                     01/01/2019 22:25:33
00004 suncat0178 pw.x -in pw.inp   Done                     01/01/2019 22:25:33
00005 suncat0178 pw.x -in pw.inp   Done                     01/01/2019 22:25:33
00006 suncat0178 pw.x -in pw.inp   Done                     01/01/2019 22:25:33
00007 suncat0178 pw.x -in pw.inp   Done                     01/01/2019 22:25:33
00008 suncat0177 pw.x -in pw.inp   Done                     01/01/2019 22:25:33
00009 suncat0177 pw.x -in pw.inp   Done                     01/01/2019 22:25:33
00010 suncat0177 pw.x -in pw.inp   Done                     01/01/2019 22:25:33
00011 suncat0177 pw.x -in pw.inp   Done                     01/01/2019 22:25:33
00012 suncat0177 pw.x -in pw.inp   Done                     01/01/2019 22:25:33
00013 suncat0177 pw.x -in pw.inp   Done                     01/01/2019 22:25:33
00014 suncat0177 pw.x -in pw.inp   Done                     01/01/2019 22:25:33
00015 suncat0177 pw.x -in pw.inp   Done                     01/01/2019 22:25:33
00016 suncat0113 pw.x -in pw.inp   Done                     01/01/2019 22:25:33
00017 suncat0113 pw.x -in pw.inp   Done                     01/01/2019 22:25:33
00018 suncat0113 pw.x -in pw.inp   Done                     01/01/2019 22:25:33
00019 suncat0113 pw.x -in pw.inp   Done                     01/01/2019 22:25:33
00020 suncat0113 pw.x -in pw.inp   Done                     01/01/2019 22:25:33
00021 suncat0113 pw.x -in pw.inp   Done                     01/01/2019 22:25:33
00022 suncat0113 pw.x -in pw.inp   Done                     01/01/2019 22:25:33
00023 suncat0113 pw.x -in pw.inp   Done                     01/01/2019 22:25:33
00024 suncat0267 pw.x -in pw.inp   Done                     01/01/2019 22:25:33
00025 suncat0267 pw.x -in pw.inp   Done                     01/01/2019 22:25:33
00026 suncat0267 pw.x -in pw.inp   Done                     01/01/2019 22:25:33
00027 suncat0267 pw.x -in pw.inp   Done                     01/01/2019 22:25:33
00028 suncat0267 pw.x -in pw.inp   Done                     01/01/2019 22:25:33
00029 suncat0267 pw.x -in pw.inp   Done                     01/01/2019 22:25:33
00030 suncat0267 pw.x -in pw.inp   Done                     01/01/2019 22:25:33
00031 suncat0267 pw.x -in pw.inp   Done                     01/01/2019 22:25:33
00032 suncat0254 pw.x -in pw.inp   Done                     01/01/2019 22:25:33
00033 suncat0254 pw.x -in pw.inp   Done                     01/01/2019 22:25:33
00034 suncat0254 pw.x -in pw.inp   Done                     01/01/2019 22:25:33
00035 suncat0254 pw.x -in pw.inp   Done                     01/01/2019 22:25:33
00036 suncat0254 pw.x -in pw.inp   Done                     01/01/2019 22:25:33
00037 suncat0254 pw.x -in pw.inp   Done                     01/01/2019 22:25:33
00038 suncat0254 pw.x -in pw.inp   Done                     01/01/2019 22:25:33
00039 suncat0254 pw.x -in pw.inp   Done                     01/01/2019 22:25:33
00040 suncat0253 pw.x -in pw.inp   Done                     01/01/2019 22:25:33
00041 suncat0253 pw.x -in pw.inp   Done                     01/01/2019 22:25:33
00042 suncat0253 pw.x -in pw.inp   Done                     01/01/2019 22:25:33
00043 suncat0253 pw.x -in pw.inp   Done                     01/01/2019 22:25:33
00044 suncat0253 pw.x -in pw.inp   Done                     01/01/2019 22:25:33
00045 suncat0253 pw.x -in pw.inp   Done                     01/01/2019 22:25:33
00046 suncat0253 pw.x -in pw.inp   Done                     01/01/2019 22:25:33
00047 suncat0253 pw.x -in pw.inp   Done                     01/01/2019 22:25:33
00048 suncat0228 pw.x -in pw.inp   Done                     01/01/2019 22:25:33
00049 suncat0228 pw.x -in pw.inp   Done                     01/01/2019 22:25:33
00050 suncat0228 pw.x -in pw.inp   Done                     01/01/2019 22:25:33
00051 suncat0228 pw.x -in pw.inp   Done                     01/01/2019 22:25:33
00052 suncat0228 pw.x -in pw.inp   Done                     01/01/2019 22:25:33
00053 suncat0228 pw.x -in pw.inp   Done                     01/01/2019 22:25:33
00054 suncat0228 pw.x -in pw.inp   Done                     01/01/2019 22:25:33
00055 suncat0228 pw.x -in pw.inp   Done                     01/01/2019 22:25:33
00056 suncat0227 pw.x -in pw.inp   Done                     01/01/2019 22:25:33
00057 suncat0227 pw.x -in pw.inp   Done                     01/01/2019 22:25:33
00058 suncat0227 pw.x -in pw.inp   Done                     01/01/2019 22:25:33
00059 suncat0227 pw.x -in pw.inp   Done                     01/01/2019 22:25:33
00060 suncat0227 pw.x -in pw.inp   Done                     01/01/2019 22:25:33
00061 suncat0227 pw.x -in pw.inp   Done                     01/01/2019 22:25:33
00062 suncat0227 pw.x -in pw.inp   Done                     01/01/2019 22:25:33
00063 suncat0227 pw.x -in pw.inp   Done                     01/01/2019 22:25:33