     Program PWSCF v.5.1rc2 (svn rev. 11289) starts on 26Dec2018 at 12:34:10

     Current dimensions of program PWSCF are:
     Max number of different atomic species (ntypx) = 10
     Max number of k-points (npk) =  40000
     Max angular momentum in pseudopotentials (lmaxx) =  3
     Presently stress not available with electric field

     IMPORTANT: XC functional enforced from input :
     Exchange-correlation      = BEEF-VDW ( 1  4 27 13 2)
     Any further DFT definition will be discarded
     Please, verify this is what you really want

     Subspace diagonalization in iterative solution of the eigenvalue problem:
     a serial algorithm will be used

     Generating pointlists ...
     new r_m :   0.4125 (alat units)  0.7795 (a.u.) for type    1
     new r_m :   0.4125 (alat units)  0.7795 (a.u.) for type    2

     bravais-lattice index     =            0
     lattice parameter (alat)  =       1.8897  a.u.
     unit-cell volume          =    5728.7227 (a.u.)^3
     number of atoms/cell      =           12
     number of atomic types    =            2
     number of electrons       =       171.00
     number of Kohn-Sham states=          115
     kinetic-energy cutoff     =      36.7493  Ry
     charge density cutoff     =     367.4932  Ry
     convergence threshold     =      1.0E-06
     mixing beta               =       0.1000
     number of iterations used =           10  plain     mixing
     Exchange-correlation      = BEEF-VDW ( 1  4 27 13 2)
     nstep                     =           50

     celldm(1)=   1.889726  celldm(2)=   0.000000  celldm(3)=   0.000000
     celldm(4)=   0.000000  celldm(5)=   0.000000  celldm(6)=   0.000000

     crystal axes: (cart. coord. in units of alat)
               a(1) = (   6.248975   0.000000   0.000000 )
               a(2) = (  -3.124488   5.411771   0.000000 )
               a(3) = (   0.000000   0.000000  25.102267 )

     reciprocal axes: (cart. coord. in units 2 pi/alat)
               b(1) = (  0.160026  0.092391  0.000000 )
               b(2) = (  0.000000  0.184782  0.000000 )
               b(3) = (  0.000000  0.000000  0.039837 )

     PseudoPot. # 1 for In read from file:
     /afs/slac.stanford.edu/u/if/mamunm/psp/gbrv1.5pbe/In.UPF
     MD5 check sum: 90777abd96fbb83f2e67db2a40c566b9
     Pseudo is Ultrasoft + core correction, Zval = 13.0
     Generated by new atomic code, or converted to UPF format
     Using radial grid of  889 points,  6 beta functions with:
                l(1) =   0
                l(2) =   0
                l(3) =   1
                l(4) =   1
                l(5) =   2
                l(6) =   2
     Q(r) pseudized with  6 coefficients,  rinner =    1.400   1.400   1.400
                                                       1.400   1.400

     PseudoPot. # 2 for Ni read from file:
     /afs/slac.stanford.edu/u/if/mamunm/psp/gbrv1.5pbe/Ni.UPF
     MD5 check sum: 1ee80287db30b12d2bc1f57a5b5d6409
     Pseudo is Ultrasoft + core correction, Zval = 18.0
     Generated by new atomic code, or converted to UPF format
     Using radial grid of  865 points,  6 beta functions with:
                l(1) =   0
                l(2) =   0
                l(3) =   1
                l(4) =   1
                l(5) =   2
                l(6) =   2
     Q(r) pseudized with 10 coefficients,  rinner =    0.980   0.980   0.980
                                                       0.980   0.980

     vdW kernel table read from file vdW_kernel_table
     MD5 check sum: 095c7af220d748ca6e76c0b4c6cfb241

     atomic species   valence    mass     pseudopotential
        In1           13.00   114.81800     In( 1.00)
        Ni1           18.00    58.69340     Ni( 1.00)

     Starting magnetic structure
     atomic species   magnetization
        In1          0.154
        Ni1          0.111

     No symmetry found

   Cartesian axes

     site n.     atom                  positions (alat units)
         1           In1 tau(   1) = (   0.0000000   0.0000000  10.0000000  )
         2           In1 tau(   2) = (  -1.5622438   2.7058857  10.0000000  )
         3           In1 tau(   3) = (   1.5622438   2.7058857  10.0000000  )
         4           Ni1 tau(   4) = (   3.1244877   0.0000000  10.0000000  )
         5           In1 tau(   5) = (   3.1244877   1.8039238  12.5511335  )
         6           In1 tau(   6) = (   1.5622438   4.5098095  12.5511335  )
         7           In1 tau(   7) = (  -1.5622438   4.5098095  12.5511335  )
         8           Ni1 tau(   8) = (   0.0000000   1.8039238  12.5511335  )
         9           In1 tau(   9) = (  -0.0000000   3.6078476  15.1022670  )
        10           In1 tau(  10) = (   1.5622438   0.9019619  15.1022670  )
        11           In1 tau(  11) = (   4.6867315   0.9019619  15.1022670  )
        12           Ni1 tau(  12) = (   3.1244877   3.6078476  15.1022670  )

     number of k points=    40  Fermi-Dirac smearing, width (Ry)=  0.0110
                       cart. coord. in units 2pi/alat
        k(    1) = (   0.0000000   0.0000000   0.0000000), wk =   0.0277778
        k(    2) = (   0.0000000   0.0307971   0.0000000), wk =   0.0555556
        k(    3) = (   0.0000000   0.0615941   0.0000000), wk =   0.0555556
        k(    4) = (   0.0000000  -0.0923912   0.0000000), wk =   0.0277778
        k(    5) = (   0.0266710   0.0153985   0.0000000), wk =   0.0555556
        k(    6) = (   0.0266710   0.0461956   0.0000000), wk =   0.0555556
        k(    7) = (   0.0266710   0.0769927   0.0000000), wk =   0.0555556
        k(    8) = (   0.0266710  -0.0769927   0.0000000), wk =   0.0555556
        k(    9) = (   0.0266710  -0.0461956   0.0000000), wk =   0.0555556
        k(   10) = (   0.0266710  -0.0153985   0.0000000), wk =   0.0555556
        k(   11) = (   0.0533421   0.0307971   0.0000000), wk =   0.0555556
        k(   12) = (   0.0533421   0.0615941   0.0000000), wk =   0.0555556
        k(   13) = (   0.0533421   0.0923912   0.0000000), wk =   0.0555556
        k(   14) = (   0.0533421  -0.0615941   0.0000000), wk =   0.0555556
        k(   15) = (   0.0533421  -0.0307971   0.0000000), wk =   0.0555556
        k(   16) = (   0.0533421   0.0000000   0.0000000), wk =   0.0555556
        k(   17) = (  -0.0800131  -0.0461956   0.0000000), wk =   0.0277778
        k(   18) = (  -0.0800131  -0.0153985   0.0000000), wk =   0.0555556
        k(   19) = (  -0.0800131   0.0153985   0.0000000), wk =   0.0555556
        k(   20) = (  -0.0800131  -0.1385868   0.0000000), wk =   0.0277778
        k(   21) = (   0.0000000   0.0000000   0.0000000), wk =   0.0277778
        k(   22) = (   0.0000000   0.0307971   0.0000000), wk =   0.0555556
        k(   23) = (   0.0000000   0.0615941   0.0000000), wk =   0.0555556
        k(   24) = (   0.0000000  -0.0923912   0.0000000), wk =   0.0277778
        k(   25) = (   0.0266710   0.0153985   0.0000000), wk =   0.0555556
        k(   26) = (   0.0266710   0.0461956   0.0000000), wk =   0.0555556
        k(   27) = (   0.0266710   0.0769927   0.0000000), wk =   0.0555556
        k(   28) = (   0.0266710  -0.0769927   0.0000000), wk =   0.0555556
        k(   29) = (   0.0266710  -0.0461956   0.0000000), wk =   0.0555556
        k(   30) = (   0.0266710  -0.0153985   0.0000000), wk =   0.0555556
        k(   31) = (   0.0533421   0.0307971   0.0000000), wk =   0.0555556
        k(   32) = (   0.0533421   0.0615941   0.0000000), wk =   0.0555556
        k(   33) = (   0.0533421   0.0923912   0.0000000), wk =   0.0555556
        k(   34) = (   0.0533421  -0.0615941   0.0000000), wk =   0.0555556
        k(   35) = (   0.0533421  -0.0307971   0.0000000), wk =   0.0555556
        k(   36) = (   0.0533421   0.0000000   0.0000000), wk =   0.0555556
        k(   37) = (  -0.0800131  -0.0461956   0.0000000), wk =   0.0277778
        k(   38) = (  -0.0800131  -0.0153985   0.0000000), wk =   0.0555556
        k(   39) = (  -0.0800131   0.0153985   0.0000000), wk =   0.0555556
        k(   40) = (  -0.0800131  -0.1385868   0.0000000), wk =   0.0277778

     Largest allocated arrays     est. size (Mb)     dimensions
     Largest temporary arrays     est. size (Mb)     dimensions

     Initial potential from superposition of free atoms
     Check: negative starting charge=(component1):   -0.000293
     Check: negative starting charge=(component2):   -0.000233

     starting charge  151.50000, renormalised to  171.00000

     negative rho (up, down):  3.312E-04 2.635E-04

     *
     * You are using vdW-DF for exchange-correlation in this calculation.
     * Please cite the following three references that made this development
     * possible:
     *
     *   M. Dion, H. Rydberg, E. Schroder, D. C. Langreth, and
     *   B. I. Lundqvist, Phys. Rev. Lett. 92, 246401 (2004).
     *
     *   T. Thonhauser, V. R. Cooper, S. Li, A. Puzder, P. Hyldgaard, and
     *   D. C. Langreth, Phys. Rev. B 76, 125112 (2007).
     *
     *   G. Roman-Perez and J. M. Soler, Phys. Rev. Lett. 103, 096102 (2009).
     *
     *
     * If you are using vdW-DF2, please also cite:
     *
     *   K. Lee, E. D. Murray, L. Kong, B. I. Lundqvist, and
     *   D. C. Langreth, Phys. Rev. B 82, 081101(R) (2010).
     *
     *
     * If you are calculating the stress with vdW-DF, please also cite:
     *
     *   R. Sabatini, E. Kucukbenli, B. Kolb, T. Thonhauser, and
     *   S. de Gironcoli, J. Phys.: Condens. Matter 24, 424209 (2012).
     *

     Carrying out vdW-DF run using the following parameters:

     Nqs =      20    Nr_points =    1024   r_max =   100.000
     q_mesh =
               0.00001000     0.04494208     0.09755937     0.15916263
               0.23128650     0.31572767     0.41458969     0.53033537
               0.66584808     0.82450364     1.01025438     1.22772762
               1.48234092     1.78043706     2.12944203     2.53805004
               3.01644009     3.57652955     4.23227104     5.00000000

     Gradients computed in reciprocal space

     Adding external electric field

     Computed dipole along edir(3) :
        Dipole               -0.0000 Ry au,         -0.0000 Debye
        Dipole field         -0.0000 Ry au

        Potential amp.        0.0000 Ry
        Total length         46.2505 bohr

[...]

     Starting wfc are  120 randomized atomic wfcs

     Self-consistent Calculation

     iteration #  1     ecut=    36.75 Ry     beta=0.10
     Davidson diagonalization with overlap
     ethr =  1.00E-02,  avg # of iterations =  8.9

[...]

     Magnetic moment per site:
     atom:    1    charge:    3.3298    magn:    0.4806    constr:    0.0000
     atom:    2    charge:    3.3217    magn:    0.4794    constr:    0.0000
     atom:    3    charge:    3.3217    magn:    0.4794    constr:    0.0000
     atom:    4    charge:    9.9639    magn:    1.0581    constr:    0.0000
     atom:    5    charge:    3.3209    magn:    0.4793    constr:    0.0000
     atom:    6    charge:    3.3262    magn:    0.4801    constr:    0.0000
     atom:    7    charge:    3.3262    magn:    0.4801    constr:    0.0000
     atom:    8    charge:    9.9682    magn:    1.0586    constr:    0.0000
[...]
        k(    1) = (   0.0000000   0.0000000   0.0000000), wk =   0.0277778
        k(    2) = (   0.0000000   0.0307971   0.0000000), wk =   0.0555556
        k(    3) = (   0.0000000   0.0615941   0.0000000), wk =   0.0555556
        k(    4) = (   0.0000000  -0.0923912   0.0000000), wk =   0.0277778
        k(    5) = (   0.0266710   0.0153985   0.0000000), wk =   0.0555556
        k(    6) = (   0.0266710   0.0461956   0.0000000), wk =   0.0555556
        k(    7) = (   0.0266710   0.0769927   0.0000000), wk =   0.0555556
        k(    8) = (   0.0266710  -0.0769927   0.0000000), wk =   0.0555556
        k(    9) = (   0.0266710  -0.0461956   0.0000000), wk =   0.0555556
        k(   10) = (   0.0266710  -0.0153985   0.0000000), wk =   0.0555556
        k(   11) = (   0.0533421   0.0307971   0.0000000), wk =   0.0555556
        k(   12) = (   0.0533421   0.0615941   0.0000000), wk =   0.0555556
        k(   13) = (   0.0533421   0.0923912   0.0000000), wk =   0.0555556
        k(   14) = (   0.0533421  -0.0615941   0.0000000), wk =   0.0555556
        k(   15) = (   0.0533421  -0.0307971   0.0000000), wk =   0.0555556
        k(   16) = (   0.0533421   0.0000000   0.0000000), wk =   0.0555556
        k(   17) = (  -0.0800131  -0.0461956   0.0000000), wk =   0.0277778
        k(   18) = (  -0.0800131  -0.0153985   0.0000000), wk =   0.0555556
        k(   19) = (  -0.0800131   0.0153985   0.0000000), wk =   0.0555556
        k(   20) = (  -0.0800131  -0.1385868   0.0000000), wk =   0.0277778
        k(   21) = (   0.0000000   0.0000000   0.0000000), wk =   0.0277778
        k(   22) = (   0.0000000   0.0307971   0.0000000), wk =   0.0555556
        k(   23) = (   0.0000000   0.0615941   0.0000000), wk =   0.0555556
        k(   24) = (   0.0000000  -0.0923912   0.0000000), wk =   0.0277778
        k(   25) = (   0.0266710   0.0153985   0.0000000), wk =   0.0555556
        k(   26) = (   0.0266710   0.0461956   0.0000000), wk =   0.0555556
        k(   27) = (   0.0266710   0.0769927   0.0000000), wk =   0.0555556
        k(   28) = (   0.0266710  -0.0769927   0.0000000), wk =   0.0555556
        k(   29) = (   0.0266710  -0.0461956   0.0000000), wk =   0.0555556
        k(   30) = (   0.0266710  -0.0153985   0.0000000), wk =   0.0555556
        k(   31) = (   0.0533421   0.0307971   0.0000000), wk =   0.0555556
        k(   32) = (   0.0533421   0.0615941   0.0000000), wk =   0.0555556
        k(   33) = (   0.0533421   0.0923912   0.0000000), wk =   0.0555556
        k(   34) = (   0.0533421  -0.0615941   0.0000000), wk =   0.0555556
        k(   35) = (   0.0533421  -0.0307971   0.0000000), wk =   0.0555556
        k(   36) = (   0.0533421   0.0000000   0.0000000), wk =   0.0555556
        k(   37) = (  -0.0800131  -0.0461956   0.0000000), wk =   0.0277778
        k(   38) = (  -0.0800131  -0.0153985   0.0000000), wk =   0.0555556
        k(   39) = (  -0.0800131   0.0153985   0.0000000), wk =   0.0555556
        k(   40) = (  -0.0800131  -0.1385868   0.0000000), wk =   0.0277778

     Largest allocated arrays     est. size (Mb)     dimensions
     Largest temporary arrays     est. size (Mb)     dimensions

     Initial potential from superposition of free atoms
     Check: negative starting charge=(component1):   -0.000286
     Check: negative starting charge=(component2):   -0.000227

     starting charge  151.50000, renormalised to  171.00000

[...]

     *
     * You are using vdW-DF for exchange-correlation in this calculation.
     * Please cite the following three references that made this development
     * possible:
     *
     *   M. Dion, H. Rydberg, E. Schroder, D. C. Langreth, and
     *   B. I. Lundqvist, Phys. Rev. Lett. 92, 246401 (2004).
     *
     *   T. Thonhauser, V. R. Cooper, S. Li, A. Puzder, P. Hyldgaard, and
     *   D. C. Langreth, Phys. Rev. B 76, 125112 (2007).
     *
     *   G. Roman-Perez and J. M. Soler, Phys. Rev. Lett. 103, 096102 (2009).
     *
     *
     * If you are using vdW-DF2, please also cite:
     *
     *   K. Lee, E. D. Murray, L. Kong, B. I. Lundqvist, and
     *   D. C. Langreth, Phys. Rev. B 82, 081101(R) (2010).
     *
     *
     * If you are calculating the stress with vdW-DF, please also cite:
     *
     *   R. Sabatini, E. Kucukbenli, B. Kolb, T. Thonhauser, and
     *   S. de Gironcoli, J. Phys.: Condens. Matter 24, 424209 (2012).
     *

     Carrying out vdW-DF run using the following parameters:

     Nqs =      20    Nr_points =    1024   r_max =   100.000
     q_mesh =
               0.00001000     0.04494208     0.09755937     0.15916263
               0.23128650     0.31572767     0.41458969     0.53033537
               0.66584808     0.82450364     1.01025438     1.22772762
               1.48234092     1.78043706     2.12944203     2.53805004
               3.01644009     3.57652955     4.23227104     5.00000000

     Gradients computed in reciprocal space

[...]

     Starting wfc are  120 randomized atomic wfcs

     Self-consistent Calculation

[...]

     total energy              =   -2246.10831480 Ry
     Harris-Foulkes estimate   =   -2246.10831282 Ry
     estimated scf accuracy    <       0.00000100 Ry

[...]

     iteration # 38     ecut=    36.75 Ry     beta=0.10
     Davidson diagonalization with overlap
     ethr =  5.85E-10,  avg # of iterations =  2.5

[...]

     negative rho (up, down):  6.951E-04 6.949E-04

[...]

     Adding external electric field

     Computed dipole along edir(3) :
        Dipole                0.0768 Ry au,          0.1951 Debye
        Dipole field          0.0002 Ry au

        Potential amp.       -0.0156 Ry
        Total length         46.2505 bohr

     Magnetic moment per site:
     atom:    1    charge:    3.0738    magn:    0.0000    constr:    0.0000
     atom:    2    charge:    3.0664    magn:    0.0000    constr:    0.0000
     atom:    3    charge:    3.0664    magn:    0.0000    constr:    0.0000
     atom:    4    charge:    9.3716    magn:    0.0037    constr:    0.0000
     atom:    5    charge:    3.0677    magn:   -0.0000    constr:    0.0000
     atom:    6    charge:    3.0725    magn:   -0.0000    constr:    0.0000
     atom:    7    charge:    3.0725    magn:   -0.0000    constr:    0.0000
     atom:    8    charge:    9.3704    magn:   -0.0022    constr:    0.0000
     atom:    9    charge:    3.0663    magn:   -0.0000    constr:    0.0000
     atom:   10    charge:    3.0663    magn:   -0.0000    constr:    0.0000
     atom:   11    charge:    3.0663    magn:   -0.0000    constr:    0.0000
     atom:   12    charge:    9.3676    magn:    0.0010    constr:    0.0000

     End of self-consistent calculation

 ------ SPIN UP ------------

[...]

 ------ SPIN DOWN ----------

[...]

          k = 0.0533 0.0000 0.0000 ( 21577 PWs)   bands (ev):

[...]

          k =-0.0800-0.1386 0.0000 ( 21536 PWs)   bands (ev):

  -101.9538-101.9308-101.8180 -62.3792 -62.3792 -62.3698 -62.3698 -62.3479
   -62.2826 -62.2826 -62.2818 -62.1373 -14.6577 -14.5731 -14.5669 -14.5443
   -14.5293 -14.5087 -14.4849 -14.4613 -14.4479 -14.4387 -14.4111 -14.4071
   -14.3804 -14.3706 -14.3572 -14.3492 -14.3492 -14.3202 -14.3100 -14.3038
   -14.2995 -14.2935 -14.2848 -14.2767 -14.2724 -14.2719 -14.2580 -14.2487
   -14.2449 -14.2406 -14.2279 -14.2273 -14.2184 -14.2176 -14.2093 -14.2022
   -14.1834 -14.1832 -14.1648 -14.1547 -14.1507 -14.1237 -14.0808 -14.0373
   -14.0103  -7.4878  -7.0625  -5.8560  -5.6600  -4.6241  -4.5074  -3.9219
    -3.1496  -2.7241  -2.0728  -1.5527  -1.2141  -0.9119  -0.8215  -0.7224
    -0.7148  -0.7057  -0.5201  -0.5005  -0.4496  -0.3454  -0.2842  -0.2665
    -0.1700  -0.1370   0.1157   0.2318   0.4766   0.7529   1.7162   1.8988
     2.0191   2.0669   2.3405   2.8600   3.1474   3.2536   3.2554   3.3927
     3.8741   4.0288   4.3261   4.5893   4.7699   4.8558   4.9332   5.4039
     5.4891   5.5029   5.5347   5.5567   5.7683   5.9212   6.1468   6.1741
     6.4435   6.5450   6.6072

     the Fermi energy is     0.5442 ev

!    total energy              =   -2246.10832007 Ry
     Harris-Foulkes estimate   =   -2246.10831440 Ry
     estimated scf accuracy    <       0.00000087 Ry

     The total energy is the sum of the following terms:

     one-electron contribution =  -13195.72864514 Ry
     hartree contribution      =    6661.31415399 Ry
     xc contribution           =    -462.59357886 Ry
     ewald contribution        =    4750.94545447 Ry
     electric field correction =       0.00001293 Ry
     smearing contrib. (-TS)   =      -0.04571745 Ry

     total magnetization       =     0.01 Bohr mag/cell
     absolute magnetization    =     0.02 Bohr mag/cell

     convergence has been achieved in  38 iterations

 BEEF-vdW xc energy contributions
           1 :   -405.824542922457
           2 :    370.137669278932
           3 :   -310.028066999600
           4 :    242.673590436518
           5 :   -183.679285851559
           6 :    141.309439520279
           7 :   -114.996382945223
           8 :    98.1922825206550
           9 :   -83.4110310097590
          10 :    66.4417552620405
          11 :   -47.6732872663873
          12 :    30.4297961239271
          13 :   -17.9648305986773
          14 :    11.2069104485418
          15 :   -8.48109108304902
          16 :    6.94842512366091
          17 :   -4.49098070752530
          18 :   0.741567176258513
          19 :    3.21130998684902
          20 :   -5.97178610981575
          21 :    6.90232146847649
          22 :   -6.43023613229911
          23 :    5.55785404593371
          24 :   -5.09458033734177
          25 :    5.20227675936388
          26 :   -5.50542558012523
          27 :    5.54931455953840
          28 :   -5.18799075691561
          29 :    4.62052040379024
          30 :   -4.13267330665070
          31 :   -36.0090413964276
          32 :   -25.9153719755523

     Forces acting on atoms (Ry/au):

     negative rho (up, down):  6.951E-04 6.949E-04
     atom    1 type  1   force =    -0.00000003    0.01651484   -0.01514430
     atom    2 type  1   force =     0.01430796   -0.00826937   -0.01514679
     atom    3 type  1   force =    -0.01430797   -0.00826930   -0.01514673
     atom    4 type  2   force =     0.00000002   -0.00000387    0.03044403
     atom    5 type  1   force =    -0.00000003   -0.01251998    0.00799856
     atom    6 type  1   force =    -0.01083067    0.00624800    0.00800306
     atom    7 type  1   force =     0.01083067    0.00624801    0.00800304
     atom    8 type  2   force =     0.00000017   -0.00001079   -0.00353718
     atom    9 type  1   force =    -0.00000004   -0.00013235   -0.00119422
     atom   10 type  1   force =    -0.00013415    0.00010366   -0.00119652
     atom   11 type  1   force =     0.00013416    0.00010374   -0.00119640
     atom   12 type  2   force =    -0.00000009   -0.00001259   -0.00188655

     Total force =     0.055820     Total SCF correction =     0.003542

     entering subroutine stress ...

     negative rho (up, down):  6.951E-04 6.949E-04
          total   stress  (Ry/bohr**3)                   (kbar)     P=  -16.53
  -0.00013594   0.00000000  -0.00000000        -20.00      0.00     -0.00
   0.00000000  -0.00013597  -0.00000000          0.00    -20.00     -0.00
  -0.00000000  -0.00000000  -0.00006514         -0.00     -0.00     -9.58

 !ASE

     Writing output data file calc.save

     General routines

     Parallel routines

   This run was terminated on:  21:28: 0  26Dec2018

   JOB DONE.
Job  /afs/slac/g/suncat/bin/suncat-tsmpirun -x LD_LIBRARY_PATH -wdir /scratch/qe109881_csZuK pw.x -in pw.inp

TID   HOST_NAME   COMMAND_LINE            STATUS            TERMINATION_TIME
00000 suncat0075 pw.x -in pw.inp   Done                     12/26/2018 21:28:00
00001 suncat0075 pw.x -in pw.inp   Done                     12/26/2018 21:28:00
00002 suncat0075 pw.x -in pw.inp   Done                     12/26/2018 21:28:00
00003 suncat0075 pw.x -in pw.inp   Done                     12/26/2018 21:28:00
00004 suncat0075 pw.x -in pw.inp   Done                     12/26/2018 21:28:00
00005 suncat0075 pw.x -in pw.inp   Done                     12/26/2018 21:28:00
00006 suncat0075 pw.x -in pw.inp   Done                     12/26/2018 21:28:00
00007 suncat0075 pw.x -in pw.inp   Done                     12/26/2018 21:28:00
00008 suncat0074 pw.x -in pw.inp   Done                     12/26/2018 21:28:00
00009 suncat0074 pw.x -in pw.inp   Done                     12/26/2018 21:28:00
00010 suncat0074 pw.x -in pw.inp   Done                     12/26/2018 21:28:00
00011 suncat0074 pw.x -in pw.inp   Done                     12/26/2018 21:28:00
00012 suncat0074 pw.x -in pw.inp   Done                     12/26/2018 21:28:00
00013 suncat0074 pw.x -in pw.inp   Done                     12/26/2018 21:28:00
00014 suncat0074 pw.x -in pw.inp   Done                     12/26/2018 21:28:00
00015 suncat0074 pw.x -in pw.inp   Done                     12/26/2018 21:28:00
00016 suncat0172 pw.x -in pw.inp   Done                     12/26/2018 21:28:00
00017 suncat0172 pw.x -in pw.inp   Done                     12/26/2018 21:28:00
00018 suncat0172 pw.x -in pw.inp   Done                     12/26/2018 21:28:00
00019 suncat0172 pw.x -in pw.inp   Done                     12/26/2018 21:28:00
00020 suncat0172 pw.x -in pw.inp   Done                     12/26/2018 21:28:00
00021 suncat0172 pw.x -in pw.inp   Done                     12/26/2018 21:28:00
00022 suncat0172 pw.x -in pw.inp   Done                     12/26/2018 21:28:00
00023 suncat0172 pw.x -in pw.inp   Done                     12/26/2018 21:28:00
00024 suncat0171 pw.x -in pw.inp   Done                     12/26/2018 21:28:00
00025 suncat0171 pw.x -in pw.inp   Done                     12/26/2018 21:28:00
00026 suncat0171 pw.x -in pw.inp   Done                     12/26/2018 21:28:00
00027 suncat0171 pw.x -in pw.inp   Done                     12/26/2018 21:28:00
00028 suncat0171 pw.x -in pw.inp   Done                     12/26/2018 21:28:00
00029 suncat0171 pw.x -in pw.inp   Done                     12/26/2018 21:28:00
00030 suncat0171 pw.x -in pw.inp   Done                     12/26/2018 21:28:00
00031 suncat0171 pw.x -in pw.inp   Done                     12/26/2018 21:28:00
00032 suncat0270 pw.x -in pw.inp   Done                     12/26/2018 21:28:00
00033 suncat0270 pw.x -in pw.inp   Done                     12/26/2018 21:28:00
00034 suncat0270 pw.x -in pw.inp   Done                     12/26/2018 21:28:00
00035 suncat0270 pw.x -in pw.inp   Done                     12/26/2018 21:28:00
00036 suncat0270 pw.x -in pw.inp   Done                     12/26/2018 21:28:00
00037 suncat0270 pw.x -in pw.inp   Done                     12/26/2018 21:28:00
00038 suncat0270 pw.x -in pw.inp   Done                     12/26/2018 21:28:00
00039 suncat0270 pw.x -in pw.inp   Done                     12/26/2018 21:28:00
00040 suncat0268 pw.x -in pw.inp   Done                     12/26/2018 21:28:00
00041 suncat0268 pw.x -in pw.inp   Done                     12/26/2018 21:28:00
00042 suncat0268 pw.x -in pw.inp   Done                     12/26/2018 21:28:00
00043 suncat0268 pw.x -in pw.inp   Done                     12/26/2018 21:28:00
00044 suncat0268 pw.x -in pw.inp   Done                     12/26/2018 21:28:00
00045 suncat0268 pw.x -in pw.inp   Done                     12/26/2018 21:28:00
00046 suncat0268 pw.x -in pw.inp   Done                     12/26/2018 21:28:00
00047 suncat0268 pw.x -in pw.inp   Done                     12/26/2018 21:28:00
00048 suncat0207 pw.x -in pw.inp   Done                     12/26/2018 21:28:00
00049 suncat0207 pw.x -in pw.inp   Done                     12/26/2018 21:28:00
00050 suncat0207 pw.x -in pw.inp   Done                     12/26/2018 21:28:00
00051 suncat0207 pw.x -in pw.inp   Done                     12/26/2018 21:28:00
00052 suncat0207 pw.x -in pw.inp   Done                     12/26/2018 21:28:00
00053 suncat0207 pw.x -in pw.inp   Done                     12/26/2018 21:28:00
00054 suncat0207 pw.x -in pw.inp   Done                     12/26/2018 21:28:00
00055 suncat0207 pw.x -in pw.inp   Done                     12/26/2018 21:28:00
00056 suncat0206 pw.x -in pw.inp   Done                     12/26/2018 21:28:00
00057 suncat0206 pw.x -in pw.inp   Done                     12/26/2018 21:28:00
00058 suncat0206 pw.x -in pw.inp   Done                     12/26/2018 21:28:00
00059 suncat0206 pw.x -in pw.inp   Done                     12/26/2018 21:28:00
00060 suncat0206 pw.x -in pw.inp   Done                     12/26/2018 21:28:00
00061 suncat0206 pw.x -in pw.inp   Done                     12/26/2018 21:28:00
00062 suncat0206 pw.x -in pw.inp   Done                     12/26/2018 21:28:00
00063 suncat0206 pw.x -in pw.inp   Done                     12/26/2018 21:28:00