     Program PWSCF v.5.1rc2 (svn rev. 11289) starts on 30Dec2018 at 10: 5:30

     Current dimensions of program PWSCF are:
     Max number of different atomic species (ntypx) = 10
     Max number of k-points (npk) =  40000
     Max angular momentum in pseudopotentials (lmaxx) =  3
     Presently stress not available with electric field

     IMPORTANT: XC functional enforced from input :
     Exchange-correlation      = BEEF-VDW ( 1  4 27 13 2)
     Any further DFT definition will be discarded
     Please, verify this is what you really want

     Subspace diagonalization in iterative solution of the eigenvalue problem:
     a serial algorithm will be used

     bravais-lattice index     =            0
     lattice parameter (alat)  =       1.8897  a.u.
     unit-cell volume          =    6060.9217 (a.u.)^3
     number of atoms/cell      =           12
     number of atomic types    =            2
     number of electrons       =       153.00
     number of Kohn-Sham states=          106
     kinetic-energy cutoff     =      36.7493  Ry
     charge density cutoff     =     367.4932  Ry
     convergence threshold     =      1.0E-06
     mixing beta               =       0.1000
     number of iterations used =           10  plain     mixing
     Exchange-correlation      = BEEF-VDW ( 1  4 27 13 2)
     nstep                     =           50

     celldm(1)=   1.889726  celldm(2)=   0.000000  celldm(3)=   0.000000
     celldm(4)=   0.000000  celldm(5)=   0.000000  celldm(6)=   0.000000

     crystal axes: (cart. coord. in units of alat)
               a(1) = (   6.410760   0.000000   0.000000 )
               a(2) = (  -3.205380   5.551881   0.000000 )
               a(3) = (   0.000000   0.000000  25.234364 )

     reciprocal axes: (cart. coord. in units 2 pi/alat)
               b(1) = (  0.155988  0.090060  0.000000 )
               b(2) = (  0.000000  0.180119  0.000000 )
               b(3) = (  0.000000  0.000000  0.039629 )

     PseudoPot. # 1 for In read from file:
     /afs/slac.stanford.edu/u/if/mamunm/psp/gbrv1.5pbe/In.UPF
     MD5 check sum: 90777abd96fbb83f2e67db2a40c566b9
     Pseudo is Ultrasoft + core correction, Zval = 13.0
     Generated by new atomic code, or converted to UPF format
     Using radial grid of  889 points,  6 beta functions with:
                l(1) =   0
                l(2) =   0
                l(3) =   1
                l(4) =   1
                l(5) =   2
                l(6) =   2
     Q(r) pseudized with  6 coefficients,  rinner =    1.400   1.400   1.400
                                                       1.400   1.400

     PseudoPot. # 2 for Hf read from file:
     /afs/slac.stanford.edu/u/if/mamunm/psp/gbrv1.5pbe/Hf.UPF
     MD5 check sum: 8ee9378dfe14276e333edf04c5e4aa26
     Pseudo is Ultrasoft + core correction, Zval = 12.0
     Generated by new atomic code, or converted to UPF format
     Using radial grid of  921 points,  8 beta functions with:
                l(1) =   0
                l(2) =   0
                l(3) =   0
                l(4) =   1
                l(5) =   1
                l(6) =   2
                l(7) =   2
                l(8) =   3
     Q(r) pseudized with  6 coefficients,  rinner =    1.200   1.200   1.200
                                                       1.200   1.200   1.200
                                                       1.200

     vdW kernel table read from file vdW_kernel_table
     MD5 check sum: 095c7af220d748ca6e76c0b4c6cfb241

     atomic species   valence    mass     pseudopotential
        In1           13.00   114.81800     In( 1.00)
        Hf1           12.00   178.49000     Hf( 1.00)

     No symmetry found

   Cartesian axes

     site n.     atom                  positions (alat units)
         1           In1 tau(   1) = (   0.0000000   0.0000000  10.0000000  )
         2           In1 tau(   2) = (  -1.6026901   2.7759406  10.0000000  )
         3           In1 tau(   3) = (   1.6026901   2.7759406  10.0000000  )
         4           Hf1 tau(   4) = (   3.2053802   0.0000000  10.0000000  )
         5           In1 tau(   5) = (   3.2053802   1.8506271  12.6171819  )
         6           In1 tau(   6) = (   1.6026901   4.6265677  12.6171819  )
         7           In1 tau(   7) = (  -1.6026901   4.6265677  12.6171819  )
         8           Hf1 tau(   8) = (   0.0000000   1.8506271  12.6171819  )
         9           In1 tau(   9) = (  -0.0000000   3.7012542  15.2343639  )
        10           In1 tau(  10) = (   1.6026901   0.9253135  15.2343639  )
        11           In1 tau(  11) = (   4.8080702   0.9253135  15.2343639  )
        12           Hf1 tau(  12) = (   3.2053802   3.7012542  15.2343639  )

     number of k points=    20  Fermi-Dirac smearing, width (Ry)=  0.0110
                       cart. coord. in units 2pi/alat
        k(    1) = (   0.0000000   0.0000000   0.0000000), wk =   0.0555556
        k(    2) = (   0.0000000   0.0300199   0.0000000), wk =   0.1111111
        k(    3) = (   0.0000000   0.0600397   0.0000000), wk =   0.1111111
        k(    4) = (   0.0000000  -0.0900596   0.0000000), wk =   0.0555556
        k(    5) = (   0.0259980   0.0150099   0.0000000), wk =   0.1111111
        k(    6) = (   0.0259980   0.0450298   0.0000000), wk =   0.1111111
        k(    7) = (   0.0259980   0.0750496   0.0000000), wk =   0.1111111
        k(    8) = (   0.0259980  -0.0750496   0.0000000), wk =   0.1111111
        k(    9) = (   0.0259980  -0.0450298   0.0000000), wk =   0.1111111
        k(   10) = (   0.0259980  -0.0150099   0.0000000), wk =   0.1111111
        k(   11) = (   0.0519959   0.0300199   0.0000000), wk =   0.1111111
        k(   12) = (   0.0519959   0.0600397   0.0000000), wk =   0.1111111
        k(   13) = (   0.0519959   0.0900596   0.0000000), wk =   0.1111111
        k(   14) = (   0.0519959  -0.0600397   0.0000000), wk =   0.1111111
        k(   15) = (   0.0519959  -0.0300199   0.0000000), wk =   0.1111111
        k(   16) = (   0.0519959   0.0000000   0.0000000), wk =   0.1111111
        k(   17) = (  -0.0779939  -0.0450298   0.0000000), wk =   0.0555556
        k(   18) = (  -0.0779939  -0.0150099   0.0000000), wk =   0.1111111
        k(   19) = (  -0.0779939   0.0150099   0.0000000), wk =   0.1111111
        k(   20) = (  -0.0779939  -0.1350893   0.0000000), wk =   0.0555556

     Largest allocated arrays     est. size (Mb)     dimensions
     Largest temporary arrays     est. size (Mb)     dimensions

     Check: negative/imaginary core charge=   -0.000002    0.000000

     Initial potential from superposition of free atoms
     Check: negative starting charge=   -0.326902

     starting charge  133.49999, renormalised to  153.00000

     negative rho (up, down):  3.747E-01 0.000E+00

     *
     * You are using vdW-DF for exchange-correlation in this calculation.
     * Please cite the following three references that made this development
     * possible:
     *
     *   M. Dion, H. Rydberg, E. Schroder, D. C. Langreth, and
     *   B. I. Lundqvist, Phys. Rev. Lett. 92, 246401 (2004).
     *
     *   T. Thonhauser, V. R. Cooper, S. Li, A. Puzder, P. Hyldgaard, and
     *   D. C. Langreth, Phys. Rev. B 76, 125112 (2007).
     *
     *   G. Roman-Perez and J. M. Soler, Phys. Rev. Lett. 103, 096102 (2009).
     *
     *
     * If you are using vdW-DF2, please also cite:
     *
     *   K. Lee, E. D. Murray, L. Kong, B. I. Lundqvist, and
     *   D. C. Langreth, Phys. Rev. B 82, 081101(R) (2010).
     *
     *
     * If you are calculating the stress with vdW-DF, please also cite:
     *
     *   R. Sabatini, E. Kucukbenli, B. Kolb, T. Thonhauser, and
     *   S. de Gironcoli, J. Phys.: Condens. Matter 24, 424209 (2012).
     *

     Carrying out vdW-DF run using the following parameters:

     Nqs =      20    Nr_points =    1024   r_max =   100.000
     q_mesh =
               0.00001000     0.04494208     0.09755937     0.15916263
               0.23128650     0.31572767     0.41458969     0.53033537
               0.66584808     0.82450364     1.01025438     1.22772762
               1.48234092     1.78043706     2.12944203     2.53805004
               3.01644009     3.57652955     4.23227104     5.00000000

     Gradients computed in reciprocal space

     Adding external electric field

     Computed dipole along edir(3) :
        Dipole               -0.0000 Ry au,         -0.0000 Debye
        Dipole field         -0.0000 Ry au

        Potential amp.        0.0000 Ry
        Total length         46.4939 bohr

     Starting wfc are  120 randomized atomic wfcs

     Self-consistent Calculation

     iteration #  1     ecut=    36.75 Ry     beta=0.10
     Davidson diagonalization with overlap
     ethr =  1.00E-02,  avg # of iterations =  8.1

[...]

     total energy              =   -1689.94172863 Ry
     Harris-Foulkes estimate   =   -1713.96478581 Ry
     estimated scf accuracy    <     138.30383596 Ry

[...]

     End of self-consistent calculation

          k = 0.0000 0.0000 0.0000 ( 22875 PWs)   bands (ev):

   -62.6445 -62.6444 -62.3153 -31.2384 -31.2377 -31.0334 -31.0334 -31.0331
   -31.0331 -30.8209 -30.8209 -30.7898 -14.2296 -14.1733 -14.1730 -14.1640
   -14.0398 -14.0389 -14.0229 -14.0130 -14.0129 -13.9836 -13.9834 -13.9388
   -13.9388 -13.9152 -13.8990 -13.8835 -13.8834 -13.8400 -13.8396 -13.8340
   -13.8335 -13.8220 -13.7992 -13.7763 -13.7763 -13.7648 -13.6877 -13.6877
   -13.6769 -13.6769 -13.6537 -13.6537 -13.6524 -13.6524 -13.6457 -13.6253
   -13.6048 -13.6048 -13.5981 -13.5980 -13.5554 -13.5443 -13.5442 -13.4398
   -13.4389  -8.3348  -6.8060  -4.8861  -3.8378  -3.8376  -3.1683  -3.1683
    -2.5564  -2.2380  -2.2380  -1.9012  -1.3723  -1.2135  -1.2135  -0.7884
     0.2138   0.4021   0.4022   0.4094   0.4094   1.4092   1.4092   1.4454
     1.4454   2.0182   2.0372   2.3158   2.6111   2.6117   2.6117   2.9144
     3.3125   3.3125   3.4068   3.4068   4.0228   4.0229   4.1067   4.3456
     4.6962   5.1553   5.1553   5.3105   5.4033   5.6691   5.7446   5.7447
     5.7946   5.8752

[...]

          k =-0.0780-0.0450 0.0000 ( 22784 PWs)   bands (ev):

[...]

     the Fermi energy is     0.8998 ev

!    total energy              =   -1694.60696207 Ry
     Harris-Foulkes estimate   =   -1694.60695189 Ry
     estimated scf accuracy    <       0.00000074 Ry

     The total energy is the sum of the following terms:

     one-electron contribution =   -9412.58297044 Ry
     hartree contribution      =    4761.86173883 Ry
     xc contribution           =    -584.19038601 Ry
     ewald contribution        =    3540.35185199 Ry
     electric field correction =       0.00000000 Ry
     smearing contrib. (-TS)   =      -0.04719643 Ry

     convergence has been achieved in  17 iterations

 BEEF-vdW xc energy contributions
           1 :   -518.437231895511
           2 :    477.502262591314
           3 :   -407.006240672304
           4 :    324.656314351484
           5 :   -247.396117178083
           6 :    185.690060748631
           7 :   -141.630537282910
           8 :    111.016489556609
           9 :   -87.6129399604877
          10 :    66.9884378948585
          11 :   -48.0884879872040
[...]
     MD5 check sum: 90777abd96fbb83f2e67db2a40c566b9
     Pseudo is Ultrasoft + core correction, Zval = 13.0
     Generated by new atomic code, or converted to UPF format
     Using radial grid of  889 points,  6 beta functions with:
                l(1) =   0
                l(2) =   0
                l(3) =   1
                l(4) =   1
                l(5) =   2
                l(6) =   2
     Q(r) pseudized with  6 coefficients,  rinner =    1.400   1.400   1.400
                                                       1.400   1.400

     PseudoPot. # 2 for Hf read from file:
     /afs/slac.stanford.edu/u/if/mamunm/psp/gbrv1.5pbe/Hf.UPF
     MD5 check sum: 8ee9378dfe14276e333edf04c5e4aa26
     Pseudo is Ultrasoft + core correction, Zval = 12.0
     Generated by new atomic code, or converted to UPF format
     Using radial grid of  921 points,  8 beta functions with:
                l(1) =   0
                l(2) =   0
                l(3) =   0
                l(4) =   1
                l(5) =   1
                l(6) =   2
                l(7) =   2
                l(8) =   3
     Q(r) pseudized with  6 coefficients,  rinner =    1.200   1.200   1.200
                                                       1.200   1.200   1.200
                                                       1.200

     vdW kernel table read from file vdW_kernel_table
     MD5 check sum: 095c7af220d748ca6e76c0b4c6cfb241

     atomic species   valence    mass     pseudopotential
        In1           13.00   114.81800     In( 1.00)
        Hf1           12.00   178.49000     Hf( 1.00)

     No symmetry found

   Cartesian axes

     site n.     atom                  positions (alat units)
         1           In1 tau(   1) = (   0.0000000   0.0000000  10.0000000  )
         2           In1 tau(   2) = (  -1.6026901   2.7759406  10.0000000  )
         3           In1 tau(   3) = (   1.6026901   2.7759406  10.0000000  )
         4           Hf1 tau(   4) = (   3.2053802   0.0000000  10.0000000  )
         5           In1 tau(   5) = (   3.2053802   1.8506271  12.6171819  )
         6           In1 tau(   6) = (   1.6026901   4.6265677  12.6171819  )
         7           In1 tau(   7) = (  -1.6026901   4.6265677  12.6171819  )
         8           Hf1 tau(   8) = (   0.0000000   1.8506271  12.6171819  )
         9           In1 tau(   9) = (  -0.0000011   3.6979029  15.4657567  )
        10           In1 tau(  10) = (   1.5999822   0.9267073  15.4657188  )
        11           In1 tau(  11) = (   4.8107729   0.9267090  15.4657244  )
        12           Hf1 tau(  12) = (   3.2053797   3.7011982  15.0077863  )

     number of k points=    20  Fermi-Dirac smearing, width (Ry)=  0.0110
                       cart. coord. in units 2pi/alat
        k(    1) = (   0.0000000   0.0000000   0.0000000), wk =   0.0555556
        k(    2) = (   0.0000000   0.0300199   0.0000000), wk =   0.1111111
        k(    3) = (   0.0000000   0.0600397   0.0000000), wk =   0.1111111
        k(    4) = (   0.0000000  -0.0900596   0.0000000), wk =   0.0555556
        k(    5) = (   0.0259980   0.0150099   0.0000000), wk =   0.1111111
        k(    6) = (   0.0259980   0.0450298   0.0000000), wk =   0.1111111
        k(    7) = (   0.0259980   0.0750496   0.0000000), wk =   0.1111111
        k(    8) = (   0.0259980  -0.0750496   0.0000000), wk =   0.1111111
        k(    9) = (   0.0259980  -0.0450298   0.0000000), wk =   0.1111111
        k(   10) = (   0.0259980  -0.0150099   0.0000000), wk =   0.1111111
        k(   11) = (   0.0519959   0.0300199   0.0000000), wk =   0.1111111
        k(   12) = (   0.0519959   0.0600397   0.0000000), wk =   0.1111111
        k(   13) = (   0.0519959   0.0900596   0.0000000), wk =   0.1111111
        k(   14) = (   0.0519959  -0.0600397   0.0000000), wk =   0.1111111
        k(   15) = (   0.0519959  -0.0300199   0.0000000), wk =   0.1111111
        k(   16) = (   0.0519959   0.0000000   0.0000000), wk =   0.1111111
        k(   17) = (  -0.0779939  -0.0450298   0.0000000), wk =   0.0555556
        k(   18) = (  -0.0779939  -0.0150099   0.0000000), wk =   0.1111111
        k(   19) = (  -0.0779939   0.0150099   0.0000000), wk =   0.1111111
        k(   20) = (  -0.0779939  -0.1350893   0.0000000), wk =   0.0555556

     Largest allocated arrays     est. size (Mb)     dimensions
     Largest temporary arrays     est. size (Mb)     dimensions

     Check: negative/imaginary core charge=   -0.000002    0.000000

     Initial potential from superposition of free atoms
     Check: negative starting charge=   -0.325453

     starting charge  133.49999, renormalised to  153.00000

[...]

     *
     * You are using vdW-DF for exchange-correlation in this calculation.
     * Please cite the following three references that made this development
     * possible:
     *
     *   M. Dion, H. Rydberg, E. Schroder, D. C. Langreth, and
     *   B. I. Lundqvist, Phys. Rev. Lett. 92, 246401 (2004).
     *
     *   T. Thonhauser, V. R. Cooper, S. Li, A. Puzder, P. Hyldgaard, and
     *   D. C. Langreth, Phys. Rev. B 76, 125112 (2007).
     *
     *   G. Roman-Perez and J. M. Soler, Phys. Rev. Lett. 103, 096102 (2009).
     *
     *
     * If you are using vdW-DF2, please also cite:
     *
     *   K. Lee, E. D. Murray, L. Kong, B. I. Lundqvist, and
     *   D. C. Langreth, Phys. Rev. B 82, 081101(R) (2010).
     *
     *
     * If you are calculating the stress with vdW-DF, please also cite:
     *
     *   R. Sabatini, E. Kucukbenli, B. Kolb, T. Thonhauser, and
     *   S. de Gironcoli, J. Phys.: Condens. Matter 24, 424209 (2012).
     *

     Carrying out vdW-DF run using the following parameters:

     Nqs =      20    Nr_points =    1024   r_max =   100.000
     q_mesh =
               0.00001000     0.04494208     0.09755937     0.15916263
               0.23128650     0.31572767     0.41458969     0.53033537
               0.66584808     0.82450364     1.01025438     1.22772762
               1.48234092     1.78043706     2.12944203     2.53805004
               3.01644009     3.57652955     4.23227104     5.00000000

     Gradients computed in reciprocal space

[...]

     Starting wfc are  120 randomized atomic wfcs

     Self-consistent Calculation

[...]

     total energy              =   -1694.63721423 Ry
     Harris-Foulkes estimate   =   -1694.63721321 Ry
     estimated scf accuracy    <       0.00000106 Ry

     iteration # 20     ecut=    36.75 Ry     beta=0.10
     Davidson diagonalization with overlap
     ethr =  6.94E-10,  avg # of iterations =  2.0

[...]

     negative rho (up, down):  3.431E-01 0.000E+00

     Adding external electric field

     Computed dipole along edir(3) :
        Dipole                0.0231 Ry au,          0.0588 Debye
        Dipole field          0.0000 Ry au

        Potential amp.       -0.0045 Ry
        Total length         46.4939 bohr

     End of self-consistent calculation

[...]

          k = 0.0520 0.0000 0.0000 ( 22786 PWs)   bands (ev):

[...]

          k =-0.0780-0.1351 0.0000 ( 22784 PWs)   bands (ev):

   -62.6143 -62.4439 -62.4149 -31.2055 -31.0054 -31.0043 -31.0038 -30.9031
   -30.9029 -30.8807 -30.8764 -30.8751 -14.0982 -14.0220 -13.9961 -13.9890
   -13.9805 -13.9509 -13.9418 -13.9197 -13.9190 -13.9062 -13.8900 -13.8681
   -13.8582 -13.8489 -13.8367 -13.8288 -13.8102 -13.8060 -13.8010 -13.7935
   -13.7834 -13.7636 -13.7605 -13.7570 -13.7465 -13.7449 -13.7433 -13.7336
   -13.7223 -13.7181 -13.7129 -13.7122 -13.7004 -13.6947 -13.6906 -13.6866
   -13.6778 -13.6595 -13.6521 -13.6451 -13.6249 -13.5973 -13.5807 -13.5477
   -13.5102  -6.9639  -6.6801  -5.4335  -5.3680  -4.4470  -4.2144  -3.7284
    -3.0004  -2.6983  -1.9946  -1.4730  -0.9668  -0.3472  -0.3016  -0.1888
     0.1247   0.2694   0.6230   0.8512   1.1180   1.3128   1.8368   2.2169
     2.2315   2.3046   2.4628   2.5376   2.6170   2.7550   2.9643   3.1885
     3.2541   3.4521   3.4852   3.7488   3.9473   4.1939   4.3970   4.6523
     4.7304   4.8247   5.2165   5.3152   5.3833   5.5349   5.6207   5.8245
     6.1538   6.1816

     the Fermi energy is     0.9010 ev

!    total energy              =   -1694.63721989 Ry
     Harris-Foulkes estimate   =   -1694.63721427 Ry
     estimated scf accuracy    <       0.00000013 Ry

     The total energy is the sum of the following terms:

     one-electron contribution =   -9243.76678145 Ry
     hartree contribution      =    4677.55709433 Ry
     xc contribution           =    -584.11632494 Ry
     ewald contribution        =    3455.73294218 Ry
     electric field correction =       0.00000111 Ry
     smearing contrib. (-TS)   =      -0.04415112 Ry

     convergence has been achieved in  20 iterations

 BEEF-vdW xc energy contributions
           1 :   -518.412355609357
           2 :    477.423874944694
           3 :   -406.866998741184
           4 :    324.503598467370
           5 :   -247.295967761831
           6 :    185.677575820322
           7 :   -141.683396833514
           8 :    111.070959059303
           9 :   -87.6110704449960
          10 :    66.9212336213890
          11 :   -48.0021163644340
          12 :    32.2431895250984
          13 :   -21.1701654348010
          14 :    14.6576171658679
          15 :   -10.7068673261225
          16 :    6.66636971434173
          17 :  -0.866474451656472
          18 :   -6.48363751634861
          19 :    13.6298632204807
          20 :   -18.4875745657318
          21 :    19.8810849694131
          22 :   -18.0851674605640
          23 :    14.4855630236208
          24 :   -10.7395913917541
          25 :    8.01871017259862
          26 :   -6.72463859783011
          27 :    6.67149638069964
          28 :   -7.45033393383130
          29 :    8.67409680256901
          30 :   -10.0061964507768
          31 :   -43.0083144326120
          32 :   -31.2059231480725

     Forces acting on atoms (Ry/au):

     negative rho (up, down):  3.431E-01 0.000E+00
     atom    1 type  1   force =    -0.00000011    0.00330150   -0.02536294
     atom    2 type  1   force =     0.00286141   -0.00165341   -0.02536508
     atom    3 type  1   force =    -0.00286137   -0.00165346   -0.02536549
     atom    4 type  2   force =    -0.00000004    0.00002364    0.05931118
     atom    5 type  1   force =     0.00000042   -0.01270973    0.00087115
     atom    6 type  1   force =    -0.01100454    0.00634944    0.00087203
     atom    7 type  1   force =     0.01100433    0.00634898    0.00087184
     atom    8 type  2   force =     0.00000017    0.00000524    0.01381711
     atom    9 type  1   force =     0.00000005   -0.00040243    0.00017492
     atom   10 type  1   force =    -0.00034310    0.00019877    0.00018173
     atom   11 type  1   force =     0.00034307    0.00019886    0.00018082
     atom   12 type  2   force =    -0.00000030   -0.00000739   -0.00018728

     Total force =     0.078478     Total SCF correction =     0.001137

     entering subroutine stress ...

     negative rho (up, down):  3.431E-01 0.000E+00
          total   stress  (Ry/bohr**3)                   (kbar)     P=  -13.00
  -0.00013314   0.00000000   0.00000000        -19.58      0.00      0.00
   0.00000000  -0.00013315   0.00000001          0.00    -19.59      0.00
   0.00000000   0.00000001   0.00000117          0.00      0.00      0.17

 !ASE

     Writing output data file calc.save

     General routines

     Parallel routines

   This run was terminated on:  13:38: 4  30Dec2018

   JOB DONE.
Job  /afs/slac/g/suncat/bin/suncat-tsmpirun -x LD_LIBRARY_PATH -wdir /scratch/qe648507_hcGVw pw.x -in pw.inp

TID   HOST_NAME   COMMAND_LINE            STATUS            TERMINATION_TIME
00000 suncat0154 pw.x -in pw.inp   Done                     12/30/2018 13:38:04
00001 suncat0154 pw.x -in pw.inp   Done                     12/30/2018 13:38:04
00002 suncat0154 pw.x -in pw.inp   Done                     12/30/2018 13:38:04
00003 suncat0154 pw.x -in pw.inp   Done                     12/30/2018 13:38:04
00004 suncat0154 pw.x -in pw.inp   Done                     12/30/2018 13:38:04
00005 suncat0154 pw.x -in pw.inp   Done                     12/30/2018 13:38:04
00006 suncat0154 pw.x -in pw.inp   Done                     12/30/2018 13:38:04
00007 suncat0154 pw.x -in pw.inp   Done                     12/30/2018 13:38:04
00008 suncat0143 pw.x -in pw.inp   Done                     12/30/2018 13:38:04
00009 suncat0143 pw.x -in pw.inp   Done                     12/30/2018 13:38:04
00010 suncat0143 pw.x -in pw.inp   Done                     12/30/2018 13:38:04
00011 suncat0143 pw.x -in pw.inp   Done                     12/30/2018 13:38:04
00012 suncat0143 pw.x -in pw.inp   Done                     12/30/2018 13:38:04
00013 suncat0143 pw.x -in pw.inp   Done                     12/30/2018 13:38:04
00014 suncat0143 pw.x -in pw.inp   Done                     12/30/2018 13:38:04
00015 suncat0143 pw.x -in pw.inp   Done                     12/30/2018 13:38:04
00016 suncat0108 pw.x -in pw.inp   Done                     12/30/2018 13:38:04
00017 suncat0108 pw.x -in pw.inp   Done                     12/30/2018 13:38:04
00018 suncat0108 pw.x -in pw.inp   Done                     12/30/2018 13:38:04
00019 suncat0108 pw.x -in pw.inp   Done                     12/30/2018 13:38:04
00020 suncat0108 pw.x -in pw.inp   Done                     12/30/2018 13:38:04
00021 suncat0108 pw.x -in pw.inp   Done                     12/30/2018 13:38:04
00022 suncat0108 pw.x -in pw.inp   Done                     12/30/2018 13:38:04
00023 suncat0108 pw.x -in pw.inp   Done                     12/30/2018 13:38:04
00024 suncat0252 pw.x -in pw.inp   Done                     12/30/2018 13:38:04
00025 suncat0252 pw.x -in pw.inp   Done                     12/30/2018 13:38:04
00026 suncat0252 pw.x -in pw.inp   Done                     12/30/2018 13:38:04
00027 suncat0252 pw.x -in pw.inp   Done                     12/30/2018 13:38:04
00028 suncat0252 pw.x -in pw.inp   Done                     12/30/2018 13:38:04
00029 suncat0252 pw.x -in pw.inp   Done                     12/30/2018 13:38:04
00030 suncat0252 pw.x -in pw.inp   Done                     12/30/2018 13:38:04
00031 suncat0252 pw.x -in pw.inp   Done                     12/30/2018 13:38:04
00032 suncat0226 pw.x -in pw.inp   Done                     12/30/2018 13:38:04
00033 suncat0226 pw.x -in pw.inp   Done                     12/30/2018 13:38:04
00034 suncat0226 pw.x -in pw.inp   Done                     12/30/2018 13:38:04
00035 suncat0226 pw.x -in pw.inp   Done                     12/30/2018 13:38:04
00036 suncat0226 pw.x -in pw.inp   Done                     12/30/2018 13:38:04
00037 suncat0226 pw.x -in pw.inp   Done                     12/30/2018 13:38:04
00038 suncat0226 pw.x -in pw.inp   Done                     12/30/2018 13:38:04
00039 suncat0226 pw.x -in pw.inp   Done                     12/30/2018 13:38:04
00040 suncat0225 pw.x -in pw.inp   Done                     12/30/2018 13:38:04
00041 suncat0225 pw.x -in pw.inp   Done                     12/30/2018 13:38:04
00042 suncat0225 pw.x -in pw.inp   Done                     12/30/2018 13:38:04
00043 suncat0225 pw.x -in pw.inp   Done                     12/30/2018 13:38:04
00044 suncat0225 pw.x -in pw.inp   Done                     12/30/2018 13:38:04
00045 suncat0225 pw.x -in pw.inp   Done                     12/30/2018 13:38:04
00046 suncat0225 pw.x -in pw.inp   Done                     12/30/2018 13:38:04
00047 suncat0225 pw.x -in pw.inp   Done                     12/30/2018 13:38:04
00048 suncat0224 pw.x -in pw.inp   Done                     12/30/2018 13:38:04
00049 suncat0224 pw.x -in pw.inp   Done                     12/30/2018 13:38:04
00050 suncat0224 pw.x -in pw.inp   Done                     12/30/2018 13:38:04
00051 suncat0224 pw.x -in pw.inp   Done                     12/30/2018 13:38:04
00052 suncat0224 pw.x -in pw.inp   Done                     12/30/2018 13:38:04
00053 suncat0224 pw.x -in pw.inp   Done                     12/30/2018 13:38:04
00054 suncat0224 pw.x -in pw.inp   Done                     12/30/2018 13:38:04
00055 suncat0224 pw.x -in pw.inp   Done                     12/30/2018 13:38:04
00056 suncat0223 pw.x -in pw.inp   Done                     12/30/2018 13:38:04
00057 suncat0223 pw.x -in pw.inp   Done                     12/30/2018 13:38:04
00058 suncat0223 pw.x -in pw.inp   Done                     12/30/2018 13:38:04
00059 suncat0223 pw.x -in pw.inp   Done                     12/30/2018 13:38:04
00060 suncat0223 pw.x -in pw.inp   Done                     12/30/2018 13:38:04
00061 suncat0223 pw.x -in pw.inp   Done                     12/30/2018 13:38:04
00062 suncat0223 pw.x -in pw.inp   Done                     12/30/2018 13:38:04
00063 suncat0223 pw.x -in pw.inp   Done                     12/30/2018 13:38:04