     Program PWSCF v.5.1rc2 (svn rev. 11289) starts on 28Dec2018 at 21:43:53

     Current dimensions of program PWSCF are:
     Max number of different atomic species (ntypx) = 10
     Max number of k-points (npk) =  40000
     Max angular momentum in pseudopotentials (lmaxx) =  3
     Presently stress not available with electric field

     IMPORTANT: XC functional enforced from input :
     Exchange-correlation      = BEEF-VDW ( 1  4 27 13 2)
     Any further DFT definition will be discarded
     Please, verify this is what you really want

     Subspace diagonalization in iterative solution of the eigenvalue problem:
     a serial algorithm will be used

     Generating pointlists ...
     new r_m :   0.4125 (alat units)  0.7795 (a.u.) for type    1
     new r_m :   0.4125 (alat units)  0.7795 (a.u.) for type    2

     bravais-lattice index     =            0
     lattice parameter (alat)  =       1.8897  a.u.
     unit-cell volume          =    4225.0930 (a.u.)^3
     number of atoms/cell      =           12
     number of atomic types    =            2
     number of electrons       =       183.00
     number of Kohn-Sham states=          121
     kinetic-energy cutoff     =      36.7493  Ry
     charge density cutoff     =     367.4932  Ry
     convergence threshold     =      1.0E-06
     mixing beta               =       0.1000
     number of iterations used =           10  plain     mixing
     Exchange-correlation      = BEEF-VDW ( 1  4 27 13 2)
     nstep                     =           50

     celldm(1)=   1.889726  celldm(2)=   0.000000  celldm(3)=   0.000000
     celldm(4)=   0.000000  celldm(5)=   0.000000  celldm(6)=   0.000000

     crystal axes: (cart. coord. in units of alat)
               a(1) = (   5.438732   0.000000   0.000000 )
               a(2) = (  -2.719366   4.710080   0.000000 )
               a(3) = (   0.000000   0.000000  24.440706 )

     reciprocal axes: (cart. coord. in units 2 pi/alat)
               b(1) = (  0.183866  0.106155  0.000000 )
               b(2) = (  0.000000  0.212311  0.000000 )
               b(3) = (  0.000000  0.000000  0.040915 )

     PseudoPot. # 1 for Fe read from file:
     /afs/slac.stanford.edu/u/if/mamunm/psp/gbrv1.5pbe/Fe.UPF
     MD5 check sum: a130daea23fe5165f5d574ae7f82ed95
     Pseudo is Ultrasoft + core correction, Zval = 16.0
     Generated by new atomic code, or converted to UPF format
     Using radial grid of  861 points,  6 beta functions with:
                l(1) =   0
                l(2) =   0
                l(3) =   1
                l(4) =   1
                l(5) =   2
                l(6) =   2
     Q(r) pseudized with  8 coefficients,  rinner =    1.000   1.000   1.000
                                                       1.000   1.000

     PseudoPot. # 2 for In read from file:
     /afs/slac.stanford.edu/u/if/mamunm/psp/gbrv1.5pbe/In.UPF
     MD5 check sum: 90777abd96fbb83f2e67db2a40c566b9
     Pseudo is Ultrasoft + core correction, Zval = 13.0
     Generated by new atomic code, or converted to UPF format
     Using radial grid of  889 points,  6 beta functions with:
                l(1) =   0
                l(2) =   0
                l(3) =   1
                l(4) =   1
                l(5) =   2
                l(6) =   2
     Q(r) pseudized with  6 coefficients,  rinner =    1.400   1.400   1.400
                                                       1.400   1.400

     vdW kernel table read from file vdW_kernel_table
     MD5 check sum: 095c7af220d748ca6e76c0b4c6cfb241

     atomic species   valence    mass     pseudopotential
        Fe1           16.00    55.84500     Fe( 1.00)
        In1           13.00   114.81800     In( 1.00)

     Starting magnetic structure
     atomic species   magnetization
        Fe1          0.125
        In1          0.154

     No symmetry found

   Cartesian axes

     site n.     atom                  positions (alat units)
         1           Fe1 tau(   1) = (   0.0000000   0.0000000  10.0000000  )
         2           Fe1 tau(   2) = (  -1.3596830   2.3550400  10.0000000  )
         3           Fe1 tau(   3) = (   1.3596830   2.3550400  10.0000000  )
         4           In1 tau(   4) = (   2.7193659   0.0000000  10.0000000  )
         5           Fe1 tau(   5) = (   2.7193659   1.5700266  12.2203530  )
         6           Fe1 tau(   6) = (   1.3596830   3.9250666  12.2203530  )
         7           Fe1 tau(   7) = (  -1.3596830   3.9250666  12.2203530  )
         8           In1 tau(   8) = (   0.0000000   1.5700266  12.2203530  )
         9           Fe1 tau(   9) = (  -0.0000000   3.1400533  14.4407060  )
        10           Fe1 tau(  10) = (   1.3596830   0.7850133  14.4407060  )
        11           Fe1 tau(  11) = (   4.0790489   0.7850133  14.4407060  )
        12           In1 tau(  12) = (   2.7193659   3.1400533  14.4407060  )

     number of k points=    40  Fermi-Dirac smearing, width (Ry)=  0.0110
                       cart. coord. in units 2pi/alat
        k(    1) = (   0.0000000   0.0000000   0.0000000), wk =   0.0277778
        k(    2) = (   0.0000000   0.0353851   0.0000000), wk =   0.0555556
        k(    3) = (   0.0000000   0.0707702   0.0000000), wk =   0.0555556
        k(    4) = (   0.0000000  -0.1061553   0.0000000), wk =   0.0277778
        k(    5) = (   0.0306444   0.0176926   0.0000000), wk =   0.0555556
        k(    6) = (   0.0306444   0.0530777   0.0000000), wk =   0.0555556
        k(    7) = (   0.0306444   0.0884628   0.0000000), wk =   0.0555556
        k(    8) = (   0.0306444  -0.0884628   0.0000000), wk =   0.0555556
        k(    9) = (   0.0306444  -0.0530777   0.0000000), wk =   0.0555556
        k(   10) = (   0.0306444  -0.0176926   0.0000000), wk =   0.0555556
        k(   11) = (   0.0612888   0.0353851   0.0000000), wk =   0.0555556
        k(   12) = (   0.0612888   0.0707702   0.0000000), wk =   0.0555556
        k(   13) = (   0.0612888   0.1061553   0.0000000), wk =   0.0555556
        k(   14) = (   0.0612888  -0.0707702   0.0000000), wk =   0.0555556
        k(   15) = (   0.0612888  -0.0353851   0.0000000), wk =   0.0555556
        k(   16) = (   0.0612888   0.0000000   0.0000000), wk =   0.0555556
        k(   17) = (  -0.0919332  -0.0530777   0.0000000), wk =   0.0277778
        k(   18) = (  -0.0919332  -0.0176926   0.0000000), wk =   0.0555556
        k(   19) = (  -0.0919332   0.0176926   0.0000000), wk =   0.0555556
        k(   20) = (  -0.0919332  -0.1592330   0.0000000), wk =   0.0277778
        k(   21) = (   0.0000000   0.0000000   0.0000000), wk =   0.0277778
        k(   22) = (   0.0000000   0.0353851   0.0000000), wk =   0.0555556
        k(   23) = (   0.0000000   0.0707702   0.0000000), wk =   0.0555556
        k(   24) = (   0.0000000  -0.1061553   0.0000000), wk =   0.0277778
        k(   25) = (   0.0306444   0.0176926   0.0000000), wk =   0.0555556
        k(   26) = (   0.0306444   0.0530777   0.0000000), wk =   0.0555556
        k(   27) = (   0.0306444   0.0884628   0.0000000), wk =   0.0555556
        k(   28) = (   0.0306444  -0.0884628   0.0000000), wk =   0.0555556
        k(   29) = (   0.0306444  -0.0530777   0.0000000), wk =   0.0555556
        k(   30) = (   0.0306444  -0.0176926   0.0000000), wk =   0.0555556
        k(   31) = (   0.0612888   0.0353851   0.0000000), wk =   0.0555556
        k(   32) = (   0.0612888   0.0707702   0.0000000), wk =   0.0555556
        k(   33) = (   0.0612888   0.1061553   0.0000000), wk =   0.0555556
        k(   34) = (   0.0612888  -0.0707702   0.0000000), wk =   0.0555556
        k(   35) = (   0.0612888  -0.0353851   0.0000000), wk =   0.0555556
        k(   36) = (   0.0612888   0.0000000   0.0000000), wk =   0.0555556
        k(   37) = (  -0.0919332  -0.0530777   0.0000000), wk =   0.0277778
        k(   38) = (  -0.0919332  -0.0176926   0.0000000), wk =   0.0555556
        k(   39) = (  -0.0919332   0.0176926   0.0000000), wk =   0.0555556
        k(   40) = (  -0.0919332  -0.1592330   0.0000000), wk =   0.0277778

     Largest allocated arrays     est. size (Mb)     dimensions
     Largest temporary arrays     est. size (Mb)     dimensions

     Check: negative/imaginary core charge=   -0.000006    0.000000

     Initial potential from superposition of free atoms
     Check: negative starting charge=(component1):   -0.000133
     Check: negative starting charge=(component2):   -0.000103

     starting charge  169.49995, renormalised to  183.00000

     negative rho (up, down):  1.439E-04 1.112E-04

     *
     * You are using vdW-DF for exchange-correlation in this calculation.
     * Please cite the following three references that made this development
     * possible:
     *
     *   M. Dion, H. Rydberg, E. Schroder, D. C. Langreth, and
     *   B. I. Lundqvist, Phys. Rev. Lett. 92, 246401 (2004).
     *
     *   T. Thonhauser, V. R. Cooper, S. Li, A. Puzder, P. Hyldgaard, and
     *   D. C. Langreth, Phys. Rev. B 76, 125112 (2007).
     *
     *   G. Roman-Perez and J. M. Soler, Phys. Rev. Lett. 103, 096102 (2009).
     *
     *
     * If you are using vdW-DF2, please also cite:
     *
     *   K. Lee, E. D. Murray, L. Kong, B. I. Lundqvist, and
     *   D. C. Langreth, Phys. Rev. B 82, 081101(R) (2010).
     *
     *
     * If you are calculating the stress with vdW-DF, please also cite:
     *
     *   R. Sabatini, E. Kucukbenli, B. Kolb, T. Thonhauser, and
     *   S. de Gironcoli, J. Phys.: Condens. Matter 24, 424209 (2012).
     *

     Carrying out vdW-DF run using the following parameters:

     Nqs =      20    Nr_points =    1024   r_max =   100.000
     q_mesh =
               0.00001000     0.04494208     0.09755937     0.15916263
               0.23128650     0.31572767     0.41458969     0.53033537
               0.66584808     0.82450364     1.01025438     1.22772762
               1.48234092     1.78043706     2.12944203     2.53805004
               3.01644009     3.57652955     4.23227104     5.00000000

     Gradients computed in reciprocal space

     Adding external electric field

     Computed dipole along edir(3) :
        Dipole               -0.0000 Ry au,         -0.0000 Debye
        Dipole field         -0.0000 Ry au

        Potential amp.        0.0000 Ry
        Total length         45.0316 bohr

[...]

     Starting wfc are  144 randomized atomic wfcs

     Self-consistent Calculation

     iteration #  1     ecut=    36.75 Ry     beta=0.10
     Davidson diagonalization with overlap
     ethr =  1.00E-02,  avg # of iterations =  7.6

[...]

     Magnetic moment per site:
     atom:    1    charge:    7.3093    magn:    0.8834    constr:    0.0000
     atom:    2    charge:    7.3093    magn:    0.8834    constr:    0.0000
     atom:    3    charge:    7.3093    magn:    0.8834    constr:    0.0000
     atom:    4    charge:    3.2371    magn:    0.4590    constr:    0.0000
     atom:    5    charge:    7.2997    magn:    0.8819    constr:    0.0000
     atom:    6    charge:    7.2997    magn:    0.8819    constr:    0.0000
     atom:    7    charge:    7.2997    magn:    0.8819    constr:    0.0000
     atom:    8    charge:    3.2282    magn:    0.4582    constr:    0.0000
[...]
        k(    2) = (   0.0000000   0.0353851   0.0000000), wk =   0.0555556
        k(    3) = (   0.0000000   0.0707702   0.0000000), wk =   0.0555556
        k(    4) = (   0.0000000  -0.1061553   0.0000000), wk =   0.0277778
        k(    5) = (   0.0306444   0.0176926   0.0000000), wk =   0.0555556
        k(    6) = (   0.0306444   0.0530777   0.0000000), wk =   0.0555556
        k(    7) = (   0.0306444   0.0884628   0.0000000), wk =   0.0555556
        k(    8) = (   0.0306444  -0.0884628   0.0000000), wk =   0.0555556
        k(    9) = (   0.0306444  -0.0530777   0.0000000), wk =   0.0555556
        k(   10) = (   0.0306444  -0.0176926   0.0000000), wk =   0.0555556
        k(   11) = (   0.0612888   0.0353851   0.0000000), wk =   0.0555556
        k(   12) = (   0.0612888   0.0707702   0.0000000), wk =   0.0555556
        k(   13) = (   0.0612888   0.1061553   0.0000000), wk =   0.0555556
        k(   14) = (   0.0612888  -0.0707702   0.0000000), wk =   0.0555556
        k(   15) = (   0.0612888  -0.0353851   0.0000000), wk =   0.0555556
        k(   16) = (   0.0612888   0.0000000   0.0000000), wk =   0.0555556
        k(   17) = (  -0.0919332  -0.0530777   0.0000000), wk =   0.0277778
        k(   18) = (  -0.0919332  -0.0176926   0.0000000), wk =   0.0555556
        k(   19) = (  -0.0919332   0.0176926   0.0000000), wk =   0.0555556
        k(   20) = (  -0.0919332  -0.1592330   0.0000000), wk =   0.0277778
        k(   21) = (   0.0000000   0.0000000   0.0000000), wk =   0.0277778
        k(   22) = (   0.0000000   0.0353851   0.0000000), wk =   0.0555556
        k(   23) = (   0.0000000   0.0707702   0.0000000), wk =   0.0555556
        k(   24) = (   0.0000000  -0.1061553   0.0000000), wk =   0.0277778
        k(   25) = (   0.0306444   0.0176926   0.0000000), wk =   0.0555556
        k(   26) = (   0.0306444   0.0530777   0.0000000), wk =   0.0555556
        k(   27) = (   0.0306444   0.0884628   0.0000000), wk =   0.0555556
        k(   28) = (   0.0306444  -0.0884628   0.0000000), wk =   0.0555556
        k(   29) = (   0.0306444  -0.0530777   0.0000000), wk =   0.0555556
        k(   30) = (   0.0306444  -0.0176926   0.0000000), wk =   0.0555556
        k(   31) = (   0.0612888   0.0353851   0.0000000), wk =   0.0555556
        k(   32) = (   0.0612888   0.0707702   0.0000000), wk =   0.0555556
        k(   33) = (   0.0612888   0.1061553   0.0000000), wk =   0.0555556
        k(   34) = (   0.0612888  -0.0707702   0.0000000), wk =   0.0555556
        k(   35) = (   0.0612888  -0.0353851   0.0000000), wk =   0.0555556
        k(   36) = (   0.0612888   0.0000000   0.0000000), wk =   0.0555556
        k(   37) = (  -0.0919332  -0.0530777   0.0000000), wk =   0.0277778
        k(   38) = (  -0.0919332  -0.0176926   0.0000000), wk =   0.0555556
        k(   39) = (  -0.0919332   0.0176926   0.0000000), wk =   0.0555556
        k(   40) = (  -0.0919332  -0.1592330   0.0000000), wk =   0.0277778

     Largest allocated arrays     est. size (Mb)     dimensions
     Largest temporary arrays     est. size (Mb)     dimensions

     Check: negative/imaginary core charge=   -0.000006    0.000000

     Initial potential from superposition of free atoms
     Check: negative starting charge=(component1):   -0.000128

     starting charge  169.49995, renormalised to  183.00000

[...]

     *
     * You are using vdW-DF for exchange-correlation in this calculation.
     * Please cite the following three references that made this development
     * possible:
     *
     *   M. Dion, H. Rydberg, E. Schroder, D. C. Langreth, and
     *   B. I. Lundqvist, Phys. Rev. Lett. 92, 246401 (2004).
     *
     *   T. Thonhauser, V. R. Cooper, S. Li, A. Puzder, P. Hyldgaard, and
     *   D. C. Langreth, Phys. Rev. B 76, 125112 (2007).
     *
     *   G. Roman-Perez and J. M. Soler, Phys. Rev. Lett. 103, 096102 (2009).
     *
     *
     * If you are using vdW-DF2, please also cite:
     *
     *   K. Lee, E. D. Murray, L. Kong, B. I. Lundqvist, and
     *   D. C. Langreth, Phys. Rev. B 82, 081101(R) (2010).
     *
     *
     * If you are calculating the stress with vdW-DF, please also cite:
     *
     *   R. Sabatini, E. Kucukbenli, B. Kolb, T. Thonhauser, and
     *   S. de Gironcoli, J. Phys.: Condens. Matter 24, 424209 (2012).
     *

     Carrying out vdW-DF run using the following parameters:

     Nqs =      20    Nr_points =    1024   r_max =   100.000
     q_mesh =
               0.00001000     0.04494208     0.09755937     0.15916263
               0.23128650     0.31572767     0.41458969     0.53033537
               0.66584808     0.82450364     1.01025438     1.22772762
               1.48234092     1.78043706     2.12944203     2.53805004
               3.01644009     3.57652955     4.23227104     5.00000000

     Gradients computed in reciprocal space

[...]

     Starting wfc are  144 randomized atomic wfcs

     Self-consistent Calculation

[...]

     total energy              =   -2666.21185909 Ry
     Harris-Foulkes estimate   =   -2666.21185560 Ry
     estimated scf accuracy    <       0.00000181 Ry

[...]

     iteration # 30     ecut=    36.75 Ry     beta=0.10
     Davidson diagonalization with overlap
     ethr =  9.87E-10,  avg # of iterations =  1.8

[...]

     negative rho (up, down):  3.495E-04 1.130E-03

[...]

     Adding external electric field

     Computed dipole along edir(3) :
        Dipole                0.0045 Ry au,          0.0115 Debye
        Dipole field          0.0000 Ry au

        Potential amp.       -0.0012 Ry
        Total length         45.0316 bohr

     Magnetic moment per site:
     atom:    1    charge:    7.0977    magn:    1.3010    constr:    0.0000
     atom:    2    charge:    7.0977    magn:    1.3010    constr:    0.0000
     atom:    3    charge:    7.0977    magn:    1.3010    constr:    0.0000
     atom:    4    charge:    3.0758    magn:   -0.0042    constr:    0.0000
     atom:    5    charge:    7.0780    magn:    1.2341    constr:    0.0000
     atom:    6    charge:    7.0780    magn:    1.2341    constr:    0.0000
     atom:    7    charge:    7.0780    magn:    1.2341    constr:    0.0000
     atom:    8    charge:    3.0707    magn:   -0.0047    constr:    0.0000
     atom:    9    charge:    7.0958    magn:    1.2608    constr:    0.0000
     atom:   10    charge:    7.0958    magn:    1.2608    constr:    0.0000
     atom:   11    charge:    7.0958    magn:    1.2608    constr:    0.0000
     atom:   12    charge:    3.0702    magn:   -0.0051    constr:    0.0000

     End of self-consistent calculation

 ------ SPIN UP ------------

[...]

 ------ SPIN DOWN ----------

[...]

          k = 0.0613 0.0000 0.0000 ( 15892 PWs)   bands (ev):

[...]

          k =-0.0919-0.1592 0.0000 ( 15944 PWs)   bands (ev):

   -84.4627 -84.4570 -84.4512 -84.4276 -84.4229 -84.4180 -84.4013 -84.3795
   -84.3775 -50.6516 -50.6240 -50.6185 -50.6161 -50.6088 -50.6038 -50.5897
   -50.5875 -50.5742 -50.5654 -50.5650 -50.5550 -50.5546 -50.5511 -50.5444
   -50.5260 -50.5163 -50.4861 -50.4839 -50.4709 -50.4655 -50.4418 -50.4375
   -50.4293 -50.4148 -50.4119 -50.3915 -13.7614 -13.7463 -13.7309 -13.7122
   -13.7063 -13.5345 -13.5116 -13.5050 -13.4890 -13.4760 -13.4660 -13.4380
   -13.4298 -13.4245 -13.4148  -6.5674  -5.9530  -4.8918  -3.9398  -2.8148
    -2.7629  -2.5636  -1.3822  -1.3097  -1.2554  -0.8484  -0.7040  -0.5889
    -0.4895  -0.3003  -0.2025  -0.1628  -0.0753   0.0413   0.0860   0.1507
     0.2036   0.3702   0.3793   0.4287   0.5764   0.6176   0.7692   0.8859
     0.9858   1.0301   1.0362   1.1890   1.5385   1.5998   1.6729   1.7060
     1.7422   1.7739   1.8162   1.9014   1.9232   2.0422   2.1000   2.1250
     2.2058   2.2545   2.4369   2.5068   2.5435   2.5475   2.6986   3.0526
     3.4196   3.4361   3.4923   4.0790   4.5325   4.5574   5.7699   6.0185
     6.4698   6.5546   6.5703   6.8903   6.9498   7.1378   7.3281   7.3709
     7.8290

     the Fermi energy is     0.9164 ev

!    total energy              =   -2666.21187148 Ry
     Harris-Foulkes estimate   =   -2666.21185914 Ry
     estimated scf accuracy    <       0.00000075 Ry

     The total energy is the sum of the following terms:

     one-electron contribution =  -20673.09086920 Ry
     hartree contribution      =   10356.72735041 Ry
     xc contribution           =    -390.38297553 Ry
     ewald contribution        =    8040.60425024 Ry
     electric field correction =       0.00000006 Ry
     smearing contrib. (-TS)   =      -0.06962746 Ry

     total magnetization       =    23.07 Bohr mag/cell
     absolute magnetization    =    25.59 Bohr mag/cell

     convergence has been achieved in  30 iterations

 BEEF-vdW xc energy contributions
           1 :   -341.862266249366
           2 :    310.273346514460
           3 :   -257.332589148471
           4 :    198.501945817548
           5 :   -147.607683607639
           6 :    111.767613432672
           7 :   -90.3470182803085
           8 :    77.6451457567480
           9 :   -67.2076983776486
          10 :    55.2360962748214
          11 :   -41.6249118353882
          12 :    28.6972118893519
          13 :   -18.9477943619788
          14 :    13.3124958423498
          15 :   -10.8404088218842
          16 :    9.58898693822960
          17 :   -7.90802607247622
          18 :    5.24369682350721
          19 :   -2.12479956030461
          20 :  -0.464089572369005
          21 :    1.80969929343888
          22 :   -1.88001377699044
          23 :    1.25558296890637
          24 :  -0.729594145216083
          25 :   0.849511917922030
          26 :   -1.66313099887606
          27 :    2.76247477151253
          28 :   -3.57025683986910
          29 :    3.68805764391419
          30 :   -3.12560174068000
          31 :   -30.3340923057813
          32 :   -21.6291422981180

     Forces acting on atoms (Ry/au):

     negative rho (up, down):  3.495E-04 1.130E-03
     atom    1 type  1   force =     0.00000078   -0.01802116    0.01802411
     atom    2 type  1   force =    -0.01559615    0.00901293    0.01801785
     atom    3 type  1   force =     0.01559757    0.00901299    0.01802136
     atom    4 type  2   force =     0.00000268   -0.00000588   -0.05351563
     atom    5 type  1   force =    -0.00001722    0.01580558    0.00217588
     atom    6 type  1   force =     0.01370170   -0.00790792    0.00214896
     atom    7 type  1   force =    -0.01369912   -0.00788664    0.00216479
     atom    8 type  2   force =     0.00001236   -0.00001042   -0.00401379
     atom    9 type  1   force =     0.00001154    0.00010204   -0.00099724
     atom   10 type  1   force =     0.00007876   -0.00004438   -0.00099048
     atom   11 type  1   force =    -0.00008158   -0.00005982   -0.00099387
     atom   12 type  2   force =    -0.00001133    0.00000268   -0.00004192

     Total force =     0.074800     Total SCF correction =     0.003218

     entering subroutine stress ...

     negative rho (up, down):  3.495E-04 1.130E-03
          total   stress  (Ry/bohr**3)                   (kbar)     P=   -9.21
  -0.00008986  -0.00000000  -0.00000000        -13.22     -0.00     -0.00
  -0.00000000  -0.00008986   0.00000000         -0.00    -13.22      0.00
  -0.00000000   0.00000000  -0.00000814         -0.00      0.00     -1.20

 !ASE

     Writing output data file calc.save

     General routines

     Parallel routines

   This run was terminated on:   1: 6:21  29Dec2018

   JOB DONE.
Job  /afs/slac/g/suncat/bin/suncat-tsmpirun -x LD_LIBRARY_PATH -wdir /scratch/qe304826_cYUG3 pw.x -in pw.inp

TID   HOST_NAME   COMMAND_LINE            STATUS            TERMINATION_TIME
00000 suncat0038 pw.x -in pw.inp   Done                     12/29/2018 01:06:21
00001 suncat0038 pw.x -in pw.inp   Done                     12/29/2018 01:06:21
00002 suncat0038 pw.x -in pw.inp   Done                     12/29/2018 01:06:21
00003 suncat0038 pw.x -in pw.inp   Done                     12/29/2018 01:06:21
00004 suncat0038 pw.x -in pw.inp   Done                     12/29/2018 01:06:21
00005 suncat0038 pw.x -in pw.inp   Done                     12/29/2018 01:06:21
00006 suncat0038 pw.x -in pw.inp   Done                     12/29/2018 01:06:21
00007 suncat0038 pw.x -in pw.inp   Done                     12/29/2018 01:06:21
00008 suncat0037 pw.x -in pw.inp   Done                     12/29/2018 01:06:21
00009 suncat0037 pw.x -in pw.inp   Done                     12/29/2018 01:06:21
00010 suncat0037 pw.x -in pw.inp   Done                     12/29/2018 01:06:21
00011 suncat0037 pw.x -in pw.inp   Done                     12/29/2018 01:06:21
00012 suncat0037 pw.x -in pw.inp   Done                     12/29/2018 01:06:21
00013 suncat0037 pw.x -in pw.inp   Done                     12/29/2018 01:06:21
00014 suncat0037 pw.x -in pw.inp   Done                     12/29/2018 01:06:21
00015 suncat0037 pw.x -in pw.inp   Done                     12/29/2018 01:06:21
00016 suncat0036 pw.x -in pw.inp   Done                     12/29/2018 01:06:21
00017 suncat0036 pw.x -in pw.inp   Done                     12/29/2018 01:06:21
00018 suncat0036 pw.x -in pw.inp   Done                     12/29/2018 01:06:21
00019 suncat0036 pw.x -in pw.inp   Done                     12/29/2018 01:06:21
00020 suncat0036 pw.x -in pw.inp   Done                     12/29/2018 01:06:21
00021 suncat0036 pw.x -in pw.inp   Done                     12/29/2018 01:06:21
00022 suncat0036 pw.x -in pw.inp   Done                     12/29/2018 01:06:21
00023 suncat0036 pw.x -in pw.inp   Done                     12/29/2018 01:06:21
00024 suncat0035 pw.x -in pw.inp   Done                     12/29/2018 01:06:21
00025 suncat0035 pw.x -in pw.inp   Done                     12/29/2018 01:06:21
00026 suncat0035 pw.x -in pw.inp   Done                     12/29/2018 01:06:21
00027 suncat0035 pw.x -in pw.inp   Done                     12/29/2018 01:06:21
00028 suncat0035 pw.x -in pw.inp   Done                     12/29/2018 01:06:21
00029 suncat0035 pw.x -in pw.inp   Done                     12/29/2018 01:06:21
00030 suncat0035 pw.x -in pw.inp   Done                     12/29/2018 01:06:21
00031 suncat0035 pw.x -in pw.inp   Done                     12/29/2018 01:06:21
00032 suncat0033 pw.x -in pw.inp   Done                     12/29/2018 01:06:21
00033 suncat0033 pw.x -in pw.inp   Done                     12/29/2018 01:06:21
00034 suncat0033 pw.x -in pw.inp   Done                     12/29/2018 01:06:21
00035 suncat0033 pw.x -in pw.inp   Done                     12/29/2018 01:06:21
00036 suncat0033 pw.x -in pw.inp   Done                     12/29/2018 01:06:21
00037 suncat0033 pw.x -in pw.inp   Done                     12/29/2018 01:06:21
00038 suncat0033 pw.x -in pw.inp   Done                     12/29/2018 01:06:21
00039 suncat0033 pw.x -in pw.inp   Done                     12/29/2018 01:06:21
00040 suncat0032 pw.x -in pw.inp   Done                     12/29/2018 01:06:21
00041 suncat0032 pw.x -in pw.inp   Done                     12/29/2018 01:06:21
00042 suncat0032 pw.x -in pw.inp   Done                     12/29/2018 01:06:21
00043 suncat0032 pw.x -in pw.inp   Done                     12/29/2018 01:06:21
00044 suncat0032 pw.x -in pw.inp   Done                     12/29/2018 01:06:21
00045 suncat0032 pw.x -in pw.inp   Done                     12/29/2018 01:06:21
00046 suncat0032 pw.x -in pw.inp   Done                     12/29/2018 01:06:21
00047 suncat0032 pw.x -in pw.inp   Done                     12/29/2018 01:06:21
00048 suncat0019 pw.x -in pw.inp   Done                     12/29/2018 01:06:21
00049 suncat0019 pw.x -in pw.inp   Done                     12/29/2018 01:06:21
00050 suncat0019 pw.x -in pw.inp   Done                     12/29/2018 01:06:21
00051 suncat0019 pw.x -in pw.inp   Done                     12/29/2018 01:06:21
00052 suncat0019 pw.x -in pw.inp   Done                     12/29/2018 01:06:21
00053 suncat0019 pw.x -in pw.inp   Done                     12/29/2018 01:06:21
00054 suncat0019 pw.x -in pw.inp   Done                     12/29/2018 01:06:21
00055 suncat0019 pw.x -in pw.inp   Done                     12/29/2018 01:06:21
00056 suncat0018 pw.x -in pw.inp   Done                     12/29/2018 01:06:21
00057 suncat0018 pw.x -in pw.inp   Done                     12/29/2018 01:06:21
00058 suncat0018 pw.x -in pw.inp   Done                     12/29/2018 01:06:21
00059 suncat0018 pw.x -in pw.inp   Done                     12/29/2018 01:06:21
00060 suncat0018 pw.x -in pw.inp   Done                     12/29/2018 01:06:21
00061 suncat0018 pw.x -in pw.inp   Done                     12/29/2018 01:06:21
00062 suncat0018 pw.x -in pw.inp   Done                     12/29/2018 01:06:21
00063 suncat0018 pw.x -in pw.inp   Done                     12/29/2018 01:06:21