     Program PWSCF v.5.1rc2 (svn rev. 11289) starts on  2Jan2019 at 19:20:10

     Current dimensions of program PWSCF are:
     Max number of different atomic species (ntypx) = 10
     Max number of k-points (npk) =  40000
     Max angular momentum in pseudopotentials (lmaxx) =  3
     Presently stress not available with electric field

     IMPORTANT: XC functional enforced from input :
     Exchange-correlation      = BEEF-VDW ( 1  4 27 13 2)
     Any further DFT definition will be discarded
     Please, verify this is what you really want

     Subspace diagonalization in iterative solution of the eigenvalue problem:
     a serial algorithm will be used

     bravais-lattice index     =            0
     lattice parameter (alat)  =       1.8897  a.u.
     unit-cell volume          =    5883.5908 (a.u.)^3
     number of atoms/cell      =           12
     number of atomic types    =            2
     number of electrons       =       144.00
     number of Kohn-Sham states=          102
     kinetic-energy cutoff     =      36.7493  Ry
     charge density cutoff     =     367.4932  Ry
     convergence threshold     =      1.0E-06
     mixing beta               =       0.1000
     number of iterations used =           10  plain     mixing
     Exchange-correlation      = BEEF-VDW ( 1  4 27 13 2)
     nstep                     =           50

     celldm(1)=   1.889726  celldm(2)=   0.000000  celldm(3)=   0.000000
     celldm(4)=   0.000000  celldm(5)=   0.000000  celldm(6)=   0.000000

     crystal axes: (cart. coord. in units of alat)
               a(1) = (   6.325057   0.000000   0.000000 )
               a(2) = (  -3.162528   5.477660   0.000000 )
               a(3) = (   0.000000   0.000000  25.164387 )

     reciprocal axes: (cart. coord. in units 2 pi/alat)
               b(1) = (  0.158101  0.091280  0.000000 )
               b(2) = (  0.000000  0.182560  0.000000 )
               b(3) = (  0.000000  0.000000  0.039739 )

     PseudoPot. # 1 for Zr read from file:
     /afs/slac.stanford.edu/u/if/mamunm/psp/gbrv1.5pbe/Zr.UPF
     MD5 check sum: 5db81b1e868ab7776c4564c113de050b
     Pseudo is Ultrasoft + core correction, Zval = 12.0
     Generated by new atomic code, or converted to UPF format
     Using radial grid of  887 points,  6 beta functions with:
                l(1) =   0
                l(2) =   0
                l(3) =   1
                l(4) =   1
                l(5) =   2
                l(6) =   2
     Q(r) pseudized with  6 coefficients,  rinner =    1.200   1.200   1.200
                                                       1.200   1.200

     PseudoPot. # 2 for Cd read from file:
     /afs/slac.stanford.edu/u/if/mamunm/psp/gbrv1.5pbe/Cd.UPF
     MD5 check sum: 17164a7926edb8e0dc231208abae86a6
     Pseudo is Ultrasoft + core correction, Zval = 12.0
     Generated by new atomic code, or converted to UPF format
     Using radial grid of  889 points,  6 beta functions with:
                l(1) =   0
                l(2) =   0
                l(3) =   1
                l(4) =   1
                l(5) =   2
                l(6) =   2
     Q(r) pseudized with  6 coefficients,  rinner =    1.000   1.000   1.000
                                                       1.000   1.000

     vdW kernel table read from file vdW_kernel_table
     MD5 check sum: 095c7af220d748ca6e76c0b4c6cfb241

     atomic species   valence    mass     pseudopotential
        Zr1           12.00    91.22400     Zr( 1.00)
        Cd1           12.00   112.41400     Cd( 1.00)

     No symmetry found

   Cartesian axes

     site n.     atom                  positions (alat units)
         1           Zr1 tau(   1) = (   0.0000000   0.0000000  10.0000000  )
         2           Zr1 tau(   2) = (  -1.5812642   2.7388300  10.0000000  )
         3           Zr1 tau(   3) = (   1.5812642   2.7388300  10.0000000  )
         4           Cd1 tau(   4) = (   3.1625284   0.0000000  10.0000000  )
         5           Zr1 tau(   5) = (   3.1625284   1.8258866  12.5821937  )
         6           Zr1 tau(   6) = (   1.5812642   4.5647166  12.5821937  )
         7           Zr1 tau(   7) = (  -1.5812642   4.5647166  12.5821937  )
         8           Cd1 tau(   8) = (   0.0000000   1.8258866  12.5821937  )
         9           Zr1 tau(   9) = (  -0.0000000   3.6517733  15.1643873  )
        10           Zr1 tau(  10) = (   1.5812642   0.9129433  15.1643873  )
        11           Zr1 tau(  11) = (   4.7437927   0.9129433  15.1643873  )
        12           Cd1 tau(  12) = (   3.1625284   3.6517733  15.1643873  )

     number of k points=    20  Fermi-Dirac smearing, width (Ry)=  0.0110
                       cart. coord. in units 2pi/alat
        k(    1) = (   0.0000000   0.0000000   0.0000000), wk =   0.0555556
        k(    2) = (   0.0000000   0.0304266   0.0000000), wk =   0.1111111
        k(    3) = (   0.0000000   0.0608532   0.0000000), wk =   0.1111111
        k(    4) = (   0.0000000  -0.0912799   0.0000000), wk =   0.0555556
        k(    5) = (   0.0263502   0.0152133   0.0000000), wk =   0.1111111
        k(    6) = (   0.0263502   0.0456399   0.0000000), wk =   0.1111111
        k(    7) = (   0.0263502   0.0760665   0.0000000), wk =   0.1111111
        k(    8) = (   0.0263502  -0.0760665   0.0000000), wk =   0.1111111
        k(    9) = (   0.0263502  -0.0456399   0.0000000), wk =   0.1111111
        k(   10) = (   0.0263502  -0.0152133   0.0000000), wk =   0.1111111
        k(   11) = (   0.0527004   0.0304266   0.0000000), wk =   0.1111111
        k(   12) = (   0.0527004   0.0608532   0.0000000), wk =   0.1111111
        k(   13) = (   0.0527004   0.0912799   0.0000000), wk =   0.1111111
        k(   14) = (   0.0527004  -0.0608532   0.0000000), wk =   0.1111111
        k(   15) = (   0.0527004  -0.0304266   0.0000000), wk =   0.1111111
        k(   16) = (   0.0527004   0.0000000   0.0000000), wk =   0.1111111
        k(   17) = (  -0.0790507  -0.0456399   0.0000000), wk =   0.0555556
        k(   18) = (  -0.0790507  -0.0152133   0.0000000), wk =   0.1111111
        k(   19) = (  -0.0790507   0.0152133   0.0000000), wk =   0.1111111
        k(   20) = (  -0.0790507  -0.1369198   0.0000000), wk =   0.0555556

     Largest allocated arrays     est. size (Mb)     dimensions
     Largest temporary arrays     est. size (Mb)     dimensions

     Initial potential from superposition of free atoms
     Check: negative starting charge=   -0.614386

     starting charge  142.48053, renormalised to  144.00000

     negative rho (up, down):  6.209E-01 0.000E+00

     *
     * You are using vdW-DF for exchange-correlation in this calculation.
     * Please cite the following three references that made this development
     * possible:
     *
     *   M. Dion, H. Rydberg, E. Schroder, D. C. Langreth, and
     *   B. I. Lundqvist, Phys. Rev. Lett. 92, 246401 (2004).
     *
     *   T. Thonhauser, V. R. Cooper, S. Li, A. Puzder, P. Hyldgaard, and
     *   D. C. Langreth, Phys. Rev. B 76, 125112 (2007).
     *
     *   G. Roman-Perez and J. M. Soler, Phys. Rev. Lett. 103, 096102 (2009).
     *
     *
     * If you are using vdW-DF2, please also cite:
     *
     *   K. Lee, E. D. Murray, L. Kong, B. I. Lundqvist, and
     *   D. C. Langreth, Phys. Rev. B 82, 081101(R) (2010).
     *
     *
     * If you are calculating the stress with vdW-DF, please also cite:
     *
     *   R. Sabatini, E. Kucukbenli, B. Kolb, T. Thonhauser, and
     *   S. de Gironcoli, J. Phys.: Condens. Matter 24, 424209 (2012).
     *

     Carrying out vdW-DF run using the following parameters:

     Nqs =      20    Nr_points =    1024   r_max =   100.000
     q_mesh =
               0.00001000     0.04494208     0.09755937     0.15916263
               0.23128650     0.31572767     0.41458969     0.53033537
               0.66584808     0.82450364     1.01025438     1.22772762
               1.48234092     1.78043706     2.12944203     2.53805004
               3.01644009     3.57652955     4.23227104     5.00000000

     Gradients computed in reciprocal space

     Adding external electric field

     Computed dipole along edir(3) :
        Dipole               -0.0000 Ry au,         -0.0000 Debye
        Dipole field         -0.0000 Ry au

        Potential amp.        0.0000 Ry
        Total length         46.3650 bohr

     Starting wfc are  144 randomized atomic wfcs

     Self-consistent Calculation

     iteration #  1     ecut=    36.75 Ry     beta=0.10
     Davidson diagonalization with overlap
     ethr =  1.00E-02,  avg # of iterations =  2.0

[...]

     total energy              =   -1245.56249462 Ry
     Harris-Foulkes estimate   =   -1246.27183658 Ry
     estimated scf accuracy    <       4.05634793 Ry

[...]

     End of self-consistent calculation

          k = 0.0000 0.0000 0.0000 ( 22135 PWs)   bands (ev):

   -47.9344 -47.9310 -47.8546 -47.8545 -47.8538 -47.8537 -47.5524 -47.4764
   -47.4760 -26.2066 -26.1811 -26.1077 -26.0526 -26.0526 -26.0085 -26.0084
   -25.9982 -25.9982 -25.9958 -25.9082 -25.9082 -25.9081 -25.6839 -25.6669
   -25.6312 -25.6312 -25.4815 -25.4814 -25.4700 -25.4699 -25.4087 -25.3993
   -25.3992 -25.2998 -25.1631 -25.1630  -7.1674  -7.1674  -7.1519  -7.1518
    -7.1289  -7.0994  -7.0980  -7.0980  -7.0423  -7.0423  -6.9681  -6.9681
    -6.9620  -6.8805  -6.8805  -4.5724  -3.3852  -2.9233  -1.5267  -1.1814
    -0.9860  -0.0987  -0.0986   0.0848   0.1290   0.2548   0.2549   0.3268
     0.3269   0.5037   0.5038   1.0170   1.0171   1.2287   1.2783   1.6561
     1.7783   1.7783   1.9449   1.9449   2.0511   2.2407   2.2407   2.4563
     2.4563   2.4814   2.6150   3.0986   3.8398   3.8867   3.8868   3.9424
     4.0324   4.0326   4.1705   4.1706   4.3471   4.3471   4.5686   4.5686
     4.7413   4.8462   4.9169   4.9620   4.9827   4.9830

[...]

          k =-0.0791-0.0456 0.0000 ( 22040 PWs)   bands (ev):

[...]

     the Fermi energy is     1.4052 ev

!    total energy              =   -1245.88426811 Ry
     Harris-Foulkes estimate   =   -1245.88427928 Ry
     estimated scf accuracy    <       0.00000066 Ry

     The total energy is the sum of the following terms:

     one-electron contribution =   -8471.75085440 Ry
     hartree contribution      =    4253.57652805 Ry
     xc contribution           =    -287.83017332 Ry
     ewald contribution        =    3260.22096639 Ry
     electric field correction =       0.00000000 Ry
     smearing contrib. (-TS)   =      -0.10073484 Ry

     convergence has been achieved in  16 iterations

 BEEF-vdW xc energy contributions
           1 :   -249.056580235269
           2 :    226.699259668980
           3 :   -188.853350848677
           4 :    146.055123537262
           5 :   -108.043413230415
           6 :    80.3261584659713
           7 :   -63.1877131818739
           8 :    53.1440970106290
           9 :   -45.6687372486833
          10 :    37.6433527460275
          11 :   -28.4466803649255
          12 :    19.4757661532390
          13 :   -12.7018506147391
          14 :    9.23198615118855
          15 :   -8.66789853487148
          16 :    9.48295376334329
          17 :   -10.0231260596550
          18 :    9.43278732744568
[...]

     PseudoPot. # 1 for Zr read from file:
     /afs/slac.stanford.edu/u/if/mamunm/psp/gbrv1.5pbe/Zr.UPF
     MD5 check sum: 5db81b1e868ab7776c4564c113de050b
     Pseudo is Ultrasoft + core correction, Zval = 12.0
     Generated by new atomic code, or converted to UPF format
     Using radial grid of  887 points,  6 beta functions with:
                l(1) =   0
                l(2) =   0
                l(3) =   1
                l(4) =   1
                l(5) =   2
                l(6) =   2
     Q(r) pseudized with  6 coefficients,  rinner =    1.200   1.200   1.200
                                                       1.200   1.200

     PseudoPot. # 2 for Cd read from file:
     /afs/slac.stanford.edu/u/if/mamunm/psp/gbrv1.5pbe/Cd.UPF
     MD5 check sum: 17164a7926edb8e0dc231208abae86a6
     Pseudo is Ultrasoft + core correction, Zval = 12.0
     Generated by new atomic code, or converted to UPF format
     Using radial grid of  889 points,  6 beta functions with:
                l(1) =   0
                l(2) =   0
                l(3) =   1
                l(4) =   1
                l(5) =   2
                l(6) =   2
     Q(r) pseudized with  6 coefficients,  rinner =    1.000   1.000   1.000
                                                       1.000   1.000

     vdW kernel table read from file vdW_kernel_table
     MD5 check sum: 095c7af220d748ca6e76c0b4c6cfb241

     atomic species   valence    mass     pseudopotential
        Zr1           12.00    91.22400     Zr( 1.00)
        Cd1           12.00   112.41400     Cd( 1.00)

     No symmetry found

   Cartesian axes

     site n.     atom                  positions (alat units)
         1           Zr1 tau(   1) = (   0.0000000   0.0000000  10.0000000  )
         2           Zr1 tau(   2) = (  -1.5812642   2.7388300  10.0000000  )
         3           Zr1 tau(   3) = (   1.5812642   2.7388300  10.0000000  )
         4           Cd1 tau(   4) = (   3.1625284   0.0000000  10.0000000  )
         5           Zr1 tau(   5) = (   3.1625284   1.8258866  12.5821937  )
         6           Zr1 tau(   6) = (   1.5812642   4.5647166  12.5821937  )
         7           Zr1 tau(   7) = (  -1.5812642   4.5647166  12.5821937  )
         8           Cd1 tau(   8) = (   0.0000000   1.8258866  12.5821937  )
         9           Zr1 tau(   9) = (   0.0000134   3.6247703  15.0861078  )
        10           Zr1 tau(  10) = (   1.5578894   0.9265160  15.0860759  )
        11           Zr1 tau(  11) = (   4.7671734   0.9265015  15.0860723  )
        12           Cd1 tau(  12) = (   3.1625411   3.6518536  15.2339977  )

     number of k points=    20  Fermi-Dirac smearing, width (Ry)=  0.0110
                       cart. coord. in units 2pi/alat
        k(    1) = (   0.0000000   0.0000000   0.0000000), wk =   0.0555556
        k(    2) = (   0.0000000   0.0304266   0.0000000), wk =   0.1111111
        k(    3) = (   0.0000000   0.0608532   0.0000000), wk =   0.1111111
        k(    4) = (   0.0000000  -0.0912799   0.0000000), wk =   0.0555556
        k(    5) = (   0.0263502   0.0152133   0.0000000), wk =   0.1111111
        k(    6) = (   0.0263502   0.0456399   0.0000000), wk =   0.1111111
        k(    7) = (   0.0263502   0.0760665   0.0000000), wk =   0.1111111
        k(    8) = (   0.0263502  -0.0760665   0.0000000), wk =   0.1111111
        k(    9) = (   0.0263502  -0.0456399   0.0000000), wk =   0.1111111
        k(   10) = (   0.0263502  -0.0152133   0.0000000), wk =   0.1111111
        k(   11) = (   0.0527004   0.0304266   0.0000000), wk =   0.1111111
        k(   12) = (   0.0527004   0.0608532   0.0000000), wk =   0.1111111
        k(   13) = (   0.0527004   0.0912799   0.0000000), wk =   0.1111111
        k(   14) = (   0.0527004  -0.0608532   0.0000000), wk =   0.1111111
        k(   15) = (   0.0527004  -0.0304266   0.0000000), wk =   0.1111111
        k(   16) = (   0.0527004   0.0000000   0.0000000), wk =   0.1111111
        k(   17) = (  -0.0790507  -0.0456399   0.0000000), wk =   0.0555556
        k(   18) = (  -0.0790507  -0.0152133   0.0000000), wk =   0.1111111
        k(   19) = (  -0.0790507   0.0152133   0.0000000), wk =   0.1111111
        k(   20) = (  -0.0790507  -0.1369198   0.0000000), wk =   0.0555556

     Largest allocated arrays     est. size (Mb)     dimensions
     Largest temporary arrays     est. size (Mb)     dimensions

     Initial potential from superposition of free atoms
     Check: negative starting charge=   -0.614374

     starting charge  142.48053, renormalised to  144.00000

[...]

     *
     * You are using vdW-DF for exchange-correlation in this calculation.
     * Please cite the following three references that made this development
     * possible:
     *
     *   M. Dion, H. Rydberg, E. Schroder, D. C. Langreth, and
     *   B. I. Lundqvist, Phys. Rev. Lett. 92, 246401 (2004).
     *
     *   T. Thonhauser, V. R. Cooper, S. Li, A. Puzder, P. Hyldgaard, and
     *   D. C. Langreth, Phys. Rev. B 76, 125112 (2007).
     *
     *   G. Roman-Perez and J. M. Soler, Phys. Rev. Lett. 103, 096102 (2009).
     *
     *
     * If you are using vdW-DF2, please also cite:
     *
     *   K. Lee, E. D. Murray, L. Kong, B. I. Lundqvist, and
     *   D. C. Langreth, Phys. Rev. B 82, 081101(R) (2010).
     *
     *
     * If you are calculating the stress with vdW-DF, please also cite:
     *
     *   R. Sabatini, E. Kucukbenli, B. Kolb, T. Thonhauser, and
     *   S. de Gironcoli, J. Phys.: Condens. Matter 24, 424209 (2012).
     *

     Carrying out vdW-DF run using the following parameters:

     Nqs =      20    Nr_points =    1024   r_max =   100.000
     q_mesh =
               0.00001000     0.04494208     0.09755937     0.15916263
               0.23128650     0.31572767     0.41458969     0.53033537
               0.66584808     0.82450364     1.01025438     1.22772762
               1.48234092     1.78043706     2.12944203     2.53805004
               3.01644009     3.57652955     4.23227104     5.00000000

     Gradients computed in reciprocal space

[...]

     Starting wfc are  144 randomized atomic wfcs

     Self-consistent Calculation

[...]

     total energy              =   -1245.88796890 Ry
     Harris-Foulkes estimate   =   -1245.88797038 Ry
     estimated scf accuracy    <       0.00000133 Ry

     iteration # 17     ecut=    36.75 Ry     beta=0.10
     Davidson diagonalization with overlap
     ethr =  9.24E-10,  avg # of iterations =  3.0

[...]

     negative rho (up, down):  6.271E-01 0.000E+00

     Adding external electric field

     Computed dipole along edir(3) :
        Dipole               -0.0192 Ry au,         -0.0488 Debye
        Dipole field         -0.0000 Ry au

        Potential amp.        0.0038 Ry
        Total length         46.3650 bohr

     End of self-consistent calculation

[...]

          k = 0.0527 0.0000 0.0000 ( 22143 PWs)   bands (ev):

[...]

          k =-0.0791-0.1369 0.0000 ( 22040 PWs)   bands (ev):

   -47.9256 -47.8996 -47.8732 -47.8603 -47.8314 -47.8052 -47.5050 -47.4801
   -47.4546 -26.1057 -26.0696 -26.0547 -26.0151 -25.9888 -25.9714 -25.9286
   -25.9278 -25.8885 -25.8863 -25.8492 -25.8324 -25.8287 -25.7986 -25.7780
   -25.7422 -25.7190 -25.5404 -25.5262 -25.4948 -25.4721 -25.4511 -25.4066
   -25.3386 -25.3329 -25.3162 -25.1654  -7.1539  -7.1288  -7.1126  -7.0937
    -7.0889  -7.0744  -7.0695  -7.0471  -7.0431  -7.0300  -6.9984  -6.9651
    -6.9641  -6.9283  -6.8974  -3.3244  -3.1309  -2.4605  -1.7265  -1.1855
    -0.9443  -0.6402  -0.3780   0.0952   0.2030   0.3275   0.3650   0.4112
     0.6008   0.6367   0.7433   0.9022   1.0234   1.0833   1.2751   1.2831
     1.3544   1.3946   1.5200   1.5692   1.7457   1.7658   2.1910   2.2184
     2.2810   2.4003   2.4520   2.5726   2.9127   3.5065   3.5368   3.5830
     3.6540   3.6789   3.8706   3.8866   3.9622   4.0436   4.1179   4.2348
     4.3612   4.3898   4.4847   4.6377   5.0936   5.1982

     the Fermi energy is     1.3882 ev

!    total energy              =   -1245.88796231 Ry
     Harris-Foulkes estimate   =   -1245.88796876 Ry
     estimated scf accuracy    <       0.00000075 Ry

     The total energy is the sum of the following terms:

     one-electron contribution =   -8521.63902530 Ry
     hartree contribution      =    4278.57141459 Ry
     xc contribution           =    -287.90042382 Ry
     ewald contribution        =    3285.18063863 Ry
     electric field correction =       0.00000079 Ry
     smearing contrib. (-TS)   =      -0.10056720 Ry

     convergence has been achieved in  17 iterations

 BEEF-vdW xc energy contributions
           1 :   -249.140249106915
           2 :    226.803527199646
           3 :   -188.978609014341
           4 :    146.176672282553
           5 :   -108.126880484842
           6 :    80.3519319435227
           7 :   -63.1658283077796
           8 :    53.1088130362204
           9 :   -45.6572811601542
          10 :    37.6732956020587
          11 :   -28.5060584764409
          12 :    19.5313120284599
          13 :   -12.7200387890042
          14 :    9.20038343046906
          15 :   -8.60371689858630
          16 :    9.42296063363062
          17 :   -10.0008245980349
          18 :    9.45752491272543
          19 :   -8.01042051676313
          20 :    6.59118547216309
          21 :   -6.10469169224291
          22 :    6.83022200228226
          23 :   -8.29863048167090
          24 :    9.64522022614790
          25 :   -10.1595339778285
          26 :    9.67972503339695
          27 :   -8.61846706786645
          28 :    7.64968395124032
          29 :   -7.28084600968384
          30 :    7.57701025908364
          31 :   -26.0433863360456
          32 :   -19.3097754013326

     Forces acting on atoms (Ry/au):

     negative rho (up, down):  6.271E-01 0.000E+00
     atom    1 type  1   force =    -0.00000001    0.00587165    0.00876100
     atom    2 type  1   force =     0.00508658   -0.00293582    0.00876231
     atom    3 type  1   force =    -0.00508561   -0.00293669    0.00876337
     atom    4 type  2   force =     0.00000015   -0.00000054   -0.00915421
     atom    5 type  1   force =    -0.00000088    0.00475762   -0.00175076
     atom    6 type  1   force =     0.00411598   -0.00237666   -0.00174662
     atom    7 type  1   force =    -0.00411338   -0.00237485   -0.00174543
     atom    8 type  2   force =    -0.00000081    0.00000295   -0.01202076
     atom    9 type  1   force =    -0.00000098   -0.00017025    0.00009452
     atom   10 type  1   force =    -0.00015337    0.00008298    0.00009653
     atom   11 type  1   force =     0.00015385    0.00008499    0.00009680
     atom   12 type  2   force =    -0.00000152   -0.00000538   -0.00015676

     Total force =     0.025282     Total SCF correction =     0.003427
     SCF correction compared to forces is large: reduce conv_thr to get better values

     entering subroutine stress ...

     negative rho (up, down):  6.271E-01 0.000E+00
          total   stress  (Ry/bohr**3)                   (kbar)     P=   -7.54
  -0.00006643   0.00000000  -0.00000000         -9.77      0.00     -0.00
   0.00000000  -0.00006643  -0.00000001          0.00     -9.77     -0.00
  -0.00000000  -0.00000001  -0.00002096         -0.00     -0.00     -3.08

 !ASE

     Writing output data file calc.save

     General routines

     Parallel routines

   This run was terminated on:  20:52:53   2Jan2019

   JOB DONE.
Job  /afs/slac/g/suncat/bin/suncat-tsmpirun -x LD_LIBRARY_PATH -wdir /scratch/qe649530_Ew52n pw.x -in pw.inp

TID   HOST_NAME   COMMAND_LINE            STATUS            TERMINATION_TIME
00000 suncat0086 pw.x -in pw.inp   Done                     01/02/2019 20:52:53
00001 suncat0086 pw.x -in pw.inp   Done                     01/02/2019 20:52:53
00002 suncat0086 pw.x -in pw.inp   Done                     01/02/2019 20:52:53
00003 suncat0086 pw.x -in pw.inp   Done                     01/02/2019 20:52:53
00004 suncat0086 pw.x -in pw.inp   Done                     01/02/2019 20:52:53
00005 suncat0086 pw.x -in pw.inp   Done                     01/02/2019 20:52:53
00006 suncat0086 pw.x -in pw.inp   Done                     01/02/2019 20:52:53
00007 suncat0086 pw.x -in pw.inp   Done                     01/02/2019 20:52:53
00008 suncat0068 pw.x -in pw.inp   Done                     01/02/2019 20:52:53
00009 suncat0068 pw.x -in pw.inp   Done                     01/02/2019 20:52:53
00010 suncat0068 pw.x -in pw.inp   Done                     01/02/2019 20:52:53
00011 suncat0068 pw.x -in pw.inp   Done                     01/02/2019 20:52:53
00012 suncat0068 pw.x -in pw.inp   Done                     01/02/2019 20:52:53
00013 suncat0068 pw.x -in pw.inp   Done                     01/02/2019 20:52:53
00014 suncat0068 pw.x -in pw.inp   Done                     01/02/2019 20:52:53
00015 suncat0068 pw.x -in pw.inp   Done                     01/02/2019 20:52:53
00016 suncat0065 pw.x -in pw.inp   Done                     01/02/2019 20:52:53
00017 suncat0065 pw.x -in pw.inp   Done                     01/02/2019 20:52:53
00018 suncat0065 pw.x -in pw.inp   Done                     01/02/2019 20:52:53
00019 suncat0065 pw.x -in pw.inp   Done                     01/02/2019 20:52:53
00020 suncat0065 pw.x -in pw.inp   Done                     01/02/2019 20:52:53
00021 suncat0065 pw.x -in pw.inp   Done                     01/02/2019 20:52:53
00022 suncat0065 pw.x -in pw.inp   Done                     01/02/2019 20:52:53
00023 suncat0065 pw.x -in pw.inp   Done                     01/02/2019 20:52:53
00024 suncat0064 pw.x -in pw.inp   Done                     01/02/2019 20:52:53
00025 suncat0064 pw.x -in pw.inp   Done                     01/02/2019 20:52:53
00026 suncat0064 pw.x -in pw.inp   Done                     01/02/2019 20:52:53
00027 suncat0064 pw.x -in pw.inp   Done                     01/02/2019 20:52:53
00028 suncat0064 pw.x -in pw.inp   Done                     01/02/2019 20:52:53
00029 suncat0064 pw.x -in pw.inp   Done                     01/02/2019 20:52:53
00030 suncat0064 pw.x -in pw.inp   Done                     01/02/2019 20:52:53
00031 suncat0064 pw.x -in pw.inp   Done                     01/02/2019 20:52:53
00032 suncat0029 pw.x -in pw.inp   Done                     01/02/2019 20:52:53
00033 suncat0029 pw.x -in pw.inp   Done                     01/02/2019 20:52:53
00034 suncat0029 pw.x -in pw.inp   Done                     01/02/2019 20:52:53
00035 suncat0029 pw.x -in pw.inp   Done                     01/02/2019 20:52:53
00036 suncat0029 pw.x -in pw.inp   Done                     01/02/2019 20:52:53
00037 suncat0029 pw.x -in pw.inp   Done                     01/02/2019 20:52:53
00038 suncat0029 pw.x -in pw.inp   Done                     01/02/2019 20:52:53
00039 suncat0029 pw.x -in pw.inp   Done                     01/02/2019 20:52:53
00040 suncat0019 pw.x -in pw.inp   Done                     01/02/2019 20:52:53
00041 suncat0019 pw.x -in pw.inp   Done                     01/02/2019 20:52:53
00042 suncat0019 pw.x -in pw.inp   Done                     01/02/2019 20:52:53
00043 suncat0019 pw.x -in pw.inp   Done                     01/02/2019 20:52:53
00044 suncat0019 pw.x -in pw.inp   Done                     01/02/2019 20:52:53
00045 suncat0019 pw.x -in pw.inp   Done                     01/02/2019 20:52:53
00046 suncat0019 pw.x -in pw.inp   Done                     01/02/2019 20:52:53
00047 suncat0019 pw.x -in pw.inp   Done                     01/02/2019 20:52:53
00048 suncat0018 pw.x -in pw.inp   Done                     01/02/2019 20:52:53
00049 suncat0018 pw.x -in pw.inp   Done                     01/02/2019 20:52:53
00050 suncat0018 pw.x -in pw.inp   Done                     01/02/2019 20:52:53
00051 suncat0018 pw.x -in pw.inp   Done                     01/02/2019 20:52:53
00052 suncat0018 pw.x -in pw.inp   Done                     01/02/2019 20:52:53
00053 suncat0018 pw.x -in pw.inp   Done                     01/02/2019 20:52:53
00054 suncat0018 pw.x -in pw.inp   Done                     01/02/2019 20:52:53
00055 suncat0018 pw.x -in pw.inp   Done                     01/02/2019 20:52:53
00056 suncat0001 pw.x -in pw.inp   Done                     01/02/2019 20:52:53
00057 suncat0001 pw.x -in pw.inp   Done                     01/02/2019 20:52:53
00058 suncat0001 pw.x -in pw.inp   Done                     01/02/2019 20:52:53
00059 suncat0001 pw.x -in pw.inp   Done                     01/02/2019 20:52:53
00060 suncat0001 pw.x -in pw.inp   Done                     01/02/2019 20:52:53
00061 suncat0001 pw.x -in pw.inp   Done                     01/02/2019 20:52:53
00062 suncat0001 pw.x -in pw.inp   Done                     01/02/2019 20:52:53
00063 suncat0001 pw.x -in pw.inp   Done                     01/02/2019 20:52:53