     Program PWSCF v.5.1rc2 (svn rev. 11289) starts on 19Dec2018 at 19:48:16

     Current dimensions of program PWSCF are:
     Max number of different atomic species (ntypx) = 10
     Max number of k-points (npk) =  40000
     Max angular momentum in pseudopotentials (lmaxx) =  3
     Presently stress not available with electric field

     IMPORTANT: XC functional enforced from input :
     Exchange-correlation      = BEEF-VDW ( 1  4 27 13 2)
     Any further DFT definition will be discarded
     Please, verify this is what you really want

     Subspace diagonalization in iterative solution of the eigenvalue problem:
     a serial algorithm will be used

     bravais-lattice index     =            0
     lattice parameter (alat)  =       1.8897  a.u.
     unit-cell volume          =    5104.2461 (a.u.)^3
     number of atoms/cell      =           12
     number of atomic types    =            2
     number of electrons       =       138.00
     number of Kohn-Sham states=           99
     kinetic-energy cutoff     =      36.7493  Ry
     charge density cutoff     =     367.4932  Ry
     convergence threshold     =      1.0E-06
     mixing beta               =       0.1000
     number of iterations used =           10  plain     mixing
     Exchange-correlation      = BEEF-VDW ( 1  4 27 13 2)
     nstep                     =           50

     celldm(1)=   1.889726  celldm(2)=   0.000000  celldm(3)=   0.000000
     celldm(4)=   0.000000  celldm(5)=   0.000000  celldm(6)=   0.000000

     crystal axes: (cart. coord. in units of alat)
               a(1) = (   5.929449   0.000000   0.000000 )
               a(2) = (  -2.964725   5.135054   0.000000 )
               a(3) = (   0.000000   0.000000  24.841375 )

     reciprocal axes: (cart. coord. in units 2 pi/alat)
               b(1) = (  0.168650  0.097370  0.000000 )
               b(2) = (  0.000000  0.194740  0.000000 )
               b(3) = (  0.000000  0.000000  0.040255 )

     PseudoPot. # 1 for Au read from file:
     /afs/slac.stanford.edu/u/if/mamunm/psp/gbrv1.5pbe/Au.UPF
     MD5 check sum: 9d7f43293ad2c663164586bc4b293ffc
     Pseudo is Ultrasoft + core correction, Zval = 11.0
     Generated by new atomic code, or converted to UPF format
     Using radial grid of  985 points,  7 beta functions with:
                l(1) =   0
                l(2) =   0
                l(3) =   1
                l(4) =   1
                l(5) =   2
                l(6) =   2
                l(7) =   3
     Q(r) pseudized with  6 coefficients,  rinner =    1.900   1.900   1.900
                                                       1.900   1.900   1.900
                                                       1.900

     PseudoPot. # 2 for Ta read from file:
     /afs/slac.stanford.edu/u/if/mamunm/psp/gbrv1.5pbe/Ta.UPF
     MD5 check sum: f8bbe9446314a3b8ea5d9f3e3836c939
     Pseudo is Ultrasoft + core correction, Zval = 13.0
     Generated by new atomic code, or converted to UPF format
     Using radial grid of  921 points,  7 beta functions with:
                l(1) =   0
                l(2) =   0
                l(3) =   1
                l(4) =   1
                l(5) =   2
                l(6) =   2
                l(7) =   3
     Q(r) pseudized with  6 coefficients,  rinner =    1.300   1.300   1.300
                                                       1.300   1.300   1.300
                                                       1.300

     vdW kernel table read from file vdW_kernel_table
     MD5 check sum: 095c7af220d748ca6e76c0b4c6cfb241

     atomic species   valence    mass     pseudopotential
        Au1           11.00   196.96657     Au( 1.00)
        Ta1           13.00   180.94788     Ta( 1.00)

     No symmetry found

   Cartesian axes

     site n.     atom                  positions (alat units)
         1           Au1 tau(   1) = (   0.0000000   0.0000000  10.0000000  )
         2           Au1 tau(   2) = (  -1.4823624   2.5675269  10.0000000  )
         3           Au1 tau(   3) = (   1.4823624   2.5675269  10.0000000  )
         4           Ta1 tau(   4) = (   2.9647247   0.0000000  10.0000000  )
         5           Au1 tau(   5) = (   2.9647247   1.7116846  12.4206876  )
         6           Au1 tau(   6) = (   1.4823624   4.2792115  12.4206876  )
         7           Au1 tau(   7) = (  -1.4823624   4.2792115  12.4206876  )
         8           Ta1 tau(   8) = (   0.0000000   1.7116846  12.4206876  )
         9           Au1 tau(   9) = (  -0.0000000   3.4233692  14.8413752  )
        10           Au1 tau(  10) = (   1.4823624   0.8558423  14.8413752  )
        11           Au1 tau(  11) = (   4.4470871   0.8558423  14.8413752  )
        12           Ta1 tau(  12) = (   2.9647247   3.4233692  14.8413752  )

     number of k points=    20  Fermi-Dirac smearing, width (Ry)=  0.0110
                       cart. coord. in units 2pi/alat
        k(    1) = (   0.0000000   0.0000000   0.0000000), wk =   0.0555556
        k(    2) = (   0.0000000   0.0324567   0.0000000), wk =   0.1111111
        k(    3) = (   0.0000000   0.0649133   0.0000000), wk =   0.1111111
        k(    4) = (   0.0000000  -0.0973700   0.0000000), wk =   0.0555556
        k(    5) = (   0.0281083   0.0162283   0.0000000), wk =   0.1111111
        k(    6) = (   0.0281083   0.0486850   0.0000000), wk =   0.1111111
        k(    7) = (   0.0281083   0.0811416   0.0000000), wk =   0.1111111
        k(    8) = (   0.0281083  -0.0811416   0.0000000), wk =   0.1111111
        k(    9) = (   0.0281083  -0.0486850   0.0000000), wk =   0.1111111
        k(   10) = (   0.0281083  -0.0162283   0.0000000), wk =   0.1111111
        k(   11) = (   0.0562166   0.0324567   0.0000000), wk =   0.1111111
        k(   12) = (   0.0562166   0.0649133   0.0000000), wk =   0.1111111
        k(   13) = (   0.0562166   0.0973700   0.0000000), wk =   0.1111111
        k(   14) = (   0.0562166  -0.0649133   0.0000000), wk =   0.1111111
        k(   15) = (   0.0562166  -0.0324567   0.0000000), wk =   0.1111111
        k(   16) = (   0.0562166  -0.0000000   0.0000000), wk =   0.1111111
        k(   17) = (  -0.0843249  -0.0486850   0.0000000), wk =   0.0555556
        k(   18) = (  -0.0843249  -0.0162283   0.0000000), wk =   0.1111111
        k(   19) = (  -0.0843249   0.0162283   0.0000000), wk =   0.1111111
        k(   20) = (  -0.0843249  -0.1460549   0.0000000), wk =   0.0555556

     Largest allocated arrays     est. size (Mb)     dimensions
     Largest temporary arrays     est. size (Mb)     dimensions

     Check: negative/imaginary core charge=   -0.000002    0.000000

     Initial potential from superposition of free atoms
     Check: negative starting charge=   -0.282863

     starting charge  137.99556, renormalised to  138.00000

     negative rho (up, down):  2.829E-01 0.000E+00

     *
     * You are using vdW-DF for exchange-correlation in this calculation.
     * Please cite the following three references that made this development
     * possible:
     *
     *   M. Dion, H. Rydberg, E. Schroder, D. C. Langreth, and
     *   B. I. Lundqvist, Phys. Rev. Lett. 92, 246401 (2004).
     *
     *   T. Thonhauser, V. R. Cooper, S. Li, A. Puzder, P. Hyldgaard, and
     *   D. C. Langreth, Phys. Rev. B 76, 125112 (2007).
     *
     *   G. Roman-Perez and J. M. Soler, Phys. Rev. Lett. 103, 096102 (2009).
     *
     *
     * If you are using vdW-DF2, please also cite:
     *
     *   K. Lee, E. D. Murray, L. Kong, B. I. Lundqvist, and
     *   D. C. Langreth, Phys. Rev. B 82, 081101(R) (2010).
     *
     *
     * If you are calculating the stress with vdW-DF, please also cite:
     *
     *   R. Sabatini, E. Kucukbenli, B. Kolb, T. Thonhauser, and
     *   S. de Gironcoli, J. Phys.: Condens. Matter 24, 424209 (2012).
     *

     Carrying out vdW-DF run using the following parameters:

     Nqs =      20    Nr_points =    1024   r_max =   100.000
     q_mesh =
               0.00001000     0.04494208     0.09755937     0.15916263
               0.23128650     0.31572767     0.41458969     0.53033537
               0.66584808     0.82450364     1.01025438     1.22772762
               1.48234092     1.78043706     2.12944203     2.53805004
               3.01644009     3.57652955     4.23227104     5.00000000

     Gradients computed in reciprocal space

     Adding external electric field

     Computed dipole along edir(3) :
        Dipole                0.0000 Ry au,          0.0000 Debye
        Dipole field          0.0000 Ry au

        Potential amp.       -0.0000 Ry
        Total length         45.7698 bohr

     Starting wfc are  120 randomized atomic wfcs

     Self-consistent Calculation

     iteration #  1     ecut=    36.75 Ry     beta=0.10
     Davidson diagonalization with overlap
     ethr =  1.00E-02,  avg # of iterations =  8.1

     Threshold (ethr) on eigenvalues was too large:
     Diagonalizing with lowered threshold

     Davidson diagonalization with overlap
     ethr =  4.67E-04,  avg # of iterations =  4.5

[...]

     total energy              =   -1479.76244697 Ry
     Harris-Foulkes estimate   =   -1479.86276006 Ry
     estimated scf accuracy    <       0.72313095 Ry

[...]

     End of self-consistent calculation

          k = 0.0000 0.0000 0.0000 ( 19219 PWs)   bands (ev):

   -68.6412 -68.5628 -68.5628 -34.9563 -34.8818 -34.8795 -34.8405 -34.8405
   -34.7770 -34.7770 -34.7762 -34.7762  -7.4507  -6.0068  -5.5896  -5.3339
    -5.2254  -5.2254  -5.1384  -5.1145  -5.1145  -4.8144  -4.8075  -4.8075
    -4.7968  -4.6758  -4.6758  -3.8453  -3.7221  -3.7221  -3.6976  -3.6976
    -3.4231  -3.3924  -3.2756  -3.1503  -3.1503  -3.1371  -3.0355  -3.0355
    -2.9211  -2.9211  -2.7777  -2.7776  -2.6919  -2.6919  -2.4494  -2.1125
    -2.1125  -2.0495  -2.0495  -1.8684  -1.8684  -1.6982  -1.4135  -1.4135
    -1.3171  -1.1759  -1.1074  -1.0724  -0.2967   0.4549   0.7545   0.7545
     0.8680   0.8680   1.1974   1.2286   1.2286   1.3416   1.3417   1.7849
     1.9158   1.9312   1.9312   1.9820   1.9820   2.5088   2.5088   3.3946
     3.3946   3.6569   3.6655   3.6655   4.0099   4.9641   5.2210   5.5685
     5.5806   5.5806   5.5926   5.5926   5.9512   6.0890   6.5160   6.5253
     6.5253   6.8219   7.2429

[...]

          k =-0.0843-0.0487 0.0000 ( 19212 PWs)   bands (ev):

[...]

     the Fermi energy is     1.1021 ev

!    total energy              =   -1479.70553263 Ry
     Harris-Foulkes estimate   =   -1479.70553130 Ry
     estimated scf accuracy    <       0.00000096 Ry

     The total energy is the sum of the following terms:

     one-electron contribution =   -8859.62488908 Ry
     hartree contribution      =    4495.70518844 Ry
     xc contribution           =    -706.09279915 Ry
     ewald contribution        =    3590.39752088 Ry
     electric field correction =       0.00000000 Ry
     smearing contrib. (-TS)   =      -0.09055371 Ry

     convergence has been achieved in  14 iterations

 BEEF-vdW xc energy contributions
           1 :   -629.000006310964
           2 :    584.173242420661
           3 :   -504.176493414438
           4 :    404.855890540432
           5 :   -303.242570772711
           6 :    212.990723781185
[...]
                l(1) =   0
                l(2) =   0
                l(3) =   1
                l(4) =   1
                l(5) =   2
                l(6) =   2
                l(7) =   3
     Q(r) pseudized with  6 coefficients,  rinner =    1.900   1.900   1.900
                                                       1.900   1.900   1.900
                                                       1.900

     PseudoPot. # 2 for Ta read from file:
     /afs/slac.stanford.edu/u/if/mamunm/psp/gbrv1.5pbe/Ta.UPF
     MD5 check sum: f8bbe9446314a3b8ea5d9f3e3836c939
     Pseudo is Ultrasoft + core correction, Zval = 13.0
     Generated by new atomic code, or converted to UPF format
     Using radial grid of  921 points,  7 beta functions with:
                l(1) =   0
                l(2) =   0
                l(3) =   1
                l(4) =   1
                l(5) =   2
                l(6) =   2
                l(7) =   3
     Q(r) pseudized with  6 coefficients,  rinner =    1.300   1.300   1.300
                                                       1.300   1.300   1.300
                                                       1.300

     vdW kernel table read from file vdW_kernel_table
     MD5 check sum: 095c7af220d748ca6e76c0b4c6cfb241

     atomic species   valence    mass     pseudopotential
        Au1           11.00   196.96657     Au( 1.00)
        Ta1           13.00   180.94788     Ta( 1.00)

     No symmetry found

   Cartesian axes

     site n.     atom                  positions (alat units)
         1           Au1 tau(   1) = (   0.0000000   0.0000000  10.0000000  )
         2           Au1 tau(   2) = (  -1.4823624   2.5675269  10.0000000  )
         3           Au1 tau(   3) = (   1.4823624   2.5675269  10.0000000  )
         4           Ta1 tau(   4) = (   2.9647247   0.0000000  10.0000000  )
         5           Au1 tau(   5) = (   2.9647247   1.7116846  12.4206876  )
         6           Au1 tau(   6) = (   1.4823624   4.2792115  12.4206876  )
         7           Au1 tau(   7) = (  -1.4823624   4.2792115  12.4206876  )
         8           Ta1 tau(   8) = (   0.0000000   1.7116846  12.4206876  )
         9           Au1 tau(   9) = (  -0.0000078   3.4088007  14.8501869  )
        10           Au1 tau(  10) = (   1.4697498   0.8631260  14.8501788  )
        11           Au1 tau(  11) = (   4.4597015   0.8631203  14.8501818  )
        12           Ta1 tau(  12) = (   2.9647192   3.4233702  14.6109549  )

     number of k points=    20  Fermi-Dirac smearing, width (Ry)=  0.0110
                       cart. coord. in units 2pi/alat
        k(    1) = (   0.0000000   0.0000000   0.0000000), wk =   0.0555556
        k(    2) = (   0.0000000   0.0324567   0.0000000), wk =   0.1111111
        k(    3) = (   0.0000000   0.0649133   0.0000000), wk =   0.1111111
        k(    4) = (   0.0000000  -0.0973700   0.0000000), wk =   0.0555556
        k(    5) = (   0.0281083   0.0162283   0.0000000), wk =   0.1111111
        k(    6) = (   0.0281083   0.0486850   0.0000000), wk =   0.1111111
        k(    7) = (   0.0281083   0.0811416   0.0000000), wk =   0.1111111
        k(    8) = (   0.0281083  -0.0811416   0.0000000), wk =   0.1111111
        k(    9) = (   0.0281083  -0.0486850   0.0000000), wk =   0.1111111
        k(   10) = (   0.0281083  -0.0162283   0.0000000), wk =   0.1111111
        k(   11) = (   0.0562166   0.0324567   0.0000000), wk =   0.1111111
        k(   12) = (   0.0562166   0.0649133   0.0000000), wk =   0.1111111
        k(   13) = (   0.0562166   0.0973700   0.0000000), wk =   0.1111111
        k(   14) = (   0.0562166  -0.0649133   0.0000000), wk =   0.1111111
        k(   15) = (   0.0562166  -0.0324567   0.0000000), wk =   0.1111111
        k(   16) = (   0.0562166  -0.0000000   0.0000000), wk =   0.1111111
        k(   17) = (  -0.0843249  -0.0486850   0.0000000), wk =   0.0555556
        k(   18) = (  -0.0843249  -0.0162283   0.0000000), wk =   0.1111111
        k(   19) = (  -0.0843249   0.0162283   0.0000000), wk =   0.1111111
        k(   20) = (  -0.0843249  -0.1460549   0.0000000), wk =   0.0555556

     Largest allocated arrays     est. size (Mb)     dimensions
     Largest temporary arrays     est. size (Mb)     dimensions

     Check: negative/imaginary core charge=   -0.000002    0.000000

     Initial potential from superposition of free atoms
     Check: negative starting charge=   -0.281738

     starting charge  137.99556, renormalised to  138.00000

[...]

     *
     * You are using vdW-DF for exchange-correlation in this calculation.
     * Please cite the following three references that made this development
     * possible:
     *
     *   M. Dion, H. Rydberg, E. Schroder, D. C. Langreth, and
     *   B. I. Lundqvist, Phys. Rev. Lett. 92, 246401 (2004).
     *
     *   T. Thonhauser, V. R. Cooper, S. Li, A. Puzder, P. Hyldgaard, and
     *   D. C. Langreth, Phys. Rev. B 76, 125112 (2007).
     *
     *   G. Roman-Perez and J. M. Soler, Phys. Rev. Lett. 103, 096102 (2009).
     *
     *
     * If you are using vdW-DF2, please also cite:
     *
     *   K. Lee, E. D. Murray, L. Kong, B. I. Lundqvist, and
     *   D. C. Langreth, Phys. Rev. B 82, 081101(R) (2010).
     *
     *
     * If you are calculating the stress with vdW-DF, please also cite:
     *
     *   R. Sabatini, E. Kucukbenli, B. Kolb, T. Thonhauser, and
     *   S. de Gironcoli, J. Phys.: Condens. Matter 24, 424209 (2012).
     *

     Carrying out vdW-DF run using the following parameters:

     Nqs =      20    Nr_points =    1024   r_max =   100.000
     q_mesh =
               0.00001000     0.04494208     0.09755937     0.15916263
               0.23128650     0.31572767     0.41458969     0.53033537
               0.66584808     0.82450364     1.01025438     1.22772762
               1.48234092     1.78043706     2.12944203     2.53805004
               3.01644009     3.57652955     4.23227104     5.00000000

     Gradients computed in reciprocal space

[...]

     Starting wfc are  120 randomized atomic wfcs

     Self-consistent Calculation

[...]

     Threshold (ethr) on eigenvalues was too large:
     Diagonalizing with lowered threshold

     Davidson diagonalization with overlap
     ethr =  4.80E-04,  avg # of iterations =  4.2

[...]

     total energy              =   -1479.73449691 Ry
     Harris-Foulkes estimate   =   -1479.73201500 Ry
     estimated scf accuracy    <       0.00000106 Ry

     iteration # 16     ecut=    36.75 Ry     beta=0.10
     Davidson diagonalization with overlap
     ethr =  7.68E-10,  avg # of iterations =  2.0

[...]

     negative rho (up, down):  2.938E-01 0.000E+00

     Adding external electric field

     Computed dipole along edir(3) :
        Dipole               -0.0310 Ry au,         -0.0788 Debye
        Dipole field         -0.0001 Ry au

        Potential amp.        0.0070 Ry
        Total length         45.7698 bohr

     End of self-consistent calculation

[...]

          k = 0.0562-0.0000 0.0000 ( 19201 PWs)   bands (ev):

[...]

          k =-0.0843-0.1461 0.0000 ( 19212 PWs)   bands (ev):

   -68.6765 -68.5894 -68.5777 -35.0058 -34.9230 -34.8953 -34.8746 -34.8735
   -34.8172 -34.8151 -34.8077 -34.8057  -6.1166  -5.9960  -5.0552  -4.9063
    -4.8453  -4.8204  -4.7674  -4.7484  -4.5974  -4.4939  -4.4423  -4.3408
    -4.1548  -4.0910  -4.0396  -4.0124  -4.0063  -3.9670  -3.8894  -3.7936
    -3.4406  -3.4043  -3.3582  -3.3010  -3.2593  -3.2281  -3.2162  -3.1995
    -3.1928  -3.1346  -3.0921  -3.0759  -3.0572  -2.9879  -2.9154  -2.8494
    -2.7596  -2.6984  -2.6978  -2.5905  -2.5693  -2.5687  -2.3970  -2.3179
    -2.0254  -1.9219  -1.6619  -1.6026  -1.5097  -1.3635  -0.6604  -0.4726
     0.1026   0.4062   0.6059   0.7371   1.0251   1.0331   1.1752   1.1792
     1.2028   1.5095   1.5995   1.6602   2.1422   2.4649   2.7113   2.9362
     3.9679   4.2366   4.6404   4.6828   4.9951   5.1475   6.1586   6.1935
     6.2410   6.7657   6.8030   6.8766   6.8880   6.8966   7.3226   7.3313
     7.5082   7.8202   7.9647

     the Fermi energy is     1.0521 ev

!    total energy              =   -1479.73449730 Ry
     Harris-Foulkes estimate   =   -1479.73449722 Ry
     estimated scf accuracy    <       0.00000035 Ry

     The total energy is the sum of the following terms:

     one-electron contribution =   -8933.19424449 Ry
     hartree contribution      =    4532.16393486 Ry
     xc contribution           =    -706.21311386 Ry
     ewald contribution        =    3627.59882778 Ry
     electric field correction =       0.00000237 Ry
     smearing contrib. (-TS)   =      -0.08990395 Ry

     convergence has been achieved in  16 iterations

 BEEF-vdW xc energy contributions
           1 :   -629.713599148762
           2 :    584.923577425759
           3 :   -504.978277155543
           4 :    405.684539058941
           5 :   -304.038901207869
           6 :    213.692302789808
           7 :   -142.339538096299
           8 :    91.4732828805085
           9 :   -58.0629827588308
          10 :    37.0786359465950
          11 :   -23.7395840008418
          12 :    14.7463634654515
          13 :   -8.40416448884980
          14 :    4.02778725665496
          15 :   -1.21045201648224
          16 :  -0.626408793105384
          17 :    2.26175851522066
          18 :   -4.41172726197567
          19 :    7.40595449771865
          20 :   -11.0201441229322
          21 :    14.5528637270087
          22 :   -17.1118855368786
          23 :    17.9762857308026
          24 :   -16.8886217001838
          25 :    14.1629231489542
          26 :   -10.5789247829908
          27 :    7.10912504186581
          28 :   -4.58929006538210
          29 :    3.45387423370153
          30 :   -3.63506537027831
          31 :   -50.8612506515166
          32 :   -37.2435800101799

     Forces acting on atoms (Ry/au):

     negative rho (up, down):  2.938E-01 0.000E+00
     atom    1 type  1   force =    -0.00000091    0.00327521   -0.00225082
     atom    2 type  1   force =     0.00283740   -0.00163543   -0.00225092
     atom    3 type  1   force =    -0.00283826   -0.00163709   -0.00225068
     atom    4 type  2   force =     0.00000007    0.00000087    0.02252875
     atom    5 type  1   force =     0.00000069   -0.01396692   -0.00628382
     atom    6 type  1   force =    -0.01209542    0.00698291   -0.00628484
     atom    7 type  1   force =     0.01209630    0.00698179   -0.00628442
     atom    8 type  2   force =    -0.00000002   -0.00000116    0.00229680
     atom    9 type  1   force =    -0.00000027    0.00029912    0.00088779
     atom   10 type  1   force =     0.00025891   -0.00014946    0.00088771
     atom   11 type  1   force =    -0.00025799   -0.00014924    0.00088960
     atom   12 type  2   force =    -0.00000050   -0.00000059   -0.00188514

     Total force =     0.035638     Total SCF correction =     0.001987

     entering subroutine stress ...

     negative rho (up, down):  2.938E-01 0.000E+00
          total   stress  (Ry/bohr**3)                   (kbar)     P=  -14.37
  -0.00013217  -0.00000000   0.00000000        -19.44     -0.00      0.00
  -0.00000000  -0.00013217   0.00000000         -0.00    -19.44      0.00
   0.00000000   0.00000000  -0.00002870          0.00      0.00     -4.22

 !ASE

     Writing output data file calc.save

     General routines

     Parallel routines

   This run was terminated on:  20:29:53  19Dec2018

   JOB DONE.
Job  /afs/slac/g/suncat/bin/suncat-tsmpirun -x LD_LIBRARY_PATH -wdir /scratch/qe773394_fCxuP pw.x -in pw.inp

TID   HOST_NAME   COMMAND_LINE            STATUS            TERMINATION_TIME
00000 suncat0169 pw.x -in pw.inp   Done                     12/19/2018 20:29:53
00001 suncat0169 pw.x -in pw.inp   Done                     12/19/2018 20:29:53
00002 suncat0169 pw.x -in pw.inp   Done                     12/19/2018 20:29:53
00003 suncat0169 pw.x -in pw.inp   Done                     12/19/2018 20:29:53
00004 suncat0169 pw.x -in pw.inp   Done                     12/19/2018 20:29:53
00005 suncat0169 pw.x -in pw.inp   Done                     12/19/2018 20:29:53
00006 suncat0169 pw.x -in pw.inp   Done                     12/19/2018 20:29:53
00007 suncat0169 pw.x -in pw.inp   Done                     12/19/2018 20:29:53
00008 suncat0168 pw.x -in pw.inp   Done                     12/19/2018 20:29:53
00009 suncat0168 pw.x -in pw.inp   Done                     12/19/2018 20:29:53
00010 suncat0168 pw.x -in pw.inp   Done                     12/19/2018 20:29:53
00011 suncat0168 pw.x -in pw.inp   Done                     12/19/2018 20:29:53
00012 suncat0168 pw.x -in pw.inp   Done                     12/19/2018 20:29:53
00013 suncat0168 pw.x -in pw.inp   Done                     12/19/2018 20:29:53
00014 suncat0168 pw.x -in pw.inp   Done                     12/19/2018 20:29:53
00015 suncat0168 pw.x -in pw.inp   Done                     12/19/2018 20:29:53
00016 suncat0110 pw.x -in pw.inp   Done                     12/19/2018 20:29:53
00017 suncat0110 pw.x -in pw.inp   Done                     12/19/2018 20:29:53
00018 suncat0110 pw.x -in pw.inp   Done                     12/19/2018 20:29:53
00019 suncat0110 pw.x -in pw.inp   Done                     12/19/2018 20:29:53
00020 suncat0110 pw.x -in pw.inp   Done                     12/19/2018 20:29:53
00021 suncat0110 pw.x -in pw.inp   Done                     12/19/2018 20:29:53
00022 suncat0110 pw.x -in pw.inp   Done                     12/19/2018 20:29:53
00023 suncat0110 pw.x -in pw.inp   Done                     12/19/2018 20:29:53
00024 suncat0109 pw.x -in pw.inp   Done                     12/19/2018 20:29:53
00025 suncat0109 pw.x -in pw.inp   Done                     12/19/2018 20:29:53
00026 suncat0109 pw.x -in pw.inp   Done                     12/19/2018 20:29:53
00027 suncat0109 pw.x -in pw.inp   Done                     12/19/2018 20:29:53
00028 suncat0109 pw.x -in pw.inp   Done                     12/19/2018 20:29:53
00029 suncat0109 pw.x -in pw.inp   Done                     12/19/2018 20:29:53
00030 suncat0109 pw.x -in pw.inp   Done                     12/19/2018 20:29:53
00031 suncat0109 pw.x -in pw.inp   Done                     12/19/2018 20:29:53
00032 suncat0108 pw.x -in pw.inp   Done                     12/19/2018 20:29:53
00033 suncat0108 pw.x -in pw.inp   Done                     12/19/2018 20:29:53
00034 suncat0108 pw.x -in pw.inp   Done                     12/19/2018 20:29:53
00035 suncat0108 pw.x -in pw.inp   Done                     12/19/2018 20:29:53
00036 suncat0108 pw.x -in pw.inp   Done                     12/19/2018 20:29:53
00037 suncat0108 pw.x -in pw.inp   Done                     12/19/2018 20:29:53
00038 suncat0108 pw.x -in pw.inp   Done                     12/19/2018 20:29:53
00039 suncat0108 pw.x -in pw.inp   Done                     12/19/2018 20:29:53
00040 suncat0107 pw.x -in pw.inp   Done                     12/19/2018 20:29:53
00041 suncat0107 pw.x -in pw.inp   Done                     12/19/2018 20:29:53
00042 suncat0107 pw.x -in pw.inp   Done                     12/19/2018 20:29:53
00043 suncat0107 pw.x -in pw.inp   Done                     12/19/2018 20:29:53
00044 suncat0107 pw.x -in pw.inp   Done                     12/19/2018 20:29:53
00045 suncat0107 pw.x -in pw.inp   Done                     12/19/2018 20:29:53
00046 suncat0107 pw.x -in pw.inp   Done                     12/19/2018 20:29:53
00047 suncat0107 pw.x -in pw.inp   Done                     12/19/2018 20:29:53
00048 suncat0106 pw.x -in pw.inp   Done                     12/19/2018 20:29:53
00049 suncat0106 pw.x -in pw.inp   Done                     12/19/2018 20:29:53
00050 suncat0106 pw.x -in pw.inp   Done                     12/19/2018 20:29:53
00051 suncat0106 pw.x -in pw.inp   Done                     12/19/2018 20:29:53
00052 suncat0106 pw.x -in pw.inp   Done                     12/19/2018 20:29:53
00053 suncat0106 pw.x -in pw.inp   Done                     12/19/2018 20:29:53
00054 suncat0106 pw.x -in pw.inp   Done                     12/19/2018 20:29:53
00055 suncat0106 pw.x -in pw.inp   Done                     12/19/2018 20:29:53
00056 suncat0105 pw.x -in pw.inp   Done                     12/19/2018 20:29:53
00057 suncat0105 pw.x -in pw.inp   Done                     12/19/2018 20:29:53
00058 suncat0105 pw.x -in pw.inp   Done                     12/19/2018 20:29:53
00059 suncat0105 pw.x -in pw.inp   Done                     12/19/2018 20:29:53
00060 suncat0105 pw.x -in pw.inp   Done                     12/19/2018 20:29:53
00061 suncat0105 pw.x -in pw.inp   Done                     12/19/2018 20:29:53
00062 suncat0105 pw.x -in pw.inp   Done                     12/19/2018 20:29:53
00063 suncat0105 pw.x -in pw.inp   Done                     12/19/2018 20:29:53