     Program PWSCF v.5.1rc2 (svn rev. 11289) starts on 27Dec2018 at 18: 2:44

     Current dimensions of program PWSCF are:
     Max number of different atomic species (ntypx) = 10
     Max number of k-points (npk) =  40000
     Max angular momentum in pseudopotentials (lmaxx) =  3
     Presently stress not available with electric field

     IMPORTANT: XC functional enforced from input :
     Exchange-correlation      = BEEF-VDW ( 1  4 27 13 2)
     Any further DFT definition will be discarded
     Please, verify this is what you really want

     Subspace diagonalization in iterative solution of the eigenvalue problem:
     a serial algorithm will be used

     bravais-lattice index     =            0
     lattice parameter (alat)  =       1.8897  a.u.
     unit-cell volume          =    4452.6976 (a.u.)^3
     number of atoms/cell      =           12
     number of atomic types    =            2
     number of electrons       =       189.00
     number of Kohn-Sham states=          124
     kinetic-energy cutoff     =      36.7493  Ry
     charge density cutoff     =     367.4932  Ry
     convergence threshold     =      1.0E-06
     mixing beta               =       0.1000
     number of iterations used =           10  plain     mixing
     Exchange-correlation      = BEEF-VDW ( 1  4 27 13 2)
     nstep                     =           50

     celldm(1)=   1.889726  celldm(2)=   0.000000  celldm(3)=   0.000000
     celldm(4)=   0.000000  celldm(5)=   0.000000  celldm(6)=   0.000000

     crystal axes: (cart. coord. in units of alat)
               a(1) = (   5.571007   0.000000   0.000000 )
               a(2) = (  -2.785503   4.824633   0.000000 )
               a(3) = (   0.000000   0.000000  24.548708 )

     reciprocal axes: (cart. coord. in units 2 pi/alat)
               b(1) = (  0.179501  0.103635  0.000000 )
               b(2) = (  0.000000  0.207270  0.000000 )
               b(3) = (  0.000000  0.000000  0.040735 )

     PseudoPot. # 1 for Pd read from file:
     /afs/slac.stanford.edu/u/if/mamunm/psp/gbrv1.5pbe/Pd.UPF
     MD5 check sum: 2d733d2bc2cbfd217af676df1668a4bc
     Pseudo is Ultrasoft + core correction, Zval = 16.0
     Generated by new atomic code, or converted to UPF format
     Using radial grid of  887 points,  6 beta functions with:
                l(1) =   0
                l(2) =   0
                l(3) =   1
                l(4) =   1
                l(5) =   2
                l(6) =   2
     Q(r) pseudized with  8 coefficients,  rinner =    1.130   1.130   1.130
                                                       1.130   1.130

     PseudoPot. # 2 for Tc read from file:
     /afs/slac.stanford.edu/u/if/mamunm/psp/gbrv1.5pbe/Tc.UPF
     MD5 check sum: 9eb49e5b028550b2339a02317eb7b844
     Pseudo is Ultrasoft + core correction, Zval = 15.0
     Generated by new atomic code, or converted to UPF format
     Using radial grid of  965 points,  6 beta functions with:
                l(1) =   0
                l(2) =   0
                l(3) =   1
                l(4) =   1
                l(5) =   2
                l(6) =   2
     Q(r) pseudized with  8 coefficients,  rinner =    1.300   1.300   1.300
                                                       1.300   1.300

     vdW kernel table read from file vdW_kernel_table
     MD5 check sum: 095c7af220d748ca6e76c0b4c6cfb241

     atomic species   valence    mass     pseudopotential
        Pd1           16.00   106.42000     Pd( 1.00)
        Tc1           15.00    97.90721     Tc( 1.00)

     No symmetry found

   Cartesian axes

     site n.     atom                  positions (alat units)
         1           Pd1 tau(   1) = (   0.0000000   0.0000000  10.0000000  )
         2           Pd1 tau(   2) = (  -1.3927516   2.4123166  10.0000000  )
         3           Pd1 tau(   3) = (   1.3927516   2.4123166  10.0000000  )
         4           Tc1 tau(   4) = (   2.7855033   0.0000000  10.0000000  )
         5           Pd1 tau(   5) = (   2.7855033   1.6082111  12.2743539  )
         6           Pd1 tau(   6) = (   1.3927516   4.0205277  12.2743539  )
         7           Pd1 tau(   7) = (  -1.3927516   4.0205277  12.2743539  )
         8           Tc1 tau(   8) = (   0.0000000   1.6082111  12.2743539  )
         9           Pd1 tau(   9) = (  -0.0000000   3.2164221  14.5487078  )
        10           Pd1 tau(  10) = (   1.3927516   0.8041055  14.5487078  )
        11           Pd1 tau(  11) = (   4.1782549   0.8041055  14.5487078  )
        12           Tc1 tau(  12) = (   2.7855033   3.2164221  14.5487078  )

     number of k points=    20  Fermi-Dirac smearing, width (Ry)=  0.0110
                       cart. coord. in units 2pi/alat
        k(    1) = (   0.0000000   0.0000000   0.0000000), wk =   0.0555556
        k(    2) = (   0.0000000   0.0345449   0.0000000), wk =   0.1111111
        k(    3) = (   0.0000000   0.0690899   0.0000000), wk =   0.1111111
        k(    4) = (   0.0000000  -0.1036348   0.0000000), wk =   0.0555556
        k(    5) = (   0.0299168   0.0172725   0.0000000), wk =   0.1111111
        k(    6) = (   0.0299168   0.0518174   0.0000000), wk =   0.1111111
        k(    7) = (   0.0299168   0.0863624   0.0000000), wk =   0.1111111
        k(    8) = (   0.0299168  -0.0863624   0.0000000), wk =   0.1111111
        k(    9) = (   0.0299168  -0.0518174   0.0000000), wk =   0.1111111
        k(   10) = (   0.0299168  -0.0172725   0.0000000), wk =   0.1111111
        k(   11) = (   0.0598336   0.0345449   0.0000000), wk =   0.1111111
        k(   12) = (   0.0598336   0.0690899   0.0000000), wk =   0.1111111
        k(   13) = (   0.0598336   0.1036348   0.0000000), wk =   0.1111111
        k(   14) = (   0.0598336  -0.0690899   0.0000000), wk =   0.1111111
        k(   15) = (   0.0598336  -0.0345449   0.0000000), wk =   0.1111111
        k(   16) = (   0.0598336  -0.0000000   0.0000000), wk =   0.1111111
        k(   17) = (  -0.0897504  -0.0518174   0.0000000), wk =   0.0555556
        k(   18) = (  -0.0897504  -0.0172725   0.0000000), wk =   0.1111111
        k(   19) = (  -0.0897504   0.0172725   0.0000000), wk =   0.1111111
        k(   20) = (  -0.0897504  -0.1554522   0.0000000), wk =   0.0555556

     Largest allocated arrays     est. size (Mb)     dimensions
     Largest temporary arrays     est. size (Mb)     dimensions

     Check: negative/imaginary core charge=   -0.000008    0.000000

     Initial potential from superposition of free atoms
     Check: negative starting charge=   -1.061391

     starting charge  181.49985, renormalised to  189.00000

     negative rho (up, down):  1.105E+00 0.000E+00

     *
     * You are using vdW-DF for exchange-correlation in this calculation.
     * Please cite the following three references that made this development
     * possible:
     *
     *   M. Dion, H. Rydberg, E. Schroder, D. C. Langreth, and
     *   B. I. Lundqvist, Phys. Rev. Lett. 92, 246401 (2004).
     *
     *   T. Thonhauser, V. R. Cooper, S. Li, A. Puzder, P. Hyldgaard, and
     *   D. C. Langreth, Phys. Rev. B 76, 125112 (2007).
     *
     *   G. Roman-Perez and J. M. Soler, Phys. Rev. Lett. 103, 096102 (2009).
     *
     *
     * If you are using vdW-DF2, please also cite:
     *
     *   K. Lee, E. D. Murray, L. Kong, B. I. Lundqvist, and
     *   D. C. Langreth, Phys. Rev. B 82, 081101(R) (2010).
     *
     *
     * If you are calculating the stress with vdW-DF, please also cite:
     *
     *   R. Sabatini, E. Kucukbenli, B. Kolb, T. Thonhauser, and
     *   S. de Gironcoli, J. Phys.: Condens. Matter 24, 424209 (2012).
     *

     Carrying out vdW-DF run using the following parameters:

     Nqs =      20    Nr_points =    1024   r_max =   100.000
     q_mesh =
               0.00001000     0.04494208     0.09755937     0.15916263
               0.23128650     0.31572767     0.41458969     0.53033537
               0.66584808     0.82450364     1.01025438     1.22772762
               1.48234092     1.78043706     2.12944203     2.53805004
               3.01644009     3.57652955     4.23227104     5.00000000

     Gradients computed in reciprocal space

     Adding external electric field

     Computed dipole along edir(3) :
        Dipole               -0.0000 Ry au,         -0.0000 Debye
        Dipole field         -0.0000 Ry au

        Potential amp.        0.0000 Ry
        Total length         45.2306 bohr

     Starting wfc are  147 randomized atomic wfcs

     Self-consistent Calculation

     iteration #  1     ecut=    36.75 Ry     beta=0.10
     Davidson diagonalization with overlap
     ethr =  1.00E-02,  avg # of iterations =  7.4

[...]

     total energy              =   -2316.46468271 Ry
     Harris-Foulkes estimate   =   -2331.16872562 Ry
     estimated scf accuracy    <      84.95997213 Ry

[...]

     End of self-consistent calculation

          k = 0.0000 0.0000 0.0000 ( 16703 PWs)   bands (ev):

   -65.9292 -65.5244 -65.5243 -49.1302 -49.0693 -49.0693 -48.9962 -48.9962
   -48.9470 -48.9469 -48.8275 -48.8275 -48.7859 -48.7859 -48.7525 -48.7525
   -48.7479 -48.7473 -48.6797 -48.6766 -48.5509 -48.5509 -48.5482 -48.5482
   -48.5111 -48.4900 -48.4541 -48.4541 -48.4469 -48.4469 -37.9606 -37.8632
   -37.8632 -37.5320 -37.5320 -37.5308 -37.5308 -37.4760 -37.4715  -4.9413
    -3.6671  -3.6671  -3.6442  -3.6191  -3.6015  -3.4308  -3.3741  -3.3741
    -3.2085  -3.2085  -3.1876  -2.9760  -2.9365  -2.9365  -2.0211  -1.9593
    -1.9593  -1.7511  -1.7511  -1.5708  -1.4555  -1.3420  -1.3420  -1.3076
    -1.1400  -1.1400  -1.0453  -0.9504  -0.9504  -0.8907  -0.8907  -0.5193
    -0.5193  -0.1963   0.0972   0.0972   0.1094   0.1094   0.2396   0.2396
     0.5061   0.6216   0.8504   0.8520   0.8520   0.9505   1.2121   1.2597
     1.3794   1.4482   1.4482   1.7107   1.7107   2.0217   2.0217   2.1430
     2.1615   2.1615   2.3680   2.3680   2.5957   2.5957   2.6241   3.4735
     3.4735   3.5432   4.9777   4.9777   5.1776   5.1776   5.2214   5.3324
     5.6172   5.9180   6.2825   7.2182   8.0283   8.5011   8.5011   8.5254
     8.5254   8.7440   8.7575   9.5322

[...]

          k =-0.0898-0.0518 0.0000 ( 16784 PWs)   bands (ev):

[...]

     the Fermi energy is     1.4772 ev

!    total energy              =   -2323.70183055 Ry
     Harris-Foulkes estimate   =   -2323.70181782 Ry
     estimated scf accuracy    <       0.00000090 Ry

     The total energy is the sum of the following terms:

     one-electron contribution =  -19929.68253707 Ry
     hartree contribution      =    9999.45009345 Ry
     xc contribution           =    -391.55913025 Ry
     ewald contribution        =    7998.19679671 Ry
     electric field correction =       0.00000000 Ry
     smearing contrib. (-TS)   =      -0.10705339 Ry

     convergence has been achieved in  18 iterations

 BEEF-vdW xc energy contributions
           1 :   -341.454552700313
           2 :    312.627626251712
           3 :   -262.832369619427
           4 :    204.503010542010
           5 :   -150.074671837161
           6 :    107.984350537032
           7 :   -80.8262224374406
           8 :    65.9843416683445
           9 :   -58.0953466787986
          10 :    51.9715516140843
[...]
     Pseudo is Ultrasoft + core correction, Zval = 16.0
     Generated by new atomic code, or converted to UPF format
     Using radial grid of  887 points,  6 beta functions with:
                l(1) =   0
                l(2) =   0
                l(3) =   1
                l(4) =   1
                l(5) =   2
                l(6) =   2
     Q(r) pseudized with  8 coefficients,  rinner =    1.130   1.130   1.130
                                                       1.130   1.130

     PseudoPot. # 2 for Tc read from file:
     /afs/slac.stanford.edu/u/if/mamunm/psp/gbrv1.5pbe/Tc.UPF
     MD5 check sum: 9eb49e5b028550b2339a02317eb7b844
     Pseudo is Ultrasoft + core correction, Zval = 15.0
     Generated by new atomic code, or converted to UPF format
     Using radial grid of  965 points,  6 beta functions with:
                l(1) =   0
                l(2) =   0
                l(3) =   1
                l(4) =   1
                l(5) =   2
                l(6) =   2
     Q(r) pseudized with  8 coefficients,  rinner =    1.300   1.300   1.300
                                                       1.300   1.300

     vdW kernel table read from file vdW_kernel_table
     MD5 check sum: 095c7af220d748ca6e76c0b4c6cfb241

     atomic species   valence    mass     pseudopotential
        Pd1           16.00   106.42000     Pd( 1.00)
        Tc1           15.00    97.90721     Tc( 1.00)

     No symmetry found

   Cartesian axes

     site n.     atom                  positions (alat units)
         1           Pd1 tau(   1) = (   0.0000000   0.0000000  10.0000000  )
         2           Pd1 tau(   2) = (  -1.3927516   2.4123166  10.0000000  )
         3           Pd1 tau(   3) = (   1.3927516   2.4123166  10.0000000  )
         4           Tc1 tau(   4) = (   2.7855033   0.0000000  10.0000000  )
         5           Pd1 tau(   5) = (   2.7855033   1.6082111  12.2743539  )
         6           Pd1 tau(   6) = (   1.3927516   4.0205277  12.2743539  )
         7           Pd1 tau(   7) = (  -1.3927516   4.0205277  12.2743539  )
         8           Tc1 tau(   8) = (   0.0000000   1.6082111  12.2743539  )
         9           Pd1 tau(   9) = (   0.0000009   3.1873915  14.5540793  )
        10           Pd1 tau(  10) = (   1.3676114   0.8186210  14.5540800  )
        11           Pd1 tau(  11) = (   4.2033962   0.8186206  14.5540801  )
        12           Tc1 tau(  12) = (   2.7855030   3.2164218  14.4168783  )

     number of k points=    20  Fermi-Dirac smearing, width (Ry)=  0.0110
                       cart. coord. in units 2pi/alat
        k(    1) = (   0.0000000   0.0000000   0.0000000), wk =   0.0555556
        k(    2) = (   0.0000000   0.0345449   0.0000000), wk =   0.1111111
        k(    3) = (   0.0000000   0.0690899   0.0000000), wk =   0.1111111
        k(    4) = (   0.0000000  -0.1036348   0.0000000), wk =   0.0555556
        k(    5) = (   0.0299168   0.0172725   0.0000000), wk =   0.1111111
        k(    6) = (   0.0299168   0.0518174   0.0000000), wk =   0.1111111
        k(    7) = (   0.0299168   0.0863624   0.0000000), wk =   0.1111111
        k(    8) = (   0.0299168  -0.0863624   0.0000000), wk =   0.1111111
        k(    9) = (   0.0299168  -0.0518174   0.0000000), wk =   0.1111111
        k(   10) = (   0.0299168  -0.0172725   0.0000000), wk =   0.1111111
        k(   11) = (   0.0598336   0.0345449   0.0000000), wk =   0.1111111
        k(   12) = (   0.0598336   0.0690899   0.0000000), wk =   0.1111111
        k(   13) = (   0.0598336   0.1036348   0.0000000), wk =   0.1111111
        k(   14) = (   0.0598336  -0.0690899   0.0000000), wk =   0.1111111
        k(   15) = (   0.0598336  -0.0345449   0.0000000), wk =   0.1111111
        k(   16) = (   0.0598336  -0.0000000   0.0000000), wk =   0.1111111
        k(   17) = (  -0.0897504  -0.0518174   0.0000000), wk =   0.0555556
        k(   18) = (  -0.0897504  -0.0172725   0.0000000), wk =   0.1111111
        k(   19) = (  -0.0897504   0.0172725   0.0000000), wk =   0.1111111
        k(   20) = (  -0.0897504  -0.1554522   0.0000000), wk =   0.0555556

     Largest allocated arrays     est. size (Mb)     dimensions
     Largest temporary arrays     est. size (Mb)     dimensions

     Check: negative/imaginary core charge=   -0.000008    0.000000

     Initial potential from superposition of free atoms
     Check: negative starting charge=   -1.058539

     starting charge  181.49985, renormalised to  189.00000

[...]

     *
     * You are using vdW-DF for exchange-correlation in this calculation.
     * Please cite the following three references that made this development
     * possible:
     *
     *   M. Dion, H. Rydberg, E. Schroder, D. C. Langreth, and
     *   B. I. Lundqvist, Phys. Rev. Lett. 92, 246401 (2004).
     *
     *   T. Thonhauser, V. R. Cooper, S. Li, A. Puzder, P. Hyldgaard, and
     *   D. C. Langreth, Phys. Rev. B 76, 125112 (2007).
     *
     *   G. Roman-Perez and J. M. Soler, Phys. Rev. Lett. 103, 096102 (2009).
     *
     *
     * If you are using vdW-DF2, please also cite:
     *
     *   K. Lee, E. D. Murray, L. Kong, B. I. Lundqvist, and
     *   D. C. Langreth, Phys. Rev. B 82, 081101(R) (2010).
     *
     *
     * If you are calculating the stress with vdW-DF, please also cite:
     *
     *   R. Sabatini, E. Kucukbenli, B. Kolb, T. Thonhauser, and
     *   S. de Gironcoli, J. Phys.: Condens. Matter 24, 424209 (2012).
     *

     Carrying out vdW-DF run using the following parameters:

     Nqs =      20    Nr_points =    1024   r_max =   100.000
     q_mesh =
               0.00001000     0.04494208     0.09755937     0.15916263
               0.23128650     0.31572767     0.41458969     0.53033537
               0.66584808     0.82450364     1.01025438     1.22772762
               1.48234092     1.78043706     2.12944203     2.53805004
               3.01644009     3.57652955     4.23227104     5.00000000

     Gradients computed in reciprocal space

[...]

     Starting wfc are  147 randomized atomic wfcs

     Self-consistent Calculation

[...]

     total energy              =   -2323.71024394 Ry
     Harris-Foulkes estimate   =   -2323.71024237 Ry
     estimated scf accuracy    <       0.00000599 Ry

     iteration # 20     ecut=    36.75 Ry     beta=0.10
     Davidson diagonalization with overlap
     ethr =  3.17E-09,  avg # of iterations =  1.0

[...]

     negative rho (up, down):  1.106E+00 0.000E+00

     Adding external electric field

     Computed dipole along edir(3) :
        Dipole                0.0058 Ry au,          0.0147 Debye
        Dipole field          0.0000 Ry au

        Potential amp.       -0.0015 Ry
        Total length         45.2306 bohr

     End of self-consistent calculation

[...]

          k = 0.0598-0.0000 0.0000 ( 16738 PWs)   bands (ev):

[...]

          k =-0.0898-0.1555 0.0000 ( 16784 PWs)   bands (ev):

   -65.9190 -65.5685 -65.4917 -49.1736 -49.1247 -49.0978 -49.0776 -49.0528
   -49.0219 -48.9534 -48.9206 -48.8638 -48.7702 -48.7629 -48.7333 -48.7262
   -48.7087 -48.6960 -48.6708 -48.6655 -48.6142 -48.6041 -48.5515 -48.5467
   -48.4870 -48.4831 -48.4762 -48.4617 -48.4490 -48.4443 -37.9590 -37.8583
   -37.8539 -37.5743 -37.5700 -37.5469 -37.5125 -37.5080 -37.4322  -3.5905
    -3.5596  -3.0722  -2.9772  -2.9601  -2.9313  -2.7685  -2.7634  -2.7283
    -2.6246  -2.5847  -2.4412  -2.3895  -2.2723  -2.1949  -2.1767  -1.9988
    -1.9043  -1.8886  -1.8814  -1.5585  -1.5420  -1.4673  -1.3462  -1.2182
    -1.2084  -1.1342  -1.1176  -1.0041  -0.9836  -0.9654  -0.9162  -0.8867
    -0.8259  -0.8034  -0.7668  -0.6409  -0.5887  -0.5874  -0.4462  -0.3751
    -0.2642  -0.1139  -0.1035  -0.0781   0.2015   0.2708   0.3372   0.5281
     0.6536   0.6950   0.9936   1.0153   1.0359   1.1788   1.2187   1.2564
     1.2685   1.5339   1.7994   1.8240   1.8393   1.9781   2.4696   3.5910
     3.6744   3.9109   4.8025   4.8925   5.4454   5.8860   6.0606   7.0992
     7.1045   7.1901   7.2057   7.7002   7.7197   7.8000   7.8193   8.9878
     9.0172   9.2527   9.3627   9.4698

     the Fermi energy is     1.4832 ev

!    total energy              =   -2323.71025206 Ry
     Harris-Foulkes estimate   =   -2323.71024414 Ry
     estimated scf accuracy    <       0.00000065 Ry

     The total energy is the sum of the following terms:

     one-electron contribution =  -20005.50975656 Ry
     hartree contribution      =   10037.27893745 Ry
     xc contribution           =    -391.62144983 Ry
     ewald contribution        =    8036.24745471 Ry
     electric field correction =       0.00000009 Ry
     smearing contrib. (-TS)   =      -0.10543791 Ry

     convergence has been achieved in  20 iterations

 BEEF-vdW xc energy contributions
           1 :   -341.621361019816
           2 :    312.820269544379
           3 :   -263.060248721796
           4 :    204.749170929297
           5 :   -150.300873275500
           6 :    108.150398008693
           7 :   -80.9144642078165
           8 :    66.0129370352854
           9 :   -58.1111723005955
          10 :    52.0265697642910
          11 :   -44.8394757980170
          12 :    36.4579930071250
          13 :   -28.7427676367950
          14 :    23.8954815329060
          15 :   -23.0456614839904
          16 :    25.6659038631181
          17 :   -29.9510072294614
          18 :    33.7823645405684
          19 :   -35.6985378418215
          20 :    35.3775188411076
          21 :   -33.4845967422692
          22 :    31.0728670172156
          23 :   -28.9295205945554
          24 :    27.2128380070376
          25 :   -25.5267679754598
          26 :    23.3165639569594
          27 :   -20.3181936574888
          28 :    16.7920590614528
          29 :   -13.4264970808691
          30 :    10.9887317882659
          31 :   -33.0205818690210
          32 :   -24.3715085711199

     Forces acting on atoms (Ry/au):

     negative rho (up, down):  1.106E+00 0.000E+00
     atom    1 type  1   force =    -0.00000041    0.01508933   -0.00232280
     atom    2 type  1   force =     0.01306767   -0.00754479   -0.00232291
     atom    3 type  1   force =    -0.01306730   -0.00754416   -0.00232269
     atom    4 type  2   force =     0.00000034    0.00000027    0.02391535
     atom    5 type  1   force =     0.00000001   -0.00605236   -0.00483644
     atom    6 type  1   force =    -0.00524157    0.00302627   -0.00483667
     atom    7 type  1   force =     0.00524142    0.00302617   -0.00483627
     atom    8 type  2   force =    -0.00000031   -0.00000038   -0.00152063
     atom    9 type  1   force =    -0.00000006    0.00161454   -0.00056547
     atom   10 type  1   force =     0.00139796   -0.00080745   -0.00056543
     atom   11 type  1   force =    -0.00139800   -0.00080741   -0.00056559
     atom   12 type  2   force =     0.00000025   -0.00000001    0.00077954

     Total force =     0.038248     Total SCF correction =     0.003557

     entering subroutine stress ...

     negative rho (up, down):  1.106E+00 0.000E+00
          total   stress  (Ry/bohr**3)                   (kbar)     P=  -13.42
  -0.00011998  -0.00000000   0.00000000        -17.65     -0.00      0.00
  -0.00000000  -0.00011998   0.00000000         -0.00    -17.65      0.00
   0.00000000   0.00000000  -0.00003364          0.00      0.00     -4.95

 !ASE

     Writing output data file calc.save

     General routines

     Parallel routines

   This run was terminated on:  19: 1:45  27Dec2018

   JOB DONE.
Job  /afs/slac/g/suncat/bin/suncat-tsmpirun -x LD_LIBRARY_PATH -wdir /scratch/qe110484_Fo0pJ pw.x -in pw.inp

TID   HOST_NAME   COMMAND_LINE            STATUS            TERMINATION_TIME
00000 suncat0041 pw.x -in pw.inp   Done                     12/27/2018 19:01:45
00001 suncat0041 pw.x -in pw.inp   Done                     12/27/2018 19:01:45
00002 suncat0041 pw.x -in pw.inp   Done                     12/27/2018 19:01:45
00003 suncat0041 pw.x -in pw.inp   Done                     12/27/2018 19:01:45
00004 suncat0041 pw.x -in pw.inp   Done                     12/27/2018 19:01:45
00005 suncat0041 pw.x -in pw.inp   Done                     12/27/2018 19:01:45
00006 suncat0041 pw.x -in pw.inp   Done                     12/27/2018 19:01:45
00007 suncat0041 pw.x -in pw.inp   Done                     12/27/2018 19:01:45
00008 suncat0039 pw.x -in pw.inp   Done                     12/27/2018 19:01:45
00009 suncat0039 pw.x -in pw.inp   Done                     12/27/2018 19:01:45
00010 suncat0039 pw.x -in pw.inp   Done                     12/27/2018 19:01:45
00011 suncat0039 pw.x -in pw.inp   Done                     12/27/2018 19:01:45
00012 suncat0039 pw.x -in pw.inp   Done                     12/27/2018 19:01:45
00013 suncat0039 pw.x -in pw.inp   Done                     12/27/2018 19:01:45
00014 suncat0039 pw.x -in pw.inp   Done                     12/27/2018 19:01:45
00015 suncat0039 pw.x -in pw.inp   Done                     12/27/2018 19:01:45
00016 suncat0169 pw.x -in pw.inp   Done                     12/27/2018 19:01:45
00017 suncat0169 pw.x -in pw.inp   Done                     12/27/2018 19:01:45
00018 suncat0169 pw.x -in pw.inp   Done                     12/27/2018 19:01:45
00019 suncat0169 pw.x -in pw.inp   Done                     12/27/2018 19:01:45
00020 suncat0169 pw.x -in pw.inp   Done                     12/27/2018 19:01:45
00021 suncat0169 pw.x -in pw.inp   Done                     12/27/2018 19:01:45
00022 suncat0169 pw.x -in pw.inp   Done                     12/27/2018 19:01:45
00023 suncat0169 pw.x -in pw.inp   Done                     12/27/2018 19:01:45
00024 suncat0168 pw.x -in pw.inp   Done                     12/27/2018 19:01:45
00025 suncat0168 pw.x -in pw.inp   Done                     12/27/2018 19:01:45
00026 suncat0168 pw.x -in pw.inp   Done                     12/27/2018 19:01:45
00027 suncat0168 pw.x -in pw.inp   Done                     12/27/2018 19:01:45
00028 suncat0168 pw.x -in pw.inp   Done                     12/27/2018 19:01:45
00029 suncat0168 pw.x -in pw.inp   Done                     12/27/2018 19:01:45
00030 suncat0168 pw.x -in pw.inp   Done                     12/27/2018 19:01:45
00031 suncat0168 pw.x -in pw.inp   Done                     12/27/2018 19:01:45
00032 suncat0161 pw.x -in pw.inp   Done                     12/27/2018 19:01:45
00033 suncat0161 pw.x -in pw.inp   Done                     12/27/2018 19:01:45
00034 suncat0161 pw.x -in pw.inp   Done                     12/27/2018 19:01:45
00035 suncat0161 pw.x -in pw.inp   Done                     12/27/2018 19:01:45
00036 suncat0161 pw.x -in pw.inp   Done                     12/27/2018 19:01:45
00037 suncat0161 pw.x -in pw.inp   Done                     12/27/2018 19:01:45
00038 suncat0161 pw.x -in pw.inp   Done                     12/27/2018 19:01:45
00039 suncat0161 pw.x -in pw.inp   Done                     12/27/2018 19:01:45
00040 suncat0250 pw.x -in pw.inp   Done                     12/27/2018 19:01:45
00041 suncat0250 pw.x -in pw.inp   Done                     12/27/2018 19:01:45
00042 suncat0250 pw.x -in pw.inp   Done                     12/27/2018 19:01:45
00043 suncat0250 pw.x -in pw.inp   Done                     12/27/2018 19:01:45
00044 suncat0250 pw.x -in pw.inp   Done                     12/27/2018 19:01:45
00045 suncat0250 pw.x -in pw.inp   Done                     12/27/2018 19:01:45
00046 suncat0250 pw.x -in pw.inp   Done                     12/27/2018 19:01:45
00047 suncat0250 pw.x -in pw.inp   Done                     12/27/2018 19:01:45
00048 suncat0249 pw.x -in pw.inp   Done                     12/27/2018 19:01:45
00049 suncat0249 pw.x -in pw.inp   Done                     12/27/2018 19:01:45
00050 suncat0249 pw.x -in pw.inp   Done                     12/27/2018 19:01:45
00051 suncat0249 pw.x -in pw.inp   Done                     12/27/2018 19:01:45
00052 suncat0249 pw.x -in pw.inp   Done                     12/27/2018 19:01:45
00053 suncat0249 pw.x -in pw.inp   Done                     12/27/2018 19:01:45
00054 suncat0249 pw.x -in pw.inp   Done                     12/27/2018 19:01:45
00055 suncat0249 pw.x -in pw.inp   Done                     12/27/2018 19:01:45
00056 suncat0231 pw.x -in pw.inp   Done                     12/27/2018 19:01:45
00057 suncat0231 pw.x -in pw.inp   Done                     12/27/2018 19:01:45
00058 suncat0231 pw.x -in pw.inp   Done                     12/27/2018 19:01:45
00059 suncat0231 pw.x -in pw.inp   Done                     12/27/2018 19:01:45
00060 suncat0231 pw.x -in pw.inp   Done                     12/27/2018 19:01:45
00061 suncat0231 pw.x -in pw.inp   Done                     12/27/2018 19:01:45
00062 suncat0231 pw.x -in pw.inp   Done                     12/27/2018 19:01:45
00063 suncat0231 pw.x -in pw.inp   Done                     12/27/2018 19:01:45