     Program PWSCF v.5.1rc2 (svn rev. 11289) starts on 26Dec2018 at 11:44:40

     Current dimensions of program PWSCF are:
     Max number of different atomic species (ntypx) = 10
     Max number of k-points (npk) =  40000
     Max angular momentum in pseudopotentials (lmaxx) =  3
     Presently stress not available with electric field

     IMPORTANT: XC functional enforced from input :
     Exchange-correlation      = BEEF-VDW ( 1  4 27 13 2)
     Any further DFT definition will be discarded
     Please, verify this is what you really want

     Subspace diagonalization in iterative solution of the eigenvalue problem:
     a serial algorithm will be used

     bravais-lattice index     =            0
     lattice parameter (alat)  =       1.8897  a.u.
     unit-cell volume          =    5955.5319 (a.u.)^3
     number of atoms/cell      =           12
     number of atomic types    =            2
     number of electrons       =       144.00
     number of Kohn-Sham states=          102
     kinetic-energy cutoff     =      36.7493  Ry
     charge density cutoff     =     367.4932  Ry
     convergence threshold     =      1.0E-06
     mixing beta               =       0.1000
     number of iterations used =           10  plain     mixing
     Exchange-correlation      = BEEF-VDW ( 1  4 27 13 2)
     nstep                     =           50

     celldm(1)=   1.889726  celldm(2)=   0.000000  celldm(3)=   0.000000
     celldm(4)=   0.000000  celldm(5)=   0.000000  celldm(6)=   0.000000

     crystal axes: (cart. coord. in units of alat)
               a(1) = (   6.360004   0.000000   0.000000 )
               a(2) = (  -3.180002   5.507925   0.000000 )
               a(3) = (   0.000000   0.000000  25.192922 )

     reciprocal axes: (cart. coord. in units 2 pi/alat)
               b(1) = (  0.157233  0.090778  0.000000 )
               b(2) = (  0.000000  0.181557  0.000000 )
               b(3) = (  0.000000  0.000000  0.039694 )

     PseudoPot. # 1 for Hg read from file:
     /afs/slac.stanford.edu/u/if/mamunm/psp/gbrv1.5pbe/Hg.UPF
     MD5 check sum: 8f42caffe07f7fd9c0a564347f8c5498
     Pseudo is Ultrasoft + core correction, Zval = 12.0
     Generated by new atomic code, or converted to UPF format
     Using radial grid of  985 points,  6 beta functions with:
                l(1) =   0
                l(2) =   0
                l(3) =   1
                l(4) =   1
                l(5) =   2
                l(6) =   2
     Q(r) pseudized with  8 coefficients,  rinner =    2.000   2.000   2.000
                                                       2.000   2.000

     PseudoPot. # 2 for Zr read from file:
     /afs/slac.stanford.edu/u/if/mamunm/psp/gbrv1.5pbe/Zr.UPF
     MD5 check sum: 5db81b1e868ab7776c4564c113de050b
     Pseudo is Ultrasoft + core correction, Zval = 12.0
     Generated by new atomic code, or converted to UPF format
     Using radial grid of  887 points,  6 beta functions with:
                l(1) =   0
                l(2) =   0
                l(3) =   1
                l(4) =   1
                l(5) =   2
                l(6) =   2
     Q(r) pseudized with  6 coefficients,  rinner =    1.200   1.200   1.200
                                                       1.200   1.200

     vdW kernel table read from file vdW_kernel_table
     MD5 check sum: 095c7af220d748ca6e76c0b4c6cfb241

     atomic species   valence    mass     pseudopotential
        Hg1           12.00   200.59200     Hg( 1.00)
        Zr1           12.00    91.22400     Zr( 1.00)

     No symmetry found

   Cartesian axes

     site n.     atom                  positions (alat units)
         1           Hg1 tau(   1) = (   0.0000000   0.0000000  10.0000000  )
         2           Hg1 tau(   2) = (  -1.5900010   2.7539626  10.0000000  )
         3           Hg1 tau(   3) = (   1.5900010   2.7539626  10.0000000  )
         4           Zr1 tau(   4) = (   3.1800020   0.0000000  10.0000000  )
         5           Hg1 tau(   5) = (   3.1800020   1.8359750  12.5964608  )
         6           Hg1 tau(   6) = (   1.5900010   4.5899376  12.5964608  )
         7           Hg1 tau(   7) = (  -1.5900010   4.5899376  12.5964608  )
         8           Zr1 tau(   8) = (   0.0000000   1.8359750  12.5964608  )
         9           Hg1 tau(   9) = (  -0.0000000   3.6719501  15.1929216  )
        10           Hg1 tau(  10) = (   1.5900010   0.9179875  15.1929216  )
        11           Hg1 tau(  11) = (   4.7700031   0.9179875  15.1929216  )
        12           Zr1 tau(  12) = (   3.1800020   3.6719501  15.1929216  )

     number of k points=    20  Fermi-Dirac smearing, width (Ry)=  0.0110
                       cart. coord. in units 2pi/alat
        k(    1) = (   0.0000000   0.0000000   0.0000000), wk =   0.0555556
        k(    2) = (   0.0000000   0.0302594   0.0000000), wk =   0.1111111
        k(    3) = (   0.0000000   0.0605189   0.0000000), wk =   0.1111111
        k(    4) = (   0.0000000  -0.0907783   0.0000000), wk =   0.0555556
        k(    5) = (   0.0262054   0.0151297   0.0000000), wk =   0.1111111
        k(    6) = (   0.0262054   0.0453891   0.0000000), wk =   0.1111111
        k(    7) = (   0.0262054   0.0756486   0.0000000), wk =   0.1111111
        k(    8) = (   0.0262054  -0.0756486   0.0000000), wk =   0.1111111
        k(    9) = (   0.0262054  -0.0453891   0.0000000), wk =   0.1111111
        k(   10) = (   0.0262054  -0.0151297   0.0000000), wk =   0.1111111
        k(   11) = (   0.0524109   0.0302594   0.0000000), wk =   0.1111111
        k(   12) = (   0.0524109   0.0605189   0.0000000), wk =   0.1111111
        k(   13) = (   0.0524109   0.0907783   0.0000000), wk =   0.1111111
        k(   14) = (   0.0524109  -0.0605189   0.0000000), wk =   0.1111111
        k(   15) = (   0.0524109  -0.0302594   0.0000000), wk =   0.1111111
        k(   16) = (   0.0524109   0.0000000   0.0000000), wk =   0.1111111
        k(   17) = (  -0.0786163  -0.0453891   0.0000000), wk =   0.0555556
        k(   18) = (  -0.0786163  -0.0151297   0.0000000), wk =   0.1111111
        k(   19) = (  -0.0786163   0.0151297   0.0000000), wk =   0.1111111
        k(   20) = (  -0.0786163  -0.1361674   0.0000000), wk =   0.0555556

     Largest allocated arrays     est. size (Mb)     dimensions
     Largest temporary arrays     est. size (Mb)     dimensions

     Initial potential from superposition of free atoms
     Check: negative starting charge=   -0.184293

     starting charge  143.99303, renormalised to  144.00000

     negative rho (up, down):  1.843E-01 0.000E+00

     *
     * You are using vdW-DF for exchange-correlation in this calculation.
     * Please cite the following three references that made this development
     * possible:
     *
     *   M. Dion, H. Rydberg, E. Schroder, D. C. Langreth, and
     *   B. I. Lundqvist, Phys. Rev. Lett. 92, 246401 (2004).
     *
     *   T. Thonhauser, V. R. Cooper, S. Li, A. Puzder, P. Hyldgaard, and
     *   D. C. Langreth, Phys. Rev. B 76, 125112 (2007).
     *
     *   G. Roman-Perez and J. M. Soler, Phys. Rev. Lett. 103, 096102 (2009).
     *
     *
     * If you are using vdW-DF2, please also cite:
     *
     *   K. Lee, E. D. Murray, L. Kong, B. I. Lundqvist, and
     *   D. C. Langreth, Phys. Rev. B 82, 081101(R) (2010).
     *
     *
     * If you are calculating the stress with vdW-DF, please also cite:
     *
     *   R. Sabatini, E. Kucukbenli, B. Kolb, T. Thonhauser, and
     *   S. de Gironcoli, J. Phys.: Condens. Matter 24, 424209 (2012).
     *

     Carrying out vdW-DF run using the following parameters:

     Nqs =      20    Nr_points =    1024   r_max =   100.000
     q_mesh =
               0.00001000     0.04494208     0.09755937     0.15916263
               0.23128650     0.31572767     0.41458969     0.53033537
               0.66584808     0.82450364     1.01025438     1.22772762
               1.48234092     1.78043706     2.12944203     2.53805004
               3.01644009     3.57652955     4.23227104     5.00000000

     Gradients computed in reciprocal space

     Adding external electric field

     Computed dipole along edir(3) :
        Dipole               -0.0000 Ry au,         -0.0000 Debye
        Dipole field         -0.0000 Ry au

        Potential amp.        0.0000 Ry
        Total length         46.4175 bohr

     Starting wfc are  120 randomized atomic wfcs

     Self-consistent Calculation

     iteration #  1     ecut=    36.75 Ry     beta=0.10
     Davidson diagonalization with overlap
     ethr =  1.00E-02,  avg # of iterations =  7.8

     Threshold (ethr) on eigenvalues was too large:
     Diagonalizing with lowered threshold

     Davidson diagonalization with overlap
     ethr =  3.74E-04,  avg # of iterations =  6.0

[...]

     total energy              =   -1281.05592193 Ry
     Harris-Foulkes estimate   =   -1281.14557996 Ry
     estimated scf accuracy    <       0.57348572 Ry

[...]

     End of self-consistent calculation

          k = 0.0000 0.0000 0.0000 ( 22417 PWs)   bands (ev):

   -49.0552 -48.9777 -48.9777 -27.0731 -27.0260 -27.0239 -26.9485 -26.9485
   -26.8536 -26.8536 -26.8529 -26.8529  -7.3166  -6.9359  -6.8844  -6.8701
    -6.8582  -6.8581  -6.8059  -6.7634  -6.7444  -6.7444  -6.6340  -6.6339
    -6.5824  -6.5824  -6.4717  -6.2950  -6.2757  -6.2757  -6.1231  -6.1017
    -6.1017  -5.9752  -5.9660  -5.8907  -5.8905  -5.8051  -5.8050  -5.7703
    -5.7703  -5.6976  -5.6975  -5.6160  -5.5336  -5.5336  -5.4932  -5.4932
    -5.4446  -5.4446  -5.2496  -5.2495  -5.2373  -5.2164  -5.0688  -5.0688
    -5.0492  -4.9511  -4.9269  -3.1053  -1.7213  -1.7213  -1.3761  -1.3761
    -0.5507  -0.5507  -0.4031   0.0503   0.4974   0.6131   0.6131   0.9099
     1.6269   1.6269   1.6810   1.7638   1.7638   2.1141   2.1141   2.4762
     2.4762   2.7723   2.8906   3.0627   3.0627   3.8169   3.8169   3.8204
     3.8204   4.2230   4.4291   4.4440   4.4440   4.7457   5.1435   5.1959
     5.4227   6.1165   6.5570   6.8622   6.8622   7.1740

[...]

          k =-0.0786-0.0454 0.0000 ( 22408 PWs)   bands (ev):

[...]

     the Fermi energy is     1.1764 ev

!    total energy              =   -1281.04632838 Ry
     Harris-Foulkes estimate   =   -1281.04632771 Ry
     estimated scf accuracy    <       0.00000077 Ry

     The total energy is the sum of the following terms:

     one-electron contribution =   -8275.40528576 Ry
     hartree contribution      =    4204.26906612 Ry
     xc contribution           =    -418.96441862 Ry
     ewald contribution        =    3209.12508448 Ry
     electric field correction =       0.00000000 Ry
     smearing contrib. (-TS)   =      -0.07077461 Ry

     convergence has been achieved in  14 iterations

 BEEF-vdW xc energy contributions
           1 :   -366.232516245673
           2 :    336.496278847266
           3 :   -284.916978416339
           4 :    223.941309999950
           5 :   -165.908151049845
           6 :    119.256840729081
           7 :   -86.8937789878712
           8 :    66.8539003878397
           9 :   -54.5141543807796
          10 :    45.1708063846103
          11 :   -35.8804854484160
          12 :    25.9831642703406
[...]
     MD5 check sum: 8f42caffe07f7fd9c0a564347f8c5498
     Pseudo is Ultrasoft + core correction, Zval = 12.0
     Generated by new atomic code, or converted to UPF format
     Using radial grid of  985 points,  6 beta functions with:
                l(1) =   0
                l(2) =   0
                l(3) =   1
                l(4) =   1
                l(5) =   2
                l(6) =   2
     Q(r) pseudized with  8 coefficients,  rinner =    2.000   2.000   2.000
                                                       2.000   2.000

     PseudoPot. # 2 for Zr read from file:
     /afs/slac.stanford.edu/u/if/mamunm/psp/gbrv1.5pbe/Zr.UPF
     MD5 check sum: 5db81b1e868ab7776c4564c113de050b
     Pseudo is Ultrasoft + core correction, Zval = 12.0
     Generated by new atomic code, or converted to UPF format
     Using radial grid of  887 points,  6 beta functions with:
                l(1) =   0
                l(2) =   0
                l(3) =   1
                l(4) =   1
                l(5) =   2
                l(6) =   2
     Q(r) pseudized with  6 coefficients,  rinner =    1.200   1.200   1.200
                                                       1.200   1.200

     vdW kernel table read from file vdW_kernel_table
     MD5 check sum: 095c7af220d748ca6e76c0b4c6cfb241

     atomic species   valence    mass     pseudopotential
        Hg1           12.00   200.59200     Hg( 1.00)
        Zr1           12.00    91.22400     Zr( 1.00)

     No symmetry found

   Cartesian axes

     site n.     atom                  positions (alat units)
         1           Hg1 tau(   1) = (   0.0000000   0.0000000  10.0000000  )
         2           Hg1 tau(   2) = (  -1.5900010   2.7539626  10.0000000  )
         3           Hg1 tau(   3) = (   1.5900010   2.7539626  10.0000000  )
         4           Zr1 tau(   4) = (   3.1800020   0.0000000  10.0000000  )
         5           Hg1 tau(   5) = (   3.1800020   1.8359750  12.5964608  )
         6           Hg1 tau(   6) = (   1.5900010   4.5899376  12.5964608  )
         7           Hg1 tau(   7) = (  -1.5900010   4.5899376  12.5964608  )
         8           Zr1 tau(   8) = (   0.0000000   1.8359750  12.5964608  )
         9           Hg1 tau(   9) = (   0.0000077   3.6715064  15.4165728  )
        10           Hg1 tau(  10) = (   1.5896391   0.9181788  15.4166112  )
        11           Hg1 tau(  11) = (   4.7703614   0.9181625  15.4166042  )
        12           Zr1 tau(  12) = (   3.1799955   3.6719371  14.9369323  )

     number of k points=    20  Fermi-Dirac smearing, width (Ry)=  0.0110
                       cart. coord. in units 2pi/alat
        k(    1) = (   0.0000000   0.0000000   0.0000000), wk =   0.0555556
        k(    2) = (   0.0000000   0.0302594   0.0000000), wk =   0.1111111
        k(    3) = (   0.0000000   0.0605189   0.0000000), wk =   0.1111111
        k(    4) = (   0.0000000  -0.0907783   0.0000000), wk =   0.0555556
        k(    5) = (   0.0262054   0.0151297   0.0000000), wk =   0.1111111
        k(    6) = (   0.0262054   0.0453891   0.0000000), wk =   0.1111111
        k(    7) = (   0.0262054   0.0756486   0.0000000), wk =   0.1111111
        k(    8) = (   0.0262054  -0.0756486   0.0000000), wk =   0.1111111
        k(    9) = (   0.0262054  -0.0453891   0.0000000), wk =   0.1111111
        k(   10) = (   0.0262054  -0.0151297   0.0000000), wk =   0.1111111
        k(   11) = (   0.0524109   0.0302594   0.0000000), wk =   0.1111111
        k(   12) = (   0.0524109   0.0605189   0.0000000), wk =   0.1111111
        k(   13) = (   0.0524109   0.0907783   0.0000000), wk =   0.1111111
        k(   14) = (   0.0524109  -0.0605189   0.0000000), wk =   0.1111111
        k(   15) = (   0.0524109  -0.0302594   0.0000000), wk =   0.1111111
        k(   16) = (   0.0524109   0.0000000   0.0000000), wk =   0.1111111
        k(   17) = (  -0.0786163  -0.0453891   0.0000000), wk =   0.0555556
        k(   18) = (  -0.0786163  -0.0151297   0.0000000), wk =   0.1111111
        k(   19) = (  -0.0786163   0.0151297   0.0000000), wk =   0.1111111
        k(   20) = (  -0.0786163  -0.1361674   0.0000000), wk =   0.0555556

     Largest allocated arrays     est. size (Mb)     dimensions
     Largest temporary arrays     est. size (Mb)     dimensions

     Initial potential from superposition of free atoms
     Check: negative starting charge=   -0.184211

     starting charge  143.99303, renormalised to  144.00000

[...]

     *
     * You are using vdW-DF for exchange-correlation in this calculation.
     * Please cite the following three references that made this development
     * possible:
     *
     *   M. Dion, H. Rydberg, E. Schroder, D. C. Langreth, and
     *   B. I. Lundqvist, Phys. Rev. Lett. 92, 246401 (2004).
     *
     *   T. Thonhauser, V. R. Cooper, S. Li, A. Puzder, P. Hyldgaard, and
     *   D. C. Langreth, Phys. Rev. B 76, 125112 (2007).
     *
     *   G. Roman-Perez and J. M. Soler, Phys. Rev. Lett. 103, 096102 (2009).
     *
     *
     * If you are using vdW-DF2, please also cite:
     *
     *   K. Lee, E. D. Murray, L. Kong, B. I. Lundqvist, and
     *   D. C. Langreth, Phys. Rev. B 82, 081101(R) (2010).
     *
     *
     * If you are calculating the stress with vdW-DF, please also cite:
     *
     *   R. Sabatini, E. Kucukbenli, B. Kolb, T. Thonhauser, and
     *   S. de Gironcoli, J. Phys.: Condens. Matter 24, 424209 (2012).
     *

     Carrying out vdW-DF run using the following parameters:

     Nqs =      20    Nr_points =    1024   r_max =   100.000
     q_mesh =
               0.00001000     0.04494208     0.09755937     0.15916263
               0.23128650     0.31572767     0.41458969     0.53033537
               0.66584808     0.82450364     1.01025438     1.22772762
               1.48234092     1.78043706     2.12944203     2.53805004
               3.01644009     3.57652955     4.23227104     5.00000000

     Gradients computed in reciprocal space

[...]

     Starting wfc are  120 randomized atomic wfcs

     Self-consistent Calculation

[...]

     Threshold (ethr) on eigenvalues was too large:
     Diagonalizing with lowered threshold

     Davidson diagonalization with overlap
     ethr =  4.51E-04,  avg # of iterations =  5.8

[...]

     total energy              =   -1281.06548612 Ry
     Harris-Foulkes estimate   =   -1281.06548497 Ry
     estimated scf accuracy    <       0.00000190 Ry

     iteration # 15     ecut=    36.75 Ry     beta=0.10
     Davidson diagonalization with overlap
     ethr =  1.32E-09,  avg # of iterations =  2.0

[...]

     negative rho (up, down):  1.848E-01 0.000E+00

     Adding external electric field

     Computed dipole along edir(3) :
        Dipole               -0.1032 Ry au,         -0.2622 Debye
        Dipole field         -0.0002 Ry au

        Potential amp.        0.0202 Ry
        Total length         46.4175 bohr

     End of self-consistent calculation

[...]

          k = 0.0524 0.0000 0.0000 ( 22387 PWs)   bands (ev):

[...]

          k =-0.0786-0.1362 0.0000 ( 22408 PWs)   bands (ev):

   -49.2021 -49.0403 -48.9402 -27.2115 -27.0889 -27.0850 -27.0805 -26.9665
   -26.9260 -26.9241 -26.8397 -26.8383  -6.8797  -6.7596  -6.6940  -6.5857
    -6.5580  -6.5509  -6.5102  -6.4878  -6.4732  -6.4576  -6.4053  -6.3794
    -6.3345  -6.2590  -6.2308  -6.2067  -6.1335  -6.1312  -6.1122  -6.0411
    -6.0197  -5.9977  -5.9421  -5.9240  -5.9139  -5.9128  -5.8986  -5.8620
    -5.8570  -5.8540  -5.8331  -5.7966  -5.7769  -5.7711  -5.7516  -5.7420
    -5.6996  -5.6616  -5.6423  -5.5658  -5.5310  -5.4493  -5.4025  -5.3803
    -5.2353  -5.2158  -5.1164  -4.1581  -3.9196  -3.0154  -2.3313  -2.2263
    -1.4083  -0.9873  -0.3332  -0.2452   0.3971   0.7403   0.8902   0.9802
     1.0594   1.1996   1.4102   1.5571   1.9611   2.0795   2.4700   2.4800
     2.9923   3.2362   3.3358   3.4368   3.7062   3.7465   4.2984   4.6941
     4.7227   4.8644   5.3590   5.4145   5.4490   5.6320   5.6628   5.7247
     6.0096   6.1544   6.2547   6.4534   6.8168   6.8556

     the Fermi energy is     1.0771 ev

!    total energy              =   -1281.06548688 Ry
     Harris-Foulkes estimate   =   -1281.06548523 Ry
     estimated scf accuracy    <       0.00000052 Ry

     The total energy is the sum of the following terms:

     one-electron contribution =   -8144.72709908 Ry
     hartree contribution      =    4138.66590235 Ry
     xc contribution           =    -418.92658615 Ry
     ewald contribution        =    3143.99894860 Ry
     electric field correction =       0.00002245 Ry
     smearing contrib. (-TS)   =      -0.07667505 Ry

     convergence has been achieved in  15 iterations

 BEEF-vdW xc energy contributions
           1 :   -366.229663755513
           2 :    336.425604932708
           3 :   -284.774002869176
           4 :    223.789740868073
           5 :   -165.832300086770
           6 :    119.300897878977
           7 :   -87.0265119623035
           8 :    66.9842452572473
           9 :   -54.5516245061020
          10 :    45.0888412130830
          11 :   -35.7362870172470
          12 :    25.8802023219746
          13 :   -16.4591327581863
          14 :    8.77941501681556
          15 :   -3.56576742602908
          16 :   0.637807527244206
          17 :   0.827658508516095
          18 :   -1.76706313912103
          19 :    2.77761164565419
          20 :   -3.94964046811322
          21 :    4.99923233979166
          22 :   -5.56887265700277
          23 :    5.50491752585958
          24 :   -4.96957689479029
          25 :    4.35291149084901
          26 :   -4.05763881968176
          27 :    4.28023689596654
          28 :   -4.90403989112195
          29 :    5.55929641424370
          30 :   -5.82178805848173
          31 :   -35.1128230003368
          32 :   -25.9096911465828

     Forces acting on atoms (Ry/au):

     negative rho (up, down):  1.848E-01 0.000E+00
     atom    1 type  1   force =    -0.00000143   -0.00161185   -0.01213577
     atom    2 type  1   force =    -0.00139616    0.00080739   -0.01213356
     atom    3 type  1   force =     0.00139596    0.00080833   -0.01213333
     atom    4 type  2   force =    -0.00000025   -0.00000044    0.02568041
     atom    5 type  1   force =     0.00000056   -0.01183700    0.00055541
     atom    6 type  1   force =    -0.01024868    0.00591714    0.00055653
     atom    7 type  1   force =     0.01024966    0.00591801    0.00055714
     atom    8 type  2   force =    -0.00000003   -0.00000124    0.00655423
     atom    9 type  1   force =    -0.00000152    0.00109473    0.00058631
     atom   10 type  1   force =     0.00095049   -0.00054835    0.00058712
     atom   11 type  1   force =    -0.00095046   -0.00054564    0.00058779
     atom   12 type  2   force =     0.00000184   -0.00000107    0.00073772

     Total force =     0.039728     Total SCF correction =     0.002580

     entering subroutine stress ...

     negative rho (up, down):  1.848E-01 0.000E+00
          total   stress  (Ry/bohr**3)                   (kbar)     P=   -2.94
  -0.00003610  -0.00000000   0.00000000         -5.31     -0.00      0.00
  -0.00000000  -0.00003610   0.00000000         -0.00     -5.31      0.00
   0.00000000   0.00000000   0.00001227          0.00      0.00      1.81

 !ASE

     Writing output data file calc.save

     General routines

     Parallel routines

   This run was terminated on:  13:49:18  26Dec2018

   JOB DONE.
Job  /afs/slac/g/suncat/bin/suncat-tsmpirun -x LD_LIBRARY_PATH -wdir /scratch/qe109850_OB7oA pw.x -in pw.inp

TID   HOST_NAME   COMMAND_LINE            STATUS            TERMINATION_TIME
00000 suncat0097 pw.x -in pw.inp   Done                     12/26/2018 13:49:18
00001 suncat0097 pw.x -in pw.inp   Done                     12/26/2018 13:49:18
00002 suncat0097 pw.x -in pw.inp   Done                     12/26/2018 13:49:18
00003 suncat0097 pw.x -in pw.inp   Done                     12/26/2018 13:49:18
00004 suncat0097 pw.x -in pw.inp   Done                     12/26/2018 13:49:18
00005 suncat0097 pw.x -in pw.inp   Done                     12/26/2018 13:49:18
00006 suncat0097 pw.x -in pw.inp   Done                     12/26/2018 13:49:18
00007 suncat0097 pw.x -in pw.inp   Done                     12/26/2018 13:49:18
00008 suncat0096 pw.x -in pw.inp   Done                     12/26/2018 13:49:18
00009 suncat0096 pw.x -in pw.inp   Done                     12/26/2018 13:49:18
00010 suncat0096 pw.x -in pw.inp   Done                     12/26/2018 13:49:18
00011 suncat0096 pw.x -in pw.inp   Done                     12/26/2018 13:49:18
00012 suncat0096 pw.x -in pw.inp   Done                     12/26/2018 13:49:18
00013 suncat0096 pw.x -in pw.inp   Done                     12/26/2018 13:49:18
00014 suncat0096 pw.x -in pw.inp   Done                     12/26/2018 13:49:18
00015 suncat0096 pw.x -in pw.inp   Done                     12/26/2018 13:49:18
00016 suncat0095 pw.x -in pw.inp   Done                     12/26/2018 13:49:18
00017 suncat0095 pw.x -in pw.inp   Done                     12/26/2018 13:49:18
00018 suncat0095 pw.x -in pw.inp   Done                     12/26/2018 13:49:18
00019 suncat0095 pw.x -in pw.inp   Done                     12/26/2018 13:49:18
00020 suncat0095 pw.x -in pw.inp   Done                     12/26/2018 13:49:18
00021 suncat0095 pw.x -in pw.inp   Done                     12/26/2018 13:49:18
00022 suncat0095 pw.x -in pw.inp   Done                     12/26/2018 13:49:18
00023 suncat0095 pw.x -in pw.inp   Done                     12/26/2018 13:49:18
00024 suncat0094 pw.x -in pw.inp   Done                     12/26/2018 13:49:18
00025 suncat0094 pw.x -in pw.inp   Done                     12/26/2018 13:49:18
00026 suncat0094 pw.x -in pw.inp   Done                     12/26/2018 13:49:18
00027 suncat0094 pw.x -in pw.inp   Done                     12/26/2018 13:49:18
00028 suncat0094 pw.x -in pw.inp   Done                     12/26/2018 13:49:18
00029 suncat0094 pw.x -in pw.inp   Done                     12/26/2018 13:49:18
00030 suncat0094 pw.x -in pw.inp   Done                     12/26/2018 13:49:18
00031 suncat0094 pw.x -in pw.inp   Done                     12/26/2018 13:49:18
00032 suncat0093 pw.x -in pw.inp   Done                     12/26/2018 13:49:18
00033 suncat0093 pw.x -in pw.inp   Done                     12/26/2018 13:49:18
00034 suncat0093 pw.x -in pw.inp   Done                     12/26/2018 13:49:18
00035 suncat0093 pw.x -in pw.inp   Done                     12/26/2018 13:49:18
00036 suncat0093 pw.x -in pw.inp   Done                     12/26/2018 13:49:18
00037 suncat0093 pw.x -in pw.inp   Done                     12/26/2018 13:49:18
00038 suncat0093 pw.x -in pw.inp   Done                     12/26/2018 13:49:18
00039 suncat0093 pw.x -in pw.inp   Done                     12/26/2018 13:49:18
00040 suncat0250 pw.x -in pw.inp   Done                     12/26/2018 13:49:18
00041 suncat0250 pw.x -in pw.inp   Done                     12/26/2018 13:49:18
00042 suncat0250 pw.x -in pw.inp   Done                     12/26/2018 13:49:18
00043 suncat0250 pw.x -in pw.inp   Done                     12/26/2018 13:49:18
00044 suncat0250 pw.x -in pw.inp   Done                     12/26/2018 13:49:18
00045 suncat0250 pw.x -in pw.inp   Done                     12/26/2018 13:49:18
00046 suncat0250 pw.x -in pw.inp   Done                     12/26/2018 13:49:18
00047 suncat0250 pw.x -in pw.inp   Done                     12/26/2018 13:49:18
00048 suncat0249 pw.x -in pw.inp   Done                     12/26/2018 13:49:18
00049 suncat0249 pw.x -in pw.inp   Done                     12/26/2018 13:49:18
00050 suncat0249 pw.x -in pw.inp   Done                     12/26/2018 13:49:18
00051 suncat0249 pw.x -in pw.inp   Done                     12/26/2018 13:49:18
00052 suncat0249 pw.x -in pw.inp   Done                     12/26/2018 13:49:18
00053 suncat0249 pw.x -in pw.inp   Done                     12/26/2018 13:49:18
00054 suncat0249 pw.x -in pw.inp   Done                     12/26/2018 13:49:18
00055 suncat0249 pw.x -in pw.inp   Done                     12/26/2018 13:49:18
00056 suncat0231 pw.x -in pw.inp   Done                     12/26/2018 13:49:18
00057 suncat0231 pw.x -in pw.inp   Done                     12/26/2018 13:49:18
00058 suncat0231 pw.x -in pw.inp   Done                     12/26/2018 13:49:18
00059 suncat0231 pw.x -in pw.inp   Done                     12/26/2018 13:49:18
00060 suncat0231 pw.x -in pw.inp   Done                     12/26/2018 13:49:18
00061 suncat0231 pw.x -in pw.inp   Done                     12/26/2018 13:49:18
00062 suncat0231 pw.x -in pw.inp   Done                     12/26/2018 13:49:18
00063 suncat0231 pw.x -in pw.inp   Done                     12/26/2018 13:49:18