     Program PWSCF v.5.1rc2 (svn rev. 11289) starts on 18Dec2018 at 18:21: 5

     Current dimensions of program PWSCF are:
     Max number of different atomic species (ntypx) = 10
     Max number of k-points (npk) =  40000
     Max angular momentum in pseudopotentials (lmaxx) =  3
     Presently stress not available with electric field

     IMPORTANT: XC functional enforced from input :
     Exchange-correlation      = BEEF-VDW ( 1  4 27 13 2)
     Any further DFT definition will be discarded
     Please, verify this is what you really want

     Subspace diagonalization in iterative solution of the eigenvalue problem:
     a serial algorithm will be used

     Found symmetry operation: I + ( -0.5000  0.0000  0.0000)
     This is a supercell, fractional translations are disabled

     bravais-lattice index     =            0
     lattice parameter (alat)  =       1.8897  a.u.
     unit-cell volume          =    4502.7715 (a.u.)^3
     number of atoms/cell      =           12
     number of atomic types    =            2
     number of electrons       =       102.00
     number of Kohn-Sham states=           81
     kinetic-energy cutoff     =      36.7493  Ry
     charge density cutoff     =     367.4932  Ry
     convergence threshold     =      1.0E-06
     mixing beta               =       0.1000
     number of iterations used =           10  plain     mixing
     Exchange-correlation      = BEEF-VDW ( 1  4 27 13 2)
     nstep                     =           50

     celldm(1)=   1.889726  celldm(2)=   0.000000  celldm(3)=   0.000000
     celldm(4)=   0.000000  celldm(5)=   0.000000  celldm(6)=   0.000000

     crystal axes: (cart. coord. in units of alat)
               a(1) = (   5.446361   0.000000   0.000000 )
               a(2) = (  -2.723181   4.987657   0.000000 )
               a(3) = (   0.000000   0.000000  24.562938 )

     reciprocal axes: (cart. coord. in units 2 pi/alat)
               b(1) = (  0.183609  0.100247  0.000000 )
               b(2) = (  0.000000  0.200495  0.000000 )
               b(3) = (  0.000000  0.000000  0.040712 )

     PseudoPot. # 1 for Al read from file:
     /afs/slac.stanford.edu/u/if/mamunm/psp/gbrv1.5pbe/Al.UPF
     MD5 check sum: 0a6289f5291fc8f409219462bc851e1f
     Pseudo is Ultrasoft + core correction, Zval =  3.0
     Generated by new atomic code, or converted to UPF format
     Using radial grid of  893 points,  3 beta functions with:
                l(1) =   0
                l(2) =   1
                l(3) =   2
     Q(r) pseudized with  8 coefficients,  rinner =    0.900   0.900   0.900
                                                       0.900   0.900

     PseudoPot. # 2 for W  read from file:
     /afs/slac.stanford.edu/u/if/mamunm/psp/gbrv1.5pbe/W.UPF
     MD5 check sum: 9c083fa34c2a2ea0f02f1f893e16e1c8
     Pseudo is Ultrasoft + core correction, Zval = 14.0
     Generated by new atomic code, or converted to UPF format
     Using radial grid of  923 points,  8 beta functions with:
                l(1) =   0
                l(2) =   0
                l(3) =   0
                l(4) =   1
                l(5) =   1
                l(6) =   2
                l(7) =   2
                l(8) =   3
     Q(r) pseudized with  6 coefficients,  rinner =    1.350   1.350   1.350
                                                       1.350   1.350   1.350
                                                       1.350

     vdW kernel table read from file vdW_kernel_table
     MD5 check sum: 095c7af220d748ca6e76c0b4c6cfb241

     atomic species   valence    mass     pseudopotential
        Al1            3.00    26.98154     Al( 1.00)
        W1            14.00   183.84000     W ( 1.00)

     No symmetry found

   Cartesian axes

     site n.     atom                  positions (alat units)
         1           Al1 tau(   1) = (   0.0000000   0.0000000  10.0000000  )
         2           Al1 tau(   2) = (   2.7231807   0.0000000  10.0000000  )
         3           W1  tau(   3) = (   1.3615904   2.4938283  10.0000000  )
         4           W1  tau(   4) = (  -1.3615904   2.4938283  10.0000000  )
         5           Al1 tau(   5) = (   2.7231807   1.4868131  12.2814688  )
         6           Al1 tau(   6) = (   0.0000000   1.4868131  12.2814688  )
         7           W1  tau(   7) = (  -1.3615904   3.9806414  12.2814688  )
         8           W1  tau(   8) = (   1.3615904   3.9806414  12.2814688  )
         9           Al1 tau(   9) = (  -0.0000000   2.9736262  14.5629377  )
        10           Al1 tau(  10) = (   2.7231807   2.9736262  14.5629377  )
        11           W1  tau(  11) = (   4.0847711   0.4797979  14.5629377  )
        12           W1  tau(  12) = (   1.3615904   0.4797979  14.5629377  )

     number of k points=    20  Fermi-Dirac smearing, width (Ry)=  0.0110
                       cart. coord. in units 2pi/alat
        k(    1) = (   0.0000000   0.0000000   0.0000000), wk =   0.0555556
        k(    2) = (   0.0000000   0.0334158   0.0000000), wk =   0.1111111
        k(    3) = (   0.0000000   0.0668317   0.0000000), wk =   0.1111111
        k(    4) = (   0.0000000  -0.1002475   0.0000000), wk =   0.0555556
        k(    5) = (   0.0306015   0.0167079   0.0000000), wk =   0.1111111
        k(    6) = (   0.0306015   0.0501237   0.0000000), wk =   0.1111111
        k(    7) = (   0.0306015   0.0835396   0.0000000), wk =   0.1111111
        k(    8) = (   0.0306015  -0.0835396   0.0000000), wk =   0.1111111
        k(    9) = (   0.0306015  -0.0501237   0.0000000), wk =   0.1111111
        k(   10) = (   0.0306015  -0.0167079   0.0000000), wk =   0.1111111
        k(   11) = (   0.0612029   0.0334158   0.0000000), wk =   0.1111111
        k(   12) = (   0.0612029   0.0668317   0.0000000), wk =   0.1111111
        k(   13) = (   0.0612029   0.1002475   0.0000000), wk =   0.1111111
        k(   14) = (   0.0612029  -0.0668317   0.0000000), wk =   0.1111111
        k(   15) = (   0.0612029  -0.0334158   0.0000000), wk =   0.1111111
        k(   16) = (   0.0612029   0.0000000   0.0000000), wk =   0.1111111
        k(   17) = (  -0.0918044  -0.0501237   0.0000000), wk =   0.0555556
        k(   18) = (  -0.0918044  -0.0167079   0.0000000), wk =   0.1111111
        k(   19) = (  -0.0918044   0.0167079   0.0000000), wk =   0.1111111
        k(   20) = (  -0.0918044  -0.1503712   0.0000000), wk =   0.0555556

     Largest allocated arrays     est. size (Mb)     dimensions
     Largest temporary arrays     est. size (Mb)     dimensions

     Initial potential from superposition of free atoms
     Check: negative starting charge=   -0.377928

     starting charge  101.38317, renormalised to  102.00000

     negative rho (up, down):  3.802E-01 0.000E+00

     *
     * You are using vdW-DF for exchange-correlation in this calculation.
     * Please cite the following three references that made this development
     * possible:
     *
     *   M. Dion, H. Rydberg, E. Schroder, D. C. Langreth, and
     *   B. I. Lundqvist, Phys. Rev. Lett. 92, 246401 (2004).
     *
     *   T. Thonhauser, V. R. Cooper, S. Li, A. Puzder, P. Hyldgaard, and
     *   D. C. Langreth, Phys. Rev. B 76, 125112 (2007).
     *
     *   G. Roman-Perez and J. M. Soler, Phys. Rev. Lett. 103, 096102 (2009).
     *
     *
     * If you are using vdW-DF2, please also cite:
     *
     *   K. Lee, E. D. Murray, L. Kong, B. I. Lundqvist, and
     *   D. C. Langreth, Phys. Rev. B 82, 081101(R) (2010).
     *
     *
     * If you are calculating the stress with vdW-DF, please also cite:
     *
     *   R. Sabatini, E. Kucukbenli, B. Kolb, T. Thonhauser, and
     *   S. de Gironcoli, J. Phys.: Condens. Matter 24, 424209 (2012).
     *

     Carrying out vdW-DF run using the following parameters:

     Nqs =      20    Nr_points =    1024   r_max =   100.000
     q_mesh =
               0.00001000     0.04494208     0.09755937     0.15916263
               0.23128650     0.31572767     0.41458969     0.53033537
               0.66584808     0.82450364     1.01025438     1.22772762
               1.48234092     1.78043706     2.12944203     2.53805004
               3.01644009     3.57652955     4.23227104     5.00000000

     Gradients computed in reciprocal space

     Adding external electric field

     Computed dipole along edir(3) :
        Dipole                0.0000 Ry au,          0.0000 Debye
        Dipole field          0.0000 Ry au

        Potential amp.       -0.0000 Ry
        Total length         45.2568 bohr

     Starting wfc are  102 randomized atomic wfcs

     Self-consistent Calculation

     iteration #  1     ecut=    36.75 Ry     beta=0.10
     Davidson diagonalization with overlap
     ethr =  1.00E-02,  avg # of iterations =  4.8

[...]

     total energy              =   -1003.63451767 Ry
     Harris-Foulkes estimate   =   -1003.88705761 Ry
     estimated scf accuracy    <       1.57266980 Ry

[...]

     End of self-consistent calculation

          k = 0.0000 0.0000 0.0000 ( 16931 PWs)   bands (ev):

   -73.6225 -73.5610 -73.4032 -73.4009 -73.3426 -73.3405 -38.1467 -37.9699
   -37.8570 -37.8444 -37.8386 -37.7804 -37.6772 -37.5552 -37.5462 -37.5252
   -37.4543 -37.4449 -37.4261 -37.2891 -37.2484 -37.2037 -36.9606 -36.9574
    -9.0262  -7.1645  -5.6337  -5.1051  -4.1753  -3.7338  -3.6642  -3.2232
    -3.1104  -2.8638  -2.7993  -2.2576  -2.1385  -1.7507  -1.6623  -1.6321
    -1.2397  -0.8981  -0.7701  -0.6878  -0.2574   0.1734   0.2316   0.2569
     0.3843   0.5605   0.8574   1.1119   1.2180   1.2826   1.3775   1.5233
     2.0060   2.0145   2.2056   2.8173   3.2180   3.2922   3.3889   3.4765
     3.6074   4.2164   4.2530   4.4339   4.5521   4.5986   4.9539   5.0180
     5.1115   5.4010   5.6017   5.8081   6.5047   6.5126   7.3082   7.6830
     7.7918

[...]

          k =-0.0918-0.0501 0.0000 ( 16944 PWs)   bands (ev):

[...]

     the Fermi energy is     0.8505 ev

!    total energy              =   -1003.67140408 Ry
     Harris-Foulkes estimate   =   -1003.67140335 Ry
     estimated scf accuracy    <       0.00000054 Ry

     The total energy is the sum of the following terms:

     one-electron contribution =   -5827.18781692 Ry
     hartree contribution      =    2904.45573569 Ry
     xc contribution           =    -282.06943031 Ry
     ewald contribution        =    2201.18368242 Ry
     electric field correction =       0.00000000 Ry
     smearing contrib. (-TS)   =      -0.05357496 Ry

     convergence has been achieved in  14 iterations

 BEEF-vdW xc energy contributions
           1 :   -246.681031355324
           2 :    226.824577834411
           3 :   -192.516498564827
           4 :    152.102674096654
           5 :   -113.569807287770
           6 :    82.0808115388570
           7 :   -59.2118804693566
           8 :    43.7582241421502
           9 :   -33.2713850904140
          10 :    25.4162892531689
          11 :   -18.6810325529506
          12 :    12.4738271128408
          13 :   -6.88352274284296
          14 :    2.33242344919807
          15 :   0.775570389290351
          16 :   -2.34722361127172
          17 :    2.72920546111163
          18 :   -2.58749331456499
          19 :    2.57566983033240
[...]
00027 suncat0192 pw.x -in pw.inp   Done                     12/18/2018 18:29:09
00028 suncat0192 pw.x -in pw.inp   Done                     12/18/2018 18:29:09
00029 suncat0192 pw.x -in pw.inp   Done                     12/18/2018 18:29:09
00030 suncat0192 pw.x -in pw.inp   Done                     12/18/2018 18:29:09
00031 suncat0192 pw.x -in pw.inp   Done                     12/18/2018 18:29:09

     Program PWSCF v.5.1rc2 (svn rev. 11289) starts on 18Dec2018 at 18:29:16

[...]

   This run was terminated on:  18:37:35  18Dec2018

[...]

   This run was terminated on:  18:46: 2  18Dec2018

[...]

     Program PWSCF v.5.1rc2 (svn rev. 11289) starts on 18Dec2018 at 18:46: 8

[...]

   This run was terminated on:  18:54:33  18Dec2018

[...]

     Program PWSCF v.5.1rc2 (svn rev. 11289) starts on 18Dec2018 at 18:54:39

     Current dimensions of program PWSCF are:
     Max number of different atomic species (ntypx) = 10
     Max number of k-points (npk) =  40000
     Max angular momentum in pseudopotentials (lmaxx) =  3
     Presently stress not available with electric field

     IMPORTANT: XC functional enforced from input :
     Exchange-correlation      = BEEF-VDW ( 1  4 27 13 2)
     Any further DFT definition will be discarded
     Please, verify this is what you really want

     Subspace diagonalization in iterative solution of the eigenvalue problem:
     a serial algorithm will be used

     Found symmetry operation: I + ( -0.5000  0.0000  0.0000)
     This is a supercell, fractional translations are disabled

     bravais-lattice index     =            0
     lattice parameter (alat)  =       1.8897  a.u.
     unit-cell volume          =    4502.7715 (a.u.)^3
     number of atoms/cell      =           12
     number of atomic types    =            2
     number of electrons       =       102.00
     number of Kohn-Sham states=           81
     kinetic-energy cutoff     =      36.7493  Ry
     charge density cutoff     =     367.4932  Ry
     convergence threshold     =      1.0E-06
     mixing beta               =       0.1000
     number of iterations used =           10  plain     mixing
     Exchange-correlation      = BEEF-VDW ( 1  4 27 13 2)
     nstep                     =           50

     celldm(1)=   1.889726  celldm(2)=   0.000000  celldm(3)=   0.000000
     celldm(4)=   0.000000  celldm(5)=   0.000000  celldm(6)=   0.000000

     crystal axes: (cart. coord. in units of alat)
               a(1) = (   5.446361   0.000000   0.000000 )
               a(2) = (  -2.723181   4.987657   0.000000 )
               a(3) = (   0.000000   0.000000  24.562938 )

     reciprocal axes: (cart. coord. in units 2 pi/alat)
               b(1) = (  0.183609  0.100247  0.000000 )
               b(2) = (  0.000000  0.200495  0.000000 )
               b(3) = (  0.000000  0.000000  0.040712 )

     PseudoPot. # 1 for Al read from file:
     /afs/slac.stanford.edu/u/if/mamunm/psp/gbrv1.5pbe/Al.UPF
     MD5 check sum: 0a6289f5291fc8f409219462bc851e1f
     Pseudo is Ultrasoft + core correction, Zval =  3.0
     Generated by new atomic code, or converted to UPF format
     Using radial grid of  893 points,  3 beta functions with:
                l(1) =   0
                l(2) =   1
                l(3) =   2
     Q(r) pseudized with  8 coefficients,  rinner =    0.900   0.900   0.900
                                                       0.900   0.900

     PseudoPot. # 2 for W  read from file:
     /afs/slac.stanford.edu/u/if/mamunm/psp/gbrv1.5pbe/W.UPF
     MD5 check sum: 9c083fa34c2a2ea0f02f1f893e16e1c8
     Pseudo is Ultrasoft + core correction, Zval = 14.0
     Generated by new atomic code, or converted to UPF format
     Using radial grid of  923 points,  8 beta functions with:
                l(1) =   0
                l(2) =   0
                l(3) =   0
                l(4) =   1
                l(5) =   1
                l(6) =   2
                l(7) =   2
                l(8) =   3
     Q(r) pseudized with  6 coefficients,  rinner =    1.350   1.350   1.350
                                                       1.350   1.350   1.350
                                                       1.350

     vdW kernel table read from file vdW_kernel_table
     MD5 check sum: 095c7af220d748ca6e76c0b4c6cfb241

     atomic species   valence    mass     pseudopotential
        Al1            3.00    26.98154     Al( 1.00)
        W1            14.00   183.84000     W ( 1.00)

     No symmetry found

   Cartesian axes

     site n.     atom                  positions (alat units)
         1           Al1 tau(   1) = (   0.0000000   0.0000000  10.0000000  )
         2           Al1 tau(   2) = (   2.7231807   0.0000000  10.0000000  )
         3           W1  tau(   3) = (   1.3615904   2.4938283  10.0000000  )
         4           W1  tau(   4) = (  -1.3615904   2.4938283  10.0000000  )
         5           Al1 tau(   5) = (   2.7231807   1.4868131  12.2814688  )
         6           Al1 tau(   6) = (   0.0000000   1.4868131  12.2814688  )
         7           W1  tau(   7) = (  -1.3615904   3.9806414  12.2814688  )
         8           W1  tau(   8) = (   1.3615904   3.9806414  12.2814688  )
         9           Al1 tau(   9) = (   0.0000141   2.9800321  14.7157532  )
        10           Al1 tau(  10) = (   2.7231950   2.9800322  14.7157533  )
        11           W1  tau(  11) = (   4.0848195   0.4823360  14.4432783  )
        12           W1  tau(  12) = (   1.3616379   0.4823361  14.4432778  )

     number of k points=    20  Fermi-Dirac smearing, width (Ry)=  0.0110
                       cart. coord. in units 2pi/alat
        k(    1) = (   0.0000000   0.0000000   0.0000000), wk =   0.0555556
        k(    2) = (   0.0000000   0.0334158   0.0000000), wk =   0.1111111
        k(    3) = (   0.0000000   0.0668317   0.0000000), wk =   0.1111111
        k(    4) = (   0.0000000  -0.1002475   0.0000000), wk =   0.0555556
        k(    5) = (   0.0306015   0.0167079   0.0000000), wk =   0.1111111
        k(    6) = (   0.0306015   0.0501237   0.0000000), wk =   0.1111111
        k(    7) = (   0.0306015   0.0835396   0.0000000), wk =   0.1111111
        k(    8) = (   0.0306015  -0.0835396   0.0000000), wk =   0.1111111
        k(    9) = (   0.0306015  -0.0501237   0.0000000), wk =   0.1111111
        k(   10) = (   0.0306015  -0.0167079   0.0000000), wk =   0.1111111
        k(   11) = (   0.0612029   0.0334158   0.0000000), wk =   0.1111111
        k(   12) = (   0.0612029   0.0668317   0.0000000), wk =   0.1111111
        k(   13) = (   0.0612029   0.1002475   0.0000000), wk =   0.1111111
        k(   14) = (   0.0612029  -0.0668317   0.0000000), wk =   0.1111111
        k(   15) = (   0.0612029  -0.0334158   0.0000000), wk =   0.1111111
        k(   16) = (   0.0612029   0.0000000   0.0000000), wk =   0.1111111
        k(   17) = (  -0.0918044  -0.0501237   0.0000000), wk =   0.0555556
        k(   18) = (  -0.0918044  -0.0167079   0.0000000), wk =   0.1111111
        k(   19) = (  -0.0918044   0.0167079   0.0000000), wk =   0.1111111
        k(   20) = (  -0.0918044  -0.1503712   0.0000000), wk =   0.0555556

     Largest allocated arrays     est. size (Mb)     dimensions
     Largest temporary arrays     est. size (Mb)     dimensions

     Initial potential from superposition of free atoms
     Check: negative starting charge=   -0.377791

     starting charge  101.38317, renormalised to  102.00000

[...]

     *
     * You are using vdW-DF for exchange-correlation in this calculation.
     * Please cite the following three references that made this development
     * possible:
     *
     *   M. Dion, H. Rydberg, E. Schroder, D. C. Langreth, and
     *   B. I. Lundqvist, Phys. Rev. Lett. 92, 246401 (2004).
     *
     *   T. Thonhauser, V. R. Cooper, S. Li, A. Puzder, P. Hyldgaard, and
     *   D. C. Langreth, Phys. Rev. B 76, 125112 (2007).
     *
     *   G. Roman-Perez and J. M. Soler, Phys. Rev. Lett. 103, 096102 (2009).
     *
     *
     * If you are using vdW-DF2, please also cite:
     *
     *   K. Lee, E. D. Murray, L. Kong, B. I. Lundqvist, and
     *   D. C. Langreth, Phys. Rev. B 82, 081101(R) (2010).
     *
     *
     * If you are calculating the stress with vdW-DF, please also cite:
     *
     *   R. Sabatini, E. Kucukbenli, B. Kolb, T. Thonhauser, and
     *   S. de Gironcoli, J. Phys.: Condens. Matter 24, 424209 (2012).
     *

     Carrying out vdW-DF run using the following parameters:

     Nqs =      20    Nr_points =    1024   r_max =   100.000
     q_mesh =
               0.00001000     0.04494208     0.09755937     0.15916263
               0.23128650     0.31572767     0.41458969     0.53033537
               0.66584808     0.82450364     1.01025438     1.22772762
               1.48234092     1.78043706     2.12944203     2.53805004
               3.01644009     3.57652955     4.23227104     5.00000000

     Gradients computed in reciprocal space

[...]

     Starting wfc are  102 randomized atomic wfcs

     Self-consistent Calculation

[...]

     total energy              =   -1003.68992532 Ry
     Harris-Foulkes estimate   =   -1003.68992563 Ry
     estimated scf accuracy    <       0.00000205 Ry

     iteration # 15     ecut=    36.75 Ry     beta=0.10
     Davidson diagonalization with overlap
     ethr =  2.01E-09,  avg # of iterations =  2.0

[...]

     negative rho (up, down):  3.948E-01 0.000E+00

     Adding external electric field

     Computed dipole along edir(3) :
        Dipole                0.0240 Ry au,          0.0611 Debye
        Dipole field          0.0001 Ry au

        Potential amp.       -0.0061 Ry
        Total length         45.2568 bohr

     End of self-consistent calculation

[...]

          k = 0.0612 0.0000 0.0000 ( 16958 PWs)   bands (ev):

[...]

          k =-0.0918-0.1504 0.0000 ( 16944 PWs)   bands (ev):

   -73.5728 -73.5728 -73.3442 -73.3442 -73.3170 -73.3170 -37.9586 -37.9586
   -37.7113 -37.7112 -37.6943 -37.6943 -37.4738 -37.4738 -37.4561 -37.4561
   -37.4404 -37.4404 -37.3883 -37.3883 -37.3736 -37.3736 -37.1585 -37.1585
    -7.2002  -7.2002  -5.6593  -5.6593  -4.6023  -4.6023  -3.4502  -3.4502
    -2.6661  -2.6661  -1.8425  -1.8425  -1.4201  -1.4201  -1.1732  -1.1732
    -1.0337  -1.0337  -0.8216  -0.8216  -0.1386  -0.1386   0.0715   0.0715
     0.3991   0.3991   0.5101   0.5101   0.9406   0.9406   1.4611   1.4611
     1.7972   1.7972   2.4114   2.4114   2.6479   2.6479   2.9222   2.9222
     3.5438   3.5438   4.5125   4.5125   5.2246   5.2246   5.7488   5.7488
     6.0673   6.0673   6.4145   6.4145   6.6331   6.6331   7.1092   7.1093
     7.2159

     the Fermi energy is     0.8831 ev

!    total energy              =   -1003.68992648 Ry
     Harris-Foulkes estimate   =   -1003.68992562 Ry
     estimated scf accuracy    <       0.00000014 Ry

     The total energy is the sum of the following terms:

     one-electron contribution =   -5882.99625092 Ry
     hartree contribution      =    2932.44440582 Ry
     xc contribution           =    -282.10106085 Ry
     ewald contribution        =    2229.01496453 Ry
     electric field correction =       0.00000161 Ry
     smearing contrib. (-TS)   =      -0.05198668 Ry

     convergence has been achieved in  15 iterations

 BEEF-vdW xc energy contributions
           1 :   -246.716518360836
           2 :    226.874256900924
           3 :   -192.580652537828
           4 :    152.161735795519
           5 :   -113.589571465738
           6 :    82.0275078985914
           7 :   -59.0706167769540
           8 :    43.5431743943217
           9 :   -33.0193240081894
          10 :    25.1663720842347
          11 :   -18.4544982433362
          12 :    12.2674954389051
          13 :   -6.67896633009894
          14 :    2.11033290461671
          15 :    1.02683624851426
          16 :   -2.63124867532252
          17 :    3.04306473175848
          18 :   -2.91958052105650
          19 :    2.90327486056424
          20 :   -3.28767786869508
          21 :    3.91025250613399
          22 :   -4.34706260146038
          23 :    4.26279573513676
          24 :   -3.66484754191725
          25 :    2.89282327279915
          26 :   -2.37448047394042
          27 :    2.33983717072863
          28 :   -2.69599406945463
          29 :    3.12845059271842
          30 :   -3.32910969362223
          31 :   -23.5756133848819
          32 :   -17.6013726924295

     Forces acting on atoms (Ry/au):

     negative rho (up, down):  3.948E-01 0.000E+00
     atom    1 type  1   force =    -0.00000760    0.00003249   -0.02765151
     atom    2 type  1   force =    -0.00000805    0.00003251   -0.02765153
     atom    3 type  2   force =     0.00000034    0.00198318    0.04249396
     atom    4 type  2   force =     0.00000031    0.00198462    0.04249543
     atom    5 type  1   force =     0.00000453    0.01158222   -0.00820981
     atom    6 type  1   force =     0.00000442    0.01158218   -0.00820987
     atom    7 type  2   force =    -0.00000077   -0.01457614   -0.00648640
     atom    8 type  2   force =    -0.00000033   -0.01457621   -0.00648608
     atom    9 type  1   force =     0.00000457    0.00054915   -0.00021618
     atom   10 type  1   force =     0.00000485    0.00054906   -0.00021620
     atom   11 type  2   force =    -0.00000118    0.00042945    0.00006977
     atom   12 type  2   force =    -0.00000107    0.00042749    0.00006841

     Total force =     0.077858     Total SCF correction =     0.001262

     entering subroutine stress ...

     negative rho (up, down):  3.948E-01 0.000E+00
          total   stress  (Ry/bohr**3)                   (kbar)     P=  -26.15
  -0.00017831   0.00000002   0.00000001        -26.23      0.00      0.00
   0.00000002  -0.00028452  -0.00000143          0.00    -41.85     -0.21
   0.00000001  -0.00000143  -0.00007051          0.00     -0.21    -10.37

 !ASE

     Writing output data file calc.save

     General routines

     Parallel routines

   This run was terminated on:  19: 3: 0  18Dec2018

   JOB DONE.
Job  /afs/slac/g/suncat/bin/suncat-tsmpirun -x LD_LIBRARY_PATH -wdir /scratch/qe529626_vMI9W pw.x -in pw.inp

TID   HOST_NAME   COMMAND_LINE            STATUS            TERMINATION_TIME
00000 suncat0195 pw.x -in pw.inp   Done                     12/18/2018 19:03:00
00001 suncat0195 pw.x -in pw.inp   Done                     12/18/2018 19:03:00
00002 suncat0195 pw.x -in pw.inp   Done                     12/18/2018 19:03:00
00003 suncat0195 pw.x -in pw.inp   Done                     12/18/2018 19:03:00
00004 suncat0195 pw.x -in pw.inp   Done                     12/18/2018 19:03:00
00005 suncat0195 pw.x -in pw.inp   Done                     12/18/2018 19:03:00
00006 suncat0195 pw.x -in pw.inp   Done                     12/18/2018 19:03:00
00007 suncat0195 pw.x -in pw.inp   Done                     12/18/2018 19:03:00
00008 suncat0194 pw.x -in pw.inp   Done                     12/18/2018 19:03:00
00009 suncat0194 pw.x -in pw.inp   Done                     12/18/2018 19:03:00
00010 suncat0194 pw.x -in pw.inp   Done                     12/18/2018 19:03:00
00011 suncat0194 pw.x -in pw.inp   Done                     12/18/2018 19:03:00
00012 suncat0194 pw.x -in pw.inp   Done                     12/18/2018 19:03:00
00013 suncat0194 pw.x -in pw.inp   Done                     12/18/2018 19:03:00
00014 suncat0194 pw.x -in pw.inp   Done                     12/18/2018 19:03:00
00015 suncat0194 pw.x -in pw.inp   Done                     12/18/2018 19:03:00
00016 suncat0193 pw.x -in pw.inp   Done                     12/18/2018 19:03:00
00017 suncat0193 pw.x -in pw.inp   Done                     12/18/2018 19:03:00
00018 suncat0193 pw.x -in pw.inp   Done                     12/18/2018 19:03:00
00019 suncat0193 pw.x -in pw.inp   Done                     12/18/2018 19:03:00
00020 suncat0193 pw.x -in pw.inp   Done                     12/18/2018 19:03:00
00021 suncat0193 pw.x -in pw.inp   Done                     12/18/2018 19:03:00
00022 suncat0193 pw.x -in pw.inp   Done                     12/18/2018 19:03:00
00023 suncat0193 pw.x -in pw.inp   Done                     12/18/2018 19:03:00
00024 suncat0192 pw.x -in pw.inp   Done                     12/18/2018 19:03:00
00025 suncat0192 pw.x -in pw.inp   Done                     12/18/2018 19:03:00
00026 suncat0192 pw.x -in pw.inp   Done                     12/18/2018 19:03:00
00027 suncat0192 pw.x -in pw.inp   Done                     12/18/2018 19:03:00
00028 suncat0192 pw.x -in pw.inp   Done                     12/18/2018 19:03:00
00029 suncat0192 pw.x -in pw.inp   Done                     12/18/2018 19:03:00
00030 suncat0192 pw.x -in pw.inp   Done                     12/18/2018 19:03:00
00031 suncat0192 pw.x -in pw.inp   Done                     12/18/2018 19:03:00