     Program PWSCF v.5.1rc2 (svn rev. 11289) starts on 30Dec2018 at  9:43:41

     Current dimensions of program PWSCF are:
     Max number of different atomic species (ntypx) = 10
     Max number of k-points (npk) =  40000
     Max angular momentum in pseudopotentials (lmaxx) =  3
     Presently stress not available with electric field

     IMPORTANT: XC functional enforced from input :
     Exchange-correlation      = BEEF-VDW ( 1  4 27 13 2)
     Any further DFT definition will be discarded
     Please, verify this is what you really want

     Subspace diagonalization in iterative solution of the eigenvalue problem:
     a serial algorithm will be used

     Generating pointlists ...
     new r_m :   0.4125 (alat units)  0.7795 (a.u.) for type    1
     new r_m :   0.4125 (alat units)  0.7795 (a.u.) for type    2

     bravais-lattice index     =            0
     lattice parameter (alat)  =       1.8897  a.u.
     unit-cell volume          =    5691.5988 (a.u.)^3
     number of atoms/cell      =           12
     number of atomic types    =            2
     number of electrons       =       165.00
     number of Kohn-Sham states=          112
     kinetic-energy cutoff     =      36.7493  Ry
     charge density cutoff     =     367.4932  Ry
     convergence threshold     =      1.0E-06
     mixing beta               =       0.1000
     number of iterations used =           10  plain     mixing
     Exchange-correlation      = BEEF-VDW ( 1  4 27 13 2)
     nstep                     =           50

     celldm(1)=   1.889726  celldm(2)=   0.000000  celldm(3)=   0.000000
     celldm(4)=   0.000000  celldm(5)=   0.000000  celldm(6)=   0.000000

     crystal axes: (cart. coord. in units of alat)
               a(1) = (   6.230561   0.000000   0.000000 )
               a(2) = (  -3.115280   5.395824   0.000000 )
               a(3) = (   0.000000   0.000000  25.087232 )

     reciprocal axes: (cart. coord. in units 2 pi/alat)
               b(1) = (  0.160499  0.092664  0.000000 )
               b(2) = (  0.000000  0.185329  0.000000 )
               b(3) = (  0.000000  0.000000  0.039861 )

     PseudoPot. # 1 for In read from file:
     /afs/slac.stanford.edu/u/if/mamunm/psp/gbrv1.5pbe/In.UPF
     MD5 check sum: 90777abd96fbb83f2e67db2a40c566b9
     Pseudo is Ultrasoft + core correction, Zval = 13.0
     Generated by new atomic code, or converted to UPF format
     Using radial grid of  889 points,  6 beta functions with:
                l(1) =   0
                l(2) =   0
                l(3) =   1
                l(4) =   1
                l(5) =   2
                l(6) =   2
     Q(r) pseudized with  6 coefficients,  rinner =    1.400   1.400   1.400
                                                       1.400   1.400

     PseudoPot. # 2 for Fe read from file:
     /afs/slac.stanford.edu/u/if/mamunm/psp/gbrv1.5pbe/Fe.UPF
     MD5 check sum: a130daea23fe5165f5d574ae7f82ed95
     Pseudo is Ultrasoft + core correction, Zval = 16.0
     Generated by new atomic code, or converted to UPF format
     Using radial grid of  861 points,  6 beta functions with:
                l(1) =   0
                l(2) =   0
                l(3) =   1
                l(4) =   1
                l(5) =   2
                l(6) =   2
     Q(r) pseudized with  8 coefficients,  rinner =    1.000   1.000   1.000
                                                       1.000   1.000

     vdW kernel table read from file vdW_kernel_table
     MD5 check sum: 095c7af220d748ca6e76c0b4c6cfb241

     atomic species   valence    mass     pseudopotential
        In1           13.00   114.81800     In( 1.00)
        Fe1           16.00    55.84500     Fe( 1.00)

     Starting magnetic structure
     atomic species   magnetization
        In1          0.154
        Fe1          0.125

     No symmetry found

   Cartesian axes

     site n.     atom                  positions (alat units)
         1           In1 tau(   1) = (   0.0000000   0.0000000  10.0000000  )
         2           In1 tau(   2) = (  -1.5576402   2.6979120  10.0000000  )
         3           In1 tau(   3) = (   1.5576402   2.6979120  10.0000000  )
         4           Fe1 tau(   4) = (   3.1152805   0.0000000  10.0000000  )
         5           In1 tau(   5) = (   3.1152805   1.7986080  12.5436159  )
         6           In1 tau(   6) = (   1.5576402   4.4965201  12.5436159  )
         7           In1 tau(   7) = (  -1.5576402   4.4965201  12.5436159  )
         8           Fe1 tau(   8) = (   0.0000000   1.7986080  12.5436159  )
         9           In1 tau(   9) = (  -0.0000000   3.5972161  15.0872317  )
        10           In1 tau(  10) = (   1.5576402   0.8993040  15.0872317  )
        11           In1 tau(  11) = (   4.6729207   0.8993040  15.0872317  )
        12           Fe1 tau(  12) = (   3.1152805   3.5972161  15.0872317  )

     number of k points=    40  Fermi-Dirac smearing, width (Ry)=  0.0110
                       cart. coord. in units 2pi/alat
        k(    1) = (   0.0000000   0.0000000   0.0000000), wk =   0.0277778
        k(    2) = (   0.0000000   0.0308881   0.0000000), wk =   0.0555556
        k(    3) = (   0.0000000   0.0617762   0.0000000), wk =   0.0555556
        k(    4) = (   0.0000000  -0.0926643   0.0000000), wk =   0.0277778
        k(    5) = (   0.0267499   0.0154440   0.0000000), wk =   0.0555556
        k(    6) = (   0.0267499   0.0463321   0.0000000), wk =   0.0555556
        k(    7) = (   0.0267499   0.0772202   0.0000000), wk =   0.0555556
        k(    8) = (   0.0267499  -0.0772202   0.0000000), wk =   0.0555556
        k(    9) = (   0.0267499  -0.0463321   0.0000000), wk =   0.0555556
        k(   10) = (   0.0267499  -0.0154440   0.0000000), wk =   0.0555556
        k(   11) = (   0.0534997   0.0308881   0.0000000), wk =   0.0555556
        k(   12) = (   0.0534997   0.0617762   0.0000000), wk =   0.0555556
        k(   13) = (   0.0534997   0.0926643   0.0000000), wk =   0.0555556
        k(   14) = (   0.0534997  -0.0617762   0.0000000), wk =   0.0555556
        k(   15) = (   0.0534997  -0.0308881   0.0000000), wk =   0.0555556
        k(   16) = (   0.0534997   0.0000000   0.0000000), wk =   0.0555556
        k(   17) = (  -0.0802496  -0.0463321   0.0000000), wk =   0.0277778
        k(   18) = (  -0.0802496  -0.0154440   0.0000000), wk =   0.0555556
        k(   19) = (  -0.0802496   0.0154440   0.0000000), wk =   0.0555556
        k(   20) = (  -0.0802496  -0.1389964   0.0000000), wk =   0.0277778
        k(   21) = (   0.0000000   0.0000000   0.0000000), wk =   0.0277778
        k(   22) = (   0.0000000   0.0308881   0.0000000), wk =   0.0555556
        k(   23) = (   0.0000000   0.0617762   0.0000000), wk =   0.0555556
        k(   24) = (   0.0000000  -0.0926643   0.0000000), wk =   0.0277778
        k(   25) = (   0.0267499   0.0154440   0.0000000), wk =   0.0555556
        k(   26) = (   0.0267499   0.0463321   0.0000000), wk =   0.0555556
        k(   27) = (   0.0267499   0.0772202   0.0000000), wk =   0.0555556
        k(   28) = (   0.0267499  -0.0772202   0.0000000), wk =   0.0555556
        k(   29) = (   0.0267499  -0.0463321   0.0000000), wk =   0.0555556
        k(   30) = (   0.0267499  -0.0154440   0.0000000), wk =   0.0555556
        k(   31) = (   0.0534997   0.0308881   0.0000000), wk =   0.0555556
        k(   32) = (   0.0534997   0.0617762   0.0000000), wk =   0.0555556
        k(   33) = (   0.0534997   0.0926643   0.0000000), wk =   0.0555556
        k(   34) = (   0.0534997  -0.0617762   0.0000000), wk =   0.0555556
        k(   35) = (   0.0534997  -0.0308881   0.0000000), wk =   0.0555556
        k(   36) = (   0.0534997   0.0000000   0.0000000), wk =   0.0555556
        k(   37) = (  -0.0802496  -0.0463321   0.0000000), wk =   0.0277778
        k(   38) = (  -0.0802496  -0.0154440   0.0000000), wk =   0.0555556
        k(   39) = (  -0.0802496   0.0154440   0.0000000), wk =   0.0555556
        k(   40) = (  -0.0802496  -0.1389964   0.0000000), wk =   0.0277778

     Largest allocated arrays     est. size (Mb)     dimensions
     Largest temporary arrays     est. size (Mb)     dimensions

     Check: negative/imaginary core charge=   -0.000002    0.000000

     Initial potential from superposition of free atoms
     Check: negative starting charge=(component1):   -0.000132

     starting charge  148.49998, renormalised to  165.00000

     negative rho (up, down):  1.464E-04 1.104E-04

     *
     * You are using vdW-DF for exchange-correlation in this calculation.
     * Please cite the following three references that made this development
     * possible:
     *
     *   M. Dion, H. Rydberg, E. Schroder, D. C. Langreth, and
     *   B. I. Lundqvist, Phys. Rev. Lett. 92, 246401 (2004).
     *
     *   T. Thonhauser, V. R. Cooper, S. Li, A. Puzder, P. Hyldgaard, and
     *   D. C. Langreth, Phys. Rev. B 76, 125112 (2007).
     *
     *   G. Roman-Perez and J. M. Soler, Phys. Rev. Lett. 103, 096102 (2009).
     *
     *
     * If you are using vdW-DF2, please also cite:
     *
     *   K. Lee, E. D. Murray, L. Kong, B. I. Lundqvist, and
     *   D. C. Langreth, Phys. Rev. B 82, 081101(R) (2010).
     *
     *
     * If you are calculating the stress with vdW-DF, please also cite:
     *
     *   R. Sabatini, E. Kucukbenli, B. Kolb, T. Thonhauser, and
     *   S. de Gironcoli, J. Phys.: Condens. Matter 24, 424209 (2012).
     *

     Carrying out vdW-DF run using the following parameters:

     Nqs =      20    Nr_points =    1024   r_max =   100.000
     q_mesh =
               0.00001000     0.04494208     0.09755937     0.15916263
               0.23128650     0.31572767     0.41458969     0.53033537
               0.66584808     0.82450364     1.01025438     1.22772762
               1.48234092     1.78043706     2.12944203     2.53805004
               3.01644009     3.57652955     4.23227104     5.00000000

     Gradients computed in reciprocal space

     Adding external electric field

     Computed dipole along edir(3) :
        Dipole               -0.0000 Ry au,         -0.0000 Debye
        Dipole field         -0.0000 Ry au

        Potential amp.        0.0000 Ry
        Total length         46.2228 bohr

[...]

     Starting wfc are  120 randomized atomic wfcs

     Self-consistent Calculation

     iteration #  1     ecut=    36.75 Ry     beta=0.10
     Davidson diagonalization with overlap
     ethr =  1.00E-02,  avg # of iterations =  8.8

[...]

     Magnetic moment per site:
     atom:    1    charge:    3.2862    magn:    0.4714    constr:    0.0000
     atom:    2    charge:    3.2862    magn:    0.4714    constr:    0.0000
     atom:    3    charge:    3.2862    magn:    0.4714    constr:    0.0000
     atom:    4    charge:    7.3783    magn:    0.8723    constr:    0.0000
     atom:    5    charge:    3.2976    magn:    0.4731    constr:    0.0000
     atom:    6    charge:    3.2976    magn:    0.4731    constr:    0.0000
     atom:    7    charge:    3.2976    magn:    0.4731    constr:    0.0000
     atom:    8    charge:    7.3974    magn:    0.8746    constr:    0.0000
[...]
        k(    1) = (   0.0000000   0.0000000   0.0000000), wk =   0.0277778
        k(    2) = (   0.0000000   0.0308881   0.0000000), wk =   0.0555556
        k(    3) = (   0.0000000   0.0617762   0.0000000), wk =   0.0555556
        k(    4) = (   0.0000000  -0.0926643   0.0000000), wk =   0.0277778
        k(    5) = (   0.0267499   0.0154440   0.0000000), wk =   0.0555556
        k(    6) = (   0.0267499   0.0463321   0.0000000), wk =   0.0555556
        k(    7) = (   0.0267499   0.0772202   0.0000000), wk =   0.0555556
        k(    8) = (   0.0267499  -0.0772202   0.0000000), wk =   0.0555556
        k(    9) = (   0.0267499  -0.0463321   0.0000000), wk =   0.0555556
        k(   10) = (   0.0267499  -0.0154440   0.0000000), wk =   0.0555556
        k(   11) = (   0.0534997   0.0308881   0.0000000), wk =   0.0555556
        k(   12) = (   0.0534997   0.0617762   0.0000000), wk =   0.0555556
        k(   13) = (   0.0534997   0.0926643   0.0000000), wk =   0.0555556
        k(   14) = (   0.0534997  -0.0617762   0.0000000), wk =   0.0555556
        k(   15) = (   0.0534997  -0.0308881   0.0000000), wk =   0.0555556
        k(   16) = (   0.0534997   0.0000000   0.0000000), wk =   0.0555556
        k(   17) = (  -0.0802496  -0.0463321   0.0000000), wk =   0.0277778
        k(   18) = (  -0.0802496  -0.0154440   0.0000000), wk =   0.0555556
        k(   19) = (  -0.0802496   0.0154440   0.0000000), wk =   0.0555556
        k(   20) = (  -0.0802496  -0.1389964   0.0000000), wk =   0.0277778
        k(   21) = (   0.0000000   0.0000000   0.0000000), wk =   0.0277778
        k(   22) = (   0.0000000   0.0308881   0.0000000), wk =   0.0555556
        k(   23) = (   0.0000000   0.0617762   0.0000000), wk =   0.0555556
        k(   24) = (   0.0000000  -0.0926643   0.0000000), wk =   0.0277778
        k(   25) = (   0.0267499   0.0154440   0.0000000), wk =   0.0555556
        k(   26) = (   0.0267499   0.0463321   0.0000000), wk =   0.0555556
        k(   27) = (   0.0267499   0.0772202   0.0000000), wk =   0.0555556
        k(   28) = (   0.0267499  -0.0772202   0.0000000), wk =   0.0555556
        k(   29) = (   0.0267499  -0.0463321   0.0000000), wk =   0.0555556
        k(   30) = (   0.0267499  -0.0154440   0.0000000), wk =   0.0555556
        k(   31) = (   0.0534997   0.0308881   0.0000000), wk =   0.0555556
        k(   32) = (   0.0534997   0.0617762   0.0000000), wk =   0.0555556
        k(   33) = (   0.0534997   0.0926643   0.0000000), wk =   0.0555556
        k(   34) = (   0.0534997  -0.0617762   0.0000000), wk =   0.0555556
        k(   35) = (   0.0534997  -0.0308881   0.0000000), wk =   0.0555556
        k(   36) = (   0.0534997   0.0000000   0.0000000), wk =   0.0555556
        k(   37) = (  -0.0802496  -0.0463321   0.0000000), wk =   0.0277778
        k(   38) = (  -0.0802496  -0.0154440   0.0000000), wk =   0.0555556
        k(   39) = (  -0.0802496   0.0154440   0.0000000), wk =   0.0555556
        k(   40) = (  -0.0802496  -0.1389964   0.0000000), wk =   0.0277778

     Largest allocated arrays     est. size (Mb)     dimensions
     Largest temporary arrays     est. size (Mb)     dimensions

     Check: negative/imaginary core charge=   -0.000002    0.000000

     Initial potential from superposition of free atoms
     Check: negative starting charge=(component1):   -0.000130

     starting charge  148.49998, renormalised to  165.00000

[...]

     *
     * You are using vdW-DF for exchange-correlation in this calculation.
     * Please cite the following three references that made this development
     * possible:
     *
     *   M. Dion, H. Rydberg, E. Schroder, D. C. Langreth, and
     *   B. I. Lundqvist, Phys. Rev. Lett. 92, 246401 (2004).
     *
     *   T. Thonhauser, V. R. Cooper, S. Li, A. Puzder, P. Hyldgaard, and
     *   D. C. Langreth, Phys. Rev. B 76, 125112 (2007).
     *
     *   G. Roman-Perez and J. M. Soler, Phys. Rev. Lett. 103, 096102 (2009).
     *
     *
     * If you are using vdW-DF2, please also cite:
     *
     *   K. Lee, E. D. Murray, L. Kong, B. I. Lundqvist, and
     *   D. C. Langreth, Phys. Rev. B 82, 081101(R) (2010).
     *
     *
     * If you are calculating the stress with vdW-DF, please also cite:
     *
     *   R. Sabatini, E. Kucukbenli, B. Kolb, T. Thonhauser, and
     *   S. de Gironcoli, J. Phys.: Condens. Matter 24, 424209 (2012).
     *

     Carrying out vdW-DF run using the following parameters:

     Nqs =      20    Nr_points =    1024   r_max =   100.000
     q_mesh =
               0.00001000     0.04494208     0.09755937     0.15916263
               0.23128650     0.31572767     0.41458969     0.53033537
               0.66584808     0.82450364     1.01025438     1.22772762
               1.48234092     1.78043706     2.12944203     2.53805004
               3.01644009     3.57652955     4.23227104     5.00000000

     Gradients computed in reciprocal space

[...]

     Starting wfc are  120 randomized atomic wfcs

     Self-consistent Calculation

[...]

     total energy              =   -1966.74674450 Ry
     Harris-Foulkes estimate   =   -1966.74673437 Ry
     estimated scf accuracy    <       0.00000106 Ry

[...]

     iteration # 30     ecut=    36.75 Ry     beta=0.10
     Davidson diagonalization with overlap
     ethr =  6.43E-10,  avg # of iterations =  2.0

[...]

     negative rho (up, down):  4.863E-04 9.457E-04

[...]

     Adding external electric field

     Computed dipole along edir(3) :
        Dipole                0.0449 Ry au,          0.1142 Debye
        Dipole field          0.0001 Ry au

        Potential amp.       -0.0092 Ry
        Total length         46.2228 bohr

     Magnetic moment per site:
     atom:    1    charge:    3.0657    magn:   -0.0009    constr:    0.0000
     atom:    2    charge:    3.0657    magn:   -0.0009    constr:    0.0000
     atom:    3    charge:    3.0657    magn:   -0.0009    constr:    0.0000
     atom:    4    charge:    7.1009    magn:    1.3607    constr:    0.0000
     atom:    5    charge:    3.0783    magn:   -0.0008    constr:    0.0000
     atom:    6    charge:    3.0783    magn:   -0.0008    constr:    0.0000
     atom:    7    charge:    3.0783    magn:   -0.0008    constr:    0.0000
     atom:    8    charge:    7.1161    magn:    1.2960    constr:    0.0000
     atom:    9    charge:    3.0683    magn:   -0.0006    constr:    0.0000
     atom:   10    charge:    3.0683    magn:   -0.0006    constr:    0.0000
     atom:   11    charge:    3.0683    magn:   -0.0006    constr:    0.0000
     atom:   12    charge:    7.1017    magn:    1.3091    constr:    0.0000

     End of self-consistent calculation

 ------ SPIN UP ------------

[...]

 ------ SPIN DOWN ----------

[...]

          k = 0.0535 0.0000 0.0000 ( 21431 PWs)   bands (ev):

[...]

          k =-0.0802-0.1390 0.0000 ( 21416 PWs)   bands (ev):

   -84.7801 -84.7710 -84.7269 -50.9184 -50.9059 -50.8991 -50.8991 -50.8776
   -50.8776 -50.8551 -50.8551 -50.8151 -14.4972 -14.4063 -14.3989 -14.3847
   -14.3631 -14.3418 -14.3146 -14.2908 -14.2777 -14.2763 -14.2513 -14.2470
   -14.2221 -14.2093 -14.1973 -14.1921 -14.1792 -14.1511 -14.1450 -14.1379
   -14.1310 -14.1213 -14.1127 -14.1096 -14.1037 -14.0980 -14.0852 -14.0849
   -14.0798 -14.0734 -14.0639 -14.0555 -14.0507 -14.0485 -14.0332 -14.0301
   -14.0074 -14.0054 -13.9956 -13.9830 -13.9704 -13.9399 -13.9068 -13.8621
   -13.8247  -7.4630  -7.0553  -5.8545  -5.6309  -4.5920  -4.5058  -3.9013
    -3.1296  -2.6537  -1.9868  -1.3498  -0.9412  -0.3415  -0.2797  -0.1536
     0.0944   0.1188   0.3707   0.4253   0.6734   0.8686   0.9172   1.0572
     1.1347   1.1447   1.2189   1.2647   1.2738   1.6336   1.9605   2.3857
     2.4261   2.4776   2.8253   3.0748   3.3351   3.4702   3.5137   3.6427
     4.0744   4.3607   4.5112   4.8660   4.9103   4.9996   5.0794   5.5479
     5.6043   5.6148   5.7353   5.8867   6.0255   6.0590   6.2779   6.3780

     the Fermi energy is     0.7617 ev

!    total energy              =   -1966.74678182 Ry
     Harris-Foulkes estimate   =   -1966.74674414 Ry
     estimated scf accuracy    <       0.00000071 Ry

     The total energy is the sum of the following terms:

     one-electron contribution =  -11966.90825527 Ry
     hartree contribution      =    6042.71919150 Ry
     xc contribution           =    -443.15984808 Ry
     ewald contribution        =    4400.65992658 Ry
     electric field correction =       0.00000446 Ry
     smearing contrib. (-TS)   =      -0.05780099 Ry

     total magnetization       =     8.43 Bohr mag/cell
     absolute magnetization    =     9.91 Bohr mag/cell

     convergence has been achieved in  30 iterations

 BEEF-vdW xc energy contributions
           1 :   -388.223227988012
           2 :    354.099593164865
           3 :   -296.704476631125
           4 :    232.474704210006
           5 :   -176.183480146707
           6 :    135.522834134805
           7 :   -109.891084248355
           8 :    93.2059280966147
           9 :   -78.5766803120926
          10 :    62.0832630941147
          11 :   -43.9458638946376
          12 :    27.0913529842744
          13 :   -14.5504139711391
          14 :    7.42197956880199
          15 :   -4.44975479454155
          16 :    3.09125538538234
          17 :   -1.14496838746265
          18 :   -2.13990562018643
          19 :    6.01398103629953
          20 :   -9.07348845531624
          21 :    10.3257005183710
          22 :   -9.79881084003443
          23 :    8.39890385019129
          24 :   -7.24063224204400
          25 :    6.95453931495166
          26 :   -7.41782369585547
          27 :    8.00170648606093
          28 :   -8.09066330779132
          29 :    7.48352559996709
          30 :   -6.44205137904731
          31 :   -34.9366035010216
          32 :   -25.2379685398561

     Forces acting on atoms (Ry/au):

     negative rho (up, down):  4.863E-04 9.457E-04
     atom    1 type  1   force =    -0.00000007    0.01456064   -0.02120275
     atom    2 type  1   force =     0.01260999   -0.00728035   -0.02120273
     atom    3 type  1   force =    -0.01261000   -0.00728031   -0.02120271
     atom    4 type  2   force =    -0.00000003   -0.00000008    0.03116493
     atom    5 type  1   force =    -0.00000007   -0.01180596    0.00984461
     atom    6 type  1   force =    -0.01022466    0.00590295    0.00984407
     atom    7 type  1   force =     0.01022497    0.00590315    0.00984375
     atom    8 type  2   force =     0.00000003    0.00000012    0.00281029
     atom    9 type  1   force =     0.00000010   -0.00013084   -0.00000680
     atom   10 type  1   force =    -0.00011291    0.00006570   -0.00000664
     atom   11 type  1   force =     0.00011287    0.00006550   -0.00000654
     atom   12 type  2   force =    -0.00000022   -0.00000053    0.00012052

     Total force =     0.060604     Total SCF correction =     0.001537

     entering subroutine stress ...

     negative rho (up, down):  4.863E-04 9.457E-04
          total   stress  (Ry/bohr**3)                   (kbar)     P=   -4.18
  -0.00005335   0.00000000  -0.00000000         -7.85      0.00     -0.00
   0.00000000  -0.00005335  -0.00000000          0.00     -7.85     -0.00
  -0.00000000  -0.00000000   0.00002155         -0.00     -0.00      3.17

 !ASE

     Writing output data file calc.save

     General routines

     Parallel routines

   This run was terminated on:  16:33:16  30Dec2018

   JOB DONE.
Job  /afs/slac/g/suncat/bin/suncat-tsmpirun -x LD_LIBRARY_PATH -wdir /scratch/qe648503_EeOyz pw.x -in pw.inp

TID   HOST_NAME   COMMAND_LINE            STATUS            TERMINATION_TIME
00000 suncat0058 pw.x -in pw.inp   Done                     12/30/2018 16:33:16
00001 suncat0058 pw.x -in pw.inp   Done                     12/30/2018 16:33:16
00002 suncat0058 pw.x -in pw.inp   Done                     12/30/2018 16:33:16
00003 suncat0058 pw.x -in pw.inp   Done                     12/30/2018 16:33:16
00004 suncat0058 pw.x -in pw.inp   Done                     12/30/2018 16:33:16
00005 suncat0058 pw.x -in pw.inp   Done                     12/30/2018 16:33:16
00006 suncat0058 pw.x -in pw.inp   Done                     12/30/2018 16:33:16
00007 suncat0058 pw.x -in pw.inp   Done                     12/30/2018 16:33:16
00008 suncat0054 pw.x -in pw.inp   Done                     12/30/2018 16:33:16
00009 suncat0054 pw.x -in pw.inp   Done                     12/30/2018 16:33:16
00010 suncat0054 pw.x -in pw.inp   Done                     12/30/2018 16:33:16
00011 suncat0054 pw.x -in pw.inp   Done                     12/30/2018 16:33:16
00012 suncat0054 pw.x -in pw.inp   Done                     12/30/2018 16:33:16
00013 suncat0054 pw.x -in pw.inp   Done                     12/30/2018 16:33:16
00014 suncat0054 pw.x -in pw.inp   Done                     12/30/2018 16:33:16
00015 suncat0054 pw.x -in pw.inp   Done                     12/30/2018 16:33:16
00016 suncat0180 pw.x -in pw.inp   Done                     12/30/2018 16:33:16
00017 suncat0180 pw.x -in pw.inp   Done                     12/30/2018 16:33:16
00018 suncat0180 pw.x -in pw.inp   Done                     12/30/2018 16:33:16
00019 suncat0180 pw.x -in pw.inp   Done                     12/30/2018 16:33:16
00020 suncat0180 pw.x -in pw.inp   Done                     12/30/2018 16:33:16
00021 suncat0180 pw.x -in pw.inp   Done                     12/30/2018 16:33:16
00022 suncat0180 pw.x -in pw.inp   Done                     12/30/2018 16:33:16
00023 suncat0180 pw.x -in pw.inp   Done                     12/30/2018 16:33:16
00024 suncat0167 pw.x -in pw.inp   Done                     12/30/2018 16:33:16
00025 suncat0167 pw.x -in pw.inp   Done                     12/30/2018 16:33:16
00026 suncat0167 pw.x -in pw.inp   Done                     12/30/2018 16:33:16
00027 suncat0167 pw.x -in pw.inp   Done                     12/30/2018 16:33:16
00028 suncat0167 pw.x -in pw.inp   Done                     12/30/2018 16:33:16
00029 suncat0167 pw.x -in pw.inp   Done                     12/30/2018 16:33:16
00030 suncat0167 pw.x -in pw.inp   Done                     12/30/2018 16:33:16
00031 suncat0167 pw.x -in pw.inp   Done                     12/30/2018 16:33:16
00032 suncat0166 pw.x -in pw.inp   Done                     12/30/2018 16:33:16
00033 suncat0166 pw.x -in pw.inp   Done                     12/30/2018 16:33:16
00034 suncat0166 pw.x -in pw.inp   Done                     12/30/2018 16:33:16
00035 suncat0166 pw.x -in pw.inp   Done                     12/30/2018 16:33:16
00036 suncat0166 pw.x -in pw.inp   Done                     12/30/2018 16:33:16
00037 suncat0166 pw.x -in pw.inp   Done                     12/30/2018 16:33:16
00038 suncat0166 pw.x -in pw.inp   Done                     12/30/2018 16:33:16
00039 suncat0166 pw.x -in pw.inp   Done                     12/30/2018 16:33:16
00040 suncat0149 pw.x -in pw.inp   Done                     12/30/2018 16:33:16
00041 suncat0149 pw.x -in pw.inp   Done                     12/30/2018 16:33:16
00042 suncat0149 pw.x -in pw.inp   Done                     12/30/2018 16:33:16
00043 suncat0149 pw.x -in pw.inp   Done                     12/30/2018 16:33:16
00044 suncat0149 pw.x -in pw.inp   Done                     12/30/2018 16:33:16
00045 suncat0149 pw.x -in pw.inp   Done                     12/30/2018 16:33:16
00046 suncat0149 pw.x -in pw.inp   Done                     12/30/2018 16:33:16
00047 suncat0149 pw.x -in pw.inp   Done                     12/30/2018 16:33:16
00048 suncat0148 pw.x -in pw.inp   Done                     12/30/2018 16:33:16
00049 suncat0148 pw.x -in pw.inp   Done                     12/30/2018 16:33:16
00050 suncat0148 pw.x -in pw.inp   Done                     12/30/2018 16:33:16
00051 suncat0148 pw.x -in pw.inp   Done                     12/30/2018 16:33:16
00052 suncat0148 pw.x -in pw.inp   Done                     12/30/2018 16:33:16
00053 suncat0148 pw.x -in pw.inp   Done                     12/30/2018 16:33:16
00054 suncat0148 pw.x -in pw.inp   Done                     12/30/2018 16:33:16
00055 suncat0148 pw.x -in pw.inp   Done                     12/30/2018 16:33:16
00056 suncat0142 pw.x -in pw.inp   Done                     12/30/2018 16:33:16
00057 suncat0142 pw.x -in pw.inp   Done                     12/30/2018 16:33:16
00058 suncat0142 pw.x -in pw.inp   Done                     12/30/2018 16:33:16
00059 suncat0142 pw.x -in pw.inp   Done                     12/30/2018 16:33:16
00060 suncat0142 pw.x -in pw.inp   Done                     12/30/2018 16:33:16
00061 suncat0142 pw.x -in pw.inp   Done                     12/30/2018 16:33:16
00062 suncat0142 pw.x -in pw.inp   Done                     12/30/2018 16:33:16
00063 suncat0142 pw.x -in pw.inp   Done                     12/30/2018 16:33:16