     Program PWSCF v.5.1rc2 (svn rev. 11289) starts on 26Dec2018 at  6:46:50

     Current dimensions of program PWSCF are:
     Max number of different atomic species (ntypx) = 10
     Max number of k-points (npk) =  40000
     Max angular momentum in pseudopotentials (lmaxx) =  3
     Presently stress not available with electric field

     IMPORTANT: XC functional enforced from input :
     Exchange-correlation      = BEEF-VDW ( 1  4 27 13 2)
     Any further DFT definition will be discarded
     Please, verify this is what you really want

     Subspace diagonalization in iterative solution of the eigenvalue problem:
     a serial algorithm will be used

     bravais-lattice index     =            0
     lattice parameter (alat)  =       1.8897  a.u.
     unit-cell volume          =    5368.8299 (a.u.)^3
     number of atoms/cell      =           12
     number of atomic types    =            2
     number of electrons       =       156.00
     number of Kohn-Sham states=          108
     kinetic-energy cutoff     =      36.7493  Ry
     charge density cutoff     =     367.4932  Ry
     convergence threshold     =      1.0E-06
     mixing beta               =       0.1000
     number of iterations used =           10  plain     mixing
     Exchange-correlation      = BEEF-VDW ( 1  4 27 13 2)
     nstep                     =           50

     celldm(1)=   1.889726  celldm(2)=   0.000000  celldm(3)=   0.000000
     celldm(4)=   0.000000  celldm(5)=   0.000000  celldm(6)=   0.000000

     crystal axes: (cart. coord. in units of alat)
               a(1) = (   6.067443   0.000000   0.000000 )
               a(2) = (  -3.033722   5.254560   0.000000 )
               a(3) = (   0.000000   0.000000  24.954047 )

     reciprocal axes: (cart. coord. in units 2 pi/alat)
               b(1) = (  0.164814  0.095155  0.000000 )
               b(2) = (  0.000000  0.190311  0.000000 )
               b(3) = (  0.000000  0.000000  0.040074 )

     PseudoPot. # 1 for Hf read from file:
     /afs/slac.stanford.edu/u/if/mamunm/psp/gbrv1.5pbe/Hf.UPF
     MD5 check sum: 8ee9378dfe14276e333edf04c5e4aa26
     Pseudo is Ultrasoft + core correction, Zval = 12.0
     Generated by new atomic code, or converted to UPF format
     Using radial grid of  921 points,  8 beta functions with:
                l(1) =   0
                l(2) =   0
                l(3) =   0
                l(4) =   1
                l(5) =   1
                l(6) =   2
                l(7) =   2
                l(8) =   3
     Q(r) pseudized with  6 coefficients,  rinner =    1.200   1.200   1.200
                                                       1.200   1.200   1.200
                                                       1.200

     PseudoPot. # 2 for Os read from file:
     /afs/slac.stanford.edu/u/if/mamunm/psp/gbrv1.5pbe/Os.UPF
     MD5 check sum: a3fb40a04f0c37c25c34bbc47164c9a8
     Pseudo is Ultrasoft + core correction, Zval = 16.0
     Generated by new atomic code, or converted to UPF format
     Using radial grid of  983 points,  8 beta functions with:
                l(1) =   0
                l(2) =   0
                l(3) =   1
                l(4) =   1
                l(5) =   2
                l(6) =   2
                l(7) =   3
                l(8) =   3
     Q(r) pseudized with  8 coefficients,  rinner =    1.150   1.150   1.150
                                                       1.150   1.150   1.150
                                                       1.150

     vdW kernel table read from file vdW_kernel_table
     MD5 check sum: 095c7af220d748ca6e76c0b4c6cfb241

     atomic species   valence    mass     pseudopotential
        Hf1           12.00   178.49000     Hf( 1.00)
        Os1           16.00   190.23000     Os( 1.00)

     No symmetry found

   Cartesian axes

     site n.     atom                  positions (alat units)
         1           Hf1 tau(   1) = (   0.0000000   0.0000000  10.0000000  )
         2           Hf1 tau(   2) = (  -1.5168608   2.6272800  10.0000000  )
         3           Hf1 tau(   3) = (   1.5168608   2.6272800  10.0000000  )
         4           Os1 tau(   4) = (   3.0337216   0.0000000  10.0000000  )
         5           Hf1 tau(   5) = (   3.0337216   1.7515200  12.4770233  )
         6           Hf1 tau(   6) = (   1.5168608   4.3787999  12.4770233  )
         7           Hf1 tau(   7) = (  -1.5168608   4.3787999  12.4770233  )
         8           Os1 tau(   8) = (   0.0000000   1.7515200  12.4770233  )
         9           Hf1 tau(   9) = (  -0.0000000   3.5030399  14.9540466  )
        10           Hf1 tau(  10) = (   1.5168608   0.8757600  14.9540466  )
        11           Hf1 tau(  11) = (   4.5505824   0.8757600  14.9540466  )
        12           Os1 tau(  12) = (   3.0337216   3.5030399  14.9540466  )

     number of k points=    20  Fermi-Dirac smearing, width (Ry)=  0.0110
                       cart. coord. in units 2pi/alat
        k(    1) = (   0.0000000   0.0000000   0.0000000), wk =   0.0555556
        k(    2) = (   0.0000000   0.0317185   0.0000000), wk =   0.1111111
        k(    3) = (   0.0000000   0.0634370   0.0000000), wk =   0.1111111
        k(    4) = (   0.0000000  -0.0951554   0.0000000), wk =   0.0555556
        k(    5) = (   0.0274690   0.0158592   0.0000000), wk =   0.1111111
        k(    6) = (   0.0274690   0.0475777   0.0000000), wk =   0.1111111
        k(    7) = (   0.0274690   0.0792962   0.0000000), wk =   0.1111111
        k(    8) = (   0.0274690  -0.0792962   0.0000000), wk =   0.1111111
        k(    9) = (   0.0274690  -0.0475777   0.0000000), wk =   0.1111111
        k(   10) = (   0.0274690  -0.0158592   0.0000000), wk =   0.1111111
        k(   11) = (   0.0549380   0.0317185   0.0000000), wk =   0.1111111
        k(   12) = (   0.0549380   0.0634370   0.0000000), wk =   0.1111111
        k(   13) = (   0.0549380   0.0951554   0.0000000), wk =   0.1111111
        k(   14) = (   0.0549380  -0.0634370   0.0000000), wk =   0.1111111
        k(   15) = (   0.0549380  -0.0317185   0.0000000), wk =   0.1111111
        k(   16) = (   0.0549380   0.0000000   0.0000000), wk =   0.1111111
        k(   17) = (  -0.0824070  -0.0475777   0.0000000), wk =   0.0555556
        k(   18) = (  -0.0824070  -0.0158592   0.0000000), wk =   0.1111111
        k(   19) = (  -0.0824070   0.0158592   0.0000000), wk =   0.1111111
        k(   20) = (  -0.0824070  -0.1427332   0.0000000), wk =   0.0555556

     Largest allocated arrays     est. size (Mb)     dimensions
     Largest temporary arrays     est. size (Mb)     dimensions

     Check: negative/imaginary core charge=   -0.000003    0.000000

     Initial potential from superposition of free atoms
     Check: negative starting charge=   -1.342884

     starting charge  136.49987, renormalised to  156.00000

     negative rho (up, down):  1.535E+00 0.000E+00

     *
     * You are using vdW-DF for exchange-correlation in this calculation.
     * Please cite the following three references that made this development
     * possible:
     *
     *   M. Dion, H. Rydberg, E. Schroder, D. C. Langreth, and
     *   B. I. Lundqvist, Phys. Rev. Lett. 92, 246401 (2004).
     *
     *   T. Thonhauser, V. R. Cooper, S. Li, A. Puzder, P. Hyldgaard, and
     *   D. C. Langreth, Phys. Rev. B 76, 125112 (2007).
     *
     *   G. Roman-Perez and J. M. Soler, Phys. Rev. Lett. 103, 096102 (2009).
     *
     *
     * If you are using vdW-DF2, please also cite:
     *
     *   K. Lee, E. D. Murray, L. Kong, B. I. Lundqvist, and
     *   D. C. Langreth, Phys. Rev. B 82, 081101(R) (2010).
     *
     *
     * If you are calculating the stress with vdW-DF, please also cite:
     *
     *   R. Sabatini, E. Kucukbenli, B. Kolb, T. Thonhauser, and
     *   S. de Gironcoli, J. Phys.: Condens. Matter 24, 424209 (2012).
     *

     Carrying out vdW-DF run using the following parameters:

     Nqs =      20    Nr_points =    1024   r_max =   100.000
     q_mesh =
               0.00001000     0.04494208     0.09755937     0.15916263
               0.23128650     0.31572767     0.41458969     0.53033537
               0.66584808     0.82450364     1.01025438     1.22772762
               1.48234092     1.78043706     2.12944203     2.53805004
               3.01644009     3.57652955     4.23227104     5.00000000

     Gradients computed in reciprocal space

     Adding external electric field

     Computed dipole along edir(3) :
        Dipole                0.0000 Ry au,          0.0000 Debye
        Dipole field          0.0000 Ry au

        Potential amp.       -0.0000 Ry
        Total length         45.9774 bohr

     Starting wfc are  156 randomized atomic wfcs

     Self-consistent Calculation

     iteration #  1     ecut=    36.75 Ry     beta=0.10
     Davidson diagonalization with overlap
     ethr =  1.00E-02,  avg # of iterations =  8.0

[...]

     total energy              =   -2027.76487275 Ry
     Harris-Foulkes estimate   =   -2060.70143572 Ry
     estimated scf accuracy    <     186.44902112 Ry

[...]

     End of self-consistent calculation

          k = 0.0000 0.0000 0.0000 ( 20167 PWs)   bands (ev):

   -84.0841 -83.8111 -83.8108 -60.6060 -60.6043 -60.5538 -60.5538 -60.5535
   -60.5534 -60.2682 -60.2177 -60.2177 -43.3381 -43.3381 -43.3118 -43.0795
   -43.0795 -43.0791 -43.0791 -43.0726 -43.0718 -29.5862 -29.5357 -29.4041
   -29.3255 -29.3255 -29.2607 -29.2607 -29.2579 -29.2579 -29.2450 -29.2398
   -29.1457 -29.1457 -28.9015 -28.9015 -28.8938 -28.8696 -28.7432 -28.7432
   -28.7315 -28.7315 -28.7100 -28.6736 -28.6736 -28.5480 -28.4805 -28.4805
    -5.2233  -3.7295  -2.6848  -2.0031  -1.9179  -1.9179  -1.8061  -1.8061
    -1.7009  -1.2194  -1.2194  -1.0923  -0.9759  -0.9759  -0.9025  -0.0307
    -0.0307   0.4209   0.6680   0.6680   0.7697   1.0398   1.7267   1.9080
     1.9929   2.0575   2.0575   2.0798   2.0798   2.4059   2.4254   2.4254
     2.6857   2.6857   2.7457   2.7457   2.8447   3.0821   3.0821   3.5571
     3.5571   3.5983   3.6229   3.6754   3.6754   4.1298   4.1298   4.3134
     5.2632   5.4455   5.4725   5.4725   5.5637   5.7987   5.9878   5.9878
     6.1608   6.1649   6.1649   6.6509

[...]

          k =-0.0824-0.0476 0.0000 ( 20248 PWs)   bands (ev):

[...]

     the Fermi energy is     1.9121 ev

!    total energy              =   -2044.35005522 Ry
     Harris-Foulkes estimate   =   -2044.38399673 Ry
     estimated scf accuracy    <       0.00000066 Ry

     The total energy is the sum of the following terms:

     one-electron contribution =  -11024.33114669 Ry
     hartree contribution      =    5496.70356958 Ry
     xc contribution           =    -812.19549556 Ry
     ewald contribution        =    4295.57828821 Ry
     electric field correction =       0.00000001 Ry
     smearing contrib. (-TS)   =      -0.10527079 Ry

     convergence has been achieved in  21 iterations

 BEEF-vdW xc energy contributions
           1 :   -730.334893716239
           2 :    678.574890498990
           3 :   -586.707403857082
           4 :    473.667543393306
           5 :   -359.393069714357
           6 :    259.250093373140
           7 :   -181.271586722928
[...]
     Using radial grid of  921 points,  8 beta functions with:
                l(1) =   0
                l(2) =   0
                l(3) =   0
                l(4) =   1
                l(5) =   1
                l(6) =   2
                l(7) =   2
                l(8) =   3
     Q(r) pseudized with  6 coefficients,  rinner =    1.200   1.200   1.200
                                                       1.200   1.200   1.200
                                                       1.200

     PseudoPot. # 2 for Os read from file:
     /afs/slac.stanford.edu/u/if/mamunm/psp/gbrv1.5pbe/Os.UPF
     MD5 check sum: a3fb40a04f0c37c25c34bbc47164c9a8
     Pseudo is Ultrasoft + core correction, Zval = 16.0
     Generated by new atomic code, or converted to UPF format
     Using radial grid of  983 points,  8 beta functions with:
                l(1) =   0
                l(2) =   0
                l(3) =   1
                l(4) =   1
                l(5) =   2
                l(6) =   2
                l(7) =   3
                l(8) =   3
     Q(r) pseudized with  8 coefficients,  rinner =    1.150   1.150   1.150
                                                       1.150   1.150   1.150
                                                       1.150

     vdW kernel table read from file vdW_kernel_table
     MD5 check sum: 095c7af220d748ca6e76c0b4c6cfb241

     atomic species   valence    mass     pseudopotential
        Hf1           12.00   178.49000     Hf( 1.00)
        Os1           16.00   190.23000     Os( 1.00)

     No symmetry found

   Cartesian axes

     site n.     atom                  positions (alat units)
         1           Hf1 tau(   1) = (   0.0000000   0.0000000  10.0000000  )
         2           Hf1 tau(   2) = (  -1.5168608   2.6272800  10.0000000  )
         3           Hf1 tau(   3) = (   1.5168608   2.6272800  10.0000000  )
         4           Os1 tau(   4) = (   3.0337216   0.0000000  10.0000000  )
         5           Hf1 tau(   5) = (   3.0337216   1.7515200  12.4770233  )
         6           Hf1 tau(   6) = (   1.5168608   4.3787999  12.4770233  )
         7           Hf1 tau(   7) = (  -1.5168608   4.3787999  12.4770233  )
         8           Os1 tau(   8) = (   0.0000000   1.7515200  12.4770233  )
         9           Hf1 tau(   9) = (   0.0000070   3.4557808  14.9552668  )
        10           Hf1 tau(  10) = (   1.4759475   0.8993969  14.9552724  )
        11           Hf1 tau(  11) = (   4.5915168   0.8993929  14.9552655  )
        12           Os1 tau(  12) = (   3.0337040   3.5030257  14.5775013  )

     number of k points=    20  Fermi-Dirac smearing, width (Ry)=  0.0110
                       cart. coord. in units 2pi/alat
        k(    1) = (   0.0000000   0.0000000   0.0000000), wk =   0.0555556
        k(    2) = (   0.0000000   0.0317185   0.0000000), wk =   0.1111111
        k(    3) = (   0.0000000   0.0634370   0.0000000), wk =   0.1111111
        k(    4) = (   0.0000000  -0.0951554   0.0000000), wk =   0.0555556
        k(    5) = (   0.0274690   0.0158592   0.0000000), wk =   0.1111111
        k(    6) = (   0.0274690   0.0475777   0.0000000), wk =   0.1111111
        k(    7) = (   0.0274690   0.0792962   0.0000000), wk =   0.1111111
        k(    8) = (   0.0274690  -0.0792962   0.0000000), wk =   0.1111111
        k(    9) = (   0.0274690  -0.0475777   0.0000000), wk =   0.1111111
        k(   10) = (   0.0274690  -0.0158592   0.0000000), wk =   0.1111111
        k(   11) = (   0.0549380   0.0317185   0.0000000), wk =   0.1111111
        k(   12) = (   0.0549380   0.0634370   0.0000000), wk =   0.1111111
        k(   13) = (   0.0549380   0.0951554   0.0000000), wk =   0.1111111
        k(   14) = (   0.0549380  -0.0634370   0.0000000), wk =   0.1111111
        k(   15) = (   0.0549380  -0.0317185   0.0000000), wk =   0.1111111
        k(   16) = (   0.0549380   0.0000000   0.0000000), wk =   0.1111111
        k(   17) = (  -0.0824070  -0.0475777   0.0000000), wk =   0.0555556
        k(   18) = (  -0.0824070  -0.0158592   0.0000000), wk =   0.1111111
        k(   19) = (  -0.0824070   0.0158592   0.0000000), wk =   0.1111111
        k(   20) = (  -0.0824070  -0.1427332   0.0000000), wk =   0.0555556

     Largest allocated arrays     est. size (Mb)     dimensions
     Largest temporary arrays     est. size (Mb)     dimensions

     Check: negative/imaginary core charge=   -0.000003    0.000000

     Initial potential from superposition of free atoms
     Check: negative starting charge=   -1.345086

     starting charge  136.49987, renormalised to  156.00000

[...]

     *
     * You are using vdW-DF for exchange-correlation in this calculation.
     * Please cite the following three references that made this development
     * possible:
     *
     *   M. Dion, H. Rydberg, E. Schroder, D. C. Langreth, and
     *   B. I. Lundqvist, Phys. Rev. Lett. 92, 246401 (2004).
     *
     *   T. Thonhauser, V. R. Cooper, S. Li, A. Puzder, P. Hyldgaard, and
     *   D. C. Langreth, Phys. Rev. B 76, 125112 (2007).
     *
     *   G. Roman-Perez and J. M. Soler, Phys. Rev. Lett. 103, 096102 (2009).
     *
     *
     * If you are using vdW-DF2, please also cite:
     *
     *   K. Lee, E. D. Murray, L. Kong, B. I. Lundqvist, and
     *   D. C. Langreth, Phys. Rev. B 82, 081101(R) (2010).
     *
     *
     * If you are calculating the stress with vdW-DF, please also cite:
     *
     *   R. Sabatini, E. Kucukbenli, B. Kolb, T. Thonhauser, and
     *   S. de Gironcoli, J. Phys.: Condens. Matter 24, 424209 (2012).
     *

     Carrying out vdW-DF run using the following parameters:

     Nqs =      20    Nr_points =    1024   r_max =   100.000
     q_mesh =
               0.00001000     0.04494208     0.09755937     0.15916263
               0.23128650     0.31572767     0.41458969     0.53033537
               0.66584808     0.82450364     1.01025438     1.22772762
               1.48234092     1.78043706     2.12944203     2.53805004
               3.01644009     3.57652955     4.23227104     5.00000000

     Gradients computed in reciprocal space

[...]

     Starting wfc are  156 randomized atomic wfcs

     Self-consistent Calculation

[...]

     total energy              =   -2044.41247746 Ry
     Harris-Foulkes estimate   =   -2044.41247669 Ry
     estimated scf accuracy    <       0.00000255 Ry

     iteration # 25     ecut=    36.75 Ry     beta=0.10
     Davidson diagonalization with overlap
     ethr =  1.63E-09,  avg # of iterations =  2.1

[...]

     negative rho (up, down):  1.397E+00 0.000E+00

     Adding external electric field

     Computed dipole along edir(3) :
        Dipole                0.0646 Ry au,          0.1642 Debye
        Dipole field          0.0002 Ry au

        Potential amp.       -0.0139 Ry
        Total length         45.9774 bohr

     End of self-consistent calculation

[...]

          k = 0.0549 0.0000 0.0000 ( 20205 PWs)   bands (ev):

[...]

          k =-0.0824-0.1427 0.0000 ( 20248 PWs)   bands (ev):

   -84.0064 -83.8108 -83.7093 -60.5592 -60.5349 -60.5199 -60.4976 -60.4805
   -60.4633 -60.1036 -60.0865 -60.0693 -43.2622 -43.2614 -43.2421 -43.1256
   -43.0956 -43.0949 -42.9782 -42.9756 -42.9749 -29.3632 -29.3073 -29.2781
   -29.2350 -29.1876 -29.1696 -29.1392 -29.1158 -29.1126 -29.1013 -29.0422
   -29.0234 -29.0045 -28.9861 -28.9742 -28.9631 -28.9427 -28.7228 -28.7156
   -28.6904 -28.6361 -28.6074 -28.5731 -28.5669 -28.5625 -28.5339 -28.3715
    -3.5075  -3.4100  -2.1478  -2.0127  -1.4067  -1.1765  -1.1685  -1.1274
    -1.0483  -0.7419  -0.4654  -0.3840  -0.3128  -0.1777  -0.0548   0.0677
     0.2426   0.3105   0.3956   0.4020   0.5470   0.6900   0.8028   0.9747
     1.1171   1.2915   1.5133   1.5803   1.7103   1.7654   1.8738   1.9083
     1.9757   2.0585   2.2574   2.3912   2.6966   2.7050   3.0676   3.1133
     3.1374   3.5781   3.6415   3.8247   3.9904   4.0217   4.0512   4.1928
     4.4778   4.7535   4.9987   5.0028   5.0823   5.1753   5.5807   5.6064
     5.7396   5.7643   5.9411   6.0108

     the Fermi energy is     1.9967 ev

!    total energy              =   -2044.41247876 Ry
     Harris-Foulkes estimate   =   -2044.41247791 Ry
     estimated scf accuracy    <       0.00000032 Ry

     The total energy is the sum of the following terms:

     one-electron contribution =  -11200.09546603 Ry
     hartree contribution      =    5584.98212586 Ry
     xc contribution           =    -812.41011286 Ry
     ewald contribution        =    4383.21125896 Ry
     electric field correction =       0.00000977 Ry
     smearing contrib. (-TS)   =      -0.10029446 Ry

     convergence has been achieved in  25 iterations

 BEEF-vdW xc energy contributions
           1 :   -731.562481388030
           2 :    679.865686362923
           3 :   -588.075069777735
           4 :    475.058433592480
           5 :   -360.707953073093
           6 :    260.395123774335
           7 :   -182.211337647125
           8 :    127.294366519511
           9 :   -92.2051779000781
          10 :    71.6818837619544
          11 :   -60.5849992799676
          12 :    54.6634417391958
          13 :   -50.5506259641822
          14 :    45.6022875486224
          15 :   -38.0043247496753
          16 :    27.1188432213656
          17 :   -13.7558418827737
          18 :  -1.561252147098457E-003
          19 :    11.5070448309061
          20 :   -18.5535507313117
          21 :    20.1989998483245
          22 :   -17.0425225437323
          23 :    10.8658771991190
          24 :   -3.90132513373169
          25 :   -1.88524505140026
          26 :    5.20411249322160
          27 :   -5.51153934808167
          28 :    2.89414371889984
          29 :    2.04267899034130
          30 :   -8.22859505564566
          31 :   -54.7827020126201
          32 :   -39.8103909457709

     Forces acting on atoms (Ry/au):

     negative rho (up, down):  1.397E+00 0.000E+00
     atom    1 type  1   force =    -0.00000039    0.02889259   -0.00596036
     atom    2 type  1   force =     0.02502191   -0.01444678   -0.00596080
     atom    3 type  1   force =    -0.02502223   -0.01444643   -0.00596106
     atom    4 type  2   force =    -0.00000065    0.00000001    0.05144141
     atom    5 type  1   force =     0.00000009   -0.00624175   -0.00706345
     atom    6 type  1   force =    -0.00540451    0.00312135   -0.00706386
     atom    7 type  1   force =     0.00540284    0.00312101   -0.00706097
     atom    8 type  2   force =    -0.00000004    0.00000069   -0.00742118
     atom    9 type  1   force =    -0.00000026   -0.00146985   -0.00106863
     atom   10 type  1   force =    -0.00127449    0.00073509   -0.00106801
     atom   11 type  1   force =     0.00127496    0.00073463   -0.00106878
     atom   12 type  2   force =     0.00000276   -0.00000056   -0.00174432

     Total force =     0.074778     Total SCF correction =     0.002661

     entering subroutine stress ...

     negative rho (up, down):  1.397E+00 0.000E+00
          total   stress  (Ry/bohr**3)                   (kbar)     P=  -16.80
  -0.00014114   0.00000000   0.00000000        -20.76      0.00      0.00
   0.00000000  -0.00014114   0.00000000          0.00    -20.76      0.00
   0.00000000   0.00000000  -0.00006036          0.00      0.00     -8.88

 !ASE

     Writing output data file calc.save

     General routines

     Parallel routines

   This run was terminated on:   9:30:57  26Dec2018

   JOB DONE.
Job  /afs/slac/g/suncat/bin/suncat-tsmpirun -x LD_LIBRARY_PATH -wdir /scratch/qe109752_OYyEv pw.x -in pw.inp

TID   HOST_NAME   COMMAND_LINE            STATUS            TERMINATION_TIME
00000 suncat0108 pw.x -in pw.inp   Done                     12/26/2018 09:30:57
00001 suncat0108 pw.x -in pw.inp   Done                     12/26/2018 09:30:57
00002 suncat0108 pw.x -in pw.inp   Done                     12/26/2018 09:30:57
00003 suncat0108 pw.x -in pw.inp   Done                     12/26/2018 09:30:57
00004 suncat0108 pw.x -in pw.inp   Done                     12/26/2018 09:30:57
00005 suncat0108 pw.x -in pw.inp   Done                     12/26/2018 09:30:57
00006 suncat0108 pw.x -in pw.inp   Done                     12/26/2018 09:30:57
00007 suncat0108 pw.x -in pw.inp   Done                     12/26/2018 09:30:57
00008 suncat0107 pw.x -in pw.inp   Done                     12/26/2018 09:30:57
00009 suncat0107 pw.x -in pw.inp   Done                     12/26/2018 09:30:57
00010 suncat0107 pw.x -in pw.inp   Done                     12/26/2018 09:30:57
00011 suncat0107 pw.x -in pw.inp   Done                     12/26/2018 09:30:57
00012 suncat0107 pw.x -in pw.inp   Done                     12/26/2018 09:30:57
00013 suncat0107 pw.x -in pw.inp   Done                     12/26/2018 09:30:57
00014 suncat0107 pw.x -in pw.inp   Done                     12/26/2018 09:30:57
00015 suncat0107 pw.x -in pw.inp   Done                     12/26/2018 09:30:57
00016 suncat0106 pw.x -in pw.inp   Done                     12/26/2018 09:30:57
00017 suncat0106 pw.x -in pw.inp   Done                     12/26/2018 09:30:57
00018 suncat0106 pw.x -in pw.inp   Done                     12/26/2018 09:30:57
00019 suncat0106 pw.x -in pw.inp   Done                     12/26/2018 09:30:57
00020 suncat0106 pw.x -in pw.inp   Done                     12/26/2018 09:30:57
00021 suncat0106 pw.x -in pw.inp   Done                     12/26/2018 09:30:57
00022 suncat0106 pw.x -in pw.inp   Done                     12/26/2018 09:30:57
00023 suncat0106 pw.x -in pw.inp   Done                     12/26/2018 09:30:57
00024 suncat0105 pw.x -in pw.inp   Done                     12/26/2018 09:30:57
00025 suncat0105 pw.x -in pw.inp   Done                     12/26/2018 09:30:57
00026 suncat0105 pw.x -in pw.inp   Done                     12/26/2018 09:30:57
00027 suncat0105 pw.x -in pw.inp   Done                     12/26/2018 09:30:57
00028 suncat0105 pw.x -in pw.inp   Done                     12/26/2018 09:30:57
00029 suncat0105 pw.x -in pw.inp   Done                     12/26/2018 09:30:57
00030 suncat0105 pw.x -in pw.inp   Done                     12/26/2018 09:30:57
00031 suncat0105 pw.x -in pw.inp   Done                     12/26/2018 09:30:57
00032 suncat0238 pw.x -in pw.inp   Done                     12/26/2018 09:30:57
00033 suncat0238 pw.x -in pw.inp   Done                     12/26/2018 09:30:57
00034 suncat0238 pw.x -in pw.inp   Done                     12/26/2018 09:30:57
00035 suncat0238 pw.x -in pw.inp   Done                     12/26/2018 09:30:57
00036 suncat0238 pw.x -in pw.inp   Done                     12/26/2018 09:30:57
00037 suncat0238 pw.x -in pw.inp   Done                     12/26/2018 09:30:57
00038 suncat0238 pw.x -in pw.inp   Done                     12/26/2018 09:30:57
00039 suncat0238 pw.x -in pw.inp   Done                     12/26/2018 09:30:57
00040 suncat0237 pw.x -in pw.inp   Done                     12/26/2018 09:30:57
00041 suncat0237 pw.x -in pw.inp   Done                     12/26/2018 09:30:57
00042 suncat0237 pw.x -in pw.inp   Done                     12/26/2018 09:30:57
00043 suncat0237 pw.x -in pw.inp   Done                     12/26/2018 09:30:57
00044 suncat0237 pw.x -in pw.inp   Done                     12/26/2018 09:30:57
00045 suncat0237 pw.x -in pw.inp   Done                     12/26/2018 09:30:57
00046 suncat0237 pw.x -in pw.inp   Done                     12/26/2018 09:30:57
00047 suncat0237 pw.x -in pw.inp   Done                     12/26/2018 09:30:57
00048 suncat0236 pw.x -in pw.inp   Done                     12/26/2018 09:30:57
00049 suncat0236 pw.x -in pw.inp   Done                     12/26/2018 09:30:57
00050 suncat0236 pw.x -in pw.inp   Done                     12/26/2018 09:30:57
00051 suncat0236 pw.x -in pw.inp   Done                     12/26/2018 09:30:57
00052 suncat0236 pw.x -in pw.inp   Done                     12/26/2018 09:30:57
00053 suncat0236 pw.x -in pw.inp   Done                     12/26/2018 09:30:57
00054 suncat0236 pw.x -in pw.inp   Done                     12/26/2018 09:30:57
00055 suncat0236 pw.x -in pw.inp   Done                     12/26/2018 09:30:57
00056 suncat0235 pw.x -in pw.inp   Done                     12/26/2018 09:30:57
00057 suncat0235 pw.x -in pw.inp   Done                     12/26/2018 09:30:57
00058 suncat0235 pw.x -in pw.inp   Done                     12/26/2018 09:30:57
00059 suncat0235 pw.x -in pw.inp   Done                     12/26/2018 09:30:57
00060 suncat0235 pw.x -in pw.inp   Done                     12/26/2018 09:30:57
00061 suncat0235 pw.x -in pw.inp   Done                     12/26/2018 09:30:57
00062 suncat0235 pw.x -in pw.inp   Done                     12/26/2018 09:30:57
00063 suncat0235 pw.x -in pw.inp   Done                     12/26/2018 09:30:57