     Program PWSCF v.5.1rc2 (svn rev. 11289) starts on 31Dec2018 at  7:58:12

     Current dimensions of program PWSCF are:
     Max number of different atomic species (ntypx) = 10
     Max number of k-points (npk) =  40000
     Max angular momentum in pseudopotentials (lmaxx) =  3
     Presently stress not available with electric field

     IMPORTANT: XC functional enforced from input :
     Exchange-correlation      = BEEF-VDW ( 1  4 27 13 2)
     Any further DFT definition will be discarded
     Please, verify this is what you really want

     Subspace diagonalization in iterative solution of the eigenvalue problem:
     a serial algorithm will be used

     bravais-lattice index     =            0
     lattice parameter (alat)  =       1.8897  a.u.
     unit-cell volume          =    7155.3794 (a.u.)^3
     number of atoms/cell      =           12
     number of atomic types    =            2
     number of electrons       =       183.00
     number of Kohn-Sham states=          121
     kinetic-energy cutoff     =      36.7493  Ry
     charge density cutoff     =     367.4932  Ry
     convergence threshold     =      1.0E-06
     mixing beta               =       0.1000
     number of iterations used =           10  plain     mixing
     Exchange-correlation      = BEEF-VDW ( 1  4 27 13 2)
     nstep                     =           50

     celldm(1)=   1.889726  celldm(2)=   0.000000  celldm(3)=   0.000000
     celldm(4)=   0.000000  celldm(5)=   0.000000  celldm(6)=   0.000000

     crystal axes: (cart. coord. in units of alat)
               a(1) = (   6.909983   0.000000   0.000000 )
               a(2) = (  -3.454991   5.984221   0.000000 )
               a(3) = (   0.000000   0.000000  25.641977 )

     reciprocal axes: (cart. coord. in units 2 pi/alat)
               b(1) = (  0.144718  0.083553  0.000000 )
               b(2) = (  0.000000  0.167106  0.000000 )
               b(3) = (  0.000000  0.000000  0.038999 )

     PseudoPot. # 1 for Pb read from file:
     /afs/slac.stanford.edu/u/if/mamunm/psp/gbrv1.5pbe/Pb.UPF
     MD5 check sum: 3d1c1779aa92214d1e8f3a7db79003e2
     Pseudo is Ultrasoft + core correction, Zval = 14.0
     Generated by new atomic code, or converted to UPF format
     Using radial grid of  899 points,  6 beta functions with:
                l(1) =   0
                l(2) =   0
                l(3) =   1
                l(4) =   1
                l(5) =   2
                l(6) =   2
     Q(r) pseudized with  6 coefficients,  rinner =    1.000   1.000   1.000
                                                       1.000   1.000

     PseudoPot. # 2 for Ag read from file:
     /afs/slac.stanford.edu/u/if/mamunm/psp/gbrv1.5pbe/Ag.UPF
     MD5 check sum: d66d668201baa78d5eb5b04ef7011058
     Pseudo is Ultrasoft + core correction, Zval = 19.0
     Generated by new atomic code, or converted to UPF format
     Using radial grid of  887 points,  6 beta functions with:
                l(1) =   0
                l(2) =   0
                l(3) =   1
                l(4) =   1
                l(5) =   2
                l(6) =   2
     Q(r) pseudized with  6 coefficients,  rinner =    1.300   1.300   1.300
                                                       1.300   1.300

     vdW kernel table read from file vdW_kernel_table
     MD5 check sum: 095c7af220d748ca6e76c0b4c6cfb241

     atomic species   valence    mass     pseudopotential
        Pb1           14.00   207.20000     Pb( 1.00)
        Ag1           19.00   107.86820     Ag( 1.00)

     No symmetry found

   Cartesian axes

     site n.     atom                  positions (alat units)
         1           Pb1 tau(   1) = (   0.0000000   0.0000000  10.0000000  )
         2           Pb1 tau(   2) = (  -1.7274957   2.9921103  10.0000000  )
         3           Pb1 tau(   3) = (   1.7274957   2.9921103  10.0000000  )
         4           Ag1 tau(   4) = (   3.4549914   0.0000000  10.0000000  )
         5           Pb1 tau(   5) = (   3.4549914   1.9947402  12.8209886  )
         6           Pb1 tau(   6) = (   1.7274957   4.9868505  12.8209886  )
         7           Pb1 tau(   7) = (  -1.7274957   4.9868505  12.8209886  )
         8           Ag1 tau(   8) = (   0.0000000   1.9947402  12.8209886  )
         9           Pb1 tau(   9) = (  -0.0000000   3.9894804  15.6419773  )
        10           Pb1 tau(  10) = (   1.7274957   0.9973701  15.6419773  )
        11           Pb1 tau(  11) = (   5.1824870   0.9973701  15.6419773  )
        12           Ag1 tau(  12) = (   3.4549914   3.9894804  15.6419773  )

     number of k points=    20  Fermi-Dirac smearing, width (Ry)=  0.0110
                       cart. coord. in units 2pi/alat
        k(    1) = (   0.0000000   0.0000000   0.0000000), wk =   0.0555556
        k(    2) = (   0.0000000   0.0278510   0.0000000), wk =   0.1111111
        k(    3) = (   0.0000000   0.0557020   0.0000000), wk =   0.1111111
        k(    4) = (   0.0000000  -0.0835531   0.0000000), wk =   0.0555556
        k(    5) = (   0.0241197   0.0139255   0.0000000), wk =   0.1111111
        k(    6) = (   0.0241197   0.0417765   0.0000000), wk =   0.1111111
        k(    7) = (   0.0241197   0.0696276   0.0000000), wk =   0.1111111
        k(    8) = (   0.0241197  -0.0696276   0.0000000), wk =   0.1111111
        k(    9) = (   0.0241197  -0.0417765   0.0000000), wk =   0.1111111
        k(   10) = (   0.0241197  -0.0139255   0.0000000), wk =   0.1111111
        k(   11) = (   0.0482394   0.0278510   0.0000000), wk =   0.1111111
        k(   12) = (   0.0482394   0.0557020   0.0000000), wk =   0.1111111
        k(   13) = (   0.0482394   0.0835531   0.0000000), wk =   0.1111111
        k(   14) = (   0.0482394  -0.0557020   0.0000000), wk =   0.1111111
        k(   15) = (   0.0482394  -0.0278510   0.0000000), wk =   0.1111111
        k(   16) = (   0.0482394   0.0000000   0.0000000), wk =   0.1111111
        k(   17) = (  -0.0723591  -0.0417765   0.0000000), wk =   0.0555556
        k(   18) = (  -0.0723591  -0.0139255   0.0000000), wk =   0.1111111
        k(   19) = (  -0.0723591   0.0139255   0.0000000), wk =   0.1111111
        k(   20) = (  -0.0723591  -0.1253296   0.0000000), wk =   0.0555556

     Largest allocated arrays     est. size (Mb)     dimensions
     Largest temporary arrays     est. size (Mb)     dimensions

     Check: negative/imaginary core charge=   -0.000001    0.000000

     Initial potential from superposition of free atoms
     Check: negative starting charge=   -0.150342

     starting charge  181.47869, renormalised to  183.00000

     negative rho (up, down):  1.516E-01 0.000E+00

     *
     * You are using vdW-DF for exchange-correlation in this calculation.
     * Please cite the following three references that made this development
     * possible:
     *
     *   M. Dion, H. Rydberg, E. Schroder, D. C. Langreth, and
     *   B. I. Lundqvist, Phys. Rev. Lett. 92, 246401 (2004).
     *
     *   T. Thonhauser, V. R. Cooper, S. Li, A. Puzder, P. Hyldgaard, and
     *   D. C. Langreth, Phys. Rev. B 76, 125112 (2007).
     *
     *   G. Roman-Perez and J. M. Soler, Phys. Rev. Lett. 103, 096102 (2009).
     *
     *
     * If you are using vdW-DF2, please also cite:
     *
     *   K. Lee, E. D. Murray, L. Kong, B. I. Lundqvist, and
     *   D. C. Langreth, Phys. Rev. B 82, 081101(R) (2010).
     *
     *
     * If you are calculating the stress with vdW-DF, please also cite:
     *
     *   R. Sabatini, E. Kucukbenli, B. Kolb, T. Thonhauser, and
     *   S. de Gironcoli, J. Phys.: Condens. Matter 24, 424209 (2012).
     *

     Carrying out vdW-DF run using the following parameters:

     Nqs =      20    Nr_points =    1024   r_max =   100.000
     q_mesh =
               0.00001000     0.04494208     0.09755937     0.15916263
               0.23128650     0.31572767     0.41458969     0.53033537
               0.66584808     0.82450364     1.01025438     1.22772762
               1.48234092     1.78043706     2.12944203     2.53805004
               3.01644009     3.57652955     4.23227104     5.00000000

     Gradients computed in reciprocal space

     Adding external electric field

     Computed dipole along edir(3) :
        Dipole               -0.0000 Ry au,         -0.0000 Debye
        Dipole field         -0.0000 Ry au

        Potential amp.        0.0000 Ry
        Total length         47.2449 bohr

     Starting wfc are  120 randomized atomic wfcs +    1 random wfc

     Self-consistent Calculation

     iteration #  1     ecut=    36.75 Ry     beta=0.10
     Davidson diagonalization with overlap
     ethr =  1.00E-02,  avg # of iterations =  7.2

     Threshold (ethr) on eigenvalues was too large:
     Diagonalizing with lowered threshold

     Davidson diagonalization with overlap
     ethr =  2.70E-04,  avg # of iterations =  7.2

[...]

     total energy              =   -2384.12437202 Ry
     Harris-Foulkes estimate   =   -2384.19641701 Ry
     estimated scf accuracy    <       0.49202781 Ry

[...]

     End of self-consistent calculation

          k = 0.0000 0.0000 0.0000 ( 27033 PWs)   bands (ev):

   -91.0989 -90.9487 -90.9487 -54.5966 -54.5894 -54.5894 -54.4565 -54.4565
   -54.4565 -54.4565 -54.4365 -54.4364 -16.5991 -16.5892 -16.5709 -16.5709
   -16.5503 -16.5503 -16.5376 -16.4962 -16.4866 -16.4866 -16.4764 -16.4619
   -16.4566 -16.4566 -16.4543 -16.4512 -16.4512 -16.4415 -16.4084 -16.4083
   -16.3888 -16.3829 -16.3829 -16.3787 -16.3787 -16.3712 -16.3712 -16.3363
   -16.3363 -16.3305 -16.3107 -16.3107 -16.3011 -16.2600 -16.2600 -16.2395
   -16.2345 -16.2345 -16.2336 -16.2150 -16.2150 -16.2000 -16.1601 -16.1601
   -16.1157  -9.7831  -8.8780  -7.7038  -7.0073  -7.0073  -6.5455  -6.5455
    -5.9462  -5.9462  -3.4180  -3.3561  -3.3561  -3.3379  -3.2745  -3.2745
    -3.2326  -3.2326  -3.1056  -3.1026  -3.1026  -3.0983  -3.0983  -3.0622
    -3.0622  -2.6273  -2.0780  -1.7849  -1.5362  -1.5362  -1.4629  -0.7805
    -0.7805  -0.3949  -0.3949  -0.3818   0.9209   1.0043   1.9327   2.4932
     2.4932   2.6793   2.6793   3.5239   3.9668   4.0858   4.1250   4.6589
     4.7225   4.7225   5.1099   5.1855   5.1855   5.2023   5.2828   5.9994
     5.9994   6.1920   6.5370   6.7127   6.8513   6.8513   6.9493   6.9493
     6.9620

[...]

          k =-0.0724-0.0418 0.0000 ( 26894 PWs)   bands (ev):

[...]

     the Fermi energy is     0.9204 ev

!    total energy              =   -2384.07438870 Ry
     Harris-Foulkes estimate   =   -2384.07422585 Ry
     estimated scf accuracy    <       0.00000062 Ry

     The total energy is the sum of the following terms:

     one-electron contribution =  -11611.64470153 Ry
     hartree contribution      =    5854.02533186 Ry
     xc contribution           =    -677.76135527 Ry
     ewald contribution        =    4051.33757528 Ry
     electric field correction =       0.00000000 Ry
     smearing contrib. (-TS)   =      -0.03123904 Ry

     convergence has been achieved in  13 iterations

 BEEF-vdW xc energy contributions
           1 :   -601.949421416096
           2 :    557.059299931458
           3 :   -478.896581367331
           4 :    385.884158726138
           5 :   -296.354218050048
[...]
                l(4) =   1
                l(5) =   2
                l(6) =   2
     Q(r) pseudized with  6 coefficients,  rinner =    1.000   1.000   1.000
                                                       1.000   1.000

     PseudoPot. # 2 for Ag read from file:
     /afs/slac.stanford.edu/u/if/mamunm/psp/gbrv1.5pbe/Ag.UPF
     MD5 check sum: d66d668201baa78d5eb5b04ef7011058
     Pseudo is Ultrasoft + core correction, Zval = 19.0
     Generated by new atomic code, or converted to UPF format
     Using radial grid of  887 points,  6 beta functions with:
                l(1) =   0
                l(2) =   0
                l(3) =   1
                l(4) =   1
                l(5) =   2
                l(6) =   2
     Q(r) pseudized with  6 coefficients,  rinner =    1.300   1.300   1.300
                                                       1.300   1.300

     vdW kernel table read from file vdW_kernel_table
     MD5 check sum: 095c7af220d748ca6e76c0b4c6cfb241

     atomic species   valence    mass     pseudopotential
        Pb1           14.00   207.20000     Pb( 1.00)
        Ag1           19.00   107.86820     Ag( 1.00)

     No symmetry found

   Cartesian axes

     site n.     atom                  positions (alat units)
         1           Pb1 tau(   1) = (   0.0000000   0.0000000  10.0000000  )
         2           Pb1 tau(   2) = (  -1.7274957   2.9921103  10.0000000  )
         3           Pb1 tau(   3) = (   1.7274957   2.9921103  10.0000000  )
         4           Ag1 tau(   4) = (   3.4549914   0.0000000  10.0000000  )
         5           Pb1 tau(   5) = (   3.4549914   1.9947402  12.8209886  )
         6           Pb1 tau(   6) = (   1.7274957   4.9868505  12.8209886  )
         7           Pb1 tau(   7) = (  -1.7274957   4.9868505  12.8209886  )
         8           Ag1 tau(   8) = (   0.0000000   1.9947402  12.8209886  )
         9           Pb1 tau(   9) = (  -0.0000050   3.9440233  15.5936754  )
        10           Pb1 tau(  10) = (   1.6881171   1.0201032  15.5936848  )
        11           Pb1 tau(  11) = (   5.2218507   1.0201045  15.5936875  )
        12           Ag1 tau(  12) = (   3.4549943   3.9894773  15.3008758  )

     number of k points=    20  Fermi-Dirac smearing, width (Ry)=  0.0110
                       cart. coord. in units 2pi/alat
        k(    1) = (   0.0000000   0.0000000   0.0000000), wk =   0.0555556
        k(    2) = (   0.0000000   0.0278510   0.0000000), wk =   0.1111111
        k(    3) = (   0.0000000   0.0557020   0.0000000), wk =   0.1111111
        k(    4) = (   0.0000000  -0.0835531   0.0000000), wk =   0.0555556
        k(    5) = (   0.0241197   0.0139255   0.0000000), wk =   0.1111111
        k(    6) = (   0.0241197   0.0417765   0.0000000), wk =   0.1111111
        k(    7) = (   0.0241197   0.0696276   0.0000000), wk =   0.1111111
        k(    8) = (   0.0241197  -0.0696276   0.0000000), wk =   0.1111111
        k(    9) = (   0.0241197  -0.0417765   0.0000000), wk =   0.1111111
        k(   10) = (   0.0241197  -0.0139255   0.0000000), wk =   0.1111111
        k(   11) = (   0.0482394   0.0278510   0.0000000), wk =   0.1111111
        k(   12) = (   0.0482394   0.0557020   0.0000000), wk =   0.1111111
        k(   13) = (   0.0482394   0.0835531   0.0000000), wk =   0.1111111
        k(   14) = (   0.0482394  -0.0557020   0.0000000), wk =   0.1111111
        k(   15) = (   0.0482394  -0.0278510   0.0000000), wk =   0.1111111
        k(   16) = (   0.0482394   0.0000000   0.0000000), wk =   0.1111111
        k(   17) = (  -0.0723591  -0.0417765   0.0000000), wk =   0.0555556
        k(   18) = (  -0.0723591  -0.0139255   0.0000000), wk =   0.1111111
        k(   19) = (  -0.0723591   0.0139255   0.0000000), wk =   0.1111111
        k(   20) = (  -0.0723591  -0.1253296   0.0000000), wk =   0.0555556

     Largest allocated arrays     est. size (Mb)     dimensions
     Largest temporary arrays     est. size (Mb)     dimensions

     Check: negative/imaginary core charge=   -0.000001    0.000000

     Initial potential from superposition of free atoms
     Check: negative starting charge=   -0.151891

     starting charge  181.47869, renormalised to  183.00000

[...]

     *
     * You are using vdW-DF for exchange-correlation in this calculation.
     * Please cite the following three references that made this development
     * possible:
     *
     *   M. Dion, H. Rydberg, E. Schroder, D. C. Langreth, and
     *   B. I. Lundqvist, Phys. Rev. Lett. 92, 246401 (2004).
     *
     *   T. Thonhauser, V. R. Cooper, S. Li, A. Puzder, P. Hyldgaard, and
     *   D. C. Langreth, Phys. Rev. B 76, 125112 (2007).
     *
     *   G. Roman-Perez and J. M. Soler, Phys. Rev. Lett. 103, 096102 (2009).
     *
     *
     * If you are using vdW-DF2, please also cite:
     *
     *   K. Lee, E. D. Murray, L. Kong, B. I. Lundqvist, and
     *   D. C. Langreth, Phys. Rev. B 82, 081101(R) (2010).
     *
     *
     * If you are calculating the stress with vdW-DF, please also cite:
     *
     *   R. Sabatini, E. Kucukbenli, B. Kolb, T. Thonhauser, and
     *   S. de Gironcoli, J. Phys.: Condens. Matter 24, 424209 (2012).
     *

     Carrying out vdW-DF run using the following parameters:

     Nqs =      20    Nr_points =    1024   r_max =   100.000
     q_mesh =
               0.00001000     0.04494208     0.09755937     0.15916263
               0.23128650     0.31572767     0.41458969     0.53033537
               0.66584808     0.82450364     1.01025438     1.22772762
               1.48234092     1.78043706     2.12944203     2.53805004
               3.01644009     3.57652955     4.23227104     5.00000000

     Gradients computed in reciprocal space

[...]

     Starting wfc are  120 randomized atomic wfcs +    1 random wfc

     Self-consistent Calculation

[...]

     Threshold (ethr) on eigenvalues was too large:
     Diagonalizing with lowered threshold

     Davidson diagonalization with overlap
     ethr =  3.57E-04,  avg # of iterations =  5.5

[...]

     total energy              =   -2384.07921483 Ry
     Harris-Foulkes estimate   =   -2384.07913074 Ry
     estimated scf accuracy    <       0.00000370 Ry

     iteration # 13     ecut=    36.75 Ry     beta=0.10
     Davidson diagonalization with overlap
     ethr =  2.02E-09,  avg # of iterations =  4.5

[...]

     negative rho (up, down):  1.618E-01 0.000E+00

     Adding external electric field

     Computed dipole along edir(3) :
        Dipole                0.0144 Ry au,          0.0367 Debye
        Dipole field          0.0000 Ry au

        Potential amp.       -0.0024 Ry
        Total length         47.2449 bohr

     End of self-consistent calculation

[...]

          k = 0.0482 0.0000 0.0000 ( 26925 PWs)   bands (ev):

[...]

          k =-0.0724-0.1253 0.0000 ( 26894 PWs)   bands (ev):

   -91.1271 -91.1047 -90.9319 -54.6316 -54.6242 -54.6242 -54.6060 -54.5931
   -54.5931 -54.4398 -54.4398 -54.4206 -16.5587 -16.5459 -16.4990 -16.4897
   -16.4677 -16.4664 -16.4611 -16.4580 -16.4516 -16.4497 -16.4460 -16.4269
   -16.4234 -16.4221 -16.4193 -16.4191 -16.4110 -16.4109 -16.4098 -16.4042
   -16.4040 -16.4007 -16.3877 -16.3873 -16.3740 -16.3721 -16.3625 -16.3464
   -16.3353 -16.3223 -16.2949 -16.2929 -16.2859 -16.2812 -16.2778 -16.2723
   -16.2547 -16.2515 -16.2395 -16.2383 -16.2381 -16.2158 -16.2032 -16.1906
   -16.1352  -9.0211  -8.7935  -8.0855  -7.7147  -7.2688  -7.1286  -6.7984
    -6.5633  -5.7684  -3.6406  -3.5701  -3.5374  -3.4868  -3.4717  -3.4143
    -3.4088  -3.3835  -3.3550  -3.3052  -3.2819  -3.2614  -3.1622  -3.1295
    -3.0769  -2.3383  -1.8791  -1.2170  -0.2714  -0.1544  -0.0480   0.1924
     0.2533   0.2940   0.9294   0.9564   1.1918   1.4582   1.9199   1.9853
     2.1058   2.3804   2.6540   2.6551   3.1491   3.4554   3.8562   3.8571
     4.2040   4.2669   4.4910   4.9063   4.9431   5.2451   5.3520   5.4522
     5.4731   5.4790   5.6397   5.7396   5.8783   6.0007   6.0899   6.3924
     6.4065

     the Fermi energy is     0.9368 ev

!    total energy              =   -2384.07937833 Ry
     Harris-Foulkes estimate   =   -2384.07921615 Ry
     estimated scf accuracy    <       0.00000097 Ry

     The total energy is the sum of the following terms:

     one-electron contribution =  -11831.59298417 Ry
     hartree contribution      =    5963.94173038 Ry
     xc contribution           =    -677.81818060 Ry
     ewald contribution        =    4161.42056723 Ry
     electric field correction =       0.00000037 Ry
     smearing contrib. (-TS)   =      -0.03051153 Ry

     convergence has been achieved in  13 iterations

 BEEF-vdW xc energy contributions
           1 :   -602.015854635880
           2 :    557.183433922202
           3 :   -479.083829233512
           4 :    386.075439334526
           5 :   -296.464579501199
           6 :    222.712600550413
           7 :   -168.854958343803
           8 :    131.616237552648
           9 :   -104.099301879036
          10 :    79.9710870218357
          11 :   -56.2008950474767
          12 :    33.4245258026450
          13 :   -14.3351228282164
          14 :    1.38186860979272
          15 :    4.86692750944405
          16 :   -5.98477867010604
          17 :    4.72476664484429
          18 :   -3.59585680953217
          19 :    3.81464208543889
          20 :   -5.10723498307618
          21 :    6.30189339609967
          22 :   -6.26280669582729
          23 :    4.62044938867746
          24 :   -1.95521866851357
          25 :  -0.577375418165275
          26 :    1.90561988115371
          27 :   -1.60749141352073
          28 :   9.566933159658220E-002
          29 :    1.64490669984730
          30 :   -2.60399948854899
          31 :   -49.5958096760528
          32 :   -36.2542011764630

     Forces acting on atoms (Ry/au):

     negative rho (up, down):  1.618E-01 0.000E+00
     atom    1 type  1   force =     0.00000072    0.00595977    0.00177828
     atom    2 type  1   force =     0.00516387   -0.00298035    0.00178332
     atom    3 type  1   force =    -0.00516186   -0.00298075    0.00177002
     atom    4 type  2   force =    -0.00000004    0.00000011    0.00882840
     atom    5 type  1   force =    -0.00000026   -0.00335578   -0.00412233
     atom    6 type  1   force =    -0.00290768    0.00167830   -0.00412444
     atom    7 type  1   force =     0.00290718    0.00167830   -0.00412668
     atom    8 type  2   force =     0.00000005   -0.00000034   -0.00107165
     atom    9 type  1   force =    -0.00000019   -0.00068472   -0.00018514
     atom   10 type  1   force =    -0.00059286    0.00034356   -0.00018403
     atom   11 type  1   force =     0.00059104    0.00034215   -0.00018061
     atom   12 type  2   force =     0.00000005   -0.00000024   -0.00016514

     Total force =     0.016779     Total SCF correction =     0.006614
     SCF correction compared to forces is large: reduce conv_thr to get better values

     entering subroutine stress ...

     negative rho (up, down):  1.618E-01 0.000E+00
          total   stress  (Ry/bohr**3)                   (kbar)     P=   -3.73
  -0.00003318   0.00000000   0.00000000         -4.88      0.00      0.00
   0.00000000  -0.00003318  -0.00000000          0.00     -4.88     -0.00
   0.00000000  -0.00000000  -0.00000975          0.00     -0.00     -1.43

 !ASE

     Writing output data file calc.save

     General routines

     Parallel routines

   This run was terminated on:  10:20:13  31Dec2018

   JOB DONE.
Job  /afs/slac/g/suncat/bin/suncat-tsmpirun -x LD_LIBRARY_PATH -wdir /scratch/qe648709_XcI87 pw.x -in pw.inp

TID   HOST_NAME   COMMAND_LINE            STATUS            TERMINATION_TIME
00000 suncat0156 pw.x -in pw.inp   Done                     12/31/2018 10:20:13
00001 suncat0156 pw.x -in pw.inp   Done                     12/31/2018 10:20:13
00002 suncat0156 pw.x -in pw.inp   Done                     12/31/2018 10:20:13
00003 suncat0156 pw.x -in pw.inp   Done                     12/31/2018 10:20:13
00004 suncat0156 pw.x -in pw.inp   Done                     12/31/2018 10:20:13
00005 suncat0156 pw.x -in pw.inp   Done                     12/31/2018 10:20:13
00006 suncat0156 pw.x -in pw.inp   Done                     12/31/2018 10:20:13
00007 suncat0156 pw.x -in pw.inp   Done                     12/31/2018 10:20:13
00008 suncat0153 pw.x -in pw.inp   Done                     12/31/2018 10:20:13
00009 suncat0153 pw.x -in pw.inp   Done                     12/31/2018 10:20:13
00010 suncat0153 pw.x -in pw.inp   Done                     12/31/2018 10:20:13
00011 suncat0153 pw.x -in pw.inp   Done                     12/31/2018 10:20:13
00012 suncat0153 pw.x -in pw.inp   Done                     12/31/2018 10:20:13
00013 suncat0153 pw.x -in pw.inp   Done                     12/31/2018 10:20:13
00014 suncat0153 pw.x -in pw.inp   Done                     12/31/2018 10:20:13
00015 suncat0153 pw.x -in pw.inp   Done                     12/31/2018 10:20:13
00016 suncat0145 pw.x -in pw.inp   Done                     12/31/2018 10:20:13
00017 suncat0145 pw.x -in pw.inp   Done                     12/31/2018 10:20:13
00018 suncat0145 pw.x -in pw.inp   Done                     12/31/2018 10:20:13
00019 suncat0145 pw.x -in pw.inp   Done                     12/31/2018 10:20:13
00020 suncat0145 pw.x -in pw.inp   Done                     12/31/2018 10:20:13
00021 suncat0145 pw.x -in pw.inp   Done                     12/31/2018 10:20:13
00022 suncat0145 pw.x -in pw.inp   Done                     12/31/2018 10:20:13
00023 suncat0145 pw.x -in pw.inp   Done                     12/31/2018 10:20:13
00024 suncat0144 pw.x -in pw.inp   Done                     12/31/2018 10:20:13
00025 suncat0144 pw.x -in pw.inp   Done                     12/31/2018 10:20:13
00026 suncat0144 pw.x -in pw.inp   Done                     12/31/2018 10:20:13
00027 suncat0144 pw.x -in pw.inp   Done                     12/31/2018 10:20:13
00028 suncat0144 pw.x -in pw.inp   Done                     12/31/2018 10:20:13
00029 suncat0144 pw.x -in pw.inp   Done                     12/31/2018 10:20:13
00030 suncat0144 pw.x -in pw.inp   Done                     12/31/2018 10:20:13
00031 suncat0144 pw.x -in pw.inp   Done                     12/31/2018 10:20:13
00032 suncat0133 pw.x -in pw.inp   Done                     12/31/2018 10:20:13
00033 suncat0133 pw.x -in pw.inp   Done                     12/31/2018 10:20:13
00034 suncat0133 pw.x -in pw.inp   Done                     12/31/2018 10:20:13
00035 suncat0133 pw.x -in pw.inp   Done                     12/31/2018 10:20:13
00036 suncat0133 pw.x -in pw.inp   Done                     12/31/2018 10:20:13
00037 suncat0133 pw.x -in pw.inp   Done                     12/31/2018 10:20:13
00038 suncat0133 pw.x -in pw.inp   Done                     12/31/2018 10:20:13
00039 suncat0133 pw.x -in pw.inp   Done                     12/31/2018 10:20:13
00040 suncat0132 pw.x -in pw.inp   Done                     12/31/2018 10:20:13
00041 suncat0132 pw.x -in pw.inp   Done                     12/31/2018 10:20:13
00042 suncat0132 pw.x -in pw.inp   Done                     12/31/2018 10:20:13
00043 suncat0132 pw.x -in pw.inp   Done                     12/31/2018 10:20:13
00044 suncat0132 pw.x -in pw.inp   Done                     12/31/2018 10:20:13
00045 suncat0132 pw.x -in pw.inp   Done                     12/31/2018 10:20:13
00046 suncat0132 pw.x -in pw.inp   Done                     12/31/2018 10:20:13
00047 suncat0132 pw.x -in pw.inp   Done                     12/31/2018 10:20:13
00048 suncat0131 pw.x -in pw.inp   Done                     12/31/2018 10:20:13
00049 suncat0131 pw.x -in pw.inp   Done                     12/31/2018 10:20:13
00050 suncat0131 pw.x -in pw.inp   Done                     12/31/2018 10:20:13
00051 suncat0131 pw.x -in pw.inp   Done                     12/31/2018 10:20:13
00052 suncat0131 pw.x -in pw.inp   Done                     12/31/2018 10:20:13
00053 suncat0131 pw.x -in pw.inp   Done                     12/31/2018 10:20:13
00054 suncat0131 pw.x -in pw.inp   Done                     12/31/2018 10:20:13
00055 suncat0131 pw.x -in pw.inp   Done                     12/31/2018 10:20:13
00056 suncat0130 pw.x -in pw.inp   Done                     12/31/2018 10:20:13
00057 suncat0130 pw.x -in pw.inp   Done                     12/31/2018 10:20:13
00058 suncat0130 pw.x -in pw.inp   Done                     12/31/2018 10:20:13
00059 suncat0130 pw.x -in pw.inp   Done                     12/31/2018 10:20:13
00060 suncat0130 pw.x -in pw.inp   Done                     12/31/2018 10:20:13
00061 suncat0130 pw.x -in pw.inp   Done                     12/31/2018 10:20:13
00062 suncat0130 pw.x -in pw.inp   Done                     12/31/2018 10:20:13
00063 suncat0130 pw.x -in pw.inp   Done                     12/31/2018 10:20:13