     Program PWSCF v.5.1rc2 (svn rev. 11289) starts on 20Dec2018 at  8:54:13

     Current dimensions of program PWSCF are:
     Max number of different atomic species (ntypx) = 10
     Max number of k-points (npk) =  40000
     Max angular momentum in pseudopotentials (lmaxx) =  3
     Presently stress not available with electric field

     IMPORTANT: XC functional enforced from input :
     Exchange-correlation      = BEEF-VDW ( 1  4 27 13 2)
     Any further DFT definition will be discarded
     Please, verify this is what you really want

     Subspace diagonalization in iterative solution of the eigenvalue problem:
     a serial algorithm will be used

     Generating pointlists ...
     new r_m :   0.4125 (alat units)  0.7795 (a.u.) for type    1
     new r_m :   0.4125 (alat units)  0.7795 (a.u.) for type    2

     bravais-lattice index     =            0
     lattice parameter (alat)  =       1.8897  a.u.
     unit-cell volume          =    3590.7869 (a.u.)^3
     number of atoms/cell      =           12
     number of atomic types    =            2
     number of electrons       =       201.00
     number of Kohn-Sham states=          130
     kinetic-energy cutoff     =      36.7493  Ry
     charge density cutoff     =     367.4932  Ry
     convergence threshold     =      1.0E-06
     mixing beta               =       0.1000
     number of iterations used =           10  plain     mixing
     Exchange-correlation      = BEEF-VDW ( 1  4 27 13 2)
     nstep                     =           50

     celldm(1)=   1.889726  celldm(2)=   0.000000  celldm(3)=   0.000000
     celldm(4)=   0.000000  celldm(5)=   0.000000  celldm(6)=   0.000000

     crystal axes: (cart. coord. in units of alat)
               a(1) = (   5.047016   0.000000   0.000000 )
               a(2) = (  -2.523508   4.370844   0.000000 )
               a(3) = (   0.000000   0.000000  24.120871 )

     reciprocal axes: (cart. coord. in units 2 pi/alat)
               b(1) = (  0.198137  0.114394  0.000000 )
               b(2) = (  0.000000  0.228789  0.000000 )
               b(3) = (  0.000000  0.000000  0.041458 )

     PseudoPot. # 1 for Co read from file:
     /afs/slac.stanford.edu/u/if/mamunm/psp/gbrv1.5pbe/Co.UPF
     MD5 check sum: 5f91765df6ddd3222702df6e7b74a16d
     Pseudo is Ultrasoft + core correction, Zval = 17.0
     Generated by new atomic code, or converted to UPF format
     Using radial grid of  863 points,  6 beta functions with:
                l(1) =   0
                l(2) =   0
                l(3) =   1
                l(4) =   1
                l(5) =   2
                l(6) =   2
     Q(r) pseudized with  8 coefficients,  rinner =    1.200   1.200   1.200
                                                       1.200   1.200

     PseudoPot. # 2 for Ru read from file:
     /afs/slac.stanford.edu/u/if/mamunm/psp/gbrv1.5pbe/Ru.UPF
     MD5 check sum: 7158a806dd851261a58e6920c40ebe78
     Pseudo is Ultrasoft + core correction, Zval = 16.0
     Generated by new atomic code, or converted to UPF format
     Using radial grid of  967 points,  6 beta functions with:
                l(1) =   0
                l(2) =   0
                l(3) =   1
                l(4) =   1
                l(5) =   2
                l(6) =   2
     Q(r) pseudized with  8 coefficients,  rinner =    1.300   1.300   1.300
                                                       1.300   1.300

     vdW kernel table read from file vdW_kernel_table
     MD5 check sum: 095c7af220d748ca6e76c0b4c6cfb241

     atomic species   valence    mass     pseudopotential
        Co1           17.00    58.93319     Co( 1.00)
        Ru1           16.00   101.07000     Ru( 1.00)

     Starting magnetic structure
     atomic species   magnetization
        Co1          0.118
        Ru1          0.125

     No symmetry found

   Cartesian axes

     site n.     atom                  positions (alat units)
         1           Co1 tau(   1) = (   0.0000000   0.0000000  10.0000000  )
         2           Co1 tau(   2) = (  -1.2617541   2.1854221  10.0000000  )
         3           Co1 tau(   3) = (   1.2617541   2.1854221  10.0000000  )
         4           Ru1 tau(   4) = (   2.5235081   0.0000000  10.0000000  )
         5           Co1 tau(   5) = (   2.5235081   1.4569481  12.0604357  )
         6           Co1 tau(   6) = (   1.2617541   3.6423702  12.0604357  )
         7           Co1 tau(   7) = (  -1.2617541   3.6423702  12.0604357  )
         8           Ru1 tau(   8) = (   0.0000000   1.4569481  12.0604357  )
         9           Co1 tau(   9) = (  -0.0000000   2.9138962  14.1208715  )
        10           Co1 tau(  10) = (   1.2617541   0.7284740  14.1208715  )
        11           Co1 tau(  11) = (   3.7852622   0.7284740  14.1208715  )
        12           Ru1 tau(  12) = (   2.5235081   2.9138962  14.1208715  )

     number of k points=    40  Fermi-Dirac smearing, width (Ry)=  0.0110
                       cart. coord. in units 2pi/alat
        k(    1) = (   0.0000000   0.0000000   0.0000000), wk =   0.0277778
        k(    2) = (   0.0000000   0.0381315   0.0000000), wk =   0.0555556
        k(    3) = (   0.0000000   0.0762629   0.0000000), wk =   0.0555556
        k(    4) = (   0.0000000  -0.1143944   0.0000000), wk =   0.0277778
        k(    5) = (   0.0330228   0.0190657   0.0000000), wk =   0.0555556
        k(    6) = (   0.0330228   0.0571972   0.0000000), wk =   0.0555556
        k(    7) = (   0.0330228   0.0953286   0.0000000), wk =   0.0555556
        k(    8) = (   0.0330228  -0.0953286   0.0000000), wk =   0.0555556
        k(    9) = (   0.0330228  -0.0571972   0.0000000), wk =   0.0555556
        k(   10) = (   0.0330228  -0.0190657   0.0000000), wk =   0.0555556
        k(   11) = (   0.0660456   0.0381315   0.0000000), wk =   0.0555556
        k(   12) = (   0.0660456   0.0762629   0.0000000), wk =   0.0555556
        k(   13) = (   0.0660456   0.1143944   0.0000000), wk =   0.0555556
        k(   14) = (   0.0660456  -0.0762629   0.0000000), wk =   0.0555556
        k(   15) = (   0.0660456  -0.0381315   0.0000000), wk =   0.0555556
        k(   16) = (   0.0660456   0.0000000   0.0000000), wk =   0.0555556
        k(   17) = (  -0.0990684  -0.0571972   0.0000000), wk =   0.0277778
        k(   18) = (  -0.0990684  -0.0190657   0.0000000), wk =   0.0555556
        k(   19) = (  -0.0990684   0.0190657   0.0000000), wk =   0.0555556
        k(   20) = (  -0.0990684  -0.1715916   0.0000000), wk =   0.0277778
        k(   21) = (   0.0000000   0.0000000   0.0000000), wk =   0.0277778
        k(   22) = (   0.0000000   0.0381315   0.0000000), wk =   0.0555556
        k(   23) = (   0.0000000   0.0762629   0.0000000), wk =   0.0555556
        k(   24) = (   0.0000000  -0.1143944   0.0000000), wk =   0.0277778
        k(   25) = (   0.0330228   0.0190657   0.0000000), wk =   0.0555556
        k(   26) = (   0.0330228   0.0571972   0.0000000), wk =   0.0555556
        k(   27) = (   0.0330228   0.0953286   0.0000000), wk =   0.0555556
        k(   28) = (   0.0330228  -0.0953286   0.0000000), wk =   0.0555556
        k(   29) = (   0.0330228  -0.0571972   0.0000000), wk =   0.0555556
        k(   30) = (   0.0330228  -0.0190657   0.0000000), wk =   0.0555556
        k(   31) = (   0.0660456   0.0381315   0.0000000), wk =   0.0555556
        k(   32) = (   0.0660456   0.0762629   0.0000000), wk =   0.0555556
        k(   33) = (   0.0660456   0.1143944   0.0000000), wk =   0.0555556
        k(   34) = (   0.0660456  -0.0762629   0.0000000), wk =   0.0555556
        k(   35) = (   0.0660456  -0.0381315   0.0000000), wk =   0.0555556
        k(   36) = (   0.0660456   0.0000000   0.0000000), wk =   0.0555556
        k(   37) = (  -0.0990684  -0.0571972   0.0000000), wk =   0.0277778
        k(   38) = (  -0.0990684  -0.0190657   0.0000000), wk =   0.0555556
        k(   39) = (  -0.0990684   0.0190657   0.0000000), wk =   0.0555556
        k(   40) = (  -0.0990684  -0.1715916   0.0000000), wk =   0.0277778

     Largest allocated arrays     est. size (Mb)     dimensions
     Largest temporary arrays     est. size (Mb)     dimensions

     Check: negative/imaginary core charge=   -0.000006    0.000000

     Initial potential from superposition of free atoms
     Check: negative starting charge=(component1):   -0.124533
     Check: negative starting charge=(component2):   -0.096855

     starting charge  188.99989, renormalised to  201.00000

     negative rho (up, down):  1.324E-01 1.030E-01

     *
     * You are using vdW-DF for exchange-correlation in this calculation.
     * Please cite the following three references that made this development
     * possible:
     *
     *   M. Dion, H. Rydberg, E. Schroder, D. C. Langreth, and
     *   B. I. Lundqvist, Phys. Rev. Lett. 92, 246401 (2004).
     *
     *   T. Thonhauser, V. R. Cooper, S. Li, A. Puzder, P. Hyldgaard, and
     *   D. C. Langreth, Phys. Rev. B 76, 125112 (2007).
     *
     *   G. Roman-Perez and J. M. Soler, Phys. Rev. Lett. 103, 096102 (2009).
     *
     *
     * If you are using vdW-DF2, please also cite:
     *
     *   K. Lee, E. D. Murray, L. Kong, B. I. Lundqvist, and
     *   D. C. Langreth, Phys. Rev. B 82, 081101(R) (2010).
     *
     *
     * If you are calculating the stress with vdW-DF, please also cite:
     *
     *   R. Sabatini, E. Kucukbenli, B. Kolb, T. Thonhauser, and
     *   S. de Gironcoli, J. Phys.: Condens. Matter 24, 424209 (2012).
     *

     Carrying out vdW-DF run using the following parameters:

     Nqs =      20    Nr_points =    1024   r_max =   100.000
     q_mesh =
               0.00001000     0.04494208     0.09755937     0.15916263
               0.23128650     0.31572767     0.41458969     0.53033537
               0.66584808     0.82450364     1.01025438     1.22772762
               1.48234092     1.78043706     2.12944203     2.53805004
               3.01644009     3.57652955     4.23227104     5.00000000

     Gradients computed in reciprocal space

     Adding external electric field

     Computed dipole along edir(3) :
        Dipole                0.0000 Ry au,          0.0000 Debye
        Dipole field          0.0000 Ry au

        Potential amp.       -0.0000 Ry
        Total length         44.4423 bohr

[...]

     Starting wfc are  156 randomized atomic wfcs

     Self-consistent Calculation

     iteration #  1     ecut=    36.75 Ry     beta=0.10
     Davidson diagonalization with overlap
     ethr =  1.00E-02,  avg # of iterations =  7.5

[...]

     Magnetic moment per site:
     atom:    1    charge:    8.4690    magn:    0.9583    constr:    0.0000
     atom:    2    charge:    8.4690    magn:    0.9583    constr:    0.0000
     atom:    3    charge:    8.4690    magn:    0.9583    constr:    0.0000
     atom:    4    charge:    3.0044    magn:    0.3457    constr:    0.0000
     atom:    5    charge:    8.4727    magn:    0.9565    constr:    0.0000
     atom:    6    charge:    8.4727    magn:    0.9565    constr:    0.0000
     atom:    7    charge:    8.4727    magn:    0.9565    constr:    0.0000
     atom:    8    charge:    3.0026    magn:    0.3454    constr:    0.0000
[...]
        k(    5) = (   0.0330228   0.0190657   0.0000000), wk =   0.0555556
        k(    6) = (   0.0330228   0.0571972   0.0000000), wk =   0.0555556
        k(    7) = (   0.0330228   0.0953286   0.0000000), wk =   0.0555556
        k(    8) = (   0.0330228  -0.0953286   0.0000000), wk =   0.0555556
        k(    9) = (   0.0330228  -0.0571972   0.0000000), wk =   0.0555556
        k(   10) = (   0.0330228  -0.0190657   0.0000000), wk =   0.0555556
        k(   11) = (   0.0660456   0.0381315   0.0000000), wk =   0.0555556
        k(   12) = (   0.0660456   0.0762629   0.0000000), wk =   0.0555556
        k(   13) = (   0.0660456   0.1143944   0.0000000), wk =   0.0555556
        k(   14) = (   0.0660456  -0.0762629   0.0000000), wk =   0.0555556
        k(   15) = (   0.0660456  -0.0381315   0.0000000), wk =   0.0555556
        k(   16) = (   0.0660456   0.0000000   0.0000000), wk =   0.0555556
        k(   17) = (  -0.0990684  -0.0571972   0.0000000), wk =   0.0277778
        k(   18) = (  -0.0990684  -0.0190657   0.0000000), wk =   0.0555556
        k(   19) = (  -0.0990684   0.0190657   0.0000000), wk =   0.0555556
        k(   20) = (  -0.0990684  -0.1715916   0.0000000), wk =   0.0277778
        k(   21) = (   0.0000000   0.0000000   0.0000000), wk =   0.0277778
        k(   22) = (   0.0000000   0.0381315   0.0000000), wk =   0.0555556
        k(   23) = (   0.0000000   0.0762629   0.0000000), wk =   0.0555556
        k(   24) = (   0.0000000  -0.1143944   0.0000000), wk =   0.0277778
        k(   25) = (   0.0330228   0.0190657   0.0000000), wk =   0.0555556
        k(   26) = (   0.0330228   0.0571972   0.0000000), wk =   0.0555556
        k(   27) = (   0.0330228   0.0953286   0.0000000), wk =   0.0555556
        k(   28) = (   0.0330228  -0.0953286   0.0000000), wk =   0.0555556
        k(   29) = (   0.0330228  -0.0571972   0.0000000), wk =   0.0555556
        k(   30) = (   0.0330228  -0.0190657   0.0000000), wk =   0.0555556
        k(   31) = (   0.0660456   0.0381315   0.0000000), wk =   0.0555556
        k(   32) = (   0.0660456   0.0762629   0.0000000), wk =   0.0555556
        k(   33) = (   0.0660456   0.1143944   0.0000000), wk =   0.0555556
        k(   34) = (   0.0660456  -0.0762629   0.0000000), wk =   0.0555556
        k(   35) = (   0.0660456  -0.0381315   0.0000000), wk =   0.0555556
        k(   36) = (   0.0660456   0.0000000   0.0000000), wk =   0.0555556
        k(   37) = (  -0.0990684  -0.0571972   0.0000000), wk =   0.0277778
        k(   38) = (  -0.0990684  -0.0190657   0.0000000), wk =   0.0555556
        k(   39) = (  -0.0990684   0.0190657   0.0000000), wk =   0.0555556
        k(   40) = (  -0.0990684  -0.1715916   0.0000000), wk =   0.0277778

     Largest allocated arrays     est. size (Mb)     dimensions
     Largest temporary arrays     est. size (Mb)     dimensions

     Check: negative/imaginary core charge=   -0.000006    0.000000

     Initial potential from superposition of free atoms
     Check: negative starting charge=(component1):   -0.122983
     Check: negative starting charge=(component2):   -0.095649

     starting charge  188.99989, renormalised to  201.00000

[...]

     *
     * You are using vdW-DF for exchange-correlation in this calculation.
     * Please cite the following three references that made this development
     * possible:
     *
     *   M. Dion, H. Rydberg, E. Schroder, D. C. Langreth, and
     *   B. I. Lundqvist, Phys. Rev. Lett. 92, 246401 (2004).
     *
     *   T. Thonhauser, V. R. Cooper, S. Li, A. Puzder, P. Hyldgaard, and
     *   D. C. Langreth, Phys. Rev. B 76, 125112 (2007).
     *
     *   G. Roman-Perez and J. M. Soler, Phys. Rev. Lett. 103, 096102 (2009).
     *
     *
     * If you are using vdW-DF2, please also cite:
     *
     *   K. Lee, E. D. Murray, L. Kong, B. I. Lundqvist, and
     *   D. C. Langreth, Phys. Rev. B 82, 081101(R) (2010).
     *
     *
     * If you are calculating the stress with vdW-DF, please also cite:
     *
     *   R. Sabatini, E. Kucukbenli, B. Kolb, T. Thonhauser, and
     *   S. de Gironcoli, J. Phys.: Condens. Matter 24, 424209 (2012).
     *

     Carrying out vdW-DF run using the following parameters:

     Nqs =      20    Nr_points =    1024   r_max =   100.000
     q_mesh =
               0.00001000     0.04494208     0.09755937     0.15916263
               0.23128650     0.31572767     0.41458969     0.53033537
               0.66584808     0.82450364     1.01025438     1.22772762
               1.48234092     1.78043706     2.12944203     2.53805004
               3.01644009     3.57652955     4.23227104     5.00000000

     Gradients computed in reciprocal space

[...]

     Starting wfc are  156 randomized atomic wfcs

     Self-consistent Calculation

[...]

     total energy              =   -3280.93265327 Ry
     Harris-Foulkes estimate   =   -3280.93265296 Ry
     estimated scf accuracy    <       0.00000118 Ry

[...]

     iteration # 34     ecut=    36.75 Ry     beta=0.10
     Davidson diagonalization with overlap
     ethr =  5.89E-10,  avg # of iterations =  1.1

[...]

     negative rho (up, down):  1.088E-01 1.179E-01

[...]

     Adding external electric field

     Computed dipole along edir(3) :
        Dipole               -0.0043 Ry au,         -0.0109 Debye
        Dipole field         -0.0000 Ry au

        Potential amp.        0.0013 Ry
        Total length         44.4423 bohr

     Magnetic moment per site:
     atom:    1    charge:    8.2860    magn:    0.9252    constr:    0.0000
     atom:    2    charge:    8.2860    magn:    0.9252    constr:    0.0000
     atom:    3    charge:    8.2859    magn:    0.9253    constr:    0.0000
     atom:    4    charge:    2.8471    magn:    0.1128    constr:    0.0000
     atom:    5    charge:    8.2797    magn:    0.9270    constr:    0.0000
     atom:    6    charge:    8.2797    magn:    0.9270    constr:    0.0000
     atom:    7    charge:    8.2797    magn:    0.9270    constr:    0.0000
     atom:    8    charge:    2.8478    magn:    0.1025    constr:    0.0000
     atom:    9    charge:    8.2842    magn:    0.9348    constr:    0.0000
     atom:   10    charge:    8.2841    magn:    0.9348    constr:    0.0000
     atom:   11    charge:    8.2841    magn:    0.9348    constr:    0.0000
     atom:   12    charge:    2.8463    magn:    0.1187    constr:    0.0000

     End of self-consistent calculation

 ------ SPIN UP ------------

[...]

 ------ SPIN DOWN ----------

[...]

          k = 0.0660 0.0000 0.0000 ( 13495 PWs)   bands (ev):

[...]

          k =-0.0991-0.1716 0.0000 ( 13562 PWs)   bands (ev):

   -92.8117 -92.8037 -92.7955 -92.6144 -92.6085 -92.6066 -92.5996 -92.5987
   -92.5921 -71.2104 -70.8184 -70.7792 -56.2541 -56.2146 -56.1986 -56.1960
   -56.1812 -56.1590 -56.1285 -56.1022 -56.0579 -56.0447 -56.0427 -56.0197
   -56.0055 -55.9981 -55.9947 -55.9945 -55.9898 -55.9633 -55.9529 -55.9100
   -55.9005 -55.8857 -55.8814 -55.8763 -55.8630 -55.8544 -55.8498 -41.1966
   -41.1741 -41.1685 -40.8419 -40.8363 -40.8031 -40.7976 -40.6712 -40.6212
    -4.6145  -4.5757  -3.3174  -2.8866  -2.8033  -2.6605  -2.3921  -2.1467
    -2.0516  -1.9494  -1.6406  -1.5736  -1.5282  -1.4235  -1.2336  -1.1640
    -0.9942  -0.9551  -0.8610  -0.6969  -0.6012  -0.4870  -0.4446  -0.2006
    -0.1274  -0.1125  -0.0988   0.0752   0.0850   0.1248   0.1875   0.2385
     0.3798   0.3917   0.4004   0.4054   0.4645   0.5551   0.7404   0.7446
     1.0753   1.1121   1.1790   1.2012   1.2993   1.3090   1.3597   1.4609
     1.5714   1.6226   1.7508   1.7800   1.7961   1.9095   1.9435   1.9625
     2.1420   2.1624   2.3253   2.4054   2.5157   2.6585   2.6743   3.0376
     3.7235   4.0075   4.0349   5.0087   5.1171   5.5853   5.8545   6.0117
     7.2345   7.2525   7.5538   7.5601   8.0460   8.0809   8.2403   8.2425
     9.2966   9.3275

     the Fermi energy is     1.3390 ev

!    total energy              =   -3280.93265418 Ry
     Harris-Foulkes estimate   =   -3280.93265331 Ry
     estimated scf accuracy    <       0.00000041 Ry

     The total energy is the sum of the following terms:

     one-electron contribution =  -29260.51049917 Ry
     hartree contribution      =   14636.14378147 Ry
     xc contribution           =    -384.67814543 Ry
     ewald contribution        =   11728.21247300 Ry
     electric field correction =       0.00000006 Ry
     smearing contrib. (-TS)   =      -0.10026412 Ry

     total magnetization       =    17.09 Bohr mag/cell
     absolute magnetization    =    18.60 Bohr mag/cell

     convergence has been achieved in  34 iterations

 BEEF-vdW xc energy contributions
           1 :   -337.843158542408
           2 :    307.249662541112
           3 :   -254.941370084210
           4 :    194.684136946540
           5 :   -139.500993243059
           6 :    97.1654208504887
           7 :   -68.7410880168978
           8 :    50.2956492613598
           9 :   -36.3849626425944
          10 :    23.2397023723594
          11 :   -10.1557267912420
          12 :   -1.20114432841331
          13 :    8.67275669772295
          14 :   -11.3394489377439
          15 :    10.1191289823380
          16 :   -7.12415919633315
          17 :    4.39565333798811
          18 :   -2.90384110942290
          19 :    2.36556187262767
          20 :   -1.85334112686473
          21 :   0.666801640509163
          22 :    1.13110903617439
          23 :   -2.81912458486477
          24 :    3.59124968457002
          25 :   -3.15029093035503
          26 :    1.90134117892217
          27 :  -0.654272328401589
          28 :   7.248568443014847E-002
          29 :  -0.265023581984792
          30 :   0.778024685405455
          31 :   -29.8628201643795
          32 :   -21.2016389047091

     Forces acting on atoms (Ry/au):

     negative rho (up, down):  1.088E-01 1.179E-01
     atom    1 type  1   force =     0.00000546   -0.00919812   -0.00389816
     atom    2 type  1   force =    -0.00796339    0.00459886   -0.00390614
     atom    3 type  1   force =     0.00796191    0.00459184   -0.00391573
     atom    4 type  2   force =     0.00000363   -0.00000016   -0.01099047
     atom    5 type  1   force =    -0.00000529    0.00181571    0.00459001
     atom    6 type  1   force =     0.00158437   -0.00090372    0.00458504
     atom    7 type  1   force =    -0.00158209   -0.00089654    0.00459299
     atom    8 type  2   force =    -0.00000220    0.00000291    0.00598430
     atom    9 type  1   force =     0.00002022   -0.00043787    0.00089195
     atom   10 type  1   force =    -0.00040231    0.00021690    0.00089887
     atom   11 type  1   force =     0.00040571    0.00019502    0.00090126
     atom   12 type  2   force =    -0.00002603    0.00001517    0.00026607

     Total force =     0.023070     Total SCF correction =     0.002858
     SCF correction compared to forces is large: reduce conv_thr to get better values

     entering subroutine stress ...

     negative rho (up, down):  1.088E-01 1.179E-01
          total   stress  (Ry/bohr**3)                   (kbar)     P=   -2.55
  -0.00002430  -0.00000001  -0.00000000         -3.58     -0.00     -0.00
  -0.00000001  -0.00002430  -0.00000001         -0.00     -3.57     -0.00
  -0.00000000  -0.00000001  -0.00000343         -0.00     -0.00     -0.50

 !ASE

     Writing output data file calc.save

     General routines

     Parallel routines

   This run was terminated on:  11:55:55  20Dec2018

   JOB DONE.
Job  /afs/slac/g/suncat/bin/suncat-tsmpirun -x LD_LIBRARY_PATH -wdir /scratch/qe773536_ck1lv pw.x -in pw.inp

TID   HOST_NAME   COMMAND_LINE            STATUS            TERMINATION_TIME
00000 suncat0064 pw.x -in pw.inp   Done                     12/20/2018 11:55:55
00001 suncat0064 pw.x -in pw.inp   Done                     12/20/2018 11:55:55
00002 suncat0064 pw.x -in pw.inp   Done                     12/20/2018 11:55:55
00003 suncat0064 pw.x -in pw.inp   Done                     12/20/2018 11:55:55
00004 suncat0064 pw.x -in pw.inp   Done                     12/20/2018 11:55:55
00005 suncat0064 pw.x -in pw.inp   Done                     12/20/2018 11:55:55
00006 suncat0064 pw.x -in pw.inp   Done                     12/20/2018 11:55:55
00007 suncat0064 pw.x -in pw.inp   Done                     12/20/2018 11:55:55
00008 suncat0063 pw.x -in pw.inp   Done                     12/20/2018 11:55:55
00009 suncat0063 pw.x -in pw.inp   Done                     12/20/2018 11:55:55
00010 suncat0063 pw.x -in pw.inp   Done                     12/20/2018 11:55:55
00011 suncat0063 pw.x -in pw.inp   Done                     12/20/2018 11:55:55
00012 suncat0063 pw.x -in pw.inp   Done                     12/20/2018 11:55:55
00013 suncat0063 pw.x -in pw.inp   Done                     12/20/2018 11:55:55
00014 suncat0063 pw.x -in pw.inp   Done                     12/20/2018 11:55:55
00015 suncat0063 pw.x -in pw.inp   Done                     12/20/2018 11:55:55
00016 suncat0062 pw.x -in pw.inp   Done                     12/20/2018 11:55:55
00017 suncat0062 pw.x -in pw.inp   Done                     12/20/2018 11:55:55
00018 suncat0062 pw.x -in pw.inp   Done                     12/20/2018 11:55:55
00019 suncat0062 pw.x -in pw.inp   Done                     12/20/2018 11:55:55
00020 suncat0062 pw.x -in pw.inp   Done                     12/20/2018 11:55:55
00021 suncat0062 pw.x -in pw.inp   Done                     12/20/2018 11:55:55
00022 suncat0062 pw.x -in pw.inp   Done                     12/20/2018 11:55:55
00023 suncat0062 pw.x -in pw.inp   Done                     12/20/2018 11:55:55
00024 suncat0057 pw.x -in pw.inp   Done                     12/20/2018 11:55:55
00025 suncat0057 pw.x -in pw.inp   Done                     12/20/2018 11:55:55
00026 suncat0057 pw.x -in pw.inp   Done                     12/20/2018 11:55:55
00027 suncat0057 pw.x -in pw.inp   Done                     12/20/2018 11:55:55
00028 suncat0057 pw.x -in pw.inp   Done                     12/20/2018 11:55:55
00029 suncat0057 pw.x -in pw.inp   Done                     12/20/2018 11:55:55
00030 suncat0057 pw.x -in pw.inp   Done                     12/20/2018 11:55:55
00031 suncat0057 pw.x -in pw.inp   Done                     12/20/2018 11:55:55
00032 suncat0041 pw.x -in pw.inp   Done                     12/20/2018 11:55:55
00033 suncat0041 pw.x -in pw.inp   Done                     12/20/2018 11:55:55
00034 suncat0041 pw.x -in pw.inp   Done                     12/20/2018 11:55:55
00035 suncat0041 pw.x -in pw.inp   Done                     12/20/2018 11:55:55
00036 suncat0041 pw.x -in pw.inp   Done                     12/20/2018 11:55:55
00037 suncat0041 pw.x -in pw.inp   Done                     12/20/2018 11:55:55
00038 suncat0041 pw.x -in pw.inp   Done                     12/20/2018 11:55:55
00039 suncat0041 pw.x -in pw.inp   Done                     12/20/2018 11:55:55
00040 suncat0025 pw.x -in pw.inp   Done                     12/20/2018 11:55:55
00041 suncat0025 pw.x -in pw.inp   Done                     12/20/2018 11:55:55
00042 suncat0025 pw.x -in pw.inp   Done                     12/20/2018 11:55:55
00043 suncat0025 pw.x -in pw.inp   Done                     12/20/2018 11:55:55
00044 suncat0025 pw.x -in pw.inp   Done                     12/20/2018 11:55:55
00045 suncat0025 pw.x -in pw.inp   Done                     12/20/2018 11:55:55
00046 suncat0025 pw.x -in pw.inp   Done                     12/20/2018 11:55:55
00047 suncat0025 pw.x -in pw.inp   Done                     12/20/2018 11:55:55
00048 suncat0024 pw.x -in pw.inp   Done                     12/20/2018 11:55:55
00049 suncat0024 pw.x -in pw.inp   Done                     12/20/2018 11:55:55
00050 suncat0024 pw.x -in pw.inp   Done                     12/20/2018 11:55:55
00051 suncat0024 pw.x -in pw.inp   Done                     12/20/2018 11:55:55
00052 suncat0024 pw.x -in pw.inp   Done                     12/20/2018 11:55:55
00053 suncat0024 pw.x -in pw.inp   Done                     12/20/2018 11:55:55
00054 suncat0024 pw.x -in pw.inp   Done                     12/20/2018 11:55:55
00055 suncat0024 pw.x -in pw.inp   Done                     12/20/2018 11:55:55
00056 suncat0198 pw.x -in pw.inp   Done                     12/20/2018 11:55:55
00057 suncat0198 pw.x -in pw.inp   Done                     12/20/2018 11:55:55
00058 suncat0198 pw.x -in pw.inp   Done                     12/20/2018 11:55:55
00059 suncat0198 pw.x -in pw.inp   Done                     12/20/2018 11:55:55
00060 suncat0198 pw.x -in pw.inp   Done                     12/20/2018 11:55:55
00061 suncat0198 pw.x -in pw.inp   Done                     12/20/2018 11:55:55
00062 suncat0198 pw.x -in pw.inp   Done                     12/20/2018 11:55:55
00063 suncat0198 pw.x -in pw.inp   Done                     12/20/2018 11:55:55