     Program PWSCF v.5.1rc2 (svn rev. 11289) starts on  2Jan2019 at  0:26:14

     Current dimensions of program PWSCF are:
     Max number of different atomic species (ntypx) = 10
     Max number of k-points (npk) =  40000
     Max angular momentum in pseudopotentials (lmaxx) =  3
     Presently stress not available with electric field

     IMPORTANT: XC functional enforced from input :
     Exchange-correlation      = BEEF-VDW ( 1  4 27 13 2)
     Any further DFT definition will be discarded
     Please, verify this is what you really want

     Subspace diagonalization in iterative solution of the eigenvalue problem:
     a serial algorithm will be used

     bravais-lattice index     =            0
     lattice parameter (alat)  =       1.8897  a.u.
     unit-cell volume          =    7480.5720 (a.u.)^3
     number of atoms/cell      =           12
     number of atomic types    =            2
     number of electrons       =       153.00
     number of Kohn-Sham states=          106
     kinetic-energy cutoff     =      36.7493  Ry
     charge density cutoff     =     367.4932  Ry
     convergence threshold     =      1.0E-06
     mixing beta               =       0.1000
     number of iterations used =           10  plain     mixing
     Exchange-correlation      = BEEF-VDW ( 1  4 27 13 2)
     nstep                     =           50

     celldm(1)=   1.889726  celldm(2)=   0.000000  celldm(3)=   0.000000
     celldm(4)=   0.000000  celldm(5)=   0.000000  celldm(6)=   0.000000

     crystal axes: (cart. coord. in units of alat)
               a(1) = (   7.049605   0.000000   0.000000 )
               a(2) = (  -3.524802   6.105137   0.000000 )
               a(3) = (   0.000000   0.000000  25.755978 )

     reciprocal axes: (cart. coord. in units 2 pi/alat)
               b(1) = (  0.141852  0.081898  0.000000 )
               b(2) = (  0.000000  0.163796  0.000000 )
               b(3) = (  0.000000  0.000000  0.038826 )

     PseudoPot. # 1 for Tl read from file:
     /afs/slac.stanford.edu/u/if/mamunm/psp/gbrv1.5pbe/Tl.UPF
     MD5 check sum: b76cf1f7e72655a2b2c53cf6385d7059
     Pseudo is Ultrasoft + core correction, Zval = 13.0
     Generated by new atomic code, or converted to UPF format
     Using radial grid of  899 points,  6 beta functions with:
                l(1) =   0
                l(2) =   0
                l(3) =   1
                l(4) =   1
                l(5) =   2
                l(6) =   2
     Q(r) pseudized with  6 coefficients,  rinner =    1.100   1.100   1.100
                                                       1.100   1.100

     PseudoPot. # 2 for Cd read from file:
     /afs/slac.stanford.edu/u/if/mamunm/psp/gbrv1.5pbe/Cd.UPF
     MD5 check sum: 17164a7926edb8e0dc231208abae86a6
     Pseudo is Ultrasoft + core correction, Zval = 12.0
     Generated by new atomic code, or converted to UPF format
     Using radial grid of  889 points,  6 beta functions with:
                l(1) =   0
                l(2) =   0
                l(3) =   1
                l(4) =   1
                l(5) =   2
                l(6) =   2
     Q(r) pseudized with  6 coefficients,  rinner =    1.000   1.000   1.000
                                                       1.000   1.000

     vdW kernel table read from file vdW_kernel_table
     MD5 check sum: 095c7af220d748ca6e76c0b4c6cfb241

     atomic species   valence    mass     pseudopotential
        Tl1           13.00   204.38000     Tl( 1.00)
        Cd1           12.00   112.41400     Cd( 1.00)

     No symmetry found

   Cartesian axes

     site n.     atom                  positions (alat units)
         1           Tl1 tau(   1) = (   0.0000000   0.0000000  10.0000000  )
         2           Tl1 tau(   2) = (  -1.7624012   3.0525684  10.0000000  )
         3           Tl1 tau(   3) = (   1.7624012   3.0525684  10.0000000  )
         4           Cd1 tau(   4) = (   3.5248023   0.0000000  10.0000000  )
         5           Tl1 tau(   5) = (   3.5248023   2.0350456  12.8779891  )
         6           Tl1 tau(   6) = (   1.7624012   5.0876139  12.8779891  )
         7           Tl1 tau(   7) = (  -1.7624012   5.0876139  12.8779891  )
         8           Cd1 tau(   8) = (   0.0000000   2.0350456  12.8779891  )
         9           Tl1 tau(   9) = (  -0.0000000   4.0700912  15.7559781  )
        10           Tl1 tau(  10) = (   1.7624012   1.0175228  15.7559781  )
        11           Tl1 tau(  11) = (   5.2872035   1.0175228  15.7559781  )
        12           Cd1 tau(  12) = (   3.5248023   4.0700912  15.7559781  )

     number of k points=    20  Fermi-Dirac smearing, width (Ry)=  0.0110
                       cart. coord. in units 2pi/alat
        k(    1) = (   0.0000000   0.0000000   0.0000000), wk =   0.0555556
        k(    2) = (   0.0000000   0.0272994   0.0000000), wk =   0.1111111
        k(    3) = (   0.0000000   0.0545988   0.0000000), wk =   0.1111111
        k(    4) = (   0.0000000  -0.0818982   0.0000000), wk =   0.0555556
        k(    5) = (   0.0236420   0.0136497   0.0000000), wk =   0.1111111
        k(    6) = (   0.0236420   0.0409491   0.0000000), wk =   0.1111111
        k(    7) = (   0.0236420   0.0682485   0.0000000), wk =   0.1111111
        k(    8) = (   0.0236420  -0.0682485   0.0000000), wk =   0.1111111
        k(    9) = (   0.0236420  -0.0409491   0.0000000), wk =   0.1111111
        k(   10) = (   0.0236420  -0.0136497   0.0000000), wk =   0.1111111
        k(   11) = (   0.0472840   0.0272994   0.0000000), wk =   0.1111111
        k(   12) = (   0.0472840   0.0545988   0.0000000), wk =   0.1111111
        k(   13) = (   0.0472840   0.0818982   0.0000000), wk =   0.1111111
        k(   14) = (   0.0472840  -0.0545988   0.0000000), wk =   0.1111111
        k(   15) = (   0.0472840  -0.0272994   0.0000000), wk =   0.1111111
        k(   16) = (   0.0472840   0.0000000   0.0000000), wk =   0.1111111
        k(   17) = (  -0.0709260  -0.0409491   0.0000000), wk =   0.0555556
        k(   18) = (  -0.0709260  -0.0136497   0.0000000), wk =   0.1111111
        k(   19) = (  -0.0709260   0.0136497   0.0000000), wk =   0.1111111
        k(   20) = (  -0.0709260  -0.1228474   0.0000000), wk =   0.0555556

     Largest allocated arrays     est. size (Mb)     dimensions
     Largest temporary arrays     est. size (Mb)     dimensions

     Check: negative/imaginary core charge=   -0.000001    0.000000

     Initial potential from superposition of free atoms
     Check: negative starting charge=   -0.524195

     starting charge  151.45608, renormalised to  153.00000

     negative rho (up, down):  5.295E-01 0.000E+00

     *
     * You are using vdW-DF for exchange-correlation in this calculation.
     * Please cite the following three references that made this development
     * possible:
     *
     *   M. Dion, H. Rydberg, E. Schroder, D. C. Langreth, and
     *   B. I. Lundqvist, Phys. Rev. Lett. 92, 246401 (2004).
     *
     *   T. Thonhauser, V. R. Cooper, S. Li, A. Puzder, P. Hyldgaard, and
     *   D. C. Langreth, Phys. Rev. B 76, 125112 (2007).
     *
     *   G. Roman-Perez and J. M. Soler, Phys. Rev. Lett. 103, 096102 (2009).
     *
     *
     * If you are using vdW-DF2, please also cite:
     *
     *   K. Lee, E. D. Murray, L. Kong, B. I. Lundqvist, and
     *   D. C. Langreth, Phys. Rev. B 82, 081101(R) (2010).
     *
     *
     * If you are calculating the stress with vdW-DF, please also cite:
     *
     *   R. Sabatini, E. Kucukbenli, B. Kolb, T. Thonhauser, and
     *   S. de Gironcoli, J. Phys.: Condens. Matter 24, 424209 (2012).
     *

     Carrying out vdW-DF run using the following parameters:

     Nqs =      20    Nr_points =    1024   r_max =   100.000
     q_mesh =
               0.00001000     0.04494208     0.09755937     0.15916263
               0.23128650     0.31572767     0.41458969     0.53033537
               0.66584808     0.82450364     1.01025438     1.22772762
               1.48234092     1.78043706     2.12944203     2.53805004
               3.01644009     3.57652955     4.23227104     5.00000000

     Gradients computed in reciprocal space

     Adding external electric field

     Computed dipole along edir(3) :
        Dipole                0.0000 Ry au,          0.0000 Debye
        Dipole field          0.0000 Ry au

        Potential amp.       -0.0000 Ry
        Total length         47.4550 bohr

     Starting wfc are  108 randomized atomic wfcs

     Self-consistent Calculation

     iteration #  1     ecut=    36.75 Ry     beta=0.10
     Davidson diagonalization with overlap
     c_bands:  1 eigenvalues not converged
     ethr =  1.00E-02,  avg # of iterations =  8.1

     Threshold (ethr) on eigenvalues was too large:
     Diagonalizing with lowered threshold

     Davidson diagonalization with overlap
     ethr =  2.75E-04,  avg # of iterations = 10.9

[...]

     total energy              =   -1669.50241207 Ry
     Harris-Foulkes estimate   =   -1669.57302754 Ry
     estimated scf accuracy    <       0.41764193 Ry

     iteration #  2     ecut=    36.75 Ry     beta=0.10
     Davidson diagonalization with overlap
     ethr =  2.73E-04,  avg # of iterations =  1.1

[...]

     End of self-consistent calculation

          k = 0.0000 0.0000 0.0000 ( 28059 PWs)   bands (ev):

   -11.6567 -11.6333 -11.6258 -11.6258 -11.6083 -11.5713 -11.5713 -11.5644
   -11.5284 -11.5130 -11.5129 -11.4951 -11.4942 -11.4942 -11.4587 -11.4585
   -11.4562 -11.4352 -11.4250 -11.4250 -11.3509 -11.3298 -11.3298 -11.3234
   -11.3227 -11.3227 -11.3199 -11.2903 -11.2903 -11.2827 -11.2827 -11.2607
   -11.2603 -11.2264 -11.2264 -11.2110 -11.2106 -11.1512 -11.1511 -11.1476
   -11.1039 -11.1007 -11.0933 -11.0931 -11.0371  -8.3392  -8.3031  -8.2984
    -8.2984  -8.2815  -8.2674  -8.2674  -8.2389  -8.2389  -8.2272  -8.2272
    -8.2176  -8.2176  -8.2107  -8.2107  -8.1917  -7.2116  -5.7246  -4.8724
    -4.8723  -4.5271  -4.5270  -3.8267  -3.8266  -2.2952  -2.2436  -1.4095
    -1.1993  -1.1993  -1.1444  -0.9220  -0.1723  -0.1723  -0.0001  -0.0001
     0.2564   0.2596   1.4909   3.1391   3.1629   3.1629   3.2679   3.2680
     3.5204   3.7697   3.9473   4.3151   4.4965   4.8192   5.1868   5.1868
     5.3220   5.3220   5.8062   5.9718   6.0533   6.2012   6.3129   6.3133
     6.4588   6.4645

[...]

          k =-0.0709-0.0409 0.0000 ( 28194 PWs)   bands (ev):

[...]

     the Fermi energy is     0.4815 ev

!    total energy              =   -1669.44828324 Ry
     Harris-Foulkes estimate   =   -1669.44811142 Ry
     estimated scf accuracy    <       0.00000056 Ry

     The total energy is the sum of the following terms:

     one-electron contribution =   -7456.16168571 Ry
     hartree contribution      =    3810.33465151 Ry
     xc contribution           =    -698.07597636 Ry
     ewald contribution        =    2674.50053395 Ry
     electric field correction =       0.00000000 Ry
     smearing contrib. (-TS)   =      -0.04580663 Ry

     convergence has been achieved in  12 iterations

 BEEF-vdW xc energy contributions
           1 :   -619.991381526295
           2 :    573.619057304015
           3 :   -493.080890076577
           4 :    397.520554468697
[...]
     Using radial grid of  899 points,  6 beta functions with:
                l(1) =   0
                l(2) =   0
                l(3) =   1
                l(4) =   1
                l(5) =   2
                l(6) =   2
     Q(r) pseudized with  6 coefficients,  rinner =    1.100   1.100   1.100
                                                       1.100   1.100

     PseudoPot. # 2 for Cd read from file:
     /afs/slac.stanford.edu/u/if/mamunm/psp/gbrv1.5pbe/Cd.UPF
     MD5 check sum: 17164a7926edb8e0dc231208abae86a6
     Pseudo is Ultrasoft + core correction, Zval = 12.0
     Generated by new atomic code, or converted to UPF format
     Using radial grid of  889 points,  6 beta functions with:
                l(1) =   0
                l(2) =   0
                l(3) =   1
                l(4) =   1
                l(5) =   2
                l(6) =   2
     Q(r) pseudized with  6 coefficients,  rinner =    1.000   1.000   1.000
                                                       1.000   1.000

     vdW kernel table read from file vdW_kernel_table
     MD5 check sum: 095c7af220d748ca6e76c0b4c6cfb241

     atomic species   valence    mass     pseudopotential
        Tl1           13.00   204.38000     Tl( 1.00)
        Cd1           12.00   112.41400     Cd( 1.00)

     No symmetry found

   Cartesian axes

     site n.     atom                  positions (alat units)
         1           Tl1 tau(   1) = (   0.0000000   0.0000000  10.0000000  )
         2           Tl1 tau(   2) = (  -1.7624012   3.0525684  10.0000000  )
         3           Tl1 tau(   3) = (   1.7624012   3.0525684  10.0000000  )
         4           Cd1 tau(   4) = (   3.5248023   0.0000000  10.0000000  )
         5           Tl1 tau(   5) = (   3.5248023   2.0350456  12.8779891  )
         6           Tl1 tau(   6) = (   1.7624012   5.0876139  12.8779891  )
         7           Tl1 tau(   7) = (  -1.7624012   5.0876139  12.8779891  )
         8           Cd1 tau(   8) = (   0.0000000   2.0350456  12.8779891  )
         9           Tl1 tau(   9) = (  -0.0000157   4.0540425  15.7869669  )
        10           Tl1 tau(  10) = (   1.7486398   1.0255887  15.7869996  )
        11           Tl1 tau(  11) = (   5.3009687   1.0256180  15.7870124  )
        12           Cd1 tau(  12) = (   3.5247775   4.0700630  15.7599388  )

     number of k points=    20  Fermi-Dirac smearing, width (Ry)=  0.0110
                       cart. coord. in units 2pi/alat
        k(    1) = (   0.0000000   0.0000000   0.0000000), wk =   0.0555556
        k(    2) = (   0.0000000   0.0272994   0.0000000), wk =   0.1111111
        k(    3) = (   0.0000000   0.0545988   0.0000000), wk =   0.1111111
        k(    4) = (   0.0000000  -0.0818982   0.0000000), wk =   0.0555556
        k(    5) = (   0.0236420   0.0136497   0.0000000), wk =   0.1111111
        k(    6) = (   0.0236420   0.0409491   0.0000000), wk =   0.1111111
        k(    7) = (   0.0236420   0.0682485   0.0000000), wk =   0.1111111
        k(    8) = (   0.0236420  -0.0682485   0.0000000), wk =   0.1111111
        k(    9) = (   0.0236420  -0.0409491   0.0000000), wk =   0.1111111
        k(   10) = (   0.0236420  -0.0136497   0.0000000), wk =   0.1111111
        k(   11) = (   0.0472840   0.0272994   0.0000000), wk =   0.1111111
        k(   12) = (   0.0472840   0.0545988   0.0000000), wk =   0.1111111
        k(   13) = (   0.0472840   0.0818982   0.0000000), wk =   0.1111111
        k(   14) = (   0.0472840  -0.0545988   0.0000000), wk =   0.1111111
        k(   15) = (   0.0472840  -0.0272994   0.0000000), wk =   0.1111111
        k(   16) = (   0.0472840   0.0000000   0.0000000), wk =   0.1111111
        k(   17) = (  -0.0709260  -0.0409491   0.0000000), wk =   0.0555556
        k(   18) = (  -0.0709260  -0.0136497   0.0000000), wk =   0.1111111
        k(   19) = (  -0.0709260   0.0136497   0.0000000), wk =   0.1111111
        k(   20) = (  -0.0709260  -0.1228474   0.0000000), wk =   0.0555556

     Largest allocated arrays     est. size (Mb)     dimensions
     Largest temporary arrays     est. size (Mb)     dimensions

     Check: negative/imaginary core charge=   -0.000001    0.000000

     Initial potential from superposition of free atoms
     Check: negative starting charge=   -0.522766

     starting charge  151.45608, renormalised to  153.00000

[...]

     *
     * You are using vdW-DF for exchange-correlation in this calculation.
     * Please cite the following three references that made this development
     * possible:
     *
     *   M. Dion, H. Rydberg, E. Schroder, D. C. Langreth, and
     *   B. I. Lundqvist, Phys. Rev. Lett. 92, 246401 (2004).
     *
     *   T. Thonhauser, V. R. Cooper, S. Li, A. Puzder, P. Hyldgaard, and
     *   D. C. Langreth, Phys. Rev. B 76, 125112 (2007).
     *
     *   G. Roman-Perez and J. M. Soler, Phys. Rev. Lett. 103, 096102 (2009).
     *
     *
     * If you are using vdW-DF2, please also cite:
     *
     *   K. Lee, E. D. Murray, L. Kong, B. I. Lundqvist, and
     *   D. C. Langreth, Phys. Rev. B 82, 081101(R) (2010).
     *
     *
     * If you are calculating the stress with vdW-DF, please also cite:
     *
     *   R. Sabatini, E. Kucukbenli, B. Kolb, T. Thonhauser, and
     *   S. de Gironcoli, J. Phys.: Condens. Matter 24, 424209 (2012).
     *

     Carrying out vdW-DF run using the following parameters:

     Nqs =      20    Nr_points =    1024   r_max =   100.000
     q_mesh =
               0.00001000     0.04494208     0.09755937     0.15916263
               0.23128650     0.31572767     0.41458969     0.53033537
               0.66584808     0.82450364     1.01025438     1.22772762
               1.48234092     1.78043706     2.12944203     2.53805004
               3.01644009     3.57652955     4.23227104     5.00000000

     Gradients computed in reciprocal space

[...]

     Starting wfc are  108 randomized atomic wfcs

     Self-consistent Calculation

[...]

     Threshold (ethr) on eigenvalues was too large:
     Diagonalizing with lowered threshold

     Davidson diagonalization with overlap
     ethr =  2.79E-04,  avg # of iterations = 10.2

[...]

     total energy              =   -1669.45427066 Ry
     Harris-Foulkes estimate   =   -1669.45421592 Ry
     estimated scf accuracy    <       0.00000119 Ry

     iteration # 13     ecut=    36.75 Ry     beta=0.10
     Davidson diagonalization with overlap
     ethr =  7.80E-10,  avg # of iterations =  3.1

[...]

     negative rho (up, down):  5.405E-01 0.000E+00

     Adding external electric field

     Computed dipole along edir(3) :
        Dipole                0.0045 Ry au,          0.0113 Debye
        Dipole field          0.0000 Ry au

        Potential amp.       -0.0007 Ry
        Total length         47.4550 bohr

     End of self-consistent calculation

[...]

          k = 0.0473 0.0000 0.0000 ( 28141 PWs)   bands (ev):

[...]

          k =-0.0709-0.1228 0.0000 ( 28194 PWs)   bands (ev):

   -11.6039 -11.5829 -11.5402 -11.5286 -11.5147 -11.4897 -11.4793 -11.4771
   -11.4642 -11.4620 -11.4506 -11.4456 -11.4306 -11.4182 -11.4081 -11.3919
   -11.3898 -11.3892 -11.3865 -11.3773 -11.3746 -11.3730 -11.3708 -11.3686
   -11.3620 -11.3381 -11.3226 -11.3109 -11.3006 -11.2981 -11.2964 -11.2876
   -11.2759 -11.2748 -11.2497 -11.2463 -11.2433 -11.2396 -11.2291 -11.2245
   -11.2123 -11.1937 -11.1468 -11.1377 -11.0699  -8.3302  -8.2788  -8.2694
    -8.2620  -8.2585  -8.2560  -8.2422  -8.2396  -8.2340  -8.2338  -8.2330
    -8.2240  -8.2214  -8.2147  -8.2130  -7.3230  -7.1152  -6.3548  -6.0042
    -5.4252  -5.1846  -4.9426  -4.6274  -3.7323  -2.9723  -2.4076  -1.5382
     0.2025   0.2059   0.5278   0.6508   0.6788   0.7386   1.4242   1.5247
     1.6150   1.9645   2.2417   2.2973   2.8216   2.8777   3.0146   3.3218
     3.4094   3.5037   3.7121   3.8023   4.0561   4.1977   4.3005   4.3285
     4.4165   4.5429   4.5741   4.6213   5.1202   5.1940   5.3745   5.4470
     5.5291   5.6214

     the Fermi energy is     0.4867 ev

!    total energy              =   -1669.45438212 Ry
     Harris-Foulkes estimate   =   -1669.45427102 Ry
     estimated scf accuracy    <       0.00000027 Ry

     The total energy is the sum of the following terms:

     one-electron contribution =   -7430.08456624 Ry
     hartree contribution      =    3797.31928357 Ry
     xc contribution           =    -698.07027996 Ry
     ewald contribution        =    2661.42705759 Ry
     electric field correction =       0.00000003 Ry
     smearing contrib. (-TS)   =      -0.04587710 Ry

     convergence has been achieved in  13 iterations

 BEEF-vdW xc energy contributions
           1 :   -620.140640807381
           2 :    573.758535393658
           3 :   -493.210312206722
           4 :    397.651287349362
           5 :   -305.789627266898
           6 :    229.867730732513
           7 :   -173.397066539816
           8 :    132.863860606921
           9 :   -101.853885752793
          10 :    75.1613924577198
          11 :   -50.9463813691937
          12 :    30.3489001800507
          13 :   -15.4566259109089
          14 :    7.20194963981794
          15 :   -4.46595006775567
          16 :    4.65567945677492
          17 :   -5.10737612963499
          18 :    4.31179633948250
          19 :   -2.29338650331488
          20 :   9.247162499548267E-002
          21 :    1.17236099761772
          22 :   -1.05821702585718
          23 :  -2.028439986179364E-002
          24 :    1.16411406773523
          25 :   -1.59991720409846
          26 :    1.12851245452487
          27 :  -0.183721347743585
          28 :  -0.478029979762823
          29 :   0.237896509477082
          30 :    1.03400379526977
          31 :   -50.7422469950370
          32 :   -36.9427047369606

     Forces acting on atoms (Ry/au):

     negative rho (up, down):  5.405E-01 0.000E+00
     atom    1 type  1   force =     0.00000086    0.00215501   -0.00335498
     atom    2 type  1   force =     0.00184218   -0.00105860   -0.00333403
     atom    3 type  1   force =    -0.00184130   -0.00106175   -0.00333233
     atom    4 type  2   force =     0.00000382   -0.00000407   -0.00038751
     atom    5 type  1   force =    -0.00000226   -0.00053763    0.00136684
     atom    6 type  1   force =    -0.00047466    0.00027019    0.00134100
     atom    7 type  1   force =     0.00047467    0.00027280    0.00133852
     atom    8 type  2   force =     0.00000100   -0.00000568    0.00057416
     atom    9 type  1   force =     0.00000205    0.00027017    0.00189902
     atom   10 type  1   force =     0.00025739   -0.00015190    0.00183922
     atom   11 type  1   force =    -0.00026130   -0.00015280    0.00183792
     atom   12 type  2   force =    -0.00000244    0.00000426    0.00021217

     Total force =     0.008040     Total SCF correction =     0.002062
     SCF correction compared to forces is large: reduce conv_thr to get better values

     entering subroutine stress ...

     negative rho (up, down):  5.405E-01 0.000E+00
          total   stress  (Ry/bohr**3)                   (kbar)     P=   -6.13
  -0.00005057  -0.00000000   0.00000000         -7.44     -0.00      0.00
  -0.00000000  -0.00005056  -0.00000000         -0.00     -7.44     -0.00
   0.00000000  -0.00000000  -0.00002382          0.00     -0.00     -3.50

 !ASE

     Writing output data file calc.save

     General routines

     Parallel routines

   This run was terminated on:   1: 4:34   2Jan2019

   JOB DONE.
Job  /afs/slac/g/suncat/bin/suncat-tsmpirun -x LD_LIBRARY_PATH -wdir /scratch/qe649238_zUsMu pw.x -in pw.inp

TID   HOST_NAME   COMMAND_LINE            STATUS            TERMINATION_TIME
00000 suncat0068 pw.x -in pw.inp   Done                     01/02/2019 01:04:34
00001 suncat0068 pw.x -in pw.inp   Done                     01/02/2019 01:04:34
00002 suncat0068 pw.x -in pw.inp   Done                     01/02/2019 01:04:34
00003 suncat0068 pw.x -in pw.inp   Done                     01/02/2019 01:04:34
00004 suncat0068 pw.x -in pw.inp   Done                     01/02/2019 01:04:34
00005 suncat0068 pw.x -in pw.inp   Done                     01/02/2019 01:04:34
00006 suncat0068 pw.x -in pw.inp   Done                     01/02/2019 01:04:34
00007 suncat0068 pw.x -in pw.inp   Done                     01/02/2019 01:04:34
00008 suncat0065 pw.x -in pw.inp   Done                     01/02/2019 01:04:34
00009 suncat0065 pw.x -in pw.inp   Done                     01/02/2019 01:04:34
00010 suncat0065 pw.x -in pw.inp   Done                     01/02/2019 01:04:34
00011 suncat0065 pw.x -in pw.inp   Done                     01/02/2019 01:04:34
00012 suncat0065 pw.x -in pw.inp   Done                     01/02/2019 01:04:34
00013 suncat0065 pw.x -in pw.inp   Done                     01/02/2019 01:04:34
00014 suncat0065 pw.x -in pw.inp   Done                     01/02/2019 01:04:34
00015 suncat0065 pw.x -in pw.inp   Done                     01/02/2019 01:04:34
00016 suncat0064 pw.x -in pw.inp   Done                     01/02/2019 01:04:34
00017 suncat0064 pw.x -in pw.inp   Done                     01/02/2019 01:04:34
00018 suncat0064 pw.x -in pw.inp   Done                     01/02/2019 01:04:34
00019 suncat0064 pw.x -in pw.inp   Done                     01/02/2019 01:04:34
00020 suncat0064 pw.x -in pw.inp   Done                     01/02/2019 01:04:34
00021 suncat0064 pw.x -in pw.inp   Done                     01/02/2019 01:04:34
00022 suncat0064 pw.x -in pw.inp   Done                     01/02/2019 01:04:34
00023 suncat0064 pw.x -in pw.inp   Done                     01/02/2019 01:04:34
00024 suncat0059 pw.x -in pw.inp   Done                     01/02/2019 01:04:34
00025 suncat0059 pw.x -in pw.inp   Done                     01/02/2019 01:04:34
00026 suncat0059 pw.x -in pw.inp   Done                     01/02/2019 01:04:34
00027 suncat0059 pw.x -in pw.inp   Done                     01/02/2019 01:04:34
00028 suncat0059 pw.x -in pw.inp   Done                     01/02/2019 01:04:34
00029 suncat0059 pw.x -in pw.inp   Done                     01/02/2019 01:04:34
00030 suncat0059 pw.x -in pw.inp   Done                     01/02/2019 01:04:34
00031 suncat0059 pw.x -in pw.inp   Done                     01/02/2019 01:04:34
00032 suncat0169 pw.x -in pw.inp   Done                     01/02/2019 01:04:34
00033 suncat0169 pw.x -in pw.inp   Done                     01/02/2019 01:04:34
00034 suncat0169 pw.x -in pw.inp   Done                     01/02/2019 01:04:34
00035 suncat0169 pw.x -in pw.inp   Done                     01/02/2019 01:04:34
00036 suncat0169 pw.x -in pw.inp   Done                     01/02/2019 01:04:34
00037 suncat0169 pw.x -in pw.inp   Done                     01/02/2019 01:04:34
00038 suncat0169 pw.x -in pw.inp   Done                     01/02/2019 01:04:34
00039 suncat0169 pw.x -in pw.inp   Done                     01/02/2019 01:04:34
00040 suncat0168 pw.x -in pw.inp   Done                     01/02/2019 01:04:34
00041 suncat0168 pw.x -in pw.inp   Done                     01/02/2019 01:04:34
00042 suncat0168 pw.x -in pw.inp   Done                     01/02/2019 01:04:34
00043 suncat0168 pw.x -in pw.inp   Done                     01/02/2019 01:04:34
00044 suncat0168 pw.x -in pw.inp   Done                     01/02/2019 01:04:34
00045 suncat0168 pw.x -in pw.inp   Done                     01/02/2019 01:04:34
00046 suncat0168 pw.x -in pw.inp   Done                     01/02/2019 01:04:34
00047 suncat0168 pw.x -in pw.inp   Done                     01/02/2019 01:04:34
00048 suncat0156 pw.x -in pw.inp   Done                     01/02/2019 01:04:34
00049 suncat0156 pw.x -in pw.inp   Done                     01/02/2019 01:04:34
00050 suncat0156 pw.x -in pw.inp   Done                     01/02/2019 01:04:34
00051 suncat0156 pw.x -in pw.inp   Done                     01/02/2019 01:04:34
00052 suncat0156 pw.x -in pw.inp   Done                     01/02/2019 01:04:34
00053 suncat0156 pw.x -in pw.inp   Done                     01/02/2019 01:04:34
00054 suncat0156 pw.x -in pw.inp   Done                     01/02/2019 01:04:34
00055 suncat0156 pw.x -in pw.inp   Done                     01/02/2019 01:04:34
00056 suncat0153 pw.x -in pw.inp   Done                     01/02/2019 01:04:34
00057 suncat0153 pw.x -in pw.inp   Done                     01/02/2019 01:04:34
00058 suncat0153 pw.x -in pw.inp   Done                     01/02/2019 01:04:34
00059 suncat0153 pw.x -in pw.inp   Done                     01/02/2019 01:04:34
00060 suncat0153 pw.x -in pw.inp   Done                     01/02/2019 01:04:34
00061 suncat0153 pw.x -in pw.inp   Done                     01/02/2019 01:04:34
00062 suncat0153 pw.x -in pw.inp   Done                     01/02/2019 01:04:34
00063 suncat0153 pw.x -in pw.inp   Done                     01/02/2019 01:04:34