     Program PWSCF v.5.1rc2 (svn rev. 11289) starts on 30Dec2018 at 21:29: 8

     Current dimensions of program PWSCF are:
     Max number of different atomic species (ntypx) = 10
     Max number of k-points (npk) =  40000
     Max angular momentum in pseudopotentials (lmaxx) =  3
     Presently stress not available with electric field

     IMPORTANT: XC functional enforced from input :
     Exchange-correlation      = BEEF-VDW ( 1  4 27 13 2)
     Any further DFT definition will be discarded
     Please, verify this is what you really want

     Subspace diagonalization in iterative solution of the eigenvalue problem:
     a serial algorithm will be used

     bravais-lattice index     =            0
     lattice parameter (alat)  =       1.8897  a.u.
     unit-cell volume          =    5794.2565 (a.u.)^3
     number of atoms/cell      =           12
     number of atomic types    =            2
     number of electrons       =       150.00
     number of Kohn-Sham states=          105
     kinetic-energy cutoff     =      36.7493  Ry
     charge density cutoff     =     367.4932  Ry
     convergence threshold     =      1.0E-06
     mixing beta               =       0.1000
     number of iterations used =           10  plain     mixing
     Exchange-correlation      = BEEF-VDW ( 1  4 27 13 2)
     nstep                     =           50

     celldm(1)=   1.889726  celldm(2)=   0.000000  celldm(3)=   0.000000
     celldm(4)=   0.000000  celldm(5)=   0.000000  celldm(6)=   0.000000

     crystal axes: (cart. coord. in units of alat)
               a(1) = (   6.281314   0.000000   0.000000 )
               a(2) = (  -3.140657   5.439777   0.000000 )
               a(3) = (   0.000000   0.000000  25.128671 )

     reciprocal axes: (cart. coord. in units 2 pi/alat)
               b(1) = (  0.159202  0.091916  0.000000 )
               b(2) = (  0.000000  0.183831  0.000000 )
               b(3) = (  0.000000  0.000000  0.039795 )

     PseudoPot. # 1 for Nb read from file:
     /afs/slac.stanford.edu/u/if/mamunm/psp/gbrv1.5pbe/Nb.UPF
     MD5 check sum: 573aab8a2fa660278ed4a62cd769473f
     Pseudo is Ultrasoft + core correction, Zval = 13.0
     Generated by new atomic code, or converted to UPF format
     Using radial grid of  887 points,  6 beta functions with:
                l(1) =   0
                l(2) =   0
                l(3) =   1
                l(4) =   1
                l(5) =   2
                l(6) =   2
     Q(r) pseudized with  6 coefficients,  rinner =    1.000   1.000   1.000
                                                       1.000   1.000

     PseudoPot. # 2 for La read from file:
     /afs/slac.stanford.edu/u/if/mamunm/psp/gbrv1.5pbe/La.UPF
     MD5 check sum: 5937b0c7494ba0601a847275249473aa
     Pseudo is Ultrasoft + core correction, Zval = 11.0
     Generated by new atomic code, or converted to UPF format
     Using radial grid of  995 points,  8 beta functions with:
                l(1) =   0
                l(2) =   0
                l(3) =   1
                l(4) =   1
                l(5) =   2
                l(6) =   2
                l(7) =   3
                l(8) =   3
     Q(r) pseudized with  8 coefficients,  rinner =    1.700   1.700   1.700
                                                       1.700   1.700   1.700
                                                       1.700

     vdW kernel table read from file vdW_kernel_table
     MD5 check sum: 095c7af220d748ca6e76c0b4c6cfb241

     atomic species   valence    mass     pseudopotential
        Nb1           13.00    92.90637     Nb( 1.00)
        La1           11.00   138.90547     La( 1.00)

     No symmetry found

   Cartesian axes

     site n.     atom                  positions (alat units)
         1           Nb1 tau(   1) = (   0.0000000   0.0000000  10.0000000  )
         2           Nb1 tau(   2) = (  -1.5703284   2.7198886  10.0000000  )
         3           Nb1 tau(   3) = (   1.5703284   2.7198886  10.0000000  )
         4           La1 tau(   4) = (   3.1406568   0.0000000  10.0000000  )
         5           Nb1 tau(   5) = (   3.1406568   1.8132591  12.5643356  )
         6           Nb1 tau(   6) = (   1.5703284   4.5331477  12.5643356  )
         7           Nb1 tau(   7) = (  -1.5703284   4.5331477  12.5643356  )
         8           La1 tau(   8) = (   0.0000000   1.8132591  12.5643356  )
         9           Nb1 tau(   9) = (  -0.0000000   3.6265181  15.1286711  )
        10           Nb1 tau(  10) = (   1.5703284   0.9066295  15.1286711  )
        11           Nb1 tau(  11) = (   4.7109852   0.9066295  15.1286711  )
        12           La1 tau(  12) = (   3.1406568   3.6265181  15.1286711  )

     number of k points=    20  Fermi-Dirac smearing, width (Ry)=  0.0110
                       cart. coord. in units 2pi/alat
        k(    1) = (   0.0000000   0.0000000   0.0000000), wk =   0.0555556
        k(    2) = (   0.0000000   0.0306385   0.0000000), wk =   0.1111111
        k(    3) = (   0.0000000   0.0612770   0.0000000), wk =   0.1111111
        k(    4) = (   0.0000000  -0.0919155   0.0000000), wk =   0.0555556
        k(    5) = (   0.0265337   0.0153193   0.0000000), wk =   0.1111111
        k(    6) = (   0.0265337   0.0459578   0.0000000), wk =   0.1111111
        k(    7) = (   0.0265337   0.0765963   0.0000000), wk =   0.1111111
        k(    8) = (   0.0265337  -0.0765963   0.0000000), wk =   0.1111111
        k(    9) = (   0.0265337  -0.0459578   0.0000000), wk =   0.1111111
        k(   10) = (   0.0265337  -0.0153193   0.0000000), wk =   0.1111111
        k(   11) = (   0.0530675   0.0306385   0.0000000), wk =   0.1111111
        k(   12) = (   0.0530675   0.0612770   0.0000000), wk =   0.1111111
        k(   13) = (   0.0530675   0.0919155   0.0000000), wk =   0.1111111
        k(   14) = (   0.0530675  -0.0612770   0.0000000), wk =   0.1111111
        k(   15) = (   0.0530675  -0.0306385   0.0000000), wk =   0.1111111
        k(   16) = (   0.0530675   0.0000000   0.0000000), wk =   0.1111111
        k(   17) = (  -0.0796012  -0.0459578   0.0000000), wk =   0.0555556
        k(   18) = (  -0.0796012  -0.0153193   0.0000000), wk =   0.1111111
        k(   19) = (  -0.0796012   0.0153193   0.0000000), wk =   0.1111111
        k(   20) = (  -0.0796012  -0.1378733   0.0000000), wk =   0.0555556

     Largest allocated arrays     est. size (Mb)     dimensions
     Largest temporary arrays     est. size (Mb)     dimensions

     Initial potential from superposition of free atoms
     Check: negative starting charge=   -0.212535

     starting charge  149.87920, renormalised to  150.00000

     negative rho (up, down):  2.127E-01 0.000E+00

     *
     * You are using vdW-DF for exchange-correlation in this calculation.
     * Please cite the following three references that made this development
     * possible:
     *
     *   M. Dion, H. Rydberg, E. Schroder, D. C. Langreth, and
     *   B. I. Lundqvist, Phys. Rev. Lett. 92, 246401 (2004).
     *
     *   T. Thonhauser, V. R. Cooper, S. Li, A. Puzder, P. Hyldgaard, and
     *   D. C. Langreth, Phys. Rev. B 76, 125112 (2007).
     *
     *   G. Roman-Perez and J. M. Soler, Phys. Rev. Lett. 103, 096102 (2009).
     *
     *
     * If you are using vdW-DF2, please also cite:
     *
     *   K. Lee, E. D. Murray, L. Kong, B. I. Lundqvist, and
     *   D. C. Langreth, Phys. Rev. B 82, 081101(R) (2010).
     *
     *
     * If you are calculating the stress with vdW-DF, please also cite:
     *
     *   R. Sabatini, E. Kucukbenli, B. Kolb, T. Thonhauser, and
     *   S. de Gironcoli, J. Phys.: Condens. Matter 24, 424209 (2012).
     *

     Carrying out vdW-DF run using the following parameters:

     Nqs =      20    Nr_points =    1024   r_max =   100.000
     q_mesh =
               0.00001000     0.04494208     0.09755937     0.15916263
               0.23128650     0.31572767     0.41458969     0.53033537
               0.66584808     0.82450364     1.01025438     1.22772762
               1.48234092     1.78043706     2.12944203     2.53805004
               3.01644009     3.57652955     4.23227104     5.00000000

     Gradients computed in reciprocal space

     Adding external electric field

     Computed dipole along edir(3) :
        Dipole                0.0000 Ry au,          0.0000 Debye
        Dipole field          0.0000 Ry au

        Potential amp.       -0.0000 Ry
        Total length         46.2991 bohr

     Starting wfc are  177 randomized atomic wfcs

     Self-consistent Calculation

     iteration #  1     ecut=    36.75 Ry     beta=0.10
     Davidson diagonalization with overlap
     ethr =  1.00E-02,  avg # of iterations =  2.0

[...]

     total energy              =   -1375.19399912 Ry
     Harris-Foulkes estimate   =   -1379.65899793 Ry
     estimated scf accuracy    <      24.65114455 Ry

[...]

     iteration # 13     ecut=    36.75 Ry     beta=0.10
     Davidson diagonalization with overlap
     c_bands:  1 eigenvalues not converged
     ethr =  2.81E-06,  avg # of iterations =  7.8

[...]

     End of self-consistent calculation

          k = 0.0000 0.0000 0.0000 ( 21859 PWs)   bands (ev):

   -53.2874 -53.2757 -53.2295 -53.2294 -53.2285 -53.2261 -53.2261 -53.1873
   -53.1867 -30.2682 -30.2123 -29.9067 -29.5405 -29.4690 -29.4607 -29.4605
   -29.4477 -29.4476 -29.4439 -29.4003 -29.4003 -29.3911 -29.2691 -29.2691
   -29.2510 -29.2401 -29.2401 -29.2080 -29.1580 -29.0931 -29.0909 -29.0907
   -29.0690 -29.0093 -29.0093 -29.0057 -29.0057 -28.9944 -28.9942 -14.0064
   -13.9841 -13.9841 -13.9666 -13.9666 -13.9308 -13.7039 -13.6201 -13.6200
    -2.5959  -1.5370  -1.3302  -1.2254  -1.2254  -1.0265  -1.0265  -0.6062
    -0.5092  -0.5092  -0.4252  -0.4252  -0.3397   0.0545   0.1198   0.6396
     0.6397   0.7229   1.4141   1.4142   1.5323   1.7110   1.8688   2.1186
     2.2455   2.3588   2.3588   2.4656   2.4656   2.4711   2.4711   2.6125
     2.6125   2.6602   2.8077   2.8078   3.2781   3.3126   3.6287   3.6498
     3.6499   3.6645   3.6646   4.0586   4.0683   4.0683   4.3087   4.3087
     4.6071   4.6658   4.6660   4.8309   4.8503   4.8678   4.8679   4.8720
     4.9754

[...]

          k =-0.0796-0.0460 0.0000 ( 21764 PWs)   bands (ev):

[...]

     the Fermi energy is     1.9762 ev

!    total energy              =   -1378.26933978 Ry
     Harris-Foulkes estimate   =   -1378.26933972 Ry
     estimated scf accuracy    <       0.00000030 Ry

     The total energy is the sum of the following terms:

     one-electron contribution =   -9317.00491615 Ry
     hartree contribution      =    4656.30868087 Ry
     xc contribution           =    -323.58245173 Ry
     ewald contribution        =    3606.12889751 Ry
     electric field correction =       0.00000001 Ry
     smearing contrib. (-TS)   =      -0.11955028 Ry

     convergence has been achieved in  24 iterations

 BEEF-vdW xc energy contributions
           1 :   -281.900916926060
           2 :    257.894704746469
           3 :   -216.173323963449
           4 :    166.764179797772
           5 :   -119.840026963229
           6 :    82.5819993705759
           7 :   -57.6758387898403
           8 :    43.6572477325030
[...]
     /afs/slac.stanford.edu/u/if/mamunm/psp/gbrv1.5pbe/Nb.UPF
     MD5 check sum: 573aab8a2fa660278ed4a62cd769473f
     Pseudo is Ultrasoft + core correction, Zval = 13.0
     Generated by new atomic code, or converted to UPF format
     Using radial grid of  887 points,  6 beta functions with:
                l(1) =   0
                l(2) =   0
                l(3) =   1
                l(4) =   1
                l(5) =   2
                l(6) =   2
     Q(r) pseudized with  6 coefficients,  rinner =    1.000   1.000   1.000
                                                       1.000   1.000

     PseudoPot. # 2 for La read from file:
     /afs/slac.stanford.edu/u/if/mamunm/psp/gbrv1.5pbe/La.UPF
     MD5 check sum: 5937b0c7494ba0601a847275249473aa
     Pseudo is Ultrasoft + core correction, Zval = 11.0
     Generated by new atomic code, or converted to UPF format
     Using radial grid of  995 points,  8 beta functions with:
                l(1) =   0
                l(2) =   0
                l(3) =   1
                l(4) =   1
                l(5) =   2
                l(6) =   2
                l(7) =   3
                l(8) =   3
     Q(r) pseudized with  8 coefficients,  rinner =    1.700   1.700   1.700
                                                       1.700   1.700   1.700
                                                       1.700

     vdW kernel table read from file vdW_kernel_table
     MD5 check sum: 095c7af220d748ca6e76c0b4c6cfb241

     atomic species   valence    mass     pseudopotential
        Nb1           13.00    92.90637     Nb( 1.00)
        La1           11.00   138.90547     La( 1.00)

     No symmetry found

   Cartesian axes

     site n.     atom                  positions (alat units)
         1           Nb1 tau(   1) = (   0.0000000   0.0000000  10.0000000  )
         2           Nb1 tau(   2) = (  -1.5703284   2.7198886  10.0000000  )
         3           Nb1 tau(   3) = (   1.5703284   2.7198886  10.0000000  )
         4           La1 tau(   4) = (   3.1406568   0.0000000  10.0000000  )
         5           Nb1 tau(   5) = (   3.1406568   1.8132591  12.5643356  )
         6           Nb1 tau(   6) = (   1.5703284   4.5331477  12.5643356  )
         7           Nb1 tau(   7) = (  -1.5703284   4.5331477  12.5643356  )
         8           La1 tau(   8) = (   0.0000000   1.8132591  12.5643356  )
         9           Nb1 tau(   9) = (  -0.0000009   3.8776180  14.8693857  )
        10           Nb1 tau(  10) = (   1.7878831   0.7813544  14.8692826  )
        11           Nb1 tau(  11) = (   4.4934477   0.7813565  14.8692818  )
        12           La1 tau(  12) = (   3.1406605   3.6264096  15.6696591  )

     number of k points=    20  Fermi-Dirac smearing, width (Ry)=  0.0110
                       cart. coord. in units 2pi/alat
        k(    1) = (   0.0000000   0.0000000   0.0000000), wk =   0.0555556
        k(    2) = (   0.0000000   0.0306385   0.0000000), wk =   0.1111111
        k(    3) = (   0.0000000   0.0612770   0.0000000), wk =   0.1111111
        k(    4) = (   0.0000000  -0.0919155   0.0000000), wk =   0.0555556
        k(    5) = (   0.0265337   0.0153193   0.0000000), wk =   0.1111111
        k(    6) = (   0.0265337   0.0459578   0.0000000), wk =   0.1111111
        k(    7) = (   0.0265337   0.0765963   0.0000000), wk =   0.1111111
        k(    8) = (   0.0265337  -0.0765963   0.0000000), wk =   0.1111111
        k(    9) = (   0.0265337  -0.0459578   0.0000000), wk =   0.1111111
        k(   10) = (   0.0265337  -0.0153193   0.0000000), wk =   0.1111111
        k(   11) = (   0.0530675   0.0306385   0.0000000), wk =   0.1111111
        k(   12) = (   0.0530675   0.0612770   0.0000000), wk =   0.1111111
        k(   13) = (   0.0530675   0.0919155   0.0000000), wk =   0.1111111
        k(   14) = (   0.0530675  -0.0612770   0.0000000), wk =   0.1111111
        k(   15) = (   0.0530675  -0.0306385   0.0000000), wk =   0.1111111
        k(   16) = (   0.0530675   0.0000000   0.0000000), wk =   0.1111111
        k(   17) = (  -0.0796012  -0.0459578   0.0000000), wk =   0.0555556
        k(   18) = (  -0.0796012  -0.0153193   0.0000000), wk =   0.1111111
        k(   19) = (  -0.0796012   0.0153193   0.0000000), wk =   0.1111111
        k(   20) = (  -0.0796012  -0.1378733   0.0000000), wk =   0.0555556

     Largest allocated arrays     est. size (Mb)     dimensions
     Largest temporary arrays     est. size (Mb)     dimensions

     Initial potential from superposition of free atoms
     Check: negative starting charge=   -0.213169

     starting charge  149.87920, renormalised to  150.00000

[...]

     *
     * You are using vdW-DF for exchange-correlation in this calculation.
     * Please cite the following three references that made this development
     * possible:
     *
     *   M. Dion, H. Rydberg, E. Schroder, D. C. Langreth, and
     *   B. I. Lundqvist, Phys. Rev. Lett. 92, 246401 (2004).
     *
     *   T. Thonhauser, V. R. Cooper, S. Li, A. Puzder, P. Hyldgaard, and
     *   D. C. Langreth, Phys. Rev. B 76, 125112 (2007).
     *
     *   G. Roman-Perez and J. M. Soler, Phys. Rev. Lett. 103, 096102 (2009).
     *
     *
     * If you are using vdW-DF2, please also cite:
     *
     *   K. Lee, E. D. Murray, L. Kong, B. I. Lundqvist, and
     *   D. C. Langreth, Phys. Rev. B 82, 081101(R) (2010).
     *
     *
     * If you are calculating the stress with vdW-DF, please also cite:
     *
     *   R. Sabatini, E. Kucukbenli, B. Kolb, T. Thonhauser, and
     *   S. de Gironcoli, J. Phys.: Condens. Matter 24, 424209 (2012).
     *

     Carrying out vdW-DF run using the following parameters:

     Nqs =      20    Nr_points =    1024   r_max =   100.000
     q_mesh =
               0.00001000     0.04494208     0.09755937     0.15916263
               0.23128650     0.31572767     0.41458969     0.53033537
               0.66584808     0.82450364     1.01025438     1.22772762
               1.48234092     1.78043706     2.12944203     2.53805004
               3.01644009     3.57652955     4.23227104     5.00000000

     Gradients computed in reciprocal space

[...]

     Starting wfc are  177 randomized atomic wfcs

     Self-consistent Calculation

[...]

     total energy              =   -1378.39299188 Ry
     Harris-Foulkes estimate   =   -1378.39299177 Ry
     estimated scf accuracy    <       0.00000137 Ry

     iteration # 20     ecut=    36.75 Ry     beta=0.10
     Davidson diagonalization with overlap
     ethr =  9.14E-10,  avg # of iterations =  2.5

[...]

     negative rho (up, down):  1.272E-01 0.000E+00

     Adding external electric field

     Computed dipole along edir(3) :
        Dipole                0.2944 Ry au,          0.7484 Debye
        Dipole field          0.0006 Ry au

        Potential amp.       -0.0591 Ry
        Total length         46.2991 bohr

     End of self-consistent calculation

[...]

          k = 0.0531 0.0000 0.0000 ( 21845 PWs)   bands (ev):

[...]

          k =-0.0796-0.1379 0.0000 ( 21764 PWs)   bands (ev):

   -52.9638 -52.9473 -52.9294 -52.8871 -52.8572 -52.8384 -52.7558 -52.6406
   -52.6362 -30.7464 -30.0431 -29.8131 -29.3407 -29.1854 -29.1395 -29.1291
   -29.0766 -29.0550 -29.0198 -29.0031 -28.9819 -28.9775 -28.9666 -28.9458
   -28.9414 -28.9078 -28.8762 -28.8581 -28.8388 -28.7411 -28.7279 -28.7255
   -28.6634 -28.5596 -28.5374 -28.5352 -28.4675 -28.3916 -28.3600 -14.4038
   -14.3800 -14.3684 -13.8351 -13.7537 -13.7214 -13.5737 -13.5453 -13.5000
    -1.1118  -0.9040  -0.2665  -0.1766   0.0469   0.0711   0.0928   0.1226
     0.3217   0.3505   0.4432   0.5637   0.6754   0.9229   0.9529   1.0260
     1.1160   1.3074   1.3540   1.4451   1.4860   1.5542   1.7519   1.7733
     1.8200   1.9174   1.9694   2.1990   2.2685   2.3874   2.5330   2.5560
     2.5993   2.7051   2.8538   2.9206   3.0555   3.1019   3.1840   3.2007
     3.3699   3.5642   3.6092   3.6715   3.6975   3.8167   3.8655   3.9555
     4.1216   4.1771   4.2292   4.2553   4.3093   4.3410   4.3864   4.4871
     4.4878

     the Fermi energy is     2.2551 ev

!    total energy              =   -1378.39299286 Ry
     Harris-Foulkes estimate   =   -1378.39299794 Ry
     estimated scf accuracy    <       0.00000071 Ry

     The total energy is the sum of the following terms:

     one-electron contribution =   -9428.81774864 Ry
     hartree contribution      =    4713.67228619 Ry
     xc contribution           =    -323.78865838 Ry
     ewald contribution        =    3660.64174287 Ry
     electric field correction =       0.00018800 Ry
     smearing contrib. (-TS)   =      -0.10080291 Ry

     convergence has been achieved in  20 iterations

 BEEF-vdW xc energy contributions
           1 :   -282.128211480670
           2 :    258.171658551201
           3 :   -216.521446654248
           4 :    167.141924631204
           5 :   -120.135036241372
           6 :    82.6625436454465
           7 :   -57.4710462554804
           8 :    43.2020531955108
           9 :   -36.0305105372589
          10 :    31.7108087139841
          11 :   -27.1646483193152
          12 :    21.1008801252685
          13 :   -13.7323906623596
          14 :    6.00752139124768
          15 :    1.12880028401082
          16 :   -7.13569010086985
          17 :    11.8810715499785
          18 :   -15.4225632204362
          19 :    17.7847912610424
          20 :   -18.8974638613775
          21 :    18.7023715710554
          22 :   -17.3261194843109
          23 :    15.1647422737550
          24 :   -12.8023163724703
          25 :    10.7922757135140
          26 :   -9.43043422040449
          27 :    8.65042785685898
          28 :   -8.10608847600639
          29 :    7.38911650070048
          30 :   -6.26125271281876
          31 :   -28.3581444195776
          32 :   -21.0157122873195

     Forces acting on atoms (Ry/au):

     negative rho (up, down):  1.272E-01 0.000E+00
     atom    1 type  1   force =    -0.00000007   -0.03501160    0.02931769
     atom    2 type  1   force =    -0.03032118    0.01750978    0.02930754
     atom    3 type  1   force =     0.03032170    0.01751034    0.02930769
     atom    4 type  2   force =     0.00000111   -0.00001120   -0.06687011
     atom    5 type  1   force =     0.00000295    0.03760484   -0.00801258
     atom    6 type  1   force =     0.03257287   -0.01881060   -0.00795826
     atom    7 type  1   force =    -0.03257268   -0.01881319   -0.00796085
     atom    8 type  2   force =    -0.00000525   -0.00000531    0.00322998
     atom    9 type  1   force =     0.00000151    0.00095103   -0.00016034
     atom   10 type  1   force =     0.00080275   -0.00049272   -0.00014595
     atom   11 type  1   force =    -0.00080306   -0.00049283   -0.00014679
     atom   12 type  2   force =    -0.00000064    0.00006145    0.00009201

     Total force =     0.123186     Total SCF correction =     0.004716

     entering subroutine stress ...

     negative rho (up, down):  1.272E-01 0.000E+00
          total   stress  (Ry/bohr**3)                   (kbar)     P=   -9.47
  -0.00008649  -0.00000000  -0.00000000        -12.72     -0.00     -0.00
  -0.00000000  -0.00008650   0.00000001         -0.00    -12.73      0.00
  -0.00000000   0.00000001  -0.00002009         -0.00      0.00     -2.95

 !ASE

     Writing output data file calc.save

     General routines

     Parallel routines

   This run was terminated on:   1:55:13  31Dec2018

   JOB DONE.
Job  /afs/slac/g/suncat/bin/suncat-tsmpirun -x LD_LIBRARY_PATH -wdir /scratch/qe648638_qbtwM pw.x -in pw.inp

TID   HOST_NAME   COMMAND_LINE            STATUS            TERMINATION_TIME
00000 suncat0028 pw.x -in pw.inp   Done                     12/31/2018 01:55:13
00001 suncat0028 pw.x -in pw.inp   Done                     12/31/2018 01:55:13
00002 suncat0028 pw.x -in pw.inp   Done                     12/31/2018 01:55:13
00003 suncat0028 pw.x -in pw.inp   Done                     12/31/2018 01:55:13
00004 suncat0028 pw.x -in pw.inp   Done                     12/31/2018 01:55:13
00005 suncat0028 pw.x -in pw.inp   Done                     12/31/2018 01:55:13
00006 suncat0028 pw.x -in pw.inp   Done                     12/31/2018 01:55:13
00007 suncat0028 pw.x -in pw.inp   Done                     12/31/2018 01:55:13
00008 suncat0027 pw.x -in pw.inp   Done                     12/31/2018 01:55:13
00009 suncat0027 pw.x -in pw.inp   Done                     12/31/2018 01:55:13
00010 suncat0027 pw.x -in pw.inp   Done                     12/31/2018 01:55:13
00011 suncat0027 pw.x -in pw.inp   Done                     12/31/2018 01:55:13
00012 suncat0027 pw.x -in pw.inp   Done                     12/31/2018 01:55:13
00013 suncat0027 pw.x -in pw.inp   Done                     12/31/2018 01:55:13
00014 suncat0027 pw.x -in pw.inp   Done                     12/31/2018 01:55:13
00015 suncat0027 pw.x -in pw.inp   Done                     12/31/2018 01:55:13
00016 suncat0026 pw.x -in pw.inp   Done                     12/31/2018 01:55:13
00017 suncat0026 pw.x -in pw.inp   Done                     12/31/2018 01:55:13
00018 suncat0026 pw.x -in pw.inp   Done                     12/31/2018 01:55:13
00019 suncat0026 pw.x -in pw.inp   Done                     12/31/2018 01:55:13
00020 suncat0026 pw.x -in pw.inp   Done                     12/31/2018 01:55:13
00021 suncat0026 pw.x -in pw.inp   Done                     12/31/2018 01:55:13
00022 suncat0026 pw.x -in pw.inp   Done                     12/31/2018 01:55:13
00023 suncat0026 pw.x -in pw.inp   Done                     12/31/2018 01:55:13
00024 suncat0021 pw.x -in pw.inp   Done                     12/31/2018 01:55:13
00025 suncat0021 pw.x -in pw.inp   Done                     12/31/2018 01:55:13
00026 suncat0021 pw.x -in pw.inp   Done                     12/31/2018 01:55:13
00027 suncat0021 pw.x -in pw.inp   Done                     12/31/2018 01:55:13
00028 suncat0021 pw.x -in pw.inp   Done                     12/31/2018 01:55:13
00029 suncat0021 pw.x -in pw.inp   Done                     12/31/2018 01:55:13
00030 suncat0021 pw.x -in pw.inp   Done                     12/31/2018 01:55:13
00031 suncat0021 pw.x -in pw.inp   Done                     12/31/2018 01:55:13
00032 suncat0010 pw.x -in pw.inp   Done                     12/31/2018 01:55:13
00033 suncat0010 pw.x -in pw.inp   Done                     12/31/2018 01:55:13
00034 suncat0010 pw.x -in pw.inp   Done                     12/31/2018 01:55:13
00035 suncat0010 pw.x -in pw.inp   Done                     12/31/2018 01:55:13
00036 suncat0010 pw.x -in pw.inp   Done                     12/31/2018 01:55:13
00037 suncat0010 pw.x -in pw.inp   Done                     12/31/2018 01:55:13
00038 suncat0010 pw.x -in pw.inp   Done                     12/31/2018 01:55:13
00039 suncat0010 pw.x -in pw.inp   Done                     12/31/2018 01:55:13
00040 suncat0191 pw.x -in pw.inp   Done                     12/31/2018 01:55:13
00041 suncat0191 pw.x -in pw.inp   Done                     12/31/2018 01:55:13
00042 suncat0191 pw.x -in pw.inp   Done                     12/31/2018 01:55:13
00043 suncat0191 pw.x -in pw.inp   Done                     12/31/2018 01:55:13
00044 suncat0191 pw.x -in pw.inp   Done                     12/31/2018 01:55:13
00045 suncat0191 pw.x -in pw.inp   Done                     12/31/2018 01:55:13
00046 suncat0191 pw.x -in pw.inp   Done                     12/31/2018 01:55:13
00047 suncat0191 pw.x -in pw.inp   Done                     12/31/2018 01:55:13
00048 suncat0007 pw.x -in pw.inp   Done                     12/31/2018 01:55:13
00049 suncat0007 pw.x -in pw.inp   Done                     12/31/2018 01:55:13
00050 suncat0007 pw.x -in pw.inp   Done                     12/31/2018 01:55:13
00051 suncat0007 pw.x -in pw.inp   Done                     12/31/2018 01:55:13
00052 suncat0007 pw.x -in pw.inp   Done                     12/31/2018 01:55:13
00053 suncat0007 pw.x -in pw.inp   Done                     12/31/2018 01:55:13
00054 suncat0007 pw.x -in pw.inp   Done                     12/31/2018 01:55:13
00055 suncat0007 pw.x -in pw.inp   Done                     12/31/2018 01:55:13
00056 suncat0100 pw.x -in pw.inp   Done                     12/31/2018 01:55:13
00057 suncat0100 pw.x -in pw.inp   Done                     12/31/2018 01:55:13
00058 suncat0100 pw.x -in pw.inp   Done                     12/31/2018 01:55:13
00059 suncat0100 pw.x -in pw.inp   Done                     12/31/2018 01:55:13
00060 suncat0100 pw.x -in pw.inp   Done                     12/31/2018 01:55:13
00061 suncat0100 pw.x -in pw.inp   Done                     12/31/2018 01:55:13
00062 suncat0100 pw.x -in pw.inp   Done                     12/31/2018 01:55:13
00063 suncat0100 pw.x -in pw.inp   Done                     12/31/2018 01:55:13