     Program PWSCF v.5.1rc2 (svn rev. 11289) starts on 27Dec2018 at  8:27: 4

     Current dimensions of program PWSCF are:
     Max number of different atomic species (ntypx) = 10
     Max number of k-points (npk) =  40000
     Max angular momentum in pseudopotentials (lmaxx) =  3
     Presently stress not available with electric field

     IMPORTANT: XC functional enforced from input :
     Exchange-correlation      = BEEF-VDW ( 1  4 27 13 2)
     Any further DFT definition will be discarded
     Please, verify this is what you really want

     Subspace diagonalization in iterative solution of the eigenvalue problem:
     a serial algorithm will be used

     Generating pointlists ...
     new r_m :   0.4125 (alat units)  0.7795 (a.u.) for type    1
     new r_m :   0.4125 (alat units)  0.7795 (a.u.) for type    2

     bravais-lattice index     =            0
     lattice parameter (alat)  =       1.8897  a.u.
     unit-cell volume          =    3809.4980 (a.u.)^3
     number of atoms/cell      =           12
     number of atomic types    =            2
     number of electrons       =       210.00
     number of Kohn-Sham states=          135
     kinetic-energy cutoff     =      36.7493  Ry
     charge density cutoff     =     367.4932  Ry
     convergence threshold     =      1.0E-06
     mixing beta               =       0.1000
     number of iterations used =           10  plain     mixing
     Exchange-correlation      = BEEF-VDW ( 1  4 27 13 2)
     nstep                     =           50

     celldm(1)=   1.889726  celldm(2)=   0.000000  celldm(3)=   0.000000
     celldm(4)=   0.000000  celldm(5)=   0.000000  celldm(6)=   0.000000

     crystal axes: (cart. coord. in units of alat)
               a(1) = (   5.186242   0.000000   0.000000 )
               a(2) = (  -2.593121   4.491417   0.000000 )
               a(3) = (   0.000000   0.000000  24.234549 )

     reciprocal axes: (cart. coord. in units 2 pi/alat)
               b(1) = (  0.192818  0.111323  0.000000 )
               b(2) = (  0.000000  0.222647  0.000000 )
               b(3) = (  0.000000  0.000000  0.041263 )

     PseudoPot. # 1 for Ni read from file:
     /afs/slac.stanford.edu/u/if/mamunm/psp/gbrv1.5pbe/Ni.UPF
     MD5 check sum: 1ee80287db30b12d2bc1f57a5b5d6409
     Pseudo is Ultrasoft + core correction, Zval = 18.0
     Generated by new atomic code, or converted to UPF format
     Using radial grid of  865 points,  6 beta functions with:
                l(1) =   0
                l(2) =   0
                l(3) =   1
                l(4) =   1
                l(5) =   2
                l(6) =   2
     Q(r) pseudized with 10 coefficients,  rinner =    0.980   0.980   0.980
                                                       0.980   0.980

     PseudoPot. # 2 for Pd read from file:
     /afs/slac.stanford.edu/u/if/mamunm/psp/gbrv1.5pbe/Pd.UPF
     MD5 check sum: 2d733d2bc2cbfd217af676df1668a4bc
     Pseudo is Ultrasoft + core correction, Zval = 16.0
     Generated by new atomic code, or converted to UPF format
     Using radial grid of  887 points,  6 beta functions with:
                l(1) =   0
                l(2) =   0
                l(3) =   1
                l(4) =   1
                l(5) =   2
                l(6) =   2
     Q(r) pseudized with  8 coefficients,  rinner =    1.130   1.130   1.130
                                                       1.130   1.130

     vdW kernel table read from file vdW_kernel_table
     MD5 check sum: 095c7af220d748ca6e76c0b4c6cfb241

     atomic species   valence    mass     pseudopotential
        Ni1           18.00    58.69340     Ni( 1.00)
        Pd1           16.00   106.42000     Pd( 1.00)

     Starting magnetic structure
     atomic species   magnetization
        Ni1          0.111
        Pd1          0.125

     No symmetry found

   Cartesian axes

     site n.     atom                  positions (alat units)
         1           Ni1 tau(   1) = (   0.0000000   0.0000000  10.0000000  )
         2           Ni1 tau(   2) = (  -1.2965605   2.2457087  10.0000000  )
         3           Ni1 tau(   3) = (   1.2965605   2.2457087  10.0000000  )
         4           Pd1 tau(   4) = (   2.5931210   0.0000000  10.0000000  )
         5           Ni1 tau(   5) = (   2.5931210   1.4971391  12.1172745  )
         6           Ni1 tau(   6) = (   1.2965605   3.7428478  12.1172745  )
         7           Ni1 tau(   7) = (  -1.2965605   3.7428478  12.1172745  )
         8           Pd1 tau(   8) = (   0.0000000   1.4971391  12.1172745  )
         9           Ni1 tau(   9) = (  -0.0000000   2.9942783  14.2345489  )
        10           Ni1 tau(  10) = (   1.2965605   0.7485696  14.2345489  )
        11           Ni1 tau(  11) = (   3.8896816   0.7485696  14.2345489  )
        12           Pd1 tau(  12) = (   2.5931210   2.9942783  14.2345489  )

     number of k points=    40  Fermi-Dirac smearing, width (Ry)=  0.0110
                       cart. coord. in units 2pi/alat
        k(    1) = (   0.0000000   0.0000000   0.0000000), wk =   0.0277778
        k(    2) = (   0.0000000   0.0371078   0.0000000), wk =   0.0555556
        k(    3) = (   0.0000000   0.0742156   0.0000000), wk =   0.0555556
        k(    4) = (   0.0000000  -0.1113234   0.0000000), wk =   0.0277778
        k(    5) = (   0.0321363   0.0185539   0.0000000), wk =   0.0555556
        k(    6) = (   0.0321363   0.0556617   0.0000000), wk =   0.0555556
        k(    7) = (   0.0321363   0.0927695   0.0000000), wk =   0.0555556
        k(    8) = (   0.0321363  -0.0927695   0.0000000), wk =   0.0555556
        k(    9) = (   0.0321363  -0.0556617   0.0000000), wk =   0.0555556
        k(   10) = (   0.0321363  -0.0185539   0.0000000), wk =   0.0555556
        k(   11) = (   0.0642726   0.0371078   0.0000000), wk =   0.0555556
        k(   12) = (   0.0642726   0.0742156   0.0000000), wk =   0.0555556
        k(   13) = (   0.0642726   0.1113234   0.0000000), wk =   0.0555556
        k(   14) = (   0.0642726  -0.0742156   0.0000000), wk =   0.0555556
        k(   15) = (   0.0642726  -0.0371078   0.0000000), wk =   0.0555556
        k(   16) = (   0.0642726   0.0000000   0.0000000), wk =   0.0555556
        k(   17) = (  -0.0964089  -0.0556617   0.0000000), wk =   0.0277778
        k(   18) = (  -0.0964089  -0.0185539   0.0000000), wk =   0.0555556
        k(   19) = (  -0.0964089   0.0185539   0.0000000), wk =   0.0555556
        k(   20) = (  -0.0964089  -0.1669851   0.0000000), wk =   0.0277778
        k(   21) = (   0.0000000   0.0000000   0.0000000), wk =   0.0277778
        k(   22) = (   0.0000000   0.0371078   0.0000000), wk =   0.0555556
        k(   23) = (   0.0000000   0.0742156   0.0000000), wk =   0.0555556
        k(   24) = (   0.0000000  -0.1113234   0.0000000), wk =   0.0277778
        k(   25) = (   0.0321363   0.0185539   0.0000000), wk =   0.0555556
        k(   26) = (   0.0321363   0.0556617   0.0000000), wk =   0.0555556
        k(   27) = (   0.0321363   0.0927695   0.0000000), wk =   0.0555556
        k(   28) = (   0.0321363  -0.0927695   0.0000000), wk =   0.0555556
        k(   29) = (   0.0321363  -0.0556617   0.0000000), wk =   0.0555556
        k(   30) = (   0.0321363  -0.0185539   0.0000000), wk =   0.0555556
        k(   31) = (   0.0642726   0.0371078   0.0000000), wk =   0.0555556
        k(   32) = (   0.0642726   0.0742156   0.0000000), wk =   0.0555556
        k(   33) = (   0.0642726   0.1113234   0.0000000), wk =   0.0555556
        k(   34) = (   0.0642726  -0.0742156   0.0000000), wk =   0.0555556
        k(   35) = (   0.0642726  -0.0371078   0.0000000), wk =   0.0555556
        k(   36) = (   0.0642726   0.0000000   0.0000000), wk =   0.0555556
        k(   37) = (  -0.0964089  -0.0556617   0.0000000), wk =   0.0277778
        k(   38) = (  -0.0964089  -0.0185539   0.0000000), wk =   0.0555556
        k(   39) = (  -0.0964089   0.0185539   0.0000000), wk =   0.0555556
        k(   40) = (  -0.0964089  -0.1669851   0.0000000), wk =   0.0277778

     Largest allocated arrays     est. size (Mb)     dimensions
     Largest temporary arrays     est. size (Mb)     dimensions

     Check: negative/imaginary core charge=   -0.000002    0.000000

     Initial potential from superposition of free atoms
     Check: negative starting charge=(component1):   -0.122860
     Check: negative starting charge=(component2):   -0.095565

     starting charge  190.49998, renormalised to  210.00000

     negative rho (up, down):  1.354E-01 1.053E-01

     *
     * You are using vdW-DF for exchange-correlation in this calculation.
     * Please cite the following three references that made this development
     * possible:
     *
     *   M. Dion, H. Rydberg, E. Schroder, D. C. Langreth, and
     *   B. I. Lundqvist, Phys. Rev. Lett. 92, 246401 (2004).
     *
     *   T. Thonhauser, V. R. Cooper, S. Li, A. Puzder, P. Hyldgaard, and
     *   D. C. Langreth, Phys. Rev. B 76, 125112 (2007).
     *
     *   G. Roman-Perez and J. M. Soler, Phys. Rev. Lett. 103, 096102 (2009).
     *
     *
     * If you are using vdW-DF2, please also cite:
     *
     *   K. Lee, E. D. Murray, L. Kong, B. I. Lundqvist, and
     *   D. C. Langreth, Phys. Rev. B 82, 081101(R) (2010).
     *
     *
     * If you are calculating the stress with vdW-DF, please also cite:
     *
     *   R. Sabatini, E. Kucukbenli, B. Kolb, T. Thonhauser, and
     *   S. de Gironcoli, J. Phys.: Condens. Matter 24, 424209 (2012).
     *

     Carrying out vdW-DF run using the following parameters:

     Nqs =      20    Nr_points =    1024   r_max =   100.000
     q_mesh =
               0.00001000     0.04494208     0.09755937     0.15916263
               0.23128650     0.31572767     0.41458969     0.53033537
               0.66584808     0.82450364     1.01025438     1.22772762
               1.48234092     1.78043706     2.12944203     2.53805004
               3.01644009     3.57652955     4.23227104     5.00000000

     Gradients computed in reciprocal space

     Adding external electric field

     Computed dipole along edir(3) :
        Dipole                0.0000 Ry au,          0.0000 Debye
        Dipole field          0.0000 Ry au

        Potential amp.       -0.0000 Ry
        Total length         44.6517 bohr

[...]

     Starting wfc are  153 randomized atomic wfcs

     Self-consistent Calculation

     iteration #  1     ecut=    36.75 Ry     beta=0.10
     Davidson diagonalization with overlap
     ethr =  1.00E-02,  avg # of iterations =  7.1

[...]

     Magnetic moment per site:
     atom:    1    charge:    9.7962    magn:    1.0373    constr:    0.0000
     atom:    2    charge:    9.7962    magn:    1.0373    constr:    0.0000
     atom:    3    charge:    9.7962    magn:    1.0373    constr:    0.0000
     atom:    4    charge:    3.5003    magn:    0.4153    constr:    0.0000
     atom:    5    charge:    9.8038    magn:    1.0375    constr:    0.0000
     atom:    6    charge:    9.8038    magn:    1.0375    constr:    0.0000
     atom:    7    charge:    9.8038    magn:    1.0375    constr:    0.0000
     atom:    8    charge:    3.5140    magn:    0.4165    constr:    0.0000
[...]
        k(    5) = (   0.0321363   0.0185539   0.0000000), wk =   0.0555556
        k(    6) = (   0.0321363   0.0556617   0.0000000), wk =   0.0555556
        k(    7) = (   0.0321363   0.0927695   0.0000000), wk =   0.0555556
        k(    8) = (   0.0321363  -0.0927695   0.0000000), wk =   0.0555556
        k(    9) = (   0.0321363  -0.0556617   0.0000000), wk =   0.0555556
        k(   10) = (   0.0321363  -0.0185539   0.0000000), wk =   0.0555556
        k(   11) = (   0.0642726   0.0371078   0.0000000), wk =   0.0555556
        k(   12) = (   0.0642726   0.0742156   0.0000000), wk =   0.0555556
        k(   13) = (   0.0642726   0.1113234   0.0000000), wk =   0.0555556
        k(   14) = (   0.0642726  -0.0742156   0.0000000), wk =   0.0555556
        k(   15) = (   0.0642726  -0.0371078   0.0000000), wk =   0.0555556
        k(   16) = (   0.0642726   0.0000000   0.0000000), wk =   0.0555556
        k(   17) = (  -0.0964089  -0.0556617   0.0000000), wk =   0.0277778
        k(   18) = (  -0.0964089  -0.0185539   0.0000000), wk =   0.0555556
        k(   19) = (  -0.0964089   0.0185539   0.0000000), wk =   0.0555556
        k(   20) = (  -0.0964089  -0.1669851   0.0000000), wk =   0.0277778
        k(   21) = (   0.0000000   0.0000000   0.0000000), wk =   0.0277778
        k(   22) = (   0.0000000   0.0371078   0.0000000), wk =   0.0555556
        k(   23) = (   0.0000000   0.0742156   0.0000000), wk =   0.0555556
        k(   24) = (   0.0000000  -0.1113234   0.0000000), wk =   0.0277778
        k(   25) = (   0.0321363   0.0185539   0.0000000), wk =   0.0555556
        k(   26) = (   0.0321363   0.0556617   0.0000000), wk =   0.0555556
        k(   27) = (   0.0321363   0.0927695   0.0000000), wk =   0.0555556
        k(   28) = (   0.0321363  -0.0927695   0.0000000), wk =   0.0555556
        k(   29) = (   0.0321363  -0.0556617   0.0000000), wk =   0.0555556
        k(   30) = (   0.0321363  -0.0185539   0.0000000), wk =   0.0555556
        k(   31) = (   0.0642726   0.0371078   0.0000000), wk =   0.0555556
        k(   32) = (   0.0642726   0.0742156   0.0000000), wk =   0.0555556
        k(   33) = (   0.0642726   0.1113234   0.0000000), wk =   0.0555556
        k(   34) = (   0.0642726  -0.0742156   0.0000000), wk =   0.0555556
        k(   35) = (   0.0642726  -0.0371078   0.0000000), wk =   0.0555556
        k(   36) = (   0.0642726   0.0000000   0.0000000), wk =   0.0555556
        k(   37) = (  -0.0964089  -0.0556617   0.0000000), wk =   0.0277778
        k(   38) = (  -0.0964089  -0.0185539   0.0000000), wk =   0.0555556
        k(   39) = (  -0.0964089   0.0185539   0.0000000), wk =   0.0555556
        k(   40) = (  -0.0964089  -0.1669851   0.0000000), wk =   0.0277778

     Largest allocated arrays     est. size (Mb)     dimensions
     Largest temporary arrays     est. size (Mb)     dimensions

     Check: negative/imaginary core charge=   -0.000002    0.000000

     Initial potential from superposition of free atoms
     Check: negative starting charge=(component1):   -0.122370
     Check: negative starting charge=(component2):   -0.095184

     starting charge  190.49998, renormalised to  210.00000

[...]

     *
     * You are using vdW-DF for exchange-correlation in this calculation.
     * Please cite the following three references that made this development
     * possible:
     *
     *   M. Dion, H. Rydberg, E. Schroder, D. C. Langreth, and
     *   B. I. Lundqvist, Phys. Rev. Lett. 92, 246401 (2004).
     *
     *   T. Thonhauser, V. R. Cooper, S. Li, A. Puzder, P. Hyldgaard, and
     *   D. C. Langreth, Phys. Rev. B 76, 125112 (2007).
     *
     *   G. Roman-Perez and J. M. Soler, Phys. Rev. Lett. 103, 096102 (2009).
     *
     *
     * If you are using vdW-DF2, please also cite:
     *
     *   K. Lee, E. D. Murray, L. Kong, B. I. Lundqvist, and
     *   D. C. Langreth, Phys. Rev. B 82, 081101(R) (2010).
     *
     *
     * If you are calculating the stress with vdW-DF, please also cite:
     *
     *   R. Sabatini, E. Kucukbenli, B. Kolb, T. Thonhauser, and
     *   S. de Gironcoli, J. Phys.: Condens. Matter 24, 424209 (2012).
     *

     Carrying out vdW-DF run using the following parameters:

     Nqs =      20    Nr_points =    1024   r_max =   100.000
     q_mesh =
               0.00001000     0.04494208     0.09755937     0.15916263
               0.23128650     0.31572767     0.41458969     0.53033537
               0.66584808     0.82450364     1.01025438     1.22772762
               1.48234092     1.78043706     2.12944203     2.53805004
               3.01644009     3.57652955     4.23227104     5.00000000

     Gradients computed in reciprocal space

[...]

     Starting wfc are  153 randomized atomic wfcs

     Self-consistent Calculation

[...]

     total energy              =   -3699.08225940 Ry
     Harris-Foulkes estimate   =   -3699.08225886 Ry
     estimated scf accuracy    <       0.00000116 Ry

[...]

     iteration # 40     ecut=    36.75 Ry     beta=0.10
     Davidson diagonalization with overlap
     ethr =  5.52E-10,  avg # of iterations =  1.1

[...]

     negative rho (up, down):  1.152E-01 1.141E-01

[...]

     Adding external electric field

     Computed dipole along edir(3) :
        Dipole               -0.0006 Ry au,         -0.0016 Debye
        Dipole field         -0.0000 Ry au

        Potential amp.        0.0002 Ry
        Total length         44.6517 bohr

     Magnetic moment per site:
     atom:    1    charge:    9.3602    magn:    0.4651    constr:    0.0000
     atom:    2    charge:    9.3603    magn:    0.4650    constr:    0.0000
     atom:    3    charge:    9.3602    magn:    0.4651    constr:    0.0000
     atom:    4    charge:    3.3124    magn:    0.0526    constr:    0.0000
     atom:    5    charge:    9.3649    magn:    0.4930    constr:    0.0000
     atom:    6    charge:    9.3649    magn:    0.4930    constr:    0.0000
     atom:    7    charge:    9.3649    magn:    0.4930    constr:    0.0000
     atom:    8    charge:    3.3219    magn:    0.0667    constr:    0.0000
     atom:    9    charge:    9.3567    magn:    0.4684    constr:    0.0000
     atom:   10    charge:    9.3570    magn:    0.4683    constr:    0.0000
     atom:   11    charge:    9.3569    magn:    0.4683    constr:    0.0000
     atom:   12    charge:    3.3185    magn:    0.0502    constr:    0.0000

     End of self-consistent calculation

 ------ SPIN UP ------------

[...]

 ------ SPIN DOWN ----------

[...]

          k = 0.0643 0.0000 0.0000 ( 14339 PWs)   bands (ev):

[...]

          k =-0.0964-0.1670 0.0000 ( 14302 PWs)   bands (ev):

  -102.0159-102.0126-102.0093-101.8334-101.8279-101.8252-101.7992-101.7961
  -101.7927 -62.4540 -62.4302 -62.4280 -62.4230 -62.4208 -62.4104 -62.4091
   -62.3966 -62.3687 -62.3092 -62.2798 -62.2735 -62.2717 -62.2551 -62.2545
   -62.2399 -62.2379 -62.2368 -62.2332 -62.2290 -62.2014 -62.1600 -62.1565
   -62.1533 -62.1223 -62.1191 -62.1159 -49.6699 -49.6688 -49.6687 -49.3696
   -49.3685 -49.2974 -49.2963 -49.2269 -49.1353  -5.0927  -5.0243  -3.9131
    -3.5335  -3.4444  -3.4089  -3.0926  -3.0009  -2.8539  -2.8217  -2.6498
    -2.4966  -2.3560  -2.3080  -2.2436  -2.1062  -2.0390  -1.9594  -1.8472
    -1.6160  -1.6061  -1.4865  -1.4633  -1.3114  -1.2594  -1.1070  -1.0119
    -0.9371  -0.8957  -0.8671  -0.7279  -0.7269  -0.6925  -0.6619  -0.6462
    -0.6061  -0.5767  -0.5269  -0.4533  -0.4518  -0.2947  -0.1707  -0.1236
    -0.1088   0.0240   0.0352   0.0476   0.0643   0.1261   0.1866   0.2604
     0.2758   0.3526   0.3810   0.4292   0.4695   0.5258   0.5780   0.7379
     0.7735   0.7997   0.8336   0.9418   0.9815   2.3226   2.3419   2.5038
     2.7792   3.3826   3.6343   4.6606   4.6781   5.6529   5.7566   6.7090
     6.7176   7.2506   7.2750   7.4652   7.4700   8.3685   8.5008   8.5195
     8.5315   9.0157   9.0471   9.2695   9.4097   9.5466   9.6036

     the Fermi energy is     0.6858 ev

!    total energy              =   -3699.08226207 Ry
     Harris-Foulkes estimate   =   -3699.08225945 Ry
     estimated scf accuracy    <       0.00000068 Ry

     The total energy is the sum of the following terms:

     one-electron contribution =  -30598.82913217 Ry
     hartree contribution      =   15319.27555616 Ry
     xc contribution           =    -428.46774664 Ry
     ewald contribution        =   12009.05427738 Ry
     electric field correction =       0.00000000 Ry
     smearing contrib. (-TS)   =      -0.11521679 Ry

     total magnetization       =     7.68 Bohr mag/cell
     absolute magnetization    =     8.71 Bohr mag/cell

     convergence has been achieved in  40 iterations

 BEEF-vdW xc energy contributions
           1 :   -376.519682012691
           2 :    341.889781741759
           3 :   -283.526682501898
           4 :    218.159431116502
           5 :   -161.216970361750
           6 :    121.247785449211
           7 :   -98.3244731528662
           8 :    86.5142427565464
           9 :   -78.4613833862037
          10 :    69.3504603147002
          11 :   -58.3797860094343
          12 :    47.5915641613428
          13 :   -39.4324193102090
          14 :    34.8121405724451
          15 :   -32.7269086449437
          16 :    31.2774866271258
          17 :   -29.0758042317374
          18 :    25.9959050415239
          19 :   -22.8987745429955
          20 :    20.7183846493907
          21 :   -19.6808954090038
          22 :    19.1984813939839
          23 :   -18.4199832840595
          24 :    16.9268616825709
          25 :   -15.0266534001590
          26 :    13.4504988876500
          27 :   -12.7404730001658
          28 :    12.8140506077877
          29 :   -13.0324802177917
          30 :    12.6920530796733
          31 :   -32.4000629438624
          32 :   -22.9671933324820

     Forces acting on atoms (Ry/au):

     negative rho (up, down):  1.152E-01 1.141E-01
     atom    1 type  1   force =     0.00001032   -0.01104091    0.00840684
     atom    2 type  1   force =    -0.00955551    0.00553940    0.00842581
     atom    3 type  1   force =     0.00955953    0.00553049    0.00838537
     atom    4 type  2   force =    -0.00000160    0.00000518   -0.01472225
     atom    5 type  1   force =    -0.00003071    0.00559840   -0.00047093
     atom    6 type  1   force =     0.00479906   -0.00283434   -0.00043389
     atom    7 type  1   force =    -0.00479451   -0.00279488   -0.00040480
     atom    8 type  2   force =     0.00001060    0.00001591   -0.00329519
     atom    9 type  1   force =     0.00000715   -0.00113729   -0.00151155
     atom   10 type  1   force =    -0.00098771    0.00053854   -0.00154118
     atom   11 type  1   force =     0.00101035    0.00054319   -0.00150035
     atom   12 type  2   force =    -0.00002696    0.00003631   -0.00133789

     Total force =     0.030196     Total SCF correction =     0.001564

     entering subroutine stress ...

     negative rho (up, down):  1.152E-01 1.141E-01
          total   stress  (Ry/bohr**3)                   (kbar)     P=  -55.04
  -0.00039510  -0.00000001  -0.00000002        -58.12     -0.00     -0.00
  -0.00000001  -0.00039513   0.00000002         -0.00    -58.13      0.00
  -0.00000002   0.00000002  -0.00033222         -0.00      0.00    -48.87

 !ASE

     Writing output data file calc.save

     General routines

     Parallel routines

   This run was terminated on:  13:18:27  27Dec2018

   JOB DONE.
Job  /afs/slac/g/suncat/bin/suncat-tsmpirun -x LD_LIBRARY_PATH -wdir /scratch/qe110272_ZvL2o pw.x -in pw.inp

TID   HOST_NAME   COMMAND_LINE            STATUS            TERMINATION_TIME
00000 suncat0093 pw.x -in pw.inp   Done                     12/27/2018 13:18:27
00001 suncat0093 pw.x -in pw.inp   Done                     12/27/2018 13:18:27
00002 suncat0093 pw.x -in pw.inp   Done                     12/27/2018 13:18:27
00003 suncat0093 pw.x -in pw.inp   Done                     12/27/2018 13:18:27
00004 suncat0093 pw.x -in pw.inp   Done                     12/27/2018 13:18:27
00005 suncat0093 pw.x -in pw.inp   Done                     12/27/2018 13:18:27
00006 suncat0093 pw.x -in pw.inp   Done                     12/27/2018 13:18:27
00007 suncat0093 pw.x -in pw.inp   Done                     12/27/2018 13:18:27
00008 suncat0089 pw.x -in pw.inp   Done                     12/27/2018 13:18:27
00009 suncat0089 pw.x -in pw.inp   Done                     12/27/2018 13:18:27
00010 suncat0089 pw.x -in pw.inp   Done                     12/27/2018 13:18:27
00011 suncat0089 pw.x -in pw.inp   Done                     12/27/2018 13:18:27
00012 suncat0089 pw.x -in pw.inp   Done                     12/27/2018 13:18:27
00013 suncat0089 pw.x -in pw.inp   Done                     12/27/2018 13:18:27
00014 suncat0089 pw.x -in pw.inp   Done                     12/27/2018 13:18:27
00015 suncat0089 pw.x -in pw.inp   Done                     12/27/2018 13:18:27
00016 suncat0088 pw.x -in pw.inp   Done                     12/27/2018 13:18:27
00017 suncat0088 pw.x -in pw.inp   Done                     12/27/2018 13:18:27
00018 suncat0088 pw.x -in pw.inp   Done                     12/27/2018 13:18:27
00019 suncat0088 pw.x -in pw.inp   Done                     12/27/2018 13:18:27
00020 suncat0088 pw.x -in pw.inp   Done                     12/27/2018 13:18:27
00021 suncat0088 pw.x -in pw.inp   Done                     12/27/2018 13:18:27
00022 suncat0088 pw.x -in pw.inp   Done                     12/27/2018 13:18:27
00023 suncat0088 pw.x -in pw.inp   Done                     12/27/2018 13:18:27
00024 suncat0079 pw.x -in pw.inp   Done                     12/27/2018 13:18:27
00025 suncat0079 pw.x -in pw.inp   Done                     12/27/2018 13:18:27
00026 suncat0079 pw.x -in pw.inp   Done                     12/27/2018 13:18:27
00027 suncat0079 pw.x -in pw.inp   Done                     12/27/2018 13:18:27
00028 suncat0079 pw.x -in pw.inp   Done                     12/27/2018 13:18:27
00029 suncat0079 pw.x -in pw.inp   Done                     12/27/2018 13:18:27
00030 suncat0079 pw.x -in pw.inp   Done                     12/27/2018 13:18:27
00031 suncat0079 pw.x -in pw.inp   Done                     12/27/2018 13:18:27
00032 suncat0064 pw.x -in pw.inp   Done                     12/27/2018 13:18:27
00033 suncat0064 pw.x -in pw.inp   Done                     12/27/2018 13:18:27
00034 suncat0064 pw.x -in pw.inp   Done                     12/27/2018 13:18:27
00035 suncat0064 pw.x -in pw.inp   Done                     12/27/2018 13:18:27
00036 suncat0064 pw.x -in pw.inp   Done                     12/27/2018 13:18:27
00037 suncat0064 pw.x -in pw.inp   Done                     12/27/2018 13:18:27
00038 suncat0064 pw.x -in pw.inp   Done                     12/27/2018 13:18:27
00039 suncat0064 pw.x -in pw.inp   Done                     12/27/2018 13:18:27
00040 suncat0129 pw.x -in pw.inp   Done                     12/27/2018 13:18:27
00041 suncat0129 pw.x -in pw.inp   Done                     12/27/2018 13:18:27
00042 suncat0129 pw.x -in pw.inp   Done                     12/27/2018 13:18:27
00043 suncat0129 pw.x -in pw.inp   Done                     12/27/2018 13:18:27
00044 suncat0129 pw.x -in pw.inp   Done                     12/27/2018 13:18:27
00045 suncat0129 pw.x -in pw.inp   Done                     12/27/2018 13:18:27
00046 suncat0129 pw.x -in pw.inp   Done                     12/27/2018 13:18:27
00047 suncat0129 pw.x -in pw.inp   Done                     12/27/2018 13:18:27
00048 suncat0254 pw.x -in pw.inp   Done                     12/27/2018 13:18:27
00049 suncat0254 pw.x -in pw.inp   Done                     12/27/2018 13:18:27
00050 suncat0254 pw.x -in pw.inp   Done                     12/27/2018 13:18:27
00051 suncat0254 pw.x -in pw.inp   Done                     12/27/2018 13:18:27
00052 suncat0254 pw.x -in pw.inp   Done                     12/27/2018 13:18:27
00053 suncat0254 pw.x -in pw.inp   Done                     12/27/2018 13:18:27
00054 suncat0254 pw.x -in pw.inp   Done                     12/27/2018 13:18:27
00055 suncat0254 pw.x -in pw.inp   Done                     12/27/2018 13:18:27
00056 suncat0253 pw.x -in pw.inp   Done                     12/27/2018 13:18:27
00057 suncat0253 pw.x -in pw.inp   Done                     12/27/2018 13:18:27
00058 suncat0253 pw.x -in pw.inp   Done                     12/27/2018 13:18:27
00059 suncat0253 pw.x -in pw.inp   Done                     12/27/2018 13:18:27
00060 suncat0253 pw.x -in pw.inp   Done                     12/27/2018 13:18:27
00061 suncat0253 pw.x -in pw.inp   Done                     12/27/2018 13:18:27
00062 suncat0253 pw.x -in pw.inp   Done                     12/27/2018 13:18:27
00063 suncat0253 pw.x -in pw.inp   Done                     12/27/2018 13:18:27