     Program PWSCF v.5.1rc2 (svn rev. 11289) starts on 18Dec2018 at 20:37:48

     Current dimensions of program PWSCF are:
     Max number of different atomic species (ntypx) = 10
     Max number of k-points (npk) =  40000
     Max angular momentum in pseudopotentials (lmaxx) =  3
     Presently stress not available with electric field

     IMPORTANT: XC functional enforced from input :
     Exchange-correlation      = BEEF-VDW ( 1  4 27 13 2)
     Any further DFT definition will be discarded
     Please, verify this is what you really want

     Subspace diagonalization in iterative solution of the eigenvalue problem:
     a serial algorithm will be used

     Found symmetry operation: I + ( -0.5000  0.0000  0.0000)
     This is a supercell, fractional translations are disabled

     bravais-lattice index     =            0
     lattice parameter (alat)  =       1.8897  a.u.
     unit-cell volume          =    4940.1319 (a.u.)^3
     number of atoms/cell      =           12
     number of atomic types    =            2
     number of electrons       =       162.00
     number of Kohn-Sham states=          111
     kinetic-energy cutoff     =      36.7493  Ry
     charge density cutoff     =     367.4932  Ry
     convergence threshold     =      1.0E-06
     mixing beta               =       0.1000
     number of iterations used =           10  plain     mixing
     Exchange-correlation      = BEEF-VDW ( 1  4 27 13 2)
     nstep                     =           50

     celldm(1)=   1.889726  celldm(2)=   0.000000  celldm(3)=   0.000000
     celldm(4)=   0.000000  celldm(5)=   0.000000  celldm(6)=   0.000000

     crystal axes: (cart. coord. in units of alat)
               a(1) = (   5.407663   0.000000   0.000000 )
               a(2) = (  -2.703831   5.479900   0.000000 )
               a(3) = (   0.000000   0.000000  24.703571 )

     reciprocal axes: (cart. coord. in units 2 pi/alat)
               b(1) = (  0.184923  0.091243  0.000000 )
               b(2) = (  0.000000  0.182485  0.000000 )
               b(3) = (  0.000000  0.000000  0.040480 )

     PseudoPot. # 1 for Nb read from file:
     /afs/slac.stanford.edu/u/if/mamunm/psp/gbrv1.5pbe/Nb.UPF
     MD5 check sum: 573aab8a2fa660278ed4a62cd769473f
     Pseudo is Ultrasoft + core correction, Zval = 13.0
     Generated by new atomic code, or converted to UPF format
     Using radial grid of  887 points,  6 beta functions with:
                l(1) =   0
                l(2) =   0
                l(3) =   1
                l(4) =   1
                l(5) =   2
                l(6) =   2
     Q(r) pseudized with  6 coefficients,  rinner =    1.000   1.000   1.000
                                                       1.000   1.000

     PseudoPot. # 2 for W  read from file:
     /afs/slac.stanford.edu/u/if/mamunm/psp/gbrv1.5pbe/W.UPF
     MD5 check sum: 9c083fa34c2a2ea0f02f1f893e16e1c8
     Pseudo is Ultrasoft + core correction, Zval = 14.0
     Generated by new atomic code, or converted to UPF format
     Using radial grid of  923 points,  8 beta functions with:
                l(1) =   0
                l(2) =   0
                l(3) =   0
                l(4) =   1
                l(5) =   1
                l(6) =   2
                l(7) =   2
                l(8) =   3
     Q(r) pseudized with  6 coefficients,  rinner =    1.350   1.350   1.350
                                                       1.350   1.350   1.350
                                                       1.350

     vdW kernel table read from file vdW_kernel_table
     MD5 check sum: 095c7af220d748ca6e76c0b4c6cfb241

     atomic species   valence    mass     pseudopotential
        Nb1           13.00    92.90637     Nb( 1.00)
        W1            14.00   183.84000     W ( 1.00)

     No symmetry found

   Cartesian axes

     site n.     atom                  positions (alat units)
         1           Nb1 tau(   1) = (   0.0000000   0.0000000  10.0000000  )
         2           Nb1 tau(   2) = (   2.7038313   0.0000000  10.0000000  )
         3           W1  tau(   3) = (   1.3519156   2.7399499  10.0000000  )
         4           W1  tau(   4) = (  -1.3519156   2.7399499  10.0000000  )
         5           Nb1 tau(   5) = (   2.7038313   1.3340944  12.3517856  )
         6           Nb1 tau(   6) = (  -0.0000000   1.3340944  12.3517856  )
         7           W1  tau(   7) = (  -1.3519156   4.0740443  12.3517856  )
         8           W1  tau(   8) = (   1.3519156   4.0740443  12.3517856  )
         9           Nb1 tau(   9) = (   0.0000000   2.6681887  14.7035713  )
        10           Nb1 tau(  10) = (   2.7038313   2.6681887  14.7035713  )
        11           W1  tau(  11) = (   1.3519156   5.4081386  14.7035713  )
        12           W1  tau(  12) = (  -1.3519156   5.4081386  14.7035713  )

     number of k points=    20  Fermi-Dirac smearing, width (Ry)=  0.0110
                       cart. coord. in units 2pi/alat
        k(    1) = (   0.0000000   0.0000000   0.0000000), wk =   0.0555556
        k(    2) = (   0.0000000   0.0304142   0.0000000), wk =   0.1111111
        k(    3) = (   0.0000000   0.0608284   0.0000000), wk =   0.1111111
        k(    4) = (   0.0000000  -0.0912425   0.0000000), wk =   0.0555556
        k(    5) = (   0.0308205   0.0152071   0.0000000), wk =   0.1111111
        k(    6) = (   0.0308205   0.0456213   0.0000000), wk =   0.1111111
        k(    7) = (   0.0308205   0.0760355   0.0000000), wk =   0.1111111
        k(    8) = (   0.0308205  -0.0760355   0.0000000), wk =   0.1111111
        k(    9) = (   0.0308205  -0.0456213   0.0000000), wk =   0.1111111
        k(   10) = (   0.0308205  -0.0152071   0.0000000), wk =   0.1111111
        k(   11) = (   0.0616409   0.0304142   0.0000000), wk =   0.1111111
        k(   12) = (   0.0616409   0.0608284   0.0000000), wk =   0.1111111
        k(   13) = (   0.0616409   0.0912425   0.0000000), wk =   0.1111111
        k(   14) = (   0.0616409  -0.0608284   0.0000000), wk =   0.1111111
        k(   15) = (   0.0616409  -0.0304142   0.0000000), wk =   0.1111111
        k(   16) = (   0.0616409   0.0000000   0.0000000), wk =   0.1111111
        k(   17) = (  -0.0924614  -0.0456213   0.0000000), wk =   0.0555556
        k(   18) = (  -0.0924614  -0.0152071   0.0000000), wk =   0.1111111
        k(   19) = (  -0.0924614   0.0152071   0.0000000), wk =   0.1111111
        k(   20) = (  -0.0924614  -0.1368638   0.0000000), wk =   0.0555556

     Largest allocated arrays     est. size (Mb)     dimensions
     Largest temporary arrays     est. size (Mb)     dimensions

     Initial potential from superposition of free atoms
     Check: negative starting charge=   -0.382644

     starting charge  161.38156, renormalised to  162.00000

     negative rho (up, down):  3.841E-01 0.000E+00

     *
     * You are using vdW-DF for exchange-correlation in this calculation.
     * Please cite the following three references that made this development
     * possible:
     *
     *   M. Dion, H. Rydberg, E. Schroder, D. C. Langreth, and
     *   B. I. Lundqvist, Phys. Rev. Lett. 92, 246401 (2004).
     *
     *   T. Thonhauser, V. R. Cooper, S. Li, A. Puzder, P. Hyldgaard, and
     *   D. C. Langreth, Phys. Rev. B 76, 125112 (2007).
     *
     *   G. Roman-Perez and J. M. Soler, Phys. Rev. Lett. 103, 096102 (2009).
     *
     *
     * If you are using vdW-DF2, please also cite:
     *
     *   K. Lee, E. D. Murray, L. Kong, B. I. Lundqvist, and
     *   D. C. Langreth, Phys. Rev. B 82, 081101(R) (2010).
     *
     *
     * If you are calculating the stress with vdW-DF, please also cite:
     *
     *   R. Sabatini, E. Kucukbenli, B. Kolb, T. Thonhauser, and
     *   S. de Gironcoli, J. Phys.: Condens. Matter 24, 424209 (2012).
     *

     Carrying out vdW-DF run using the following parameters:

     Nqs =      20    Nr_points =    1024   r_max =   100.000
     q_mesh =
               0.00001000     0.04494208     0.09755937     0.15916263
               0.23128650     0.31572767     0.41458969     0.53033537
               0.66584808     0.82450364     1.01025438     1.22772762
               1.48234092     1.78043706     2.12944203     2.53805004
               3.01644009     3.57652955     4.23227104     5.00000000

     Gradients computed in reciprocal space

     Adding external electric field

     Computed dipole along edir(3) :
        Dipole               -0.0000 Ry au,         -0.0000 Debye
        Dipole field         -0.0000 Ry au

        Potential amp.        0.0000 Ry
        Total length         45.5159 bohr

     Starting wfc are  156 randomized atomic wfcs

     Self-consistent Calculation

     iteration #  1     ecut=    36.75 Ry     beta=0.10
     Davidson diagonalization with overlap
     ethr =  1.00E-02,  avg # of iterations =  2.0

[...]

     total energy              =   -1673.09728857 Ry
     Harris-Foulkes estimate   =   -1674.05657055 Ry
     estimated scf accuracy    <       5.58278325 Ry

[...]

     End of self-consistent calculation

          k = 0.0000 0.0000 0.0000 ( 18525 PWs)   bands (ev):

   -72.2585 -72.1919 -72.1336 -72.1290 -72.0678 -72.0635 -52.9748 -52.9499
   -52.7875 -52.7738 -52.7643 -52.5871 -36.8042 -36.6581 -36.5745 -36.5665
   -36.5369 -36.3706 -36.3067 -36.2572 -36.2224 -36.2064 -36.2032 -36.1137
   -36.0962 -35.9638 -35.8734 -35.8526 -35.6366 -35.6319 -29.6017 -29.5539
   -29.4547 -29.4381 -29.2480 -29.0730 -28.9625 -28.9112 -28.9021 -28.8029
   -28.7985 -28.7473 -28.6376 -28.4108 -28.2652 -28.1946 -28.1696 -28.0834
    -4.9313  -3.3485  -2.7725  -2.3028  -2.3008  -2.0667  -2.0367  -1.8017
    -1.7992  -1.2392  -1.2309  -1.2247  -1.2245  -1.2041  -1.1407  -0.2981
    -0.0108  -0.0096   0.1466   0.4625   0.6757   0.6907   0.7965   1.0737
     1.3911   1.3966   1.9105   1.9481   2.1480   2.2851   2.2857   2.5595
     2.8357   2.9006   2.9315   3.2772   3.2951   3.4012   3.5177   3.5247
     3.6627   3.7386   3.7845   3.9147   4.2510   4.3849   4.4151   4.7159
     4.7564   4.7718   4.8453   5.3803   5.4475   5.5389   5.8302   5.8978
     5.9971   6.0149   6.2661   6.3068   6.3425   6.3758   6.4967

[...]

          k =-0.0925-0.0456 0.0000 ( 18628 PWs)   bands (ev):

[...]

     the Fermi energy is     2.0970 ev

!    total energy              =   -1673.45526404 Ry
     Harris-Foulkes estimate   =   -1673.45526380 Ry
     estimated scf accuracy    <       0.00000078 Ry

     The total energy is the sum of the following terms:

     one-electron contribution =  -12936.79398322 Ry
     hartree contribution      =    6455.30861914 Ry
     xc contribution           =    -369.34725485 Ry
     ewald contribution        =    5177.46249345 Ry
     electric field correction =       0.00000000 Ry
     smearing contrib. (-TS)   =      -0.08513856 Ry

     convergence has been achieved in  16 iterations

 BEEF-vdW xc energy contributions
           1 :   -322.525279046436
           2 :    296.948556091988
           3 :   -252.315969600241
           4 :    199.062426591541
           5 :   -147.812515254500
           6 :    106.094701463680
           7 :   -76.7247951829695
           8 :    58.1691210903768
[...]
00030 suncat2042 pw.x -in pw.inp   Done                     12/18/2018 20:42:32
00031 suncat2042 pw.x -in pw.inp   Done                     12/18/2018 20:42:32

[...]

     Total force =     0.046354     Total SCF correction =     0.003307

[...]

     Program PWSCF v.5.1rc2 (svn rev. 11289) starts on 18Dec2018 at 20:47:41

     Current dimensions of program PWSCF are:
     Max number of different atomic species (ntypx) = 10
     Max number of k-points (npk) =  40000
     Max angular momentum in pseudopotentials (lmaxx) =  3
     Presently stress not available with electric field

     IMPORTANT: XC functional enforced from input :
     Exchange-correlation      = BEEF-VDW ( 1  4 27 13 2)
     Any further DFT definition will be discarded
     Please, verify this is what you really want

     Subspace diagonalization in iterative solution of the eigenvalue problem:
     a serial algorithm will be used

     Found symmetry operation: I + ( -0.5000  0.0000  0.0000)
     This is a supercell, fractional translations are disabled

     bravais-lattice index     =            0
     lattice parameter (alat)  =       1.8897  a.u.
     unit-cell volume          =    4940.1319 (a.u.)^3
     number of atoms/cell      =           12
     number of atomic types    =            2
     number of electrons       =       162.00
     number of Kohn-Sham states=          111
     kinetic-energy cutoff     =      36.7493  Ry
     charge density cutoff     =     367.4932  Ry
     convergence threshold     =      1.0E-06
     mixing beta               =       0.1000
     number of iterations used =           10  plain     mixing
     Exchange-correlation      = BEEF-VDW ( 1  4 27 13 2)
     nstep                     =           50

     celldm(1)=   1.889726  celldm(2)=   0.000000  celldm(3)=   0.000000
     celldm(4)=   0.000000  celldm(5)=   0.000000  celldm(6)=   0.000000

     crystal axes: (cart. coord. in units of alat)
               a(1) = (   5.407663   0.000000   0.000000 )
               a(2) = (  -2.703831   5.479900   0.000000 )
               a(3) = (   0.000000   0.000000  24.703571 )

     reciprocal axes: (cart. coord. in units 2 pi/alat)
               b(1) = (  0.184923  0.091243  0.000000 )
               b(2) = (  0.000000  0.182485  0.000000 )
               b(3) = (  0.000000  0.000000  0.040480 )

     PseudoPot. # 1 for Nb read from file:
     /afs/slac.stanford.edu/u/if/mamunm/psp/gbrv1.5pbe/Nb.UPF
     MD5 check sum: 573aab8a2fa660278ed4a62cd769473f
     Pseudo is Ultrasoft + core correction, Zval = 13.0
     Generated by new atomic code, or converted to UPF format
     Using radial grid of  887 points,  6 beta functions with:
                l(1) =   0
                l(2) =   0
                l(3) =   1
                l(4) =   1
                l(5) =   2
                l(6) =   2
     Q(r) pseudized with  6 coefficients,  rinner =    1.000   1.000   1.000
                                                       1.000   1.000

     PseudoPot. # 2 for W  read from file:
     /afs/slac.stanford.edu/u/if/mamunm/psp/gbrv1.5pbe/W.UPF
     MD5 check sum: 9c083fa34c2a2ea0f02f1f893e16e1c8
     Pseudo is Ultrasoft + core correction, Zval = 14.0
     Generated by new atomic code, or converted to UPF format
     Using radial grid of  923 points,  8 beta functions with:
                l(1) =   0
                l(2) =   0
                l(3) =   0
                l(4) =   1
                l(5) =   1
                l(6) =   2
                l(7) =   2
                l(8) =   3
     Q(r) pseudized with  6 coefficients,  rinner =    1.350   1.350   1.350
                                                       1.350   1.350   1.350
                                                       1.350

     vdW kernel table read from file vdW_kernel_table
     MD5 check sum: 095c7af220d748ca6e76c0b4c6cfb241

     atomic species   valence    mass     pseudopotential
        Nb1           13.00    92.90637     Nb( 1.00)
        W1            14.00   183.84000     W ( 1.00)

     No symmetry found

   Cartesian axes

     site n.     atom                  positions (alat units)
         1           Nb1 tau(   1) = (   0.0000000   0.0000000  10.0000000  )
         2           Nb1 tau(   2) = (   2.7038313   0.0000000  10.0000000  )
         3           W1  tau(   3) = (   1.3519156   2.7399499  10.0000000  )
         4           W1  tau(   4) = (  -1.3519156   2.7399499  10.0000000  )
         5           Nb1 tau(   5) = (   2.7038313   1.3340944  12.3517856  )
         6           Nb1 tau(   6) = (  -0.0000000   1.3340944  12.3517856  )
         7           W1  tau(   7) = (  -1.3519156   4.0740443  12.3517856  )
         8           W1  tau(   8) = (   1.3519156   4.0740443  12.3517856  )
         9           Nb1 tau(   9) = (  -0.0000347   2.6858389  14.7311119  )
        10           Nb1 tau(  10) = (   2.7037964   2.6858393  14.7311156  )
        11           W1  tau(  11) = (   1.3519505   5.3885510  14.6034740  )
        12           W1  tau(  12) = (  -1.3518849   5.3885515  14.6034762  )

     number of k points=    20  Fermi-Dirac smearing, width (Ry)=  0.0110
                       cart. coord. in units 2pi/alat
        k(    1) = (   0.0000000   0.0000000   0.0000000), wk =   0.0555556
        k(    2) = (   0.0000000   0.0304142   0.0000000), wk =   0.1111111
        k(    3) = (   0.0000000   0.0608284   0.0000000), wk =   0.1111111
        k(    4) = (   0.0000000  -0.0912425   0.0000000), wk =   0.0555556
        k(    5) = (   0.0308205   0.0152071   0.0000000), wk =   0.1111111
        k(    6) = (   0.0308205   0.0456213   0.0000000), wk =   0.1111111
        k(    7) = (   0.0308205   0.0760355   0.0000000), wk =   0.1111111
        k(    8) = (   0.0308205  -0.0760355   0.0000000), wk =   0.1111111
        k(    9) = (   0.0308205  -0.0456213   0.0000000), wk =   0.1111111
        k(   10) = (   0.0308205  -0.0152071   0.0000000), wk =   0.1111111
        k(   11) = (   0.0616409   0.0304142   0.0000000), wk =   0.1111111
        k(   12) = (   0.0616409   0.0608284   0.0000000), wk =   0.1111111
        k(   13) = (   0.0616409   0.0912425   0.0000000), wk =   0.1111111
        k(   14) = (   0.0616409  -0.0608284   0.0000000), wk =   0.1111111
        k(   15) = (   0.0616409  -0.0304142   0.0000000), wk =   0.1111111
        k(   16) = (   0.0616409   0.0000000   0.0000000), wk =   0.1111111
        k(   17) = (  -0.0924614  -0.0456213   0.0000000), wk =   0.0555556
        k(   18) = (  -0.0924614  -0.0152071   0.0000000), wk =   0.1111111
        k(   19) = (  -0.0924614   0.0152071   0.0000000), wk =   0.1111111
        k(   20) = (  -0.0924614  -0.1368638   0.0000000), wk =   0.0555556

     Largest allocated arrays     est. size (Mb)     dimensions
     Largest temporary arrays     est. size (Mb)     dimensions

     Initial potential from superposition of free atoms
     Check: negative starting charge=   -0.381138

     starting charge  161.38156, renormalised to  162.00000

[...]

     *
     * You are using vdW-DF for exchange-correlation in this calculation.
     * Please cite the following three references that made this development
     * possible:
     *
     *   M. Dion, H. Rydberg, E. Schroder, D. C. Langreth, and
     *   B. I. Lundqvist, Phys. Rev. Lett. 92, 246401 (2004).
     *
     *   T. Thonhauser, V. R. Cooper, S. Li, A. Puzder, P. Hyldgaard, and
     *   D. C. Langreth, Phys. Rev. B 76, 125112 (2007).
     *
     *   G. Roman-Perez and J. M. Soler, Phys. Rev. Lett. 103, 096102 (2009).
     *
     *
     * If you are using vdW-DF2, please also cite:
     *
     *   K. Lee, E. D. Murray, L. Kong, B. I. Lundqvist, and
     *   D. C. Langreth, Phys. Rev. B 82, 081101(R) (2010).
     *
     *
     * If you are calculating the stress with vdW-DF, please also cite:
     *
     *   R. Sabatini, E. Kucukbenli, B. Kolb, T. Thonhauser, and
     *   S. de Gironcoli, J. Phys.: Condens. Matter 24, 424209 (2012).
     *

     Carrying out vdW-DF run using the following parameters:

     Nqs =      20    Nr_points =    1024   r_max =   100.000
     q_mesh =
               0.00001000     0.04494208     0.09755937     0.15916263
               0.23128650     0.31572767     0.41458969     0.53033537
               0.66584808     0.82450364     1.01025438     1.22772762
               1.48234092     1.78043706     2.12944203     2.53805004
               3.01644009     3.57652955     4.23227104     5.00000000

     Gradients computed in reciprocal space

[...]

     Starting wfc are  156 randomized atomic wfcs

     Self-consistent Calculation

[...]

     total energy              =   -1673.46120142 Ry
     Harris-Foulkes estimate   =   -1673.46120157 Ry
     estimated scf accuracy    <       0.00000187 Ry

     iteration # 17     ecut=    36.75 Ry     beta=0.10
     Davidson diagonalization with overlap
     ethr =  6.76E-10,  avg # of iterations =  2.0

[...]

     negative rho (up, down):  3.960E-01 0.000E+00

     Adding external electric field

     Computed dipole along edir(3) :
        Dipole                0.0370 Ry au,          0.0941 Debye
        Dipole field          0.0001 Ry au

        Potential amp.       -0.0086 Ry
        Total length         45.5159 bohr

     End of self-consistent calculation

[...]

          k = 0.0616 0.0000 0.0000 ( 18598 PWs)   bands (ev):

[...]

          k =-0.0925-0.1369 0.0000 ( 18628 PWs)   bands (ev):

   -72.1850 -72.1849 -72.0819 -72.0819 -72.0166 -72.0166 -52.8765 -52.8765
   -52.8312 -52.8312 -52.6582 -52.6582 -36.6326 -36.6326 -36.3123 -36.3123
   -36.2770 -36.2770 -36.2261 -36.2261 -36.1287 -36.1287 -36.0963 -36.0963
   -36.0918 -36.0918 -36.0529 -36.0529 -35.8182 -35.8182 -29.3049 -29.3049
   -28.9798 -28.9798 -28.9114 -28.9114 -28.8766 -28.8766 -28.8674 -28.8674
   -28.8158 -28.8158 -28.7729 -28.7729 -28.7071 -28.7070 -28.3337 -28.3336
    -3.0671  -3.0671  -1.7653  -1.7653  -1.1975  -1.1975  -1.0252  -1.0252
    -0.9015  -0.9015  -0.4400  -0.4400  -0.1206  -0.1206   0.1588   0.1588
     0.1631   0.1631   0.6066   0.6066   0.8378   0.8378   1.1129   1.1129
     1.2326   1.2326   1.4225   1.4225   1.5158   1.5158   1.8315   1.8315
     1.9328   1.9328   2.0767   2.0767   2.2748   2.2748   2.9534   2.9534
     3.2828   3.2828   3.4049   3.4049   3.5818   3.5818   3.7975   3.7975
     4.0048   4.0048   4.0558   4.0558   4.1031   4.1031   4.4402   4.4402
     4.8001   4.8001   5.4607   5.4607   5.7918   5.7919   6.0590

     the Fermi energy is     2.1290 ev

!    total energy              =   -1673.46120081 Ry
     Harris-Foulkes estimate   =   -1673.46120033 Ry
     estimated scf accuracy    <       0.00000084 Ry

     The total energy is the sum of the following terms:

     one-electron contribution =  -13008.30327542 Ry
     hartree contribution      =    6491.24174716 Ry
     xc contribution           =    -369.44206165 Ry
     ewald contribution        =    5213.12733722 Ry
     electric field correction =       0.00000349 Ry
     smearing contrib. (-TS)   =      -0.08495161 Ry

     convergence has been achieved in  17 iterations

 BEEF-vdW xc energy contributions
           1 :   -322.620177596637
           2 :    297.072462432989
           3 :   -252.478987510373
           4 :    199.246719265488
           5 :   -147.978724429711
           6 :    106.201874310405
           7 :   -76.7542000661439
           8 :    58.1372498147346
           9 :   -46.3398865209999
          10 :    37.1091475073586
          11 :   -27.6872285922383
          12 :    17.4323203751513
          13 :   -7.34893218469182
          14 :   -1.00519706113113
          15 :    6.58162802739690
          16 :   -9.38567004675218
          17 :    10.3454006890168
          18 :   -10.7154420334621
          19 :    11.4075547857461
          20 :   -12.6157075521969
          21 :    13.8810216260040
          22 :   -14.4963138692912
          23 :    13.9809981650849
          24 :   -12.3663606450871
          25 :    10.1620755753165
          26 :   -8.06503574979507
          27 :    6.59489082198075
          28 :   -5.86364646472629
          29 :    5.58811323934299
          30 :   -5.31400223829377
          31 :   -31.5606264716494
          32 :   -23.7224585399364

     Forces acting on atoms (Ry/au):

     negative rho (up, down):  3.960E-01 0.000E+00
     atom    1 type  1   force =     0.00000071   -0.00757322   -0.00838445
     atom    2 type  1   force =     0.00000151   -0.00757100   -0.00838240
     atom    3 type  2   force =     0.00000926    0.00421883    0.02566679
     atom    4 type  2   force =     0.00000243    0.00421687    0.02566448
     atom    5 type  1   force =    -0.00001048    0.01063086   -0.00293537
     atom    6 type  1   force =    -0.00001007    0.01063014   -0.00293705
     atom    7 type  2   force =     0.00000243   -0.00849481   -0.01523811
     atom    8 type  2   force =     0.00000490   -0.00849552   -0.01523922
     atom    9 type  1   force =    -0.00000729    0.00013047   -0.00019906
     atom   10 type  1   force =    -0.00000786    0.00012832   -0.00020194
     atom   11 type  2   force =     0.00000259    0.00108846    0.00109170
     atom   12 type  2   force =     0.00001186    0.00109059    0.00109463

     Total force =     0.049651     Total SCF correction =     0.006212
     SCF correction compared to forces is large: reduce conv_thr to get better values

     entering subroutine stress ...

     negative rho (up, down):  3.960E-01 0.000E+00
          total   stress  (Ry/bohr**3)                   (kbar)     P=  -29.55
  -0.00023360  -0.00000000   0.00000000        -34.36     -0.00      0.00
  -0.00000000  -0.00030078   0.00000818         -0.00    -44.25      1.20
   0.00000000   0.00000818  -0.00006819          0.00      1.20    -10.03

 !ASE

     Writing output data file calc.save

     General routines

     Parallel routines

   This run was terminated on:  20:52:46  18Dec2018

   JOB DONE.
Job  /afs/slac/g/suncat/bin/suncat-tsmpirun -x LD_LIBRARY_PATH -wdir /scratch/qe530327_GsHgd pw.x -in pw.inp

TID   HOST_NAME   COMMAND_LINE            STATUS            TERMINATION_TIME
00000 suncat2063 pw.x -in pw.inp   Done                     12/18/2018 20:52:46
00001 suncat2063 pw.x -in pw.inp   Done                     12/18/2018 20:52:46
00002 suncat2063 pw.x -in pw.inp   Done                     12/18/2018 20:52:46
00003 suncat2063 pw.x -in pw.inp   Done                     12/18/2018 20:52:46
00004 suncat2063 pw.x -in pw.inp   Done                     12/18/2018 20:52:46
00005 suncat2063 pw.x -in pw.inp   Done                     12/18/2018 20:52:46
00006 suncat2063 pw.x -in pw.inp   Done                     12/18/2018 20:52:46
00007 suncat2063 pw.x -in pw.inp   Done                     12/18/2018 20:52:46
00008 suncat2063 pw.x -in pw.inp   Done                     12/18/2018 20:52:46
00009 suncat2063 pw.x -in pw.inp   Done                     12/18/2018 20:52:46
00010 suncat2063 pw.x -in pw.inp   Done                     12/18/2018 20:52:46
00011 suncat2063 pw.x -in pw.inp   Done                     12/18/2018 20:52:46
00012 suncat2063 pw.x -in pw.inp   Done                     12/18/2018 20:52:46
00013 suncat2063 pw.x -in pw.inp   Done                     12/18/2018 20:52:46
00014 suncat2063 pw.x -in pw.inp   Done                     12/18/2018 20:52:46
00015 suncat2063 pw.x -in pw.inp   Done                     12/18/2018 20:52:46
00016 suncat2042 pw.x -in pw.inp   Done                     12/18/2018 20:52:46
00017 suncat2042 pw.x -in pw.inp   Done                     12/18/2018 20:52:46
00018 suncat2042 pw.x -in pw.inp   Done                     12/18/2018 20:52:46
00019 suncat2042 pw.x -in pw.inp   Done                     12/18/2018 20:52:46
00020 suncat2042 pw.x -in pw.inp   Done                     12/18/2018 20:52:46
00021 suncat2042 pw.x -in pw.inp   Done                     12/18/2018 20:52:46
00022 suncat2042 pw.x -in pw.inp   Done                     12/18/2018 20:52:46
00023 suncat2042 pw.x -in pw.inp   Done                     12/18/2018 20:52:46
00024 suncat2042 pw.x -in pw.inp   Done                     12/18/2018 20:52:46
00025 suncat2042 pw.x -in pw.inp   Done                     12/18/2018 20:52:46
00026 suncat2042 pw.x -in pw.inp   Done                     12/18/2018 20:52:46
00027 suncat2042 pw.x -in pw.inp   Done                     12/18/2018 20:52:46
00028 suncat2042 pw.x -in pw.inp   Done                     12/18/2018 20:52:46
00029 suncat2042 pw.x -in pw.inp   Done                     12/18/2018 20:52:46
00030 suncat2042 pw.x -in pw.inp   Done                     12/18/2018 20:52:46
00031 suncat2042 pw.x -in pw.inp   Done                     12/18/2018 20:52:46