     Program PWSCF v.5.1rc2 (svn rev. 11289) starts on 31Dec2018 at  5:45:36

     Current dimensions of program PWSCF are:
     Max number of different atomic species (ntypx) = 10
     Max number of k-points (npk) =  40000
     Max angular momentum in pseudopotentials (lmaxx) =  3
     Presently stress not available with electric field

     IMPORTANT: XC functional enforced from input :
     Exchange-correlation      = BEEF-VDW ( 1  4 27 13 2)
     Any further DFT definition will be discarded
     Please, verify this is what you really want

     Subspace diagonalization in iterative solution of the eigenvalue problem:
     a serial algorithm will be used

     bravais-lattice index     =            0
     lattice parameter (alat)  =       1.8897  a.u.
     unit-cell volume          =    4144.4110 (a.u.)^3
     number of atoms/cell      =           12
     number of atomic types    =            2
     number of electrons       =       186.00
     number of Kohn-Sham states=          123
     kinetic-energy cutoff     =      36.7493  Ry
     charge density cutoff     =     367.4932  Ry
     convergence threshold     =      1.0E-06
     mixing beta               =       0.1000
     number of iterations used =           10  plain     mixing
     Exchange-correlation      = BEEF-VDW ( 1  4 27 13 2)
     nstep                     =           50

     celldm(1)=   1.889726  celldm(2)=   0.000000  celldm(3)=   0.000000
     celldm(4)=   0.000000  celldm(5)=   0.000000  celldm(6)=   0.000000

     crystal axes: (cart. coord. in units of alat)
               a(1) = (   5.390865   0.000000   0.000000 )
               a(2) = (  -2.695432   4.668626   0.000000 )
               a(3) = (   0.000000   0.000000  24.401623 )

     reciprocal axes: (cart. coord. in units 2 pi/alat)
               b(1) = (  0.185499  0.107098  0.000000 )
               b(2) = (  0.000000  0.214196  0.000000 )
               b(3) = (  0.000000  0.000000  0.040981 )

     PseudoPot. # 1 for Os read from file:
     /afs/slac.stanford.edu/u/if/mamunm/psp/gbrv1.5pbe/Os.UPF
     MD5 check sum: a3fb40a04f0c37c25c34bbc47164c9a8
     Pseudo is Ultrasoft + core correction, Zval = 16.0
     Generated by new atomic code, or converted to UPF format
     Using radial grid of  983 points,  8 beta functions with:
                l(1) =   0
                l(2) =   0
                l(3) =   1
                l(4) =   1
                l(5) =   2
                l(6) =   2
                l(7) =   3
                l(8) =   3
     Q(r) pseudized with  8 coefficients,  rinner =    1.150   1.150   1.150
                                                       1.150   1.150   1.150
                                                       1.150

     PseudoPot. # 2 for Cr read from file:
     /afs/slac.stanford.edu/u/if/mamunm/psp/gbrv1.5pbe/Cr.UPF
     MD5 check sum: 0d52af634a40206e4dee301ad30da4bf
     Pseudo is Ultrasoft + core correction, Zval = 14.0
     Generated by new atomic code, or converted to UPF format
     Using radial grid of  857 points,  6 beta functions with:
                l(1) =   0
                l(2) =   0
                l(3) =   1
                l(4) =   1
                l(5) =   2
                l(6) =   2
     Q(r) pseudized with  8 coefficients,  rinner =    0.950   0.950   0.950
                                                       0.950   0.950

     vdW kernel table read from file vdW_kernel_table
     MD5 check sum: 095c7af220d748ca6e76c0b4c6cfb241

     atomic species   valence    mass     pseudopotential
        Os1           16.00   190.23000     Os( 1.00)
        Cr1           14.00    51.99610     Cr( 1.00)

     No symmetry found

   Cartesian axes

     site n.     atom                  positions (alat units)
         1           Os1 tau(   1) = (   0.0000000   0.0000000  10.0000000  )
         2           Os1 tau(   2) = (  -1.3477162   2.3343129  10.0000000  )
         3           Os1 tau(   3) = (   1.3477162   2.3343129  10.0000000  )
         4           Cr1 tau(   4) = (   2.6954324   0.0000000  10.0000000  )
         5           Os1 tau(   5) = (   2.6954324   1.5562086  12.2008113  )
         6           Os1 tau(   6) = (   1.3477162   3.8905216  12.2008113  )
         7           Os1 tau(   7) = (  -1.3477162   3.8905216  12.2008113  )
         8           Cr1 tau(   8) = (   0.0000000   1.5562086  12.2008113  )
         9           Os1 tau(   9) = (  -0.0000000   3.1124172  14.4016227  )
        10           Os1 tau(  10) = (   1.3477162   0.7781043  14.4016227  )
        11           Os1 tau(  11) = (   4.0431486   0.7781043  14.4016227  )
        12           Cr1 tau(  12) = (   2.6954324   3.1124172  14.4016227  )

     number of k points=    20  Fermi-Dirac smearing, width (Ry)=  0.0110
                       cart. coord. in units 2pi/alat
        k(    1) = (   0.0000000   0.0000000   0.0000000), wk =   0.0555556
        k(    2) = (   0.0000000   0.0356993   0.0000000), wk =   0.1111111
        k(    3) = (   0.0000000   0.0713986   0.0000000), wk =   0.1111111
        k(    4) = (   0.0000000  -0.1070979   0.0000000), wk =   0.0555556
        k(    5) = (   0.0309165   0.0178496   0.0000000), wk =   0.1111111
        k(    6) = (   0.0309165   0.0535489   0.0000000), wk =   0.1111111
        k(    7) = (   0.0309165   0.0892482   0.0000000), wk =   0.1111111
        k(    8) = (   0.0309165  -0.0892482   0.0000000), wk =   0.1111111
        k(    9) = (   0.0309165  -0.0535489   0.0000000), wk =   0.1111111
        k(   10) = (   0.0309165  -0.0178496   0.0000000), wk =   0.1111111
        k(   11) = (   0.0618330   0.0356993   0.0000000), wk =   0.1111111
        k(   12) = (   0.0618330   0.0713986   0.0000000), wk =   0.1111111
        k(   13) = (   0.0618330   0.1070979   0.0000000), wk =   0.1111111
        k(   14) = (   0.0618330  -0.0713986   0.0000000), wk =   0.1111111
        k(   15) = (   0.0618330  -0.0356993   0.0000000), wk =   0.1111111
        k(   16) = (   0.0618330   0.0000000   0.0000000), wk =   0.1111111
        k(   17) = (  -0.0927495  -0.0535489   0.0000000), wk =   0.0555556
        k(   18) = (  -0.0927495  -0.0178496   0.0000000), wk =   0.1111111
        k(   19) = (  -0.0927495   0.0178496   0.0000000), wk =   0.1111111
        k(   20) = (  -0.0927495  -0.1606468   0.0000000), wk =   0.0555556

     Largest allocated arrays     est. size (Mb)     dimensions
     Largest temporary arrays     est. size (Mb)     dimensions

     Check: negative/imaginary core charge=   -0.000001    0.000000

     Initial potential from superposition of free atoms
     Check: negative starting charge=   -1.124496

     starting charge  178.49963, renormalised to  186.00000

     negative rho (up, down):  1.172E+00 0.000E+00

     *
     * You are using vdW-DF for exchange-correlation in this calculation.
     * Please cite the following three references that made this development
     * possible:
     *
     *   M. Dion, H. Rydberg, E. Schroder, D. C. Langreth, and
     *   B. I. Lundqvist, Phys. Rev. Lett. 92, 246401 (2004).
     *
     *   T. Thonhauser, V. R. Cooper, S. Li, A. Puzder, P. Hyldgaard, and
     *   D. C. Langreth, Phys. Rev. B 76, 125112 (2007).
     *
     *   G. Roman-Perez and J. M. Soler, Phys. Rev. Lett. 103, 096102 (2009).
     *
     *
     * If you are using vdW-DF2, please also cite:
     *
     *   K. Lee, E. D. Murray, L. Kong, B. I. Lundqvist, and
     *   D. C. Langreth, Phys. Rev. B 82, 081101(R) (2010).
     *
     *
     * If you are calculating the stress with vdW-DF, please also cite:
     *
     *   R. Sabatini, E. Kucukbenli, B. Kolb, T. Thonhauser, and
     *   S. de Gironcoli, J. Phys.: Condens. Matter 24, 424209 (2012).
     *

     Carrying out vdW-DF run using the following parameters:

     Nqs =      20    Nr_points =    1024   r_max =   100.000
     q_mesh =
               0.00001000     0.04494208     0.09755937     0.15916263
               0.23128650     0.31572767     0.41458969     0.53033537
               0.66584808     0.82450364     1.01025438     1.22772762
               1.48234092     1.78043706     2.12944203     2.53805004
               3.01644009     3.57652955     4.23227104     5.00000000

     Gradients computed in reciprocal space

     Adding external electric field

     Computed dipole along edir(3) :
        Dipole               -0.0000 Ry au,         -0.0000 Debye
        Dipole field         -0.0000 Ry au

        Potential amp.        0.0000 Ry
        Total length         44.9596 bohr

     Starting wfc are  147 randomized atomic wfcs

     Self-consistent Calculation

     iteration #  1     ecut=    36.75 Ry     beta=0.10
     Davidson diagonalization with overlap
     ethr =  1.00E-02,  avg # of iterations =  6.5

[...]

     total energy              =   -2327.41472919 Ry
     Harris-Foulkes estimate   =   -2328.26594571 Ry
     estimated scf accuracy    <       5.41258596 Ry

[...]

     End of self-consistent calculation

          k = 0.0000 0.0000 0.0000 ( 15569 PWs)   bands (ev):

   -84.4088 -84.3569 -84.3569 -83.9743 -83.9729 -83.9237 -83.9237 -83.9234
   -83.9234 -69.5696 -69.4099 -69.4097 -44.1374 -43.8854 -43.8854 -43.8565
   -43.7327 -43.7327 -43.6854 -43.6367 -43.4580 -43.3702 -43.3702 -43.3475
   -43.3475 -43.2802 -43.2802 -43.2696 -43.1863 -43.1863 -43.1498 -43.1133
   -43.1133 -42.9650 -42.9490 -42.9193 -42.9193 -42.9156 -42.9156 -40.8463
   -40.8463 -40.8321 -40.8133 -40.7984 -40.6182 -40.6182 -40.6150 -40.6150
    -6.5475  -4.6581  -4.1437  -4.0535  -3.5466  -3.5466  -3.4757  -3.1583
    -3.1583  -2.9230  -2.7643  -2.7643  -2.7086  -2.3728  -2.3728  -1.6412
    -0.8936  -0.8936  -0.4605  -0.4605  -0.2478  -0.1782   0.1616   0.3572
     0.5075   0.5075   0.6988   0.6988   0.8280   0.8280   1.1969   1.1969
     1.2120   1.2120   1.6930   1.7403   2.3314   2.3314   2.4416   2.5338
     2.6293   2.6293   2.8670   2.8670   2.8922   3.4046   3.4046   3.7783
     3.8901   3.8901   4.0453   4.0453   4.0746   4.0855   4.0855   4.3336
     4.3336   4.4347   4.6056   4.6056   4.9537   4.9537   5.0460   5.0460
     5.2114   5.7071   5.7943   6.1592   6.4872   6.4872   6.5044   6.9406
     7.0680   7.0680   7.1242

[...]

          k =-0.0927-0.0535 0.0000 ( 15624 PWs)   bands (ev):

[...]

     the Fermi energy is     2.4857 ev

!    total energy              =   -2326.74906360 Ry
     Harris-Foulkes estimate   =   -2326.74906128 Ry
     estimated scf accuracy    <       0.00000055 Ry

     The total energy is the sum of the following terms:

     one-electron contribution =  -20710.57195226 Ry
     hartree contribution      =   10338.89216668 Ry
     xc contribution           =    -417.78114458 Ry
     ewald contribution        =    8462.80252814 Ry
     electric field correction =       0.00000000 Ry
     smearing contrib. (-TS)   =      -0.09066158 Ry

     convergence has been achieved in  18 iterations

 BEEF-vdW xc energy contributions
           1 :   -365.362696289314
           2 :    336.989570492037
           3 :   -287.451351324948
           4 :    228.370967284162
           5 :   -171.764074633939
           6 :    126.466941956974
           7 :   -96.2351194244362
[...]
     Using radial grid of  983 points,  8 beta functions with:
                l(1) =   0
                l(2) =   0
                l(3) =   1
                l(4) =   1
                l(5) =   2
                l(6) =   2
                l(7) =   3
                l(8) =   3
     Q(r) pseudized with  8 coefficients,  rinner =    1.150   1.150   1.150
                                                       1.150   1.150   1.150
                                                       1.150

     PseudoPot. # 2 for Cr read from file:
     /afs/slac.stanford.edu/u/if/mamunm/psp/gbrv1.5pbe/Cr.UPF
     MD5 check sum: 0d52af634a40206e4dee301ad30da4bf
     Pseudo is Ultrasoft + core correction, Zval = 14.0
     Generated by new atomic code, or converted to UPF format
     Using radial grid of  857 points,  6 beta functions with:
                l(1) =   0
                l(2) =   0
                l(3) =   1
                l(4) =   1
                l(5) =   2
                l(6) =   2
     Q(r) pseudized with  8 coefficients,  rinner =    0.950   0.950   0.950
                                                       0.950   0.950

     vdW kernel table read from file vdW_kernel_table
     MD5 check sum: 095c7af220d748ca6e76c0b4c6cfb241

     atomic species   valence    mass     pseudopotential
        Os1           16.00   190.23000     Os( 1.00)
        Cr1           14.00    51.99610     Cr( 1.00)

     No symmetry found

   Cartesian axes

     site n.     atom                  positions (alat units)
         1           Os1 tau(   1) = (   0.0000000   0.0000000  10.0000000  )
         2           Os1 tau(   2) = (  -1.3477162   2.3343129  10.0000000  )
         3           Os1 tau(   3) = (   1.3477162   2.3343129  10.0000000  )
         4           Cr1 tau(   4) = (   2.6954324   0.0000000  10.0000000  )
         5           Os1 tau(   5) = (   2.6954324   1.5562086  12.2008113  )
         6           Os1 tau(   6) = (   1.3477162   3.8905216  12.2008113  )
         7           Os1 tau(   7) = (  -1.3477162   3.8905216  12.2008113  )
         8           Cr1 tau(   8) = (   0.0000000   1.5562086  12.2008113  )
         9           Os1 tau(   9) = (  -0.0000008   3.1010853  14.3157220  )
        10           Os1 tau(  10) = (   1.3379012   0.7837680  14.3157217  )
        11           Os1 tau(  11) = (   4.0529644   0.7837691  14.3157212  )
        12           Cr1 tau(  12) = (   2.6954330   3.1124162  14.2499518  )

     number of k points=    20  Fermi-Dirac smearing, width (Ry)=  0.0110
                       cart. coord. in units 2pi/alat
        k(    1) = (   0.0000000   0.0000000   0.0000000), wk =   0.0555556
        k(    2) = (   0.0000000   0.0356993   0.0000000), wk =   0.1111111
        k(    3) = (   0.0000000   0.0713986   0.0000000), wk =   0.1111111
        k(    4) = (   0.0000000  -0.1070979   0.0000000), wk =   0.0555556
        k(    5) = (   0.0309165   0.0178496   0.0000000), wk =   0.1111111
        k(    6) = (   0.0309165   0.0535489   0.0000000), wk =   0.1111111
        k(    7) = (   0.0309165   0.0892482   0.0000000), wk =   0.1111111
        k(    8) = (   0.0309165  -0.0892482   0.0000000), wk =   0.1111111
        k(    9) = (   0.0309165  -0.0535489   0.0000000), wk =   0.1111111
        k(   10) = (   0.0309165  -0.0178496   0.0000000), wk =   0.1111111
        k(   11) = (   0.0618330   0.0356993   0.0000000), wk =   0.1111111
        k(   12) = (   0.0618330   0.0713986   0.0000000), wk =   0.1111111
        k(   13) = (   0.0618330   0.1070979   0.0000000), wk =   0.1111111
        k(   14) = (   0.0618330  -0.0713986   0.0000000), wk =   0.1111111
        k(   15) = (   0.0618330  -0.0356993   0.0000000), wk =   0.1111111
        k(   16) = (   0.0618330   0.0000000   0.0000000), wk =   0.1111111
        k(   17) = (  -0.0927495  -0.0535489   0.0000000), wk =   0.0555556
        k(   18) = (  -0.0927495  -0.0178496   0.0000000), wk =   0.1111111
        k(   19) = (  -0.0927495   0.0178496   0.0000000), wk =   0.1111111
        k(   20) = (  -0.0927495  -0.1606468   0.0000000), wk =   0.0555556

     Largest allocated arrays     est. size (Mb)     dimensions
     Largest temporary arrays     est. size (Mb)     dimensions

     Check: negative/imaginary core charge=   -0.000001    0.000000

     Initial potential from superposition of free atoms
     Check: negative starting charge=   -1.127225

     starting charge  178.49963, renormalised to  186.00000

[...]

     *
     * You are using vdW-DF for exchange-correlation in this calculation.
     * Please cite the following three references that made this development
     * possible:
     *
     *   M. Dion, H. Rydberg, E. Schroder, D. C. Langreth, and
     *   B. I. Lundqvist, Phys. Rev. Lett. 92, 246401 (2004).
     *
     *   T. Thonhauser, V. R. Cooper, S. Li, A. Puzder, P. Hyldgaard, and
     *   D. C. Langreth, Phys. Rev. B 76, 125112 (2007).
     *
     *   G. Roman-Perez and J. M. Soler, Phys. Rev. Lett. 103, 096102 (2009).
     *
     *
     * If you are using vdW-DF2, please also cite:
     *
     *   K. Lee, E. D. Murray, L. Kong, B. I. Lundqvist, and
     *   D. C. Langreth, Phys. Rev. B 82, 081101(R) (2010).
     *
     *
     * If you are calculating the stress with vdW-DF, please also cite:
     *
     *   R. Sabatini, E. Kucukbenli, B. Kolb, T. Thonhauser, and
     *   S. de Gironcoli, J. Phys.: Condens. Matter 24, 424209 (2012).
     *

     Carrying out vdW-DF run using the following parameters:

     Nqs =      20    Nr_points =    1024   r_max =   100.000
     q_mesh =
               0.00001000     0.04494208     0.09755937     0.15916263
               0.23128650     0.31572767     0.41458969     0.53033537
               0.66584808     0.82450364     1.01025438     1.22772762
               1.48234092     1.78043706     2.12944203     2.53805004
               3.01644009     3.57652955     4.23227104     5.00000000

     Gradients computed in reciprocal space

[...]

     Starting wfc are  147 randomized atomic wfcs

     Self-consistent Calculation

[...]

     total energy              =   -2326.76363210 Ry
     Harris-Foulkes estimate   =   -2326.76363153 Ry
     estimated scf accuracy    <       0.00000113 Ry

     iteration # 19     ecut=    36.75 Ry     beta=0.10
     Davidson diagonalization with overlap
     ethr =  6.06E-10,  avg # of iterations =  2.0

[...]

     negative rho (up, down):  1.142E+00 0.000E+00

     Adding external electric field

     Computed dipole along edir(3) :
        Dipole                0.0230 Ry au,          0.0585 Debye
        Dipole field          0.0001 Ry au

        Potential amp.       -0.0063 Ry
        Total length         44.9596 bohr

     End of self-consistent calculation

[...]

          k = 0.0618 0.0000 0.0000 ( 15580 PWs)   bands (ev):

[...]

          k =-0.0927-0.1606 0.0000 ( 15624 PWs)   bands (ev):

   -84.4089 -84.3915 -84.3739 -83.9610 -83.9435 -83.9272 -83.9177 -83.9010
   -83.8843 -69.5677 -69.4001 -69.3716 -44.0303 -43.8803 -43.8326 -43.7863
   -43.7389 -43.7247 -43.6676 -43.6596 -43.5115 -43.4541 -43.3959 -43.2781
   -43.2323 -43.2081 -43.1984 -43.1890 -43.1843 -43.1578 -43.1437 -43.1430
   -43.1176 -43.1106 -43.0968 -43.0742 -43.0641 -42.9407 -42.8933 -40.8737
   -40.8582 -40.8217 -40.8017 -40.7490 -40.6296 -40.6186 -40.6134 -40.6017
    -4.9663  -4.4890  -3.2759  -3.1054  -3.0534  -2.7562  -2.7376  -2.4745
    -2.3267  -2.3008  -2.2109  -1.9950  -1.6427  -1.6413  -1.5055  -1.3801
    -1.3521  -1.0023  -0.9577  -0.8700  -0.4516  -0.2164  -0.1402  -0.0252
     0.0630   0.0942   0.1510   0.2002   0.3104   0.3297   0.3625   0.6574
     0.6974   0.7308   1.0205   1.0571   1.0950   1.2752   1.4242   1.6300
     1.6604   1.8502   1.8809   2.2819   2.3726   2.3955   2.3965   2.6764
     2.7299   2.8587   2.9742   3.0504   3.0514   3.1161   3.2941   3.3266
     3.4887   3.5389   4.0365   4.0696   4.5573   4.5756   4.6019   5.1827
     5.2688   5.4941   6.2503   6.8460   7.2463   7.4840   7.5955   7.7339
     8.6015   8.6225   8.7634

     the Fermi energy is     2.4967 ev

!    total energy              =   -2326.76363397 Ry
     Harris-Foulkes estimate   =   -2326.76363210 Ry
     estimated scf accuracy    <       0.00000043 Ry

     The total energy is the sum of the following terms:

     one-electron contribution =  -21008.19860242 Ry
     hartree contribution      =   10487.68636283 Ry
     xc contribution           =    -418.03910850 Ry
     ewald contribution        =    8611.87761611 Ry
     electric field correction =       0.00000161 Ry
     smearing contrib. (-TS)   =      -0.08990359 Ry

     convergence has been achieved in  19 iterations

 BEEF-vdW xc energy contributions
           1 :   -365.624682155432
           2 :    337.343250606815
           3 :   -287.927957835326
           4 :    228.916954651087
           5 :   -172.266311619080
           6 :    126.811895542083
           7 :   -96.3673814581279
           8 :    79.8131694449753
           9 :   -72.7630815054119
          10 :    69.8791769557740
          11 :   -66.8747850505466
          12 :    61.5715941508776
          13 :   -53.9006358458462
          14 :    45.1587565703191
          15 :   -37.0310160809681
          16 :    30.8044209200906
          17 :   -26.9842822946748
          18 :    25.2942640241695
          19 :   -24.9261013265096
          20 :    24.8837449387275
          21 :   -24.3141314687826
          22 :    22.7529656739115
          23 :   -20.2371708702203
          24 :    17.2469925170578
          25 :   -14.4855321336561
          26 :    12.5669741068223
          27 :   -11.7433009902228
          28 :    11.7950680959250
          29 :   -12.1470264938978
          30 :    12.1564078937155
          31 :   -34.8397654498894
          32 :   -26.3415142955465

     Forces acting on atoms (Ry/au):

     negative rho (up, down):  1.142E+00 0.000E+00
     atom    1 type  1   force =    -0.00000019    0.00714241    0.01778403
     atom    2 type  1   force =     0.00618517   -0.00357157    0.01778382
     atom    3 type  1   force =    -0.00618471   -0.00357052    0.01778454
     atom    4 type  2   force =    -0.00000001    0.00000010    0.02839329
     atom    5 type  1   force =     0.00000075    0.00568818   -0.02337327
     atom    6 type  1   force =     0.00492573   -0.00284330   -0.02337299
     atom    7 type  1   force =    -0.00492553   -0.00284487   -0.02337338
     atom    8 type  2   force =    -0.00000004   -0.00000033   -0.01053825
     atom    9 type  1   force =     0.00000047   -0.00060310   -0.00002170
     atom   10 type  1   force =    -0.00052132    0.00030191   -0.00002203
     atom   11 type  1   force =     0.00052015    0.00030117   -0.00002211
     atom   12 type  2   force =    -0.00000046   -0.00000009   -0.00102196

     Total force =     0.061296     Total SCF correction =     0.002573

     entering subroutine stress ...

     negative rho (up, down):  1.142E+00 0.000E+00
          total   stress  (Ry/bohr**3)                   (kbar)     P=  -27.73
  -0.00023566  -0.00000000  -0.00000000        -34.67     -0.00     -0.00
  -0.00000000  -0.00023566   0.00000000         -0.00    -34.67      0.00
  -0.00000000   0.00000000  -0.00009427         -0.00      0.00    -13.87

 !ASE

     Writing output data file calc.save

     General routines

     Parallel routines

   This run was terminated on:   6:58:44  31Dec2018

   JOB DONE.
Job  /afs/slac/g/suncat/bin/suncat-tsmpirun -x LD_LIBRARY_PATH -wdir /scratch/qe648686_wkdYM pw.x -in pw.inp

TID   HOST_NAME   COMMAND_LINE            STATUS            TERMINATION_TIME
00000 suncat0074 pw.x -in pw.inp   Done                     12/31/2018 06:58:44
00001 suncat0074 pw.x -in pw.inp   Done                     12/31/2018 06:58:44
00002 suncat0074 pw.x -in pw.inp   Done                     12/31/2018 06:58:44
00003 suncat0074 pw.x -in pw.inp   Done                     12/31/2018 06:58:44
00004 suncat0074 pw.x -in pw.inp   Done                     12/31/2018 06:58:44
00005 suncat0074 pw.x -in pw.inp   Done                     12/31/2018 06:58:44
00006 suncat0074 pw.x -in pw.inp   Done                     12/31/2018 06:58:44
00007 suncat0074 pw.x -in pw.inp   Done                     12/31/2018 06:58:44
00008 suncat0073 pw.x -in pw.inp   Done                     12/31/2018 06:58:44
00009 suncat0073 pw.x -in pw.inp   Done                     12/31/2018 06:58:44
00010 suncat0073 pw.x -in pw.inp   Done                     12/31/2018 06:58:44
00011 suncat0073 pw.x -in pw.inp   Done                     12/31/2018 06:58:44
00012 suncat0073 pw.x -in pw.inp   Done                     12/31/2018 06:58:44
00013 suncat0073 pw.x -in pw.inp   Done                     12/31/2018 06:58:44
00014 suncat0073 pw.x -in pw.inp   Done                     12/31/2018 06:58:44
00015 suncat0073 pw.x -in pw.inp   Done                     12/31/2018 06:58:44
00016 suncat0065 pw.x -in pw.inp   Done                     12/31/2018 06:58:44
00017 suncat0065 pw.x -in pw.inp   Done                     12/31/2018 06:58:44
00018 suncat0065 pw.x -in pw.inp   Done                     12/31/2018 06:58:44
00019 suncat0065 pw.x -in pw.inp   Done                     12/31/2018 06:58:44
00020 suncat0065 pw.x -in pw.inp   Done                     12/31/2018 06:58:44
00021 suncat0065 pw.x -in pw.inp   Done                     12/31/2018 06:58:44
00022 suncat0065 pw.x -in pw.inp   Done                     12/31/2018 06:58:44
00023 suncat0065 pw.x -in pw.inp   Done                     12/31/2018 06:58:44
00024 suncat0064 pw.x -in pw.inp   Done                     12/31/2018 06:58:44
00025 suncat0064 pw.x -in pw.inp   Done                     12/31/2018 06:58:44
00026 suncat0064 pw.x -in pw.inp   Done                     12/31/2018 06:58:44
00027 suncat0064 pw.x -in pw.inp   Done                     12/31/2018 06:58:44
00028 suncat0064 pw.x -in pw.inp   Done                     12/31/2018 06:58:44
00029 suncat0064 pw.x -in pw.inp   Done                     12/31/2018 06:58:44
00030 suncat0064 pw.x -in pw.inp   Done                     12/31/2018 06:58:44
00031 suncat0064 pw.x -in pw.inp   Done                     12/31/2018 06:58:44
00032 suncat0139 pw.x -in pw.inp   Done                     12/31/2018 06:58:44
00033 suncat0139 pw.x -in pw.inp   Done                     12/31/2018 06:58:44
00034 suncat0139 pw.x -in pw.inp   Done                     12/31/2018 06:58:44
00035 suncat0139 pw.x -in pw.inp   Done                     12/31/2018 06:58:44
00036 suncat0139 pw.x -in pw.inp   Done                     12/31/2018 06:58:44
00037 suncat0139 pw.x -in pw.inp   Done                     12/31/2018 06:58:44
00038 suncat0139 pw.x -in pw.inp   Done                     12/31/2018 06:58:44
00039 suncat0139 pw.x -in pw.inp   Done                     12/31/2018 06:58:44
00040 suncat0124 pw.x -in pw.inp   Done                     12/31/2018 06:58:44
00041 suncat0124 pw.x -in pw.inp   Done                     12/31/2018 06:58:44
00042 suncat0124 pw.x -in pw.inp   Done                     12/31/2018 06:58:44
00043 suncat0124 pw.x -in pw.inp   Done                     12/31/2018 06:58:44
00044 suncat0124 pw.x -in pw.inp   Done                     12/31/2018 06:58:44
00045 suncat0124 pw.x -in pw.inp   Done                     12/31/2018 06:58:44
00046 suncat0124 pw.x -in pw.inp   Done                     12/31/2018 06:58:44
00047 suncat0124 pw.x -in pw.inp   Done                     12/31/2018 06:58:44
00048 suncat0123 pw.x -in pw.inp   Done                     12/31/2018 06:58:44
00049 suncat0123 pw.x -in pw.inp   Done                     12/31/2018 06:58:44
00050 suncat0123 pw.x -in pw.inp   Done                     12/31/2018 06:58:44
00051 suncat0123 pw.x -in pw.inp   Done                     12/31/2018 06:58:44
00052 suncat0123 pw.x -in pw.inp   Done                     12/31/2018 06:58:44
00053 suncat0123 pw.x -in pw.inp   Done                     12/31/2018 06:58:44
00054 suncat0123 pw.x -in pw.inp   Done                     12/31/2018 06:58:44
00055 suncat0123 pw.x -in pw.inp   Done                     12/31/2018 06:58:44
00056 suncat0122 pw.x -in pw.inp   Done                     12/31/2018 06:58:44
00057 suncat0122 pw.x -in pw.inp   Done                     12/31/2018 06:58:44
00058 suncat0122 pw.x -in pw.inp   Done                     12/31/2018 06:58:44
00059 suncat0122 pw.x -in pw.inp   Done                     12/31/2018 06:58:44
00060 suncat0122 pw.x -in pw.inp   Done                     12/31/2018 06:58:44
00061 suncat0122 pw.x -in pw.inp   Done                     12/31/2018 06:58:44
00062 suncat0122 pw.x -in pw.inp   Done                     12/31/2018 06:58:44
00063 suncat0122 pw.x -in pw.inp   Done                     12/31/2018 06:58:44