     Program PWSCF v.5.1rc2 (svn rev. 11289) starts on  1Jan2019 at 13:22:10

     Current dimensions of program PWSCF are:
     Max number of different atomic species (ntypx) = 10
     Max number of k-points (npk) =  40000
     Max angular momentum in pseudopotentials (lmaxx) =  3
     Presently stress not available with electric field

     IMPORTANT: XC functional enforced from input :
     Exchange-correlation      = BEEF-VDW ( 1  4 27 13 2)
     Any further DFT definition will be discarded
     Please, verify this is what you really want

     Subspace diagonalization in iterative solution of the eigenvalue problem:
     a serial algorithm will be used

     bravais-lattice index     =            0
     lattice parameter (alat)  =       1.8897  a.u.
     unit-cell volume          =    7282.1910 (a.u.)^3
     number of atoms/cell      =           12
     number of atomic types    =            2
     number of electrons       =       168.00
     number of Kohn-Sham states=          114
     kinetic-energy cutoff     =      36.7493  Ry
     charge density cutoff     =     367.4932  Ry
     convergence threshold     =      1.0E-06
     mixing beta               =       0.1000
     number of iterations used =           10  plain     mixing
     Exchange-correlation      = BEEF-VDW ( 1  4 27 13 2)
     nstep                     =           50

     celldm(1)=   1.889726  celldm(2)=   0.000000  celldm(3)=   0.000000
     celldm(4)=   0.000000  celldm(5)=   0.000000  celldm(6)=   0.000000

     crystal axes: (cart. coord. in units of alat)
               a(1) = (   6.964862   0.000000   0.000000 )
               a(2) = (  -3.482431   6.031748   0.000000 )
               a(3) = (   0.000000   0.000000  25.686786 )

     reciprocal axes: (cart. coord. in units 2 pi/alat)
               b(1) = (  0.143578  0.082895  0.000000 )
               b(2) = (  0.000000  0.165789  0.000000 )
               b(3) = (  0.000000  0.000000  0.038931 )

     PseudoPot. # 1 for Sn read from file:
     /afs/slac.stanford.edu/u/if/mamunm/psp/gbrv1.5pbe/Sn.UPF
     MD5 check sum: 469debedee59599fedebd795477fea03
     Pseudo is Ultrasoft + core correction, Zval = 14.0
     Generated by new atomic code, or converted to UPF format
     Using radial grid of  891 points,  6 beta functions with:
                l(1) =   0
                l(2) =   0
                l(3) =   1
                l(4) =   1
                l(5) =   2
                l(6) =   2
     Q(r) pseudized with  8 coefficients,  rinner =    1.350   1.350   1.350
                                                       1.350   1.350

     PseudoPot. # 2 for Pb read from file:
     /afs/slac.stanford.edu/u/if/mamunm/psp/gbrv1.5pbe/Pb.UPF
     MD5 check sum: 3d1c1779aa92214d1e8f3a7db79003e2
     Pseudo is Ultrasoft + core correction, Zval = 14.0
     Generated by new atomic code, or converted to UPF format
     Using radial grid of  899 points,  6 beta functions with:
                l(1) =   0
                l(2) =   0
                l(3) =   1
                l(4) =   1
                l(5) =   2
                l(6) =   2
     Q(r) pseudized with  6 coefficients,  rinner =    1.000   1.000   1.000
                                                       1.000   1.000

     vdW kernel table read from file vdW_kernel_table
     MD5 check sum: 095c7af220d748ca6e76c0b4c6cfb241

     atomic species   valence    mass     pseudopotential
        Sn1           14.00   118.71000     Sn( 1.00)
        Pb1           14.00   207.20000     Pb( 1.00)

     No symmetry found

   Cartesian axes

     site n.     atom                  positions (alat units)
         1           Sn1 tau(   1) = (   0.0000000   0.0000000  10.0000000  )
         2           Sn1 tau(   2) = (  -1.7412156   3.0158738  10.0000000  )
         3           Sn1 tau(   3) = (   1.7412156   3.0158738  10.0000000  )
         4           Pb1 tau(   4) = (   3.4824311   0.0000000  10.0000000  )
         5           Sn1 tau(   5) = (   3.4824311   2.0105825  12.8433931  )
         6           Sn1 tau(   6) = (   1.7412156   5.0264564  12.8433931  )
         7           Sn1 tau(   7) = (  -1.7412156   5.0264564  12.8433931  )
         8           Pb1 tau(   8) = (   0.0000000   2.0105825  12.8433931  )
         9           Sn1 tau(   9) = (   0.0000000   4.0211651  15.6867862  )
        10           Sn1 tau(  10) = (   1.7412156   1.0052913  15.6867862  )
        11           Sn1 tau(  11) = (   5.2236467   1.0052913  15.6867862  )
        12           Pb1 tau(  12) = (   3.4824311   4.0211651  15.6867862  )

     number of k points=    20  Fermi-Dirac smearing, width (Ry)=  0.0110
                       cart. coord. in units 2pi/alat
        k(    1) = (   0.0000000   0.0000000   0.0000000), wk =   0.0555556
        k(    2) = (   0.0000000   0.0276316   0.0000000), wk =   0.1111111
        k(    3) = (   0.0000000   0.0552631   0.0000000), wk =   0.1111111
        k(    4) = (   0.0000000  -0.0828947   0.0000000), wk =   0.0555556
        k(    5) = (   0.0239296   0.0138158   0.0000000), wk =   0.1111111
        k(    6) = (   0.0239296   0.0414474   0.0000000), wk =   0.1111111
        k(    7) = (   0.0239296   0.0690789   0.0000000), wk =   0.1111111
        k(    8) = (   0.0239296  -0.0690789   0.0000000), wk =   0.1111111
        k(    9) = (   0.0239296  -0.0414474   0.0000000), wk =   0.1111111
        k(   10) = (   0.0239296  -0.0138158   0.0000000), wk =   0.1111111
        k(   11) = (   0.0478593   0.0276316   0.0000000), wk =   0.1111111
        k(   12) = (   0.0478593   0.0552631   0.0000000), wk =   0.1111111
        k(   13) = (   0.0478593   0.0828947   0.0000000), wk =   0.1111111
        k(   14) = (   0.0478593  -0.0552631   0.0000000), wk =   0.1111111
        k(   15) = (   0.0478593  -0.0276316   0.0000000), wk =   0.1111111
        k(   16) = (   0.0478593   0.0000000   0.0000000), wk =   0.1111111
        k(   17) = (  -0.0717889  -0.0414474   0.0000000), wk =   0.0555556
        k(   18) = (  -0.0717889  -0.0138158   0.0000000), wk =   0.1111111
        k(   19) = (  -0.0717889   0.0138158   0.0000000), wk =   0.1111111
        k(   20) = (  -0.0717889  -0.1243421   0.0000000), wk =   0.0555556

     Largest allocated arrays     est. size (Mb)     dimensions
     Largest temporary arrays     est. size (Mb)     dimensions

     Initial potential from superposition of free atoms
     Check: negative starting charge=   -0.052819

     starting charge  158.99254, renormalised to  168.00000

     negative rho (up, down):  5.581E-02 0.000E+00

     *
     * You are using vdW-DF for exchange-correlation in this calculation.
     * Please cite the following three references that made this development
     * possible:
     *
     *   M. Dion, H. Rydberg, E. Schroder, D. C. Langreth, and
     *   B. I. Lundqvist, Phys. Rev. Lett. 92, 246401 (2004).
     *
     *   T. Thonhauser, V. R. Cooper, S. Li, A. Puzder, P. Hyldgaard, and
     *   D. C. Langreth, Phys. Rev. B 76, 125112 (2007).
     *
     *   G. Roman-Perez and J. M. Soler, Phys. Rev. Lett. 103, 096102 (2009).
     *
     *
     * If you are using vdW-DF2, please also cite:
     *
     *   K. Lee, E. D. Murray, L. Kong, B. I. Lundqvist, and
     *   D. C. Langreth, Phys. Rev. B 82, 081101(R) (2010).
     *
     *
     * If you are calculating the stress with vdW-DF, please also cite:
     *
     *   R. Sabatini, E. Kucukbenli, B. Kolb, T. Thonhauser, and
     *   S. de Gironcoli, J. Phys.: Condens. Matter 24, 424209 (2012).
     *

     Carrying out vdW-DF run using the following parameters:

     Nqs =      20    Nr_points =    1024   r_max =   100.000
     q_mesh =
               0.00001000     0.04494208     0.09755937     0.15916263
               0.23128650     0.31572767     0.41458969     0.53033537
               0.66584808     0.82450364     1.01025438     1.22772762
               1.48234092     1.78043706     2.12944203     2.53805004
               3.01644009     3.57652955     4.23227104     5.00000000

     Gradients computed in reciprocal space

     Adding external electric field

     Computed dipole along edir(3) :
        Dipole               -0.0000 Ry au,         -0.0000 Debye
        Dipole field         -0.0000 Ry au

        Potential amp.        0.0000 Ry
        Total length         47.3275 bohr

     Starting wfc are  108 randomized atomic wfcs +    6 random wfc

     Self-consistent Calculation

     iteration #  1     ecut=    36.75 Ry     beta=0.10
     Davidson diagonalization with overlap
     ethr =  1.00E-02,  avg # of iterations =  9.6

[...]

     total energy              =   -1945.98112118 Ry
     Harris-Foulkes estimate   =   -1947.09691071 Ry
     estimated scf accuracy    <       6.61096718 Ry

[...]

     iteration #  8     ecut=    36.75 Ry     beta=0.10
     Davidson diagonalization with overlap
     c_bands:  1 eigenvalues not converged
     ethr =  8.13E-06,  avg # of iterations =  4.0

[...]

     End of self-consistent calculation

          k = 0.0000 0.0000 0.0000 ( 27441 PWs)   bands (ev):

   -21.4594 -21.4564 -21.4507 -21.4507 -21.4449 -21.4449 -21.4358 -21.4256
   -21.4206 -21.4194 -21.4194 -21.4160 -21.4097 -21.4097 -21.4035 -21.4017
   -21.4017 -21.3900 -21.3900 -21.3887 -21.3878 -21.3878 -21.3854 -21.3837
   -21.3837 -21.3726 -21.3726 -21.3647 -21.3647 -21.3563 -21.3563 -21.3437
   -21.3333 -21.3292 -21.3283 -21.3198 -21.3198 -21.3133 -21.3133 -21.3001
   -21.3001 -21.2949 -21.2762 -21.2762 -21.2635 -16.8965 -16.8956 -16.8856
   -16.8856 -16.8849 -16.8848 -16.8760 -16.8760 -16.8760 -16.8760 -16.7419
   -16.7419 -16.7347 -16.7305 -16.7305  -9.9643  -8.9740  -7.8470  -6.5737
    -6.5182  -5.9726  -5.9724  -5.9312  -5.5432  -5.5432  -4.8133  -4.8132
    -3.0454  -3.0196  -3.0196  -2.5209  -2.0399  -1.9363  -1.9339  -1.9339
    -1.8252  -1.8251   0.0491   1.5225   1.5225   1.5468   1.5468   1.5990
     1.6278   2.7325   2.8254   3.0077   3.0077   3.7348   3.7348   3.7653
     3.8458   3.8461   4.0613   4.0613   4.5287   4.5320   5.1147   5.3443
     5.3443   5.6136   5.7426   5.8061   5.8063   6.1811   6.1811   6.3021
     6.5572   6.6919

[...]

          k =-0.0718-0.0414 0.0000 ( 27394 PWs)   bands (ev):

[...]

     the Fermi energy is     0.5407 ev

!    total energy              =   -1944.26194671 Ry
     Harris-Foulkes estimate   =   -1944.26195895 Ry
     estimated scf accuracy    <       0.00000044 Ry

     The total energy is the sum of the following terms:

     one-electron contribution =   -9512.50385375 Ry
     hartree contribution      =    4819.05699067 Ry
     xc contribution           =    -595.90055800 Ry
     ewald contribution        =    3345.13361520 Ry
     electric field correction =       0.00000000 Ry
     smearing contrib. (-TS)   =      -0.04814084 Ry

     convergence has been achieved in  16 iterations

 BEEF-vdW xc energy contributions
           1 :   -526.109801031796
           2 :    483.801305719293
           3 :   -411.289671632081
           4 :    327.580934946731
           5 :   -251.084609800385
           6 :    193.313303057060
           7 :   -156.316790225230
           8 :    134.429119799320
[...]
                l(1) =   0
                l(2) =   0
                l(3) =   1
                l(4) =   1
                l(5) =   2
                l(6) =   2
     Q(r) pseudized with  8 coefficients,  rinner =    1.350   1.350   1.350
                                                       1.350   1.350

     PseudoPot. # 2 for Pb read from file:
     /afs/slac.stanford.edu/u/if/mamunm/psp/gbrv1.5pbe/Pb.UPF
     MD5 check sum: 3d1c1779aa92214d1e8f3a7db79003e2
     Pseudo is Ultrasoft + core correction, Zval = 14.0
     Generated by new atomic code, or converted to UPF format
     Using radial grid of  899 points,  6 beta functions with:
                l(1) =   0
                l(2) =   0
                l(3) =   1
                l(4) =   1
                l(5) =   2
                l(6) =   2
     Q(r) pseudized with  6 coefficients,  rinner =    1.000   1.000   1.000
                                                       1.000   1.000

     vdW kernel table read from file vdW_kernel_table
     MD5 check sum: 095c7af220d748ca6e76c0b4c6cfb241

     atomic species   valence    mass     pseudopotential
        Sn1           14.00   118.71000     Sn( 1.00)
        Pb1           14.00   207.20000     Pb( 1.00)

     No symmetry found

   Cartesian axes

     site n.     atom                  positions (alat units)
         1           Sn1 tau(   1) = (   0.0000000   0.0000000  10.0000000  )
         2           Sn1 tau(   2) = (  -1.7412156   3.0158738  10.0000000  )
         3           Sn1 tau(   3) = (   1.7412156   3.0158738  10.0000000  )
         4           Pb1 tau(   4) = (   3.4824311   0.0000000  10.0000000  )
         5           Sn1 tau(   5) = (   3.4824311   2.0105825  12.8433931  )
         6           Sn1 tau(   6) = (   1.7412156   5.0264564  12.8433931  )
         7           Sn1 tau(   7) = (  -1.7412156   5.0264564  12.8433931  )
         8           Pb1 tau(   8) = (   0.0000000   2.0105825  12.8433931  )
         9           Sn1 tau(   9) = (  -0.0000065   4.1294049  15.4808002  )
        10           Sn1 tau(  10) = (   1.8348580   0.9511326  15.4812186  )
        11           Sn1 tau(  11) = (   5.1298721   0.9510566  15.4812632  )
        12           Pb1 tau(  12) = (   3.4824867   4.0216092  15.5711115  )

     number of k points=    20  Fermi-Dirac smearing, width (Ry)=  0.0110
                       cart. coord. in units 2pi/alat
        k(    1) = (   0.0000000   0.0000000   0.0000000), wk =   0.0555556
        k(    2) = (   0.0000000   0.0276316   0.0000000), wk =   0.1111111
        k(    3) = (   0.0000000   0.0552631   0.0000000), wk =   0.1111111
        k(    4) = (   0.0000000  -0.0828947   0.0000000), wk =   0.0555556
        k(    5) = (   0.0239296   0.0138158   0.0000000), wk =   0.1111111
        k(    6) = (   0.0239296   0.0414474   0.0000000), wk =   0.1111111
        k(    7) = (   0.0239296   0.0690789   0.0000000), wk =   0.1111111
        k(    8) = (   0.0239296  -0.0690789   0.0000000), wk =   0.1111111
        k(    9) = (   0.0239296  -0.0414474   0.0000000), wk =   0.1111111
        k(   10) = (   0.0239296  -0.0138158   0.0000000), wk =   0.1111111
        k(   11) = (   0.0478593   0.0276316   0.0000000), wk =   0.1111111
        k(   12) = (   0.0478593   0.0552631   0.0000000), wk =   0.1111111
        k(   13) = (   0.0478593   0.0828947   0.0000000), wk =   0.1111111
        k(   14) = (   0.0478593  -0.0552631   0.0000000), wk =   0.1111111
        k(   15) = (   0.0478593  -0.0276316   0.0000000), wk =   0.1111111
        k(   16) = (   0.0478593   0.0000000   0.0000000), wk =   0.1111111
        k(   17) = (  -0.0717889  -0.0414474   0.0000000), wk =   0.0555556
        k(   18) = (  -0.0717889  -0.0138158   0.0000000), wk =   0.1111111
        k(   19) = (  -0.0717889   0.0138158   0.0000000), wk =   0.1111111
        k(   20) = (  -0.0717889  -0.1243421   0.0000000), wk =   0.0555556

     Largest allocated arrays     est. size (Mb)     dimensions
     Largest temporary arrays     est. size (Mb)     dimensions

     Initial potential from superposition of free atoms
     Check: negative starting charge=   -0.053025

     starting charge  158.99254, renormalised to  168.00000

[...]

     *
     * You are using vdW-DF for exchange-correlation in this calculation.
     * Please cite the following three references that made this development
     * possible:
     *
     *   M. Dion, H. Rydberg, E. Schroder, D. C. Langreth, and
     *   B. I. Lundqvist, Phys. Rev. Lett. 92, 246401 (2004).
     *
     *   T. Thonhauser, V. R. Cooper, S. Li, A. Puzder, P. Hyldgaard, and
     *   D. C. Langreth, Phys. Rev. B 76, 125112 (2007).
     *
     *   G. Roman-Perez and J. M. Soler, Phys. Rev. Lett. 103, 096102 (2009).
     *
     *
     * If you are using vdW-DF2, please also cite:
     *
     *   K. Lee, E. D. Murray, L. Kong, B. I. Lundqvist, and
     *   D. C. Langreth, Phys. Rev. B 82, 081101(R) (2010).
     *
     *
     * If you are calculating the stress with vdW-DF, please also cite:
     *
     *   R. Sabatini, E. Kucukbenli, B. Kolb, T. Thonhauser, and
     *   S. de Gironcoli, J. Phys.: Condens. Matter 24, 424209 (2012).
     *

     Carrying out vdW-DF run using the following parameters:

     Nqs =      20    Nr_points =    1024   r_max =   100.000
     q_mesh =
               0.00001000     0.04494208     0.09755937     0.15916263
               0.23128650     0.31572767     0.41458969     0.53033537
               0.66584808     0.82450364     1.01025438     1.22772762
               1.48234092     1.78043706     2.12944203     2.53805004
               3.01644009     3.57652955     4.23227104     5.00000000

     Gradients computed in reciprocal space

[...]

     Starting wfc are  108 randomized atomic wfcs +    6 random wfc

     Self-consistent Calculation

[...]

     iteration # 10     ecut=    36.75 Ry     beta=0.10
     Davidson diagonalization with overlap
     c_bands:  1 eigenvalues not converged
     ethr =  3.10E-07,  avg # of iterations =  2.9

[...]

     total energy              =   -1944.26965657 Ry
     Harris-Foulkes estimate   =   -1944.26964682 Ry
     estimated scf accuracy    <       0.00000177 Ry

     iteration # 15     ecut=    36.75 Ry     beta=0.10
     Davidson diagonalization with overlap
     ethr =  1.05E-09,  avg # of iterations =  4.9

[...]

     negative rho (up, down):  5.413E-02 0.000E+00

     Adding external electric field

     Computed dipole along edir(3) :
        Dipole               -0.0113 Ry au,         -0.0286 Debye
        Dipole field         -0.0000 Ry au

        Potential amp.        0.0018 Ry
        Total length         47.3275 bohr

     End of self-consistent calculation

[...]

          k = 0.0479 0.0000 0.0000 ( 27435 PWs)   bands (ev):

[...]

          k =-0.0718-0.1243 0.0000 ( 27394 PWs)   bands (ev):

   -21.4261 -21.4034 -21.3978 -21.3937 -21.3909 -21.3886 -21.3874 -21.3855
   -21.3845 -21.3842 -21.3818 -21.3716 -21.3703 -21.3694 -21.3667 -21.3632
   -21.3622 -21.3553 -21.3527 -21.3499 -21.3480 -21.3454 -21.3447 -21.3304
   -21.3269 -21.3225 -21.3216 -21.3140 -21.3107 -21.2995 -21.2994 -21.2881
   -21.2858 -21.2854 -21.2775 -21.2758 -21.2731 -21.2679 -21.2648 -21.2580
   -21.2534 -21.2494 -21.2389 -21.2354 -21.2211 -16.8883 -16.8756 -16.8752
   -16.8751 -16.8717 -16.8715 -16.8661 -16.8658 -16.8604 -16.8598 -16.7342
   -16.7337 -16.7225 -16.7217 -16.7211  -9.1716  -9.0775  -8.3091  -7.7833
    -7.2740  -6.7039  -6.5260  -5.9309  -5.7605  -5.6418  -5.2597  -4.4571
    -1.5660  -1.5652  -1.5034  -1.4420  -1.3434  -1.2992  -0.6149  -0.3812
    -0.2212  -0.1939   0.2216   0.3999   1.0300   1.0521   1.2170   1.2844
     1.4935   1.5613   1.7353   1.7996   1.9867   2.0391   2.9044   2.9311
     3.0736   3.2289   3.8248   3.8405   3.9372   4.0200   4.5244   4.6099
     4.7945   4.8076   5.0528   5.1191   5.4292   5.4716   5.5416   5.5497
     6.1325   6.1718

     the Fermi energy is     0.5851 ev

!    total energy              =   -1944.26964993 Ry
     Harris-Foulkes estimate   =   -1944.26965694 Ry
     estimated scf accuracy    <       0.00000055 Ry

     The total energy is the sum of the following terms:

     one-electron contribution =   -9758.34139358 Ry
     hartree contribution      =    4942.24300113 Ry
     xc contribution           =    -596.06688984 Ry
     ewald contribution        =    3467.94083099 Ry
     electric field correction =       0.00000022 Ry
     smearing contrib. (-TS)   =      -0.04519886 Ry

     convergence has been achieved in  15 iterations

 BEEF-vdW xc energy contributions
           1 :   -526.324801009368
           2 :    484.097760319236
           3 :   -411.693602749656
           4 :    328.035765175100
           5 :   -251.476378497472
           6 :    193.539007066069
           7 :   -156.350166566039
           8 :    134.337884261901
           9 :   -118.832893645971
          10 :    102.993775611128
          11 :   -84.6555465382704
          12 :    66.0678776801356
          13 :   -51.2722373733694
          14 :    42.9969957540875
          15 :   -40.9132893890270
          16 :    42.0260245186035
          17 :   -42.6426735780353
          18 :    40.5235086726381
          19 :   -35.9082736498724
          20 :    30.9389845774150
          21 :   -28.0170110200112
          22 :    28.2068626387246
          23 :   -30.6539329981691
          24 :    33.2590368628956
          25 :   -34.0630919111810
          26 :    32.4145446588208
          27 :   -29.2254724034418
          28 :    26.2497517307111
          29 :   -24.9259901486117
          30 :    25.5364731550371
          31 :   -44.6453397854067
          32 :   -32.5312698960176

     Forces acting on atoms (Ry/au):

     negative rho (up, down):  5.413E-02 0.000E+00
     atom    1 type  1   force =     0.00000003    0.00015137    0.00757812
     atom    2 type  1   force =     0.00012259   -0.00007580    0.00757826
     atom    3 type  1   force =    -0.00012450   -0.00007562    0.00757565
     atom    4 type  2   force =     0.00000147    0.00002060    0.00649829
     atom    5 type  1   force =     0.00000133    0.00255469   -0.00810299
     atom    6 type  1   force =     0.00220752   -0.00126469   -0.00812089
     atom    7 type  1   force =    -0.00220662   -0.00126625   -0.00812245
     atom    8 type  2   force =    -0.00000167   -0.00001281   -0.00717177
     atom    9 type  1   force =     0.00000205   -0.00012468    0.00073969
     atom   10 type  1   force =    -0.00011164    0.00006601    0.00073210
     atom   11 type  1   force =     0.00011098    0.00006556    0.00072958
     atom   12 type  2   force =    -0.00000154   -0.00003839    0.00008641

     Total force =     0.022016     Total SCF correction =     0.002499
     SCF correction compared to forces is large: reduce conv_thr to get better values

     entering subroutine stress ...

     negative rho (up, down):  5.413E-02 0.000E+00
          total   stress  (Ry/bohr**3)                   (kbar)     P=   -2.53
  -0.00001272   0.00000000   0.00000000         -1.87      0.00      0.00
   0.00000000  -0.00001272  -0.00000000          0.00     -1.87     -0.00
   0.00000000  -0.00000000  -0.00002605          0.00     -0.00     -3.83

 !ASE

     Writing output data file calc.save

     General routines

     Parallel routines

   This run was terminated on:  15:54: 3   1Jan2019

   JOB DONE.
Job  /afs/slac/g/suncat/bin/suncat-tsmpirun -x LD_LIBRARY_PATH -wdir /scratch/qe649032_v18OW pw.x -in pw.inp

TID   HOST_NAME   COMMAND_LINE            STATUS            TERMINATION_TIME
00000 suncat0031 pw.x -in pw.inp   Done                     01/01/2019 15:54:03
00001 suncat0031 pw.x -in pw.inp   Done                     01/01/2019 15:54:03
00002 suncat0031 pw.x -in pw.inp   Done                     01/01/2019 15:54:03
00003 suncat0031 pw.x -in pw.inp   Done                     01/01/2019 15:54:03
00004 suncat0031 pw.x -in pw.inp   Done                     01/01/2019 15:54:03
00005 suncat0031 pw.x -in pw.inp   Done                     01/01/2019 15:54:03
00006 suncat0031 pw.x -in pw.inp   Done                     01/01/2019 15:54:03
00007 suncat0031 pw.x -in pw.inp   Done                     01/01/2019 15:54:03
00008 suncat0030 pw.x -in pw.inp   Done                     01/01/2019 15:54:03
00009 suncat0030 pw.x -in pw.inp   Done                     01/01/2019 15:54:03
00010 suncat0030 pw.x -in pw.inp   Done                     01/01/2019 15:54:03
00011 suncat0030 pw.x -in pw.inp   Done                     01/01/2019 15:54:03
00012 suncat0030 pw.x -in pw.inp   Done                     01/01/2019 15:54:03
00013 suncat0030 pw.x -in pw.inp   Done                     01/01/2019 15:54:03
00014 suncat0030 pw.x -in pw.inp   Done                     01/01/2019 15:54:03
00015 suncat0030 pw.x -in pw.inp   Done                     01/01/2019 15:54:03
00016 suncat0132 pw.x -in pw.inp   Done                     01/01/2019 15:54:03
00017 suncat0132 pw.x -in pw.inp   Done                     01/01/2019 15:54:03
00018 suncat0132 pw.x -in pw.inp   Done                     01/01/2019 15:54:03
00019 suncat0132 pw.x -in pw.inp   Done                     01/01/2019 15:54:03
00020 suncat0132 pw.x -in pw.inp   Done                     01/01/2019 15:54:03
00021 suncat0132 pw.x -in pw.inp   Done                     01/01/2019 15:54:03
00022 suncat0132 pw.x -in pw.inp   Done                     01/01/2019 15:54:03
00023 suncat0132 pw.x -in pw.inp   Done                     01/01/2019 15:54:03
00024 suncat0131 pw.x -in pw.inp   Done                     01/01/2019 15:54:03
00025 suncat0131 pw.x -in pw.inp   Done                     01/01/2019 15:54:03
00026 suncat0131 pw.x -in pw.inp   Done                     01/01/2019 15:54:03
00027 suncat0131 pw.x -in pw.inp   Done                     01/01/2019 15:54:03
00028 suncat0131 pw.x -in pw.inp   Done                     01/01/2019 15:54:03
00029 suncat0131 pw.x -in pw.inp   Done                     01/01/2019 15:54:03
00030 suncat0131 pw.x -in pw.inp   Done                     01/01/2019 15:54:03
00031 suncat0131 pw.x -in pw.inp   Done                     01/01/2019 15:54:03
00032 suncat0130 pw.x -in pw.inp   Done                     01/01/2019 15:54:03
00033 suncat0130 pw.x -in pw.inp   Done                     01/01/2019 15:54:03
00034 suncat0130 pw.x -in pw.inp   Done                     01/01/2019 15:54:03
00035 suncat0130 pw.x -in pw.inp   Done                     01/01/2019 15:54:03
00036 suncat0130 pw.x -in pw.inp   Done                     01/01/2019 15:54:03
00037 suncat0130 pw.x -in pw.inp   Done                     01/01/2019 15:54:03
00038 suncat0130 pw.x -in pw.inp   Done                     01/01/2019 15:54:03
00039 suncat0130 pw.x -in pw.inp   Done                     01/01/2019 15:54:03
00040 suncat0124 pw.x -in pw.inp   Done                     01/01/2019 15:54:03
00041 suncat0124 pw.x -in pw.inp   Done                     01/01/2019 15:54:03
00042 suncat0124 pw.x -in pw.inp   Done                     01/01/2019 15:54:03
00043 suncat0124 pw.x -in pw.inp   Done                     01/01/2019 15:54:03
00044 suncat0124 pw.x -in pw.inp   Done                     01/01/2019 15:54:03
00045 suncat0124 pw.x -in pw.inp   Done                     01/01/2019 15:54:03
00046 suncat0124 pw.x -in pw.inp   Done                     01/01/2019 15:54:03
00047 suncat0124 pw.x -in pw.inp   Done                     01/01/2019 15:54:03
00048 suncat0280 pw.x -in pw.inp   Done                     01/01/2019 15:54:03
00049 suncat0280 pw.x -in pw.inp   Done                     01/01/2019 15:54:03
00050 suncat0280 pw.x -in pw.inp   Done                     01/01/2019 15:54:03
00051 suncat0280 pw.x -in pw.inp   Done                     01/01/2019 15:54:03
00052 suncat0280 pw.x -in pw.inp   Done                     01/01/2019 15:54:03
00053 suncat0280 pw.x -in pw.inp   Done                     01/01/2019 15:54:03
00054 suncat0280 pw.x -in pw.inp   Done                     01/01/2019 15:54:03
00055 suncat0280 pw.x -in pw.inp   Done                     01/01/2019 15:54:03
00056 suncat0279 pw.x -in pw.inp   Done                     01/01/2019 15:54:03
00057 suncat0279 pw.x -in pw.inp   Done                     01/01/2019 15:54:03
00058 suncat0279 pw.x -in pw.inp   Done                     01/01/2019 15:54:03
00059 suncat0279 pw.x -in pw.inp   Done                     01/01/2019 15:54:03
00060 suncat0279 pw.x -in pw.inp   Done                     01/01/2019 15:54:03
00061 suncat0279 pw.x -in pw.inp   Done                     01/01/2019 15:54:03
00062 suncat0279 pw.x -in pw.inp   Done                     01/01/2019 15:54:03
00063 suncat0279 pw.x -in pw.inp   Done                     01/01/2019 15:54:03