     Program PWSCF v.5.1rc2 (svn rev. 11289) starts on 27Dec2018 at 14:23:12

     Current dimensions of program PWSCF are:
     Max number of different atomic species (ntypx) = 10
     Max number of k-points (npk) =  40000
     Max angular momentum in pseudopotentials (lmaxx) =  3
     Presently stress not available with electric field

     IMPORTANT: XC functional enforced from input :
     Exchange-correlation      = BEEF-VDW ( 1  4 27 13 2)
     Any further DFT definition will be discarded
     Please, verify this is what you really want

     Subspace diagonalization in iterative solution of the eigenvalue problem:
     a serial algorithm will be used

     bravais-lattice index     =            0
     lattice parameter (alat)  =       1.8897  a.u.
     unit-cell volume          =    4666.1812 (a.u.)^3
     number of atoms/cell      =           12
     number of atomic types    =            2
     number of electrons       =       183.00
     number of Kohn-Sham states=          121
     kinetic-energy cutoff     =      36.7493  Ry
     charge density cutoff     =     367.4932  Ry
     convergence threshold     =      1.0E-06
     mixing beta               =       0.1000
     number of iterations used =           10  plain     mixing
     Exchange-correlation      = BEEF-VDW ( 1  4 27 13 2)
     nstep                     =           50

     celldm(1)=   1.889726  celldm(2)=   0.000000  celldm(3)=   0.000000
     celldm(4)=   0.000000  celldm(5)=   0.000000  celldm(6)=   0.000000

     crystal axes: (cart. coord. in units of alat)
               a(1) = (   5.691591   0.000000   0.000000 )
               a(2) = (  -2.845796   4.929063   0.000000 )
               a(3) = (   0.000000   0.000000  24.647165 )

     reciprocal axes: (cart. coord. in units 2 pi/alat)
               b(1) = (  0.175698  0.101439  0.000000 )
               b(2) = (  0.000000  0.202878  0.000000 )
               b(3) = (  0.000000  0.000000  0.040573 )

     PseudoPot. # 1 for Os read from file:
     /afs/slac.stanford.edu/u/if/mamunm/psp/gbrv1.5pbe/Os.UPF
     MD5 check sum: a3fb40a04f0c37c25c34bbc47164c9a8
     Pseudo is Ultrasoft + core correction, Zval = 16.0
     Generated by new atomic code, or converted to UPF format
     Using radial grid of  983 points,  8 beta functions with:
                l(1) =   0
                l(2) =   0
                l(3) =   1
                l(4) =   1
                l(5) =   2
                l(6) =   2
                l(7) =   3
                l(8) =   3
     Q(r) pseudized with  8 coefficients,  rinner =    1.150   1.150   1.150
                                                       1.150   1.150   1.150
                                                       1.150

     PseudoPot. # 2 for Tl read from file:
     /afs/slac.stanford.edu/u/if/mamunm/psp/gbrv1.5pbe/Tl.UPF
     MD5 check sum: b76cf1f7e72655a2b2c53cf6385d7059
     Pseudo is Ultrasoft + core correction, Zval = 13.0
     Generated by new atomic code, or converted to UPF format
     Using radial grid of  899 points,  6 beta functions with:
                l(1) =   0
                l(2) =   0
                l(3) =   1
                l(4) =   1
                l(5) =   2
                l(6) =   2
     Q(r) pseudized with  6 coefficients,  rinner =    1.100   1.100   1.100
                                                       1.100   1.100

     vdW kernel table read from file vdW_kernel_table
     MD5 check sum: 095c7af220d748ca6e76c0b4c6cfb241

     atomic species   valence    mass     pseudopotential
        Os1           16.00   190.23000     Os( 1.00)
        Tl1           13.00   204.38000     Tl( 1.00)

     No symmetry found

   Cartesian axes

     site n.     atom                  positions (alat units)
         1           Os1 tau(   1) = (   0.0000000   0.0000000  10.0000000  )
         2           Os1 tau(   2) = (  -1.4228978   2.4645313  10.0000000  )
         3           Os1 tau(   3) = (   1.4228978   2.4645313  10.0000000  )
         4           Tl1 tau(   4) = (   2.8457956   0.0000000  10.0000000  )
         5           Os1 tau(   5) = (   2.8457956   1.6430209  12.3235824  )
         6           Os1 tau(   6) = (   1.4228978   4.1075522  12.3235824  )
         7           Os1 tau(   7) = (  -1.4228978   4.1075522  12.3235824  )
         8           Tl1 tau(   8) = (   0.0000000   1.6430209  12.3235824  )
         9           Os1 tau(   9) = (  -0.0000000   3.2860417  14.6471648  )
        10           Os1 tau(  10) = (   1.4228978   0.8215104  14.6471648  )
        11           Os1 tau(  11) = (   4.2686934   0.8215104  14.6471648  )
        12           Tl1 tau(  12) = (   2.8457956   3.2860417  14.6471648  )

     number of k points=    20  Fermi-Dirac smearing, width (Ry)=  0.0110
                       cart. coord. in units 2pi/alat
        k(    1) = (   0.0000000   0.0000000   0.0000000), wk =   0.0555556
        k(    2) = (   0.0000000   0.0338131   0.0000000), wk =   0.1111111
        k(    3) = (   0.0000000   0.0676261   0.0000000), wk =   0.1111111
        k(    4) = (   0.0000000  -0.1014392   0.0000000), wk =   0.0555556
        k(    5) = (   0.0292830   0.0169065   0.0000000), wk =   0.1111111
        k(    6) = (   0.0292830   0.0507196   0.0000000), wk =   0.1111111
        k(    7) = (   0.0292830   0.0845326   0.0000000), wk =   0.1111111
        k(    8) = (   0.0292830  -0.0845326   0.0000000), wk =   0.1111111
        k(    9) = (   0.0292830  -0.0507196   0.0000000), wk =   0.1111111
        k(   10) = (   0.0292830  -0.0169065   0.0000000), wk =   0.1111111
        k(   11) = (   0.0585659   0.0338131   0.0000000), wk =   0.1111111
        k(   12) = (   0.0585659   0.0676261   0.0000000), wk =   0.1111111
        k(   13) = (   0.0585659   0.1014392   0.0000000), wk =   0.1111111
        k(   14) = (   0.0585659  -0.0676261   0.0000000), wk =   0.1111111
        k(   15) = (   0.0585659  -0.0338131   0.0000000), wk =   0.1111111
        k(   16) = (   0.0585659   0.0000000   0.0000000), wk =   0.1111111
        k(   17) = (  -0.0878489  -0.0507196   0.0000000), wk =   0.0555556
        k(   18) = (  -0.0878489  -0.0169065   0.0000000), wk =   0.1111111
        k(   19) = (  -0.0878489   0.0169065   0.0000000), wk =   0.1111111
        k(   20) = (  -0.0878489  -0.1521587   0.0000000), wk =   0.0555556

     Largest allocated arrays     est. size (Mb)     dimensions
     Largest temporary arrays     est. size (Mb)     dimensions

     Initial potential from superposition of free atoms
     Check: negative starting charge=   -1.270497

     starting charge  178.48507, renormalised to  183.00000

     negative rho (up, down):  1.303E+00 0.000E+00

     *
     * You are using vdW-DF for exchange-correlation in this calculation.
     * Please cite the following three references that made this development
     * possible:
     *
     *   M. Dion, H. Rydberg, E. Schroder, D. C. Langreth, and
     *   B. I. Lundqvist, Phys. Rev. Lett. 92, 246401 (2004).
     *
     *   T. Thonhauser, V. R. Cooper, S. Li, A. Puzder, P. Hyldgaard, and
     *   D. C. Langreth, Phys. Rev. B 76, 125112 (2007).
     *
     *   G. Roman-Perez and J. M. Soler, Phys. Rev. Lett. 103, 096102 (2009).
     *
     *
     * If you are using vdW-DF2, please also cite:
     *
     *   K. Lee, E. D. Murray, L. Kong, B. I. Lundqvist, and
     *   D. C. Langreth, Phys. Rev. B 82, 081101(R) (2010).
     *
     *
     * If you are calculating the stress with vdW-DF, please also cite:
     *
     *   R. Sabatini, E. Kucukbenli, B. Kolb, T. Thonhauser, and
     *   S. de Gironcoli, J. Phys.: Condens. Matter 24, 424209 (2012).
     *

     Carrying out vdW-DF run using the following parameters:

     Nqs =      20    Nr_points =    1024   r_max =   100.000
     q_mesh =
               0.00001000     0.04494208     0.09755937     0.15916263
               0.23128650     0.31572767     0.41458969     0.53033537
               0.66584808     0.82450364     1.01025438     1.22772762
               1.48234092     1.78043706     2.12944203     2.53805004
               3.01644009     3.57652955     4.23227104     5.00000000

     Gradients computed in reciprocal space

     Adding external electric field

     Computed dipole along edir(3) :
        Dipole                0.0000 Ry au,          0.0000 Debye
        Dipole field          0.0000 Ry au

        Potential amp.       -0.0000 Ry
        Total length         45.4120 bohr

     Starting wfc are  144 randomized atomic wfcs

     Self-consistent Calculation

     iteration #  1     ecut=    36.75 Ry     beta=0.10
     Davidson diagonalization with overlap
     ethr =  1.00E-02,  avg # of iterations =  8.6

     Threshold (ethr) on eigenvalues was too large:
     Diagonalizing with lowered threshold

     Davidson diagonalization with overlap
     ethr =  6.57E-04,  avg # of iterations =  3.5

[...]

     total energy              =   -2237.80981927 Ry
     Harris-Foulkes estimate   =   -2237.99606169 Ry
     estimated scf accuracy    <       1.25131522 Ry

[...]

     End of self-consistent calculation

          k = 0.0000 0.0000 0.0000 ( 17615 PWs)   bands (ev):

   -84.0652 -84.0404 -84.0404 -83.9118 -83.9110 -83.8878 -83.8878 -83.8876
   -83.8876 -43.6156 -43.4923 -43.4923 -43.4695 -43.4646 -43.4200 -43.4200
   -43.3841 -43.2980 -43.2980 -43.2654 -43.2221 -43.2221 -43.1405 -43.1256
   -43.1255 -43.1028 -43.1028 -43.0797 -43.0675 -43.0654 -43.0628 -43.0628
   -43.0205 -43.0205 -43.0139 -43.0138  -9.8340  -9.8340  -9.8146  -9.7459
    -9.7459  -9.4861  -9.4861  -9.4799  -9.4799  -9.4420  -9.3865  -9.2596
    -9.2596  -9.2346  -9.2346  -7.9479  -6.0802  -5.7638  -3.5504  -3.1214
    -2.8812  -2.0761  -2.0761  -1.7251  -1.4970  -1.4970  -1.3496  -1.3496
    -1.3350  -1.3350  -1.3331  -0.4988  -0.4988  -0.1665  -0.1029  -0.1029
     0.1228   0.4857   0.5008   0.5008   0.9971   1.0531   1.0531   1.6722
     1.8006   1.9908   1.9908   2.0906   2.1095   2.1095   2.2795   2.2795
     2.4246   2.4246   2.6172   2.6172   2.8548   2.8548   3.0419   3.0419
     3.1541   3.6368   3.6368   3.7277   3.7839   3.9301   4.4349   4.6138
     4.6138   4.6497   4.7529   5.2367   5.2368   5.4578   5.7140   6.4512
     6.7853   6.9952   7.3671   8.0751   8.3696   8.3696   8.3795   8.3795
     8.9087

[...]

          k =-0.0878-0.0507 0.0000 ( 17540 PWs)   bands (ev):

[...]

     the Fermi energy is     2.3888 ev

!    total energy              =   -2237.56389081 Ry
     Harris-Foulkes estimate   =   -2237.56836044 Ry
     estimated scf accuracy    <       0.00000035 Ry

     The total energy is the sum of the following terms:

     one-electron contribution =  -17546.78781699 Ry
     hartree contribution      =    8781.52604493 Ry
     xc contribution           =    -540.26038939 Ry
     ewald contribution        =    7068.05757960 Ry
     electric field correction =       0.00000000 Ry
     smearing contrib. (-TS)   =      -0.09930896 Ry

     convergence has been achieved in  16 iterations

 BEEF-vdW xc energy contributions
           1 :   -476.065831415658
           2 :    441.544267666619
           3 :   -380.529962779774
           4 :    306.198024571626
[...]
     Generated by new atomic code, or converted to UPF format
     Using radial grid of  983 points,  8 beta functions with:
                l(1) =   0
                l(2) =   0
                l(3) =   1
                l(4) =   1
                l(5) =   2
                l(6) =   2
                l(7) =   3
                l(8) =   3
     Q(r) pseudized with  8 coefficients,  rinner =    1.150   1.150   1.150
                                                       1.150   1.150   1.150
                                                       1.150

     PseudoPot. # 2 for Tl read from file:
     /afs/slac.stanford.edu/u/if/mamunm/psp/gbrv1.5pbe/Tl.UPF
     MD5 check sum: b76cf1f7e72655a2b2c53cf6385d7059
     Pseudo is Ultrasoft + core correction, Zval = 13.0
     Generated by new atomic code, or converted to UPF format
     Using radial grid of  899 points,  6 beta functions with:
                l(1) =   0
                l(2) =   0
                l(3) =   1
                l(4) =   1
                l(5) =   2
                l(6) =   2
     Q(r) pseudized with  6 coefficients,  rinner =    1.100   1.100   1.100
                                                       1.100   1.100

     vdW kernel table read from file vdW_kernel_table
     MD5 check sum: 095c7af220d748ca6e76c0b4c6cfb241

     atomic species   valence    mass     pseudopotential
        Os1           16.00   190.23000     Os( 1.00)
        Tl1           13.00   204.38000     Tl( 1.00)

     No symmetry found

   Cartesian axes

     site n.     atom                  positions (alat units)
         1           Os1 tau(   1) = (   0.0000000   0.0000000  10.0000000  )
         2           Os1 tau(   2) = (  -1.4228978   2.4645313  10.0000000  )
         3           Os1 tau(   3) = (   1.4228978   2.4645313  10.0000000  )
         4           Tl1 tau(   4) = (   2.8457956   0.0000000  10.0000000  )
         5           Os1 tau(   5) = (   2.8457956   1.6430209  12.3235824  )
         6           Os1 tau(   6) = (   1.4228978   4.1075522  12.3235824  )
         7           Os1 tau(   7) = (  -1.4228978   4.1075522  12.3235824  )
         8           Tl1 tau(   8) = (   0.0000000   1.6430209  12.3235824  )
         9           Os1 tau(   9) = (   0.0000088   3.4296316  14.4255933  )
        10           Os1 tau(  10) = (   1.5472702   0.7497134  14.4255736  )
        11           Os1 tau(  11) = (   4.1443600   0.7497290  14.4255981  )
        12           Tl1 tau(  12) = (   2.8458058   3.2860539  15.3625886  )

     number of k points=    20  Fermi-Dirac smearing, width (Ry)=  0.0110
                       cart. coord. in units 2pi/alat
        k(    1) = (   0.0000000   0.0000000   0.0000000), wk =   0.0555556
        k(    2) = (   0.0000000   0.0338131   0.0000000), wk =   0.1111111
        k(    3) = (   0.0000000   0.0676261   0.0000000), wk =   0.1111111
        k(    4) = (   0.0000000  -0.1014392   0.0000000), wk =   0.0555556
        k(    5) = (   0.0292830   0.0169065   0.0000000), wk =   0.1111111
        k(    6) = (   0.0292830   0.0507196   0.0000000), wk =   0.1111111
        k(    7) = (   0.0292830   0.0845326   0.0000000), wk =   0.1111111
        k(    8) = (   0.0292830  -0.0845326   0.0000000), wk =   0.1111111
        k(    9) = (   0.0292830  -0.0507196   0.0000000), wk =   0.1111111
        k(   10) = (   0.0292830  -0.0169065   0.0000000), wk =   0.1111111
        k(   11) = (   0.0585659   0.0338131   0.0000000), wk =   0.1111111
        k(   12) = (   0.0585659   0.0676261   0.0000000), wk =   0.1111111
        k(   13) = (   0.0585659   0.1014392   0.0000000), wk =   0.1111111
        k(   14) = (   0.0585659  -0.0676261   0.0000000), wk =   0.1111111
        k(   15) = (   0.0585659  -0.0338131   0.0000000), wk =   0.1111111
        k(   16) = (   0.0585659   0.0000000   0.0000000), wk =   0.1111111
        k(   17) = (  -0.0878489  -0.0507196   0.0000000), wk =   0.0555556
        k(   18) = (  -0.0878489  -0.0169065   0.0000000), wk =   0.1111111
        k(   19) = (  -0.0878489   0.0169065   0.0000000), wk =   0.1111111
        k(   20) = (  -0.0878489  -0.1521587   0.0000000), wk =   0.0555556

     Largest allocated arrays     est. size (Mb)     dimensions
     Largest temporary arrays     est. size (Mb)     dimensions

     Initial potential from superposition of free atoms
     Check: negative starting charge=   -1.268957

     starting charge  178.48507, renormalised to  183.00000

[...]

     *
     * You are using vdW-DF for exchange-correlation in this calculation.
     * Please cite the following three references that made this development
     * possible:
     *
     *   M. Dion, H. Rydberg, E. Schroder, D. C. Langreth, and
     *   B. I. Lundqvist, Phys. Rev. Lett. 92, 246401 (2004).
     *
     *   T. Thonhauser, V. R. Cooper, S. Li, A. Puzder, P. Hyldgaard, and
     *   D. C. Langreth, Phys. Rev. B 76, 125112 (2007).
     *
     *   G. Roman-Perez and J. M. Soler, Phys. Rev. Lett. 103, 096102 (2009).
     *
     *
     * If you are using vdW-DF2, please also cite:
     *
     *   K. Lee, E. D. Murray, L. Kong, B. I. Lundqvist, and
     *   D. C. Langreth, Phys. Rev. B 82, 081101(R) (2010).
     *
     *
     * If you are calculating the stress with vdW-DF, please also cite:
     *
     *   R. Sabatini, E. Kucukbenli, B. Kolb, T. Thonhauser, and
     *   S. de Gironcoli, J. Phys.: Condens. Matter 24, 424209 (2012).
     *

     Carrying out vdW-DF run using the following parameters:

     Nqs =      20    Nr_points =    1024   r_max =   100.000
     q_mesh =
               0.00001000     0.04494208     0.09755937     0.15916263
               0.23128650     0.31572767     0.41458969     0.53033537
               0.66584808     0.82450364     1.01025438     1.22772762
               1.48234092     1.78043706     2.12944203     2.53805004
               3.01644009     3.57652955     4.23227104     5.00000000

     Gradients computed in reciprocal space

[...]

     Starting wfc are  144 randomized atomic wfcs

     Self-consistent Calculation

[...]

     total energy              =   -2237.65650046 Ry
     Harris-Foulkes estimate   =   -2237.65650196 Ry
     estimated scf accuracy    <       0.00000198 Ry

     iteration # 17     ecut=    36.75 Ry     beta=0.10
     Davidson diagonalization with overlap
     ethr =  1.08E-09,  avg # of iterations =  2.0

[...]

     negative rho (up, down):  1.261E+00 0.000E+00

     Adding external electric field

     Computed dipole along edir(3) :
        Dipole                0.1868 Ry au,          0.4748 Debye
        Dipole field          0.0005 Ry au

        Potential amp.       -0.0457 Ry
        Total length         45.4120 bohr

     End of self-consistent calculation

[...]

          k = 0.0586 0.0000 0.0000 ( 17573 PWs)   bands (ev):

[...]

          k =-0.0878-0.1522 0.0000 ( 17540 PWs)   bands (ev):

   -83.9819 -83.9720 -83.9629 -83.8556 -83.8209 -83.8177 -83.6294 -83.6214
   -83.6134 -43.6302 -43.5310 -43.4721 -43.4129 -43.4063 -43.3462 -43.2752
   -43.2571 -43.1961 -43.1479 -43.1130 -43.1027 -43.0530 -43.0245 -43.0080
   -42.9946 -42.9652 -42.9557 -42.9539 -42.9225 -42.9138 -42.9078 -42.8900
   -42.8070 -42.7963 -42.7894 -42.7688  -9.7061  -9.6441  -9.6092  -9.5449
    -9.5353  -9.2464  -9.1380  -9.0976  -9.0608  -9.0508  -8.8117  -8.7834
    -8.7753  -8.7714  -8.7544  -6.3534  -5.5431  -4.3658  -3.8446  -3.2237
    -2.9888  -2.5867  -2.5033  -1.6161  -1.5557  -1.4539  -1.3709  -1.3366
    -1.1458  -1.0718  -0.9096  -0.7352  -0.5173  -0.4461  -0.3638  -0.2150
    -0.1829   0.1414   0.2105   0.2758   0.3809   0.5681   0.6781   0.8653
     0.9758   0.9811   1.0862   1.2062   1.6179   1.7778   1.9031   2.0172
     2.1194   2.2353   2.2938   2.3634   2.5442   2.5576   2.6682   2.7150
     3.0557   3.2478   3.5307   3.5494   3.7647   4.0095   4.6458   4.7182
     4.9819   5.8171   5.8557   5.9205   6.4810   6.9922   7.4650   7.6121
     8.0833   8.2754   8.3405   8.4503   8.4928   8.8613   8.9942   9.3521
     9.4633

     the Fermi energy is     2.6091 ev

!    total energy              =   -2237.65649452 Ry
     Harris-Foulkes estimate   =   -2237.65650218 Ry
     estimated scf accuracy    <       0.00000043 Ry

     The total energy is the sum of the following terms:

     one-electron contribution =  -17565.42290981 Ry
     hartree contribution      =    8791.72812790 Ry
     xc contribution           =    -540.41535038 Ry
     ewald contribution        =    7076.55038713 Ry
     electric field correction =       0.00009397 Ry
     smearing contrib. (-TS)   =      -0.09684333 Ry

     convergence has been achieved in  17 iterations

 BEEF-vdW xc energy contributions
           1 :   -476.438238059188
           2 :    441.916551137473
           3 :   -380.910344214988
           4 :    306.587439521642
           5 :   -233.018516386217
           6 :    171.212312921669
           7 :   -126.680505526404
           8 :    99.0900892530242
           9 :   -83.8434420495229
          10 :    74.7295105855412
          11 :   -66.5159575192307
          12 :    56.5235881092597
          13 :   -44.8113666384827
          14 :    33.2140937029936
          15 :   -23.9008587461295
          16 :    18.1573795083827
          17 :   -15.8602188209325
          18 :    15.7178426255434
          19 :   -16.0209146066097
          20 :    15.4545804911130
          21 :   -13.5811400009450
          22 :    10.8206226156896
          23 :   -8.03531669788640
          24 :    5.99138737050043
          25 :   -4.98290057591032
          26 :    4.76821310492267
          27 :   -4.79437111443019
          28 :    4.54312356422179
          29 :   -3.80165543518660
          30 :    2.72785732613045
          31 :   -42.6069960379526
          32 :   -32.0859129824648

     Forces acting on atoms (Ry/au):

     negative rho (up, down):  1.261E+00 0.000E+00
     atom    1 type  1   force =    -0.00000590   -0.03094987    0.02198103
     atom    2 type  1   force =    -0.02679997    0.01546688    0.02198299
     atom    3 type  1   force =     0.02680583    0.01547620    0.02198656
     atom    4 type  2   force =    -0.00000326   -0.00000717   -0.08476398
     atom    5 type  1   force =     0.00000212    0.03920531    0.01521797
     atom    6 type  1   force =     0.03395455   -0.01960019    0.01522063
     atom    7 type  1   force =    -0.03396219   -0.01960656    0.01521478
     atom    8 type  2   force =     0.00000173    0.00000549   -0.03198590
     atom    9 type  1   force =     0.00000433    0.00030870    0.00131092
     atom   10 type  1   force =     0.00026605   -0.00014960    0.00131606
     atom   11 type  1   force =    -0.00025714   -0.00014784    0.00130169
     atom   12 type  2   force =    -0.00000616   -0.00000135    0.00121724

     Total force =     0.133585     Total SCF correction =     0.002674

     entering subroutine stress ...

     negative rho (up, down):  1.261E+00 0.000E+00
          total   stress  (Ry/bohr**3)                   (kbar)     P=  -21.86
  -0.00022140  -0.00000001  -0.00000000        -32.57     -0.00     -0.00
  -0.00000001  -0.00022140   0.00000000         -0.00    -32.57      0.00
  -0.00000000   0.00000000  -0.00000299         -0.00      0.00     -0.44

 !ASE

     Writing output data file calc.save

     General routines

     Parallel routines

   This run was terminated on:  15:38:11  27Dec2018

   JOB DONE.
Job  /afs/slac/g/suncat/bin/suncat-tsmpirun -x LD_LIBRARY_PATH -wdir /scratch/qe110359_SxnxO pw.x -in pw.inp

TID   HOST_NAME   COMMAND_LINE            STATUS            TERMINATION_TIME
00000 suncat0014 pw.x -in pw.inp   Done                     12/27/2018 15:38:11
00001 suncat0014 pw.x -in pw.inp   Done                     12/27/2018 15:38:11
00002 suncat0014 pw.x -in pw.inp   Done                     12/27/2018 15:38:11
00003 suncat0014 pw.x -in pw.inp   Done                     12/27/2018 15:38:11
00004 suncat0014 pw.x -in pw.inp   Done                     12/27/2018 15:38:11
00005 suncat0014 pw.x -in pw.inp   Done                     12/27/2018 15:38:11
00006 suncat0014 pw.x -in pw.inp   Done                     12/27/2018 15:38:11
00007 suncat0014 pw.x -in pw.inp   Done                     12/27/2018 15:38:11
00008 suncat0198 pw.x -in pw.inp   Done                     12/27/2018 15:38:11
00009 suncat0198 pw.x -in pw.inp   Done                     12/27/2018 15:38:11
00010 suncat0198 pw.x -in pw.inp   Done                     12/27/2018 15:38:11
00011 suncat0198 pw.x -in pw.inp   Done                     12/27/2018 15:38:11
00012 suncat0198 pw.x -in pw.inp   Done                     12/27/2018 15:38:11
00013 suncat0198 pw.x -in pw.inp   Done                     12/27/2018 15:38:11
00014 suncat0198 pw.x -in pw.inp   Done                     12/27/2018 15:38:11
00015 suncat0198 pw.x -in pw.inp   Done                     12/27/2018 15:38:11
00016 suncat0193 pw.x -in pw.inp   Done                     12/27/2018 15:38:11
00017 suncat0193 pw.x -in pw.inp   Done                     12/27/2018 15:38:11
00018 suncat0193 pw.x -in pw.inp   Done                     12/27/2018 15:38:11
00019 suncat0193 pw.x -in pw.inp   Done                     12/27/2018 15:38:11
00020 suncat0193 pw.x -in pw.inp   Done                     12/27/2018 15:38:11
00021 suncat0193 pw.x -in pw.inp   Done                     12/27/2018 15:38:11
00022 suncat0193 pw.x -in pw.inp   Done                     12/27/2018 15:38:11
00023 suncat0193 pw.x -in pw.inp   Done                     12/27/2018 15:38:11
00024 suncat0192 pw.x -in pw.inp   Done                     12/27/2018 15:38:11
00025 suncat0192 pw.x -in pw.inp   Done                     12/27/2018 15:38:11
00026 suncat0192 pw.x -in pw.inp   Done                     12/27/2018 15:38:11
00027 suncat0192 pw.x -in pw.inp   Done                     12/27/2018 15:38:11
00028 suncat0192 pw.x -in pw.inp   Done                     12/27/2018 15:38:11
00029 suncat0192 pw.x -in pw.inp   Done                     12/27/2018 15:38:11
00030 suncat0192 pw.x -in pw.inp   Done                     12/27/2018 15:38:11
00031 suncat0192 pw.x -in pw.inp   Done                     12/27/2018 15:38:11
00032 suncat0155 pw.x -in pw.inp   Done                     12/27/2018 15:38:11
00033 suncat0155 pw.x -in pw.inp   Done                     12/27/2018 15:38:11
00034 suncat0155 pw.x -in pw.inp   Done                     12/27/2018 15:38:11
00035 suncat0155 pw.x -in pw.inp   Done                     12/27/2018 15:38:11
00036 suncat0155 pw.x -in pw.inp   Done                     12/27/2018 15:38:11
00037 suncat0155 pw.x -in pw.inp   Done                     12/27/2018 15:38:11
00038 suncat0155 pw.x -in pw.inp   Done                     12/27/2018 15:38:11
00039 suncat0155 pw.x -in pw.inp   Done                     12/27/2018 15:38:11
00040 suncat0154 pw.x -in pw.inp   Done                     12/27/2018 15:38:11
00041 suncat0154 pw.x -in pw.inp   Done                     12/27/2018 15:38:11
00042 suncat0154 pw.x -in pw.inp   Done                     12/27/2018 15:38:11
00043 suncat0154 pw.x -in pw.inp   Done                     12/27/2018 15:38:11
00044 suncat0154 pw.x -in pw.inp   Done                     12/27/2018 15:38:11
00045 suncat0154 pw.x -in pw.inp   Done                     12/27/2018 15:38:11
00046 suncat0154 pw.x -in pw.inp   Done                     12/27/2018 15:38:11
00047 suncat0154 pw.x -in pw.inp   Done                     12/27/2018 15:38:11
00048 suncat0209 pw.x -in pw.inp   Done                     12/27/2018 15:38:11
00049 suncat0209 pw.x -in pw.inp   Done                     12/27/2018 15:38:11
00050 suncat0209 pw.x -in pw.inp   Done                     12/27/2018 15:38:11
00051 suncat0209 pw.x -in pw.inp   Done                     12/27/2018 15:38:11
00052 suncat0209 pw.x -in pw.inp   Done                     12/27/2018 15:38:11
00053 suncat0209 pw.x -in pw.inp   Done                     12/27/2018 15:38:11
00054 suncat0209 pw.x -in pw.inp   Done                     12/27/2018 15:38:11
00055 suncat0209 pw.x -in pw.inp   Done                     12/27/2018 15:38:11
00056 suncat0203 pw.x -in pw.inp   Done                     12/27/2018 15:38:11
00057 suncat0203 pw.x -in pw.inp   Done                     12/27/2018 15:38:11
00058 suncat0203 pw.x -in pw.inp   Done                     12/27/2018 15:38:11
00059 suncat0203 pw.x -in pw.inp   Done                     12/27/2018 15:38:11
00060 suncat0203 pw.x -in pw.inp   Done                     12/27/2018 15:38:11
00061 suncat0203 pw.x -in pw.inp   Done                     12/27/2018 15:38:11
00062 suncat0203 pw.x -in pw.inp   Done                     12/27/2018 15:38:11
00063 suncat0203 pw.x -in pw.inp   Done                     12/27/2018 15:38:11