     Program PWSCF v.5.1rc2 (svn rev. 11289) starts on  1Jan2019 at 12:34:51

     Current dimensions of program PWSCF are:
     Max number of different atomic species (ntypx) = 10
     Max number of k-points (npk) =  40000
     Max angular momentum in pseudopotentials (lmaxx) =  3
     Presently stress not available with electric field

     IMPORTANT: XC functional enforced from input :
     Exchange-correlation      = BEEF-VDW ( 1  4 27 13 2)
     Any further DFT definition will be discarded
     Please, verify this is what you really want

     Subspace diagonalization in iterative solution of the eigenvalue problem:
     a serial algorithm will be used

     bravais-lattice index     =            0
     lattice parameter (alat)  =       1.8897  a.u.
     unit-cell volume          =    7034.7083 (a.u.)^3
     number of atoms/cell      =           12
     number of atomic types    =            2
     number of electrons       =       159.00
     number of Kohn-Sham states=          109
     kinetic-energy cutoff     =      36.7493  Ry
     charge density cutoff     =     367.4932  Ry
     convergence threshold     =      1.0E-06
     mixing beta               =       0.1000
     number of iterations used =           10  plain     mixing
     Exchange-correlation      = BEEF-VDW ( 1  4 27 13 2)
     nstep                     =           50

     celldm(1)=   1.889726  celldm(2)=   0.000000  celldm(3)=   0.000000
     celldm(4)=   0.000000  celldm(5)=   0.000000  celldm(6)=   0.000000

     crystal axes: (cart. coord. in units of alat)
               a(1) = (   6.857230   0.000000   0.000000 )
               a(2) = (  -3.428615   5.938536   0.000000 )
               a(3) = (   0.000000   0.000000  25.598905 )

     reciprocal axes: (cart. coord. in units 2 pi/alat)
               b(1) = (  0.145831  0.084196  0.000000 )
               b(2) = (  0.000000  0.168392  0.000000 )
               b(3) = (  0.000000  0.000000  0.039064 )

     PseudoPot. # 1 for Sn read from file:
     /afs/slac.stanford.edu/u/if/mamunm/psp/gbrv1.5pbe/Sn.UPF
     MD5 check sum: 469debedee59599fedebd795477fea03
     Pseudo is Ultrasoft + core correction, Zval = 14.0
     Generated by new atomic code, or converted to UPF format
     Using radial grid of  891 points,  6 beta functions with:
                l(1) =   0
                l(2) =   0
                l(3) =   1
                l(4) =   1
                l(5) =   2
                l(6) =   2
     Q(r) pseudized with  8 coefficients,  rinner =    1.350   1.350   1.350
                                                       1.350   1.350

     PseudoPot. # 2 for La read from file:
     /afs/slac.stanford.edu/u/if/mamunm/psp/gbrv1.5pbe/La.UPF
     MD5 check sum: 5937b0c7494ba0601a847275249473aa
     Pseudo is Ultrasoft + core correction, Zval = 11.0
     Generated by new atomic code, or converted to UPF format
     Using radial grid of  995 points,  8 beta functions with:
                l(1) =   0
                l(2) =   0
                l(3) =   1
                l(4) =   1
                l(5) =   2
                l(6) =   2
                l(7) =   3
                l(8) =   3
     Q(r) pseudized with  8 coefficients,  rinner =    1.700   1.700   1.700
                                                       1.700   1.700   1.700
                                                       1.700

     vdW kernel table read from file vdW_kernel_table
     MD5 check sum: 095c7af220d748ca6e76c0b4c6cfb241

     atomic species   valence    mass     pseudopotential
        Sn1           14.00   118.71000     Sn( 1.00)
        La1           11.00   138.90547     La( 1.00)

     No symmetry found

   Cartesian axes

     site n.     atom                  positions (alat units)
         1           Sn1 tau(   1) = (   0.0000000   0.0000000  10.0000000  )
         2           Sn1 tau(   2) = (  -1.7143076   2.9692678  10.0000000  )
         3           Sn1 tau(   3) = (   1.7143076   2.9692678  10.0000000  )
         4           La1 tau(   4) = (   3.4286152   0.0000000  10.0000000  )
         5           Sn1 tau(   5) = (   3.4286152   1.9795119  12.7994526  )
         6           Sn1 tau(   6) = (   1.7143076   4.9487797  12.7994526  )
         7           Sn1 tau(   7) = (  -1.7143076   4.9487797  12.7994526  )
         8           La1 tau(   8) = (   0.0000000   1.9795119  12.7994526  )
         9           Sn1 tau(   9) = (  -0.0000000   3.9590238  15.5989051  )
        10           Sn1 tau(  10) = (   1.7143076   0.9897559  15.5989051  )
        11           Sn1 tau(  11) = (   5.1429227   0.9897559  15.5989051  )
        12           La1 tau(  12) = (   3.4286152   3.9590238  15.5989051  )

     number of k points=    20  Fermi-Dirac smearing, width (Ry)=  0.0110
                       cart. coord. in units 2pi/alat
        k(    1) = (   0.0000000   0.0000000   0.0000000), wk =   0.0555556
        k(    2) = (   0.0000000   0.0280653   0.0000000), wk =   0.1111111
        k(    3) = (   0.0000000   0.0561306   0.0000000), wk =   0.1111111
        k(    4) = (   0.0000000  -0.0841958   0.0000000), wk =   0.0555556
        k(    5) = (   0.0243052   0.0140326   0.0000000), wk =   0.1111111
        k(    6) = (   0.0243052   0.0420979   0.0000000), wk =   0.1111111
        k(    7) = (   0.0243052   0.0701632   0.0000000), wk =   0.1111111
        k(    8) = (   0.0243052  -0.0701632   0.0000000), wk =   0.1111111
        k(    9) = (   0.0243052  -0.0420979   0.0000000), wk =   0.1111111
        k(   10) = (   0.0243052  -0.0140326   0.0000000), wk =   0.1111111
        k(   11) = (   0.0486105   0.0280653   0.0000000), wk =   0.1111111
        k(   12) = (   0.0486105   0.0561306   0.0000000), wk =   0.1111111
        k(   13) = (   0.0486105   0.0841958   0.0000000), wk =   0.1111111
        k(   14) = (   0.0486105  -0.0561306   0.0000000), wk =   0.1111111
        k(   15) = (   0.0486105  -0.0280653   0.0000000), wk =   0.1111111
        k(   16) = (   0.0486105   0.0000000   0.0000000), wk =   0.1111111
        k(   17) = (  -0.0729157  -0.0420979   0.0000000), wk =   0.0555556
        k(   18) = (  -0.0729157  -0.0140326   0.0000000), wk =   0.1111111
        k(   19) = (  -0.0729157   0.0140326   0.0000000), wk =   0.1111111
        k(   20) = (  -0.0729157  -0.1262938   0.0000000), wk =   0.0555556

     Largest allocated arrays     est. size (Mb)     dimensions
     Largest temporary arrays     est. size (Mb)     dimensions

     Initial potential from superposition of free atoms
     Check: negative starting charge=   -0.215252

     starting charge  149.90339, renormalised to  159.00000

     negative rho (up, down):  2.283E-01 0.000E+00

     *
     * You are using vdW-DF for exchange-correlation in this calculation.
     * Please cite the following three references that made this development
     * possible:
     *
     *   M. Dion, H. Rydberg, E. Schroder, D. C. Langreth, and
     *   B. I. Lundqvist, Phys. Rev. Lett. 92, 246401 (2004).
     *
     *   T. Thonhauser, V. R. Cooper, S. Li, A. Puzder, P. Hyldgaard, and
     *   D. C. Langreth, Phys. Rev. B 76, 125112 (2007).
     *
     *   G. Roman-Perez and J. M. Soler, Phys. Rev. Lett. 103, 096102 (2009).
     *
     *
     * If you are using vdW-DF2, please also cite:
     *
     *   K. Lee, E. D. Murray, L. Kong, B. I. Lundqvist, and
     *   D. C. Langreth, Phys. Rev. B 82, 081101(R) (2010).
     *
     *
     * If you are calculating the stress with vdW-DF, please also cite:
     *
     *   R. Sabatini, E. Kucukbenli, B. Kolb, T. Thonhauser, and
     *   S. de Gironcoli, J. Phys.: Condens. Matter 24, 424209 (2012).
     *

     Carrying out vdW-DF run using the following parameters:

     Nqs =      20    Nr_points =    1024   r_max =   100.000
     q_mesh =
               0.00001000     0.04494208     0.09755937     0.15916263
               0.23128650     0.31572767     0.41458969     0.53033537
               0.66584808     0.82450364     1.01025438     1.22772762
               1.48234092     1.78043706     2.12944203     2.53805004
               3.01644009     3.57652955     4.23227104     5.00000000

     Gradients computed in reciprocal space

     Adding external electric field

     Computed dipole along edir(3) :
        Dipole               -0.0000 Ry au,         -0.0000 Debye
        Dipole field         -0.0000 Ry au

        Potential amp.        0.0000 Ry
        Total length         47.1655 bohr

     Starting wfc are  141 randomized atomic wfcs

     Self-consistent Calculation

     iteration #  1     ecut=    36.75 Ry     beta=0.10
     Davidson diagonalization with overlap
     ethr =  1.00E-02,  avg # of iterations =  2.1

[...]

     total energy              =   -1760.43943522 Ry
     Harris-Foulkes estimate   =   -1761.57762938 Ry
     estimated scf accuracy    <       6.69259832 Ry

[...]

     End of self-consistent calculation

          k = 0.0000 0.0000 0.0000 ( 26553 PWs)   bands (ev):

   -32.3195 -32.3191 -31.8431 -20.6658 -20.6448 -20.6448 -20.6425 -20.6012
   -20.6012 -20.5845 -20.5843 -20.5743 -20.5676 -20.5676 -20.5578 -20.5522
   -20.5521 -20.5521 -20.5436 -20.5436 -20.5396 -20.5396 -20.5335 -20.5198
   -20.5198 -20.5110 -20.5110 -20.5015 -20.5015 -20.4843 -20.4790 -20.4789
   -20.4687 -20.4687 -20.4543 -20.4543 -20.4532 -20.4532 -20.4512 -20.4512
   -20.4510 -20.4480 -20.4480 -20.4364 -20.4364 -20.4302 -20.3893 -20.3892
   -16.0008 -15.9944 -15.8915 -15.8915 -15.8873 -15.8873 -15.5259 -15.5259
   -15.4940  -8.3620  -7.2902  -6.2235  -5.5449  -5.5449  -4.8205  -4.8205
    -4.2266  -4.2266  -2.6414  -1.9767  -1.6202  -1.0834  -1.0834  -1.0107
    -0.3779  -0.3779  -0.1042  -0.1042   0.1134   1.1218   1.1218   1.2260
     1.2260   2.0589   2.1246   2.3723   2.6012   2.6453   2.6453   2.6633
     2.6633   2.7091   2.7157   2.7157   2.7166   2.7166   2.7195   2.7682
     2.8095   2.8391   2.8391   2.9237   3.0910   3.1384   3.1384   3.1617
     3.2110   3.2110   3.3933   3.3933   3.7070

[...]

          k =-0.0729-0.0421 0.0000 ( 26398 PWs)   bands (ev):

[...]

     the Fermi energy is     1.1867 ev

!    total energy              =   -1758.75228654 Ry
     Harris-Foulkes estimate   =   -1758.75229197 Ry
     estimated scf accuracy    <       0.00000091 Ry

     The total energy is the sum of the following terms:

     one-electron contribution =   -8785.15063498 Ry
     hartree contribution      =    4444.58229365 Ry
     xc contribution           =    -552.75743554 Ry
     ewald contribution        =    3134.61320629 Ry
     electric field correction =       0.00000000 Ry
     smearing contrib. (-TS)   =      -0.03971597 Ry

     convergence has been achieved in  16 iterations

 BEEF-vdW xc energy contributions
           1 :   -486.967743835667
           2 :    446.590343448891
           3 :   -377.240666118836
           4 :    296.862990683303
           5 :   -222.999454174666
           6 :    167.009249074490
           7 :   -131.658279787104
           8 :    112.494711347996
           9 :   -101.793327530513
          10 :    92.8533220394464
          11 :   -82.5905827189357
          12 :    71.5431542984363
[...]
     MD5 check sum: 469debedee59599fedebd795477fea03
     Pseudo is Ultrasoft + core correction, Zval = 14.0
     Generated by new atomic code, or converted to UPF format
     Using radial grid of  891 points,  6 beta functions with:
                l(1) =   0
                l(2) =   0
                l(3) =   1
                l(4) =   1
                l(5) =   2
                l(6) =   2
     Q(r) pseudized with  8 coefficients,  rinner =    1.350   1.350   1.350
                                                       1.350   1.350

     PseudoPot. # 2 for La read from file:
     /afs/slac.stanford.edu/u/if/mamunm/psp/gbrv1.5pbe/La.UPF
     MD5 check sum: 5937b0c7494ba0601a847275249473aa
     Pseudo is Ultrasoft + core correction, Zval = 11.0
     Generated by new atomic code, or converted to UPF format
     Using radial grid of  995 points,  8 beta functions with:
                l(1) =   0
                l(2) =   0
                l(3) =   1
                l(4) =   1
                l(5) =   2
                l(6) =   2
                l(7) =   3
                l(8) =   3
     Q(r) pseudized with  8 coefficients,  rinner =    1.700   1.700   1.700
                                                       1.700   1.700   1.700
                                                       1.700

     vdW kernel table read from file vdW_kernel_table
     MD5 check sum: 095c7af220d748ca6e76c0b4c6cfb241

     atomic species   valence    mass     pseudopotential
        Sn1           14.00   118.71000     Sn( 1.00)
        La1           11.00   138.90547     La( 1.00)

     No symmetry found

   Cartesian axes

     site n.     atom                  positions (alat units)
         1           Sn1 tau(   1) = (   0.0000000   0.0000000  10.0000000  )
         2           Sn1 tau(   2) = (  -1.7143076   2.9692678  10.0000000  )
         3           Sn1 tau(   3) = (   1.7143076   2.9692678  10.0000000  )
         4           La1 tau(   4) = (   3.4286152   0.0000000  10.0000000  )
         5           Sn1 tau(   5) = (   3.4286152   1.9795119  12.7994526  )
         6           Sn1 tau(   6) = (   1.7143076   4.9487797  12.7994526  )
         7           Sn1 tau(   7) = (  -1.7143076   4.9487797  12.7994526  )
         8           La1 tau(   8) = (   0.0000000   1.9795119  12.7994526  )
         9           Sn1 tau(   9) = (  -0.0000282   3.9810527  15.6389669  )
        10           Sn1 tau(  10) = (   1.7333945   0.9787344  15.6389324  )
        11           Sn1 tau(  11) = (   5.1238192   0.9787297  15.6389584  )
        12           La1 tau(  12) = (   3.4286089   3.9590243  15.4351739  )

     number of k points=    20  Fermi-Dirac smearing, width (Ry)=  0.0110
                       cart. coord. in units 2pi/alat
        k(    1) = (   0.0000000   0.0000000   0.0000000), wk =   0.0555556
        k(    2) = (   0.0000000   0.0280653   0.0000000), wk =   0.1111111
        k(    3) = (   0.0000000   0.0561306   0.0000000), wk =   0.1111111
        k(    4) = (   0.0000000  -0.0841958   0.0000000), wk =   0.0555556
        k(    5) = (   0.0243052   0.0140326   0.0000000), wk =   0.1111111
        k(    6) = (   0.0243052   0.0420979   0.0000000), wk =   0.1111111
        k(    7) = (   0.0243052   0.0701632   0.0000000), wk =   0.1111111
        k(    8) = (   0.0243052  -0.0701632   0.0000000), wk =   0.1111111
        k(    9) = (   0.0243052  -0.0420979   0.0000000), wk =   0.1111111
        k(   10) = (   0.0243052  -0.0140326   0.0000000), wk =   0.1111111
        k(   11) = (   0.0486105   0.0280653   0.0000000), wk =   0.1111111
        k(   12) = (   0.0486105   0.0561306   0.0000000), wk =   0.1111111
        k(   13) = (   0.0486105   0.0841958   0.0000000), wk =   0.1111111
        k(   14) = (   0.0486105  -0.0561306   0.0000000), wk =   0.1111111
        k(   15) = (   0.0486105  -0.0280653   0.0000000), wk =   0.1111111
        k(   16) = (   0.0486105   0.0000000   0.0000000), wk =   0.1111111
        k(   17) = (  -0.0729157  -0.0420979   0.0000000), wk =   0.0555556
        k(   18) = (  -0.0729157  -0.0140326   0.0000000), wk =   0.1111111
        k(   19) = (  -0.0729157   0.0140326   0.0000000), wk =   0.1111111
        k(   20) = (  -0.0729157  -0.1262938   0.0000000), wk =   0.0555556

     Largest allocated arrays     est. size (Mb)     dimensions
     Largest temporary arrays     est. size (Mb)     dimensions

     Initial potential from superposition of free atoms
     Check: negative starting charge=   -0.215203

     starting charge  149.90339, renormalised to  159.00000

[...]

     *
     * You are using vdW-DF for exchange-correlation in this calculation.
     * Please cite the following three references that made this development
     * possible:
     *
     *   M. Dion, H. Rydberg, E. Schroder, D. C. Langreth, and
     *   B. I. Lundqvist, Phys. Rev. Lett. 92, 246401 (2004).
     *
     *   T. Thonhauser, V. R. Cooper, S. Li, A. Puzder, P. Hyldgaard, and
     *   D. C. Langreth, Phys. Rev. B 76, 125112 (2007).
     *
     *   G. Roman-Perez and J. M. Soler, Phys. Rev. Lett. 103, 096102 (2009).
     *
     *
     * If you are using vdW-DF2, please also cite:
     *
     *   K. Lee, E. D. Murray, L. Kong, B. I. Lundqvist, and
     *   D. C. Langreth, Phys. Rev. B 82, 081101(R) (2010).
     *
     *
     * If you are calculating the stress with vdW-DF, please also cite:
     *
     *   R. Sabatini, E. Kucukbenli, B. Kolb, T. Thonhauser, and
     *   S. de Gironcoli, J. Phys.: Condens. Matter 24, 424209 (2012).
     *

     Carrying out vdW-DF run using the following parameters:

     Nqs =      20    Nr_points =    1024   r_max =   100.000
     q_mesh =
               0.00001000     0.04494208     0.09755937     0.15916263
               0.23128650     0.31572767     0.41458969     0.53033537
               0.66584808     0.82450364     1.01025438     1.22772762
               1.48234092     1.78043706     2.12944203     2.53805004
               3.01644009     3.57652955     4.23227104     5.00000000

     Gradients computed in reciprocal space

[...]

     Starting wfc are  141 randomized atomic wfcs

     Self-consistent Calculation

[...]

     total energy              =   -1758.75823544 Ry
     Harris-Foulkes estimate   =   -1758.75823616 Ry
     estimated scf accuracy    <       0.00000114 Ry

     iteration # 18     ecut=    36.75 Ry     beta=0.10
     Davidson diagonalization with overlap
     ethr =  7.17E-10,  avg # of iterations =  3.1

[...]

     negative rho (up, down):  1.348E-01 0.000E+00

     Adding external electric field

     Computed dipole along edir(3) :
        Dipole               -0.0470 Ry au,         -0.1195 Debye
        Dipole field         -0.0001 Ry au

        Potential amp.        0.0079 Ry
        Total length         47.1655 bohr

     End of self-consistent calculation

[...]

          k = 0.0486 0.0000 0.0000 ( 26493 PWs)   bands (ev):

[...]

          k =-0.0729-0.1263 0.0000 ( 26398 PWs)   bands (ev):

   -32.3612 -32.2004 -31.9139 -20.6817 -20.6655 -20.6510 -20.6460 -20.6347
   -20.6332 -20.6314 -20.6291 -20.6226 -20.6099 -20.6075 -20.6014 -20.5962
   -20.5957 -20.5911 -20.5861 -20.5814 -20.5773 -20.5766 -20.5723 -20.5704
   -20.5682 -20.5620 -20.5568 -20.5519 -20.5494 -20.5490 -20.5457 -20.5432
   -20.5379 -20.5357 -20.5343 -20.5248 -20.5248 -20.5230 -20.5209 -20.5134
   -20.5088 -20.5081 -20.4990 -20.4963 -20.4921 -20.4852 -20.4825 -20.4606
   -16.0352 -15.9301 -15.9282 -15.8998 -15.8014 -15.8005 -15.5795 -15.5754
   -15.5434  -7.4401  -7.2432  -6.3242  -6.2500  -5.6358  -5.5392  -5.2792
    -4.8159  -3.9637  -2.2518  -1.9500  -1.4989  -0.7000  -0.6688  -0.4539
    -0.3926  -0.2786   0.1968   0.4205   0.5671   0.6146   0.9839   1.3856
     1.4282   1.4634   1.6415   1.7748   1.8150   1.9697   2.3627   2.4614
     2.5209   2.5980   2.6721   2.6730   2.7190   2.7471   2.7660   2.8003
     2.8291   2.8699   2.8845   2.9273   2.9553   2.9892   3.0019   3.0665
     3.1225   3.1612   3.2521   3.2532   3.3169

     the Fermi energy is     1.1293 ev

!    total energy              =   -1758.75823023 Ry
     Harris-Foulkes estimate   =   -1758.75823558 Ry
     estimated scf accuracy    <       0.00000019 Ry

     The total energy is the sum of the following terms:

     one-electron contribution =   -8787.06175675 Ry
     hartree contribution      =    4445.31551782 Ry
     xc contribution           =    -552.76688468 Ry
     ewald contribution        =    3135.79413287 Ry
     electric field correction =       0.00000395 Ry
     smearing contrib. (-TS)   =      -0.03924344 Ry

     convergence has been achieved in  18 iterations

 BEEF-vdW xc energy contributions
           1 :   -486.977732738759
           2 :    446.607450882694
           3 :   -377.265296703405
           4 :    296.888786993855
           5 :   -223.019491380545
           6 :    167.020622411390
           7 :   -131.661236619057
           8 :    112.490513767281
           9 :   -101.783420589033
          10 :    92.8392264057370
          11 :   -82.5742872473292
          12 :    71.5279064755133
          13 :   -61.9275005478142
          14 :    55.3714335580758
          15 :   -51.5858779875408
          16 :    48.7838651316991
          17 :   -45.0907133778735
          18 :    39.9100443303437
          19 :   -34.3039025790791
          20 :    30.2020172491294
          21 :   -29.0396086092535
          22 :    30.7451023532640
          23 :   -33.7225876108047
          24 :    35.7971663688662
          25 :   -35.4863841825486
          26 :    32.7932906314305
          27 :   -29.0721565414437
          28 :    26.1162411333115
          29 :   -25.0795061689727
          30 :    25.8889748646565
          31 :   -42.1750724730116
          32 :   -30.6139834062852

     Forces acting on atoms (Ry/au):

     negative rho (up, down):  1.348E-01 0.000E+00
     atom    1 type  1   force =     0.00000544   -0.00325940   -0.00639961
     atom    2 type  1   force =    -0.00282136    0.00163083   -0.00639681
     atom    3 type  1   force =     0.00281897    0.00162769   -0.00640016
     atom    4 type  2   force =     0.00000079   -0.00000010    0.02992132
     atom    5 type  1   force =     0.00000140   -0.00532413   -0.00630892
     atom    6 type  1   force =    -0.00460851    0.00266360   -0.00631018
     atom    7 type  1   force =     0.00460888    0.00266092   -0.00630924
     atom    8 type  2   force =    -0.00000101    0.00000087    0.00518192
     atom    9 type  1   force =    -0.00000395    0.00149739    0.00101047
     atom   10 type  1   force =     0.00129811   -0.00075215    0.00101042
     atom   11 type  1   force =    -0.00129571   -0.00074534    0.00101108
     atom   12 type  2   force =    -0.00000306   -0.00000017   -0.00001030

     Total force =     0.035931     Total SCF correction =     0.001566

     entering subroutine stress ...

     negative rho (up, down):  1.348E-01 0.000E+00
          total   stress  (Ry/bohr**3)                   (kbar)     P=   -7.96
  -0.00007307  -0.00000000   0.00000000        -10.75     -0.00      0.00
  -0.00000000  -0.00007307  -0.00000000         -0.00    -10.75     -0.00
   0.00000000  -0.00000000  -0.00001614          0.00     -0.00     -2.37

 !ASE

     Writing output data file calc.save

     General routines

     Parallel routines

   This run was terminated on:  13:58:38   1Jan2019

   JOB DONE.
Job  /afs/slac/g/suncat/bin/suncat-tsmpirun -x LD_LIBRARY_PATH -wdir /scratch/qe649016_W8m63 pw.x -in pw.inp

TID   HOST_NAME   COMMAND_LINE            STATUS            TERMINATION_TIME
00000 suncat0146 pw.x -in pw.inp   Done                     01/01/2019 13:58:38
00001 suncat0146 pw.x -in pw.inp   Done                     01/01/2019 13:58:38
00002 suncat0146 pw.x -in pw.inp   Done                     01/01/2019 13:58:38
00003 suncat0146 pw.x -in pw.inp   Done                     01/01/2019 13:58:38
00004 suncat0146 pw.x -in pw.inp   Done                     01/01/2019 13:58:38
00005 suncat0146 pw.x -in pw.inp   Done                     01/01/2019 13:58:38
00006 suncat0146 pw.x -in pw.inp   Done                     01/01/2019 13:58:38
00007 suncat0146 pw.x -in pw.inp   Done                     01/01/2019 13:58:38
00008 suncat0136 pw.x -in pw.inp   Done                     01/01/2019 13:58:38
00009 suncat0136 pw.x -in pw.inp   Done                     01/01/2019 13:58:38
00010 suncat0136 pw.x -in pw.inp   Done                     01/01/2019 13:58:38
00011 suncat0136 pw.x -in pw.inp   Done                     01/01/2019 13:58:38
00012 suncat0136 pw.x -in pw.inp   Done                     01/01/2019 13:58:38
00013 suncat0136 pw.x -in pw.inp   Done                     01/01/2019 13:58:38
00014 suncat0136 pw.x -in pw.inp   Done                     01/01/2019 13:58:38
00015 suncat0136 pw.x -in pw.inp   Done                     01/01/2019 13:58:38
00016 suncat0248 pw.x -in pw.inp   Done                     01/01/2019 13:58:38
00017 suncat0248 pw.x -in pw.inp   Done                     01/01/2019 13:58:38
00018 suncat0248 pw.x -in pw.inp   Done                     01/01/2019 13:58:38
00019 suncat0248 pw.x -in pw.inp   Done                     01/01/2019 13:58:38
00020 suncat0248 pw.x -in pw.inp   Done                     01/01/2019 13:58:38
00021 suncat0248 pw.x -in pw.inp   Done                     01/01/2019 13:58:38
00022 suncat0248 pw.x -in pw.inp   Done                     01/01/2019 13:58:38
00023 suncat0248 pw.x -in pw.inp   Done                     01/01/2019 13:58:38
00024 suncat0247 pw.x -in pw.inp   Done                     01/01/2019 13:58:38
00025 suncat0247 pw.x -in pw.inp   Done                     01/01/2019 13:58:38
00026 suncat0247 pw.x -in pw.inp   Done                     01/01/2019 13:58:38
00027 suncat0247 pw.x -in pw.inp   Done                     01/01/2019 13:58:38
00028 suncat0247 pw.x -in pw.inp   Done                     01/01/2019 13:58:38
00029 suncat0247 pw.x -in pw.inp   Done                     01/01/2019 13:58:38
00030 suncat0247 pw.x -in pw.inp   Done                     01/01/2019 13:58:38
00031 suncat0247 pw.x -in pw.inp   Done                     01/01/2019 13:58:38
00032 suncat0246 pw.x -in pw.inp   Done                     01/01/2019 13:58:38
00033 suncat0246 pw.x -in pw.inp   Done                     01/01/2019 13:58:38
00034 suncat0246 pw.x -in pw.inp   Done                     01/01/2019 13:58:38
00035 suncat0246 pw.x -in pw.inp   Done                     01/01/2019 13:58:38
00036 suncat0246 pw.x -in pw.inp   Done                     01/01/2019 13:58:38
00037 suncat0246 pw.x -in pw.inp   Done                     01/01/2019 13:58:38
00038 suncat0246 pw.x -in pw.inp   Done                     01/01/2019 13:58:38
00039 suncat0246 pw.x -in pw.inp   Done                     01/01/2019 13:58:38
00040 suncat0245 pw.x -in pw.inp   Done                     01/01/2019 13:58:38
00041 suncat0245 pw.x -in pw.inp   Done                     01/01/2019 13:58:38
00042 suncat0245 pw.x -in pw.inp   Done                     01/01/2019 13:58:38
00043 suncat0245 pw.x -in pw.inp   Done                     01/01/2019 13:58:38
00044 suncat0245 pw.x -in pw.inp   Done                     01/01/2019 13:58:38
00045 suncat0245 pw.x -in pw.inp   Done                     01/01/2019 13:58:38
00046 suncat0245 pw.x -in pw.inp   Done                     01/01/2019 13:58:38
00047 suncat0245 pw.x -in pw.inp   Done                     01/01/2019 13:58:38
00048 suncat0214 pw.x -in pw.inp   Done                     01/01/2019 13:58:38
00049 suncat0214 pw.x -in pw.inp   Done                     01/01/2019 13:58:38
00050 suncat0214 pw.x -in pw.inp   Done                     01/01/2019 13:58:38
00051 suncat0214 pw.x -in pw.inp   Done                     01/01/2019 13:58:38
00052 suncat0214 pw.x -in pw.inp   Done                     01/01/2019 13:58:38
00053 suncat0214 pw.x -in pw.inp   Done                     01/01/2019 13:58:38
00054 suncat0214 pw.x -in pw.inp   Done                     01/01/2019 13:58:38
00055 suncat0214 pw.x -in pw.inp   Done                     01/01/2019 13:58:38
00056 suncat0213 pw.x -in pw.inp   Done                     01/01/2019 13:58:38
00057 suncat0213 pw.x -in pw.inp   Done                     01/01/2019 13:58:38
00058 suncat0213 pw.x -in pw.inp   Done                     01/01/2019 13:58:38
00059 suncat0213 pw.x -in pw.inp   Done                     01/01/2019 13:58:38
00060 suncat0213 pw.x -in pw.inp   Done                     01/01/2019 13:58:38
00061 suncat0213 pw.x -in pw.inp   Done                     01/01/2019 13:58:38
00062 suncat0213 pw.x -in pw.inp   Done                     01/01/2019 13:58:38
00063 suncat0213 pw.x -in pw.inp   Done                     01/01/2019 13:58:38