     Program PWSCF v.5.1rc2 (svn rev. 11289) starts on 19Dec2018 at 18:57: 8

     Current dimensions of program PWSCF are:
     Max number of different atomic species (ntypx) = 10
     Max number of k-points (npk) =  40000
     Max angular momentum in pseudopotentials (lmaxx) =  3
     Presently stress not available with electric field

     IMPORTANT: XC functional enforced from input :
     Exchange-correlation      = BEEF-VDW ( 1  4 27 13 2)
     Any further DFT definition will be discarded
     Please, verify this is what you really want

     Subspace diagonalization in iterative solution of the eigenvalue problem:
     a serial algorithm will be used

     bravais-lattice index     =            0
     lattice parameter (alat)  =       1.8897  a.u.
     unit-cell volume          =    5348.2797 (a.u.)^3
     number of atoms/cell      =           12
     number of atomic types    =            2
     number of electrons       =       138.00
     number of Kohn-Sham states=           99
     kinetic-energy cutoff     =      36.7493  Ry
     charge density cutoff     =     367.4932  Ry
     convergence threshold     =      1.0E-06
     mixing beta               =       0.1000
     number of iterations used =           10  plain     mixing
     Exchange-correlation      = BEEF-VDW ( 1  4 27 13 2)
     nstep                     =           50

     celldm(1)=   1.889726  celldm(2)=   0.000000  celldm(3)=   0.000000
     celldm(4)=   0.000000  celldm(5)=   0.000000  celldm(6)=   0.000000

     crystal axes: (cart. coord. in units of alat)
               a(1) = (   6.056868   0.000000   0.000000 )
               a(2) = (  -3.028434   5.245401   0.000000 )
               a(3) = (   0.000000   0.000000  24.945412 )

     reciprocal axes: (cart. coord. in units 2 pi/alat)
               b(1) = (  0.165102  0.095322  0.000000 )
               b(2) = (  0.000000  0.190643  0.000000 )
               b(3) = (  0.000000  0.000000  0.040088 )

     PseudoPot. # 1 for Au read from file:
     /afs/slac.stanford.edu/u/if/mamunm/psp/gbrv1.5pbe/Au.UPF
     MD5 check sum: 9d7f43293ad2c663164586bc4b293ffc
     Pseudo is Ultrasoft + core correction, Zval = 11.0
     Generated by new atomic code, or converted to UPF format
     Using radial grid of  985 points,  7 beta functions with:
                l(1) =   0
                l(2) =   0
                l(3) =   1
                l(4) =   1
                l(5) =   2
                l(6) =   2
                l(7) =   3
     Q(r) pseudized with  6 coefficients,  rinner =    1.900   1.900   1.900
                                                       1.900   1.900   1.900
                                                       1.900

     PseudoPot. # 2 for In read from file:
     /afs/slac.stanford.edu/u/if/mamunm/psp/gbrv1.5pbe/In.UPF
     MD5 check sum: 90777abd96fbb83f2e67db2a40c566b9
     Pseudo is Ultrasoft + core correction, Zval = 13.0
     Generated by new atomic code, or converted to UPF format
     Using radial grid of  889 points,  6 beta functions with:
                l(1) =   0
                l(2) =   0
                l(3) =   1
                l(4) =   1
                l(5) =   2
                l(6) =   2
     Q(r) pseudized with  6 coefficients,  rinner =    1.400   1.400   1.400
                                                       1.400   1.400

     vdW kernel table read from file vdW_kernel_table
     MD5 check sum: 095c7af220d748ca6e76c0b4c6cfb241

     atomic species   valence    mass     pseudopotential
        Au1           11.00   196.96657     Au( 1.00)
        In1           13.00   114.81800     In( 1.00)

     No symmetry found

   Cartesian axes

     site n.     atom                  positions (alat units)
         1           Au1 tau(   1) = (   0.0000000   0.0000000  10.0000000  )
         2           Au1 tau(   2) = (   4.5426509   2.6227007  10.0000000  )
         3           Au1 tau(   3) = (   1.5142170   2.6227007  10.0000000  )
         4           In1 tau(   4) = (   3.0284339   0.0000000  10.0000000  )
         5           Au1 tau(   5) = (   3.0284339   1.7484672  12.4727060  )
         6           Au1 tau(   6) = (   1.5142170   4.3711679  12.4727060  )
         7           Au1 tau(   7) = (  -1.5142170   4.3711679  12.4727060  )
         8           In1 tau(   8) = (   0.0000000   1.7484672  12.4727060  )
         9           Au1 tau(   9) = (  -0.0000000   3.4969343  14.9454119  )
        10           Au1 tau(  10) = (   1.5142170   0.8742336  14.9454119  )
        11           Au1 tau(  11) = (   4.5426509   0.8742336  14.9454119  )
        12           In1 tau(  12) = (   3.0284339   3.4969343  14.9454119  )

     number of k points=    20  Fermi-Dirac smearing, width (Ry)=  0.0110
                       cart. coord. in units 2pi/alat
        k(    1) = (   0.0000000   0.0000000   0.0000000), wk =   0.0555556
        k(    2) = (   0.0000000   0.0317739   0.0000000), wk =   0.1111111
        k(    3) = (   0.0000000   0.0635477   0.0000000), wk =   0.1111111
        k(    4) = (   0.0000000  -0.0953216   0.0000000), wk =   0.0555556
        k(    5) = (   0.0275170   0.0158869   0.0000000), wk =   0.1111111
        k(    6) = (   0.0275170   0.0476608   0.0000000), wk =   0.1111111
        k(    7) = (   0.0275170   0.0794347   0.0000000), wk =   0.1111111
        k(    8) = (   0.0275170  -0.0794347   0.0000000), wk =   0.1111111
        k(    9) = (   0.0275170  -0.0476608   0.0000000), wk =   0.1111111
        k(   10) = (   0.0275170  -0.0158869   0.0000000), wk =   0.1111111
        k(   11) = (   0.0550339   0.0317739   0.0000000), wk =   0.1111111
        k(   12) = (   0.0550339   0.0635477   0.0000000), wk =   0.1111111
        k(   13) = (   0.0550339   0.0953216   0.0000000), wk =   0.1111111
        k(   14) = (   0.0550339  -0.0635477   0.0000000), wk =   0.1111111
        k(   15) = (   0.0550339  -0.0317739   0.0000000), wk =   0.1111111
        k(   16) = (   0.0550339   0.0000000   0.0000000), wk =   0.1111111
        k(   17) = (  -0.0825509  -0.0476608   0.0000000), wk =   0.0555556
        k(   18) = (  -0.0825509  -0.0158869   0.0000000), wk =   0.1111111
        k(   19) = (  -0.0825509   0.0158869   0.0000000), wk =   0.1111111
        k(   20) = (  -0.0825509  -0.1429824   0.0000000), wk =   0.0555556

     Largest allocated arrays     est. size (Mb)     dimensions
     Largest temporary arrays     est. size (Mb)     dimensions

     Check: negative/imaginary core charge=   -0.000002    0.000000

     Initial potential from superposition of free atoms

     starting charge  133.49890, renormalised to  138.00000

     negative rho (up, down):  9.677E-05 0.000E+00

     *
     * You are using vdW-DF for exchange-correlation in this calculation.
     * Please cite the following three references that made this development
     * possible:
     *
     *   M. Dion, H. Rydberg, E. Schroder, D. C. Langreth, and
     *   B. I. Lundqvist, Phys. Rev. Lett. 92, 246401 (2004).
     *
     *   T. Thonhauser, V. R. Cooper, S. Li, A. Puzder, P. Hyldgaard, and
     *   D. C. Langreth, Phys. Rev. B 76, 125112 (2007).
     *
     *   G. Roman-Perez and J. M. Soler, Phys. Rev. Lett. 103, 096102 (2009).
     *
     *
     * If you are using vdW-DF2, please also cite:
     *
     *   K. Lee, E. D. Murray, L. Kong, B. I. Lundqvist, and
     *   D. C. Langreth, Phys. Rev. B 82, 081101(R) (2010).
     *
     *
     * If you are calculating the stress with vdW-DF, please also cite:
     *
     *   R. Sabatini, E. Kucukbenli, B. Kolb, T. Thonhauser, and
     *   S. de Gironcoli, J. Phys.: Condens. Matter 24, 424209 (2012).
     *

     Carrying out vdW-DF run using the following parameters:

     Nqs =      20    Nr_points =    1024   r_max =   100.000
     q_mesh =
               0.00001000     0.04494208     0.09755937     0.15916263
               0.23128650     0.31572767     0.41458969     0.53033537
               0.66584808     0.82450364     1.01025438     1.22772762
               1.48234092     1.78043706     2.12944203     2.53805004
               3.01644009     3.57652955     4.23227104     5.00000000

     Gradients computed in reciprocal space

     Adding external electric field

     Computed dipole along edir(3) :
        Dipole                0.0000 Ry au,          0.0000 Debye
        Dipole field          0.0000 Ry au

        Potential amp.       -0.0000 Ry
        Total length         45.9615 bohr

     Starting wfc are  108 randomized atomic wfcs

     Self-consistent Calculation

     iteration #  1     ecut=    36.75 Ry     beta=0.10
     Davidson diagonalization with overlap
     ethr =  1.00E-02,  avg # of iterations =  7.8

[...]

     total energy              =   -1455.13794632 Ry
     Harris-Foulkes estimate   =   -1455.99016197 Ry
     estimated scf accuracy    <       5.22958483 Ry

[...]

     End of self-consistent calculation

          k = 0.0000 0.0000 0.0000 ( 19999 PWs)   bands (ev):

   -14.6899 -14.6899 -14.6807 -14.6625 -14.6625 -14.4800 -14.4712 -14.4411
   -14.4411 -14.4313 -14.4313 -14.4125 -14.4125 -14.4118 -14.4118  -8.4698
    -6.9010  -6.6052  -5.6568  -5.4384  -5.2216  -5.1051  -5.1049  -4.8292
    -4.8076  -4.8075  -4.7164  -4.7163  -4.4689  -4.4689  -4.2221  -4.0073
    -4.0073  -3.7856  -3.7856  -3.7696  -3.6639  -3.5394  -3.3668  -3.3666
    -3.3439  -3.2330  -3.2330  -3.1537  -3.1534  -2.8233  -2.8233  -2.7739
    -2.7642  -2.7642  -2.5125  -2.5125  -2.4919  -2.4918  -2.3332  -2.3332
    -2.2151  -2.0125  -1.9488  -1.9488  -1.7938  -1.6661  -1.6387  -0.6204
    -0.5884  -0.5884  -0.0898  -0.0366   0.1914   0.1915   0.5136   0.5136
     0.9726   1.4125   2.1895   2.1895   2.5729   3.1508   3.1509   3.2941
     3.7301   3.7301   3.9906   4.5988   4.8282   5.8413   5.8480   6.4732
     6.6893   7.2154   7.2154   7.5366   7.5366   7.7324   8.0696   8.6126
     8.6126   9.0603   9.0603

[...]

          k =-0.0826-0.0477 0.0000 ( 20148 PWs)   bands (ev):

[...]

     the Fermi energy is     0.4022 ev

!    total energy              =   -1454.75518657 Ry
     Harris-Foulkes estimate   =   -1454.75518087 Ry
     estimated scf accuracy    <       0.00000047 Ry

     The total energy is the sum of the following terms:

     one-electron contribution =   -8471.88160308 Ry
     hartree contribution      =    4327.51973100 Ry
     xc contribution           =    -693.49897888 Ry
     ewald contribution        =    3383.13715245 Ry
     electric field correction =       0.00000000 Ry
     smearing contrib. (-TS)   =      -0.03148807 Ry

     convergence has been achieved in  14 iterations

 BEEF-vdW xc energy contributions
           1 :   -617.342664765441
           2 :    572.355559802969
           3 :   -492.729209612931
           4 :    395.162506683698
           5 :   -297.039127323254
           6 :    211.495285287389
           7 :   -144.931996439467
           8 :    97.3581768330853
           9 :   -64.8078618457869
          10 :    42.3420507672829
          11 :   -26.2403955692057
          12 :    14.6738612371095
          13 :   -7.08876412979339
          14 :    3.09934246697128
          15 :   -1.72325616204068
[...]
     Using radial grid of  985 points,  7 beta functions with:
                l(1) =   0
                l(2) =   0
                l(3) =   1
                l(4) =   1
                l(5) =   2
                l(6) =   2
                l(7) =   3
     Q(r) pseudized with  6 coefficients,  rinner =    1.900   1.900   1.900
                                                       1.900   1.900   1.900
                                                       1.900

     PseudoPot. # 2 for In read from file:
     /afs/slac.stanford.edu/u/if/mamunm/psp/gbrv1.5pbe/In.UPF
     MD5 check sum: 90777abd96fbb83f2e67db2a40c566b9
     Pseudo is Ultrasoft + core correction, Zval = 13.0
     Generated by new atomic code, or converted to UPF format
     Using radial grid of  889 points,  6 beta functions with:
                l(1) =   0
                l(2) =   0
                l(3) =   1
                l(4) =   1
                l(5) =   2
                l(6) =   2
     Q(r) pseudized with  6 coefficients,  rinner =    1.400   1.400   1.400
                                                       1.400   1.400

     vdW kernel table read from file vdW_kernel_table
     MD5 check sum: 095c7af220d748ca6e76c0b4c6cfb241

     atomic species   valence    mass     pseudopotential
        Au1           11.00   196.96657     Au( 1.00)
        In1           13.00   114.81800     In( 1.00)

     No symmetry found

   Cartesian axes

     site n.     atom                  positions (alat units)
         1           Au1 tau(   1) = (   0.0000000   0.0000000  10.0000000  )
         2           Au1 tau(   2) = (   4.5426509   2.6227007  10.0000000  )
         3           Au1 tau(   3) = (   1.5142170   2.6227007  10.0000000  )
         4           In1 tau(   4) = (   3.0284339   0.0000000  10.0000000  )
         5           Au1 tau(   5) = (   3.0284339   1.7484672  12.4727060  )
         6           Au1 tau(   6) = (   1.5142170   4.3711679  12.4727060  )
         7           Au1 tau(   7) = (  -1.5142170   4.3711679  12.4727060  )
         8           In1 tau(   8) = (   0.0000000   1.7484672  12.4727060  )
         9           Au1 tau(   9) = (  -0.0001123   3.4855138  15.0172387  )
        10           Au1 tau(  10) = (   1.5044572   0.8799065  15.0170173  )
        11           Au1 tau(  11) = (   4.5524510   0.8799913  15.0172139  )
        12           In1 tau(  12) = (   3.0285678   3.4968479  15.2256337  )

     number of k points=    20  Fermi-Dirac smearing, width (Ry)=  0.0110
                       cart. coord. in units 2pi/alat
        k(    1) = (   0.0000000   0.0000000   0.0000000), wk =   0.0555556
        k(    2) = (   0.0000000   0.0317739   0.0000000), wk =   0.1111111
        k(    3) = (   0.0000000   0.0635477   0.0000000), wk =   0.1111111
        k(    4) = (   0.0000000  -0.0953216   0.0000000), wk =   0.0555556
        k(    5) = (   0.0275170   0.0158869   0.0000000), wk =   0.1111111
        k(    6) = (   0.0275170   0.0476608   0.0000000), wk =   0.1111111
        k(    7) = (   0.0275170   0.0794347   0.0000000), wk =   0.1111111
        k(    8) = (   0.0275170  -0.0794347   0.0000000), wk =   0.1111111
        k(    9) = (   0.0275170  -0.0476608   0.0000000), wk =   0.1111111
        k(   10) = (   0.0275170  -0.0158869   0.0000000), wk =   0.1111111
        k(   11) = (   0.0550339   0.0317739   0.0000000), wk =   0.1111111
        k(   12) = (   0.0550339   0.0635477   0.0000000), wk =   0.1111111
        k(   13) = (   0.0550339   0.0953216   0.0000000), wk =   0.1111111
        k(   14) = (   0.0550339  -0.0635477   0.0000000), wk =   0.1111111
        k(   15) = (   0.0550339  -0.0317739   0.0000000), wk =   0.1111111
        k(   16) = (   0.0550339   0.0000000   0.0000000), wk =   0.1111111
        k(   17) = (  -0.0825509  -0.0476608   0.0000000), wk =   0.0555556
        k(   18) = (  -0.0825509  -0.0158869   0.0000000), wk =   0.1111111
        k(   19) = (  -0.0825509   0.0158869   0.0000000), wk =   0.1111111
        k(   20) = (  -0.0825509  -0.1429824   0.0000000), wk =   0.0555556

     Largest allocated arrays     est. size (Mb)     dimensions
     Largest temporary arrays     est. size (Mb)     dimensions

     Check: negative/imaginary core charge=   -0.000002    0.000000

     Initial potential from superposition of free atoms

     starting charge  133.49890, renormalised to  138.00000

[...]

     *
     * You are using vdW-DF for exchange-correlation in this calculation.
     * Please cite the following three references that made this development
     * possible:
     *
     *   M. Dion, H. Rydberg, E. Schroder, D. C. Langreth, and
     *   B. I. Lundqvist, Phys. Rev. Lett. 92, 246401 (2004).
     *
     *   T. Thonhauser, V. R. Cooper, S. Li, A. Puzder, P. Hyldgaard, and
     *   D. C. Langreth, Phys. Rev. B 76, 125112 (2007).
     *
     *   G. Roman-Perez and J. M. Soler, Phys. Rev. Lett. 103, 096102 (2009).
     *
     *
     * If you are using vdW-DF2, please also cite:
     *
     *   K. Lee, E. D. Murray, L. Kong, B. I. Lundqvist, and
     *   D. C. Langreth, Phys. Rev. B 82, 081101(R) (2010).
     *
     *
     * If you are calculating the stress with vdW-DF, please also cite:
     *
     *   R. Sabatini, E. Kucukbenli, B. Kolb, T. Thonhauser, and
     *   S. de Gironcoli, J. Phys.: Condens. Matter 24, 424209 (2012).
     *

     Carrying out vdW-DF run using the following parameters:

     Nqs =      20    Nr_points =    1024   r_max =   100.000
     q_mesh =
               0.00001000     0.04494208     0.09755937     0.15916263
               0.23128650     0.31572767     0.41458969     0.53033537
               0.66584808     0.82450364     1.01025438     1.22772762
               1.48234092     1.78043706     2.12944203     2.53805004
               3.01644009     3.57652955     4.23227104     5.00000000

     Gradients computed in reciprocal space

[...]

     Starting wfc are  108 randomized atomic wfcs

     Self-consistent Calculation

[...]

     iteration #  8     ecut=    36.75 Ry     beta=0.10
     Davidson diagonalization with overlap
     c_bands:  1 eigenvalues not converged
     ethr =  5.03E-06,  avg # of iterations =  4.8

[...]

     total energy              =   -1454.78111569 Ry
     Harris-Foulkes estimate   =   -1454.78111465 Ry
     estimated scf accuracy    <       0.00000137 Ry

     iteration # 15     ecut=    36.75 Ry     beta=0.10
     Davidson diagonalization with overlap
     ethr =  9.93E-10,  avg # of iterations =  1.4

[...]

     negative rho (up, down):  5.658E-04 0.000E+00

     Adding external electric field

     Computed dipole along edir(3) :
        Dipole                0.0373 Ry au,          0.0948 Debye
        Dipole field          0.0001 Ry au

        Potential amp.       -0.0081 Ry
        Total length         45.9615 bohr

     End of self-consistent calculation

[...]

          k = 0.0550 0.0000 0.0000 ( 20123 PWs)   bands (ev):

[...]

          k =-0.0826-0.1430 0.0000 ( 20148 PWs)   bands (ev):

   -14.6247 -14.6111 -14.6104 -14.5975 -14.5974 -14.4337 -14.4025 -14.4024
   -14.3915 -14.3748 -14.3642 -14.3524 -14.3522 -14.3157 -14.3058  -6.9752
    -6.6889  -5.7394  -5.4833  -5.1620  -5.1192  -4.7841  -4.7430  -4.6476
    -4.4453  -4.3058  -4.2948  -4.2818  -4.2511  -4.2251  -4.1327  -4.0729
    -3.9650  -3.8114  -3.7348  -3.6948  -3.5612  -3.5144  -3.5056  -3.4932
    -3.4398  -3.3450  -3.3272  -3.2579  -3.2560  -3.1837  -3.1210  -3.0794
    -3.0673  -3.0429  -2.9888  -2.9779  -2.9122  -2.8666  -2.8056  -2.7647
    -2.6954  -2.6366  -2.5322  -2.3797  -2.2695  -2.2666  -2.0148  -1.8179
    -1.6413  -0.8935  -0.8375  -0.3977  -0.0900   0.3839   1.1847   2.0369
     2.2725   2.4432   4.0397   4.1536   4.2419   4.5092   4.6882   4.8478
     5.1708   5.5982   5.7541   5.8308   5.9228   5.9630   6.1279   6.1598
     6.7900   6.9133   7.0124   7.1376   7.1519   7.1987   7.2400   7.5905
     7.6696   7.7894   8.2957

     the Fermi energy is     0.4332 ev

!    total energy              =   -1454.78112099 Ry
     Harris-Foulkes estimate   =   -1454.78111560 Ry
     estimated scf accuracy    <       0.00000063 Ry

     The total energy is the sum of the following terms:

     one-electron contribution =   -8311.08303132 Ry
     hartree contribution      =    4247.47618202 Ry
     xc contribution           =    -693.42499681 Ry
     ewald contribution        =    3302.28257431 Ry
     electric field correction =       0.00000327 Ry
     smearing contrib. (-TS)   =      -0.03185246 Ry

     convergence has been achieved in  15 iterations

 BEEF-vdW xc energy contributions
           1 :   -617.855268392738
           2 :    572.782398471838
           3 :   -493.046671092370
           4 :    395.431248661421
           5 :   -297.371261654068
           6 :    211.985623469851
           7 :   -145.597483951826
           8 :    98.1246268789793
           9 :   -65.5521201911907
          10 :    42.9628287324492
          11 :   -26.7145801380776
          12 :    15.0658318225321
          13 :   -7.51029290062309
          14 :    3.64633068838782
          15 :   -2.42504415088035
          16 :    2.15146063387795
          17 :   -1.08728783494257
          18 :   -1.82385375317710
          19 :    6.54649940567481
          20 :   -12.0562722464330
          21 :    16.8545855128774
          22 :   -19.6270578487603
          23 :    19.7546370888166
          24 :   -17.5006023553793
          25 :    13.8396805905503
          26 :   -10.0355023591167
          27 :    7.14637743703440
          28 :   -5.66081512335836
          29 :    5.40486409820858
          30 :   -5.75273492603367
          31 :   -49.9358697596124
          32 :   -36.3536405446368

     Forces acting on atoms (Ry/au):

     negative rho (up, down):  5.658E-04 0.000E+00
     atom    1 type  1   force =     0.00000198    0.00143784   -0.00586835
     atom    2 type  1   force =     0.00124625   -0.00071905   -0.00586405
     atom    3 type  1   force =    -0.00124593   -0.00071814   -0.00586585
     atom    4 type  2   force =     0.00000076   -0.00000101   -0.01734018
     atom    5 type  1   force =     0.00000076    0.00216527    0.00897923
     atom    6 type  1   force =     0.00187387   -0.00108290    0.00899205
     atom    7 type  1   force =    -0.00187439   -0.00108471    0.00898203
     atom    8 type  2   force =    -0.00000117    0.00000228    0.00706728
     atom    9 type  1   force =     0.00002188    0.00155470   -0.00026723
     atom   10 type  1   force =     0.00132991   -0.00077133   -0.00025772
     atom   11 type  1   force =    -0.00133161   -0.00079808   -0.00026647
     atom   12 type  2   force =    -0.00002230    0.00001514    0.00170926

     Total force =     0.026956     Total SCF correction =     0.003426
     SCF correction compared to forces is large: reduce conv_thr to get better values

     entering subroutine stress ...

     negative rho (up, down):  5.658E-04 0.000E+00
          total   stress  (Ry/bohr**3)                   (kbar)     P=  -11.10
  -0.00012865   0.00000000  -0.00000000        -18.92      0.00     -0.00
   0.00000000  -0.00012865   0.00000000          0.00    -18.92      0.00
  -0.00000000   0.00000000   0.00003093         -0.00      0.00      4.55

 !ASE

     Writing output data file calc.save

     General routines

     Parallel routines

   This run was terminated on:  19:54:57  19Dec2018

   JOB DONE.
Job  /afs/slac/g/suncat/bin/suncat-tsmpirun -x LD_LIBRARY_PATH -wdir /scratch/qe773355_oj2xA pw.x -in pw.inp

TID   HOST_NAME   COMMAND_LINE            STATUS            TERMINATION_TIME
00000 suncat0226 pw.x -in pw.inp   Done                     12/19/2018 19:54:57
00001 suncat0226 pw.x -in pw.inp   Done                     12/19/2018 19:54:57
00002 suncat0226 pw.x -in pw.inp   Done                     12/19/2018 19:54:57
00003 suncat0226 pw.x -in pw.inp   Done                     12/19/2018 19:54:57
00004 suncat0226 pw.x -in pw.inp   Done                     12/19/2018 19:54:57
00005 suncat0226 pw.x -in pw.inp   Done                     12/19/2018 19:54:57
00006 suncat0226 pw.x -in pw.inp   Done                     12/19/2018 19:54:57
00007 suncat0226 pw.x -in pw.inp   Done                     12/19/2018 19:54:57
00008 suncat0225 pw.x -in pw.inp   Done                     12/19/2018 19:54:57
00009 suncat0225 pw.x -in pw.inp   Done                     12/19/2018 19:54:57
00010 suncat0225 pw.x -in pw.inp   Done                     12/19/2018 19:54:57
00011 suncat0225 pw.x -in pw.inp   Done                     12/19/2018 19:54:57
00012 suncat0225 pw.x -in pw.inp   Done                     12/19/2018 19:54:57
00013 suncat0225 pw.x -in pw.inp   Done                     12/19/2018 19:54:57
00014 suncat0225 pw.x -in pw.inp   Done                     12/19/2018 19:54:57
00015 suncat0225 pw.x -in pw.inp   Done                     12/19/2018 19:54:57
00016 suncat0224 pw.x -in pw.inp   Done                     12/19/2018 19:54:57
00017 suncat0224 pw.x -in pw.inp   Done                     12/19/2018 19:54:57
00018 suncat0224 pw.x -in pw.inp   Done                     12/19/2018 19:54:57
00019 suncat0224 pw.x -in pw.inp   Done                     12/19/2018 19:54:57
00020 suncat0224 pw.x -in pw.inp   Done                     12/19/2018 19:54:57
00021 suncat0224 pw.x -in pw.inp   Done                     12/19/2018 19:54:57
00022 suncat0224 pw.x -in pw.inp   Done                     12/19/2018 19:54:57
00023 suncat0224 pw.x -in pw.inp   Done                     12/19/2018 19:54:57
00024 suncat0223 pw.x -in pw.inp   Done                     12/19/2018 19:54:57
00025 suncat0223 pw.x -in pw.inp   Done                     12/19/2018 19:54:57
00026 suncat0223 pw.x -in pw.inp   Done                     12/19/2018 19:54:57
00027 suncat0223 pw.x -in pw.inp   Done                     12/19/2018 19:54:57
00028 suncat0223 pw.x -in pw.inp   Done                     12/19/2018 19:54:57
00029 suncat0223 pw.x -in pw.inp   Done                     12/19/2018 19:54:57
00030 suncat0223 pw.x -in pw.inp   Done                     12/19/2018 19:54:57
00031 suncat0223 pw.x -in pw.inp   Done                     12/19/2018 19:54:57
00032 suncat0222 pw.x -in pw.inp   Done                     12/19/2018 19:54:57
00033 suncat0222 pw.x -in pw.inp   Done                     12/19/2018 19:54:57
00034 suncat0222 pw.x -in pw.inp   Done                     12/19/2018 19:54:57
00035 suncat0222 pw.x -in pw.inp   Done                     12/19/2018 19:54:57
00036 suncat0222 pw.x -in pw.inp   Done                     12/19/2018 19:54:57
00037 suncat0222 pw.x -in pw.inp   Done                     12/19/2018 19:54:57
00038 suncat0222 pw.x -in pw.inp   Done                     12/19/2018 19:54:57
00039 suncat0222 pw.x -in pw.inp   Done                     12/19/2018 19:54:57
00040 suncat0221 pw.x -in pw.inp   Done                     12/19/2018 19:54:57
00041 suncat0221 pw.x -in pw.inp   Done                     12/19/2018 19:54:57
00042 suncat0221 pw.x -in pw.inp   Done                     12/19/2018 19:54:57
00043 suncat0221 pw.x -in pw.inp   Done                     12/19/2018 19:54:57
00044 suncat0221 pw.x -in pw.inp   Done                     12/19/2018 19:54:57
00045 suncat0221 pw.x -in pw.inp   Done                     12/19/2018 19:54:57
00046 suncat0221 pw.x -in pw.inp   Done                     12/19/2018 19:54:57
00047 suncat0221 pw.x -in pw.inp   Done                     12/19/2018 19:54:57
00048 suncat0220 pw.x -in pw.inp   Done                     12/19/2018 19:54:57
00049 suncat0220 pw.x -in pw.inp   Done                     12/19/2018 19:54:57
00050 suncat0220 pw.x -in pw.inp   Done                     12/19/2018 19:54:57
00051 suncat0220 pw.x -in pw.inp   Done                     12/19/2018 19:54:57
00052 suncat0220 pw.x -in pw.inp   Done                     12/19/2018 19:54:57
00053 suncat0220 pw.x -in pw.inp   Done                     12/19/2018 19:54:57
00054 suncat0220 pw.x -in pw.inp   Done                     12/19/2018 19:54:57
00055 suncat0220 pw.x -in pw.inp   Done                     12/19/2018 19:54:57
00056 suncat0219 pw.x -in pw.inp   Done                     12/19/2018 19:54:57
00057 suncat0219 pw.x -in pw.inp   Done                     12/19/2018 19:54:57
00058 suncat0219 pw.x -in pw.inp   Done                     12/19/2018 19:54:57
00059 suncat0219 pw.x -in pw.inp   Done                     12/19/2018 19:54:57
00060 suncat0219 pw.x -in pw.inp   Done                     12/19/2018 19:54:57
00061 suncat0219 pw.x -in pw.inp   Done                     12/19/2018 19:54:57
00062 suncat0219 pw.x -in pw.inp   Done                     12/19/2018 19:54:57
00063 suncat0219 pw.x -in pw.inp   Done                     12/19/2018 19:54:57