     Program PWSCF v.5.1rc2 (svn rev. 11289) starts on 28Dec2018 at  2:50: 1

     Current dimensions of program PWSCF are:
     Max number of different atomic species (ntypx) = 10
     Max number of k-points (npk) =  40000
     Max angular momentum in pseudopotentials (lmaxx) =  3
     Presently stress not available with electric field

     IMPORTANT: XC functional enforced from input :
     Exchange-correlation      = BEEF-VDW ( 1  4 27 13 2)
     Any further DFT definition will be discarded
     Please, verify this is what you really want

     Subspace diagonalization in iterative solution of the eigenvalue problem:
     a serial algorithm will be used

     bravais-lattice index     =            0
     lattice parameter (alat)  =       1.8897  a.u.
     unit-cell volume          =    7242.1936 (a.u.)^3
     number of atoms/cell      =           12
     number of atomic types    =            2
     number of electrons       =       177.00
     number of Kohn-Sham states=          118
     kinetic-energy cutoff     =      36.7493  Ry
     charge density cutoff     =     367.4932  Ry
     convergence threshold     =      1.0E-06
     mixing beta               =       0.1000
     number of iterations used =           10  plain     mixing
     Exchange-correlation      = BEEF-VDW ( 1  4 27 13 2)
     nstep                     =           50

     celldm(1)=   1.889726  celldm(2)=   0.000000  celldm(3)=   0.000000
     celldm(4)=   0.000000  celldm(5)=   0.000000  celldm(6)=   0.000000

     crystal axes: (cart. coord. in units of alat)
               a(1) = (   6.947614   0.000000   0.000000 )
               a(2) = (  -3.473807   6.016810   0.000000 )
               a(3) = (   0.000000   0.000000  25.672703 )

     reciprocal axes: (cart. coord. in units 2 pi/alat)
               b(1) = (  0.143934  0.083101  0.000000 )
               b(2) = (  0.000000  0.166201  0.000000 )
               b(3) = (  0.000000  0.000000  0.038952 )

     PseudoPot. # 1 for Tl read from file:
     /afs/slac.stanford.edu/u/if/mamunm/psp/gbrv1.5pbe/Tl.UPF
     MD5 check sum: b76cf1f7e72655a2b2c53cf6385d7059
     Pseudo is Ultrasoft + core correction, Zval = 13.0
     Generated by new atomic code, or converted to UPF format
     Using radial grid of  899 points,  6 beta functions with:
                l(1) =   0
                l(2) =   0
                l(3) =   1
                l(4) =   1
                l(5) =   2
                l(6) =   2
     Q(r) pseudized with  6 coefficients,  rinner =    1.100   1.100   1.100
                                                       1.100   1.100

     PseudoPot. # 2 for Zn read from file:
     /afs/slac.stanford.edu/u/if/mamunm/psp/gbrv1.5pbe/Zn.UPF
     MD5 check sum: df62231357ef9e81f77b2b3087fa5675
     Pseudo is Ultrasoft, Zval = 20.0
     Generated by new atomic code, or converted to UPF format
     Using radial grid of  943 points,  6 beta functions with:
                l(1) =   0
                l(2) =   0
                l(3) =   1
                l(4) =   1
                l(5) =   2
                l(6) =   2
     Q(r) pseudized with  8 coefficients,  rinner =    1.100   1.100   1.100
                                                       1.100   1.100

     vdW kernel table read from file vdW_kernel_table
     MD5 check sum: 095c7af220d748ca6e76c0b4c6cfb241

     atomic species   valence    mass     pseudopotential
        Tl1           13.00   204.38000     Tl( 1.00)
        Zn1           20.00    65.38000     Zn( 1.00)

     No symmetry found

   Cartesian axes

     site n.     atom                  positions (alat units)
         1           Tl1 tau(   1) = (   0.0000000   0.0000000  10.0000000  )
         2           Tl1 tau(   2) = (  -1.7369034   3.0084049  10.0000000  )
         3           Tl1 tau(   3) = (   1.7369034   3.0084049  10.0000000  )
         4           Zn1 tau(   4) = (   3.4738068   0.0000000  10.0000000  )
         5           Tl1 tau(   5) = (   3.4738068   2.0056033  12.8363514  )
         6           Tl1 tau(   6) = (   1.7369034   5.0140082  12.8363514  )
         7           Tl1 tau(   7) = (  -1.7369034   5.0140082  12.8363514  )
         8           Zn1 tau(   8) = (   0.0000000   2.0056033  12.8363514  )
         9           Tl1 tau(   9) = (  -0.0000000   4.0112066  15.6727027  )
        10           Tl1 tau(  10) = (   1.7369034   1.0028016  15.6727027  )
        11           Tl1 tau(  11) = (   5.2107102   1.0028016  15.6727027  )
        12           Zn1 tau(  12) = (   3.4738068   4.0112066  15.6727027  )

     number of k points=    20  Fermi-Dirac smearing, width (Ry)=  0.0110
                       cart. coord. in units 2pi/alat
        k(    1) = (   0.0000000   0.0000000   0.0000000), wk =   0.0555556
        k(    2) = (   0.0000000   0.0277002   0.0000000), wk =   0.1111111
        k(    3) = (   0.0000000   0.0554003   0.0000000), wk =   0.1111111
        k(    4) = (   0.0000000  -0.0831005   0.0000000), wk =   0.0555556
        k(    5) = (   0.0239891   0.0138501   0.0000000), wk =   0.1111111
        k(    6) = (   0.0239891   0.0415503   0.0000000), wk =   0.1111111
        k(    7) = (   0.0239891   0.0692504   0.0000000), wk =   0.1111111
        k(    8) = (   0.0239891  -0.0692504   0.0000000), wk =   0.1111111
        k(    9) = (   0.0239891  -0.0415503   0.0000000), wk =   0.1111111
        k(   10) = (   0.0239891  -0.0138501   0.0000000), wk =   0.1111111
        k(   11) = (   0.0479781   0.0277002   0.0000000), wk =   0.1111111
        k(   12) = (   0.0479781   0.0554003   0.0000000), wk =   0.1111111
        k(   13) = (   0.0479781   0.0831005   0.0000000), wk =   0.1111111
        k(   14) = (   0.0479781  -0.0554003   0.0000000), wk =   0.1111111
        k(   15) = (   0.0479781  -0.0277002   0.0000000), wk =   0.1111111
        k(   16) = (   0.0479781   0.0000000   0.0000000), wk =   0.1111111
        k(   17) = (  -0.0719672  -0.0415503   0.0000000), wk =   0.0555556
        k(   18) = (  -0.0719672  -0.0138501   0.0000000), wk =   0.1111111
        k(   19) = (  -0.0719672   0.0138501   0.0000000), wk =   0.1111111
        k(   20) = (  -0.0719672  -0.1246508   0.0000000), wk =   0.0555556

     Largest allocated arrays     est. size (Mb)     dimensions
     Largest temporary arrays     est. size (Mb)     dimensions

     Check: negative/imaginary core charge=   -0.000001    0.000000

     Initial potential from superposition of free atoms
     Check: negative starting charge=   -0.455969

     starting charge  176.95578, renormalised to  177.00000

     negative rho (up, down):  4.561E-01 0.000E+00

     *
     * You are using vdW-DF for exchange-correlation in this calculation.
     * Please cite the following three references that made this development
     * possible:
     *
     *   M. Dion, H. Rydberg, E. Schroder, D. C. Langreth, and
     *   B. I. Lundqvist, Phys. Rev. Lett. 92, 246401 (2004).
     *
     *   T. Thonhauser, V. R. Cooper, S. Li, A. Puzder, P. Hyldgaard, and
     *   D. C. Langreth, Phys. Rev. B 76, 125112 (2007).
     *
     *   G. Roman-Perez and J. M. Soler, Phys. Rev. Lett. 103, 096102 (2009).
     *
     *
     * If you are using vdW-DF2, please also cite:
     *
     *   K. Lee, E. D. Murray, L. Kong, B. I. Lundqvist, and
     *   D. C. Langreth, Phys. Rev. B 82, 081101(R) (2010).
     *
     *
     * If you are calculating the stress with vdW-DF, please also cite:
     *
     *   R. Sabatini, E. Kucukbenli, B. Kolb, T. Thonhauser, and
     *   S. de Gironcoli, J. Phys.: Condens. Matter 24, 424209 (2012).
     *

     Carrying out vdW-DF run using the following parameters:

     Nqs =      20    Nr_points =    1024   r_max =   100.000
     q_mesh =
               0.00001000     0.04494208     0.09755937     0.15916263
               0.23128650     0.31572767     0.41458969     0.53033537
               0.66584808     0.82450364     1.01025438     1.22772762
               1.48234092     1.78043706     2.12944203     2.53805004
               3.01644009     3.57652955     4.23227104     5.00000000

     Gradients computed in reciprocal space

     Adding external electric field

     Computed dipole along edir(3) :
        Dipole                0.0000 Ry au,          0.0000 Debye
        Dipole field          0.0000 Ry au

        Potential amp.       -0.0000 Ry
        Total length         47.3015 bohr

     Starting wfc are  120 randomized atomic wfcs

     Self-consistent Calculation

     iteration #  1     ecut=    36.75 Ry     beta=0.10
     Davidson diagonalization with overlap
     ethr =  1.00E-02,  avg # of iterations =  8.0

     Threshold (ethr) on eigenvalues was too large:
     Diagonalizing with lowered threshold

     Davidson diagonalization with overlap
     ethr =  6.00E-05,  avg # of iterations =  8.4

[...]

     total energy              =   -2709.44169373 Ry
     Harris-Foulkes estimate   =   -2709.45798904 Ry
     estimated scf accuracy    <       0.11167845 Ry

[...]

     End of self-consistent calculation

          k = 0.0000 0.0000 0.0000 ( 27333 PWs)   bands (ev):

  -125.8633-125.8119-125.8118 -80.0458 -80.0456 -80.0441 -80.0005 -80.0004
   -79.9925 -79.9924 -79.9923 -79.9922 -11.7572 -11.7355 -11.7194 -11.7194
   -11.7061 -11.6617 -11.6617 -11.6592 -11.6037 -11.6017 -11.6016 -11.5770
   -11.5734 -11.5734 -11.5307 -11.5306 -11.5227 -11.5084 -11.4964 -11.4964
   -11.4001 -11.3840 -11.3840 -11.3791 -11.3791 -11.3720 -11.3719 -11.3449
   -11.3449 -11.3329 -11.3328 -11.2997 -11.2995 -11.2753 -11.2753 -11.2567
   -11.2565 -11.1925 -11.1925 -11.1879 -11.1429 -11.1384 -11.1290 -11.1289
   -11.0672  -8.4770  -7.4476  -6.8284  -6.7860  -6.7860  -6.7497  -6.7497
    -6.7136  -6.7135  -6.7036  -6.6993  -6.6992  -6.6927  -6.6926  -6.6879
    -6.6879  -6.6595  -5.7710  -4.8931  -4.8930  -4.5313  -4.5313  -3.7830
    -3.7828  -2.5614  -2.5504  -1.5696  -1.5423  -1.2414  -1.2414  -1.0018
    -0.1890  -0.1890  -0.0245  -0.0002  -0.0001   0.0275   1.3653   3.0804
     3.1996   3.1996   3.3247   3.3247   3.4780   3.6953   3.8601   4.2490
     4.4339   5.0661   5.1552   5.1552   5.4062   5.4063   5.7016   5.9990
     6.1214   6.2694   6.2694   6.2799   6.4525   6.5204

[...]

          k =-0.0720-0.0416 0.0000 ( 27230 PWs)   bands (ev):

[...]

     the Fermi energy is     0.4263 ev

!    total energy              =   -2709.44207593 Ry
     Harris-Foulkes estimate   =   -2709.44190782 Ry
     estimated scf accuracy    <       0.00000049 Ry

     The total energy is the sum of the following terms:

     one-electron contribution =  -11545.65280197 Ry
     hartree contribution      =    5826.83816796 Ry
     xc contribution           =    -705.83266815 Ry
     ewald contribution        =    3715.25052627 Ry
     electric field correction =       0.00000000 Ry
     smearing contrib. (-TS)   =      -0.04530003 Ry

     convergence has been achieved in  12 iterations

 BEEF-vdW xc energy contributions
           1 :   -628.380613096288
           2 :    580.248649096162
           3 :   -496.849704539491
           4 :    398.249595512849
           5 :   -303.811895990315
           6 :    225.871571751388
           7 :   -167.563928323882
[...]
                l(2) =   0
                l(3) =   1
                l(4) =   1
                l(5) =   2
                l(6) =   2
     Q(r) pseudized with  6 coefficients,  rinner =    1.100   1.100   1.100
                                                       1.100   1.100

     PseudoPot. # 2 for Zn read from file:
     /afs/slac.stanford.edu/u/if/mamunm/psp/gbrv1.5pbe/Zn.UPF
     MD5 check sum: df62231357ef9e81f77b2b3087fa5675
     Pseudo is Ultrasoft, Zval = 20.0
     Generated by new atomic code, or converted to UPF format
     Using radial grid of  943 points,  6 beta functions with:
                l(1) =   0
                l(2) =   0
                l(3) =   1
                l(4) =   1
                l(5) =   2
                l(6) =   2
     Q(r) pseudized with  8 coefficients,  rinner =    1.100   1.100   1.100
                                                       1.100   1.100

     vdW kernel table read from file vdW_kernel_table
     MD5 check sum: 095c7af220d748ca6e76c0b4c6cfb241

     atomic species   valence    mass     pseudopotential
        Tl1           13.00   204.38000     Tl( 1.00)
        Zn1           20.00    65.38000     Zn( 1.00)

     No symmetry found

   Cartesian axes

     site n.     atom                  positions (alat units)
         1           Tl1 tau(   1) = (   0.0000000   0.0000000  10.0000000  )
         2           Tl1 tau(   2) = (  -1.7369034   3.0084049  10.0000000  )
         3           Tl1 tau(   3) = (   1.7369034   3.0084049  10.0000000  )
         4           Zn1 tau(   4) = (   3.4738068   0.0000000  10.0000000  )
         5           Tl1 tau(   5) = (   3.4738068   2.0056033  12.8363514  )
         6           Tl1 tau(   6) = (   1.7369034   5.0140082  12.8363514  )
         7           Tl1 tau(   7) = (  -1.7369034   5.0140082  12.8363514  )
         8           Zn1 tau(   8) = (   0.0000000   2.0056033  12.8363514  )
         9           Tl1 tau(   9) = (  -0.0000133   3.9945570  15.7764595  )
        10           Tl1 tau(  10) = (   1.7223482   1.0099995  15.7752638  )
        11           Tl1 tau(  11) = (   5.2252690   1.0100393  15.7753329  )
        12           Zn1 tau(  12) = (   3.4738064   4.0117069  15.5966582  )

     number of k points=    20  Fermi-Dirac smearing, width (Ry)=  0.0110
                       cart. coord. in units 2pi/alat
        k(    1) = (   0.0000000   0.0000000   0.0000000), wk =   0.0555556
        k(    2) = (   0.0000000   0.0277002   0.0000000), wk =   0.1111111
        k(    3) = (   0.0000000   0.0554003   0.0000000), wk =   0.1111111
        k(    4) = (   0.0000000  -0.0831005   0.0000000), wk =   0.0555556
        k(    5) = (   0.0239891   0.0138501   0.0000000), wk =   0.1111111
        k(    6) = (   0.0239891   0.0415503   0.0000000), wk =   0.1111111
        k(    7) = (   0.0239891   0.0692504   0.0000000), wk =   0.1111111
        k(    8) = (   0.0239891  -0.0692504   0.0000000), wk =   0.1111111
        k(    9) = (   0.0239891  -0.0415503   0.0000000), wk =   0.1111111
        k(   10) = (   0.0239891  -0.0138501   0.0000000), wk =   0.1111111
        k(   11) = (   0.0479781   0.0277002   0.0000000), wk =   0.1111111
        k(   12) = (   0.0479781   0.0554003   0.0000000), wk =   0.1111111
        k(   13) = (   0.0479781   0.0831005   0.0000000), wk =   0.1111111
        k(   14) = (   0.0479781  -0.0554003   0.0000000), wk =   0.1111111
        k(   15) = (   0.0479781  -0.0277002   0.0000000), wk =   0.1111111
        k(   16) = (   0.0479781   0.0000000   0.0000000), wk =   0.1111111
        k(   17) = (  -0.0719672  -0.0415503   0.0000000), wk =   0.0555556
        k(   18) = (  -0.0719672  -0.0138501   0.0000000), wk =   0.1111111
        k(   19) = (  -0.0719672   0.0138501   0.0000000), wk =   0.1111111
        k(   20) = (  -0.0719672  -0.1246508   0.0000000), wk =   0.0555556

     Largest allocated arrays     est. size (Mb)     dimensions
     Largest temporary arrays     est. size (Mb)     dimensions

     Check: negative/imaginary core charge=   -0.000001    0.000000

     Initial potential from superposition of free atoms
     Check: negative starting charge=   -0.457862

     starting charge  176.95578, renormalised to  177.00000

[...]

     *
     * You are using vdW-DF for exchange-correlation in this calculation.
     * Please cite the following three references that made this development
     * possible:
     *
     *   M. Dion, H. Rydberg, E. Schroder, D. C. Langreth, and
     *   B. I. Lundqvist, Phys. Rev. Lett. 92, 246401 (2004).
     *
     *   T. Thonhauser, V. R. Cooper, S. Li, A. Puzder, P. Hyldgaard, and
     *   D. C. Langreth, Phys. Rev. B 76, 125112 (2007).
     *
     *   G. Roman-Perez and J. M. Soler, Phys. Rev. Lett. 103, 096102 (2009).
     *
     *
     * If you are using vdW-DF2, please also cite:
     *
     *   K. Lee, E. D. Murray, L. Kong, B. I. Lundqvist, and
     *   D. C. Langreth, Phys. Rev. B 82, 081101(R) (2010).
     *
     *
     * If you are calculating the stress with vdW-DF, please also cite:
     *
     *   R. Sabatini, E. Kucukbenli, B. Kolb, T. Thonhauser, and
     *   S. de Gironcoli, J. Phys.: Condens. Matter 24, 424209 (2012).
     *

     Carrying out vdW-DF run using the following parameters:

     Nqs =      20    Nr_points =    1024   r_max =   100.000
     q_mesh =
               0.00001000     0.04494208     0.09755937     0.15916263
               0.23128650     0.31572767     0.41458969     0.53033537
               0.66584808     0.82450364     1.01025438     1.22772762
               1.48234092     1.78043706     2.12944203     2.53805004
               3.01644009     3.57652955     4.23227104     5.00000000

     Gradients computed in reciprocal space

[...]

     Starting wfc are  120 randomized atomic wfcs

     Self-consistent Calculation

[...]

     Threshold (ethr) on eigenvalues was too large:
     Diagonalizing with lowered threshold

     Davidson diagonalization with overlap
     ethr =  6.02E-05,  avg # of iterations =  8.2

[...]

     total energy              =   -2709.44875343 Ry
     Harris-Foulkes estimate   =   -2709.44868368 Ry
     estimated scf accuracy    <       0.00000135 Ry

     iteration # 12     ecut=    36.75 Ry     beta=0.10
     Davidson diagonalization with overlap
     ethr =  7.61E-10,  avg # of iterations =  2.6

[...]

     negative rho (up, down):  4.744E-01 0.000E+00

     Adding external electric field

     Computed dipole along edir(3) :
        Dipole                0.0156 Ry au,          0.0396 Debye
        Dipole field          0.0000 Ry au

        Potential amp.       -0.0026 Ry
        Total length         47.3015 bohr

     End of self-consistent calculation

[...]

          k = 0.0480 0.0000 0.0000 ( 27257 PWs)   bands (ev):

[...]

          k =-0.0720-0.1247 0.0000 ( 27230 PWs)   bands (ev):

  -125.8236-125.8044-125.7833 -80.0067 -80.0065 -80.0039 -79.9926 -79.9850
   -79.9848 -79.9723 -79.9637 -79.9635 -11.6800 -11.6610 -11.6054 -11.5933
   -11.5778 -11.5447 -11.5410 -11.5276 -11.5231 -11.5173 -11.5137 -11.5001
   -11.4795 -11.4675 -11.4612 -11.4444 -11.4432 -11.4417 -11.4365 -11.4297
   -11.4260 -11.4226 -11.4205 -11.4176 -11.4141 -11.3863 -11.3658 -11.3526
   -11.3376 -11.3365 -11.3290 -11.3258 -11.3139 -11.3133 -11.2858 -11.2829
   -11.2764 -11.2754 -11.2672 -11.2613 -11.2404 -11.2220 -11.1774 -11.1689
   -11.0884  -7.4815  -7.2779  -6.8043  -6.7341  -6.7223  -6.7180  -6.7072
    -6.7022  -6.6978  -6.6910  -6.6868  -6.6817  -6.6768  -6.6739  -6.6679
    -6.6647  -6.6522  -6.4112  -6.0496  -5.4096  -5.2484  -5.0028  -4.6104
    -3.6671  -3.2076  -2.6534  -1.8300   0.1276   0.1539   0.4432   0.6544
     0.6684   0.7458   1.3912   1.5688   1.6378   1.9511   2.0984   2.2802
     2.8100   2.9265   2.9433   3.3465   3.3836   3.4621   3.6431   3.8415
     4.0088   4.1479   4.2046   4.3193   4.3478   4.4904   4.5198   4.5900
     5.0784   5.1035   5.3231   5.4034   5.4743   5.5527

     the Fermi energy is     0.4475 ev

!    total energy              =   -2709.44891589 Ry
     Harris-Foulkes estimate   =   -2709.44875376 Ry
     estimated scf accuracy    <       0.00000033 Ry

     The total energy is the sum of the following terms:

     one-electron contribution =  -11482.08821896 Ry
     hartree contribution      =    5795.16985108 Ry
     xc contribution           =    -705.80865194 Ry
     ewald contribution        =    3683.32360257 Ry
     electric field correction =       0.00000042 Ry
     smearing contrib. (-TS)   =      -0.04549906 Ry

     convergence has been achieved in  12 iterations

 BEEF-vdW xc energy contributions
           1 :   -628.504435684592
           2 :    580.346961667877
           3 :   -496.922430283778
           4 :    398.326092116301
           5 :   -303.929835520306
           6 :    226.047550489246
           7 :   -167.779022650351
           8 :    125.148222131002
           9 :   -91.6576670899684
          10 :    62.5102466138527
          11 :   -36.4903027690391
          12 :    15.1263215542449
          13 :  -0.372886077033627
          14 :   -7.40071058849844
          15 :    9.91135553892400
          16 :   -9.98229907133293
          17 :    10.0222674266149
          18 :   -11.0403688749734
          19 :    12.6714717435379
          20 :   -13.9581069075783
          21 :    14.2244221711628
          22 :   -13.4996734475203
          23 :    12.3573030311168
          24 :   -11.4408702496004
          25 :    11.0609737122641
          26 :   -11.0980106503649
          27 :    11.1750692303245
          28 :   -10.9142929518530
          29 :    10.1080370969396
          30 :   -8.76872679071266
          31 :   -50.0170935446952
          32 :   -35.9570784577423

     Forces acting on atoms (Ry/au):

     negative rho (up, down):  4.744E-01 0.000E+00
     atom    1 type  1   force =     0.00000100    0.00394637   -0.00374384
     atom    2 type  1   force =     0.00339845   -0.00195758   -0.00354340
     atom    3 type  1   force =    -0.00339997   -0.00195940   -0.00354772
     atom    4 type  2   force =    -0.00000067    0.00002189    0.00157357
     atom    5 type  1   force =     0.00000068   -0.00228014    0.00299959
     atom    6 type  1   force =    -0.00199134    0.00113794    0.00298500
     atom    7 type  1   force =     0.00199152    0.00113522    0.00298119
     atom    8 type  2   force =    -0.00000298    0.00003650    0.00130865
     atom    9 type  1   force =     0.00000288   -0.00035213   -0.00006886
     atom   10 type  1   force =    -0.00025109    0.00013722   -0.00009126
     atom   11 type  1   force =     0.00025219    0.00013120   -0.00008928
     atom   12 type  2   force =    -0.00000067    0.00000291   -0.00076363

     Total force =     0.011537     Total SCF correction =     0.001286
     SCF correction compared to forces is large: reduce conv_thr to get better values

     entering subroutine stress ...

     negative rho (up, down):  4.744E-01 0.000E+00
          total   stress  (Ry/bohr**3)                   (kbar)     P=   -6.86
  -0.00005468   0.00000000   0.00000000         -8.04      0.00      0.00
   0.00000000  -0.00005466   0.00000001          0.00     -8.04      0.00
   0.00000000   0.00000001  -0.00003059          0.00      0.00     -4.50

 !ASE

     Writing output data file calc.save

     General routines

     Parallel routines

   This run was terminated on:   4:53: 3  28Dec2018

   JOB DONE.
Job  /afs/slac/g/suncat/bin/suncat-tsmpirun -x LD_LIBRARY_PATH -wdir /scratch/qe111229_cVDIa pw.x -in pw.inp

TID   HOST_NAME   COMMAND_LINE            STATUS            TERMINATION_TIME
00000 suncat0042 pw.x -in pw.inp   Done                     12/28/2018 04:53:03
00001 suncat0042 pw.x -in pw.inp   Done                     12/28/2018 04:53:03
00002 suncat0042 pw.x -in pw.inp   Done                     12/28/2018 04:53:03
00003 suncat0042 pw.x -in pw.inp   Done                     12/28/2018 04:53:03
00004 suncat0042 pw.x -in pw.inp   Done                     12/28/2018 04:53:03
00005 suncat0042 pw.x -in pw.inp   Done                     12/28/2018 04:53:03
00006 suncat0042 pw.x -in pw.inp   Done                     12/28/2018 04:53:03
00007 suncat0042 pw.x -in pw.inp   Done                     12/28/2018 04:53:03
00008 suncat0034 pw.x -in pw.inp   Done                     12/28/2018 04:53:03
00009 suncat0034 pw.x -in pw.inp   Done                     12/28/2018 04:53:03
00010 suncat0034 pw.x -in pw.inp   Done                     12/28/2018 04:53:03
00011 suncat0034 pw.x -in pw.inp   Done                     12/28/2018 04:53:03
00012 suncat0034 pw.x -in pw.inp   Done                     12/28/2018 04:53:03
00013 suncat0034 pw.x -in pw.inp   Done                     12/28/2018 04:53:03
00014 suncat0034 pw.x -in pw.inp   Done                     12/28/2018 04:53:03
00015 suncat0034 pw.x -in pw.inp   Done                     12/28/2018 04:53:03
00016 suncat0152 pw.x -in pw.inp   Done                     12/28/2018 04:53:03
00017 suncat0152 pw.x -in pw.inp   Done                     12/28/2018 04:53:03
00018 suncat0152 pw.x -in pw.inp   Done                     12/28/2018 04:53:03
00019 suncat0152 pw.x -in pw.inp   Done                     12/28/2018 04:53:03
00020 suncat0152 pw.x -in pw.inp   Done                     12/28/2018 04:53:03
00021 suncat0152 pw.x -in pw.inp   Done                     12/28/2018 04:53:03
00022 suncat0152 pw.x -in pw.inp   Done                     12/28/2018 04:53:03
00023 suncat0152 pw.x -in pw.inp   Done                     12/28/2018 04:53:03
00024 suncat0150 pw.x -in pw.inp   Done                     12/28/2018 04:53:03
00025 suncat0150 pw.x -in pw.inp   Done                     12/28/2018 04:53:03
00026 suncat0150 pw.x -in pw.inp   Done                     12/28/2018 04:53:03
00027 suncat0150 pw.x -in pw.inp   Done                     12/28/2018 04:53:03
00028 suncat0150 pw.x -in pw.inp   Done                     12/28/2018 04:53:03
00029 suncat0150 pw.x -in pw.inp   Done                     12/28/2018 04:53:03
00030 suncat0150 pw.x -in pw.inp   Done                     12/28/2018 04:53:03
00031 suncat0150 pw.x -in pw.inp   Done                     12/28/2018 04:53:03
00032 suncat0147 pw.x -in pw.inp   Done                     12/28/2018 04:53:03
00033 suncat0147 pw.x -in pw.inp   Done                     12/28/2018 04:53:03
00034 suncat0147 pw.x -in pw.inp   Done                     12/28/2018 04:53:03
00035 suncat0147 pw.x -in pw.inp   Done                     12/28/2018 04:53:03
00036 suncat0147 pw.x -in pw.inp   Done                     12/28/2018 04:53:03
00037 suncat0147 pw.x -in pw.inp   Done                     12/28/2018 04:53:03
00038 suncat0147 pw.x -in pw.inp   Done                     12/28/2018 04:53:03
00039 suncat0147 pw.x -in pw.inp   Done                     12/28/2018 04:53:03
00040 suncat0138 pw.x -in pw.inp   Done                     12/28/2018 04:53:03
00041 suncat0138 pw.x -in pw.inp   Done                     12/28/2018 04:53:03
00042 suncat0138 pw.x -in pw.inp   Done                     12/28/2018 04:53:03
00043 suncat0138 pw.x -in pw.inp   Done                     12/28/2018 04:53:03
00044 suncat0138 pw.x -in pw.inp   Done                     12/28/2018 04:53:03
00045 suncat0138 pw.x -in pw.inp   Done                     12/28/2018 04:53:03
00046 suncat0138 pw.x -in pw.inp   Done                     12/28/2018 04:53:03
00047 suncat0138 pw.x -in pw.inp   Done                     12/28/2018 04:53:03
00048 suncat0113 pw.x -in pw.inp   Done                     12/28/2018 04:53:03
00049 suncat0113 pw.x -in pw.inp   Done                     12/28/2018 04:53:03
00050 suncat0113 pw.x -in pw.inp   Done                     12/28/2018 04:53:03
00051 suncat0113 pw.x -in pw.inp   Done                     12/28/2018 04:53:03
00052 suncat0113 pw.x -in pw.inp   Done                     12/28/2018 04:53:03
00053 suncat0113 pw.x -in pw.inp   Done                     12/28/2018 04:53:03
00054 suncat0113 pw.x -in pw.inp   Done                     12/28/2018 04:53:03
00055 suncat0113 pw.x -in pw.inp   Done                     12/28/2018 04:53:03
00056 suncat0110 pw.x -in pw.inp   Done                     12/28/2018 04:53:03
00057 suncat0110 pw.x -in pw.inp   Done                     12/28/2018 04:53:03
00058 suncat0110 pw.x -in pw.inp   Done                     12/28/2018 04:53:03
00059 suncat0110 pw.x -in pw.inp   Done                     12/28/2018 04:53:03
00060 suncat0110 pw.x -in pw.inp   Done                     12/28/2018 04:53:03
00061 suncat0110 pw.x -in pw.inp   Done                     12/28/2018 04:53:03
00062 suncat0110 pw.x -in pw.inp   Done                     12/28/2018 04:53:03
00063 suncat0110 pw.x -in pw.inp   Done                     12/28/2018 04:53:03