     Program PWSCF v.5.1rc2 (svn rev. 11289) starts on 26Dec2018 at 16:21:42

     Current dimensions of program PWSCF are:
     Max number of different atomic species (ntypx) = 10
     Max number of k-points (npk) =  40000
     Max angular momentum in pseudopotentials (lmaxx) =  3
     Presently stress not available with electric field

     IMPORTANT: XC functional enforced from input :
     Exchange-correlation      = BEEF-VDW ( 1  4 27 13 2)
     Any further DFT definition will be discarded
     Please, verify this is what you really want

     Subspace diagonalization in iterative solution of the eigenvalue problem:
     a serial algorithm will be used

     bravais-lattice index     =            0
     lattice parameter (alat)  =       1.8897  a.u.
     unit-cell volume          =    4599.6585 (a.u.)^3
     number of atoms/cell      =           12
     number of atomic types    =            2
     number of electrons       =       177.00
     number of Kohn-Sham states=          118
     kinetic-energy cutoff     =      36.7493  Ry
     charge density cutoff     =     367.4932  Ry
     convergence threshold     =      1.0E-06
     mixing beta               =       0.1000
     number of iterations used =           10  plain     mixing
     Exchange-correlation      = BEEF-VDW ( 1  4 27 13 2)
     nstep                     =           50

     celldm(1)=   1.889726  celldm(2)=   0.000000  celldm(3)=   0.000000
     celldm(4)=   0.000000  celldm(5)=   0.000000  celldm(6)=   0.000000

     crystal axes: (cart. coord. in units of alat)
               a(1) = (   5.654363   0.000000   0.000000 )
               a(2) = (  -2.827181   4.896822   0.000000 )
               a(3) = (   0.000000   0.000000  24.616768 )

     reciprocal axes: (cart. coord. in units 2 pi/alat)
               b(1) = (  0.176855  0.102107  0.000000 )
               b(2) = (  0.000000  0.204214  0.000000 )
               b(3) = (  0.000000  0.000000  0.040623 )

     PseudoPot. # 1 for Ir read from file:
     /afs/slac.stanford.edu/u/if/mamunm/psp/gbrv1.5pbe/Ir.UPF
     MD5 check sum: 8836f839c3459d2b385c504ce6d91f2c
     Pseudo is Ultrasoft + core correction, Zval = 15.0
     Generated by new atomic code, or converted to UPF format
     Using radial grid of  983 points,  7 beta functions with:
                l(1) =   0
                l(2) =   0
                l(3) =   1
                l(4) =   1
                l(5) =   1
                l(6) =   2
                l(7) =   2
     Q(r) pseudized with  8 coefficients,  rinner =    1.400   1.400   1.400
                                                       1.400   1.400

     PseudoPot. # 2 for Sn read from file:
     /afs/slac.stanford.edu/u/if/mamunm/psp/gbrv1.5pbe/Sn.UPF
     MD5 check sum: 469debedee59599fedebd795477fea03
     Pseudo is Ultrasoft + core correction, Zval = 14.0
     Generated by new atomic code, or converted to UPF format
     Using radial grid of  891 points,  6 beta functions with:
                l(1) =   0
                l(2) =   0
                l(3) =   1
                l(4) =   1
                l(5) =   2
                l(6) =   2
     Q(r) pseudized with  8 coefficients,  rinner =    1.350   1.350   1.350
                                                       1.350   1.350

     vdW kernel table read from file vdW_kernel_table
     MD5 check sum: 095c7af220d748ca6e76c0b4c6cfb241

     atomic species   valence    mass     pseudopotential
        Ir1           15.00   192.21700     Ir( 1.00)
        Sn1           14.00   118.71000     Sn( 1.00)

     No symmetry found

   Cartesian axes

     site n.     atom                  positions (alat units)
         1           Ir1 tau(   1) = (   0.0000000   0.0000000  10.0000000  )
         2           Ir1 tau(   2) = (  -1.4135907   2.4484109  10.0000000  )
         3           Ir1 tau(   3) = (   1.4135907   2.4484109  10.0000000  )
         4           Sn1 tau(   4) = (   2.8271814   0.0000000  10.0000000  )
         5           Ir1 tau(   5) = (   2.8271814   1.6322739  12.3083839  )
         6           Ir1 tau(   6) = (   1.4135907   4.0806848  12.3083839  )
         7           Ir1 tau(   7) = (  -1.4135907   4.0806848  12.3083839  )
         8           Sn1 tau(   8) = (   0.0000000   1.6322739  12.3083839  )
         9           Ir1 tau(   9) = (  -0.0000000   3.2645478  14.6167678  )
        10           Ir1 tau(  10) = (   1.4135907   0.8161370  14.6167678  )
        11           Ir1 tau(  11) = (   4.2407720   0.8161370  14.6167678  )
        12           Sn1 tau(  12) = (   2.8271814   3.2645478  14.6167678  )

     number of k points=    20  Fermi-Dirac smearing, width (Ry)=  0.0110
                       cart. coord. in units 2pi/alat
        k(    1) = (   0.0000000   0.0000000   0.0000000), wk =   0.0555556
        k(    2) = (   0.0000000   0.0340357   0.0000000), wk =   0.1111111
        k(    3) = (   0.0000000   0.0680714   0.0000000), wk =   0.1111111
        k(    4) = (   0.0000000  -0.1021070   0.0000000), wk =   0.0555556
        k(    5) = (   0.0294758   0.0170178   0.0000000), wk =   0.1111111
        k(    6) = (   0.0294758   0.0510535   0.0000000), wk =   0.1111111
        k(    7) = (   0.0294758   0.0850892   0.0000000), wk =   0.1111111
        k(    8) = (   0.0294758  -0.0850892   0.0000000), wk =   0.1111111
        k(    9) = (   0.0294758  -0.0510535   0.0000000), wk =   0.1111111
        k(   10) = (   0.0294758  -0.0170178   0.0000000), wk =   0.1111111
        k(   11) = (   0.0589515   0.0340357   0.0000000), wk =   0.1111111
        k(   12) = (   0.0589515   0.0680714   0.0000000), wk =   0.1111111
        k(   13) = (   0.0589515   0.1021070   0.0000000), wk =   0.1111111
        k(   14) = (   0.0589515  -0.0680714   0.0000000), wk =   0.1111111
        k(   15) = (   0.0589515  -0.0340357   0.0000000), wk =   0.1111111
        k(   16) = (   0.0589515   0.0000000   0.0000000), wk =   0.1111111
        k(   17) = (  -0.0884273  -0.0510535   0.0000000), wk =   0.0555556
        k(   18) = (  -0.0884273  -0.0170178   0.0000000), wk =   0.1111111
        k(   19) = (  -0.0884273   0.0170178   0.0000000), wk =   0.1111111
        k(   20) = (  -0.0884273  -0.1531606   0.0000000), wk =   0.0555556

     Largest allocated arrays     est. size (Mb)     dimensions
     Largest temporary arrays     est. size (Mb)     dimensions

     Initial potential from superposition of free atoms
     Check: negative starting charge=   -3.304473

     starting charge  169.49958, renormalised to  177.00000

     negative rho (up, down):  3.451E+00 0.000E+00

     *
     * You are using vdW-DF for exchange-correlation in this calculation.
     * Please cite the following three references that made this development
     * possible:
     *
     *   M. Dion, H. Rydberg, E. Schroder, D. C. Langreth, and
     *   B. I. Lundqvist, Phys. Rev. Lett. 92, 246401 (2004).
     *
     *   T. Thonhauser, V. R. Cooper, S. Li, A. Puzder, P. Hyldgaard, and
     *   D. C. Langreth, Phys. Rev. B 76, 125112 (2007).
     *
     *   G. Roman-Perez and J. M. Soler, Phys. Rev. Lett. 103, 096102 (2009).
     *
     *
     * If you are using vdW-DF2, please also cite:
     *
     *   K. Lee, E. D. Murray, L. Kong, B. I. Lundqvist, and
     *   D. C. Langreth, Phys. Rev. B 82, 081101(R) (2010).
     *
     *
     * If you are calculating the stress with vdW-DF, please also cite:
     *
     *   R. Sabatini, E. Kucukbenli, B. Kolb, T. Thonhauser, and
     *   S. de Gironcoli, J. Phys.: Condens. Matter 24, 424209 (2012).
     *

     Carrying out vdW-DF run using the following parameters:

     Nqs =      20    Nr_points =    1024   r_max =   100.000
     q_mesh =
               0.00001000     0.04494208     0.09755937     0.15916263
               0.23128650     0.31572767     0.41458969     0.53033537
               0.66584808     0.82450364     1.01025438     1.22772762
               1.48234092     1.78043706     2.12944203     2.53805004
               3.01644009     3.57652955     4.23227104     5.00000000

     Gradients computed in reciprocal space

     Adding external electric field

     Computed dipole along edir(3) :
        Dipole                0.0000 Ry au,          0.0000 Debye
        Dipole field          0.0000 Ry au

        Potential amp.       -0.0000 Ry
        Total length         45.3560 bohr

     Starting wfc are  135 randomized atomic wfcs

     Self-consistent Calculation

     iteration #  1     ecut=    36.75 Ry     beta=0.10
     Davidson diagonalization with overlap
     ethr =  1.00E-02,  avg # of iterations =  7.3

[...]

     total energy              =   -2131.70563123 Ry
     Harris-Foulkes estimate   =   -2135.70374563 Ry
     estimated scf accuracy    <      24.61754374 Ry

[...]

     End of self-consistent calculation

          k = 0.0000 0.0000 0.0000 ( 17351 PWs)   bands (ev):

   -47.1610 -47.0943 -47.0943 -47.0649 -47.0362 -47.0362 -46.9209 -46.8108
   -46.8002 -46.7908 -46.7908 -46.6393 -46.6393 -46.6234 -46.6234 -46.5509
   -46.5205 -46.5151 -46.5151 -46.4984 -46.4984 -46.4488 -46.4451 -46.4439
   -46.4439 -46.4421 -46.4421 -19.9714 -19.9714 -19.9364 -19.9245 -19.9245
   -19.5058 -19.4984 -19.4646 -19.4646 -19.4558 -19.4558 -19.4169 -19.4169
   -19.4161 -19.4161  -8.6068  -6.8485  -6.5626  -3.9852  -3.6272  -3.5973
    -3.0262  -3.0262  -2.5269  -2.5269  -2.4912  -2.3696  -2.3696  -2.2039
    -2.2039  -1.9835  -1.4157  -1.4157  -0.9139  -0.8221  -0.8221  -0.7975
    -0.3157  -0.2396  -0.2396   0.0163   0.0163   0.0970   0.7153   0.7153
     0.7794   0.9575   0.9575   1.0069   1.1643   1.1643   1.3018   1.3018
     1.3097   1.7193   1.7193   1.7421   1.7421   2.0159   2.0159   2.4015
     2.6678   2.6816   2.6816   2.8840   3.1110   3.2110   3.4275   3.4275
     3.6207   3.6767   3.8484   3.8484   4.3182   4.7218   5.8411   6.4271
     6.4691   6.9213   7.3949   7.3949   7.5767   7.5767   7.7446   8.1352
     8.1352   8.4304   9.0029   9.1711  10.0843  10.3046

[...]

          k =-0.0884-0.0511 0.0000 ( 17320 PWs)   bands (ev):

[...]

     the Fermi energy is     2.1273 ev

!    total energy              =   -2131.89033081 Ry
     Harris-Foulkes estimate   =   -2131.89032200 Ry
     estimated scf accuracy    <       0.00000061 Ry

     The total energy is the sum of the following terms:

     one-electron contribution =  -16617.17970739 Ry
     hartree contribution      =    8350.45902440 Ry
     xc contribution           =    -601.80597887 Ry
     ewald contribution        =    6736.71121433 Ry
     electric field correction =       0.00000000 Ry
     smearing contrib. (-TS)   =      -0.07488329 Ry

     convergence has been achieved in  18 iterations

 BEEF-vdW xc energy contributions
           1 :   -531.926517784954
           2 :    493.240993522662
           3 :   -424.941807704167
           4 :    341.805955173958
           5 :   -259.398926555213
           6 :    189.600674348949
           7 :   -138.056361661708
           8 :    104.129540989610
           9 :   -82.9488213199502
          10 :    68.3773051457661
          11 :   -55.5816400562014
          12 :    42.3085805453056
          13 :   -28.7356803346024
[...]
     /afs/slac.stanford.edu/u/if/mamunm/psp/gbrv1.5pbe/Ir.UPF
     MD5 check sum: 8836f839c3459d2b385c504ce6d91f2c
     Pseudo is Ultrasoft + core correction, Zval = 15.0
     Generated by new atomic code, or converted to UPF format
     Using radial grid of  983 points,  7 beta functions with:
                l(1) =   0
                l(2) =   0
                l(3) =   1
                l(4) =   1
                l(5) =   1
                l(6) =   2
                l(7) =   2
     Q(r) pseudized with  8 coefficients,  rinner =    1.400   1.400   1.400
                                                       1.400   1.400

     PseudoPot. # 2 for Sn read from file:
     /afs/slac.stanford.edu/u/if/mamunm/psp/gbrv1.5pbe/Sn.UPF
     MD5 check sum: 469debedee59599fedebd795477fea03
     Pseudo is Ultrasoft + core correction, Zval = 14.0
     Generated by new atomic code, or converted to UPF format
     Using radial grid of  891 points,  6 beta functions with:
                l(1) =   0
                l(2) =   0
                l(3) =   1
                l(4) =   1
                l(5) =   2
                l(6) =   2
     Q(r) pseudized with  8 coefficients,  rinner =    1.350   1.350   1.350
                                                       1.350   1.350

     vdW kernel table read from file vdW_kernel_table
     MD5 check sum: 095c7af220d748ca6e76c0b4c6cfb241

     atomic species   valence    mass     pseudopotential
        Ir1           15.00   192.21700     Ir( 1.00)
        Sn1           14.00   118.71000     Sn( 1.00)

     No symmetry found

   Cartesian axes

     site n.     atom                  positions (alat units)
         1           Ir1 tau(   1) = (   0.0000000   0.0000000  10.0000000  )
         2           Ir1 tau(   2) = (  -1.4135907   2.4484109  10.0000000  )
         3           Ir1 tau(   3) = (   1.4135907   2.4484109  10.0000000  )
         4           Sn1 tau(   4) = (   2.8271814   0.0000000  10.0000000  )
         5           Ir1 tau(   5) = (   2.8271814   1.6322739  12.3083839  )
         6           Ir1 tau(   6) = (   1.4135907   4.0806848  12.3083839  )
         7           Ir1 tau(   7) = (  -1.4135907   4.0806848  12.3083839  )
         8           Sn1 tau(   8) = (   0.0000000   1.6322739  12.3083839  )
         9           Ir1 tau(   9) = (  -0.0000027   3.2830597  14.4867678  )
        10           Ir1 tau(  10) = (   1.4296255   0.8068738  14.4867658  )
        11           Ir1 tau(  11) = (   4.2247378   0.8068778  14.4867644  )
        12           Sn1 tau(  12) = (   2.8271754   3.2645400  14.7991603  )

     number of k points=    20  Fermi-Dirac smearing, width (Ry)=  0.0110
                       cart. coord. in units 2pi/alat
        k(    1) = (   0.0000000   0.0000000   0.0000000), wk =   0.0555556
        k(    2) = (   0.0000000   0.0340357   0.0000000), wk =   0.1111111
        k(    3) = (   0.0000000   0.0680714   0.0000000), wk =   0.1111111
        k(    4) = (   0.0000000  -0.1021070   0.0000000), wk =   0.0555556
        k(    5) = (   0.0294758   0.0170178   0.0000000), wk =   0.1111111
        k(    6) = (   0.0294758   0.0510535   0.0000000), wk =   0.1111111
        k(    7) = (   0.0294758   0.0850892   0.0000000), wk =   0.1111111
        k(    8) = (   0.0294758  -0.0850892   0.0000000), wk =   0.1111111
        k(    9) = (   0.0294758  -0.0510535   0.0000000), wk =   0.1111111
        k(   10) = (   0.0294758  -0.0170178   0.0000000), wk =   0.1111111
        k(   11) = (   0.0589515   0.0340357   0.0000000), wk =   0.1111111
        k(   12) = (   0.0589515   0.0680714   0.0000000), wk =   0.1111111
        k(   13) = (   0.0589515   0.1021070   0.0000000), wk =   0.1111111
        k(   14) = (   0.0589515  -0.0680714   0.0000000), wk =   0.1111111
        k(   15) = (   0.0589515  -0.0340357   0.0000000), wk =   0.1111111
        k(   16) = (   0.0589515   0.0000000   0.0000000), wk =   0.1111111
        k(   17) = (  -0.0884273  -0.0510535   0.0000000), wk =   0.0555556
        k(   18) = (  -0.0884273  -0.0170178   0.0000000), wk =   0.1111111
        k(   19) = (  -0.0884273   0.0170178   0.0000000), wk =   0.1111111
        k(   20) = (  -0.0884273  -0.1531606   0.0000000), wk =   0.0555556

     Largest allocated arrays     est. size (Mb)     dimensions
     Largest temporary arrays     est. size (Mb)     dimensions

     Initial potential from superposition of free atoms
     Check: negative starting charge=   -3.291629

     starting charge  169.49958, renormalised to  177.00000

[...]

     *
     * You are using vdW-DF for exchange-correlation in this calculation.
     * Please cite the following three references that made this development
     * possible:
     *
     *   M. Dion, H. Rydberg, E. Schroder, D. C. Langreth, and
     *   B. I. Lundqvist, Phys. Rev. Lett. 92, 246401 (2004).
     *
     *   T. Thonhauser, V. R. Cooper, S. Li, A. Puzder, P. Hyldgaard, and
     *   D. C. Langreth, Phys. Rev. B 76, 125112 (2007).
     *
     *   G. Roman-Perez and J. M. Soler, Phys. Rev. Lett. 103, 096102 (2009).
     *
     *
     * If you are using vdW-DF2, please also cite:
     *
     *   K. Lee, E. D. Murray, L. Kong, B. I. Lundqvist, and
     *   D. C. Langreth, Phys. Rev. B 82, 081101(R) (2010).
     *
     *
     * If you are calculating the stress with vdW-DF, please also cite:
     *
     *   R. Sabatini, E. Kucukbenli, B. Kolb, T. Thonhauser, and
     *   S. de Gironcoli, J. Phys.: Condens. Matter 24, 424209 (2012).
     *

     Carrying out vdW-DF run using the following parameters:

     Nqs =      20    Nr_points =    1024   r_max =   100.000
     q_mesh =
               0.00001000     0.04494208     0.09755937     0.15916263
               0.23128650     0.31572767     0.41458969     0.53033537
               0.66584808     0.82450364     1.01025438     1.22772762
               1.48234092     1.78043706     2.12944203     2.53805004
               3.01644009     3.57652955     4.23227104     5.00000000

     Gradients computed in reciprocal space

[...]

     Starting wfc are  135 randomized atomic wfcs

     Self-consistent Calculation

[...]

     total energy              =   -2131.92207514 Ry
     Harris-Foulkes estimate   =   -2131.92206138 Ry
     estimated scf accuracy    <       0.00000140 Ry

     iteration # 17     ecut=    36.75 Ry     beta=0.10
     Davidson diagonalization with overlap
     ethr =  7.88E-10,  avg # of iterations =  4.3

[...]

     negative rho (up, down):  2.976E+00 0.000E+00

     Adding external electric field

     Computed dipole along edir(3) :
        Dipole                0.0596 Ry au,          0.1516 Debye
        Dipole field          0.0002 Ry au

        Potential amp.       -0.0148 Ry
        Total length         45.3560 bohr

     End of self-consistent calculation

[...]

          k = 0.0590 0.0000 0.0000 ( 17304 PWs)   bands (ev):

[...]

          k =-0.0884-0.1532 0.0000 ( 17320 PWs)   bands (ev):

   -47.0886 -47.0411 -47.0135 -47.0105 -46.9646 -46.9285 -46.9081 -46.8421
   -46.7308 -46.7208 -46.6180 -46.6066 -46.5546 -46.5511 -46.5401 -46.5352
   -46.5296 -46.5218 -46.4998 -46.4476 -46.4427 -46.4401 -46.4169 -46.4115
   -46.3991 -46.3907 -46.3343 -19.8684 -19.8580 -19.8252 -19.8242 -19.8222
   -19.5015 -19.4593 -19.4590 -19.3953 -19.3874 -19.3793 -19.3594 -19.3587
   -19.3082 -19.2987  -7.2831  -6.5525  -5.7848  -4.5859  -3.8464  -3.7620
    -3.5139  -2.9193  -2.3687  -2.2210  -2.1977  -2.1497  -2.1319  -2.0242
    -1.8926  -1.6434  -1.4578  -1.4106  -1.2883  -1.1681  -1.0242  -0.8674
    -0.6543  -0.4660  -0.4514  -0.3247  -0.2312  -0.1083   0.0142   0.0639
     0.1489   0.1971   0.3202   0.7155   0.7339   0.9308   0.9434   1.0042
     1.0338   1.1868   1.3090   1.3541   1.3970   1.5723   1.6060   1.7820
     2.1111   2.3298   2.5614   2.6534   2.7804   3.3566   3.6840   4.1372
     4.4615   4.5950   4.8284   5.3156   5.5896   6.8691   7.0949   7.3018
     7.5590   7.9048   7.9368   8.0572   8.1696   8.3037   8.3773   8.5257
     8.7076   8.7436   9.2306   9.2657   9.5889   9.6531

     the Fermi energy is     2.2271 ev

!    total energy              =   -2131.92208508 Ry
     Harris-Foulkes estimate   =   -2131.92207496 Ry
     estimated scf accuracy    <       0.00000043 Ry

     The total energy is the sum of the following terms:

     one-electron contribution =  -16745.62235912 Ry
     hartree contribution      =    8415.00645399 Ry
     xc contribution           =    -601.91907906 Ry
     ewald contribution        =    6800.68364121 Ry
     electric field correction =       0.00000972 Ry
     smearing contrib. (-TS)   =      -0.07075182 Ry

     convergence has been achieved in  17 iterations

 BEEF-vdW xc energy contributions
           1 :   -532.332007260245
           2 :    493.699543091048
           3 :   -425.468030840098
           4 :    342.362345963757
           5 :   -259.912387832959
           6 :    189.997923042522
           7 :   -138.300398359863
           8 :    104.240248644491
           9 :   -82.9982613193644
          10 :    68.4610780791602
          11 :   -55.7785250524322
          12 :    42.6466484978351
          13 :   -29.1802206255701
          14 :    16.8636291608320
          15 :   -7.31685970460126
          16 :    1.44122773453819
          17 :   0.847972341566106
          18 :  -0.423635771358363
          19 :   -1.45544640080846
          20 :    3.52933332341252
          21 :   -4.82033800210797
          22 :    4.81929878412006
          23 :   -3.58228404909880
          24 :    1.69520975812259
          25 :  -5.929306448115312E-002
          26 :  -0.480971837631728
          27 :  -0.467939723620930
          28 :    2.62647380269141
          29 :   -5.13683464852875
          30 :    6.95973934509425
          31 :   -45.7344859925544
          32 :   -34.1093358392153

     Forces acting on atoms (Ry/au):

     negative rho (up, down):  2.976E+00 0.000E+00
     atom    1 type  1   force =     0.00000152   -0.00926738    0.03766747
     atom    2 type  1   force =    -0.00802421    0.00463445    0.03766690
     atom    3 type  1   force =     0.00802754    0.00463422    0.03766511
     atom    4 type  2   force =     0.00000290    0.00000148   -0.03613461
     atom    5 type  1   force =     0.00000400    0.01740918   -0.01469375
     atom    6 type  1   force =     0.01507812   -0.00870283   -0.01469370
     atom    7 type  1   force =    -0.01507462   -0.00870500   -0.01469628
     atom    8 type  2   force =    -0.00001998   -0.00000552   -0.03295765
     atom    9 type  1   force =     0.00000169   -0.00015500   -0.00021466
     atom   10 type  1   force =    -0.00013395    0.00007784   -0.00021297
     atom   11 type  1   force =     0.00013504    0.00007712   -0.00021368
     atom   12 type  2   force =     0.00000194    0.00000143    0.00081780

     Total force =     0.091999     Total SCF correction =     0.001984

     entering subroutine stress ...

     negative rho (up, down):  2.976E+00 0.000E+00
          total   stress  (Ry/bohr**3)                   (kbar)     P=  -24.08
  -0.00018982  -0.00000000  -0.00000000        -27.92     -0.00     -0.00
  -0.00000000  -0.00018982   0.00000000         -0.00    -27.92      0.00
  -0.00000000   0.00000000  -0.00011138         -0.00      0.00    -16.39

 !ASE

     Writing output data file calc.save

     General routines

     Parallel routines

   This run was terminated on:  17:33:22  26Dec2018

   JOB DONE.
Job  /afs/slac/g/suncat/bin/suncat-tsmpirun -x LD_LIBRARY_PATH -wdir /scratch/qe109964_eWvun pw.x -in pw.inp

TID   HOST_NAME   COMMAND_LINE            STATUS            TERMINATION_TIME
00000 suncat0024 pw.x -in pw.inp   Done                     12/26/2018 17:33:22
00001 suncat0024 pw.x -in pw.inp   Done                     12/26/2018 17:33:22
00002 suncat0024 pw.x -in pw.inp   Done                     12/26/2018 17:33:22
00003 suncat0024 pw.x -in pw.inp   Done                     12/26/2018 17:33:22
00004 suncat0024 pw.x -in pw.inp   Done                     12/26/2018 17:33:22
00005 suncat0024 pw.x -in pw.inp   Done                     12/26/2018 17:33:22
00006 suncat0024 pw.x -in pw.inp   Done                     12/26/2018 17:33:22
00007 suncat0024 pw.x -in pw.inp   Done                     12/26/2018 17:33:22
00008 suncat0023 pw.x -in pw.inp   Done                     12/26/2018 17:33:22
00009 suncat0023 pw.x -in pw.inp   Done                     12/26/2018 17:33:22
00010 suncat0023 pw.x -in pw.inp   Done                     12/26/2018 17:33:22
00011 suncat0023 pw.x -in pw.inp   Done                     12/26/2018 17:33:22
00012 suncat0023 pw.x -in pw.inp   Done                     12/26/2018 17:33:22
00013 suncat0023 pw.x -in pw.inp   Done                     12/26/2018 17:33:22
00014 suncat0023 pw.x -in pw.inp   Done                     12/26/2018 17:33:22
00015 suncat0023 pw.x -in pw.inp   Done                     12/26/2018 17:33:22
00016 suncat0022 pw.x -in pw.inp   Done                     12/26/2018 17:33:22
00017 suncat0022 pw.x -in pw.inp   Done                     12/26/2018 17:33:22
00018 suncat0022 pw.x -in pw.inp   Done                     12/26/2018 17:33:22
00019 suncat0022 pw.x -in pw.inp   Done                     12/26/2018 17:33:22
00020 suncat0022 pw.x -in pw.inp   Done                     12/26/2018 17:33:22
00021 suncat0022 pw.x -in pw.inp   Done                     12/26/2018 17:33:22
00022 suncat0022 pw.x -in pw.inp   Done                     12/26/2018 17:33:22
00023 suncat0022 pw.x -in pw.inp   Done                     12/26/2018 17:33:22
00024 suncat0018 pw.x -in pw.inp   Done                     12/26/2018 17:33:22
00025 suncat0018 pw.x -in pw.inp   Done                     12/26/2018 17:33:22
00026 suncat0018 pw.x -in pw.inp   Done                     12/26/2018 17:33:22
00027 suncat0018 pw.x -in pw.inp   Done                     12/26/2018 17:33:22
00028 suncat0018 pw.x -in pw.inp   Done                     12/26/2018 17:33:22
00029 suncat0018 pw.x -in pw.inp   Done                     12/26/2018 17:33:22
00030 suncat0018 pw.x -in pw.inp   Done                     12/26/2018 17:33:22
00031 suncat0018 pw.x -in pw.inp   Done                     12/26/2018 17:33:22
00032 suncat0017 pw.x -in pw.inp   Done                     12/26/2018 17:33:22
00033 suncat0017 pw.x -in pw.inp   Done                     12/26/2018 17:33:22
00034 suncat0017 pw.x -in pw.inp   Done                     12/26/2018 17:33:22
00035 suncat0017 pw.x -in pw.inp   Done                     12/26/2018 17:33:22
00036 suncat0017 pw.x -in pw.inp   Done                     12/26/2018 17:33:22
00037 suncat0017 pw.x -in pw.inp   Done                     12/26/2018 17:33:22
00038 suncat0017 pw.x -in pw.inp   Done                     12/26/2018 17:33:22
00039 suncat0017 pw.x -in pw.inp   Done                     12/26/2018 17:33:22
00040 suncat0016 pw.x -in pw.inp   Done                     12/26/2018 17:33:22
00041 suncat0016 pw.x -in pw.inp   Done                     12/26/2018 17:33:22
00042 suncat0016 pw.x -in pw.inp   Done                     12/26/2018 17:33:22
00043 suncat0016 pw.x -in pw.inp   Done                     12/26/2018 17:33:22
00044 suncat0016 pw.x -in pw.inp   Done                     12/26/2018 17:33:22
00045 suncat0016 pw.x -in pw.inp   Done                     12/26/2018 17:33:22
00046 suncat0016 pw.x -in pw.inp   Done                     12/26/2018 17:33:22
00047 suncat0016 pw.x -in pw.inp   Done                     12/26/2018 17:33:22
00048 suncat0014 pw.x -in pw.inp   Done                     12/26/2018 17:33:22
00049 suncat0014 pw.x -in pw.inp   Done                     12/26/2018 17:33:22
00050 suncat0014 pw.x -in pw.inp   Done                     12/26/2018 17:33:22
00051 suncat0014 pw.x -in pw.inp   Done                     12/26/2018 17:33:22
00052 suncat0014 pw.x -in pw.inp   Done                     12/26/2018 17:33:22
00053 suncat0014 pw.x -in pw.inp   Done                     12/26/2018 17:33:22
00054 suncat0014 pw.x -in pw.inp   Done                     12/26/2018 17:33:22
00055 suncat0014 pw.x -in pw.inp   Done                     12/26/2018 17:33:22
00056 suncat0198 pw.x -in pw.inp   Done                     12/26/2018 17:33:22
00057 suncat0198 pw.x -in pw.inp   Done                     12/26/2018 17:33:22
00058 suncat0198 pw.x -in pw.inp   Done                     12/26/2018 17:33:22
00059 suncat0198 pw.x -in pw.inp   Done                     12/26/2018 17:33:22
00060 suncat0198 pw.x -in pw.inp   Done                     12/26/2018 17:33:22
00061 suncat0198 pw.x -in pw.inp   Done                     12/26/2018 17:33:22
00062 suncat0198 pw.x -in pw.inp   Done                     12/26/2018 17:33:22
00063 suncat0198 pw.x -in pw.inp   Done                     12/26/2018 17:33:22