     Program PWSCF v.5.1rc2 (svn rev. 11289) starts on 30Dec2018 at  9:32:51

     Current dimensions of program PWSCF are:
     Max number of different atomic species (ntypx) = 10
     Max number of k-points (npk) =  40000
     Max angular momentum in pseudopotentials (lmaxx) =  3
     Presently stress not available with electric field

     IMPORTANT: XC functional enforced from input :
     Exchange-correlation      = BEEF-VDW ( 1  4 27 13 2)
     Any further DFT definition will be discarded
     Please, verify this is what you really want

     Subspace diagonalization in iterative solution of the eigenvalue problem:
     a serial algorithm will be used

     bravais-lattice index     =            0
     lattice parameter (alat)  =       1.8897  a.u.
     unit-cell volume          =    6070.7369 (a.u.)^3
     number of atoms/cell      =           12
     number of atomic types    =            2
     number of electrons       =       174.00
     number of Kohn-Sham states=          117
     kinetic-energy cutoff     =      36.7493  Ry
     charge density cutoff     =     367.4932  Ry
     convergence threshold     =      1.0E-06
     mixing beta               =       0.1000
     number of iterations used =           10  plain     mixing
     Exchange-correlation      = BEEF-VDW ( 1  4 27 13 2)
     nstep                     =           50

     celldm(1)=   1.889726  celldm(2)=   0.000000  celldm(3)=   0.000000
     celldm(4)=   0.000000  celldm(5)=   0.000000  celldm(6)=   0.000000

     crystal axes: (cart. coord. in units of alat)
               a(1) = (   6.415461   0.000000   0.000000 )
               a(2) = (  -3.207731   5.555952   0.000000 )
               a(3) = (   0.000000   0.000000  25.238202 )

     reciprocal axes: (cart. coord. in units 2 pi/alat)
               b(1) = (  0.155873  0.089994  0.000000 )
               b(2) = (  0.000000  0.179987  0.000000 )
               b(3) = (  0.000000  0.000000  0.039622 )

     PseudoPot. # 1 for In read from file:
     /afs/slac.stanford.edu/u/if/mamunm/psp/gbrv1.5pbe/In.UPF
     MD5 check sum: 90777abd96fbb83f2e67db2a40c566b9
     Pseudo is Ultrasoft + core correction, Zval = 13.0
     Generated by new atomic code, or converted to UPF format
     Using radial grid of  889 points,  6 beta functions with:
                l(1) =   0
                l(2) =   0
                l(3) =   1
                l(4) =   1
                l(5) =   2
                l(6) =   2
     Q(r) pseudized with  6 coefficients,  rinner =    1.400   1.400   1.400
                                                       1.400   1.400

     PseudoPot. # 2 for Cu read from file:
     /afs/slac.stanford.edu/u/if/mamunm/psp/gbrv1.5pbe/Cu.UPF
     MD5 check sum: 6e991ff952a84172a2a52a1c1e996048
     Pseudo is Ultrasoft + core correction, Zval = 19.0
     Generated by new atomic code, or converted to UPF format
     Using radial grid of  867 points,  6 beta functions with:
                l(1) =   0
                l(2) =   0
                l(3) =   1
                l(4) =   1
                l(5) =   2
                l(6) =   2
     Q(r) pseudized with  8 coefficients,  rinner =    1.150   1.150   1.150
                                                       1.150   1.150

     vdW kernel table read from file vdW_kernel_table
     MD5 check sum: 095c7af220d748ca6e76c0b4c6cfb241

     atomic species   valence    mass     pseudopotential
        In1           13.00   114.81800     In( 1.00)
        Cu1           19.00    63.54600     Cu( 1.00)

     No symmetry found

   Cartesian axes

     site n.     atom                  positions (alat units)
         1           In1 tau(   1) = (   0.0000000   0.0000000  10.0000000  )
         2           In1 tau(   2) = (  -1.6038653   2.7779762  10.0000000  )
         3           In1 tau(   3) = (   1.6038653   2.7779762  10.0000000  )
         4           Cu1 tau(   4) = (   3.2077306   0.0000000  10.0000000  )
         5           In1 tau(   5) = (   3.2077306   1.8519841  12.6191011  )
         6           In1 tau(   6) = (   1.6038653   4.6299603  12.6191011  )
         7           In1 tau(   7) = (  -1.6038653   4.6299603  12.6191011  )
         8           Cu1 tau(   8) = (   0.0000000   1.8519841  12.6191011  )
         9           In1 tau(   9) = (  -0.0000000   3.7039683  15.2382021  )
        10           In1 tau(  10) = (   1.6038653   0.9259921  15.2382021  )
        11           In1 tau(  11) = (   4.8115959   0.9259921  15.2382021  )
        12           Cu1 tau(  12) = (   3.2077306   3.7039683  15.2382021  )

     number of k points=    20  Fermi-Dirac smearing, width (Ry)=  0.0110
                       cart. coord. in units 2pi/alat
        k(    1) = (   0.0000000   0.0000000   0.0000000), wk =   0.0555556
        k(    2) = (   0.0000000   0.0299979   0.0000000), wk =   0.1111111
        k(    3) = (   0.0000000   0.0599957   0.0000000), wk =   0.1111111
        k(    4) = (   0.0000000  -0.0899936   0.0000000), wk =   0.0555556
        k(    5) = (   0.0259789   0.0149989   0.0000000), wk =   0.1111111
        k(    6) = (   0.0259789   0.0449968   0.0000000), wk =   0.1111111
        k(    7) = (   0.0259789   0.0749946   0.0000000), wk =   0.1111111
        k(    8) = (   0.0259789  -0.0749946   0.0000000), wk =   0.1111111
        k(    9) = (   0.0259789  -0.0449968   0.0000000), wk =   0.1111111
        k(   10) = (   0.0259789  -0.0149989   0.0000000), wk =   0.1111111
        k(   11) = (   0.0519578   0.0299979   0.0000000), wk =   0.1111111
        k(   12) = (   0.0519578   0.0599957   0.0000000), wk =   0.1111111
        k(   13) = (   0.0519578   0.0899936   0.0000000), wk =   0.1111111
        k(   14) = (   0.0519578  -0.0599957   0.0000000), wk =   0.1111111
        k(   15) = (   0.0519578  -0.0299979   0.0000000), wk =   0.1111111
        k(   16) = (   0.0519578   0.0000000   0.0000000), wk =   0.1111111
        k(   17) = (  -0.0779367  -0.0449968   0.0000000), wk =   0.0555556
        k(   18) = (  -0.0779367  -0.0149989   0.0000000), wk =   0.1111111
        k(   19) = (  -0.0779367   0.0149989   0.0000000), wk =   0.1111111
        k(   20) = (  -0.0779367  -0.1349904   0.0000000), wk =   0.0555556

     Largest allocated arrays     est. size (Mb)     dimensions
     Largest temporary arrays     est. size (Mb)     dimensions

     Initial potential from superposition of free atoms
     Check: negative starting charge=   -0.000202

     starting charge  157.49999, renormalised to  174.00000

     negative rho (up, down):  2.229E-04 0.000E+00

     *
     * You are using vdW-DF for exchange-correlation in this calculation.
     * Please cite the following three references that made this development
     * possible:
     *
     *   M. Dion, H. Rydberg, E. Schroder, D. C. Langreth, and
     *   B. I. Lundqvist, Phys. Rev. Lett. 92, 246401 (2004).
     *
     *   T. Thonhauser, V. R. Cooper, S. Li, A. Puzder, P. Hyldgaard, and
     *   D. C. Langreth, Phys. Rev. B 76, 125112 (2007).
     *
     *   G. Roman-Perez and J. M. Soler, Phys. Rev. Lett. 103, 096102 (2009).
     *
     *
     * If you are using vdW-DF2, please also cite:
     *
     *   K. Lee, E. D. Murray, L. Kong, B. I. Lundqvist, and
     *   D. C. Langreth, Phys. Rev. B 82, 081101(R) (2010).
     *
     *
     * If you are calculating the stress with vdW-DF, please also cite:
     *
     *   R. Sabatini, E. Kucukbenli, B. Kolb, T. Thonhauser, and
     *   S. de Gironcoli, J. Phys.: Condens. Matter 24, 424209 (2012).
     *

     Carrying out vdW-DF run using the following parameters:

     Nqs =      20    Nr_points =    1024   r_max =   100.000
     q_mesh =
               0.00001000     0.04494208     0.09755937     0.15916263
               0.23128650     0.31572767     0.41458969     0.53033537
               0.66584808     0.82450364     1.01025438     1.22772762
               1.48234092     1.78043706     2.12944203     2.53805004
               3.01644009     3.57652955     4.23227104     5.00000000

     Gradients computed in reciprocal space

     Adding external electric field

     Computed dipole along edir(3) :
        Dipole               -0.0000 Ry au,         -0.0000 Debye
        Dipole field         -0.0000 Ry au

        Potential amp.        0.0000 Ry
        Total length         46.5010 bohr

     Starting wfc are  120 randomized atomic wfcs

     Self-consistent Calculation

     iteration #  1     ecut=    36.75 Ry     beta=0.10
     Davidson diagonalization with overlap
     ethr =  1.00E-02,  avg # of iterations =  8.7

[...]

     total energy              =   -2398.06727143 Ry
     Harris-Foulkes estimate   =   -2475.56408524 Ry
     estimated scf accuracy    <     433.23969511 Ry

[...]

     End of self-consistent calculation

          k = 0.0000 0.0000 0.0000 ( 22923 PWs)   bands (ev):

  -111.9715-111.7118-111.7117 -69.3861 -69.3768 -69.3768 -69.1408 -69.1408
   -69.1407 -69.1407 -69.1017 -69.1016 -14.8465 -14.8092 -14.8091 -14.8009
   -14.7771 -14.7529 -14.7024 -14.7024 -14.6927 -14.6926 -14.6696 -14.6601
   -14.6601 -14.6350 -14.6258 -14.6257 -14.6038 -14.5551 -14.5461 -14.5461
   -14.5015 -14.4907 -14.4630 -14.4628 -14.4432 -14.4430 -14.4374 -14.4373
   -14.4370 -14.4171 -14.4171 -14.4171 -14.4170 -14.3981 -14.3980 -14.3531
   -14.3531 -14.3221 -14.3221 -14.3115 -14.2746 -14.2746 -14.2691 -14.2304
   -14.2248  -8.5616  -7.1777  -5.1679  -4.0057  -4.0057  -3.4988  -3.4988
    -2.9184  -2.7192  -2.7192  -2.5899  -2.0743  -2.0743  -2.0625  -2.0625
    -2.0469  -1.9172  -1.9172  -1.8439  -1.7210  -1.7033  -1.7033  -1.6633
    -1.6633  -1.4286  -1.3279  -1.2955  -1.2955  -1.1701  -1.1701  -0.3831
     0.2045   0.2045   0.5881   0.5881   1.1451   1.2689   1.9270   3.4105
     3.7266   3.7266   3.7642   3.7642   3.9631   4.3847   4.5038   4.9430
     5.0552   5.8797   6.1970   6.1971   6.5126   6.5126   6.5393   6.5525
     6.9094   7.1758   7.3214   7.3217   7.4131

[...]

          k =-0.0779-0.0450 0.0000 ( 22820 PWs)   bands (ev):

[...]

     the Fermi energy is     0.3541 ev

!    total energy              =   -2427.66597076 Ry
     Harris-Foulkes estimate   =   -2427.66595939 Ry
     estimated scf accuracy    <       0.00000051 Ry

     The total energy is the sum of the following terms:

     one-electron contribution =  -13135.35812220 Ry
     hartree contribution      =    6630.19738888 Ry
     xc contribution           =    -472.03241920 Ry
     ewald contribution        =    4549.55770216 Ry
     electric field correction =       0.00000000 Ry
     smearing contrib. (-TS)   =      -0.03052039 Ry

     convergence has been achieved in  18 iterations

 BEEF-vdW xc energy contributions
           1 :   -414.718609316645
           2 :    378.107632376613
           3 :   -316.352925804069
           4 :    246.908838306251
           5 :   -185.578187009836
           6 :    140.694635234378
           7 :   -111.702962674842
           8 :    92.1460097029196
           9 :   -74.7895581038805
          10 :    55.7932047706590
          11 :   -35.8738078946280
          12 :    18.4647027631846
          13 :   -6.63100844651791
          14 :   0.896141846192222
[...]
     PseudoPot. # 1 for In read from file:
     /afs/slac.stanford.edu/u/if/mamunm/psp/gbrv1.5pbe/In.UPF
     MD5 check sum: 90777abd96fbb83f2e67db2a40c566b9
     Pseudo is Ultrasoft + core correction, Zval = 13.0
     Generated by new atomic code, or converted to UPF format
     Using radial grid of  889 points,  6 beta functions with:
                l(1) =   0
                l(2) =   0
                l(3) =   1
                l(4) =   1
                l(5) =   2
                l(6) =   2
     Q(r) pseudized with  6 coefficients,  rinner =    1.400   1.400   1.400
                                                       1.400   1.400

     PseudoPot. # 2 for Cu read from file:
     /afs/slac.stanford.edu/u/if/mamunm/psp/gbrv1.5pbe/Cu.UPF
     MD5 check sum: 6e991ff952a84172a2a52a1c1e996048
     Pseudo is Ultrasoft + core correction, Zval = 19.0
     Generated by new atomic code, or converted to UPF format
     Using radial grid of  867 points,  6 beta functions with:
                l(1) =   0
                l(2) =   0
                l(3) =   1
                l(4) =   1
                l(5) =   2
                l(6) =   2
     Q(r) pseudized with  8 coefficients,  rinner =    1.150   1.150   1.150
                                                       1.150   1.150

     vdW kernel table read from file vdW_kernel_table
     MD5 check sum: 095c7af220d748ca6e76c0b4c6cfb241

     atomic species   valence    mass     pseudopotential
        In1           13.00   114.81800     In( 1.00)
        Cu1           19.00    63.54600     Cu( 1.00)

     No symmetry found

   Cartesian axes

     site n.     atom                  positions (alat units)
         1           In1 tau(   1) = (   0.0000000   0.0000000  10.0000000  )
         2           In1 tau(   2) = (  -1.6038653   2.7779762  10.0000000  )
         3           In1 tau(   3) = (   1.6038653   2.7779762  10.0000000  )
         4           Cu1 tau(   4) = (   3.2077306   0.0000000  10.0000000  )
         5           In1 tau(   5) = (   3.2077306   1.8519841  12.6191011  )
         6           In1 tau(   6) = (   1.6038653   4.6299603  12.6191011  )
         7           In1 tau(   7) = (  -1.6038653   4.6299603  12.6191011  )
         8           Cu1 tau(   8) = (   0.0000000   1.8519841  12.6191011  )
         9           In1 tau(   9) = (   0.0000023   3.6667126  15.3654881  )
        10           In1 tau(  10) = (   1.5718602   0.9439812  15.3655105  )
        11           In1 tau(  11) = (   4.8435992   0.9439908  15.3655174  )
        12           Cu1 tau(  12) = (   3.2077370   3.7041495  14.8009379  )

     number of k points=    20  Fermi-Dirac smearing, width (Ry)=  0.0110
                       cart. coord. in units 2pi/alat
        k(    1) = (   0.0000000   0.0000000   0.0000000), wk =   0.0555556
        k(    2) = (   0.0000000   0.0299979   0.0000000), wk =   0.1111111
        k(    3) = (   0.0000000   0.0599957   0.0000000), wk =   0.1111111
        k(    4) = (   0.0000000  -0.0899936   0.0000000), wk =   0.0555556
        k(    5) = (   0.0259789   0.0149989   0.0000000), wk =   0.1111111
        k(    6) = (   0.0259789   0.0449968   0.0000000), wk =   0.1111111
        k(    7) = (   0.0259789   0.0749946   0.0000000), wk =   0.1111111
        k(    8) = (   0.0259789  -0.0749946   0.0000000), wk =   0.1111111
        k(    9) = (   0.0259789  -0.0449968   0.0000000), wk =   0.1111111
        k(   10) = (   0.0259789  -0.0149989   0.0000000), wk =   0.1111111
        k(   11) = (   0.0519578   0.0299979   0.0000000), wk =   0.1111111
        k(   12) = (   0.0519578   0.0599957   0.0000000), wk =   0.1111111
        k(   13) = (   0.0519578   0.0899936   0.0000000), wk =   0.1111111
        k(   14) = (   0.0519578  -0.0599957   0.0000000), wk =   0.1111111
        k(   15) = (   0.0519578  -0.0299979   0.0000000), wk =   0.1111111
        k(   16) = (   0.0519578   0.0000000   0.0000000), wk =   0.1111111
        k(   17) = (  -0.0779367  -0.0449968   0.0000000), wk =   0.0555556
        k(   18) = (  -0.0779367  -0.0149989   0.0000000), wk =   0.1111111
        k(   19) = (  -0.0779367   0.0149989   0.0000000), wk =   0.1111111
        k(   20) = (  -0.0779367  -0.1349904   0.0000000), wk =   0.0555556

     Largest allocated arrays     est. size (Mb)     dimensions
     Largest temporary arrays     est. size (Mb)     dimensions

     Initial potential from superposition of free atoms
     Check: negative starting charge=   -0.000193

     starting charge  157.49999, renormalised to  174.00000

[...]

     *
     * You are using vdW-DF for exchange-correlation in this calculation.
     * Please cite the following three references that made this development
     * possible:
     *
     *   M. Dion, H. Rydberg, E. Schroder, D. C. Langreth, and
     *   B. I. Lundqvist, Phys. Rev. Lett. 92, 246401 (2004).
     *
     *   T. Thonhauser, V. R. Cooper, S. Li, A. Puzder, P. Hyldgaard, and
     *   D. C. Langreth, Phys. Rev. B 76, 125112 (2007).
     *
     *   G. Roman-Perez and J. M. Soler, Phys. Rev. Lett. 103, 096102 (2009).
     *
     *
     * If you are using vdW-DF2, please also cite:
     *
     *   K. Lee, E. D. Murray, L. Kong, B. I. Lundqvist, and
     *   D. C. Langreth, Phys. Rev. B 82, 081101(R) (2010).
     *
     *
     * If you are calculating the stress with vdW-DF, please also cite:
     *
     *   R. Sabatini, E. Kucukbenli, B. Kolb, T. Thonhauser, and
     *   S. de Gironcoli, J. Phys.: Condens. Matter 24, 424209 (2012).
     *

     Carrying out vdW-DF run using the following parameters:

     Nqs =      20    Nr_points =    1024   r_max =   100.000
     q_mesh =
               0.00001000     0.04494208     0.09755937     0.15916263
               0.23128650     0.31572767     0.41458969     0.53033537
               0.66584808     0.82450364     1.01025438     1.22772762
               1.48234092     1.78043706     2.12944203     2.53805004
               3.01644009     3.57652955     4.23227104     5.00000000

     Gradients computed in reciprocal space

[...]

     Starting wfc are  120 randomized atomic wfcs

     Self-consistent Calculation

[...]

     total energy              =   -2427.68101645 Ry
     Harris-Foulkes estimate   =   -2427.68101461 Ry
     estimated scf accuracy    <       0.00000153 Ry

     iteration # 21     ecut=    36.75 Ry     beta=0.10
     Davidson diagonalization with overlap
     ethr =  8.82E-10,  avg # of iterations =  3.0

[...]

     negative rho (up, down):  1.116E-03 0.000E+00

     Adding external electric field

     Computed dipole along edir(3) :
        Dipole                0.0441 Ry au,          0.1122 Debye
        Dipole field          0.0001 Ry au

        Potential amp.       -0.0085 Ry
        Total length         46.5010 bohr

     End of self-consistent calculation

[...]

          k = 0.0520 0.0000 0.0000 ( 22854 PWs)   bands (ev):

[...]

          k =-0.0779-0.1350 0.0000 ( 22820 PWs)   bands (ev):

  -111.9671-111.8866-111.6410 -69.3843 -69.3762 -69.3761 -69.2995 -69.2930
   -69.2929 -69.0710 -69.0710 -69.0308 -14.7417 -14.6962 -14.6730 -14.6621
   -14.6425 -14.6205 -14.6050 -14.5942 -14.5821 -14.5811 -14.5603 -14.5575
   -14.5351 -14.5280 -14.5154 -14.5091 -14.5088 -14.5015 -14.4903 -14.4813
   -14.4711 -14.4658 -14.4648 -14.4618 -14.4488 -14.4476 -14.4384 -14.4346
   -14.4330 -14.4192 -14.4170 -14.4071 -14.3943 -14.3906 -14.3827 -14.3791
   -14.3777 -14.3678 -14.3618 -14.3520 -14.3395 -14.3250 -14.2829 -14.2582
   -14.2186  -7.3818  -7.0426  -5.9136  -5.7029  -4.7411  -4.6593  -4.0392
    -3.4474  -3.0576  -2.5862  -2.4112  -2.2669  -2.2439  -2.1418  -2.1386
    -2.1151  -2.0080  -1.9991  -1.9920  -1.8941  -1.8755  -1.8537  -1.7493
    -1.6549  -1.5166  -1.1131  -0.5296   0.0867   0.2879   1.1106   1.1543
     1.3952   1.4129   1.8451   2.4191   2.5431   2.6039   2.7908   2.9109
     3.2579   3.5280   3.7571   3.8614   4.2333   4.5135   4.5672   4.6061
     4.7848   4.9622   5.0327   5.1683   5.2263   5.3512   5.5453   5.8179
     5.8815   5.9644   6.2429   6.2891   6.8072

     the Fermi energy is     0.3893 ev

!    total energy              =   -2427.68102367 Ry
     Harris-Foulkes estimate   =   -2427.68101703 Ry
     estimated scf accuracy    <       0.00000083 Ry

     The total energy is the sum of the following terms:

     one-electron contribution =  -13217.72878880 Ry
     hartree contribution      =    6671.46150015 Ry
     xc contribution           =    -472.01439566 Ry
     ewald contribution        =    4590.63073443 Ry
     electric field correction =       0.00000403 Ry
     smearing contrib. (-TS)   =      -0.03007782 Ry

     convergence has been achieved in  21 iterations

 BEEF-vdW xc energy contributions
           1 :   -414.757269529804
           2 :    378.144093504808
           3 :   -316.382156766394
           4 :    246.925401542301
           5 :   -185.582758974332
           6 :    140.698091666249
           7 :   -111.720920034684
           8 :    92.1863495399326
           9 :   -74.8438124314481
          10 :    55.8410869882293
          11 :   -35.8983252590068
          12 :    18.4671832565651
          13 :   -6.63341902516225
          14 :   0.927109850282648
          15 :   0.769060062195422
          16 :   -1.57584165715139
          17 :    3.63129530572428
          18 :   -7.11050538023704
          19 :    10.6831021139274
          20 :   -12.8270371097586
          21 :    12.9671016895145
          22 :   -11.7241966672287
          23 :    10.2893969994596
          24 :   -9.53113364547198
          25 :    9.51129258820470
          26 :   -9.67139563138016
          27 :    9.41905503659427
          28 :   -8.60637126032782
          29 :    7.56153056462574
          30 :   -6.73264665176430
          31 :   -36.3804677986076
          32 :   -25.9984895733321

     Forces acting on atoms (Ry/au):

     negative rho (up, down):  1.116E-03 0.000E+00
     atom    1 type  1   force =    -0.00000008    0.01130168   -0.00851200
     atom    2 type  1   force =     0.00978246   -0.00564185   -0.00850887
     atom    3 type  1   force =    -0.00978275   -0.00564226   -0.00850899
     atom    4 type  2   force =     0.00000022    0.00000687    0.01614046
     atom    5 type  1   force =    -0.00000015   -0.00791797    0.00348888
     atom    6 type  1   force =    -0.00686372    0.00396477    0.00346479
     atom    7 type  1   force =     0.00686366    0.00396478    0.00346394
     atom    8 type  2   force =     0.00000037    0.00000700    0.00091243
     atom    9 type  1   force =     0.00000029    0.00137216   -0.00042501
     atom   10 type  1   force =     0.00120178   -0.00071131   -0.00041557
     atom   11 type  1   force =    -0.00120222   -0.00071154   -0.00041614
     atom   12 type  2   force =     0.00000013    0.00000767   -0.00068391

     Total force =     0.033056     Total SCF correction =     0.002678

     entering subroutine stress ...

     negative rho (up, down):  1.116E-03 0.000E+00
          total   stress  (Ry/bohr**3)                   (kbar)     P=   -7.15
  -0.00006257   0.00000000  -0.00000000         -9.20      0.00     -0.00
   0.00000000  -0.00006254   0.00000000          0.00     -9.20      0.00
  -0.00000000   0.00000000  -0.00002076         -0.00      0.00     -3.05

 !ASE

     Writing output data file calc.save

     General routines

     Parallel routines

   This run was terminated on:  14:17:48  30Dec2018

   JOB DONE.
Job  /afs/slac/g/suncat/bin/suncat-tsmpirun -x LD_LIBRARY_PATH -wdir /scratch/qe648501_hg990 pw.x -in pw.inp

TID   HOST_NAME   COMMAND_LINE            STATUS            TERMINATION_TIME
00000 suncat0056 pw.x -in pw.inp   Done                     12/30/2018 14:17:48
00001 suncat0056 pw.x -in pw.inp   Done                     12/30/2018 14:17:48
00002 suncat0056 pw.x -in pw.inp   Done                     12/30/2018 14:17:48
00003 suncat0056 pw.x -in pw.inp   Done                     12/30/2018 14:17:48
00004 suncat0056 pw.x -in pw.inp   Done                     12/30/2018 14:17:48
00005 suncat0056 pw.x -in pw.inp   Done                     12/30/2018 14:17:48
00006 suncat0056 pw.x -in pw.inp   Done                     12/30/2018 14:17:48
00007 suncat0056 pw.x -in pw.inp   Done                     12/30/2018 14:17:48
00008 suncat0052 pw.x -in pw.inp   Done                     12/30/2018 14:17:48
00009 suncat0052 pw.x -in pw.inp   Done                     12/30/2018 14:17:48
00010 suncat0052 pw.x -in pw.inp   Done                     12/30/2018 14:17:48
00011 suncat0052 pw.x -in pw.inp   Done                     12/30/2018 14:17:48
00012 suncat0052 pw.x -in pw.inp   Done                     12/30/2018 14:17:48
00013 suncat0052 pw.x -in pw.inp   Done                     12/30/2018 14:17:48
00014 suncat0052 pw.x -in pw.inp   Done                     12/30/2018 14:17:48
00015 suncat0052 pw.x -in pw.inp   Done                     12/30/2018 14:17:48
00016 suncat0048 pw.x -in pw.inp   Done                     12/30/2018 14:17:48
00017 suncat0048 pw.x -in pw.inp   Done                     12/30/2018 14:17:48
00018 suncat0048 pw.x -in pw.inp   Done                     12/30/2018 14:17:48
00019 suncat0048 pw.x -in pw.inp   Done                     12/30/2018 14:17:48
00020 suncat0048 pw.x -in pw.inp   Done                     12/30/2018 14:17:48
00021 suncat0048 pw.x -in pw.inp   Done                     12/30/2018 14:17:48
00022 suncat0048 pw.x -in pw.inp   Done                     12/30/2018 14:17:48
00023 suncat0048 pw.x -in pw.inp   Done                     12/30/2018 14:17:48
00024 suncat0047 pw.x -in pw.inp   Done                     12/30/2018 14:17:48
00025 suncat0047 pw.x -in pw.inp   Done                     12/30/2018 14:17:48
00026 suncat0047 pw.x -in pw.inp   Done                     12/30/2018 14:17:48
00027 suncat0047 pw.x -in pw.inp   Done                     12/30/2018 14:17:48
00028 suncat0047 pw.x -in pw.inp   Done                     12/30/2018 14:17:48
00029 suncat0047 pw.x -in pw.inp   Done                     12/30/2018 14:17:48
00030 suncat0047 pw.x -in pw.inp   Done                     12/30/2018 14:17:48
00031 suncat0047 pw.x -in pw.inp   Done                     12/30/2018 14:17:48
00032 suncat0041 pw.x -in pw.inp   Done                     12/30/2018 14:17:48
00033 suncat0041 pw.x -in pw.inp   Done                     12/30/2018 14:17:48
00034 suncat0041 pw.x -in pw.inp   Done                     12/30/2018 14:17:48
00035 suncat0041 pw.x -in pw.inp   Done                     12/30/2018 14:17:48
00036 suncat0041 pw.x -in pw.inp   Done                     12/30/2018 14:17:48
00037 suncat0041 pw.x -in pw.inp   Done                     12/30/2018 14:17:48
00038 suncat0041 pw.x -in pw.inp   Done                     12/30/2018 14:17:48
00039 suncat0041 pw.x -in pw.inp   Done                     12/30/2018 14:17:48
00040 suncat0039 pw.x -in pw.inp   Done                     12/30/2018 14:17:48
00041 suncat0039 pw.x -in pw.inp   Done                     12/30/2018 14:17:48
00042 suncat0039 pw.x -in pw.inp   Done                     12/30/2018 14:17:48
00043 suncat0039 pw.x -in pw.inp   Done                     12/30/2018 14:17:48
00044 suncat0039 pw.x -in pw.inp   Done                     12/30/2018 14:17:48
00045 suncat0039 pw.x -in pw.inp   Done                     12/30/2018 14:17:48
00046 suncat0039 pw.x -in pw.inp   Done                     12/30/2018 14:17:48
00047 suncat0039 pw.x -in pw.inp   Done                     12/30/2018 14:17:48
00048 suncat0207 pw.x -in pw.inp   Done                     12/30/2018 14:17:48
00049 suncat0207 pw.x -in pw.inp   Done                     12/30/2018 14:17:48
00050 suncat0207 pw.x -in pw.inp   Done                     12/30/2018 14:17:48
00051 suncat0207 pw.x -in pw.inp   Done                     12/30/2018 14:17:48
00052 suncat0207 pw.x -in pw.inp   Done                     12/30/2018 14:17:48
00053 suncat0207 pw.x -in pw.inp   Done                     12/30/2018 14:17:48
00054 suncat0207 pw.x -in pw.inp   Done                     12/30/2018 14:17:48
00055 suncat0207 pw.x -in pw.inp   Done                     12/30/2018 14:17:48
00056 suncat0206 pw.x -in pw.inp   Done                     12/30/2018 14:17:48
00057 suncat0206 pw.x -in pw.inp   Done                     12/30/2018 14:17:48
00058 suncat0206 pw.x -in pw.inp   Done                     12/30/2018 14:17:48
00059 suncat0206 pw.x -in pw.inp   Done                     12/30/2018 14:17:48
00060 suncat0206 pw.x -in pw.inp   Done                     12/30/2018 14:17:48
00061 suncat0206 pw.x -in pw.inp   Done                     12/30/2018 14:17:48
00062 suncat0206 pw.x -in pw.inp   Done                     12/30/2018 14:17:48
00063 suncat0206 pw.x -in pw.inp   Done                     12/30/2018 14:17:48