     Program PWSCF v.5.1rc2 (svn rev. 11289) starts on  1Jan2019 at 13: 5:15

     Current dimensions of program PWSCF are:
     Max number of different atomic species (ntypx) = 10
     Max number of k-points (npk) =  40000
     Max angular momentum in pseudopotentials (lmaxx) =  3
     Presently stress not available with electric field

     IMPORTANT: XC functional enforced from input :
     Exchange-correlation      = BEEF-VDW ( 1  4 27 13 2)
     Any further DFT definition will be discarded
     Please, verify this is what you really want

     Subspace diagonalization in iterative solution of the eigenvalue problem:
     a serial algorithm will be used

     bravais-lattice index     =            0
     lattice parameter (alat)  =       1.8897  a.u.
     unit-cell volume          =    6101.8219 (a.u.)^3
     number of atoms/cell      =           12
     number of atomic types    =            2
     number of electrons       =       165.00
     number of Kohn-Sham states=          112
     kinetic-energy cutoff     =      36.7493  Ry
     charge density cutoff     =     367.4932  Ry
     convergence threshold     =      1.0E-06
     mixing beta               =       0.1000
     number of iterations used =           10  plain     mixing
     Exchange-correlation      = BEEF-VDW ( 1  4 27 13 2)
     nstep                     =           50

     celldm(1)=   1.889726  celldm(2)=   0.000000  celldm(3)=   0.000000
     celldm(4)=   0.000000  celldm(5)=   0.000000  celldm(6)=   0.000000

     crystal axes: (cart. coord. in units of alat)
               a(1) = (   6.430320   0.000000   0.000000 )
               a(2) = (  -3.215160   5.568820   0.000000 )
               a(3) = (   0.000000   0.000000  25.250334 )

     reciprocal axes: (cart. coord. in units 2 pi/alat)
               b(1) = (  0.155513  0.089786  0.000000 )
               b(2) = (  0.000000  0.179571  0.000000 )
               b(3) = (  0.000000  0.000000  0.039603 )

     PseudoPot. # 1 for Sn read from file:
     /afs/slac.stanford.edu/u/if/mamunm/psp/gbrv1.5pbe/Sn.UPF
     MD5 check sum: 469debedee59599fedebd795477fea03
     Pseudo is Ultrasoft + core correction, Zval = 14.0
     Generated by new atomic code, or converted to UPF format
     Using radial grid of  891 points,  6 beta functions with:
                l(1) =   0
                l(2) =   0
                l(3) =   1
                l(4) =   1
                l(5) =   2
                l(6) =   2
     Q(r) pseudized with  8 coefficients,  rinner =    1.350   1.350   1.350
                                                       1.350   1.350

     PseudoPot. # 2 for Nb read from file:
     /afs/slac.stanford.edu/u/if/mamunm/psp/gbrv1.5pbe/Nb.UPF
     MD5 check sum: 573aab8a2fa660278ed4a62cd769473f
     Pseudo is Ultrasoft + core correction, Zval = 13.0
     Generated by new atomic code, or converted to UPF format
     Using radial grid of  887 points,  6 beta functions with:
                l(1) =   0
                l(2) =   0
                l(3) =   1
                l(4) =   1
                l(5) =   2
                l(6) =   2
     Q(r) pseudized with  6 coefficients,  rinner =    1.000   1.000   1.000
                                                       1.000   1.000

     vdW kernel table read from file vdW_kernel_table
     MD5 check sum: 095c7af220d748ca6e76c0b4c6cfb241

     atomic species   valence    mass     pseudopotential
        Sn1           14.00   118.71000     Sn( 1.00)
        Nb1           13.00    92.90637     Nb( 1.00)

     No symmetry found

   Cartesian axes

     site n.     atom                  positions (alat units)
         1           Sn1 tau(   1) = (   0.0000000   0.0000000  10.0000000  )
         2           Sn1 tau(   2) = (  -1.6075800   2.7844102  10.0000000  )
         3           Sn1 tau(   3) = (   1.6075800   2.7844102  10.0000000  )
         4           Nb1 tau(   4) = (   3.2151600   0.0000000  10.0000000  )
         5           Sn1 tau(   5) = (   3.2151600   1.8562735  12.6251671  )
         6           Sn1 tau(   6) = (   1.6075800   4.6406837  12.6251671  )
         7           Sn1 tau(   7) = (  -1.6075800   4.6406837  12.6251671  )
         8           Nb1 tau(   8) = (   0.0000000   1.8562735  12.6251671  )
         9           Sn1 tau(   9) = (  -0.0000000   3.7125469  15.2503342  )
        10           Sn1 tau(  10) = (   1.6075800   0.9281367  15.2503342  )
        11           Sn1 tau(  11) = (   4.8227399   0.9281367  15.2503342  )
        12           Nb1 tau(  12) = (   3.2151600   3.7125469  15.2503342  )

     number of k points=    20  Fermi-Dirac smearing, width (Ry)=  0.0110
                       cart. coord. in units 2pi/alat
        k(    1) = (   0.0000000   0.0000000   0.0000000), wk =   0.0555556
        k(    2) = (   0.0000000   0.0299285   0.0000000), wk =   0.1111111
        k(    3) = (   0.0000000   0.0598571   0.0000000), wk =   0.1111111
        k(    4) = (   0.0000000  -0.0897856   0.0000000), wk =   0.0555556
        k(    5) = (   0.0259189   0.0149643   0.0000000), wk =   0.1111111
        k(    6) = (   0.0259189   0.0448928   0.0000000), wk =   0.1111111
        k(    7) = (   0.0259189   0.0748214   0.0000000), wk =   0.1111111
        k(    8) = (   0.0259189  -0.0748214   0.0000000), wk =   0.1111111
        k(    9) = (   0.0259189  -0.0448928   0.0000000), wk =   0.1111111
        k(   10) = (   0.0259189  -0.0149643   0.0000000), wk =   0.1111111
        k(   11) = (   0.0518378   0.0299285   0.0000000), wk =   0.1111111
        k(   12) = (   0.0518378   0.0598571   0.0000000), wk =   0.1111111
        k(   13) = (   0.0518378   0.0897856   0.0000000), wk =   0.1111111
        k(   14) = (   0.0518378  -0.0598571   0.0000000), wk =   0.1111111
        k(   15) = (   0.0518378  -0.0299285   0.0000000), wk =   0.1111111
        k(   16) = (   0.0518378   0.0000000   0.0000000), wk =   0.1111111
        k(   17) = (  -0.0777566  -0.0448928   0.0000000), wk =   0.0555556
        k(   18) = (  -0.0777566  -0.0149643   0.0000000), wk =   0.1111111
        k(   19) = (  -0.0777566   0.0149643   0.0000000), wk =   0.1111111
        k(   20) = (  -0.0777566  -0.1346784   0.0000000), wk =   0.0555556

     Largest allocated arrays     est. size (Mb)     dimensions
     Largest temporary arrays     est. size (Mb)     dimensions

     Initial potential from superposition of free atoms
     Check: negative starting charge=   -0.003367

     starting charge  155.99139, renormalised to  165.00000

     negative rho (up, down):  3.562E-03 0.000E+00

     *
     * You are using vdW-DF for exchange-correlation in this calculation.
     * Please cite the following three references that made this development
     * possible:
     *
     *   M. Dion, H. Rydberg, E. Schroder, D. C. Langreth, and
     *   B. I. Lundqvist, Phys. Rev. Lett. 92, 246401 (2004).
     *
     *   T. Thonhauser, V. R. Cooper, S. Li, A. Puzder, P. Hyldgaard, and
     *   D. C. Langreth, Phys. Rev. B 76, 125112 (2007).
     *
     *   G. Roman-Perez and J. M. Soler, Phys. Rev. Lett. 103, 096102 (2009).
     *
     *
     * If you are using vdW-DF2, please also cite:
     *
     *   K. Lee, E. D. Murray, L. Kong, B. I. Lundqvist, and
     *   D. C. Langreth, Phys. Rev. B 82, 081101(R) (2010).
     *
     *
     * If you are calculating the stress with vdW-DF, please also cite:
     *
     *   R. Sabatini, E. Kucukbenli, B. Kolb, T. Thonhauser, and
     *   S. de Gironcoli, J. Phys.: Condens. Matter 24, 424209 (2012).
     *

     Carrying out vdW-DF run using the following parameters:

     Nqs =      20    Nr_points =    1024   r_max =   100.000
     q_mesh =
               0.00001000     0.04494208     0.09755937     0.15916263
               0.23128650     0.31572767     0.41458969     0.53033537
               0.66584808     0.82450364     1.01025438     1.22772762
               1.48234092     1.78043706     2.12944203     2.53805004
               3.01644009     3.57652955     4.23227104     5.00000000

     Gradients computed in reciprocal space

     Adding external electric field

     Computed dipole along edir(3) :
        Dipole               -0.0000 Ry au,         -0.0000 Debye
        Dipole field         -0.0000 Ry au

        Potential amp.        0.0000 Ry
        Total length         46.5233 bohr

     Starting wfc are  120 randomized atomic wfcs

     Self-consistent Calculation

     iteration #  1     ecut=    36.75 Ry     beta=0.10
     Davidson diagonalization with overlap
     ethr =  1.00E-02,  avg # of iterations =  8.2

[...]

     total energy              =   -1803.11110430 Ry
     Harris-Foulkes estimate   =   -1805.29429173 Ry
     estimated scf accuracy    <      13.05372227 Ry

[...]

     End of self-consistent calculation

          k = 0.0000 0.0000 0.0000 ( 22995 PWs)   bands (ev):

   -54.6293 -54.6293 -54.4137 -30.6449 -30.6441 -30.6261 -30.6261 -30.6259
   -30.6259 -30.4760 -30.4760 -30.3285 -20.9629 -20.9269 -20.9269 -20.9105
   -20.8343 -20.8343 -20.7948 -20.7880 -20.7880 -20.7851 -20.7768 -20.7736
   -20.7550 -20.7550 -20.7275 -20.7275 -20.7215 -20.7214 -20.7077 -20.6995
   -20.6995 -20.6838 -20.6403 -20.6391 -20.6391 -20.6195 -20.6195 -20.6150
   -20.6087 -20.5846 -20.5846 -20.5627 -20.5619 -20.5619 -20.5594 -20.5594
   -20.5552 -20.5552 -20.5523 -20.5523 -20.5345 -20.5345 -20.5295 -20.4648
   -20.4645  -9.6516  -8.2919  -6.6753  -5.7871  -5.7871  -4.9949  -4.9949
    -4.0930  -4.0930  -3.5862  -2.8172  -2.4319  -2.2099  -2.2099  -1.8204
    -0.8603  -0.8603  -0.7071  -0.7071  -0.3358   0.5768   0.5768   0.5949
     0.5949   1.2282   1.3534   1.5105   1.5105   1.7611   1.7611   1.8491
     1.8491   1.9407   2.2049   2.3031   2.3031   2.5504   3.5117   3.6734
     3.6734   4.0580   4.0580   4.1397   4.4691   4.4853   4.7015   5.0199
     5.5938   5.6112   5.6112   5.8059   5.8243   6.4633   6.4634   6.7984

[...]

          k =-0.0778-0.0449 0.0000 ( 22956 PWs)   bands (ev):

[...]

     the Fermi energy is     1.2373 ev

!    total energy              =   -1801.61247609 Ry
     Harris-Foulkes estimate   =   -1801.61397473 Ry
     estimated scf accuracy    <       0.00000051 Ry

     The total energy is the sum of the following terms:

     one-electron contribution =  -10942.45764184 Ry
     hartree contribution      =    5516.96606606 Ry
     xc contribution           =    -457.60034640 Ry
     ewald contribution        =    4081.55624673 Ry
     electric field correction =       0.00000000 Ry
     smearing contrib. (-TS)   =      -0.07680064 Ry

     convergence has been achieved in  17 iterations

 BEEF-vdW xc energy contributions
           1 :   -400.950968252067
           2 :    366.965450787900
           3 :   -309.239217859514
           4 :    243.726336460002
           5 :   -185.624464057652
           6 :    144.001793147480
           7 :   -119.766898941013
           8 :    107.414655224068
           9 :   -99.2106660840722
          10 :    89.4350043222411
          11 :   -76.6189751090016
          12 :    63.0196365006492
          13 :   -52.1719665137003
          14 :    46.2428830260314
          15 :   -44.7397573006053
[...]

     PseudoPot. # 1 for Sn read from file:
     /afs/slac.stanford.edu/u/if/mamunm/psp/gbrv1.5pbe/Sn.UPF
     MD5 check sum: 469debedee59599fedebd795477fea03
     Pseudo is Ultrasoft + core correction, Zval = 14.0
     Generated by new atomic code, or converted to UPF format
     Using radial grid of  891 points,  6 beta functions with:
                l(1) =   0
                l(2) =   0
                l(3) =   1
                l(4) =   1
                l(5) =   2
                l(6) =   2
     Q(r) pseudized with  8 coefficients,  rinner =    1.350   1.350   1.350
                                                       1.350   1.350

     PseudoPot. # 2 for Nb read from file:
     /afs/slac.stanford.edu/u/if/mamunm/psp/gbrv1.5pbe/Nb.UPF
     MD5 check sum: 573aab8a2fa660278ed4a62cd769473f
     Pseudo is Ultrasoft + core correction, Zval = 13.0
     Generated by new atomic code, or converted to UPF format
     Using radial grid of  887 points,  6 beta functions with:
                l(1) =   0
                l(2) =   0
                l(3) =   1
                l(4) =   1
                l(5) =   2
                l(6) =   2
     Q(r) pseudized with  6 coefficients,  rinner =    1.000   1.000   1.000
                                                       1.000   1.000

     vdW kernel table read from file vdW_kernel_table
     MD5 check sum: 095c7af220d748ca6e76c0b4c6cfb241

     atomic species   valence    mass     pseudopotential
        Sn1           14.00   118.71000     Sn( 1.00)
        Nb1           13.00    92.90637     Nb( 1.00)

     No symmetry found

   Cartesian axes

     site n.     atom                  positions (alat units)
         1           Sn1 tau(   1) = (   0.0000000   0.0000000  10.0000000  )
         2           Sn1 tau(   2) = (  -1.6075800   2.7844102  10.0000000  )
         3           Sn1 tau(   3) = (   1.6075800   2.7844102  10.0000000  )
         4           Nb1 tau(   4) = (   3.2151600   0.0000000  10.0000000  )
         5           Sn1 tau(   5) = (   3.2151600   1.8562735  12.6251671  )
         6           Sn1 tau(   6) = (   1.6075800   4.6406837  12.6251671  )
         7           Sn1 tau(   7) = (  -1.6075800   4.6406837  12.6251671  )
         8           Nb1 tau(   8) = (   0.0000000   1.8562735  12.6251671  )
         9           Sn1 tau(   9) = (  -0.0000149   3.6408515  15.4334583  )
        10           Sn1 tau(  10) = (   1.5454322   0.9638876  15.4334153  )
        11           Sn1 tau(  11) = (   4.8848145   0.9639195  15.4333635  )
        12           Nb1 tau(  12) = (   3.2151556   3.7123862  14.7479794  )

     number of k points=    20  Fermi-Dirac smearing, width (Ry)=  0.0110
                       cart. coord. in units 2pi/alat
        k(    1) = (   0.0000000   0.0000000   0.0000000), wk =   0.0555556
        k(    2) = (   0.0000000   0.0299285   0.0000000), wk =   0.1111111
        k(    3) = (   0.0000000   0.0598571   0.0000000), wk =   0.1111111
        k(    4) = (   0.0000000  -0.0897856   0.0000000), wk =   0.0555556
        k(    5) = (   0.0259189   0.0149643   0.0000000), wk =   0.1111111
        k(    6) = (   0.0259189   0.0448928   0.0000000), wk =   0.1111111
        k(    7) = (   0.0259189   0.0748214   0.0000000), wk =   0.1111111
        k(    8) = (   0.0259189  -0.0748214   0.0000000), wk =   0.1111111
        k(    9) = (   0.0259189  -0.0448928   0.0000000), wk =   0.1111111
        k(   10) = (   0.0259189  -0.0149643   0.0000000), wk =   0.1111111
        k(   11) = (   0.0518378   0.0299285   0.0000000), wk =   0.1111111
        k(   12) = (   0.0518378   0.0598571   0.0000000), wk =   0.1111111
        k(   13) = (   0.0518378   0.0897856   0.0000000), wk =   0.1111111
        k(   14) = (   0.0518378  -0.0598571   0.0000000), wk =   0.1111111
        k(   15) = (   0.0518378  -0.0299285   0.0000000), wk =   0.1111111
        k(   16) = (   0.0518378   0.0000000   0.0000000), wk =   0.1111111
        k(   17) = (  -0.0777566  -0.0448928   0.0000000), wk =   0.0555556
        k(   18) = (  -0.0777566  -0.0149643   0.0000000), wk =   0.1111111
        k(   19) = (  -0.0777566   0.0149643   0.0000000), wk =   0.1111111
        k(   20) = (  -0.0777566  -0.1346784   0.0000000), wk =   0.0555556

     Largest allocated arrays     est. size (Mb)     dimensions
     Largest temporary arrays     est. size (Mb)     dimensions

     Initial potential from superposition of free atoms
     Check: negative starting charge=   -0.003405

     starting charge  155.99139, renormalised to  165.00000

[...]

     *
     * You are using vdW-DF for exchange-correlation in this calculation.
     * Please cite the following three references that made this development
     * possible:
     *
     *   M. Dion, H. Rydberg, E. Schroder, D. C. Langreth, and
     *   B. I. Lundqvist, Phys. Rev. Lett. 92, 246401 (2004).
     *
     *   T. Thonhauser, V. R. Cooper, S. Li, A. Puzder, P. Hyldgaard, and
     *   D. C. Langreth, Phys. Rev. B 76, 125112 (2007).
     *
     *   G. Roman-Perez and J. M. Soler, Phys. Rev. Lett. 103, 096102 (2009).
     *
     *
     * If you are using vdW-DF2, please also cite:
     *
     *   K. Lee, E. D. Murray, L. Kong, B. I. Lundqvist, and
     *   D. C. Langreth, Phys. Rev. B 82, 081101(R) (2010).
     *
     *
     * If you are calculating the stress with vdW-DF, please also cite:
     *
     *   R. Sabatini, E. Kucukbenli, B. Kolb, T. Thonhauser, and
     *   S. de Gironcoli, J. Phys.: Condens. Matter 24, 424209 (2012).
     *

     Carrying out vdW-DF run using the following parameters:

     Nqs =      20    Nr_points =    1024   r_max =   100.000
     q_mesh =
               0.00001000     0.04494208     0.09755937     0.15916263
               0.23128650     0.31572767     0.41458969     0.53033537
               0.66584808     0.82450364     1.01025438     1.22772762
               1.48234092     1.78043706     2.12944203     2.53805004
               3.01644009     3.57652955     4.23227104     5.00000000

     Gradients computed in reciprocal space

[...]

     Starting wfc are  120 randomized atomic wfcs

     Self-consistent Calculation

[...]

     total energy              =   -1801.66399958 Ry
     Harris-Foulkes estimate   =   -1801.66399977 Ry
     estimated scf accuracy    <       0.00000108 Ry

     iteration # 20     ecut=    36.75 Ry     beta=0.10
     Davidson diagonalization with overlap
     ethr =  6.53E-10,  avg # of iterations =  2.0

[...]

     negative rho (up, down):  2.581E-03 0.000E+00

     Adding external electric field

     Computed dipole along edir(3) :
        Dipole                0.0182 Ry au,          0.0462 Debye
        Dipole field          0.0000 Ry au

        Potential amp.       -0.0035 Ry
        Total length         46.5233 bohr

     End of self-consistent calculation

[...]

          k = 0.0518 0.0000 0.0000 ( 22946 PWs)   bands (ev):

[...]

          k =-0.0778-0.1347 0.0000 ( 22956 PWs)   bands (ev):

   -54.7207 -54.5030 -54.4815 -30.7440 -30.7097 -30.7089 -30.5542 -30.5542
   -30.5293 -30.5269 -30.5168 -30.4139 -20.9517 -20.8996 -20.8773 -20.8735
   -20.8599 -20.8456 -20.8452 -20.8347 -20.7921 -20.7840 -20.7834 -20.7749
   -20.7601 -20.7457 -20.7423 -20.7280 -20.7065 -20.6795 -20.6704 -20.6663
   -20.6615 -20.6574 -20.6452 -20.6328 -20.6278 -20.6226 -20.6183 -20.6175
   -20.6004 -20.5991 -20.5942 -20.5871 -20.5833 -20.5771 -20.5748 -20.5671
   -20.5662 -20.5636 -20.5554 -20.5537 -20.5512 -20.5415 -20.5322 -20.5198
   -20.4844  -8.5772  -8.1589  -7.1976  -6.8035  -6.1980  -6.1112  -5.5144
    -4.8771  -3.7187  -3.2969  -2.7099  -2.0221  -1.3251  -1.2229  -1.0191
    -0.9342  -0.8277  -0.2454  -0.1275   0.0992   0.1786   0.8093   0.8206
     1.0844   1.1943   1.2817   1.2944   1.4710   1.5339   1.9032   1.9133
     1.9901   2.0485   2.0866   2.4197   2.5299   2.9104   3.1456   3.2416
     3.4610   3.6145   3.8518   4.1579   4.2717   4.8286   4.9152   5.2856
     5.5825   5.6123   5.8374   5.8522   6.1592   6.3560   6.3922   6.5712

     the Fermi energy is     1.1963 ev

!    total energy              =   -1801.66400009 Ry
     Harris-Foulkes estimate   =   -1801.66399962 Ry
     estimated scf accuracy    <       0.00000037 Ry

     The total energy is the sum of the following terms:

     one-electron contribution =  -10896.03390555 Ry
     hartree contribution      =    5493.69236314 Ry
     xc contribution           =    -457.64121024 Ry
     ewald contribution        =    4058.38788762 Ry
     electric field correction =       0.00000068 Ry
     smearing contrib. (-TS)   =      -0.06913575 Ry

     convergence has been achieved in  20 iterations

 BEEF-vdW xc energy contributions
           1 :   -401.034676174087
           2 :    367.044853400403
           3 :   -309.309454678807
           4 :    243.776077918840
           5 :   -185.635435735930
           6 :    143.961525719437
           7 :   -119.682522876810
           8 :    107.314622618821
           9 :   -99.1322767201509
          10 :    89.4060062738985
          11 :   -76.6432836256801
          12 :    63.0757131973033
          13 :   -52.2251662780589
          14 :    46.2649005087248
          15 :   -44.7238721014473
          16 :    45.0439855152074
          17 :   -44.3555522117679
          18 :    41.2111488936027
          19 :   -36.2333585797418
          20 :    31.4152131706775
          21 :   -28.6701217381105
          22 :    28.6091211244176
          23 :   -30.2781410972826
          24 :    31.9061149186126
          25 :   -32.0854223765039
          26 :    30.5929905259319
          27 :   -28.3734201689198
          28 :    26.7801097880017
          29 :   -26.6365480172257
          30 :    27.7369717283425
          31 :   -36.3752639666221
          32 :   -26.6913263684879

     Forces acting on atoms (Ry/au):

     negative rho (up, down):  2.581E-03 0.000E+00
     atom    1 type  1   force =    -0.00000402    0.01204742   -0.01432806
     atom    2 type  1   force =     0.01043526   -0.00602640   -0.01431438
     atom    3 type  1   force =    -0.01043591   -0.00602399   -0.01431556
     atom    4 type  2   force =     0.00000019    0.00002374    0.07637233
     atom    5 type  1   force =     0.00000472   -0.02397383   -0.01448782
     atom    6 type  1   force =    -0.02075684    0.01197715   -0.01447822
     atom    7 type  1   force =     0.02075231    0.01198416   -0.01447300
     atom    8 type  2   force =     0.00000179    0.00001135    0.00916013
     atom    9 type  1   force =    -0.00000211    0.00074500    0.00025555
     atom   10 type  1   force =     0.00066088   -0.00037883    0.00026906
     atom   11 type  1   force =    -0.00065698   -0.00038294    0.00026605
     atom   12 type  2   force =     0.00000070   -0.00000285    0.00007391

     Total force =     0.096548     Total SCF correction =     0.001951

     entering subroutine stress ...

     negative rho (up, down):  2.581E-03 0.000E+00
          total   stress  (Ry/bohr**3)                   (kbar)     P=  -11.94
  -0.00010318  -0.00000000   0.00000000        -15.18     -0.00      0.00
  -0.00000000  -0.00010319   0.00000001         -0.00    -15.18      0.00
   0.00000000   0.00000001  -0.00003712          0.00      0.00     -5.46

 !ASE

     Writing output data file calc.save

     General routines

     Parallel routines

   This run was terminated on:  15:58:29   1Jan2019

   JOB DONE.
Job  /afs/slac/g/suncat/bin/suncat-tsmpirun -x LD_LIBRARY_PATH -wdir /scratch/qe649022_KnCAC pw.x -in pw.inp

TID   HOST_NAME   COMMAND_LINE            STATUS            TERMINATION_TIME
00000 suncat0010 pw.x -in pw.inp   Done                     01/01/2019 15:58:29
00001 suncat0010 pw.x -in pw.inp   Done                     01/01/2019 15:58:29
00002 suncat0010 pw.x -in pw.inp   Done                     01/01/2019 15:58:29
00003 suncat0010 pw.x -in pw.inp   Done                     01/01/2019 15:58:29
00004 suncat0010 pw.x -in pw.inp   Done                     01/01/2019 15:58:29
00005 suncat0010 pw.x -in pw.inp   Done                     01/01/2019 15:58:29
00006 suncat0010 pw.x -in pw.inp   Done                     01/01/2019 15:58:29
00007 suncat0010 pw.x -in pw.inp   Done                     01/01/2019 15:58:29
00008 suncat0191 pw.x -in pw.inp   Done                     01/01/2019 15:58:29
00009 suncat0191 pw.x -in pw.inp   Done                     01/01/2019 15:58:29
00010 suncat0191 pw.x -in pw.inp   Done                     01/01/2019 15:58:29
00011 suncat0191 pw.x -in pw.inp   Done                     01/01/2019 15:58:29
00012 suncat0191 pw.x -in pw.inp   Done                     01/01/2019 15:58:29
00013 suncat0191 pw.x -in pw.inp   Done                     01/01/2019 15:58:29
00014 suncat0191 pw.x -in pw.inp   Done                     01/01/2019 15:58:29
00015 suncat0191 pw.x -in pw.inp   Done                     01/01/2019 15:58:29
00016 suncat0007 pw.x -in pw.inp   Done                     01/01/2019 15:58:29
00017 suncat0007 pw.x -in pw.inp   Done                     01/01/2019 15:58:29
00018 suncat0007 pw.x -in pw.inp   Done                     01/01/2019 15:58:29
00019 suncat0007 pw.x -in pw.inp   Done                     01/01/2019 15:58:29
00020 suncat0007 pw.x -in pw.inp   Done                     01/01/2019 15:58:29
00021 suncat0007 pw.x -in pw.inp   Done                     01/01/2019 15:58:29
00022 suncat0007 pw.x -in pw.inp   Done                     01/01/2019 15:58:29
00023 suncat0007 pw.x -in pw.inp   Done                     01/01/2019 15:58:29
00024 suncat0180 pw.x -in pw.inp   Done                     01/01/2019 15:58:29
00025 suncat0180 pw.x -in pw.inp   Done                     01/01/2019 15:58:29
00026 suncat0180 pw.x -in pw.inp   Done                     01/01/2019 15:58:29
00027 suncat0180 pw.x -in pw.inp   Done                     01/01/2019 15:58:29
00028 suncat0180 pw.x -in pw.inp   Done                     01/01/2019 15:58:29
00029 suncat0180 pw.x -in pw.inp   Done                     01/01/2019 15:58:29
00030 suncat0180 pw.x -in pw.inp   Done                     01/01/2019 15:58:29
00031 suncat0180 pw.x -in pw.inp   Done                     01/01/2019 15:58:29
00032 suncat0167 pw.x -in pw.inp   Done                     01/01/2019 15:58:29
00033 suncat0167 pw.x -in pw.inp   Done                     01/01/2019 15:58:29
00034 suncat0167 pw.x -in pw.inp   Done                     01/01/2019 15:58:29
00035 suncat0167 pw.x -in pw.inp   Done                     01/01/2019 15:58:29
00036 suncat0167 pw.x -in pw.inp   Done                     01/01/2019 15:58:29
00037 suncat0167 pw.x -in pw.inp   Done                     01/01/2019 15:58:29
00038 suncat0167 pw.x -in pw.inp   Done                     01/01/2019 15:58:29
00039 suncat0167 pw.x -in pw.inp   Done                     01/01/2019 15:58:29
00040 suncat0161 pw.x -in pw.inp   Done                     01/01/2019 15:58:29
00041 suncat0161 pw.x -in pw.inp   Done                     01/01/2019 15:58:29
00042 suncat0161 pw.x -in pw.inp   Done                     01/01/2019 15:58:29
00043 suncat0161 pw.x -in pw.inp   Done                     01/01/2019 15:58:29
00044 suncat0161 pw.x -in pw.inp   Done                     01/01/2019 15:58:29
00045 suncat0161 pw.x -in pw.inp   Done                     01/01/2019 15:58:29
00046 suncat0161 pw.x -in pw.inp   Done                     01/01/2019 15:58:29
00047 suncat0161 pw.x -in pw.inp   Done                     01/01/2019 15:58:29
00048 suncat0137 pw.x -in pw.inp   Done                     01/01/2019 15:58:29
00049 suncat0137 pw.x -in pw.inp   Done                     01/01/2019 15:58:29
00050 suncat0137 pw.x -in pw.inp   Done                     01/01/2019 15:58:29
00051 suncat0137 pw.x -in pw.inp   Done                     01/01/2019 15:58:29
00052 suncat0137 pw.x -in pw.inp   Done                     01/01/2019 15:58:29
00053 suncat0137 pw.x -in pw.inp   Done                     01/01/2019 15:58:29
00054 suncat0137 pw.x -in pw.inp   Done                     01/01/2019 15:58:29
00055 suncat0137 pw.x -in pw.inp   Done                     01/01/2019 15:58:29
00056 suncat0100 pw.x -in pw.inp   Done                     01/01/2019 15:58:29
00057 suncat0100 pw.x -in pw.inp   Done                     01/01/2019 15:58:29
00058 suncat0100 pw.x -in pw.inp   Done                     01/01/2019 15:58:29
00059 suncat0100 pw.x -in pw.inp   Done                     01/01/2019 15:58:29
00060 suncat0100 pw.x -in pw.inp   Done                     01/01/2019 15:58:29
00061 suncat0100 pw.x -in pw.inp   Done                     01/01/2019 15:58:29
00062 suncat0100 pw.x -in pw.inp   Done                     01/01/2019 15:58:29
00063 suncat0100 pw.x -in pw.inp   Done                     01/01/2019 15:58:29