     Program PWSCF v.5.1rc2 (svn rev. 11289) starts on 26Dec2018 at 11:49: 9

     Current dimensions of program PWSCF are:
     Max number of different atomic species (ntypx) = 10
     Max number of k-points (npk) =  40000
     Max angular momentum in pseudopotentials (lmaxx) =  3
     Presently stress not available with electric field

     IMPORTANT: XC functional enforced from input :
     Exchange-correlation      = BEEF-VDW ( 1  4 27 13 2)
     Any further DFT definition will be discarded
     Please, verify this is what you really want

     Subspace diagonalization in iterative solution of the eigenvalue problem:
     a serial algorithm will be used

     bravais-lattice index     =            0
     lattice parameter (alat)  =       1.8897  a.u.
     unit-cell volume          =    5618.6977 (a.u.)^3
     number of atoms/cell      =           12
     number of atomic types    =            2
     number of electrons       =       162.00
     number of Kohn-Sham states=          111
     kinetic-energy cutoff     =      36.7493  Ry
     charge density cutoff     =     367.4932  Ry
     convergence threshold     =      1.0E-06
     mixing beta               =       0.1000
     number of iterations used =           10  plain     mixing
     Exchange-correlation      = BEEF-VDW ( 1  4 27 13 2)
     nstep                     =           50

     celldm(1)=   1.889726  celldm(2)=   0.000000  celldm(3)=   0.000000
     celldm(4)=   0.000000  celldm(5)=   0.000000  celldm(6)=   0.000000

     crystal axes: (cart. coord. in units of alat)
               a(1) = (   6.194197   0.000000   0.000000 )
               a(2) = (  -3.097098   5.364332   0.000000 )
               a(3) = (   0.000000   0.000000  25.057540 )

     reciprocal axes: (cart. coord. in units 2 pi/alat)
               b(1) = (  0.161441  0.093208  0.000000 )
               b(2) = (  0.000000  0.186417  0.000000 )
               b(3) = (  0.000000  0.000000  0.039908 )

     PseudoPot. # 1 for In read from file:
     /afs/slac.stanford.edu/u/if/mamunm/psp/gbrv1.5pbe/In.UPF
     MD5 check sum: 90777abd96fbb83f2e67db2a40c566b9
     Pseudo is Ultrasoft + core correction, Zval = 13.0
     Generated by new atomic code, or converted to UPF format
     Using radial grid of  889 points,  6 beta functions with:
                l(1) =   0
                l(2) =   0
                l(3) =   1
                l(4) =   1
                l(5) =   2
                l(6) =   2
     Q(r) pseudized with  6 coefficients,  rinner =    1.400   1.400   1.400
                                                       1.400   1.400

     PseudoPot. # 2 for Ir read from file:
     /afs/slac.stanford.edu/u/if/mamunm/psp/gbrv1.5pbe/Ir.UPF
     MD5 check sum: 8836f839c3459d2b385c504ce6d91f2c
     Pseudo is Ultrasoft + core correction, Zval = 15.0
     Generated by new atomic code, or converted to UPF format
     Using radial grid of  983 points,  7 beta functions with:
                l(1) =   0
                l(2) =   0
                l(3) =   1
                l(4) =   1
                l(5) =   1
                l(6) =   2
                l(7) =   2
     Q(r) pseudized with  8 coefficients,  rinner =    1.400   1.400   1.400
                                                       1.400   1.400

     vdW kernel table read from file vdW_kernel_table
     MD5 check sum: 095c7af220d748ca6e76c0b4c6cfb241

     atomic species   valence    mass     pseudopotential
        In1           13.00   114.81800     In( 1.00)
        Ir1           15.00   192.21700     Ir( 1.00)

     No symmetry found

   Cartesian axes

     site n.     atom                  positions (alat units)
         1           In1 tau(   1) = (   0.0000000   0.0000000  10.0000000  )
         2           In1 tau(   2) = (  -1.5485492   2.6821659  10.0000000  )
         3           In1 tau(   3) = (   1.5485492   2.6821659  10.0000000  )
         4           Ir1 tau(   4) = (   3.0970984   0.0000000  10.0000000  )
         5           In1 tau(   5) = (   3.0970984   1.7881106  12.5287702  )
         6           In1 tau(   6) = (   1.5485492   4.4702765  12.5287702  )
         7           In1 tau(   7) = (  -1.5485492   4.4702765  12.5287702  )
         8           Ir1 tau(   8) = (   0.0000000   1.7881106  12.5287702  )
         9           In1 tau(   9) = (  -0.0000000   3.5762212  15.0575405  )
        10           In1 tau(  10) = (   1.5485492   0.8940553  15.0575405  )
        11           In1 tau(  11) = (   4.6456476   0.8940553  15.0575405  )
        12           Ir1 tau(  12) = (   3.0970984   3.5762212  15.0575405  )

     number of k points=    20  Fermi-Dirac smearing, width (Ry)=  0.0110
                       cart. coord. in units 2pi/alat
        k(    1) = (   0.0000000   0.0000000   0.0000000), wk =   0.0555556
        k(    2) = (   0.0000000   0.0310694   0.0000000), wk =   0.1111111
        k(    3) = (   0.0000000   0.0621388   0.0000000), wk =   0.1111111
        k(    4) = (   0.0000000  -0.0932083   0.0000000), wk =   0.0555556
        k(    5) = (   0.0269069   0.0155347   0.0000000), wk =   0.1111111
        k(    6) = (   0.0269069   0.0466041   0.0000000), wk =   0.1111111
        k(    7) = (   0.0269069   0.0776735   0.0000000), wk =   0.1111111
        k(    8) = (   0.0269069  -0.0776735   0.0000000), wk =   0.1111111
        k(    9) = (   0.0269069  -0.0466041   0.0000000), wk =   0.1111111
        k(   10) = (   0.0269069  -0.0155347   0.0000000), wk =   0.1111111
        k(   11) = (   0.0538138   0.0310694   0.0000000), wk =   0.1111111
        k(   12) = (   0.0538138   0.0621388   0.0000000), wk =   0.1111111
        k(   13) = (   0.0538138   0.0932083   0.0000000), wk =   0.1111111
        k(   14) = (   0.0538138  -0.0621388   0.0000000), wk =   0.1111111
        k(   15) = (   0.0538138  -0.0310694   0.0000000), wk =   0.1111111
        k(   16) = (   0.0538138  -0.0000000   0.0000000), wk =   0.1111111
        k(   17) = (  -0.0807207  -0.0466041   0.0000000), wk =   0.0555556
        k(   18) = (  -0.0807207  -0.0155347   0.0000000), wk =   0.1111111
        k(   19) = (  -0.0807207   0.0155347   0.0000000), wk =   0.1111111
        k(   20) = (  -0.0807207  -0.1398124   0.0000000), wk =   0.0555556

     Largest allocated arrays     est. size (Mb)     dimensions
     Largest temporary arrays     est. size (Mb)     dimensions

     Initial potential from superposition of free atoms
     Check: negative starting charge=   -1.091803

     starting charge  146.99990, renormalised to  162.00000

     negative rho (up, down):  1.203E+00 0.000E+00

     *
     * You are using vdW-DF for exchange-correlation in this calculation.
     * Please cite the following three references that made this development
     * possible:
     *
     *   M. Dion, H. Rydberg, E. Schroder, D. C. Langreth, and
     *   B. I. Lundqvist, Phys. Rev. Lett. 92, 246401 (2004).
     *
     *   T. Thonhauser, V. R. Cooper, S. Li, A. Puzder, P. Hyldgaard, and
     *   D. C. Langreth, Phys. Rev. B 76, 125112 (2007).
     *
     *   G. Roman-Perez and J. M. Soler, Phys. Rev. Lett. 103, 096102 (2009).
     *
     *
     * If you are using vdW-DF2, please also cite:
     *
     *   K. Lee, E. D. Murray, L. Kong, B. I. Lundqvist, and
     *   D. C. Langreth, Phys. Rev. B 82, 081101(R) (2010).
     *
     *
     * If you are calculating the stress with vdW-DF, please also cite:
     *
     *   R. Sabatini, E. Kucukbenli, B. Kolb, T. Thonhauser, and
     *   S. de Gironcoli, J. Phys.: Condens. Matter 24, 424209 (2012).
     *

     Carrying out vdW-DF run using the following parameters:

     Nqs =      20    Nr_points =    1024   r_max =   100.000
     q_mesh =
               0.00001000     0.04494208     0.09755937     0.15916263
               0.23128650     0.31572767     0.41458969     0.53033537
               0.66584808     0.82450364     1.01025438     1.22772762
               1.48234092     1.78043706     2.12944203     2.53805004
               3.01644009     3.57652955     4.23227104     5.00000000

     Gradients computed in reciprocal space

     Adding external electric field

     Computed dipole along edir(3) :
        Dipole                0.0000 Ry au,          0.0000 Debye
        Dipole field          0.0000 Ry au

        Potential amp.       -0.0000 Ry
        Total length         46.1681 bohr

     Starting wfc are  117 randomized atomic wfcs

     Self-consistent Calculation

     iteration #  1     ecut=    36.75 Ry     beta=0.10
     Davidson diagonalization with overlap
     ethr =  1.00E-02,  avg # of iterations =  7.3

[...]

     total energy              =   -1750.12329680 Ry
     Harris-Foulkes estimate   =   -1778.87507816 Ry
     estimated scf accuracy    <     168.11497633 Ry

[...]

     End of self-consistent calculation

          k = 0.0000 0.0000 0.0000 ( 21163 PWs)   bands (ev):

   -47.3681 -47.3681 -47.2510 -47.2056 -47.2056 -47.2053 -47.2053 -46.9688
   -46.9685 -14.5183 -14.4518 -14.4515 -14.4493 -14.3420 -14.3317 -14.2692
   -14.2691 -14.2353 -14.2263 -14.2260 -14.2150 -14.2150 -14.1552 -14.1392
   -14.1316 -14.1316 -14.0243 -14.0152 -14.0057 -14.0057 -13.9980 -13.9976
   -13.9672 -13.9667 -13.9520 -13.8638 -13.8638 -13.8627 -13.8626 -13.8456
   -13.8337 -13.8337 -13.8179 -13.8178 -13.7738 -13.7738 -13.7568 -13.7567
   -13.7423 -13.7144 -13.6951 -13.6951 -13.5822 -13.5804  -8.7533  -7.1534
    -5.0070  -3.9007  -3.9006  -3.2367  -3.2367  -2.8143  -2.4268  -2.4267
    -2.3304  -1.5765  -1.4281  -1.4281  -0.8771  -0.7327  -0.7327  -0.2430
    -0.1862  -0.1862  -0.0904  -0.0749  -0.0749   0.0339   0.0339   0.2867
     0.2868   0.4190   0.9035   1.3359   1.3359   1.5960   1.5960   2.1947
     2.1948   2.2304   2.4918   3.3615   4.4801   4.9049   5.1421   5.1421
     5.3385   5.3386   5.4507   5.6585   6.0199   6.2721   6.7479   7.4681
     7.4681   7.5053   7.6393   8.2422   8.3522   8.3522   8.5160

[...]

          k =-0.0807-0.0466 0.0000 ( 21144 PWs)   bands (ev):

[...]

     the Fermi energy is     0.9029 ev

!    total energy              =   -1762.75781827 Ry
     Harris-Foulkes estimate   =   -1762.76498704 Ry
     estimated scf accuracy    <       0.00000075 Ry

     The total energy is the sum of the following terms:

     one-electron contribution =  -11398.96173728 Ry
     hartree contribution      =    5767.40506019 Ry
     xc contribution           =    -508.29969157 Ry
     ewald contribution        =    4377.14055864 Ry
     electric field correction =       0.00000003 Ry
     smearing contrib. (-TS)   =      -0.04200827 Ry

     convergence has been achieved in  18 iterations

 BEEF-vdW xc energy contributions
           1 :   -446.613357928691
           2 :    410.539515299759
           3 :   -348.632489540470
           4 :    276.849728112368
           5 :   -210.449894074469
           6 :    158.780415469732
           7 :   -123.395901464002
           8 :    99.8135854847504
           9 :   -81.4633004089540
          10 :    63.5157019172541
          11 :   -44.7333752874005
          12 :    26.8633618718065
          13 :   -12.5199010807587
          14 :    3.13097375380835
          15 :    1.86195937329092
[...]

     PseudoPot. # 1 for In read from file:
     /afs/slac.stanford.edu/u/if/mamunm/psp/gbrv1.5pbe/In.UPF
     MD5 check sum: 90777abd96fbb83f2e67db2a40c566b9
     Pseudo is Ultrasoft + core correction, Zval = 13.0
     Generated by new atomic code, or converted to UPF format
     Using radial grid of  889 points,  6 beta functions with:
                l(1) =   0
                l(2) =   0
                l(3) =   1
                l(4) =   1
                l(5) =   2
                l(6) =   2
     Q(r) pseudized with  6 coefficients,  rinner =    1.400   1.400   1.400
                                                       1.400   1.400

     PseudoPot. # 2 for Ir read from file:
     /afs/slac.stanford.edu/u/if/mamunm/psp/gbrv1.5pbe/Ir.UPF
     MD5 check sum: 8836f839c3459d2b385c504ce6d91f2c
     Pseudo is Ultrasoft + core correction, Zval = 15.0
     Generated by new atomic code, or converted to UPF format
     Using radial grid of  983 points,  7 beta functions with:
                l(1) =   0
                l(2) =   0
                l(3) =   1
                l(4) =   1
                l(5) =   1
                l(6) =   2
                l(7) =   2
     Q(r) pseudized with  8 coefficients,  rinner =    1.400   1.400   1.400
                                                       1.400   1.400

     vdW kernel table read from file vdW_kernel_table
     MD5 check sum: 095c7af220d748ca6e76c0b4c6cfb241

     atomic species   valence    mass     pseudopotential
        In1           13.00   114.81800     In( 1.00)
        Ir1           15.00   192.21700     Ir( 1.00)

     No symmetry found

   Cartesian axes

     site n.     atom                  positions (alat units)
         1           In1 tau(   1) = (   0.0000000   0.0000000  10.0000000  )
         2           In1 tau(   2) = (  -1.5485492   2.6821659  10.0000000  )
         3           In1 tau(   3) = (   1.5485492   2.6821659  10.0000000  )
         4           Ir1 tau(   4) = (   3.0970984   0.0000000  10.0000000  )
         5           In1 tau(   5) = (   3.0970984   1.7881106  12.5287702  )
         6           In1 tau(   6) = (   1.5485492   4.4702765  12.5287702  )
         7           In1 tau(   7) = (  -1.5485492   4.4702765  12.5287702  )
         8           Ir1 tau(   8) = (   0.0000000   1.7881106  12.5287702  )
         9           In1 tau(   9) = (  -0.0000001   3.5401424  15.2442159  )
        10           In1 tau(  10) = (   1.5172930   0.9121115  15.2441781  )
        11           In1 tau(  11) = (   4.6769009   0.9121128  15.2441779  )
        12           Ir1 tau(  12) = (   3.0970987   3.5762176  14.6723087  )

     number of k points=    20  Fermi-Dirac smearing, width (Ry)=  0.0110
                       cart. coord. in units 2pi/alat
        k(    1) = (   0.0000000   0.0000000   0.0000000), wk =   0.0555556
        k(    2) = (   0.0000000   0.0310694   0.0000000), wk =   0.1111111
        k(    3) = (   0.0000000   0.0621388   0.0000000), wk =   0.1111111
        k(    4) = (   0.0000000  -0.0932083   0.0000000), wk =   0.0555556
        k(    5) = (   0.0269069   0.0155347   0.0000000), wk =   0.1111111
        k(    6) = (   0.0269069   0.0466041   0.0000000), wk =   0.1111111
        k(    7) = (   0.0269069   0.0776735   0.0000000), wk =   0.1111111
        k(    8) = (   0.0269069  -0.0776735   0.0000000), wk =   0.1111111
        k(    9) = (   0.0269069  -0.0466041   0.0000000), wk =   0.1111111
        k(   10) = (   0.0269069  -0.0155347   0.0000000), wk =   0.1111111
        k(   11) = (   0.0538138   0.0310694   0.0000000), wk =   0.1111111
        k(   12) = (   0.0538138   0.0621388   0.0000000), wk =   0.1111111
        k(   13) = (   0.0538138   0.0932083   0.0000000), wk =   0.1111111
        k(   14) = (   0.0538138  -0.0621388   0.0000000), wk =   0.1111111
        k(   15) = (   0.0538138  -0.0310694   0.0000000), wk =   0.1111111
        k(   16) = (   0.0538138  -0.0000000   0.0000000), wk =   0.1111111
        k(   17) = (  -0.0807207  -0.0466041   0.0000000), wk =   0.0555556
        k(   18) = (  -0.0807207  -0.0155347   0.0000000), wk =   0.1111111
        k(   19) = (  -0.0807207   0.0155347   0.0000000), wk =   0.1111111
        k(   20) = (  -0.0807207  -0.1398124   0.0000000), wk =   0.0555556

     Largest allocated arrays     est. size (Mb)     dimensions
     Largest temporary arrays     est. size (Mb)     dimensions

     Initial potential from superposition of free atoms
     Check: negative starting charge=   -1.091288

     starting charge  146.99990, renormalised to  162.00000

[...]

     *
     * You are using vdW-DF for exchange-correlation in this calculation.
     * Please cite the following three references that made this development
     * possible:
     *
     *   M. Dion, H. Rydberg, E. Schroder, D. C. Langreth, and
     *   B. I. Lundqvist, Phys. Rev. Lett. 92, 246401 (2004).
     *
     *   T. Thonhauser, V. R. Cooper, S. Li, A. Puzder, P. Hyldgaard, and
     *   D. C. Langreth, Phys. Rev. B 76, 125112 (2007).
     *
     *   G. Roman-Perez and J. M. Soler, Phys. Rev. Lett. 103, 096102 (2009).
     *
     *
     * If you are using vdW-DF2, please also cite:
     *
     *   K. Lee, E. D. Murray, L. Kong, B. I. Lundqvist, and
     *   D. C. Langreth, Phys. Rev. B 82, 081101(R) (2010).
     *
     *
     * If you are calculating the stress with vdW-DF, please also cite:
     *
     *   R. Sabatini, E. Kucukbenli, B. Kolb, T. Thonhauser, and
     *   S. de Gironcoli, J. Phys.: Condens. Matter 24, 424209 (2012).
     *

     Carrying out vdW-DF run using the following parameters:

     Nqs =      20    Nr_points =    1024   r_max =   100.000
     q_mesh =
               0.00001000     0.04494208     0.09755937     0.15916263
               0.23128650     0.31572767     0.41458969     0.53033537
               0.66584808     0.82450364     1.01025438     1.22772762
               1.48234092     1.78043706     2.12944203     2.53805004
               3.01644009     3.57652955     4.23227104     5.00000000

     Gradients computed in reciprocal space

[...]

     Starting wfc are  117 randomized atomic wfcs

     Self-consistent Calculation

[...]

     total energy              =   -1762.79621662 Ry
     Harris-Foulkes estimate   =   -1762.79621680 Ry
     estimated scf accuracy    <       0.00000171 Ry

     iteration # 21     ecut=    36.75 Ry     beta=0.10
     Davidson diagonalization with overlap
     ethr =  1.06E-09,  avg # of iterations =  2.1

[...]

     negative rho (up, down):  1.002E+00 0.000E+00

     Adding external electric field

     Computed dipole along edir(3) :
        Dipole                0.1168 Ry au,          0.2968 Debye
        Dipole field          0.0003 Ry au

        Potential amp.       -0.0241 Ry
        Total length         46.1681 bohr

     End of self-consistent calculation

[...]

          k = 0.0538-0.0000 0.0000 ( 21115 PWs)   bands (ev):

[...]

          k =-0.0807-0.1398 0.0000 ( 21144 PWs)   bands (ev):

   -47.1972 -47.1972 -47.1781 -47.1780 -47.1543 -47.1542 -47.1055 -47.0533
   -46.9199 -14.3019 -14.2072 -14.1799 -14.1647 -14.1282 -14.1240 -14.1114
   -14.0783 -14.0618 -14.0609 -14.0078 -14.0011 -13.9609 -13.9565 -13.9469
   -13.9448 -13.9430 -13.9036 -13.9011 -13.8871 -13.8755 -13.8632 -13.8612
   -13.8518 -13.8498 -13.8334 -13.8168 -13.8121 -13.8120 -13.8084 -13.8020
   -13.7953 -13.7872 -13.7841 -13.7750 -13.7736 -13.7582 -13.7524 -13.7208
   -13.7012 -13.6912 -13.6842 -13.6459 -13.5898 -13.5643  -7.3060  -6.9383
    -5.5964  -5.5632  -4.5764  -4.2249  -3.6895  -2.9681  -2.9465  -2.3195
    -1.6297  -1.5513  -1.4115  -1.0840  -1.0819  -0.9835  -0.9307  -0.5598
    -0.5200  -0.3099  -0.0827   0.0475   0.1278   0.3136   0.4454   1.0090
     1.0222   1.2436   1.6329   2.4833   2.7620   2.8003   3.1397   3.5229
     3.5297   3.9108   4.0731   4.2405   4.2584   4.6743   5.0857   5.4603
     5.5370   5.5801   5.6303   5.7682   6.1519   6.2435   6.4186   6.6445
     6.6490   6.8566   6.9036   7.0474   7.1473   7.2756   7.3303

     the Fermi energy is     1.0089 ev

!    total energy              =   -1762.79621869 Ry
     Harris-Foulkes estimate   =   -1762.79621579 Ry
     estimated scf accuracy    <       0.00000036 Ry

     The total energy is the sum of the following terms:

     one-electron contribution =  -11341.45255619 Ry
     hartree contribution      =    5739.19804844 Ry
     xc contribution           =    -508.31014742 Ry
     ewald contribution        =    4347.81209365 Ry
     electric field correction =       0.00003050 Ry
     smearing contrib. (-TS)   =      -0.04368768 Ry

     convergence has been achieved in  21 iterations

 BEEF-vdW xc energy contributions
           1 :   -446.884600683475
           2 :    410.790264292260
           3 :   -348.847645770611
           4 :    277.024542943610
           5 :   -210.589577254048
           6 :    158.894046017057
           7 :   -123.490601446584
           8 :    99.8957819514195
           9 :   -81.5453696950607
          10 :    63.6192669196112
          11 :   -44.8822500850166
          12 :    27.0683391561302
          13 :   -12.7662859063621
          14 :    3.38108932779869
          15 :    1.64911067421951
          16 :   -4.22036499535039
          17 :    6.24460821539162
          18 :   -8.63108627898930
          19 :    11.1332293997729
          20 :   -12.9564439034924
          21 :    13.5557264206030
          22 :   -13.0548786450873
          23 :    12.0886225228497
          24 :   -11.3055561866046
          25 :    10.9539912136465
          26 :   -10.8299468352259
          27 :    10.5486507562164
          28 :   -9.87847782882318
          29 :    8.88375848823108
          30 :   -7.81840836353928
          31 :   -39.7879781333096
          32 :   -29.1813242197999

     Forces acting on atoms (Ry/au):

     negative rho (up, down):  1.002E+00 0.000E+00
     atom    1 type  1   force =    -0.00000007    0.02050136   -0.01947219
     atom    2 type  1   force =     0.01775469   -0.01025077   -0.01947229
     atom    3 type  1   force =    -0.01775458   -0.01025024   -0.01947199
     atom    4 type  2   force =    -0.00000028   -0.00000012    0.04787594
     atom    5 type  1   force =     0.00000006   -0.01844810    0.00460851
     atom    6 type  1   force =    -0.01597753    0.00922337    0.00461044
     atom    7 type  1   force =     0.01597740    0.00922318    0.00461008
     atom    8 type  2   force =     0.00000011    0.00000006   -0.00826711
     atom    9 type  1   force =     0.00000004   -0.00030933    0.00121196
     atom   10 type  1   force =    -0.00026905    0.00015512    0.00121221
     atom   11 type  1   force =     0.00026927    0.00015560    0.00121225
     atom   12 type  2   force =    -0.00000007   -0.00000012    0.00134221

     Total force =     0.076486     Total SCF correction =     0.002449

     entering subroutine stress ...

     negative rho (up, down):  1.002E+00 0.000E+00
          total   stress  (Ry/bohr**3)                   (kbar)     P=  -13.43
  -0.00013833  -0.00000000  -0.00000000        -20.35     -0.00     -0.00
  -0.00000000  -0.00013833   0.00000000         -0.00    -20.35      0.00
  -0.00000000   0.00000000   0.00000279         -0.00      0.00      0.41

 !ASE

     Writing output data file calc.save

     General routines

     Parallel routines

   This run was terminated on:  14:16:27  26Dec2018

   JOB DONE.
Job  /afs/slac/g/suncat/bin/suncat-tsmpirun -x LD_LIBRARY_PATH -wdir /scratch/qe109872_mST7n pw.x -in pw.inp

TID   HOST_NAME   COMMAND_LINE            STATUS            TERMINATION_TIME
00000 suncat0025 pw.x -in pw.inp   Done                     12/26/2018 14:16:27
00001 suncat0025 pw.x -in pw.inp   Done                     12/26/2018 14:16:27
00002 suncat0025 pw.x -in pw.inp   Done                     12/26/2018 14:16:27
00003 suncat0025 pw.x -in pw.inp   Done                     12/26/2018 14:16:27
00004 suncat0025 pw.x -in pw.inp   Done                     12/26/2018 14:16:27
00005 suncat0025 pw.x -in pw.inp   Done                     12/26/2018 14:16:27
00006 suncat0025 pw.x -in pw.inp   Done                     12/26/2018 14:16:27
00007 suncat0025 pw.x -in pw.inp   Done                     12/26/2018 14:16:27
00008 suncat0013 pw.x -in pw.inp   Done                     12/26/2018 14:16:27
00009 suncat0013 pw.x -in pw.inp   Done                     12/26/2018 14:16:27
00010 suncat0013 pw.x -in pw.inp   Done                     12/26/2018 14:16:27
00011 suncat0013 pw.x -in pw.inp   Done                     12/26/2018 14:16:27
00012 suncat0013 pw.x -in pw.inp   Done                     12/26/2018 14:16:27
00013 suncat0013 pw.x -in pw.inp   Done                     12/26/2018 14:16:27
00014 suncat0013 pw.x -in pw.inp   Done                     12/26/2018 14:16:27
00015 suncat0013 pw.x -in pw.inp   Done                     12/26/2018 14:16:27
00016 suncat0008 pw.x -in pw.inp   Done                     12/26/2018 14:16:27
00017 suncat0008 pw.x -in pw.inp   Done                     12/26/2018 14:16:27
00018 suncat0008 pw.x -in pw.inp   Done                     12/26/2018 14:16:27
00019 suncat0008 pw.x -in pw.inp   Done                     12/26/2018 14:16:27
00020 suncat0008 pw.x -in pw.inp   Done                     12/26/2018 14:16:27
00021 suncat0008 pw.x -in pw.inp   Done                     12/26/2018 14:16:27
00022 suncat0008 pw.x -in pw.inp   Done                     12/26/2018 14:16:27
00023 suncat0008 pw.x -in pw.inp   Done                     12/26/2018 14:16:27
00024 suncat0001 pw.x -in pw.inp   Done                     12/26/2018 14:16:27
00025 suncat0001 pw.x -in pw.inp   Done                     12/26/2018 14:16:27
00026 suncat0001 pw.x -in pw.inp   Done                     12/26/2018 14:16:27
00027 suncat0001 pw.x -in pw.inp   Done                     12/26/2018 14:16:27
00028 suncat0001 pw.x -in pw.inp   Done                     12/26/2018 14:16:27
00029 suncat0001 pw.x -in pw.inp   Done                     12/26/2018 14:16:27
00030 suncat0001 pw.x -in pw.inp   Done                     12/26/2018 14:16:27
00031 suncat0001 pw.x -in pw.inp   Done                     12/26/2018 14:16:27
00032 suncat0184 pw.x -in pw.inp   Done                     12/26/2018 14:16:27
00033 suncat0184 pw.x -in pw.inp   Done                     12/26/2018 14:16:27
00034 suncat0184 pw.x -in pw.inp   Done                     12/26/2018 14:16:27
00035 suncat0184 pw.x -in pw.inp   Done                     12/26/2018 14:16:27
00036 suncat0184 pw.x -in pw.inp   Done                     12/26/2018 14:16:27
00037 suncat0184 pw.x -in pw.inp   Done                     12/26/2018 14:16:27
00038 suncat0184 pw.x -in pw.inp   Done                     12/26/2018 14:16:27
00039 suncat0184 pw.x -in pw.inp   Done                     12/26/2018 14:16:27
00040 suncat0142 pw.x -in pw.inp   Done                     12/26/2018 14:16:27
00041 suncat0142 pw.x -in pw.inp   Done                     12/26/2018 14:16:27
00042 suncat0142 pw.x -in pw.inp   Done                     12/26/2018 14:16:27
00043 suncat0142 pw.x -in pw.inp   Done                     12/26/2018 14:16:27
00044 suncat0142 pw.x -in pw.inp   Done                     12/26/2018 14:16:27
00045 suncat0142 pw.x -in pw.inp   Done                     12/26/2018 14:16:27
00046 suncat0142 pw.x -in pw.inp   Done                     12/26/2018 14:16:27
00047 suncat0142 pw.x -in pw.inp   Done                     12/26/2018 14:16:27
00048 suncat0117 pw.x -in pw.inp   Done                     12/26/2018 14:16:27
00049 suncat0117 pw.x -in pw.inp   Done                     12/26/2018 14:16:27
00050 suncat0117 pw.x -in pw.inp   Done                     12/26/2018 14:16:27
00051 suncat0117 pw.x -in pw.inp   Done                     12/26/2018 14:16:27
00052 suncat0117 pw.x -in pw.inp   Done                     12/26/2018 14:16:27
00053 suncat0117 pw.x -in pw.inp   Done                     12/26/2018 14:16:27
00054 suncat0117 pw.x -in pw.inp   Done                     12/26/2018 14:16:27
00055 suncat0117 pw.x -in pw.inp   Done                     12/26/2018 14:16:27
00056 suncat0116 pw.x -in pw.inp   Done                     12/26/2018 14:16:27
00057 suncat0116 pw.x -in pw.inp   Done                     12/26/2018 14:16:27
00058 suncat0116 pw.x -in pw.inp   Done                     12/26/2018 14:16:27
00059 suncat0116 pw.x -in pw.inp   Done                     12/26/2018 14:16:27
00060 suncat0116 pw.x -in pw.inp   Done                     12/26/2018 14:16:27
00061 suncat0116 pw.x -in pw.inp   Done                     12/26/2018 14:16:27
00062 suncat0116 pw.x -in pw.inp   Done                     12/26/2018 14:16:27
00063 suncat0116 pw.x -in pw.inp   Done                     12/26/2018 14:16:27