     Program PWSCF v.5.1rc2 (svn rev. 11289) starts on 27Dec2018 at 18:56:19

     Current dimensions of program PWSCF are:
     Max number of different atomic species (ntypx) = 10
     Max number of k-points (npk) =  40000
     Max angular momentum in pseudopotentials (lmaxx) =  3
     Presently stress not available with electric field

     IMPORTANT: XC functional enforced from input :
     Exchange-correlation      = BEEF-VDW ( 1  4 27 13 2)
     Any further DFT definition will be discarded
     Please, verify this is what you really want

     Subspace diagonalization in iterative solution of the eigenvalue problem:
     a serial algorithm will be used

     bravais-lattice index     =            0
     lattice parameter (alat)  =       1.8897  a.u.
     unit-cell volume          =    4482.0811 (a.u.)^3
     number of atoms/cell      =           12
     number of atomic types    =            2
     number of electrons       =       189.00
     number of Kohn-Sham states=          124
     kinetic-energy cutoff     =      36.7493  Ry
     charge density cutoff     =     367.4932  Ry
     convergence threshold     =      1.0E-06
     mixing beta               =       0.1000
     number of iterations used =           10  plain     mixing
     Exchange-correlation      = BEEF-VDW ( 1  4 27 13 2)
     nstep                     =           50

     celldm(1)=   1.889726  celldm(2)=   0.000000  celldm(3)=   0.000000
     celldm(4)=   0.000000  celldm(5)=   0.000000  celldm(6)=   0.000000

     crystal axes: (cart. coord. in units of alat)
               a(1) = (   5.587798   0.000000   0.000000 )
               a(2) = (  -2.793899   4.839175   0.000000 )
               a(3) = (   0.000000   0.000000  24.562418 )

     reciprocal axes: (cart. coord. in units 2 pi/alat)
               b(1) = (  0.178961  0.103323  0.000000 )
               b(2) = (  0.000000  0.206647  0.000000 )
               b(3) = (  0.000000  0.000000  0.040713 )

     PseudoPot. # 1 for Pt read from file:
     /afs/slac.stanford.edu/u/if/mamunm/psp/gbrv1.5pbe/Pt.UPF
     MD5 check sum: f09d6de1a584b5a045c4fc126da2d0c4
     Pseudo is Ultrasoft + core correction, Zval = 16.0
     Generated by new atomic code, or converted to UPF format
     Using radial grid of  985 points,  6 beta functions with:
                l(1) =   0
                l(2) =   0
                l(3) =   1
                l(4) =   1
                l(5) =   2
                l(6) =   2
     Q(r) pseudized with  8 coefficients,  rinner =    1.300   1.300   1.300
                                                       1.300   1.300

     PseudoPot. # 2 for Tc read from file:
     /afs/slac.stanford.edu/u/if/mamunm/psp/gbrv1.5pbe/Tc.UPF
     MD5 check sum: 9eb49e5b028550b2339a02317eb7b844
     Pseudo is Ultrasoft + core correction, Zval = 15.0
     Generated by new atomic code, or converted to UPF format
     Using radial grid of  965 points,  6 beta functions with:
                l(1) =   0
                l(2) =   0
                l(3) =   1
                l(4) =   1
                l(5) =   2
                l(6) =   2
     Q(r) pseudized with  8 coefficients,  rinner =    1.300   1.300   1.300
                                                       1.300   1.300

     vdW kernel table read from file vdW_kernel_table
     MD5 check sum: 095c7af220d748ca6e76c0b4c6cfb241

     atomic species   valence    mass     pseudopotential
        Pt1           16.00   195.08400     Pt( 1.00)
        Tc1           15.00    97.90721     Tc( 1.00)

     No symmetry found

   Cartesian axes

     site n.     atom                  positions (alat units)
         1           Pt1 tau(   1) = (   0.0000000   0.0000000  10.0000000  )
         2           Pt1 tau(   2) = (  -1.3969494   2.4195874  10.0000000  )
         3           Pt1 tau(   3) = (   1.3969494   2.4195874  10.0000000  )
         4           Tc1 tau(   4) = (   2.7938989   0.0000000  10.0000000  )
         5           Pt1 tau(   5) = (   2.7938989   1.6130583  12.2812089  )
         6           Pt1 tau(   6) = (   1.3969494   4.0326457  12.2812089  )
         7           Pt1 tau(   7) = (  -1.3969494   4.0326457  12.2812089  )
         8           Tc1 tau(   8) = (   0.0000000   1.6130583  12.2812089  )
         9           Pt1 tau(   9) = (  -0.0000000   3.2261166  14.5624178  )
        10           Pt1 tau(  10) = (   1.3969494   0.8065291  14.5624178  )
        11           Pt1 tau(  11) = (   4.1908483   0.8065291  14.5624178  )
        12           Tc1 tau(  12) = (   2.7938989   3.2261166  14.5624178  )

     number of k points=    20  Fermi-Dirac smearing, width (Ry)=  0.0110
                       cart. coord. in units 2pi/alat
        k(    1) = (   0.0000000   0.0000000   0.0000000), wk =   0.0555556
        k(    2) = (   0.0000000   0.0344411   0.0000000), wk =   0.1111111
        k(    3) = (   0.0000000   0.0688823   0.0000000), wk =   0.1111111
        k(    4) = (   0.0000000  -0.1033234   0.0000000), wk =   0.0555556
        k(    5) = (   0.0298269   0.0172206   0.0000000), wk =   0.1111111
        k(    6) = (   0.0298269   0.0516617   0.0000000), wk =   0.1111111
        k(    7) = (   0.0298269   0.0861028   0.0000000), wk =   0.1111111
        k(    8) = (   0.0298269  -0.0861028   0.0000000), wk =   0.1111111
        k(    9) = (   0.0298269  -0.0516617   0.0000000), wk =   0.1111111
        k(   10) = (   0.0298269  -0.0172206   0.0000000), wk =   0.1111111
        k(   11) = (   0.0596538   0.0344411   0.0000000), wk =   0.1111111
        k(   12) = (   0.0596538   0.0688823   0.0000000), wk =   0.1111111
        k(   13) = (   0.0596538   0.1033234   0.0000000), wk =   0.1111111
        k(   14) = (   0.0596538  -0.0688823   0.0000000), wk =   0.1111111
        k(   15) = (   0.0596538  -0.0344411   0.0000000), wk =   0.1111111
        k(   16) = (   0.0596538   0.0000000   0.0000000), wk =   0.1111111
        k(   17) = (  -0.0894807  -0.0516617   0.0000000), wk =   0.0555556
        k(   18) = (  -0.0894807  -0.0172206   0.0000000), wk =   0.1111111
        k(   19) = (  -0.0894807   0.0172206   0.0000000), wk =   0.1111111
        k(   20) = (  -0.0894807  -0.1549851   0.0000000), wk =   0.0555556

     Largest allocated arrays     est. size (Mb)     dimensions
     Largest temporary arrays     est. size (Mb)     dimensions

     Check: negative/imaginary core charge=   -0.000008    0.000000

     Initial potential from superposition of free atoms
     Check: negative starting charge=   -2.023724

     starting charge  181.49982, renormalised to  189.00000

     negative rho (up, down):  2.107E+00 0.000E+00

     *
     * You are using vdW-DF for exchange-correlation in this calculation.
     * Please cite the following three references that made this development
     * possible:
     *
     *   M. Dion, H. Rydberg, E. Schroder, D. C. Langreth, and
     *   B. I. Lundqvist, Phys. Rev. Lett. 92, 246401 (2004).
     *
     *   T. Thonhauser, V. R. Cooper, S. Li, A. Puzder, P. Hyldgaard, and
     *   D. C. Langreth, Phys. Rev. B 76, 125112 (2007).
     *
     *   G. Roman-Perez and J. M. Soler, Phys. Rev. Lett. 103, 096102 (2009).
     *
     *
     * If you are using vdW-DF2, please also cite:
     *
     *   K. Lee, E. D. Murray, L. Kong, B. I. Lundqvist, and
     *   D. C. Langreth, Phys. Rev. B 82, 081101(R) (2010).
     *
     *
     * If you are calculating the stress with vdW-DF, please also cite:
     *
     *   R. Sabatini, E. Kucukbenli, B. Kolb, T. Thonhauser, and
     *   S. de Gironcoli, J. Phys.: Condens. Matter 24, 424209 (2012).
     *

     Carrying out vdW-DF run using the following parameters:

     Nqs =      20    Nr_points =    1024   r_max =   100.000
     q_mesh =
               0.00001000     0.04494208     0.09755937     0.15916263
               0.23128650     0.31572767     0.41458969     0.53033537
               0.66584808     0.82450364     1.01025438     1.22772762
               1.48234092     1.78043706     2.12944203     2.53805004
               3.01644009     3.57652955     4.23227104     5.00000000

     Gradients computed in reciprocal space

     Adding external electric field

     Computed dipole along edir(3) :
        Dipole                0.0000 Ry au,          0.0000 Debye
        Dipole field          0.0000 Ry au

        Potential amp.       -0.0000 Ry
        Total length         45.2558 bohr

     Starting wfc are  147 randomized atomic wfcs

     Self-consistent Calculation

     iteration #  1     ecut=    36.75 Ry     beta=0.10
     Davidson diagonalization with overlap
     ethr =  1.00E-02,  avg # of iterations =  7.8

[...]

     total energy              =   -2434.93573913 Ry
     Harris-Foulkes estimate   =   -2442.39876934 Ry
     estimated scf accuracy    <      44.15202937 Ry

[...]

     End of self-consistent calculation

          k = 0.0000 0.0000 0.0000 ( 16787 PWs)   bands (ev):

   -65.6304 -65.1999 -65.1998 -51.3308 -51.2111 -51.2110 -51.1456 -51.1301
   -51.1301 -51.0543 -51.0126 -51.0126 -50.9267 -50.9219 -50.8820 -50.8820
   -50.8601 -50.8601 -50.7478 -50.7438 -50.6513 -50.6513 -50.6507 -50.6507
   -50.5933 -50.5705 -50.5575 -50.5575 -50.5458 -50.5458 -37.6879 -37.5532
   -37.5532 -37.1948 -37.1948 -37.1934 -37.1934 -37.1504 -37.1450  -6.5363
    -4.8728  -4.6139  -4.2659  -4.2659  -4.1644  -4.0273  -4.0273  -3.8902
    -3.6120  -3.5942  -3.5942  -3.3794  -3.3794  -3.3312  -2.2398  -2.0001
    -2.0001  -1.8157  -1.8157  -1.5967  -1.4162  -1.2349  -1.2349  -1.2291
    -1.1976  -0.9960  -0.9960  -0.7315  -0.7315  -0.6636  -0.6636  -0.5293
    -0.5293   0.2665   0.5999   0.6095   0.6095   0.6171   0.6172   0.7350
     0.7350   0.9726   1.4693   1.5018   1.6108   1.6108   1.8883   1.9344
     1.9344   2.2286   2.2935   2.3440   2.3440   2.6624   2.6624   2.7284
     2.7307   2.8677   2.8677   3.1472   3.1472   3.2868   3.3481   3.3481
     3.4702   3.4702   5.1329   5.1329   5.1460   5.1460   5.2542   5.3871
     6.3992   6.6864   7.0129   7.9448   7.9448   7.9540   8.0319   8.0319
     8.6480   9.0873   9.0873   9.3553

[...]

          k =-0.0895-0.0517 0.0000 ( 16884 PWs)   bands (ev):

[...]

     the Fermi energy is     2.0058 ev

!    total energy              =   -2436.93475784 Ry
     Harris-Foulkes estimate   =   -2436.93471999 Ry
     estimated scf accuracy    <       0.00000084 Ry

     The total energy is the sum of the following terms:

     one-electron contribution =  -19538.02811725 Ry
     hartree contribution      =    9794.63094061 Ry
     xc contribution           =    -626.50166964 Ry
     ewald contribution        =    7933.07132515 Ry
     electric field correction =       0.00000001 Ry
     smearing contrib. (-TS)   =      -0.10723672 Ry

     convergence has been achieved in  18 iterations

 BEEF-vdW xc energy contributions
           1 :   -556.087489552724
           2 :    516.631535718437
           3 :   -445.911594205821
           4 :    357.452855681231
           5 :   -266.064755500890
           6 :    183.955644928521
           7 :   -118.292978882485
           8 :    70.6692074311143
           9 :   -38.3504042639242
          10 :    16.5310343368967
[...]
     Pseudo is Ultrasoft + core correction, Zval = 16.0
     Generated by new atomic code, or converted to UPF format
     Using radial grid of  985 points,  6 beta functions with:
                l(1) =   0
                l(2) =   0
                l(3) =   1
                l(4) =   1
                l(5) =   2
                l(6) =   2
     Q(r) pseudized with  8 coefficients,  rinner =    1.300   1.300   1.300
                                                       1.300   1.300

     PseudoPot. # 2 for Tc read from file:
     /afs/slac.stanford.edu/u/if/mamunm/psp/gbrv1.5pbe/Tc.UPF
     MD5 check sum: 9eb49e5b028550b2339a02317eb7b844
     Pseudo is Ultrasoft + core correction, Zval = 15.0
     Generated by new atomic code, or converted to UPF format
     Using radial grid of  965 points,  6 beta functions with:
                l(1) =   0
                l(2) =   0
                l(3) =   1
                l(4) =   1
                l(5) =   2
                l(6) =   2
     Q(r) pseudized with  8 coefficients,  rinner =    1.300   1.300   1.300
                                                       1.300   1.300

     vdW kernel table read from file vdW_kernel_table
     MD5 check sum: 095c7af220d748ca6e76c0b4c6cfb241

     atomic species   valence    mass     pseudopotential
        Pt1           16.00   195.08400     Pt( 1.00)
        Tc1           15.00    97.90721     Tc( 1.00)

     No symmetry found

   Cartesian axes

     site n.     atom                  positions (alat units)
         1           Pt1 tau(   1) = (   0.0000000   0.0000000  10.0000000  )
         2           Pt1 tau(   2) = (  -1.3969494   2.4195874  10.0000000  )
         3           Pt1 tau(   3) = (   1.3969494   2.4195874  10.0000000  )
         4           Tc1 tau(   4) = (   2.7938989   0.0000000  10.0000000  )
         5           Pt1 tau(   5) = (   2.7938989   1.6130583  12.2812089  )
         6           Pt1 tau(   6) = (   1.3969494   4.0326457  12.2812089  )
         7           Pt1 tau(   7) = (  -1.3969494   4.0326457  12.2812089  )
         8           Tc1 tau(   8) = (   0.0000000   1.6130583  12.2812089  )
         9           Pt1 tau(   9) = (  -0.0000003   3.1942130  14.5535671  )
        10           Pt1 tau(  10) = (   1.3693208   0.8224812  14.5535675  )
        11           Pt1 tau(  11) = (   4.2184776   0.8224813  14.5535666  )
        12           Tc1 tau(  12) = (   2.7939002   3.2261171  14.4830757  )

     number of k points=    20  Fermi-Dirac smearing, width (Ry)=  0.0110
                       cart. coord. in units 2pi/alat
        k(    1) = (   0.0000000   0.0000000   0.0000000), wk =   0.0555556
        k(    2) = (   0.0000000   0.0344411   0.0000000), wk =   0.1111111
        k(    3) = (   0.0000000   0.0688823   0.0000000), wk =   0.1111111
        k(    4) = (   0.0000000  -0.1033234   0.0000000), wk =   0.0555556
        k(    5) = (   0.0298269   0.0172206   0.0000000), wk =   0.1111111
        k(    6) = (   0.0298269   0.0516617   0.0000000), wk =   0.1111111
        k(    7) = (   0.0298269   0.0861028   0.0000000), wk =   0.1111111
        k(    8) = (   0.0298269  -0.0861028   0.0000000), wk =   0.1111111
        k(    9) = (   0.0298269  -0.0516617   0.0000000), wk =   0.1111111
        k(   10) = (   0.0298269  -0.0172206   0.0000000), wk =   0.1111111
        k(   11) = (   0.0596538   0.0344411   0.0000000), wk =   0.1111111
        k(   12) = (   0.0596538   0.0688823   0.0000000), wk =   0.1111111
        k(   13) = (   0.0596538   0.1033234   0.0000000), wk =   0.1111111
        k(   14) = (   0.0596538  -0.0688823   0.0000000), wk =   0.1111111
        k(   15) = (   0.0596538  -0.0344411   0.0000000), wk =   0.1111111
        k(   16) = (   0.0596538   0.0000000   0.0000000), wk =   0.1111111
        k(   17) = (  -0.0894807  -0.0516617   0.0000000), wk =   0.0555556
        k(   18) = (  -0.0894807  -0.0172206   0.0000000), wk =   0.1111111
        k(   19) = (  -0.0894807   0.0172206   0.0000000), wk =   0.1111111
        k(   20) = (  -0.0894807  -0.1549851   0.0000000), wk =   0.0555556

     Largest allocated arrays     est. size (Mb)     dimensions
     Largest temporary arrays     est. size (Mb)     dimensions

     Check: negative/imaginary core charge=   -0.000008    0.000000

     Initial potential from superposition of free atoms
     Check: negative starting charge=   -2.022631

     starting charge  181.49982, renormalised to  189.00000

[...]

     *
     * You are using vdW-DF for exchange-correlation in this calculation.
     * Please cite the following three references that made this development
     * possible:
     *
     *   M. Dion, H. Rydberg, E. Schroder, D. C. Langreth, and
     *   B. I. Lundqvist, Phys. Rev. Lett. 92, 246401 (2004).
     *
     *   T. Thonhauser, V. R. Cooper, S. Li, A. Puzder, P. Hyldgaard, and
     *   D. C. Langreth, Phys. Rev. B 76, 125112 (2007).
     *
     *   G. Roman-Perez and J. M. Soler, Phys. Rev. Lett. 103, 096102 (2009).
     *
     *
     * If you are using vdW-DF2, please also cite:
     *
     *   K. Lee, E. D. Murray, L. Kong, B. I. Lundqvist, and
     *   D. C. Langreth, Phys. Rev. B 82, 081101(R) (2010).
     *
     *
     * If you are calculating the stress with vdW-DF, please also cite:
     *
     *   R. Sabatini, E. Kucukbenli, B. Kolb, T. Thonhauser, and
     *   S. de Gironcoli, J. Phys.: Condens. Matter 24, 424209 (2012).
     *

     Carrying out vdW-DF run using the following parameters:

     Nqs =      20    Nr_points =    1024   r_max =   100.000
     q_mesh =
               0.00001000     0.04494208     0.09755937     0.15916263
               0.23128650     0.31572767     0.41458969     0.53033537
               0.66584808     0.82450364     1.01025438     1.22772762
               1.48234092     1.78043706     2.12944203     2.53805004
               3.01644009     3.57652955     4.23227104     5.00000000

     Gradients computed in reciprocal space

[...]

     Starting wfc are  147 randomized atomic wfcs

     Self-consistent Calculation

[...]

     total energy              =   -2436.95315117 Ry
     Harris-Foulkes estimate   =   -2436.95314217 Ry
     estimated scf accuracy    <       0.00000238 Ry

     iteration # 18     ecut=    36.75 Ry     beta=0.10
     Davidson diagonalization with overlap
     ethr =  1.26E-09,  avg # of iterations =  2.0

[...]

     negative rho (up, down):  1.971E+00 0.000E+00

     Adding external electric field

     Computed dipole along edir(3) :
        Dipole                0.0038 Ry au,          0.0097 Debye
        Dipole field          0.0000 Ry au

        Potential amp.       -0.0010 Ry
        Total length         45.2558 bohr

     End of self-consistent calculation

[...]

          k = 0.0597 0.0000 0.0000 ( 16844 PWs)   bands (ev):

[...]

          k =-0.0895-0.1550 0.0000 ( 16884 PWs)   bands (ev):

   -65.6360 -65.2198 -65.1719 -51.2958 -51.2176 -51.1824 -51.1755 -51.1455
   -51.1304 -51.1199 -51.1103 -51.0319 -50.9018 -50.8737 -50.8354 -50.8314
   -50.8047 -50.7944 -50.7927 -50.7826 -50.7595 -50.7502 -50.6739 -50.6528
   -50.5918 -50.5789 -50.5673 -50.5618 -50.5494 -50.5405 -37.7066 -37.5633
   -37.5580 -37.2200 -37.2148 -37.1851 -37.1786 -37.1738 -37.1133  -5.0120
    -4.7285  -3.6787  -3.5874  -3.4665  -3.3556  -3.3503  -3.2371  -3.2068
    -2.9917  -2.9636  -2.7581  -2.6652  -2.4497  -2.4120  -2.3062  -2.2688
    -2.2221  -2.0859  -2.0178  -1.6612  -1.6067  -1.4203  -1.3285  -1.2538
    -1.2110  -1.1921  -1.0945  -1.0394  -0.9868  -0.9067  -0.8859  -0.8256
    -0.7864  -0.7123  -0.6165  -0.4967  -0.4187  -0.2729  -0.1093  -0.0432
     0.1123   0.1500   0.3414   0.3486   0.3706   0.7681   0.8748   0.8760
     0.9781   1.2387   1.3186   1.5063   1.5859   1.6629   1.6921   1.7047
     1.9521   2.0892   2.1037   2.4005   2.5185   2.6697   3.1546   3.8431
     4.0538   4.1603   5.0281   5.1787   5.7585   6.4665   6.6295   7.0476
     7.4210   7.9245   7.9394   8.4491   8.4714   8.5105   8.5232   9.5207
     9.6985   9.7221   9.8811   9.9362

     the Fermi energy is     2.0133 ev

!    total energy              =   -2436.95319074 Ry
     Harris-Foulkes estimate   =   -2436.95315146 Ry
     estimated scf accuracy    <       0.00000077 Ry

     The total energy is the sum of the following terms:

     one-electron contribution =  -19609.76246099 Ry
     hartree contribution      =    9830.45976311 Ry
     xc contribution           =    -626.57521842 Ry
     ewald contribution        =    7969.03073305 Ry
     electric field correction =       0.00000004 Ry
     smearing contrib. (-TS)   =      -0.10600752 Ry

     convergence has been achieved in  18 iterations

 BEEF-vdW xc energy contributions
           1 :   -556.600325116165
           2 :    517.169342914157
           3 :   -446.484223026451
           4 :    358.047077606183
           5 :   -266.648036027777
           6 :    184.491910713890
           7 :   -118.761428876001
           8 :    71.0764414206498
           9 :   -38.7287464453545
          10 :    16.9243834201965
          11 :   -1.09740307953598
          12 :   -11.5613251293117
          13 :    21.7220317701978
          14 :   -28.5699524997730
          15 :    30.9665636563549
          16 :   -28.5198441391400
          17 :    22.0961579125982
          18 :   -13.6487416576094
          19 :    5.53241565349856
          20 :   0.313331623587715
          21 :   -2.94839250208292
          22 :    2.56221267031583
          23 :  -0.172933359625517
          24 :   -2.91765307683238
          25 :    5.64794711736045
          26 :   -7.49986055804732
          27 :    8.50247221199515
          28 :   -9.00749932806502
          29 :    9.38551700753499
          30 :   -9.79878135742592
          31 :   -46.6949539373459
          32 :   -34.4926789874154

     Forces acting on atoms (Ry/au):

     negative rho (up, down):  1.971E+00 0.000E+00
     atom    1 type  1   force =     0.00000017    0.01883029   -0.00004183
     atom    2 type  1   force =     0.01630766   -0.00941480   -0.00004161
     atom    3 type  1   force =    -0.01630733   -0.00941502   -0.00004185
     atom    4 type  2   force =    -0.00000026   -0.00000023    0.01663002
     atom    5 type  1   force =    -0.00000015   -0.00459821   -0.00402838
     atom    6 type  1   force =    -0.00398231    0.00229891   -0.00402857
     atom    7 type  1   force =     0.00398253    0.00229906   -0.00402853
     atom    8 type  2   force =    -0.00000020    0.00000033   -0.00439030
     atom    9 type  1   force =     0.00000026   -0.00004202   -0.00015745
     atom   10 type  1   force =    -0.00003653    0.00002135   -0.00015768
     atom   11 type  1   force =     0.00003646    0.00002094   -0.00015713
     atom   12 type  2   force =    -0.00000031   -0.00000060    0.00044331

     Total force =     0.038366     Total SCF correction =     0.002860

     entering subroutine stress ...

     negative rho (up, down):  1.971E+00 0.000E+00
          total   stress  (Ry/bohr**3)                   (kbar)     P=  -22.32
  -0.00021226   0.00000000   0.00000000        -31.22      0.00      0.00
   0.00000000  -0.00021226  -0.00000000          0.00    -31.22     -0.00
   0.00000000  -0.00000000  -0.00003062          0.00     -0.00     -4.50

 !ASE

     Writing output data file calc.save

     General routines

     Parallel routines

   This run was terminated on:  20:17:48  27Dec2018

   JOB DONE.
Job  /afs/slac/g/suncat/bin/suncat-tsmpirun -x LD_LIBRARY_PATH -wdir /scratch/qe110567_PLcIG pw.x -in pw.inp

TID   HOST_NAME   COMMAND_LINE            STATUS            TERMINATION_TIME
00000 suncat0152 pw.x -in pw.inp   Done                     12/27/2018 20:17:48
00001 suncat0152 pw.x -in pw.inp   Done                     12/27/2018 20:17:48
00002 suncat0152 pw.x -in pw.inp   Done                     12/27/2018 20:17:48
00003 suncat0152 pw.x -in pw.inp   Done                     12/27/2018 20:17:48
00004 suncat0152 pw.x -in pw.inp   Done                     12/27/2018 20:17:48
00005 suncat0152 pw.x -in pw.inp   Done                     12/27/2018 20:17:48
00006 suncat0152 pw.x -in pw.inp   Done                     12/27/2018 20:17:48
00007 suncat0152 pw.x -in pw.inp   Done                     12/27/2018 20:17:48
00008 suncat0150 pw.x -in pw.inp   Done                     12/27/2018 20:17:48
00009 suncat0150 pw.x -in pw.inp   Done                     12/27/2018 20:17:48
00010 suncat0150 pw.x -in pw.inp   Done                     12/27/2018 20:17:48
00011 suncat0150 pw.x -in pw.inp   Done                     12/27/2018 20:17:48
00012 suncat0150 pw.x -in pw.inp   Done                     12/27/2018 20:17:48
00013 suncat0150 pw.x -in pw.inp   Done                     12/27/2018 20:17:48
00014 suncat0150 pw.x -in pw.inp   Done                     12/27/2018 20:17:48
00015 suncat0150 pw.x -in pw.inp   Done                     12/27/2018 20:17:48
00016 suncat0248 pw.x -in pw.inp   Done                     12/27/2018 20:17:48
00017 suncat0248 pw.x -in pw.inp   Done                     12/27/2018 20:17:48
00018 suncat0248 pw.x -in pw.inp   Done                     12/27/2018 20:17:48
00019 suncat0248 pw.x -in pw.inp   Done                     12/27/2018 20:17:48
00020 suncat0248 pw.x -in pw.inp   Done                     12/27/2018 20:17:48
00021 suncat0248 pw.x -in pw.inp   Done                     12/27/2018 20:17:48
00022 suncat0248 pw.x -in pw.inp   Done                     12/27/2018 20:17:48
00023 suncat0248 pw.x -in pw.inp   Done                     12/27/2018 20:17:48
00024 suncat0247 pw.x -in pw.inp   Done                     12/27/2018 20:17:48
00025 suncat0247 pw.x -in pw.inp   Done                     12/27/2018 20:17:48
00026 suncat0247 pw.x -in pw.inp   Done                     12/27/2018 20:17:48
00027 suncat0247 pw.x -in pw.inp   Done                     12/27/2018 20:17:48
00028 suncat0247 pw.x -in pw.inp   Done                     12/27/2018 20:17:48
00029 suncat0247 pw.x -in pw.inp   Done                     12/27/2018 20:17:48
00030 suncat0247 pw.x -in pw.inp   Done                     12/27/2018 20:17:48
00031 suncat0247 pw.x -in pw.inp   Done                     12/27/2018 20:17:48
00032 suncat0246 pw.x -in pw.inp   Done                     12/27/2018 20:17:48
00033 suncat0246 pw.x -in pw.inp   Done                     12/27/2018 20:17:48
00034 suncat0246 pw.x -in pw.inp   Done                     12/27/2018 20:17:48
00035 suncat0246 pw.x -in pw.inp   Done                     12/27/2018 20:17:48
00036 suncat0246 pw.x -in pw.inp   Done                     12/27/2018 20:17:48
00037 suncat0246 pw.x -in pw.inp   Done                     12/27/2018 20:17:48
00038 suncat0246 pw.x -in pw.inp   Done                     12/27/2018 20:17:48
00039 suncat0246 pw.x -in pw.inp   Done                     12/27/2018 20:17:48
00040 suncat0245 pw.x -in pw.inp   Done                     12/27/2018 20:17:48
00041 suncat0245 pw.x -in pw.inp   Done                     12/27/2018 20:17:48
00042 suncat0245 pw.x -in pw.inp   Done                     12/27/2018 20:17:48
00043 suncat0245 pw.x -in pw.inp   Done                     12/27/2018 20:17:48
00044 suncat0245 pw.x -in pw.inp   Done                     12/27/2018 20:17:48
00045 suncat0245 pw.x -in pw.inp   Done                     12/27/2018 20:17:48
00046 suncat0245 pw.x -in pw.inp   Done                     12/27/2018 20:17:48
00047 suncat0245 pw.x -in pw.inp   Done                     12/27/2018 20:17:48
00048 suncat0214 pw.x -in pw.inp   Done                     12/27/2018 20:17:48
00049 suncat0214 pw.x -in pw.inp   Done                     12/27/2018 20:17:48
00050 suncat0214 pw.x -in pw.inp   Done                     12/27/2018 20:17:48
00051 suncat0214 pw.x -in pw.inp   Done                     12/27/2018 20:17:48
00052 suncat0214 pw.x -in pw.inp   Done                     12/27/2018 20:17:48
00053 suncat0214 pw.x -in pw.inp   Done                     12/27/2018 20:17:48
00054 suncat0214 pw.x -in pw.inp   Done                     12/27/2018 20:17:48
00055 suncat0214 pw.x -in pw.inp   Done                     12/27/2018 20:17:48
00056 suncat0213 pw.x -in pw.inp   Done                     12/27/2018 20:17:48
00057 suncat0213 pw.x -in pw.inp   Done                     12/27/2018 20:17:48
00058 suncat0213 pw.x -in pw.inp   Done                     12/27/2018 20:17:48
00059 suncat0213 pw.x -in pw.inp   Done                     12/27/2018 20:17:48
00060 suncat0213 pw.x -in pw.inp   Done                     12/27/2018 20:17:48
00061 suncat0213 pw.x -in pw.inp   Done                     12/27/2018 20:17:48
00062 suncat0213 pw.x -in pw.inp   Done                     12/27/2018 20:17:48
00063 suncat0213 pw.x -in pw.inp   Done                     12/27/2018 20:17:48