     Program PWSCF v.5.1rc2 starts on 14Nov2017 at 15: 7:32

     Current dimensions of program PWSCF are:
     Max number of different atomic species (ntypx) = 10
     Max number of k-points (npk) =  40000
     Max angular momentum in pseudopotentials (lmaxx) =  3

     IMPORTANT: XC functional enforced from input :
     Exchange-correlation      = BEEF-VDW ( 1  4 27 13 2)
     Any further DFT definition will be discarded
     Please, verify this is what you really want

     Found symmetry operation: I + ( -0.5000 -0.5000  0.0000)
     This is a supercell, fractional translations are disabled

     bravais-lattice index     =            0
     lattice parameter (alat)  =       1.8897  a.u.
     unit-cell volume          =     728.2704 (a.u.)^3
     number of atoms/cell      =            4
     number of atomic types    =            2
     number of electrons       =        44.00
     number of Kohn-Sham states=           42
     kinetic-energy cutoff     =      58.7989  Ry
     charge density cutoff     =     587.9892  Ry
     convergence threshold     =      1.0E-06
     mixing beta               =       0.1000
     number of iterations used =           10  plain     mixing
     Exchange-correlation      = BEEF-VDW ( 1  4 27 13 2)

     celldm(1)=   1.889726  celldm(2)=   0.000000  celldm(3)=   0.000000
     celldm(4)=   0.000000  celldm(5)=   0.000000  celldm(6)=   0.000000

     crystal axes: (cart. coord. in units of alat)
               a(1) = (   5.210502   0.000000   0.000000 )
               a(2) = (   0.000000   5.210502   0.000000 )
               a(3) = (   0.000000   0.000000   3.974998 )

     reciprocal axes: (cart. coord. in units 2 pi/alat)
               b(1) = (  0.191920  0.000000  0.000000 )
               b(2) = (  0.000000  0.191920  0.000000 )
               b(3) = (  0.000000  0.000000  0.251572 )

     PseudoPot. # 1 for La read from file:
     /home/users/vossj/suncat/psp/gbrv1.5pbe/La.UPF
     MD5 check sum: 5937b0c7494ba0601a847275249473aa
     Pseudo is Ultrasoft + core correction, Zval = 11.0
     Generated by new atomic code, or converted to UPF format
     Using radial grid of  995 points,  8 beta functions with:
                l(1) =   0
                l(2) =   0
                l(3) =   1
                l(4) =   1
                l(5) =   2
                l(6) =   2
                l(7) =   3
                l(8) =   3
     Q(r) pseudized with  8 coefficients,  rinner =    1.700   1.700   1.700
                                                       1.700   1.700   1.700
                                                       1.700

     PseudoPot. # 2 for Au read from file:
     /home/users/vossj/suncat/psp/gbrv1.5pbe/Au.UPF
     MD5 check sum: 9d7f43293ad2c663164586bc4b293ffc
     Pseudo is Ultrasoft + core correction, Zval = 11.0
     Generated by new atomic code, or converted to UPF format
     Using radial grid of  985 points,  7 beta functions with:
                l(1) =   0
                l(2) =   0
                l(3) =   1
                l(4) =   1
                l(5) =   2
                l(6) =   2
                l(7) =   3
     Q(r) pseudized with  6 coefficients,  rinner =    1.900   1.900   1.900
                                                       1.900   1.900   1.900
                                                       1.900

     vdW kernel table read from file vdW_kernel_table
     MD5 check sum: 095c7af220d748ca6e76c0b4c6cfb241

     atomic species   valence    mass     pseudopotential
        La1           11.00   138.90550     La( 1.00)
        Au1           11.00   196.96650     Au( 1.00)

     16 Sym. Ops., with inversion, found

   Cartesian axes

     site n.     atom                  positions (alat units)
         1           La1 tau(   1) = (   0.0000000   0.0000000   0.0000000  )
         2           La1 tau(   2) = (   2.6052508   2.6052508   0.0000000  )
         3           Au1 tau(   3) = (   2.6052508   0.0000000   1.9874992  )
         4           Au1 tau(   4) = (   0.0000000   2.6052508   1.9874992  )

     number of k points=    75  Fermi-Dirac smearing, width (Ry)=  0.0073
                       cart. coord. in units 2pi/alat
        k(    1) = (   0.0000000   0.0000000   0.0000000), wk =   0.0027435
        k(    2) = (   0.0000000   0.0000000   0.0279525), wk =   0.0054870
        k(    3) = (   0.0000000   0.0000000   0.0559050), wk =   0.0054870
        k(    4) = (   0.0000000   0.0000000   0.0838575), wk =   0.0054870
        k(    5) = (   0.0000000   0.0000000   0.1118100), wk =   0.0054870
        k(    6) = (   0.0000000   0.0213245   0.0000000), wk =   0.0109739
        k(    7) = (   0.0000000   0.0213245   0.0279525), wk =   0.0219479
        k(    8) = (   0.0000000   0.0213245   0.0559050), wk =   0.0219479
        k(    9) = (   0.0000000   0.0213245   0.0838575), wk =   0.0219479
        k(   10) = (   0.0000000   0.0213245   0.1118100), wk =   0.0219479
        k(   11) = (   0.0000000   0.0426489   0.0000000), wk =   0.0109739
        k(   12) = (   0.0000000   0.0426489   0.0279525), wk =   0.0219479
        k(   13) = (   0.0000000   0.0426489   0.0559050), wk =   0.0219479
        k(   14) = (   0.0000000   0.0426489   0.0838575), wk =   0.0219479
        k(   15) = (   0.0000000   0.0426489   0.1118100), wk =   0.0219479
        k(   16) = (   0.0000000   0.0639734   0.0000000), wk =   0.0109739
        k(   17) = (   0.0000000   0.0639734   0.0279525), wk =   0.0219479
        k(   18) = (   0.0000000   0.0639734   0.0559050), wk =   0.0219479
        k(   19) = (   0.0000000   0.0639734   0.0838575), wk =   0.0219479
        k(   20) = (   0.0000000   0.0639734   0.1118100), wk =   0.0219479
        k(   21) = (   0.0000000   0.0852978   0.0000000), wk =   0.0109739
        k(   22) = (   0.0000000   0.0852978   0.0279525), wk =   0.0219479
        k(   23) = (   0.0000000   0.0852978   0.0559050), wk =   0.0219479
        k(   24) = (   0.0000000   0.0852978   0.0838575), wk =   0.0219479
        k(   25) = (   0.0000000   0.0852978   0.1118100), wk =   0.0219479
        k(   26) = (   0.0213245   0.0213245   0.0000000), wk =   0.0109739
        k(   27) = (   0.0213245   0.0213245   0.0279525), wk =   0.0219479
        k(   28) = (   0.0213245   0.0213245   0.0559050), wk =   0.0219479
        k(   29) = (   0.0213245   0.0213245   0.0838575), wk =   0.0219479
        k(   30) = (   0.0213245   0.0213245   0.1118100), wk =   0.0219479
        k(   31) = (   0.0213245   0.0426489   0.0000000), wk =   0.0219479
        k(   32) = (   0.0213245   0.0426489   0.0279525), wk =   0.0438957
        k(   33) = (   0.0213245   0.0426489   0.0559050), wk =   0.0438957
        k(   34) = (   0.0213245   0.0426489   0.0838575), wk =   0.0438957
        k(   35) = (   0.0213245   0.0426489   0.1118100), wk =   0.0438957
        k(   36) = (   0.0213245   0.0639734   0.0000000), wk =   0.0219479
        k(   37) = (   0.0213245   0.0639734   0.0279525), wk =   0.0438957
        k(   38) = (   0.0213245   0.0639734   0.0559050), wk =   0.0438957
        k(   39) = (   0.0213245   0.0639734   0.0838575), wk =   0.0438957
        k(   40) = (   0.0213245   0.0639734   0.1118100), wk =   0.0438957
        k(   41) = (   0.0213245   0.0852978   0.0000000), wk =   0.0219479
        k(   42) = (   0.0213245   0.0852978   0.0279525), wk =   0.0438957
        k(   43) = (   0.0213245   0.0852978   0.0559050), wk =   0.0438957
        k(   44) = (   0.0213245   0.0852978   0.0838575), wk =   0.0438957
        k(   45) = (   0.0213245   0.0852978   0.1118100), wk =   0.0438957
        k(   46) = (   0.0426489   0.0426489   0.0000000), wk =   0.0109739
        k(   47) = (   0.0426489   0.0426489   0.0279525), wk =   0.0219479
        k(   48) = (   0.0426489   0.0426489   0.0559050), wk =   0.0219479
        k(   49) = (   0.0426489   0.0426489   0.0838575), wk =   0.0219479
        k(   50) = (   0.0426489   0.0426489   0.1118100), wk =   0.0219479
        k(   51) = (   0.0426489   0.0639734   0.0000000), wk =   0.0219479
        k(   52) = (   0.0426489   0.0639734   0.0279525), wk =   0.0438957
        k(   53) = (   0.0426489   0.0639734   0.0559050), wk =   0.0438957
        k(   54) = (   0.0426489   0.0639734   0.0838575), wk =   0.0438957
        k(   55) = (   0.0426489   0.0639734   0.1118100), wk =   0.0438957
        k(   56) = (   0.0426489   0.0852978   0.0000000), wk =   0.0219479
        k(   57) = (   0.0426489   0.0852978   0.0279525), wk =   0.0438957
        k(   58) = (   0.0426489   0.0852978   0.0559050), wk =   0.0438957
        k(   59) = (   0.0426489   0.0852978   0.0838575), wk =   0.0438957
        k(   60) = (   0.0426489   0.0852978   0.1118100), wk =   0.0438957
        k(   61) = (   0.0639734   0.0639734   0.0000000), wk =   0.0109739
        k(   62) = (   0.0639734   0.0639734   0.0279525), wk =   0.0219479
        k(   63) = (   0.0639734   0.0639734   0.0559050), wk =   0.0219479
        k(   64) = (   0.0639734   0.0639734   0.0838575), wk =   0.0219479
        k(   65) = (   0.0639734   0.0639734   0.1118100), wk =   0.0219479
        k(   66) = (   0.0639734   0.0852978   0.0000000), wk =   0.0219479
        k(   67) = (   0.0639734   0.0852978   0.0279525), wk =   0.0438957
        k(   68) = (   0.0639734   0.0852978   0.0559050), wk =   0.0438957
        k(   69) = (   0.0639734   0.0852978   0.0838575), wk =   0.0438957
        k(   70) = (   0.0639734   0.0852978   0.1118100), wk =   0.0438957
        k(   71) = (   0.0852978   0.0852978   0.0000000), wk =   0.0109739
        k(   72) = (   0.0852978   0.0852978   0.0279525), wk =   0.0219479
        k(   73) = (   0.0852978   0.0852978   0.0559050), wk =   0.0219479
        k(   74) = (   0.0852978   0.0852978   0.0838575), wk =   0.0219479
        k(   75) = (   0.0852978   0.0852978   0.1118100), wk =   0.0219479

     Largest allocated arrays     est. size (Mb)     dimensions
     Largest temporary arrays     est. size (Mb)     dimensions

     Initial potential from superposition of free atoms
     Check: negative starting charge=   -0.140171

     starting charge   43.93562, renormalised to   44.00000

     negative rho (up, down):  1.404E-01 0.000E+00

     *
     * You are using vdW-DF for exchange-correlation in this calculation.
     * Please cite the following three references that made this development
     * possible:
     *
     *   M. Dion, H. Rydberg, E. Schroder, D. C. Langreth, and
     *   B. I. Lundqvist, Phys. Rev. Lett. 92, 246401 (2004).
     *
     *   T. Thonhauser, V. R. Cooper, S. Li, A. Puzder, P. Hyldgaard, and
     *   D. C. Langreth, Phys. Rev. B 76, 125112 (2007).
     *
     *   G. Roman-Perez and J. M. Soler, Phys. Rev. Lett. 103, 096102 (2009).
     *
     *
     * If you are using vdW-DF2, please also cite:
     *
     *   K. Lee, E. D. Murray, L. Kong, B. I. Lundqvist, and
     *   D. C. Langreth, Phys. Rev. B 82, 081101(R) (2010).
     *
     *
     * If you are calculating the stress with vdW-DF, please also cite:
     *
     *   R. Sabatini, E. Kucukbenli, B. Kolb, T. Thonhauser, and
     *   S. de Gironcoli, J. Phys.: Condens. Matter 24, 424209 (2012).
     *

     Carrying out vdW-DF run using the following parameters:

     Nqs =      20    Nr_points =    1024   r_max =   100.000
     q_mesh =
               0.00001000     0.04494208     0.09755937     0.15916263
               0.23128650     0.31572767     0.41458969     0.53033537
               0.66584808     0.82450364     1.01025438     1.22772762
               1.48234092     1.78043706     2.12944203     2.53805004
               3.01644009     3.57652955     4.23227104     5.00000000

     Gradients computed in reciprocal space

     Starting wfc are   58 randomized atomic wfcs

     Self-consistent Calculation

     iteration #  1     ecut=    58.80 Ry     beta=0.10
     Davidson diagonalization with overlap
     ethr =  1.00E-02,  avg # of iterations =  2.0

[...]

     total energy              =    -441.75093262 Ry
     Harris-Foulkes estimate   =    -441.84473010 Ry
     estimated scf accuracy    <       0.53778332 Ry

[...]

     total energy              =    -441.75096828 Ry
     Harris-Foulkes estimate   =    -441.75092290 Ry
     estimated scf accuracy    <       0.00000338 Ry

     iteration # 11     ecut=    58.80 Ry     beta=0.10
     Davidson diagonalization with overlap
     ethr =  7.68E-09,  avg # of iterations =  2.8

     negative rho (up, down):  1.004E-01 0.000E+00

     End of self-consistent calculation

          k = 0.0000 0.0000 0.0000 (  5531 PWs)   bands (ev):

   -20.6922 -20.5383  -4.6098  -4.6098  -4.0813  -3.8982  -3.8806  -3.8806
     6.5346   7.2730   7.4298   7.4601   7.5487   7.7798   7.7798   8.2959
     8.2959   8.4660   8.9785   9.9770  13.0161  13.3577  13.5250  13.5251
    14.0965  14.1038  14.1581  14.2338  14.2338  14.2420  14.2420  14.2750
    14.2750  14.4531  14.4600  14.5574  14.5661  15.2377  15.2377  16.0649
    16.0649  17.3715

[...]

          k = 0.0853 0.0853 0.1118 (  5542 PWs)   bands (ev):

   -20.5856 -20.5810  -4.6729  -4.6531  -4.4202  -4.4119  -3.7863  -3.7622
     7.2583   7.2784   7.6506   7.6577   8.0259   8.0298   8.0393   8.0539
     8.7270   8.7391   9.5776   9.6293  13.1365  13.1774  13.4349  13.4958
    13.7962  13.8805  14.1889  14.1909  14.2033  14.2077  14.2235  14.2287
    14.5255  14.5314  14.5996  14.6304  14.8486  14.8602  14.9092  14.9861
    16.1998  16.4960

     the Fermi energy is    12.7561 ev

!    total energy              =    -441.75116767 Ry
     Harris-Foulkes estimate   =    -441.75096925 Ry
     estimated scf accuracy    <       0.00000077 Ry

     The total energy is the sum of the following terms:

     one-electron contribution =      -2.79241148 Ry
     hartree contribution      =      37.27130175 Ry
     xc contribution           =    -229.57567032 Ry
     ewald contribution        =    -246.64482555 Ry
     smearing contrib. (-TS)   =      -0.00956207 Ry

     convergence has been achieved in  11 iterations

     Forces acting on atoms (Ry/au):

     negative rho (up, down):  1.004E-01 0.000E+00
     atom    1 type  1   force =     0.00000000    0.00000000    0.00000000
     atom    2 type  1   force =     0.00000000    0.00000000    0.00000000
     atom    3 type  2   force =     0.00000000    0.00000000    0.00000000
     atom    4 type  2   force =     0.00000000    0.00000000    0.00000000

     Total force =     0.000000     Total SCF correction =     0.000000

     General routines

     Parallel routines

   This run was terminated on:  15: 8:25  14Nov2017

   JOB DONE.