     Program PWSCF v.5.1rc2 starts on 15Nov2017 at  8:13:52

     Current dimensions of program PWSCF are:
     Max number of different atomic species (ntypx) = 10
     Max number of k-points (npk) =  40000
     Max angular momentum in pseudopotentials (lmaxx) =  3

     IMPORTANT: XC functional enforced from input :
     Exchange-correlation      = BEEF-VDW ( 1  4 27 13 2)
     Any further DFT definition will be discarded
     Please, verify this is what you really want

     Found symmetry operation: I + (  0.5000  0.5000  0.0000)
     This is a supercell, fractional translations are disabled

     bravais-lattice index     =            0
     lattice parameter (alat)  =       1.8897  a.u.
     unit-cell volume          =     657.2790 (a.u.)^3
     number of atoms/cell      =            4
     number of atomic types    =            2
     number of electrons       =        52.00
     number of Kohn-Sham states=           46
     kinetic-energy cutoff     =      58.7989  Ry
     charge density cutoff     =     587.9892  Ry
     convergence threshold     =      1.0E-06
     mixing beta               =       0.1000
     number of iterations used =           10  plain     mixing
     Exchange-correlation      = BEEF-VDW ( 1  4 27 13 2)

     celldm(1)=   1.889726  celldm(2)=   0.000000  celldm(3)=   0.000000
     celldm(4)=   0.000000  celldm(5)=   0.000000  celldm(6)=   0.000000

     crystal axes: (cart. coord. in units of alat)
               a(1) = (   4.711437   0.000000   0.000000 )
               a(2) = (   0.000000   4.711437   0.000000 )
               a(3) = (   0.000000   0.000000   4.387796 )

     reciprocal axes: (cart. coord. in units 2 pi/alat)
               b(1) = (  0.212249  0.000000  0.000000 )
               b(2) = (  0.000000  0.212249  0.000000 )
               b(3) = (  0.000000  0.000000  0.227905 )

     PseudoPot. # 1 for Zr read from file:
     /home/users/vossj/suncat/psp/gbrv1.5pbe/Zr.UPF
     MD5 check sum: 5db81b1e868ab7776c4564c113de050b
     Pseudo is Ultrasoft + core correction, Zval = 12.0
     Generated by new atomic code, or converted to UPF format
     Using radial grid of  887 points,  6 beta functions with:
                l(1) =   0
                l(2) =   0
                l(3) =   1
                l(4) =   1
                l(5) =   2
                l(6) =   2
     Q(r) pseudized with  6 coefficients,  rinner =    1.200   1.200   1.200
                                                       1.200   1.200

     PseudoPot. # 2 for Pb read from file:
     /home/users/vossj/suncat/psp/gbrv1.5pbe/Pb.UPF
     MD5 check sum: 3d1c1779aa92214d1e8f3a7db79003e2
     Pseudo is Ultrasoft + core correction, Zval = 14.0
     Generated by new atomic code, or converted to UPF format
     Using radial grid of  899 points,  6 beta functions with:
                l(1) =   0
                l(2) =   0
                l(3) =   1
                l(4) =   1
                l(5) =   2
                l(6) =   2
     Q(r) pseudized with  6 coefficients,  rinner =    1.000   1.000   1.000
                                                       1.000   1.000

     vdW kernel table read from file vdW_kernel_table
     MD5 check sum: 095c7af220d748ca6e76c0b4c6cfb241

     atomic species   valence    mass     pseudopotential
        Zr1           12.00    91.22400     Zr( 1.00)
        Pb1           14.00   207.20000     Pb( 1.00)

     16 Sym. Ops., with inversion, found

   Cartesian axes

     site n.     atom                  positions (alat units)
         1           Zr1 tau(   1) = (   0.0000000   0.0000000   0.0000000  )
         2           Zr1 tau(   2) = (   2.3557183   2.3557183   0.0000000  )
         3           Pb1 tau(   3) = (   2.3557183   0.0000000   2.1938980  )
         4           Pb1 tau(   4) = (   0.0000000   2.3557183   2.1938980  )

     number of k points=    75  Fermi-Dirac smearing, width (Ry)=  0.0073
                       cart. coord. in units 2pi/alat
        k(    1) = (   0.0000000   0.0000000   0.0000000), wk =   0.0027435
        k(    2) = (   0.0000000   0.0000000   0.0253228), wk =   0.0054870
        k(    3) = (   0.0000000   0.0000000   0.0506455), wk =   0.0054870
        k(    4) = (   0.0000000   0.0000000   0.0759683), wk =   0.0054870
        k(    5) = (   0.0000000   0.0000000   0.1012910), wk =   0.0054870
        k(    6) = (   0.0000000   0.0235833   0.0000000), wk =   0.0109739
        k(    7) = (   0.0000000   0.0235833   0.0253228), wk =   0.0219479
        k(    8) = (   0.0000000   0.0235833   0.0506455), wk =   0.0219479
        k(    9) = (   0.0000000   0.0235833   0.0759683), wk =   0.0219479
        k(   10) = (   0.0000000   0.0235833   0.1012910), wk =   0.0219479
        k(   11) = (   0.0000000   0.0471666   0.0000000), wk =   0.0109739
        k(   12) = (   0.0000000   0.0471666   0.0253228), wk =   0.0219479
        k(   13) = (   0.0000000   0.0471666   0.0506455), wk =   0.0219479
        k(   14) = (   0.0000000   0.0471666   0.0759683), wk =   0.0219479
        k(   15) = (   0.0000000   0.0471666   0.1012910), wk =   0.0219479
        k(   16) = (   0.0000000   0.0707498   0.0000000), wk =   0.0109739
        k(   17) = (   0.0000000   0.0707498   0.0253228), wk =   0.0219479
        k(   18) = (   0.0000000   0.0707498   0.0506455), wk =   0.0219479
        k(   19) = (   0.0000000   0.0707498   0.0759683), wk =   0.0219479
        k(   20) = (   0.0000000   0.0707498   0.1012910), wk =   0.0219479
        k(   21) = (   0.0000000   0.0943331   0.0000000), wk =   0.0109739
        k(   22) = (   0.0000000   0.0943331   0.0253228), wk =   0.0219479
        k(   23) = (   0.0000000   0.0943331   0.0506455), wk =   0.0219479
        k(   24) = (   0.0000000   0.0943331   0.0759683), wk =   0.0219479
        k(   25) = (   0.0000000   0.0943331   0.1012910), wk =   0.0219479
        k(   26) = (   0.0235833   0.0235833   0.0000000), wk =   0.0109739
        k(   27) = (   0.0235833   0.0235833   0.0253228), wk =   0.0219479
        k(   28) = (   0.0235833   0.0235833   0.0506455), wk =   0.0219479
        k(   29) = (   0.0235833   0.0235833   0.0759683), wk =   0.0219479
        k(   30) = (   0.0235833   0.0235833   0.1012910), wk =   0.0219479
        k(   31) = (   0.0235833   0.0471666   0.0000000), wk =   0.0219479
        k(   32) = (   0.0235833   0.0471666   0.0253228), wk =   0.0438957
        k(   33) = (   0.0235833   0.0471666   0.0506455), wk =   0.0438957
        k(   34) = (   0.0235833   0.0471666   0.0759683), wk =   0.0438957
        k(   35) = (   0.0235833   0.0471666   0.1012910), wk =   0.0438957
        k(   36) = (   0.0235833   0.0707498   0.0000000), wk =   0.0219479
        k(   37) = (   0.0235833   0.0707498   0.0253228), wk =   0.0438957
        k(   38) = (   0.0235833   0.0707498   0.0506455), wk =   0.0438957
        k(   39) = (   0.0235833   0.0707498   0.0759683), wk =   0.0438957
        k(   40) = (   0.0235833   0.0707498   0.1012910), wk =   0.0438957
        k(   41) = (   0.0235833   0.0943331   0.0000000), wk =   0.0219479
        k(   42) = (   0.0235833   0.0943331   0.0253228), wk =   0.0438957
        k(   43) = (   0.0235833   0.0943331   0.0506455), wk =   0.0438957
        k(   44) = (   0.0235833   0.0943331   0.0759683), wk =   0.0438957
        k(   45) = (   0.0235833   0.0943331   0.1012910), wk =   0.0438957
        k(   46) = (   0.0471666   0.0471666   0.0000000), wk =   0.0109739
        k(   47) = (   0.0471666   0.0471666   0.0253228), wk =   0.0219479
        k(   48) = (   0.0471666   0.0471666   0.0506455), wk =   0.0219479
        k(   49) = (   0.0471666   0.0471666   0.0759683), wk =   0.0219479
        k(   50) = (   0.0471666   0.0471666   0.1012910), wk =   0.0219479
        k(   51) = (   0.0471666   0.0707498   0.0000000), wk =   0.0219479
        k(   52) = (   0.0471666   0.0707498   0.0253228), wk =   0.0438957
        k(   53) = (   0.0471666   0.0707498   0.0506455), wk =   0.0438957
        k(   54) = (   0.0471666   0.0707498   0.0759683), wk =   0.0438957
        k(   55) = (   0.0471666   0.0707498   0.1012910), wk =   0.0438957
        k(   56) = (   0.0471666   0.0943331   0.0000000), wk =   0.0219479
        k(   57) = (   0.0471666   0.0943331   0.0253228), wk =   0.0438957
        k(   58) = (   0.0471666   0.0943331   0.0506455), wk =   0.0438957
        k(   59) = (   0.0471666   0.0943331   0.0759683), wk =   0.0438957
        k(   60) = (   0.0471666   0.0943331   0.1012910), wk =   0.0438957
        k(   61) = (   0.0707498   0.0707498   0.0000000), wk =   0.0109739
        k(   62) = (   0.0707498   0.0707498   0.0253228), wk =   0.0219479
        k(   63) = (   0.0707498   0.0707498   0.0506455), wk =   0.0219479
        k(   64) = (   0.0707498   0.0707498   0.0759683), wk =   0.0219479
        k(   65) = (   0.0707498   0.0707498   0.1012910), wk =   0.0219479
        k(   66) = (   0.0707498   0.0943331   0.0000000), wk =   0.0219479
        k(   67) = (   0.0707498   0.0943331   0.0253228), wk =   0.0438957
        k(   68) = (   0.0707498   0.0943331   0.0506455), wk =   0.0438957
        k(   69) = (   0.0707498   0.0943331   0.0759683), wk =   0.0438957
        k(   70) = (   0.0707498   0.0943331   0.1012910), wk =   0.0438957
        k(   71) = (   0.0943331   0.0943331   0.0000000), wk =   0.0109739
        k(   72) = (   0.0943331   0.0943331   0.0253228), wk =   0.0219479
        k(   73) = (   0.0943331   0.0943331   0.0506455), wk =   0.0219479
        k(   74) = (   0.0943331   0.0943331   0.0759683), wk =   0.0219479
        k(   75) = (   0.0943331   0.0943331   0.1012910), wk =   0.0219479

     Largest allocated arrays     est. size (Mb)     dimensions
     Largest temporary arrays     est. size (Mb)     dimensions

     Initial potential from superposition of free atoms
     Check: negative starting charge=   -0.152457

     starting charge   51.99100, renormalised to   52.00000

     negative rho (up, down):  1.525E-01 0.000E+00

     *
     * You are using vdW-DF for exchange-correlation in this calculation.
     * Please cite the following three references that made this development
     * possible:
     *
     *   M. Dion, H. Rydberg, E. Schroder, D. C. Langreth, and
     *   B. I. Lundqvist, Phys. Rev. Lett. 92, 246401 (2004).
     *
     *   T. Thonhauser, V. R. Cooper, S. Li, A. Puzder, P. Hyldgaard, and
     *   D. C. Langreth, Phys. Rev. B 76, 125112 (2007).
     *
     *   G. Roman-Perez and J. M. Soler, Phys. Rev. Lett. 103, 096102 (2009).
     *
     *
     * If you are using vdW-DF2, please also cite:
     *
     *   K. Lee, E. D. Murray, L. Kong, B. I. Lundqvist, and
     *   D. C. Langreth, Phys. Rev. B 82, 081101(R) (2010).
     *
     *
     * If you are calculating the stress with vdW-DF, please also cite:
     *
     *   R. Sabatini, E. Kucukbenli, B. Kolb, T. Thonhauser, and
     *   S. de Gironcoli, J. Phys.: Condens. Matter 24, 424209 (2012).
     *

     Carrying out vdW-DF run using the following parameters:

     Nqs =      20    Nr_points =    1024   r_max =   100.000
     q_mesh =
               0.00001000     0.04494208     0.09755937     0.15916263
               0.23128650     0.31572767     0.41458969     0.53033537
               0.66584808     0.82450364     1.01025438     1.22772762
               1.48234092     1.78043706     2.12944203     2.53805004
               3.01644009     3.57652955     4.23227104     5.00000000

     Gradients computed in reciprocal space

     Starting wfc are   44 randomized atomic wfcs +    2 random wfc

     Self-consistent Calculation

     iteration #  1     ecut=    58.80 Ry     beta=0.10
     Davidson diagonalization with overlap
     ethr =  1.00E-02,  avg # of iterations =  4.1

     Threshold (ethr) on eigenvalues was too large:
     Diagonalizing with lowered threshold

     Davidson diagonalization with overlap
     ethr =  1.19E-04,  avg # of iterations =  2.1

[...]

     total energy              =    -531.62706623 Ry
     Harris-Foulkes estimate   =    -531.63237493 Ry
     estimated scf accuracy    <       0.06218122 Ry

[...]

     total energy              =    -531.62706025 Ry
     Harris-Foulkes estimate   =    -531.62678047 Ry
     estimated scf accuracy    <       0.00000705 Ry

     iteration #  8     ecut=    58.80 Ry     beta=0.10
     Davidson diagonalization with overlap
     ethr =  1.36E-08,  avg # of iterations =  2.7

     negative rho (up, down):  1.602E-01 0.000E+00

     End of self-consistent calculation

          k = 0.0000 0.0000 0.0000 (  4977 PWs)   bands (ev):

   -35.5411 -35.4853 -13.6308 -13.5813 -13.5813 -13.5529 -13.2767 -13.2767
    -3.4242  -3.3246  -3.2006  -3.1953  -3.1953  -3.0501  -3.0501  -3.0181
    -2.9823  -2.8352   2.9459   6.9745  11.8852  11.8852  12.2949  12.8601
    13.1030  13.7382  14.1712  14.1712  14.8672  16.1625  16.1625  16.8734
    17.3041  17.9873  17.9874  18.0732  18.4487  20.7766  21.3733  21.3733
    23.7728  24.4685  24.5648  24.6676  24.8439  26.5845

[...]

          k = 0.0943 0.0943 0.1013 (  5023 PWs)   bands (ev):

   -35.5131 -35.5114 -13.6231 -13.6143 -13.6133 -13.6108 -13.2552 -13.2457
    -3.2720  -3.2578  -3.2156  -3.2121  -3.1507  -3.1424  -3.0456  -3.0418
    -2.9358  -2.9259   5.2847   5.4030  10.4171  10.5470  11.6863  11.9109
    12.8310  12.9451  15.6183  15.6239  15.7492  15.7494  16.0836  16.1487
    16.3360  16.5155  19.5556  19.5904  20.4121  20.6860  23.2420  23.2709
    23.9314  23.9601  24.6514  24.6528  24.8518  25.0415

     the Fermi energy is    14.2099 ev

!    total energy              =    -531.62825042 Ry
     Harris-Foulkes estimate   =    -531.62706090 Ry
     estimated scf accuracy    <       0.00000067 Ry

     The total energy is the sum of the following terms:

     one-electron contribution =     -81.14784218 Ry
     hartree contribution      =      74.79390669 Ry
     xc contribution           =    -167.72409866 Ry
     ewald contribution        =    -357.54480432 Ry
     smearing contrib. (-TS)   =      -0.00541196 Ry

     convergence has been achieved in   8 iterations

     Forces acting on atoms (Ry/au):

     negative rho (up, down):  1.602E-01 0.000E+00
     atom    1 type  1   force =     0.00000000    0.00000000    0.00000000
     atom    2 type  1   force =     0.00000000    0.00000000    0.00000000
     atom    3 type  2   force =     0.00000000    0.00000000    0.00000000
     atom    4 type  2   force =     0.00000000    0.00000000    0.00000000

     Total force =     0.000000     Total SCF correction =     0.000000

     General routines

     Parallel routines

   This run was terminated on:   8:14:36  15Nov2017

   JOB DONE.