     Program PWSCF v.5.1rc2 starts on 14Nov2017 at 15: 7:12

     Current dimensions of program PWSCF are:
     Max number of different atomic species (ntypx) = 10
     Max number of k-points (npk) =  40000
     Max angular momentum in pseudopotentials (lmaxx) =  3

     IMPORTANT: XC functional enforced from input :
     Exchange-correlation      = BEEF-VDW ( 1  4 27 13 2)
     Any further DFT definition will be discarded
     Please, verify this is what you really want

     Found symmetry operation: I + (  0.5000  0.5000  0.0000)
     This is a supercell, fractional translations are disabled

     bravais-lattice index     =            0
     lattice parameter (alat)  =       1.8897  a.u.
     unit-cell volume          =     843.2037 (a.u.)^3
     number of atoms/cell      =            4
     number of atomic types    =            2
     number of electrons       =        50.00
     number of Kohn-Sham states=           45
     kinetic-energy cutoff     =      58.7989  Ry
     charge density cutoff     =     587.9892  Ry
     convergence threshold     =      1.0E-06
     mixing beta               =       0.1000
     number of iterations used =           10  plain     mixing
     Exchange-correlation      = BEEF-VDW ( 1  4 27 13 2)

     celldm(1)=   1.889726  celldm(2)=   0.000000  celldm(3)=   0.000000
     celldm(4)=   0.000000  celldm(5)=   0.000000  celldm(6)=   0.000000

     crystal axes: (cart. coord. in units of alat)
               a(1) = (   5.210504   0.000000   0.000000 )
               a(2) = (   0.000000   5.210504   0.000000 )
               a(3) = (   0.000000   0.000000   4.602316 )

     reciprocal axes: (cart. coord. in units 2 pi/alat)
               b(1) = (  0.191920  0.000000  0.000000 )
               b(2) = (  0.000000  0.191920  0.000000 )
               b(3) = (  0.000000  0.000000  0.217282 )

     PseudoPot. # 1 for Hg read from file:
     /home/users/vossj/suncat/psp/gbrv1.5pbe/Hg.UPF
     MD5 check sum: 8f42caffe07f7fd9c0a564347f8c5498
     Pseudo is Ultrasoft + core correction, Zval = 12.0
     Generated by new atomic code, or converted to UPF format
     Using radial grid of  985 points,  6 beta functions with:
                l(1) =   0
                l(2) =   0
                l(3) =   1
                l(4) =   1
                l(5) =   2
                l(6) =   2
     Q(r) pseudized with  8 coefficients,  rinner =    2.000   2.000   2.000
                                                       2.000   2.000

     PseudoPot. # 2 for Tl read from file:
     /home/users/vossj/suncat/psp/gbrv1.5pbe/Tl.UPF
     MD5 check sum: b76cf1f7e72655a2b2c53cf6385d7059
     Pseudo is Ultrasoft + core correction, Zval = 13.0
     Generated by new atomic code, or converted to UPF format
     Using radial grid of  899 points,  6 beta functions with:
                l(1) =   0
                l(2) =   0
                l(3) =   1
                l(4) =   1
                l(5) =   2
                l(6) =   2
     Q(r) pseudized with  6 coefficients,  rinner =    1.100   1.100   1.100
                                                       1.100   1.100

     vdW kernel table read from file vdW_kernel_table
     MD5 check sum: 095c7af220d748ca6e76c0b4c6cfb241

     atomic species   valence    mass     pseudopotential
        Hg1           12.00   200.59000     Hg( 1.00)
        Tl1           13.00   204.38300     Tl( 1.00)

     16 Sym. Ops., with inversion, found

   Cartesian axes

     site n.     atom                  positions (alat units)
         1           Hg1 tau(   1) = (   0.0000000   0.0000000   0.0000000  )
         2           Hg1 tau(   2) = (   2.6052521   2.6052521   0.0000000  )
         3           Tl1 tau(   3) = (   2.6052521   0.0000000   2.3011578  )
         4           Tl1 tau(   4) = (   0.0000000   2.6052521   2.3011578  )

     number of k points=    75  Fermi-Dirac smearing, width (Ry)=  0.0073
                       cart. coord. in units 2pi/alat
        k(    1) = (   0.0000000   0.0000000   0.0000000), wk =   0.0027435
        k(    2) = (   0.0000000   0.0000000   0.0241424), wk =   0.0054870
        k(    3) = (   0.0000000   0.0000000   0.0482849), wk =   0.0054870
        k(    4) = (   0.0000000   0.0000000   0.0724273), wk =   0.0054870
        k(    5) = (   0.0000000   0.0000000   0.0965697), wk =   0.0054870
        k(    6) = (   0.0000000   0.0213244   0.0000000), wk =   0.0109739
        k(    7) = (   0.0000000   0.0213244   0.0241424), wk =   0.0219479
        k(    8) = (   0.0000000   0.0213244   0.0482849), wk =   0.0219479
        k(    9) = (   0.0000000   0.0213244   0.0724273), wk =   0.0219479
        k(   10) = (   0.0000000   0.0213244   0.0965697), wk =   0.0219479
        k(   11) = (   0.0000000   0.0426489   0.0000000), wk =   0.0109739
        k(   12) = (   0.0000000   0.0426489   0.0241424), wk =   0.0219479
        k(   13) = (   0.0000000   0.0426489   0.0482849), wk =   0.0219479
        k(   14) = (   0.0000000   0.0426489   0.0724273), wk =   0.0219479
        k(   15) = (   0.0000000   0.0426489   0.0965697), wk =   0.0219479
        k(   16) = (   0.0000000   0.0639733   0.0000000), wk =   0.0109739
        k(   17) = (   0.0000000   0.0639733   0.0241424), wk =   0.0219479
        k(   18) = (   0.0000000   0.0639733   0.0482849), wk =   0.0219479
        k(   19) = (   0.0000000   0.0639733   0.0724273), wk =   0.0219479
        k(   20) = (   0.0000000   0.0639733   0.0965697), wk =   0.0219479
        k(   21) = (   0.0000000   0.0852978   0.0000000), wk =   0.0109739
        k(   22) = (   0.0000000   0.0852978   0.0241424), wk =   0.0219479
        k(   23) = (   0.0000000   0.0852978   0.0482849), wk =   0.0219479
        k(   24) = (   0.0000000   0.0852978   0.0724273), wk =   0.0219479
        k(   25) = (   0.0000000   0.0852978   0.0965697), wk =   0.0219479
        k(   26) = (   0.0213244   0.0213244   0.0000000), wk =   0.0109739
        k(   27) = (   0.0213244   0.0213244   0.0241424), wk =   0.0219479
        k(   28) = (   0.0213244   0.0213244   0.0482849), wk =   0.0219479
        k(   29) = (   0.0213244   0.0213244   0.0724273), wk =   0.0219479
        k(   30) = (   0.0213244   0.0213244   0.0965697), wk =   0.0219479
        k(   31) = (   0.0213244   0.0426489   0.0000000), wk =   0.0219479
        k(   32) = (   0.0213244   0.0426489   0.0241424), wk =   0.0438957
        k(   33) = (   0.0213244   0.0426489   0.0482849), wk =   0.0438957
        k(   34) = (   0.0213244   0.0426489   0.0724273), wk =   0.0438957
        k(   35) = (   0.0213244   0.0426489   0.0965697), wk =   0.0438957
        k(   36) = (   0.0213244   0.0639733   0.0000000), wk =   0.0219479
        k(   37) = (   0.0213244   0.0639733   0.0241424), wk =   0.0438957
        k(   38) = (   0.0213244   0.0639733   0.0482849), wk =   0.0438957
        k(   39) = (   0.0213244   0.0639733   0.0724273), wk =   0.0438957
        k(   40) = (   0.0213244   0.0639733   0.0965697), wk =   0.0438957
        k(   41) = (   0.0213244   0.0852978   0.0000000), wk =   0.0219479
        k(   42) = (   0.0213244   0.0852978   0.0241424), wk =   0.0438957
        k(   43) = (   0.0213244   0.0852978   0.0482849), wk =   0.0438957
        k(   44) = (   0.0213244   0.0852978   0.0724273), wk =   0.0438957
        k(   45) = (   0.0213244   0.0852978   0.0965697), wk =   0.0438957
        k(   46) = (   0.0426489   0.0426489   0.0000000), wk =   0.0109739
        k(   47) = (   0.0426489   0.0426489   0.0241424), wk =   0.0219479
        k(   48) = (   0.0426489   0.0426489   0.0482849), wk =   0.0219479
        k(   49) = (   0.0426489   0.0426489   0.0724273), wk =   0.0219479
        k(   50) = (   0.0426489   0.0426489   0.0965697), wk =   0.0219479
        k(   51) = (   0.0426489   0.0639733   0.0000000), wk =   0.0219479
        k(   52) = (   0.0426489   0.0639733   0.0241424), wk =   0.0438957
        k(   53) = (   0.0426489   0.0639733   0.0482849), wk =   0.0438957
        k(   54) = (   0.0426489   0.0639733   0.0724273), wk =   0.0438957
        k(   55) = (   0.0426489   0.0639733   0.0965697), wk =   0.0438957
        k(   56) = (   0.0426489   0.0852978   0.0000000), wk =   0.0219479
        k(   57) = (   0.0426489   0.0852978   0.0241424), wk =   0.0438957
        k(   58) = (   0.0426489   0.0852978   0.0482849), wk =   0.0438957
        k(   59) = (   0.0426489   0.0852978   0.0724273), wk =   0.0438957
        k(   60) = (   0.0426489   0.0852978   0.0965697), wk =   0.0438957
        k(   61) = (   0.0639733   0.0639733   0.0000000), wk =   0.0109739
        k(   62) = (   0.0639733   0.0639733   0.0241424), wk =   0.0219479
        k(   63) = (   0.0639733   0.0639733   0.0482849), wk =   0.0219479
        k(   64) = (   0.0639733   0.0639733   0.0724273), wk =   0.0219479
        k(   65) = (   0.0639733   0.0639733   0.0965697), wk =   0.0219479
        k(   66) = (   0.0639733   0.0852978   0.0000000), wk =   0.0219479
        k(   67) = (   0.0639733   0.0852978   0.0241424), wk =   0.0438957
        k(   68) = (   0.0639733   0.0852978   0.0482849), wk =   0.0438957
        k(   69) = (   0.0639733   0.0852978   0.0724273), wk =   0.0438957
        k(   70) = (   0.0639733   0.0852978   0.0965697), wk =   0.0438957
        k(   71) = (   0.0852978   0.0852978   0.0000000), wk =   0.0109739
        k(   72) = (   0.0852978   0.0852978   0.0241424), wk =   0.0219479
        k(   73) = (   0.0852978   0.0852978   0.0482849), wk =   0.0219479
        k(   74) = (   0.0852978   0.0852978   0.0724273), wk =   0.0219479
        k(   75) = (   0.0852978   0.0852978   0.0965697), wk =   0.0219479

     Largest allocated arrays     est. size (Mb)     dimensions
     Largest temporary arrays     est. size (Mb)     dimensions

     Initial potential from superposition of free atoms
     Check: negative starting charge=   -0.100459

     starting charge   49.99015, renormalised to   50.00000

     negative rho (up, down):  1.005E-01 0.000E+00

     *
     * You are using vdW-DF for exchange-correlation in this calculation.
     * Please cite the following three references that made this development
     * possible:
     *
     *   M. Dion, H. Rydberg, E. Schroder, D. C. Langreth, and
     *   B. I. Lundqvist, Phys. Rev. Lett. 92, 246401 (2004).
     *
     *   T. Thonhauser, V. R. Cooper, S. Li, A. Puzder, P. Hyldgaard, and
     *   D. C. Langreth, Phys. Rev. B 76, 125112 (2007).
     *
     *   G. Roman-Perez and J. M. Soler, Phys. Rev. Lett. 103, 096102 (2009).
     *
     *
     * If you are using vdW-DF2, please also cite:
     *
     *   K. Lee, E. D. Murray, L. Kong, B. I. Lundqvist, and
     *   D. C. Langreth, Phys. Rev. B 82, 081101(R) (2010).
     *
     *
     * If you are calculating the stress with vdW-DF, please also cite:
     *
     *   R. Sabatini, E. Kucukbenli, B. Kolb, T. Thonhauser, and
     *   S. de Gironcoli, J. Phys.: Condens. Matter 24, 424209 (2012).
     *

     Carrying out vdW-DF run using the following parameters:

     Nqs =      20    Nr_points =    1024   r_max =   100.000
     q_mesh =
               0.00001000     0.04494208     0.09755937     0.15916263
               0.23128650     0.31572767     0.41458969     0.53033537
               0.66584808     0.82450364     1.01025438     1.22772762
               1.48234092     1.78043706     2.12944203     2.53805004
               3.01644009     3.57652955     4.23227104     5.00000000

     Gradients computed in reciprocal space

     Starting wfc are   36 randomized atomic wfcs +    9 random wfc

     Self-consistent Calculation

     iteration #  1     ecut=    58.80 Ry     beta=0.10
     Davidson diagonalization with overlap
     ethr =  1.00E-02,  avg # of iterations =  6.2

     Threshold (ethr) on eigenvalues was too large:
     Diagonalizing with lowered threshold

     Davidson diagonalization with overlap
     ethr =  2.09E-05,  avg # of iterations =  6.2

[...]

     total energy              =    -511.86020074 Ry
     Harris-Foulkes estimate   =    -511.85890265 Ry
     estimated scf accuracy    <       0.01025600 Ry

[...]

     total energy              =    -511.86546014 Ry
     Harris-Foulkes estimate   =    -511.86478316 Ry
     estimated scf accuracy    <       0.00000510 Ry

     iteration #  8     ecut=    58.80 Ry     beta=0.10
     Davidson diagonalization with overlap
     ethr =  9.22E-09,  avg # of iterations =  2.0

     negative rho (up, down):  1.045E-01 0.000E+00

     End of self-consistent calculation

          k = 0.0000 0.0000 0.0000 (  6357 PWs)   bands (ev):

    -3.4101  -3.3441  -3.3116  -3.2682  -3.2682  -3.1599  -3.1599  -3.1587
    -3.0998  -2.9854  -0.0631   1.3142   1.4931   1.6114   1.7710   1.7710
     1.8797   1.9197   1.9197   2.0133   2.2104   4.6566   6.6522   7.1389
     7.4694   7.4694   8.6911  12.2975  12.2975  12.9622  14.3251  14.3251
    14.3673  15.9872  17.2541  17.3719  17.5281  18.8248  18.8248  19.0080
    19.3667  19.3667  20.3677  23.3200  23.7202

[...]

          k = 0.0853 0.0853 0.0966 (  6397 PWs)   bands (ev):

    -3.3161  -3.3133  -3.3104  -3.3064  -3.2000  -3.1933  -3.1621  -3.1588
    -3.0884  -3.0808   1.0919   1.1034   1.6042   1.6226   1.8513   1.8687
     1.9059   1.9164   2.0052   2.0179   3.7137   3.8722   5.2420   5.4248
     6.8862   6.9050   7.1906   7.5658  14.9917  15.2905  16.6398  17.0558
    17.1549  17.1662  17.2179  17.4993  19.9874  20.2503  20.3134  20.4522
    20.6107  20.6964  21.4983  21.5371  21.5818

     the Fermi energy is     8.7219 ev

!    total energy              =    -511.86832533 Ry
     Harris-Foulkes estimate   =    -511.86546131 Ry
     estimated scf accuracy    <       0.00000049 Ry

     The total energy is the sum of the following terms:

     one-electron contribution =     -85.52506399 Ry
     hartree contribution      =      86.03662226 Ry
     xc contribution           =    -208.82709835 Ry
     ewald contribution        =    -303.54728659 Ry
     smearing contrib. (-TS)   =      -0.00549867 Ry

     convergence has been achieved in   8 iterations

     Forces acting on atoms (Ry/au):

     negative rho (up, down):  1.045E-01 0.000E+00
     atom    1 type  1   force =     0.00000000    0.00000000    0.00000000
     atom    2 type  1   force =     0.00000000    0.00000000    0.00000000
     atom    3 type  2   force =     0.00000000    0.00000000    0.00000000
     atom    4 type  2   force =     0.00000000    0.00000000    0.00000000

     Total force =     0.000000     Total SCF correction =     0.000000

     General routines

     Parallel routines

   This run was terminated on:  15: 8: 2  14Nov2017

   JOB DONE.