     Program PWSCF v.5.1rc2 starts on 15Nov2017 at  4:32:24

     Current dimensions of program PWSCF are:
     Max number of different atomic species (ntypx) = 10
     Max number of k-points (npk) =  40000
     Max angular momentum in pseudopotentials (lmaxx) =  3

     IMPORTANT: XC functional enforced from input :
     Exchange-correlation      = BEEF-VDW ( 1  4 27 13 2)
     Any further DFT definition will be discarded
     Please, verify this is what you really want

     Found symmetry operation: I + ( -0.5000 -0.5000  0.0000)
     This is a supercell, fractional translations are disabled

     bravais-lattice index     =            0
     lattice parameter (alat)  =       1.8897  a.u.
     unit-cell volume          =     822.6926 (a.u.)^3
     number of atoms/cell      =            4
     number of atomic types    =            2
     number of electrons       =        44.00
     number of Kohn-Sham states=           42
     kinetic-energy cutoff     =      58.7989  Ry
     charge density cutoff     =     587.9892  Ry
     convergence threshold     =      1.0E-06
     mixing beta               =       0.1000
     number of iterations used =           10  plain     mixing
     Exchange-correlation      = BEEF-VDW ( 1  4 27 13 2)

     celldm(1)=   1.889726  celldm(2)=   0.000000  celldm(3)=   0.000000
     celldm(4)=   0.000000  celldm(5)=   0.000000  celldm(6)=   0.000000

     crystal axes: (cart. coord. in units of alat)
               a(1) = (   5.210488   0.000000   0.000000 )
               a(2) = (   0.000000   5.210488   0.000000 )
               a(3) = (   0.000000   0.000000   4.490391 )

     reciprocal axes: (cart. coord. in units 2 pi/alat)
               b(1) = (  0.191921  0.000000  0.000000 )
               b(2) = (  0.000000  0.191921  0.000000 )
               b(3) = (  0.000000  0.000000  0.222698 )

     PseudoPot. # 1 for Sc read from file:
     /home/users/vossj/suncat/psp/gbrv1.5pbe/Sc.UPF
     MD5 check sum: db30a2753ba66ef00f23801d899b7e7f
     Pseudo is Ultrasoft + core correction, Zval = 11.0
     Generated by new atomic code, or converted to UPF format
     Using radial grid of  849 points,  6 beta functions with:
                l(1) =   0
                l(2) =   0
                l(3) =   1
                l(4) =   1
                l(5) =   2
                l(6) =   2
     Q(r) pseudized with  6 coefficients,  rinner =    1.200   1.200   1.200
                                                       1.200   1.200

     PseudoPot. # 2 for La read from file:
     /home/users/vossj/suncat/psp/gbrv1.5pbe/La.UPF
     MD5 check sum: 5937b0c7494ba0601a847275249473aa
     Pseudo is Ultrasoft + core correction, Zval = 11.0
     Generated by new atomic code, or converted to UPF format
     Using radial grid of  995 points,  8 beta functions with:
                l(1) =   0
                l(2) =   0
                l(3) =   1
                l(4) =   1
                l(5) =   2
                l(6) =   2
                l(7) =   3
                l(8) =   3
     Q(r) pseudized with  8 coefficients,  rinner =    1.700   1.700   1.700
                                                       1.700   1.700   1.700
                                                       1.700

     vdW kernel table read from file vdW_kernel_table
     MD5 check sum: 095c7af220d748ca6e76c0b4c6cfb241

     atomic species   valence    mass     pseudopotential
        Sc1           11.00    44.95590     Sc( 1.00)
        La1           11.00   138.90550     La( 1.00)

     16 Sym. Ops., with inversion, found

   Cartesian axes

     site n.     atom                  positions (alat units)
         1           Sc1 tau(   1) = (   0.0000000   0.0000000   0.0000000  )
         2           Sc1 tau(   2) = (   2.6052442   2.6052442   0.0000000  )
         3           La1 tau(   3) = (   2.6052442   0.0000000   2.2451953  )
         4           La1 tau(   4) = (   0.0000000   2.6052442   2.2451953  )

     number of k points=    75  Fermi-Dirac smearing, width (Ry)=  0.0073
                       cart. coord. in units 2pi/alat
        k(    1) = (   0.0000000   0.0000000   0.0000000), wk =   0.0027435
        k(    2) = (   0.0000000   0.0000000   0.0247442), wk =   0.0054870
        k(    3) = (   0.0000000   0.0000000   0.0494884), wk =   0.0054870
        k(    4) = (   0.0000000   0.0000000   0.0742326), wk =   0.0054870
        k(    5) = (   0.0000000   0.0000000   0.0989768), wk =   0.0054870
        k(    6) = (   0.0000000   0.0213245   0.0000000), wk =   0.0109739
        k(    7) = (   0.0000000   0.0213245   0.0247442), wk =   0.0219479
        k(    8) = (   0.0000000   0.0213245   0.0494884), wk =   0.0219479
        k(    9) = (   0.0000000   0.0213245   0.0742326), wk =   0.0219479
        k(   10) = (   0.0000000   0.0213245   0.0989768), wk =   0.0219479
        k(   11) = (   0.0000000   0.0426490   0.0000000), wk =   0.0109739
        k(   12) = (   0.0000000   0.0426490   0.0247442), wk =   0.0219479
        k(   13) = (   0.0000000   0.0426490   0.0494884), wk =   0.0219479
        k(   14) = (   0.0000000   0.0426490   0.0742326), wk =   0.0219479
        k(   15) = (   0.0000000   0.0426490   0.0989768), wk =   0.0219479
        k(   16) = (   0.0000000   0.0639735   0.0000000), wk =   0.0109739
        k(   17) = (   0.0000000   0.0639735   0.0247442), wk =   0.0219479
        k(   18) = (   0.0000000   0.0639735   0.0494884), wk =   0.0219479
        k(   19) = (   0.0000000   0.0639735   0.0742326), wk =   0.0219479
        k(   20) = (   0.0000000   0.0639735   0.0989768), wk =   0.0219479
        k(   21) = (   0.0000000   0.0852980   0.0000000), wk =   0.0109739
        k(   22) = (   0.0000000   0.0852980   0.0247442), wk =   0.0219479
        k(   23) = (   0.0000000   0.0852980   0.0494884), wk =   0.0219479
        k(   24) = (   0.0000000   0.0852980   0.0742326), wk =   0.0219479
        k(   25) = (   0.0000000   0.0852980   0.0989768), wk =   0.0219479
        k(   26) = (   0.0213245   0.0213245   0.0000000), wk =   0.0109739
        k(   27) = (   0.0213245   0.0213245   0.0247442), wk =   0.0219479
        k(   28) = (   0.0213245   0.0213245   0.0494884), wk =   0.0219479
        k(   29) = (   0.0213245   0.0213245   0.0742326), wk =   0.0219479
        k(   30) = (   0.0213245   0.0213245   0.0989768), wk =   0.0219479
        k(   31) = (   0.0213245   0.0426490   0.0000000), wk =   0.0219479
        k(   32) = (   0.0213245   0.0426490   0.0247442), wk =   0.0438957
        k(   33) = (   0.0213245   0.0426490   0.0494884), wk =   0.0438957
        k(   34) = (   0.0213245   0.0426490   0.0742326), wk =   0.0438957
        k(   35) = (   0.0213245   0.0426490   0.0989768), wk =   0.0438957
        k(   36) = (   0.0213245   0.0639735   0.0000000), wk =   0.0219479
        k(   37) = (   0.0213245   0.0639735   0.0247442), wk =   0.0438957
        k(   38) = (   0.0213245   0.0639735   0.0494884), wk =   0.0438957
        k(   39) = (   0.0213245   0.0639735   0.0742326), wk =   0.0438957
        k(   40) = (   0.0213245   0.0639735   0.0989768), wk =   0.0438957
        k(   41) = (   0.0213245   0.0852980   0.0000000), wk =   0.0219479
        k(   42) = (   0.0213245   0.0852980   0.0247442), wk =   0.0438957
        k(   43) = (   0.0213245   0.0852980   0.0494884), wk =   0.0438957
        k(   44) = (   0.0213245   0.0852980   0.0742326), wk =   0.0438957
        k(   45) = (   0.0213245   0.0852980   0.0989768), wk =   0.0438957
        k(   46) = (   0.0426490   0.0426490   0.0000000), wk =   0.0109739
        k(   47) = (   0.0426490   0.0426490   0.0247442), wk =   0.0219479
        k(   48) = (   0.0426490   0.0426490   0.0494884), wk =   0.0219479
        k(   49) = (   0.0426490   0.0426490   0.0742326), wk =   0.0219479
        k(   50) = (   0.0426490   0.0426490   0.0989768), wk =   0.0219479
        k(   51) = (   0.0426490   0.0639735   0.0000000), wk =   0.0219479
        k(   52) = (   0.0426490   0.0639735   0.0247442), wk =   0.0438957
        k(   53) = (   0.0426490   0.0639735   0.0494884), wk =   0.0438957
        k(   54) = (   0.0426490   0.0639735   0.0742326), wk =   0.0438957
        k(   55) = (   0.0426490   0.0639735   0.0989768), wk =   0.0438957
        k(   56) = (   0.0426490   0.0852980   0.0000000), wk =   0.0219479
        k(   57) = (   0.0426490   0.0852980   0.0247442), wk =   0.0438957
        k(   58) = (   0.0426490   0.0852980   0.0494884), wk =   0.0438957
        k(   59) = (   0.0426490   0.0852980   0.0742326), wk =   0.0438957
        k(   60) = (   0.0426490   0.0852980   0.0989768), wk =   0.0438957
        k(   61) = (   0.0639735   0.0639735   0.0000000), wk =   0.0109739
        k(   62) = (   0.0639735   0.0639735   0.0247442), wk =   0.0219479
        k(   63) = (   0.0639735   0.0639735   0.0494884), wk =   0.0219479
        k(   64) = (   0.0639735   0.0639735   0.0742326), wk =   0.0219479
        k(   65) = (   0.0639735   0.0639735   0.0989768), wk =   0.0219479
        k(   66) = (   0.0639735   0.0852980   0.0000000), wk =   0.0219479
        k(   67) = (   0.0639735   0.0852980   0.0247442), wk =   0.0438957
        k(   68) = (   0.0639735   0.0852980   0.0494884), wk =   0.0438957
        k(   69) = (   0.0639735   0.0852980   0.0742326), wk =   0.0438957
        k(   70) = (   0.0639735   0.0852980   0.0989768), wk =   0.0438957
        k(   71) = (   0.0852980   0.0852980   0.0000000), wk =   0.0109739
        k(   72) = (   0.0852980   0.0852980   0.0247442), wk =   0.0219479
        k(   73) = (   0.0852980   0.0852980   0.0494884), wk =   0.0219479
        k(   74) = (   0.0852980   0.0852980   0.0742326), wk =   0.0219479
        k(   75) = (   0.0852980   0.0852980   0.0989768), wk =   0.0219479

     Largest allocated arrays     est. size (Mb)     dimensions
     Largest temporary arrays     est. size (Mb)     dimensions

     Initial potential from superposition of free atoms
     Check: negative starting charge=   -0.138839

     starting charge   43.93106, renormalised to   44.00000

     negative rho (up, down):  1.391E-01 0.000E+00

     *
     * You are using vdW-DF for exchange-correlation in this calculation.
     * Please cite the following three references that made this development
     * possible:
     *
     *   M. Dion, H. Rydberg, E. Schroder, D. C. Langreth, and
     *   B. I. Lundqvist, Phys. Rev. Lett. 92, 246401 (2004).
     *
     *   T. Thonhauser, V. R. Cooper, S. Li, A. Puzder, P. Hyldgaard, and
     *   D. C. Langreth, Phys. Rev. B 76, 125112 (2007).
     *
     *   G. Roman-Perez and J. M. Soler, Phys. Rev. Lett. 103, 096102 (2009).
     *
     *
     * If you are using vdW-DF2, please also cite:
     *
     *   K. Lee, E. D. Murray, L. Kong, B. I. Lundqvist, and
     *   D. C. Langreth, Phys. Rev. B 82, 081101(R) (2010).
     *
     *
     * If you are calculating the stress with vdW-DF, please also cite:
     *
     *   R. Sabatini, E. Kucukbenli, B. Kolb, T. Thonhauser, and
     *   S. de Gironcoli, J. Phys.: Condens. Matter 24, 424209 (2012).
     *

     Carrying out vdW-DF run using the following parameters:

     Nqs =      20    Nr_points =    1024   r_max =   100.000
     q_mesh =
               0.00001000     0.04494208     0.09755937     0.15916263
               0.23128650     0.31572767     0.41458969     0.53033537
               0.66584808     0.82450364     1.01025438     1.22772762
               1.48234092     1.78043706     2.12944203     2.53805004
               3.01644009     3.57652955     4.23227104     5.00000000

     Gradients computed in reciprocal space

     Starting wfc are   66 randomized atomic wfcs

     Self-consistent Calculation

     iteration #  1     ecut=    58.80 Ry     beta=0.10
     Davidson diagonalization with overlap
     ethr =  1.00E-02,  avg # of iterations =  2.0

     Threshold (ethr) on eigenvalues was too large:
     Diagonalizing with lowered threshold

     Davidson diagonalization with overlap
     ethr =  3.49E-04,  avg # of iterations =  2.1

[...]

     total energy              =    -397.72702972 Ry
     Harris-Foulkes estimate   =    -397.75110224 Ry
     estimated scf accuracy    <       0.15183294 Ry

[...]

     total energy              =    -397.73006851 Ry
     Harris-Foulkes estimate   =    -397.73001072 Ry
     estimated scf accuracy    <       0.00000212 Ry

     iteration # 10     ecut=    58.80 Ry     beta=0.10
     Davidson diagonalization with overlap
     ethr =  4.83E-09,  avg # of iterations =  3.9

     negative rho (up, down):  1.005E-01 0.000E+00

     End of self-consistent calculation

          k = 0.0000 0.0000 0.0000 (  6213 PWs)   bands (ev):

   -39.5876 -39.5795 -22.3242 -22.1697 -18.2075 -18.1930 -18.1786 -18.1786
   -18.1227 -18.1227  -6.2705  -6.2705  -5.8883  -5.6940  -5.5392  -5.5392
     6.3627   8.0294   8.7025   9.1148   9.2015   9.6980   9.6980  11.5998
    11.5998  11.9444  11.9444  12.3152  12.3435  12.3560  12.5292  12.5292
    12.5318  12.5318  12.5438  12.5469  12.6591  12.6591  12.7289  12.8269
    12.8297  13.5641

[...]

          k = 0.0853 0.0853 0.0990 (  6271 PWs)   bands (ev):

   -39.5834 -39.5832 -22.2421 -22.2373 -18.2081 -18.2080 -18.1850 -18.1833
   -18.1181 -18.1165  -6.3736  -6.3535  -5.9337  -5.9263  -5.4758  -5.4513
     8.0765   8.0838   9.2613   9.3389  10.9740  11.1209  11.1414  11.2338
    11.3089  11.3836  11.6379  11.7218  12.0660  12.1088  12.3878  12.4045
    12.4823  12.4940  12.5817  12.5887  12.7110  12.7768  12.8324  12.8346
    12.9264  12.9565

     the Fermi energy is    10.3816 ev

!    total energy              =    -397.73030222 Ry
     Harris-Foulkes estimate   =    -397.73006936 Ry
     estimated scf accuracy    <       0.00000070 Ry

     The total energy is the sum of the following terms:

     one-electron contribution =     -91.23258079 Ry
     hartree contribution      =      59.59400655 Ry
     xc contribution           =    -129.27797010 Ry
     ewald contribution        =    -236.80079468 Ry
     smearing contrib. (-TS)   =      -0.01296320 Ry

     convergence has been achieved in  10 iterations

     Forces acting on atoms (Ry/au):

     negative rho (up, down):  1.005E-01 0.000E+00
     atom    1 type  1   force =     0.00000000    0.00000000    0.00000000
     atom    2 type  1   force =     0.00000000    0.00000000    0.00000000
     atom    3 type  2   force =     0.00000000    0.00000000    0.00000000
     atom    4 type  2   force =     0.00000000    0.00000000    0.00000000

     Total force =     0.000000     Total SCF correction =     0.000000

     General routines

     Parallel routines

   This run was terminated on:   4:33:29  15Nov2017

   JOB DONE.