     Program PWSCF v.5.1rc2 starts on 14Nov2017 at 16:48: 0

     Current dimensions of program PWSCF are:
     Max number of different atomic species (ntypx) = 10
     Max number of k-points (npk) =  40000
     Max angular momentum in pseudopotentials (lmaxx) =  3

     IMPORTANT: XC functional enforced from input :
     Exchange-correlation      = BEEF-VDW ( 1  4 27 13 2)
     Any further DFT definition will be discarded
     Please, verify this is what you really want

     Found symmetry operation: I + (  0.5000  0.5000  0.0000)
     This is a supercell, fractional translations are disabled

     bravais-lattice index     =            0
     lattice parameter (alat)  =       1.8897  a.u.
     unit-cell volume          =     439.3311 (a.u.)^3
     number of atoms/cell      =            4
     number of atomic types    =            2
     number of electrons       =        56.00
     number of Kohn-Sham states=           48
     kinetic-energy cutoff     =      58.7989  Ry
     charge density cutoff     =     587.9892  Ry
     convergence threshold     =      1.0E-06
     mixing beta               =       0.1000
     number of iterations used =           10  plain     mixing
     Exchange-correlation      = BEEF-VDW ( 1  4 27 13 2)

     celldm(1)=   1.889726  celldm(2)=   0.000000  celldm(3)=   0.000000
     celldm(4)=   0.000000  celldm(5)=   0.000000  celldm(6)=   0.000000

     crystal axes: (cart. coord. in units of alat)
               a(1) = (   4.543449   0.000000   0.000000 )
               a(2) = (   0.000000   4.543449   0.000000 )
               a(3) = (   0.000000   0.000000   3.153726 )

     reciprocal axes: (cart. coord. in units 2 pi/alat)
               b(1) = (  0.220097  0.000000  0.000000 )
               b(2) = (  0.000000  0.220097  0.000000 )
               b(3) = (  0.000000  0.000000  0.317085 )

     PseudoPot. # 1 for Ta read from file:
     /home/users/vossj/suncat/psp/gbrv1.5pbe/Ta.UPF
     MD5 check sum: f8bbe9446314a3b8ea5d9f3e3836c939
     Pseudo is Ultrasoft + core correction, Zval = 13.0
     Generated by new atomic code, or converted to UPF format
     Using radial grid of  921 points,  7 beta functions with:
                l(1) =   0
                l(2) =   0
                l(3) =   1
                l(4) =   1
                l(5) =   2
                l(6) =   2
                l(7) =   3
     Q(r) pseudized with  6 coefficients,  rinner =    1.300   1.300   1.300
                                                       1.300   1.300   1.300
                                                       1.300

     PseudoPot. # 2 for Re read from file:
     /home/users/vossj/suncat/psp/gbrv1.5pbe/Re.UPF
     MD5 check sum: 85f993410f3e006da9d71c142b4ad953
     Pseudo is Ultrasoft + core correction, Zval = 15.0
     Generated by new atomic code, or converted to UPF format
     Using radial grid of  981 points,  8 beta functions with:
                l(1) =   0
                l(2) =   0
                l(3) =   1
                l(4) =   1
                l(5) =   2
                l(6) =   2
                l(7) =   3
                l(8) =   3
     Q(r) pseudized with  8 coefficients,  rinner =    1.150   1.150   1.150
                                                       1.150   1.150   1.150
                                                       1.150

     vdW kernel table read from file vdW_kernel_table
     MD5 check sum: 095c7af220d748ca6e76c0b4c6cfb241

     atomic species   valence    mass     pseudopotential
        Ta1           13.00   180.94790     Ta( 1.00)
        Re1           15.00   186.20700     Re( 1.00)

     16 Sym. Ops., with inversion, found

   Cartesian axes

     site n.     atom                  positions (alat units)
         1           Ta1 tau(   1) = (   0.0000000   0.0000000   0.0000000  )
         2           Ta1 tau(   2) = (   2.2717246   2.2717246   0.0000000  )
         3           Re1 tau(   3) = (   2.2717246   0.0000000   1.5768631  )
         4           Re1 tau(   4) = (   0.0000000   2.2717246   1.5768631  )

     number of k points=    75  Fermi-Dirac smearing, width (Ry)=  0.0073
                       cart. coord. in units 2pi/alat
        k(    1) = (   0.0000000   0.0000000   0.0000000), wk =   0.0027435
        k(    2) = (   0.0000000   0.0000000   0.0352317), wk =   0.0054870
        k(    3) = (   0.0000000   0.0000000   0.0704634), wk =   0.0054870
        k(    4) = (   0.0000000   0.0000000   0.1056951), wk =   0.0054870
        k(    5) = (   0.0000000   0.0000000   0.1409268), wk =   0.0054870
        k(    6) = (   0.0000000   0.0244552   0.0000000), wk =   0.0109739
        k(    7) = (   0.0000000   0.0244552   0.0352317), wk =   0.0219479
        k(    8) = (   0.0000000   0.0244552   0.0704634), wk =   0.0219479
        k(    9) = (   0.0000000   0.0244552   0.1056951), wk =   0.0219479
        k(   10) = (   0.0000000   0.0244552   0.1409268), wk =   0.0219479
        k(   11) = (   0.0000000   0.0489105   0.0000000), wk =   0.0109739
        k(   12) = (   0.0000000   0.0489105   0.0352317), wk =   0.0219479
        k(   13) = (   0.0000000   0.0489105   0.0704634), wk =   0.0219479
        k(   14) = (   0.0000000   0.0489105   0.1056951), wk =   0.0219479
        k(   15) = (   0.0000000   0.0489105   0.1409268), wk =   0.0219479
        k(   16) = (   0.0000000   0.0733657   0.0000000), wk =   0.0109739
        k(   17) = (   0.0000000   0.0733657   0.0352317), wk =   0.0219479
        k(   18) = (   0.0000000   0.0733657   0.0704634), wk =   0.0219479
        k(   19) = (   0.0000000   0.0733657   0.1056951), wk =   0.0219479
        k(   20) = (   0.0000000   0.0733657   0.1409268), wk =   0.0219479
        k(   21) = (   0.0000000   0.0978209   0.0000000), wk =   0.0109739
        k(   22) = (   0.0000000   0.0978209   0.0352317), wk =   0.0219479
        k(   23) = (   0.0000000   0.0978209   0.0704634), wk =   0.0219479
        k(   24) = (   0.0000000   0.0978209   0.1056951), wk =   0.0219479
        k(   25) = (   0.0000000   0.0978209   0.1409268), wk =   0.0219479
        k(   26) = (   0.0244552   0.0244552   0.0000000), wk =   0.0109739
        k(   27) = (   0.0244552   0.0244552   0.0352317), wk =   0.0219479
        k(   28) = (   0.0244552   0.0244552   0.0704634), wk =   0.0219479
        k(   29) = (   0.0244552   0.0244552   0.1056951), wk =   0.0219479
        k(   30) = (   0.0244552   0.0244552   0.1409268), wk =   0.0219479
        k(   31) = (   0.0244552   0.0489105   0.0000000), wk =   0.0219479
        k(   32) = (   0.0244552   0.0489105   0.0352317), wk =   0.0438957
        k(   33) = (   0.0244552   0.0489105   0.0704634), wk =   0.0438957
        k(   34) = (   0.0244552   0.0489105   0.1056951), wk =   0.0438957
        k(   35) = (   0.0244552   0.0489105   0.1409268), wk =   0.0438957
        k(   36) = (   0.0244552   0.0733657   0.0000000), wk =   0.0219479
        k(   37) = (   0.0244552   0.0733657   0.0352317), wk =   0.0438957
        k(   38) = (   0.0244552   0.0733657   0.0704634), wk =   0.0438957
        k(   39) = (   0.0244552   0.0733657   0.1056951), wk =   0.0438957
        k(   40) = (   0.0244552   0.0733657   0.1409268), wk =   0.0438957
        k(   41) = (   0.0244552   0.0978209   0.0000000), wk =   0.0219479
        k(   42) = (   0.0244552   0.0978209   0.0352317), wk =   0.0438957
        k(   43) = (   0.0244552   0.0978209   0.0704634), wk =   0.0438957
        k(   44) = (   0.0244552   0.0978209   0.1056951), wk =   0.0438957
        k(   45) = (   0.0244552   0.0978209   0.1409268), wk =   0.0438957
        k(   46) = (   0.0489105   0.0489105   0.0000000), wk =   0.0109739
        k(   47) = (   0.0489105   0.0489105   0.0352317), wk =   0.0219479
        k(   48) = (   0.0489105   0.0489105   0.0704634), wk =   0.0219479
        k(   49) = (   0.0489105   0.0489105   0.1056951), wk =   0.0219479
        k(   50) = (   0.0489105   0.0489105   0.1409268), wk =   0.0219479
        k(   51) = (   0.0489105   0.0733657   0.0000000), wk =   0.0219479
        k(   52) = (   0.0489105   0.0733657   0.0352317), wk =   0.0438957
        k(   53) = (   0.0489105   0.0733657   0.0704634), wk =   0.0438957
        k(   54) = (   0.0489105   0.0733657   0.1056951), wk =   0.0438957
        k(   55) = (   0.0489105   0.0733657   0.1409268), wk =   0.0438957
        k(   56) = (   0.0489105   0.0978209   0.0000000), wk =   0.0219479
        k(   57) = (   0.0489105   0.0978209   0.0352317), wk =   0.0438957
        k(   58) = (   0.0489105   0.0978209   0.0704634), wk =   0.0438957
        k(   59) = (   0.0489105   0.0978209   0.1056951), wk =   0.0438957
        k(   60) = (   0.0489105   0.0978209   0.1409268), wk =   0.0438957
        k(   61) = (   0.0733657   0.0733657   0.0000000), wk =   0.0109739
        k(   62) = (   0.0733657   0.0733657   0.0352317), wk =   0.0219479
        k(   63) = (   0.0733657   0.0733657   0.0704634), wk =   0.0219479
        k(   64) = (   0.0733657   0.0733657   0.1056951), wk =   0.0219479
        k(   65) = (   0.0733657   0.0733657   0.1409268), wk =   0.0219479
        k(   66) = (   0.0733657   0.0978209   0.0000000), wk =   0.0219479
        k(   67) = (   0.0733657   0.0978209   0.0352317), wk =   0.0438957
        k(   68) = (   0.0733657   0.0978209   0.0704634), wk =   0.0438957
        k(   69) = (   0.0733657   0.0978209   0.1056951), wk =   0.0438957
        k(   70) = (   0.0733657   0.0978209   0.1409268), wk =   0.0438957
        k(   71) = (   0.0978209   0.0978209   0.0000000), wk =   0.0109739
        k(   72) = (   0.0978209   0.0978209   0.0352317), wk =   0.0219479
        k(   73) = (   0.0978209   0.0978209   0.0704634), wk =   0.0219479
        k(   74) = (   0.0978209   0.0978209   0.1056951), wk =   0.0219479
        k(   75) = (   0.0978209   0.0978209   0.1409268), wk =   0.0219479

     Largest allocated arrays     est. size (Mb)     dimensions
     Largest temporary arrays     est. size (Mb)     dimensions

     Initial potential from superposition of free atoms
     Check: negative starting charge=   -0.444830

     starting charge   54.99769, renormalised to   56.00000

     negative rho (up, down):  4.529E-01 0.000E+00

     *
     * You are using vdW-DF for exchange-correlation in this calculation.
     * Please cite the following three references that made this development
     * possible:
     *
     *   M. Dion, H. Rydberg, E. Schroder, D. C. Langreth, and
     *   B. I. Lundqvist, Phys. Rev. Lett. 92, 246401 (2004).
     *
     *   T. Thonhauser, V. R. Cooper, S. Li, A. Puzder, P. Hyldgaard, and
     *   D. C. Langreth, Phys. Rev. B 76, 125112 (2007).
     *
     *   G. Roman-Perez and J. M. Soler, Phys. Rev. Lett. 103, 096102 (2009).
     *
     *
     * If you are using vdW-DF2, please also cite:
     *
     *   K. Lee, E. D. Murray, L. Kong, B. I. Lundqvist, and
     *   D. C. Langreth, Phys. Rev. B 82, 081101(R) (2010).
     *
     *
     * If you are calculating the stress with vdW-DF, please also cite:
     *
     *   R. Sabatini, E. Kucukbenli, B. Kolb, T. Thonhauser, and
     *   S. de Gironcoli, J. Phys.: Condens. Matter 24, 424209 (2012).
     *

     Carrying out vdW-DF run using the following parameters:

     Nqs =      20    Nr_points =    1024   r_max =   100.000
     q_mesh =
               0.00001000     0.04494208     0.09755937     0.15916263
               0.23128650     0.31572767     0.41458969     0.53033537
               0.66584808     0.82450364     1.01025438     1.22772762
               1.48234092     1.78043706     2.12944203     2.53805004
               3.01644009     3.57652955     4.23227104     5.00000000

     Gradients computed in reciprocal space

     Starting wfc are   52 randomized atomic wfcs

     Self-consistent Calculation

     iteration #  1     ecut=    58.80 Ry     beta=0.10
     Davidson diagonalization with overlap
     ethr =  1.00E-02,  avg # of iterations =  4.5

     Threshold (ethr) on eigenvalues was too large:
     Diagonalizing with lowered threshold

     Davidson diagonalization with overlap
     ethr =  5.55E-04,  avg # of iterations =  1.2

[...]

     total energy              =    -671.14588257 Ry
     Harris-Foulkes estimate   =    -671.18506963 Ry
     estimated scf accuracy    <       0.31430520 Ry

[...]

     total energy              =    -671.07992396 Ry
     Harris-Foulkes estimate   =    -671.07992326 Ry
     estimated scf accuracy    <       0.00000155 Ry

     iteration # 10     ecut=    58.80 Ry     beta=0.10
     Davidson diagonalization with overlap
     ethr =  2.76E-09,  avg # of iterations =  1.2

     negative rho (up, down):  4.780E-01 0.000E+00

     End of self-consistent calculation

          k = 0.0000 0.0000 0.0000 (  3371 PWs)   bands (ev):

   -58.8292 -58.8199 -46.8608 -46.8404 -20.6507 -20.6507 -20.5144 -20.5144
   -20.4772 -20.4398 -13.3019 -13.3019 -13.0928 -13.0928 -13.0685 -13.0493
    12.2552  15.5450  15.6765  16.0486  16.0993  18.3749  18.3749  20.2081
    20.4370  20.4370  22.1868  22.1868  22.9347  23.3665  23.7836  24.1014
    24.1295  25.9936  26.8847  26.8847  26.9459  27.6569  27.6569  29.5811
    29.5811  30.0867  32.1774  32.6565  33.2119  33.2119  36.0767  36.0767

[...]

          k = 0.0978 0.0978 0.1409 (  3332 PWs)   bands (ev):

   -58.8188 -58.8186 -46.8381 -46.8374 -20.6448 -20.6415 -20.6360 -20.6356
   -20.4769 -20.4732 -13.3249 -13.3230 -13.3017 -13.2944 -13.0796 -13.0722
    15.5945  15.6533  15.7815  15.7975  18.1721  18.1810  18.1872  18.2733
    21.6663  21.8146  21.8224  22.0102  23.1436  23.2196  23.8611  23.9654
    24.2838  24.3937  26.2058  26.3481  27.2898  27.6687  27.7547  27.7598
    32.3083  32.3878  32.6577  32.9963  33.3557  33.3588  33.4973  33.7248

     the Fermi energy is    21.5045 ev

!    total energy              =    -671.07992771 Ry
     Harris-Foulkes estimate   =    -671.07992405 Ry
     estimated scf accuracy    <       0.00000037 Ry

     The total energy is the sum of the following terms:

     one-electron contribution =     -68.93514418 Ry
     hartree contribution      =      67.91717299 Ry
     xc contribution           =    -195.84676549 Ry
     ewald contribution        =    -474.21227585 Ry
     smearing contrib. (-TS)   =      -0.00291518 Ry

     convergence has been achieved in  10 iterations

     Forces acting on atoms (Ry/au):

     negative rho (up, down):  4.780E-01 0.000E+00
     atom    1 type  1   force =     0.00000000    0.00000000    0.00000000
     atom    2 type  1   force =     0.00000000    0.00000000    0.00000000
     atom    3 type  2   force =     0.00000000    0.00000000    0.00000000
     atom    4 type  2   force =     0.00000000    0.00000000    0.00000000

     Total force =     0.000000     Total SCF correction =     0.000000

     General routines

     Parallel routines

   This run was terminated on:  16:48:41  14Nov2017

   JOB DONE.