     Program PWSCF v.5.1rc2 starts on 13Nov2017 at 19:10:41

     Current dimensions of program PWSCF are:
     Max number of different atomic species (ntypx) = 10
     Max number of k-points (npk) =  40000
     Max angular momentum in pseudopotentials (lmaxx) =  3

     IMPORTANT: XC functional enforced from input :
     Exchange-correlation      = BEEF-VDW ( 1  4 27 13 2)
     Any further DFT definition will be discarded
     Please, verify this is what you really want

     Found symmetry operation: I + ( -0.5000 -0.5000  0.0000)
     This is a supercell, fractional translations are disabled

     bravais-lattice index     =            0
     lattice parameter (alat)  =       1.8897  a.u.
     unit-cell volume          =     483.5643 (a.u.)^3
     number of atoms/cell      =            4
     number of atomic types    =            2
     number of electrons       =        44.00
     number of Kohn-Sham states=           42
     kinetic-energy cutoff     =      58.7989  Ry
     charge density cutoff     =     587.9892  Ry
     convergence threshold     =      1.0E-06
     mixing beta               =       0.1000
     number of iterations used =           10  plain     mixing
     Exchange-correlation      = BEEF-VDW ( 1  4 27 13 2)

     celldm(1)=   1.889726  celldm(2)=   0.000000  celldm(3)=   0.000000
     celldm(4)=   0.000000  celldm(5)=   0.000000  celldm(6)=   0.000000

     crystal axes: (cart. coord. in units of alat)
               a(1) = (   4.113560   0.000000   0.000000 )
               a(2) = (   0.000000   4.113560   0.000000 )
               a(3) = (   0.000000   0.000000   4.234694 )

     reciprocal axes: (cart. coord. in units 2 pi/alat)
               b(1) = (  0.243098  0.000000  0.000000 )
               b(2) = (  0.000000  0.243098  0.000000 )
               b(3) = (  0.000000  0.000000  0.236145 )

     PseudoPot. # 1 for Al read from file:
     /home/users/vossj/suncat/psp/gbrv1.5pbe/Al.UPF
     MD5 check sum: 0a6289f5291fc8f409219462bc851e1f
     Pseudo is Ultrasoft + core correction, Zval =  3.0
     Generated by new atomic code, or converted to UPF format
     Using radial grid of  893 points,  3 beta functions with:
                l(1) =   0
                l(2) =   1
                l(3) =   2
     Q(r) pseudized with  8 coefficients,  rinner =    0.900   0.900   0.900
                                                       0.900   0.900

     PseudoPot. # 2 for Ga read from file:
     /home/users/vossj/suncat/psp/gbrv1.5pbe/Ga.UPF
     MD5 check sum: ccd671392a58a050fbb373893b4fcd66
     Pseudo is Ultrasoft + core correction, Zval = 19.0
     Generated by new atomic code, or converted to UPF format
     Using radial grid of  871 points,  6 beta functions with:
                l(1) =   0
                l(2) =   0
                l(3) =   1
                l(4) =   1
                l(5) =   2
                l(6) =   2
     Q(r) pseudized with  8 coefficients,  rinner =    1.250   1.250   1.250
                                                       1.250   1.250

     vdW kernel table read from file vdW_kernel_table
     MD5 check sum: 095c7af220d748ca6e76c0b4c6cfb241

     atomic species   valence    mass     pseudopotential
        Al1            3.00    26.98154     Al( 1.00)
        Ga1           19.00    69.72300     Ga( 1.00)

     16 Sym. Ops., with inversion, found

   Cartesian axes

     site n.     atom                  positions (alat units)
         1           Al1 tau(   1) = (   0.0000000   0.0000000   0.0000000  )
         2           Al1 tau(   2) = (   2.0567798   2.0567798   0.0000000  )
         3           Ga1 tau(   3) = (   2.0567798   0.0000000   2.1173470  )
         4           Ga1 tau(   4) = (   0.0000000   2.0567798   2.1173470  )

     number of k points=    75  Fermi-Dirac smearing, width (Ry)=  0.0073
                       cart. coord. in units 2pi/alat
        k(    1) = (   0.0000000   0.0000000   0.0000000), wk =   0.0027435
        k(    2) = (   0.0000000   0.0000000   0.0262383), wk =   0.0054870
        k(    3) = (   0.0000000   0.0000000   0.0524766), wk =   0.0054870
        k(    4) = (   0.0000000   0.0000000   0.0787149), wk =   0.0054870
        k(    5) = (   0.0000000   0.0000000   0.1049531), wk =   0.0054870
        k(    6) = (   0.0000000   0.0270109   0.0000000), wk =   0.0109739
        k(    7) = (   0.0000000   0.0270109   0.0262383), wk =   0.0219479
        k(    8) = (   0.0000000   0.0270109   0.0524766), wk =   0.0219479
        k(    9) = (   0.0000000   0.0270109   0.0787149), wk =   0.0219479
        k(   10) = (   0.0000000   0.0270109   0.1049531), wk =   0.0219479
        k(   11) = (   0.0000000   0.0540219   0.0000000), wk =   0.0109739
        k(   12) = (   0.0000000   0.0540219   0.0262383), wk =   0.0219479
        k(   13) = (   0.0000000   0.0540219   0.0524766), wk =   0.0219479
        k(   14) = (   0.0000000   0.0540219   0.0787149), wk =   0.0219479
        k(   15) = (   0.0000000   0.0540219   0.1049531), wk =   0.0219479
        k(   16) = (   0.0000000   0.0810328   0.0000000), wk =   0.0109739
        k(   17) = (   0.0000000   0.0810328   0.0262383), wk =   0.0219479
        k(   18) = (   0.0000000   0.0810328   0.0524766), wk =   0.0219479
        k(   19) = (   0.0000000   0.0810328   0.0787149), wk =   0.0219479
        k(   20) = (   0.0000000   0.0810328   0.1049531), wk =   0.0219479
        k(   21) = (   0.0000000   0.1080438   0.0000000), wk =   0.0109739
        k(   22) = (   0.0000000   0.1080438   0.0262383), wk =   0.0219479
        k(   23) = (   0.0000000   0.1080438   0.0524766), wk =   0.0219479
        k(   24) = (   0.0000000   0.1080438   0.0787149), wk =   0.0219479
        k(   25) = (   0.0000000   0.1080438   0.1049531), wk =   0.0219479
        k(   26) = (   0.0270109   0.0270109   0.0000000), wk =   0.0109739
        k(   27) = (   0.0270109   0.0270109   0.0262383), wk =   0.0219479
        k(   28) = (   0.0270109   0.0270109   0.0524766), wk =   0.0219479
        k(   29) = (   0.0270109   0.0270109   0.0787149), wk =   0.0219479
        k(   30) = (   0.0270109   0.0270109   0.1049531), wk =   0.0219479
        k(   31) = (   0.0270109   0.0540219   0.0000000), wk =   0.0219479
        k(   32) = (   0.0270109   0.0540219   0.0262383), wk =   0.0438957
        k(   33) = (   0.0270109   0.0540219   0.0524766), wk =   0.0438957
        k(   34) = (   0.0270109   0.0540219   0.0787149), wk =   0.0438957
        k(   35) = (   0.0270109   0.0540219   0.1049531), wk =   0.0438957
        k(   36) = (   0.0270109   0.0810328   0.0000000), wk =   0.0219479
        k(   37) = (   0.0270109   0.0810328   0.0262383), wk =   0.0438957
        k(   38) = (   0.0270109   0.0810328   0.0524766), wk =   0.0438957
        k(   39) = (   0.0270109   0.0810328   0.0787149), wk =   0.0438957
        k(   40) = (   0.0270109   0.0810328   0.1049531), wk =   0.0438957
        k(   41) = (   0.0270109   0.1080438   0.0000000), wk =   0.0219479
        k(   42) = (   0.0270109   0.1080438   0.0262383), wk =   0.0438957
        k(   43) = (   0.0270109   0.1080438   0.0524766), wk =   0.0438957
        k(   44) = (   0.0270109   0.1080438   0.0787149), wk =   0.0438957
        k(   45) = (   0.0270109   0.1080438   0.1049531), wk =   0.0438957
        k(   46) = (   0.0540219   0.0540219   0.0000000), wk =   0.0109739
        k(   47) = (   0.0540219   0.0540219   0.0262383), wk =   0.0219479
        k(   48) = (   0.0540219   0.0540219   0.0524766), wk =   0.0219479
        k(   49) = (   0.0540219   0.0540219   0.0787149), wk =   0.0219479
        k(   50) = (   0.0540219   0.0540219   0.1049531), wk =   0.0219479
        k(   51) = (   0.0540219   0.0810328   0.0000000), wk =   0.0219479
        k(   52) = (   0.0540219   0.0810328   0.0262383), wk =   0.0438957
        k(   53) = (   0.0540219   0.0810328   0.0524766), wk =   0.0438957
        k(   54) = (   0.0540219   0.0810328   0.0787149), wk =   0.0438957
        k(   55) = (   0.0540219   0.0810328   0.1049531), wk =   0.0438957
        k(   56) = (   0.0540219   0.1080438   0.0000000), wk =   0.0219479
        k(   57) = (   0.0540219   0.1080438   0.0262383), wk =   0.0438957
        k(   58) = (   0.0540219   0.1080438   0.0524766), wk =   0.0438957
        k(   59) = (   0.0540219   0.1080438   0.0787149), wk =   0.0438957
        k(   60) = (   0.0540219   0.1080438   0.1049531), wk =   0.0438957
        k(   61) = (   0.0810328   0.0810328   0.0000000), wk =   0.0109739
        k(   62) = (   0.0810328   0.0810328   0.0262383), wk =   0.0219479
        k(   63) = (   0.0810328   0.0810328   0.0524766), wk =   0.0219479
        k(   64) = (   0.0810328   0.0810328   0.0787149), wk =   0.0219479
        k(   65) = (   0.0810328   0.0810328   0.1049531), wk =   0.0219479
        k(   66) = (   0.0810328   0.1080438   0.0000000), wk =   0.0219479
        k(   67) = (   0.0810328   0.1080438   0.0262383), wk =   0.0438957
        k(   68) = (   0.0810328   0.1080438   0.0524766), wk =   0.0438957
        k(   69) = (   0.0810328   0.1080438   0.0787149), wk =   0.0438957
        k(   70) = (   0.0810328   0.1080438   0.1049531), wk =   0.0438957
        k(   71) = (   0.1080438   0.1080438   0.0000000), wk =   0.0109739
        k(   72) = (   0.1080438   0.1080438   0.0262383), wk =   0.0219479
        k(   73) = (   0.1080438   0.1080438   0.0524766), wk =   0.0219479
        k(   74) = (   0.1080438   0.1080438   0.0787149), wk =   0.0219479
        k(   75) = (   0.1080438   0.1080438   0.1049531), wk =   0.0219479

     Largest allocated arrays     est. size (Mb)     dimensions
     Largest temporary arrays     est. size (Mb)     dimensions

     Initial potential from superposition of free atoms

     starting charge   41.99507, renormalised to   44.00000

     *
     * You are using vdW-DF for exchange-correlation in this calculation.
     * Please cite the following three references that made this development
     * possible:
     *
     *   M. Dion, H. Rydberg, E. Schroder, D. C. Langreth, and
     *   B. I. Lundqvist, Phys. Rev. Lett. 92, 246401 (2004).
     *
     *   T. Thonhauser, V. R. Cooper, S. Li, A. Puzder, P. Hyldgaard, and
     *   D. C. Langreth, Phys. Rev. B 76, 125112 (2007).
     *
     *   G. Roman-Perez and J. M. Soler, Phys. Rev. Lett. 103, 096102 (2009).
     *
     *
     * If you are using vdW-DF2, please also cite:
     *
     *   K. Lee, E. D. Murray, L. Kong, B. I. Lundqvist, and
     *   D. C. Langreth, Phys. Rev. B 82, 081101(R) (2010).
     *
     *
     * If you are calculating the stress with vdW-DF, please also cite:
     *
     *   R. Sabatini, E. Kucukbenli, B. Kolb, T. Thonhauser, and
     *   S. de Gironcoli, J. Phys.: Condens. Matter 24, 424209 (2012).
     *

     Carrying out vdW-DF run using the following parameters:

     Nqs =      20    Nr_points =    1024   r_max =   100.000
     q_mesh =
               0.00001000     0.04494208     0.09755937     0.15916263
               0.23128650     0.31572767     0.41458969     0.53033537
               0.66584808     0.82450364     1.01025438     1.22772762
               1.48234092     1.78043706     2.12944203     2.53805004
               3.01644009     3.57652955     4.23227104     5.00000000

     Gradients computed in reciprocal space

     Starting wfc are   32 randomized atomic wfcs +   10 random wfc

     Self-consistent Calculation

     iteration #  1     ecut=    58.80 Ry     beta=0.10
     Davidson diagonalization with overlap
     ethr =  1.00E-02,  avg # of iterations =  5.1

     total energy              =    -846.30308097 Ry
     Harris-Foulkes estimate   =    -850.38775884 Ry
     estimated scf accuracy    <      22.61563883 Ry

[...]

     total energy              =    -846.94107679 Ry
     Harris-Foulkes estimate   =    -846.94109091 Ry
     estimated scf accuracy    <       0.00002656 Ry

     iteration # 13     ecut=    58.80 Ry     beta=0.10
     Davidson diagonalization with overlap
     ethr =  6.04E-08,  avg # of iterations =  2.0

     End of self-consistent calculation

          k = 0.0000 0.0000 0.0000 (  3743 PWs)   bands (ev):

   -85.4285 -85.4285 -85.4259 -85.4259 -85.4132 -85.4129  -5.9602  -5.9024
    -5.8440  -5.8060  -5.8060  -5.7008  -5.7008  -5.6864  -5.6590  -5.5601
    -1.7479   6.3473   6.7167   6.7167   6.7776   7.0981   8.6312  14.1989
    14.1989  14.3350  14.5074  14.8002  14.8002  15.9606  15.9606  16.0116
    16.4779  17.9697  18.4851  22.1438  22.1438  22.2267  23.2933  23.2933
    23.8621  25.3310

[...]

          k = 0.1080 0.1080 0.1050 (  3673 PWs)   bands (ev):

   -85.4286 -85.4286 -85.4258 -85.4257 -85.4130 -85.4130  -5.8706  -5.8612
    -5.8526  -5.8495  -5.7517  -5.7443  -5.6953  -5.6918  -5.6591  -5.6519
     3.2457   3.8559   4.5412   4.8537   5.3054   5.5101   5.8702   6.5800
    18.3055  18.5803  18.7996  19.1041  19.2767  19.3308  19.4419  20.0161
    20.5252  21.0111  21.2975  22.1430  22.1989  22.2294  22.5486  23.2905
    23.7069  24.3075

     the Fermi energy is     9.3469 ev

!    total energy              =    -846.94108863 Ry
     Harris-Foulkes estimate   =    -846.94108240 Ry
     estimated scf accuracy    <       0.00000003 Ry

     The total energy is the sum of the following terms:

     one-electron contribution =    -801.94185819 Ry
     hartree contribution      =     417.79928463 Ry
     xc contribution           =    -108.40766471 Ry
     ewald contribution        =    -354.38695617 Ry
     smearing contrib. (-TS)   =      -0.00389418 Ry

     convergence has been achieved in  13 iterations

     Forces acting on atoms (Ry/au):

     atom    1 type  1   force =     0.00000000    0.00000000    0.00000000
     atom    2 type  1   force =     0.00000000    0.00000000    0.00000000
     atom    3 type  2   force =     0.00000000    0.00000000    0.00000000
     atom    4 type  2   force =     0.00000000    0.00000000    0.00000000

     Total force =     0.000000     Total SCF correction =     0.000000

     General routines

     Parallel routines

   This run was terminated on:  19:11:17  13Nov2017

   JOB DONE.