     Program PWSCF v.5.1rc2 (svn rev. ) starts on 19Oct2017 at 14:29:29

     Current dimensions of program PWSCF are:
     Max number of different atomic species (ntypx) = 10
     Max number of k-points (npk) =  40000
     Max angular momentum in pseudopotentials (lmaxx) =  3

     IMPORTANT: XC functional enforced from input :
     Exchange-correlation      = BEEF-VDW ( 1  4 27 13 2)
     Any further DFT definition will be discarded
     Please, verify this is what you really want

     Subspace diagonalization in iterative solution of the eigenvalue problem:
     a serial algorithm will be used

     Found symmetry operation: I + (  0.0000  0.5000  0.5000)
     This is a supercell, fractional translations are disabled

     bravais-lattice index     =            0
     lattice parameter (alat)  =       1.8897  a.u.
     unit-cell volume          =     329.8004 (a.u.)^3
     number of atoms/cell      =            4
     number of atomic types    =            1
     number of electrons       =        56.00
     number of Kohn-Sham states=           48
     kinetic-energy cutoff     =      58.7989  Ry
     charge density cutoff     =     587.9892  Ry
     convergence threshold     =      7.3E-09
     mixing beta               =       0.1000
     number of iterations used =           10  local-TF  mixing
     Exchange-correlation      = BEEF-VDW ( 1  4 27 13 2)

     celldm(1)=   1.889726  celldm(2)=   0.000000  celldm(3)=   0.000000
     celldm(4)=   0.000000  celldm(5)=   0.000000  celldm(6)=   0.000000

     crystal axes: (cart. coord. in units of alat)
               a(1) = (   3.656101   0.000000   0.000000 )
               a(2) = (   0.000000   3.656101   0.000000 )
               a(3) = (   0.000000   0.000000   3.656101 )

     reciprocal axes: (cart. coord. in units 2 pi/alat)
               b(1) = (  0.273515  0.000000  0.000000 )
               b(2) = (  0.000000  0.273515  0.000000 )
               b(3) = (  0.000000  0.000000  0.273515 )

     PseudoPot. # 1 for Cr read from file:
     /home/vossj/suncat/psp/gbrv1.5pbe/Cr.UPF
     MD5 check sum: 0d52af634a40206e4dee301ad30da4bf
     Pseudo is Ultrasoft + core correction, Zval = 14.0
     Generated by new atomic code, or converted to UPF format
     Using radial grid of  857 points,  6 beta functions with:
                l(1) =   0
                l(2) =   0
                l(3) =   1
                l(4) =   1
                l(5) =   2
                l(6) =   2
     Q(r) pseudized with  8 coefficients,  rinner =    0.950   0.950   0.950
                                                       0.950   0.950

     vdW kernel table read from file vdW_kernel_table
     MD5 check sum: 095c7af220d748ca6e76c0b4c6cfb241

     atomic species   valence    mass     pseudopotential
        Cr1           14.00    51.99610     Cr( 1.00)

     48 Sym. Ops., with inversion, found

   Cartesian axes

     site n.     atom                  positions (alat units)
         1           Cr1 tau(   1) = (   0.0000000   0.0000000   0.0000000  )
         2           Cr1 tau(   2) = (   0.0000000   1.8280504   1.8280504  )
         3           Cr1 tau(   3) = (   1.8280504   0.0000000   1.8280504  )
         4           Cr1 tau(   4) = (   1.8280504   1.8280504   0.0000000  )

     number of k points=    84  Fermi-Dirac smearing, width (Ry)=  0.0073
                       cart. coord. in units 2pi/alat
        k(    1) = (   0.0000000   0.0000000   0.0000000), wk =   0.0011574
        k(    2) = (   0.0000000   0.0000000   0.0227930), wk =   0.0069444
        k(    3) = (   0.0000000   0.0000000   0.0455859), wk =   0.0069444
        k(    4) = (   0.0000000   0.0000000   0.0683789), wk =   0.0069444
        k(    5) = (   0.0000000   0.0000000   0.0911718), wk =   0.0069444
        k(    6) = (   0.0000000   0.0000000   0.1139648), wk =   0.0069444
        k(    7) = (   0.0000000   0.0000000  -0.1367577), wk =   0.0034722
        k(    8) = (   0.0000000   0.0227930   0.0227930), wk =   0.0138889
        k(    9) = (   0.0000000   0.0227930   0.0455859), wk =   0.0277778
        k(   10) = (   0.0000000   0.0227930   0.0683789), wk =   0.0277778
        k(   11) = (   0.0000000   0.0227930   0.0911718), wk =   0.0277778
        k(   12) = (   0.0000000   0.0227930   0.1139648), wk =   0.0277778
        k(   13) = (   0.0000000   0.0227930  -0.1367577), wk =   0.0138889
        k(   14) = (   0.0000000   0.0455859   0.0455859), wk =   0.0138889
        k(   15) = (   0.0000000   0.0455859   0.0683789), wk =   0.0277778
        k(   16) = (   0.0000000   0.0455859   0.0911718), wk =   0.0277778
        k(   17) = (   0.0000000   0.0455859   0.1139648), wk =   0.0277778
        k(   18) = (   0.0000000   0.0455859  -0.1367577), wk =   0.0138889
        k(   19) = (   0.0000000   0.0683789   0.0683789), wk =   0.0138889
        k(   20) = (   0.0000000   0.0683789   0.0911718), wk =   0.0277778
        k(   21) = (   0.0000000   0.0683789   0.1139648), wk =   0.0277778
        k(   22) = (   0.0000000   0.0683789  -0.1367577), wk =   0.0138889
        k(   23) = (   0.0000000   0.0911718   0.0911718), wk =   0.0138889
        k(   24) = (   0.0000000   0.0911718   0.1139648), wk =   0.0277778
        k(   25) = (   0.0000000   0.0911718  -0.1367577), wk =   0.0138889
        k(   26) = (   0.0000000   0.1139648   0.1139648), wk =   0.0138889
        k(   27) = (   0.0000000   0.1139648  -0.1367577), wk =   0.0138889
        k(   28) = (   0.0000000  -0.1367577  -0.1367577), wk =   0.0034722
        k(   29) = (   0.0227930   0.0227930   0.0227930), wk =   0.0092593
        k(   30) = (   0.0227930   0.0227930   0.0455859), wk =   0.0277778
        k(   31) = (   0.0227930   0.0227930   0.0683789), wk =   0.0277778
        k(   32) = (   0.0227930   0.0227930   0.0911718), wk =   0.0277778
        k(   33) = (   0.0227930   0.0227930   0.1139648), wk =   0.0277778
        k(   34) = (   0.0227930   0.0227930  -0.1367577), wk =   0.0138889
        k(   35) = (   0.0227930   0.0455859   0.0455859), wk =   0.0277778
        k(   36) = (   0.0227930   0.0455859   0.0683789), wk =   0.0555556
        k(   37) = (   0.0227930   0.0455859   0.0911718), wk =   0.0555556
        k(   38) = (   0.0227930   0.0455859   0.1139648), wk =   0.0555556
        k(   39) = (   0.0227930   0.0455859  -0.1367577), wk =   0.0277778
        k(   40) = (   0.0227930   0.0683789   0.0683789), wk =   0.0277778
        k(   41) = (   0.0227930   0.0683789   0.0911718), wk =   0.0555556
        k(   42) = (   0.0227930   0.0683789   0.1139648), wk =   0.0555556
        k(   43) = (   0.0227930   0.0683789  -0.1367577), wk =   0.0277778
        k(   44) = (   0.0227930   0.0911718   0.0911718), wk =   0.0277778
        k(   45) = (   0.0227930   0.0911718   0.1139648), wk =   0.0555556
        k(   46) = (   0.0227930   0.0911718  -0.1367577), wk =   0.0277778
        k(   47) = (   0.0227930   0.1139648   0.1139648), wk =   0.0277778
        k(   48) = (   0.0227930   0.1139648  -0.1367577), wk =   0.0277778
        k(   49) = (   0.0227930  -0.1367577  -0.1367577), wk =   0.0069444
        k(   50) = (   0.0455859   0.0455859   0.0455859), wk =   0.0092593
        k(   51) = (   0.0455859   0.0455859   0.0683789), wk =   0.0277778
        k(   52) = (   0.0455859   0.0455859   0.0911718), wk =   0.0277778
        k(   53) = (   0.0455859   0.0455859   0.1139648), wk =   0.0277778
        k(   54) = (   0.0455859   0.0455859  -0.1367577), wk =   0.0138889
        k(   55) = (   0.0455859   0.0683789   0.0683789), wk =   0.0277778
        k(   56) = (   0.0455859   0.0683789   0.0911718), wk =   0.0555556
        k(   57) = (   0.0455859   0.0683789   0.1139648), wk =   0.0555556
        k(   58) = (   0.0455859   0.0683789  -0.1367577), wk =   0.0277778
        k(   59) = (   0.0455859   0.0911718   0.0911718), wk =   0.0277778
        k(   60) = (   0.0455859   0.0911718   0.1139648), wk =   0.0555556
[...]
        k(   70) = (   0.0683789   0.0911718   0.1139648), wk =   0.0555556
        k(   71) = (   0.0683789   0.0911718  -0.1367577), wk =   0.0277778
        k(   72) = (   0.0683789   0.1139648   0.1139648), wk =   0.0277778
        k(   73) = (   0.0683789   0.1139648  -0.1367577), wk =   0.0277778
        k(   74) = (   0.0683789  -0.1367577  -0.1367577), wk =   0.0069444
        k(   75) = (   0.0911718   0.0911718   0.0911718), wk =   0.0092593
        k(   76) = (   0.0911718   0.0911718   0.1139648), wk =   0.0277778
        k(   77) = (   0.0911718   0.0911718  -0.1367577), wk =   0.0138889
        k(   78) = (   0.0911718   0.1139648   0.1139648), wk =   0.0277778
        k(   79) = (   0.0911718   0.1139648  -0.1367577), wk =   0.0277778
        k(   80) = (   0.0911718  -0.1367577  -0.1367577), wk =   0.0069444
        k(   81) = (   0.1139648   0.1139648   0.1139648), wk =   0.0092593
        k(   82) = (   0.1139648   0.1139648  -0.1367577), wk =   0.0138889
        k(   83) = (   0.1139648  -0.1367577  -0.1367577), wk =   0.0069444
        k(   84) = (  -0.1367577  -0.1367577  -0.1367577), wk =   0.0011574

     Largest allocated arrays     est. size (Mb)     dimensions
     Largest temporary arrays     est. size (Mb)     dimensions

     Check: negative/imaginary core charge=   -0.000010    0.000000

     Initial potential from superposition of free atoms
     Check: negative starting charge=   -0.002650

     starting charge   51.99994, renormalised to   56.00000

     negative rho (up, down):  2.854E-03 0.000E+00

     *
     * You are using vdW-DF for exchange-correlation in this calculation.
     * Please cite the following three references that made this development
     * possible:
     *
     *   M. Dion, H. Rydberg, E. Schroder, D. C. Langreth, and
     *   B. I. Lundqvist, Phys. Rev. Lett. 92, 246401 (2004).
     *
     *   T. Thonhauser, V. R. Cooper, S. Li, A. Puzder, P. Hyldgaard, and
     *   D. C. Langreth, Phys. Rev. B 76, 125112 (2007).
     *
     *   G. Roman-Perez and J. M. Soler, Phys. Rev. Lett. 103, 096102 (2009).
     *
     *
     * If you are using vdW-DF2, please also cite:
     *
     *   K. Lee, E. D. Murray, L. Kong, B. I. Lundqvist, and
     *   D. C. Langreth, Phys. Rev. B 82, 081101(R) (2010).
     *
     *
     * If you are calculating the stress with vdW-DF, please also cite:
     *
     *   R. Sabatini, E. Kucukbenli, B. Kolb, T. Thonhauser, and
     *   S. de Gironcoli, J. Phys.: Condens. Matter 24, 424209 (2012).
     *

     Carrying out vdW-DF run using the following parameters:

     Nqs =      20    Nr_points =    1024   r_max =   100.000
     q_mesh =
               0.00001000     0.04494208     0.09755937     0.15916263
               0.23128650     0.31572767     0.41458969     0.53033537
               0.66584808     0.82450364     1.01025438     1.22772762
               1.48234092     1.78043706     2.12944203     2.53805004
               3.01644009     3.57652955     4.23227104     5.00000000

     Gradients computed in reciprocal space

     Starting wfc are   40 randomized atomic wfcs +    8 random wfc

     Self-consistent Calculation

     iteration #  1     ecut=    58.80 Ry     beta=0.10
     Davidson diagonalization with overlap
     ethr =  1.00E-02,  avg # of iterations =  4.2

[...]

     total energy              =    -706.88641853 Ry
     Harris-Foulkes estimate   =    -707.50369475 Ry
     estimated scf accuracy    <       7.84777554 Ry

[...]

     total energy              =    -705.13530443 Ry
     Harris-Foulkes estimate   =    -705.13530418 Ry
     estimated scf accuracy    <          8.1E-09 Ry

     iteration # 19     ecut=    58.80 Ry     beta=0.10
     Davidson diagonalization with overlap
     ethr =  1.45E-11,  avg # of iterations =  2.0

[...]

     negative rho (up, down):  2.751E-03 0.000E+00

     End of self-consistent calculation

          k = 0.0000 0.0000 0.0000 (  2517 PWs)   bands (ev):

   -54.0177 -53.8151 -53.8150 -53.8150 -25.5578 -25.5578 -25.5578 -25.1187
   -25.1187 -25.1187 -25.1187 -25.1187 -25.1187 -24.8509 -24.8509 -24.8509
    10.3528  13.7710  13.7710  13.7710  14.5603  14.5603  14.5603  17.2679
    17.2679  17.2679  18.9578  18.9578  20.0658  20.0658  20.0658  20.3633
    20.3633  20.3633  20.3633  20.3633  20.3633  21.3175  21.3175  21.3175
    29.6456  29.6456  29.6456  32.6474  32.6474  32.6474  32.6474  32.6474

[...]

          k = 0.1140-0.1368-0.1368 (  2484 PWs)   bands (ev):

[...]

          k =-0.1368-0.1368-0.1368 (  2512 PWs)   bands (ev):

   -53.8646 -53.8646 -53.8646 -53.8646 -25.6081 -25.6081 -25.6081 -25.6081
   -24.9493 -24.9493 -24.9493 -24.9493 -24.9493 -24.9493 -24.9493 -24.9493
    13.9327  13.9327  13.9327  13.9327  17.1687  17.1687  17.1687  17.1687
    17.1687  17.1687  17.1687  17.1687  18.4926  18.4926  18.4926  18.4926
    20.0777  20.0777  20.0777  20.0777  20.0777  20.0777  20.0777  20.0777
    26.7201  26.7201  26.7201  26.7201  36.3141  36.3141  36.3141  36.3141

     the Fermi energy is    17.6962 ev

!    total energy              =    -705.13530552 Ry
     Harris-Foulkes estimate   =    -705.13530443 Ry
     estimated scf accuracy    <          4.2E-11 Ry

     The total energy is the sum of the following terms:

     one-electron contribution =    -245.18281036 Ry
     hartree contribution      =     153.52041548 Ry
     xc contribution           =     -93.18929581 Ry
     ewald contribution        =    -520.26582597 Ry
     smearing contrib. (-TS)   =      -0.01778887 Ry

     convergence has been achieved in  19 iterations

 BEEF-vdW xc energy contributions
           1 :   -80.6832864737838
           2 :    72.8840269818368
           3 :   -59.7533314188622
           4 :    45.1508423443039
           5 :   -32.7180488289438
           6 :    24.5224588874184
           7 :   -20.5682559753783
           8 :    19.3011535223187
           9 :   -18.7217904626049
          10 :    17.4604505106216
          11 :   -15.2771528180299
          12 :    12.8376213246021
          13 :   -11.0328476097523
          14 :    10.3195308938781
          15 :   -10.4662893603349
          16 :    10.7877700360961
          17 :   -10.6408253271176
          18 :    9.82865573884392
          19 :   -8.66552780321159
          20 :    7.70193506241472
          21 :   -7.32734127548913
          22 :    7.52181470883041
          23 :   -7.90253055569924
          24 :    8.00515707285656
          25 :   -7.59372020939249
          26 :    6.79393011943755
          27 :   -5.97902332892727
          28 :    5.50475814262674
          29 :   -5.47964655819088
          30 :    5.71688327387248
          31 :   -7.96062938692388
          32 :   -5.78927401159117

     Forces acting on atoms (Ry/au):

     negative rho (up, down):  2.751E-03 0.000E+00
     atom    1 type  1   force =     0.00000000    0.00000000    0.00000000
     atom    2 type  1   force =     0.00000000    0.00000000    0.00000000
     atom    3 type  1   force =     0.00000000   -0.00000000    0.00000000
     atom    4 type  1   force =     0.00000000    0.00000000    0.00000000

     Total force =     0.000000     Total SCF correction =     0.000000

     General routines

     Parallel routines

   This run was terminated on:  14:30:36  19Oct2017

   JOB DONE.