     Program PWSCF v.5.1rc2 (svn rev. ) starts on 19Oct2017 at 14:14:10

     Current dimensions of program PWSCF are:
     Max number of different atomic species (ntypx) = 10
     Max number of k-points (npk) =  40000
     Max angular momentum in pseudopotentials (lmaxx) =  3

     IMPORTANT: XC functional enforced from input :
     Exchange-correlation      = BEEF-VDW ( 1  4 27 13 2)
     Any further DFT definition will be discarded
     Please, verify this is what you really want

     Subspace diagonalization in iterative solution of the eigenvalue problem:
     a serial algorithm will be used

     Found symmetry operation: I + (  0.0000 -0.5000 -0.5000)
     This is a supercell, fractional translations are disabled

     bravais-lattice index     =            0
     lattice parameter (alat)  =       1.8897  a.u.
     unit-cell volume          =     691.4398 (a.u.)^3
     number of atoms/cell      =            4
     number of atomic types    =            1
     number of electrons       =        52.00
     number of Kohn-Sham states=           46
     kinetic-energy cutoff     =      58.7989  Ry
     charge density cutoff     =     587.9892  Ry
     convergence threshold     =      7.3E-09
     mixing beta               =       0.1000
     number of iterations used =           10  local-TF  mixing
     Exchange-correlation      = BEEF-VDW ( 1  4 27 13 2)

     celldm(1)=   1.889726  celldm(2)=   0.000000  celldm(3)=   0.000000
     celldm(4)=   0.000000  celldm(5)=   0.000000  celldm(6)=   0.000000

     crystal axes: (cart. coord. in units of alat)
               a(1) = (   4.679354   0.000000   0.000000 )
               a(2) = (   0.000000   4.679354   0.000000 )
               a(3) = (   0.000000   0.000000   4.679354 )

     reciprocal axes: (cart. coord. in units 2 pi/alat)
               b(1) = (  0.213705  0.000000  0.000000 )
               b(2) = (  0.000000  0.213705  0.000000 )
               b(3) = (  0.000000  0.000000  0.213705 )

     PseudoPot. # 1 for In read from file:
     /home/vossj/suncat/psp/gbrv1.5pbe/In.UPF
     MD5 check sum: 90777abd96fbb83f2e67db2a40c566b9
     Pseudo is Ultrasoft + core correction, Zval = 13.0
     Generated by new atomic code, or converted to UPF format
     Using radial grid of  889 points,  6 beta functions with:
                l(1) =   0
                l(2) =   0
                l(3) =   1
                l(4) =   1
                l(5) =   2
                l(6) =   2
     Q(r) pseudized with  6 coefficients,  rinner =    1.400   1.400   1.400
                                                       1.400   1.400

     vdW kernel table read from file vdW_kernel_table
     MD5 check sum: 095c7af220d748ca6e76c0b4c6cfb241

     atomic species   valence    mass     pseudopotential
        In1           13.00   114.81800     In( 1.00)

     48 Sym. Ops., with inversion, found

   Cartesian axes

     site n.     atom                  positions (alat units)
         1           In1 tau(   1) = (   0.0000000   0.0000000   0.0000000  )
         2           In1 tau(   2) = (   0.0000000   2.3396771   2.3396771  )
         3           In1 tau(   3) = (   2.3396771   0.0000000   2.3396771  )
         4           In1 tau(   4) = (   2.3396771   2.3396771   0.0000000  )

     number of k points=    84  Fermi-Dirac smearing, width (Ry)=  0.0073
                       cart. coord. in units 2pi/alat
        k(    1) = (   0.0000000   0.0000000   0.0000000), wk =   0.0011574
        k(    2) = (   0.0000000   0.0000000   0.0178087), wk =   0.0069444
        k(    3) = (   0.0000000   0.0000000   0.0356174), wk =   0.0069444
        k(    4) = (   0.0000000   0.0000000   0.0534262), wk =   0.0069444
        k(    5) = (   0.0000000   0.0000000   0.0712349), wk =   0.0069444
        k(    6) = (   0.0000000   0.0000000   0.0890436), wk =   0.0069444
        k(    7) = (   0.0000000   0.0000000  -0.1068523), wk =   0.0034722
        k(    8) = (   0.0000000   0.0178087   0.0178087), wk =   0.0138889
        k(    9) = (   0.0000000   0.0178087   0.0356174), wk =   0.0277778
        k(   10) = (   0.0000000   0.0178087   0.0534262), wk =   0.0277778
        k(   11) = (   0.0000000   0.0178087   0.0712349), wk =   0.0277778
        k(   12) = (   0.0000000   0.0178087   0.0890436), wk =   0.0277778
        k(   13) = (   0.0000000   0.0178087  -0.1068523), wk =   0.0138889
        k(   14) = (   0.0000000   0.0356174   0.0356174), wk =   0.0138889
        k(   15) = (   0.0000000   0.0356174   0.0534262), wk =   0.0277778
        k(   16) = (   0.0000000   0.0356174   0.0712349), wk =   0.0277778
        k(   17) = (   0.0000000   0.0356174   0.0890436), wk =   0.0277778
        k(   18) = (   0.0000000   0.0356174  -0.1068523), wk =   0.0138889
        k(   19) = (   0.0000000   0.0534262   0.0534262), wk =   0.0138889
        k(   20) = (   0.0000000   0.0534262   0.0712349), wk =   0.0277778
        k(   21) = (   0.0000000   0.0534262   0.0890436), wk =   0.0277778
        k(   22) = (   0.0000000   0.0534262  -0.1068523), wk =   0.0138889
        k(   23) = (   0.0000000   0.0712349   0.0712349), wk =   0.0138889
        k(   24) = (   0.0000000   0.0712349   0.0890436), wk =   0.0277778
        k(   25) = (   0.0000000   0.0712349  -0.1068523), wk =   0.0138889
        k(   26) = (   0.0000000   0.0890436   0.0890436), wk =   0.0138889
        k(   27) = (   0.0000000   0.0890436  -0.1068523), wk =   0.0138889
        k(   28) = (   0.0000000  -0.1068523  -0.1068523), wk =   0.0034722
        k(   29) = (   0.0178087   0.0178087   0.0178087), wk =   0.0092593
        k(   30) = (   0.0178087   0.0178087   0.0356174), wk =   0.0277778
        k(   31) = (   0.0178087   0.0178087   0.0534262), wk =   0.0277778
        k(   32) = (   0.0178087   0.0178087   0.0712349), wk =   0.0277778
        k(   33) = (   0.0178087   0.0178087   0.0890436), wk =   0.0277778
        k(   34) = (   0.0178087   0.0178087  -0.1068523), wk =   0.0138889
        k(   35) = (   0.0178087   0.0356174   0.0356174), wk =   0.0277778
        k(   36) = (   0.0178087   0.0356174   0.0534262), wk =   0.0555556
        k(   37) = (   0.0178087   0.0356174   0.0712349), wk =   0.0555556
        k(   38) = (   0.0178087   0.0356174   0.0890436), wk =   0.0555556
        k(   39) = (   0.0178087   0.0356174  -0.1068523), wk =   0.0277778
        k(   40) = (   0.0178087   0.0534262   0.0534262), wk =   0.0277778
        k(   41) = (   0.0178087   0.0534262   0.0712349), wk =   0.0555556
        k(   42) = (   0.0178087   0.0534262   0.0890436), wk =   0.0555556
        k(   43) = (   0.0178087   0.0534262  -0.1068523), wk =   0.0277778
        k(   44) = (   0.0178087   0.0712349   0.0712349), wk =   0.0277778
        k(   45) = (   0.0178087   0.0712349   0.0890436), wk =   0.0555556
        k(   46) = (   0.0178087   0.0712349  -0.1068523), wk =   0.0277778
        k(   47) = (   0.0178087   0.0890436   0.0890436), wk =   0.0277778
        k(   48) = (   0.0178087   0.0890436  -0.1068523), wk =   0.0277778
        k(   49) = (   0.0178087  -0.1068523  -0.1068523), wk =   0.0069444
        k(   50) = (   0.0356174   0.0356174   0.0356174), wk =   0.0092593
        k(   51) = (   0.0356174   0.0356174   0.0534262), wk =   0.0277778
        k(   52) = (   0.0356174   0.0356174   0.0712349), wk =   0.0277778
        k(   53) = (   0.0356174   0.0356174   0.0890436), wk =   0.0277778
        k(   54) = (   0.0356174   0.0356174  -0.1068523), wk =   0.0138889
        k(   55) = (   0.0356174   0.0534262   0.0534262), wk =   0.0277778
        k(   56) = (   0.0356174   0.0534262   0.0712349), wk =   0.0555556
        k(   57) = (   0.0356174   0.0534262   0.0890436), wk =   0.0555556
        k(   58) = (   0.0356174   0.0534262  -0.1068523), wk =   0.0277778
        k(   59) = (   0.0356174   0.0712349   0.0712349), wk =   0.0277778
        k(   60) = (   0.0356174   0.0712349   0.0890436), wk =   0.0555556
[...]
        k(   70) = (   0.0534262   0.0712349   0.0890436), wk =   0.0555556
        k(   71) = (   0.0534262   0.0712349  -0.1068523), wk =   0.0277778
        k(   72) = (   0.0534262   0.0890436   0.0890436), wk =   0.0277778
        k(   73) = (   0.0534262   0.0890436  -0.1068523), wk =   0.0277778
        k(   74) = (   0.0534262  -0.1068523  -0.1068523), wk =   0.0069444
        k(   75) = (   0.0712349   0.0712349   0.0712349), wk =   0.0092593
        k(   76) = (   0.0712349   0.0712349   0.0890436), wk =   0.0277778
        k(   77) = (   0.0712349   0.0712349  -0.1068523), wk =   0.0138889
        k(   78) = (   0.0712349   0.0890436   0.0890436), wk =   0.0277778
        k(   79) = (   0.0712349   0.0890436  -0.1068523), wk =   0.0277778
        k(   80) = (   0.0712349  -0.1068523  -0.1068523), wk =   0.0069444
        k(   81) = (   0.0890436   0.0890436   0.0890436), wk =   0.0092593
        k(   82) = (   0.0890436   0.0890436  -0.1068523), wk =   0.0138889
        k(   83) = (   0.0890436  -0.1068523  -0.1068523), wk =   0.0069444
        k(   84) = (  -0.1068523  -0.1068523  -0.1068523), wk =   0.0011574

     Largest allocated arrays     est. size (Mb)     dimensions
     Largest temporary arrays     est. size (Mb)     dimensions

     Initial potential from superposition of free atoms

     starting charge   46.00000, renormalised to   52.00000

     *
     * You are using vdW-DF for exchange-correlation in this calculation.
     * Please cite the following three references that made this development
     * possible:
     *
     *   M. Dion, H. Rydberg, E. Schroder, D. C. Langreth, and
     *   B. I. Lundqvist, Phys. Rev. Lett. 92, 246401 (2004).
     *
     *   T. Thonhauser, V. R. Cooper, S. Li, A. Puzder, P. Hyldgaard, and
     *   D. C. Langreth, Phys. Rev. B 76, 125112 (2007).
     *
     *   G. Roman-Perez and J. M. Soler, Phys. Rev. Lett. 103, 096102 (2009).
     *
     *
     * If you are using vdW-DF2, please also cite:
     *
     *   K. Lee, E. D. Murray, L. Kong, B. I. Lundqvist, and
     *   D. C. Langreth, Phys. Rev. B 82, 081101(R) (2010).
     *
     *
     * If you are calculating the stress with vdW-DF, please also cite:
     *
     *   R. Sabatini, E. Kucukbenli, B. Kolb, T. Thonhauser, and
     *   S. de Gironcoli, J. Phys.: Condens. Matter 24, 424209 (2012).
     *

     Carrying out vdW-DF run using the following parameters:

     Nqs =      20    Nr_points =    1024   r_max =   100.000
     q_mesh =
               0.00001000     0.04494208     0.09755937     0.15916263
               0.23128650     0.31572767     0.41458969     0.53033537
               0.66584808     0.82450364     1.01025438     1.22772762
               1.48234092     1.78043706     2.12944203     2.53805004
               3.01644009     3.57652955     4.23227104     5.00000000

     Gradients computed in reciprocal space

     Starting wfc are   36 randomized atomic wfcs +   10 random wfc

     Self-consistent Calculation

     iteration #  1     ecut=    58.80 Ry     beta=0.10
     Davidson diagonalization with overlap
     ethr =  1.00E-02,  avg # of iterations =  5.1

     total energy              =    -543.02402527 Ry
     Harris-Foulkes estimate   =    -544.08671323 Ry
     estimated scf accuracy    <      14.95304716 Ry

[...]

     total energy              =    -539.14926471 Ry
     Harris-Foulkes estimate   =    -539.14926301 Ry
     estimated scf accuracy    <       0.00000014 Ry

     iteration # 16     ecut=    58.80 Ry     beta=0.10
     Davidson diagonalization with overlap
     ethr =  1.71E-10,  avg # of iterations =  2.0

     End of self-consistent calculation

          k = 0.0000 0.0000 0.0000 (  5257 PWs)   bands (ev):

    -4.8117  -4.8117  -4.8117  -4.7190  -4.7190  -4.7190  -4.5939  -4.5939
    -4.5939  -4.4210  -4.4210  -4.2745  -4.2745  -4.2745  -4.2215  -4.2215
    -4.2215  -4.2215  -4.2215  -4.2215   0.7636   8.1890   8.1890   8.1890
     8.3643   8.3643   8.3643  14.5116  14.5116  14.5116  14.5116  14.5116
    14.5116  17.9712  17.9712  17.9712  18.1780  18.1780  18.1780  21.1243
    21.1243  21.1243  21.9786  24.6690  24.6690  24.6690

[...]

          k = 0.0890-0.1069-0.1069 (  5296 PWs)   bands (ev):

[...]

          k =-0.1069-0.1069-0.1069 (  5232 PWs)   bands (ev):

    -4.6584  -4.6584  -4.6584  -4.6584  -4.5846  -4.5846  -4.5846  -4.5846
    -4.5846  -4.5846  -4.5846  -4.5846  -4.2622  -4.2622  -4.2622  -4.2622
    -4.2622  -4.2622  -4.2622  -4.2622   6.0863   6.0863   6.0863   6.0863
     7.0100   7.0100   7.0100   7.0100  18.9478  18.9478  18.9478  18.9478
    18.9478  18.9478  18.9478  18.9478  21.3284  21.3284  21.3284  21.3284
    23.2203  23.2203  23.2203  23.2203  23.2203  23.2203

     the Fermi energy is    10.4741 ev

!    total energy              =    -539.14927254 Ry
     Harris-Foulkes estimate   =    -539.14926475 Ry
     estimated scf accuracy    <          1.2E-09 Ry

     The total energy is the sum of the following terms:

     one-electron contribution =    -154.45995215 Ry
     hartree contribution      =     122.48829609 Ry
     xc contribution           =    -156.67328066 Ry
     ewald contribution        =    -350.50012507 Ry
     smearing contrib. (-TS)   =      -0.00421074 Ry

     convergence has been achieved in  16 iterations

 BEEF-vdW xc energy contributions
           1 :   -137.187235997836
           2 :    125.608971208070
           3 :   -105.931627163086
           4 :    83.5817507037493
           5 :   -63.6555096097472
           6 :    49.0296846627178
           7 :   -39.7263767214436
           8 :    33.6836422228578
           9 :   -28.3470696120460
          10 :    22.1442857840192
          11 :   -15.0976947020974
          12 :    8.40815600835066
          13 :   -3.43627735038535
          14 :   0.778241931702524
          15 :   3.556711397729373E-002
          16 :  -0.142695990575845
          17 :   0.604975659366715
          18 :   -1.82647445646199
          19 :    3.46349368371031
          20 :   -4.80373836513121
          21 :    5.30497264453996
          22 :   -4.93227465528381
          23 :    4.11595721614168
          24 :   -3.41995201267193
          25 :    3.18008485955522
          26 :   -3.34870553117179
          27 :    3.60999653982995
          28 :   -3.64358807499320
          29 :    3.33784005108402
          30 :   -2.82203603851164
          31 :   -12.4355781490197
          32 :   -9.08686969320291

     Forces acting on atoms (Ry/au):

     atom    1 type  1   force =     0.00000000    0.00000000    0.00000000
     atom    2 type  1   force =     0.00000000    0.00000000    0.00000000
     atom    3 type  1   force =     0.00000000    0.00000000    0.00000000
     atom    4 type  1   force =     0.00000000   -0.00000000   -0.00000000

     Total force =     0.000000     Total SCF correction =     0.000000

     General routines

     Parallel routines

   This run was terminated on:  14:16: 0  19Oct2017

   JOB DONE.