     Program PWSCF v.5.1rc2 (svn rev. ) starts on 24Oct2017 at 13:11:59

     Current dimensions of program PWSCF are:
     Max number of different atomic species (ntypx) = 10
     Max number of k-points (npk) =  40000
     Max angular momentum in pseudopotentials (lmaxx) =  3

     IMPORTANT: XC functional enforced from input :
     Exchange-correlation      = BEEF-VDW ( 1  4 27 13 2)
     Any further DFT definition will be discarded
     Please, verify this is what you really want

     Subspace diagonalization in iterative solution of the eigenvalue problem:
     a serial algorithm will be used

     Found symmetry operation: I + (  0.0000 -0.5000 -0.5000)
     This is a supercell, fractional translations are disabled

     Generating pointlists ...
     new r_m :   0.4125 (alat units)  0.7795 (a.u.) for type    1

     bravais-lattice index     =            0
     lattice parameter (alat)  =       1.8897  a.u.
     unit-cell volume          =     325.3320 (a.u.)^3
     number of atoms/cell      =            4
     number of atomic types    =            1
     number of electrons       =        60.00
     number of Kohn-Sham states=           40
     kinetic-energy cutoff     =      58.7989  Ry
     charge density cutoff     =     587.9892  Ry
     convergence threshold     =      7.3E-09
     mixing beta               =       0.1000
     number of iterations used =           10  local-TF  mixing
     Exchange-correlation      = BEEF-VDW ( 1  4 27 13 2)

     celldm(1)=   1.889726  celldm(2)=   0.000000  celldm(3)=   0.000000
     celldm(4)=   0.000000  celldm(5)=   0.000000  celldm(6)=   0.000000

     crystal axes: (cart. coord. in units of alat)
               a(1) = (   3.639514   0.000000   0.000000 )
               a(2) = (   0.000000   3.639514   0.000000 )
               a(3) = (   0.000000   0.000000   3.639514 )

     reciprocal axes: (cart. coord. in units 2 pi/alat)
               b(1) = (  0.274762  0.000000  0.000000 )
               b(2) = (  0.000000  0.274762  0.000000 )
               b(3) = (  0.000000  0.000000  0.274762 )

     PseudoPot. # 1 for Mn read from file:
     /home/vossj/suncat/psp/gbrv1.5pbe/Mn.UPF
     MD5 check sum: 82ef2b46521d7a7d9e736dc3972e4928
     Pseudo is Ultrasoft + core correction, Zval = 15.0
     Generated by new atomic code, or converted to UPF format
     Using radial grid of  859 points,  6 beta functions with:
                l(1) =   0
                l(2) =   0
                l(3) =   1
                l(4) =   1
                l(5) =   2
                l(6) =   2
     Q(r) pseudized with  8 coefficients,  rinner =    0.950   0.950   0.950
                                                       0.950   0.950

     vdW kernel table read from file vdW_kernel_table
     MD5 check sum: 095c7af220d748ca6e76c0b4c6cfb241

     atomic species   valence    mass     pseudopotential
        Mn1           15.00    54.93804     Mn( 1.00)

     Starting magnetic structure
     atomic species   magnetization
        Mn1          0.333

     48 Sym. Ops., with inversion, found

   Cartesian axes

     site n.     atom                  positions (alat units)
         1           Mn1 tau(   1) = (   0.0000000   0.0000000   0.0000000  )
         2           Mn1 tau(   2) = (   0.0000000   1.8197569   1.8197569  )
         3           Mn1 tau(   3) = (   1.8197569   0.0000000   1.8197569  )
         4           Mn1 tau(   4) = (   1.8197569   1.8197569   0.0000000  )

     number of k points=   168  Fermi-Dirac smearing, width (Ry)=  0.0073

     Number of k-points >= 100: set verbosity='high' to print them.

     Largest allocated arrays     est. size (Mb)     dimensions
     Largest temporary arrays     est. size (Mb)     dimensions

     Check: negative/imaginary core charge=   -0.000061    0.000000

     Initial potential from superposition of free atoms

     starting charge   57.99966, renormalised to   60.00000

     *
     * You are using vdW-DF for exchange-correlation in this calculation.
     * Please cite the following three references that made this development
     * possible:
     *
     *   M. Dion, H. Rydberg, E. Schroder, D. C. Langreth, and
     *   B. I. Lundqvist, Phys. Rev. Lett. 92, 246401 (2004).
     *
     *   T. Thonhauser, V. R. Cooper, S. Li, A. Puzder, P. Hyldgaard, and
     *   D. C. Langreth, Phys. Rev. B 76, 125112 (2007).
     *
     *   G. Roman-Perez and J. M. Soler, Phys. Rev. Lett. 103, 096102 (2009).
     *
     *
     * If you are using vdW-DF2, please also cite:
     *
     *   K. Lee, E. D. Murray, L. Kong, B. I. Lundqvist, and
     *   D. C. Langreth, Phys. Rev. B 82, 081101(R) (2010).
     *
     *
     * If you are calculating the stress with vdW-DF, please also cite:
     *
     *   R. Sabatini, E. Kucukbenli, B. Kolb, T. Thonhauser, and
     *   S. de Gironcoli, J. Phys.: Condens. Matter 24, 424209 (2012).
     *

     Carrying out vdW-DF run using the following parameters:

     Nqs =      20    Nr_points =    1024   r_max =   100.000
     q_mesh =
               0.00001000     0.04494208     0.09755937     0.15916263
               0.23128650     0.31572767     0.41458969     0.53033537
               0.66584808     0.82450364     1.01025438     1.22772762
               1.48234092     1.78043706     2.12944203     2.53805004
               3.01644009     3.57652955     4.23227104     5.00000000

     Gradients computed in reciprocal space

     Starting wfc are   52 randomized atomic wfcs

     Self-consistent Calculation

     iteration #  1     ecut=    58.80 Ry     beta=0.10
     Davidson diagonalization with overlap
     ethr =  1.00E-02,  avg # of iterations =  2.1

     Magnetic moment per site:
     atom:    1    charge:    6.1449    magn:    1.9488    constr:    0.0000
     atom:    2    charge:    6.1449    magn:    1.9488    constr:    0.0000
     atom:    3    charge:    6.1449    magn:    1.9488    constr:    0.0000
     atom:    4    charge:    6.1449    magn:    1.9488    constr:    0.0000

     total energy              =    -848.74392041 Ry
     Harris-Foulkes estimate   =    -848.91335294 Ry
     estimated scf accuracy    <       4.23595342 Ry

     total magnetization       =    10.06 Bohr mag/cell
     absolute magnetization    =    10.08 Bohr mag/cell

[...]

     total energy              =    -848.55008296 Ry
     Harris-Foulkes estimate   =    -848.55009790 Ry
     estimated scf accuracy    <       0.00000002 Ry

[...]

     iteration # 42     ecut=    58.80 Ry     beta=0.10
     Davidson diagonalization with overlap
     ethr =  3.04E-11,  avg # of iterations =  4.1

     Magnetic moment per site:
     atom:    1    charge:    5.9618    magn:    0.0654    constr:    0.0000
     atom:    2    charge:    5.9618    magn:    0.0660    constr:    0.0000
     atom:    3    charge:    5.9618    magn:    0.0660    constr:    0.0000
     atom:    4    charge:    5.9618    magn:    0.0660    constr:    0.0000

     End of self-consistent calculation

     Number of k-points >= 100: set verbosity='high' to print the bands.

     the Fermi energy is    17.2426 ev

!    total energy              =    -848.55010020 Ry
     Harris-Foulkes estimate   =    -848.55009863 Ry
     estimated scf accuracy    <          6.4E-09 Ry

     The total energy is the sum of the following terms:

     one-electron contribution =    -345.11480605 Ry
     hartree contribution      =     206.29008236 Ry
     xc contribution           =    -109.74237023 Ry
     ewald contribution        =    -599.96586285 Ry
     smearing contrib. (-TS)   =      -0.01714343 Ry

     total magnetization       =     0.62 Bohr mag/cell
     absolute magnetization    =     0.63 Bohr mag/cell

     convergence has been achieved in  42 iterations

 BEEF-vdW xc energy contributions
           1 :   -95.5640328503002
           2 :    86.5801214848916
           3 :   -71.3828694027961
           4 :    54.3076448443594
           5 :   -39.4513482700760
           6 :    29.1553765776128
           7 :   -23.4600506802983
           8 :    20.6712505940536
           9 :   -18.6049370313360
          10 :    15.7843567338734
          11 :   -11.9922796414096
          12 :    8.01498260398051
          13 :   -4.88059732424443
          14 :    3.12547872140041
          15 :   -2.51525413564832
          16 :    2.30739993206788
          17 :   -1.80021863371999
          18 :   0.774320034799587
          19 :   0.444122040114223
          20 :   -1.29221243604110
          21 :    1.40569562553179
          22 :  -0.879926114453539
          23 :   0.199565261791690
          24 :   8.907977343295670E-002
          25 :   0.271896558791781
          26 :   -1.10909961257067
          27 :    1.95867781938969
          28 :   -2.37876867317561
          29 :    2.22122261465569
          30 :   -1.69479763056242
          31 :   -8.87273519160181
          32 :   -6.38209268154895

     Forces acting on atoms (Ry/au):

     atom    1 type  1   force =     0.00000000    0.00000000    0.00000000
     atom    2 type  1   force =     0.00000000    0.00000000    0.00000000
     atom    3 type  1   force =     0.00000000    0.00000000    0.00000000
     atom    4 type  1   force =     0.00000000    0.00000000    0.00000000

     Total force =     0.000000     Total SCF correction =     0.000000

     General routines

     Parallel routines

   This run was terminated on:  13:16:10  24Oct2017

   JOB DONE.