     Program PWSCF v.5.1rc2 (svn rev. ) starts on 19Oct2017 at 14:16:47

     Current dimensions of program PWSCF are:
     Max number of different atomic species (ntypx) = 10
     Max number of k-points (npk) =  40000
     Max angular momentum in pseudopotentials (lmaxx) =  3

     IMPORTANT: XC functional enforced from input :
     Exchange-correlation      = BEEF-VDW ( 1  4 27 13 2)
     Any further DFT definition will be discarded
     Please, verify this is what you really want

     Subspace diagonalization in iterative solution of the eigenvalue problem:
     a serial algorithm will be used

     Found symmetry operation: I + (  0.0000 -0.5000 -0.5000)
     This is a supercell, fractional translations are disabled

     bravais-lattice index     =            0
     lattice parameter (alat)  =       1.8897  a.u.
     unit-cell volume          =     458.0694 (a.u.)^3
     number of atoms/cell      =            4
     number of atomic types    =            1
     number of electrons       =        48.00
     number of Kohn-Sham states=           44
     kinetic-energy cutoff     =      58.7989  Ry
     charge density cutoff     =     587.9892  Ry
     convergence threshold     =      7.3E-09
     mixing beta               =       0.1000
     number of iterations used =           10  local-TF  mixing
     Exchange-correlation      = BEEF-VDW ( 1  4 27 13 2)

     celldm(1)=   1.889726  celldm(2)=   0.000000  celldm(3)=   0.000000
     celldm(4)=   0.000000  celldm(5)=   0.000000  celldm(6)=   0.000000

     crystal axes: (cart. coord. in units of alat)
               a(1) = (   4.079230   0.000000   0.000000 )
               a(2) = (   0.000000   4.079230   0.000000 )
               a(3) = (   0.000000   0.000000   4.079230 )

     reciprocal axes: (cart. coord. in units 2 pi/alat)
               b(1) = (  0.245144  0.000000  0.000000 )
               b(2) = (  0.000000  0.245144  0.000000 )
               b(3) = (  0.000000  0.000000  0.245144 )

     PseudoPot. # 1 for Ti read from file:
     /home/vossj/suncat/psp/gbrv1.5pbe/Ti.UPF
     MD5 check sum: 88a00a6731bd790ddea75d31a80cb452
     Pseudo is Ultrasoft + core correction, Zval = 12.0
     Generated by new atomic code, or converted to UPF format
     Using radial grid of  851 points,  6 beta functions with:
                l(1) =   0
                l(2) =   0
                l(3) =   1
                l(4) =   1
                l(5) =   2
                l(6) =   2
     Q(r) pseudized with  6 coefficients,  rinner =    1.000   1.000   1.000
                                                       1.000   1.000

     vdW kernel table read from file vdW_kernel_table
     MD5 check sum: 095c7af220d748ca6e76c0b4c6cfb241

     atomic species   valence    mass     pseudopotential
        Ti1           12.00    47.86700     Ti( 1.00)

     48 Sym. Ops., with inversion, found

   Cartesian axes

     site n.     atom                  positions (alat units)
         1           Ti1 tau(   1) = (   0.0000000   0.0000000   0.0000000  )
         2           Ti1 tau(   2) = (   0.0000000   2.0396152   2.0396152  )
         3           Ti1 tau(   3) = (   2.0396152   0.0000000   2.0396152  )
         4           Ti1 tau(   4) = (   2.0396152   2.0396152   0.0000000  )

     number of k points=    84  Fermi-Dirac smearing, width (Ry)=  0.0073
                       cart. coord. in units 2pi/alat
        k(    1) = (   0.0000000   0.0000000   0.0000000), wk =   0.0011574
        k(    2) = (   0.0000000   0.0000000   0.0204287), wk =   0.0069444
        k(    3) = (   0.0000000   0.0000000   0.0408574), wk =   0.0069444
        k(    4) = (   0.0000000   0.0000000   0.0612861), wk =   0.0069444
        k(    5) = (   0.0000000   0.0000000   0.0817148), wk =   0.0069444
        k(    6) = (   0.0000000   0.0000000   0.1021435), wk =   0.0069444
        k(    7) = (   0.0000000   0.0000000  -0.1225721), wk =   0.0034722
        k(    8) = (   0.0000000   0.0204287   0.0204287), wk =   0.0138889
        k(    9) = (   0.0000000   0.0204287   0.0408574), wk =   0.0277778
        k(   10) = (   0.0000000   0.0204287   0.0612861), wk =   0.0277778
        k(   11) = (   0.0000000   0.0204287   0.0817148), wk =   0.0277778
        k(   12) = (   0.0000000   0.0204287   0.1021435), wk =   0.0277778
        k(   13) = (   0.0000000   0.0204287  -0.1225721), wk =   0.0138889
        k(   14) = (   0.0000000   0.0408574   0.0408574), wk =   0.0138889
        k(   15) = (   0.0000000   0.0408574   0.0612861), wk =   0.0277778
        k(   16) = (   0.0000000   0.0408574   0.0817148), wk =   0.0277778
        k(   17) = (   0.0000000   0.0408574   0.1021435), wk =   0.0277778
        k(   18) = (   0.0000000   0.0408574  -0.1225721), wk =   0.0138889
        k(   19) = (   0.0000000   0.0612861   0.0612861), wk =   0.0138889
        k(   20) = (   0.0000000   0.0612861   0.0817148), wk =   0.0277778
        k(   21) = (   0.0000000   0.0612861   0.1021435), wk =   0.0277778
        k(   22) = (   0.0000000   0.0612861  -0.1225721), wk =   0.0138889
        k(   23) = (   0.0000000   0.0817148   0.0817148), wk =   0.0138889
        k(   24) = (   0.0000000   0.0817148   0.1021435), wk =   0.0277778
        k(   25) = (   0.0000000   0.0817148  -0.1225721), wk =   0.0138889
        k(   26) = (   0.0000000   0.1021435   0.1021435), wk =   0.0138889
        k(   27) = (   0.0000000   0.1021435  -0.1225721), wk =   0.0138889
        k(   28) = (   0.0000000  -0.1225721  -0.1225721), wk =   0.0034722
        k(   29) = (   0.0204287   0.0204287   0.0204287), wk =   0.0092593
        k(   30) = (   0.0204287   0.0204287   0.0408574), wk =   0.0277778
        k(   31) = (   0.0204287   0.0204287   0.0612861), wk =   0.0277778
        k(   32) = (   0.0204287   0.0204287   0.0817148), wk =   0.0277778
        k(   33) = (   0.0204287   0.0204287   0.1021435), wk =   0.0277778
        k(   34) = (   0.0204287   0.0204287  -0.1225721), wk =   0.0138889
        k(   35) = (   0.0204287   0.0408574   0.0408574), wk =   0.0277778
        k(   36) = (   0.0204287   0.0408574   0.0612861), wk =   0.0555556
        k(   37) = (   0.0204287   0.0408574   0.0817148), wk =   0.0555556
        k(   38) = (   0.0204287   0.0408574   0.1021435), wk =   0.0555556
        k(   39) = (   0.0204287   0.0408574  -0.1225721), wk =   0.0277778
        k(   40) = (   0.0204287   0.0612861   0.0612861), wk =   0.0277778
        k(   41) = (   0.0204287   0.0612861   0.0817148), wk =   0.0555556
        k(   42) = (   0.0204287   0.0612861   0.1021435), wk =   0.0555556
        k(   43) = (   0.0204287   0.0612861  -0.1225721), wk =   0.0277778
        k(   44) = (   0.0204287   0.0817148   0.0817148), wk =   0.0277778
        k(   45) = (   0.0204287   0.0817148   0.1021435), wk =   0.0555556
        k(   46) = (   0.0204287   0.0817148  -0.1225721), wk =   0.0277778
        k(   47) = (   0.0204287   0.1021435   0.1021435), wk =   0.0277778
        k(   48) = (   0.0204287   0.1021435  -0.1225721), wk =   0.0277778
        k(   49) = (   0.0204287  -0.1225721  -0.1225721), wk =   0.0069444
        k(   50) = (   0.0408574   0.0408574   0.0408574), wk =   0.0092593
        k(   51) = (   0.0408574   0.0408574   0.0612861), wk =   0.0277778
        k(   52) = (   0.0408574   0.0408574   0.0817148), wk =   0.0277778
        k(   53) = (   0.0408574   0.0408574   0.1021435), wk =   0.0277778
        k(   54) = (   0.0408574   0.0408574  -0.1225721), wk =   0.0138889
        k(   55) = (   0.0408574   0.0612861   0.0612861), wk =   0.0277778
        k(   56) = (   0.0408574   0.0612861   0.0817148), wk =   0.0555556
        k(   57) = (   0.0408574   0.0612861   0.1021435), wk =   0.0555556
        k(   58) = (   0.0408574   0.0612861  -0.1225721), wk =   0.0277778
        k(   59) = (   0.0408574   0.0817148   0.0817148), wk =   0.0277778
        k(   60) = (   0.0408574   0.0817148   0.1021435), wk =   0.0555556
[...]
        k(   70) = (   0.0612861   0.0817148   0.1021435), wk =   0.0555556
        k(   71) = (   0.0612861   0.0817148  -0.1225721), wk =   0.0277778
        k(   72) = (   0.0612861   0.1021435   0.1021435), wk =   0.0277778
        k(   73) = (   0.0612861   0.1021435  -0.1225721), wk =   0.0277778
        k(   74) = (   0.0612861  -0.1225721  -0.1225721), wk =   0.0069444
        k(   75) = (   0.0817148   0.0817148   0.0817148), wk =   0.0092593
        k(   76) = (   0.0817148   0.0817148   0.1021435), wk =   0.0277778
        k(   77) = (   0.0817148   0.0817148  -0.1225721), wk =   0.0138889
        k(   78) = (   0.0817148   0.1021435   0.1021435), wk =   0.0277778
        k(   79) = (   0.0817148   0.1021435  -0.1225721), wk =   0.0277778
        k(   80) = (   0.0817148  -0.1225721  -0.1225721), wk =   0.0069444
        k(   81) = (   0.1021435   0.1021435   0.1021435), wk =   0.0092593
        k(   82) = (   0.1021435   0.1021435  -0.1225721), wk =   0.0138889
        k(   83) = (   0.1021435  -0.1225721  -0.1225721), wk =   0.0069444
        k(   84) = (  -0.1225721  -0.1225721  -0.1225721), wk =   0.0011574

     Largest allocated arrays     est. size (Mb)     dimensions
     Largest temporary arrays     est. size (Mb)     dimensions

     Check: negative/imaginary core charge=   -0.000003    0.000000

     Initial potential from superposition of free atoms
     Check: negative starting charge=   -0.005356

     starting charge   43.99982, renormalised to   48.00000

     negative rho (up, down):  5.842E-03 0.000E+00

     *
     * You are using vdW-DF for exchange-correlation in this calculation.
     * Please cite the following three references that made this development
     * possible:
     *
     *   M. Dion, H. Rydberg, E. Schroder, D. C. Langreth, and
     *   B. I. Lundqvist, Phys. Rev. Lett. 92, 246401 (2004).
     *
     *   T. Thonhauser, V. R. Cooper, S. Li, A. Puzder, P. Hyldgaard, and
     *   D. C. Langreth, Phys. Rev. B 76, 125112 (2007).
     *
     *   G. Roman-Perez and J. M. Soler, Phys. Rev. Lett. 103, 096102 (2009).
     *
     *
     * If you are using vdW-DF2, please also cite:
     *
     *   K. Lee, E. D. Murray, L. Kong, B. I. Lundqvist, and
     *   D. C. Langreth, Phys. Rev. B 82, 081101(R) (2010).
     *
     *
     * If you are calculating the stress with vdW-DF, please also cite:
     *
     *   R. Sabatini, E. Kucukbenli, B. Kolb, T. Thonhauser, and
     *   S. de Gironcoli, J. Phys.: Condens. Matter 24, 424209 (2012).
     *

     Carrying out vdW-DF run using the following parameters:

     Nqs =      20    Nr_points =    1024   r_max =   100.000
     q_mesh =
               0.00001000     0.04494208     0.09755937     0.15916263
               0.23128650     0.31572767     0.41458969     0.53033537
               0.66584808     0.82450364     1.01025438     1.22772762
               1.48234092     1.78043706     2.12944203     2.53805004
               3.01644009     3.57652955     4.23227104     5.00000000

     Gradients computed in reciprocal space

     Starting wfc are   40 randomized atomic wfcs +    4 random wfc

     Self-consistent Calculation

     iteration #  1     ecut=    58.80 Ry     beta=0.10
     Davidson diagonalization with overlap
     ethr =  1.00E-02,  avg # of iterations =  3.6

[...]

     total energy              =    -480.32118207 Ry
     Harris-Foulkes estimate   =    -480.48971591 Ry
     estimated scf accuracy    <       2.19648178 Ry

[...]

     total energy              =    -479.66260723 Ry
     Harris-Foulkes estimate   =    -479.66264439 Ry
     estimated scf accuracy    <       0.00000007 Ry

     iteration # 12     ecut=    58.80 Ry     beta=0.10
     Davidson diagonalization with overlap
     ethr =  1.38E-10,  avg # of iterations =  2.0

[...]

     negative rho (up, down):  2.579E-03 0.000E+00

     End of self-consistent calculation

          k = 0.0000 0.0000 0.0000 (  3431 PWs)   bands (ev):

   -43.4826 -43.3077 -43.3077 -43.3077 -19.9505 -19.9505 -19.9505 -19.5405
   -19.5405 -19.5405 -19.5405 -19.5405 -19.5405 -19.2935 -19.2935 -19.2935
     7.3225  10.7422  10.7422  10.7422  11.5967  11.5967  11.5967  14.2235
    14.2235  14.2235  15.8919  15.8919  16.3665  16.3665  16.3665  16.9660
    16.9660  16.9660  17.2296  17.2296  17.2296  17.2296  17.2296  17.2296
    24.1440  24.1440  24.1440  25.4587

[...]

          k = 0.1021-0.1226-0.1226 (  3488 PWs)   bands (ev):

[...]

          k =-0.1226-0.1226-0.1226 (  3448 PWs)   bands (ev):

   -43.3505 -43.3505 -43.3505 -43.3505 -19.9986 -19.9986 -19.9986 -19.9986
   -19.3837 -19.3837 -19.3837 -19.3837 -19.3837 -19.3837 -19.3837 -19.3837
    10.7766  10.7766  10.7766  10.7766  14.0892  14.0892  14.0892  14.0892
    14.1158  14.1158  14.1158  14.1158  14.1158  14.1158  14.1158  14.1158
    16.9592  16.9592  16.9592  16.9592  16.9592  16.9592  16.9592  16.9592
    21.7634  21.7634  21.7634  21.7634

     the Fermi energy is    13.3630 ev

!    total energy              =    -479.66262782 Ry
     Harris-Foulkes estimate   =    -479.66260725 Ry
     estimated scf accuracy    <          1.6E-09 Ry

     The total energy is the sum of the following terms:

     one-electron contribution =    -158.84057883 Ry
     hartree contribution      =      96.93274336 Ry
     xc contribution           =     -75.15074632 Ry
     ewald contribution        =    -342.58761909 Ry
     smearing contrib. (-TS)   =      -0.01642694 Ry

     convergence has been achieved in  12 iterations

 BEEF-vdW xc energy contributions
           1 :   -64.5667234560816
           2 :    57.9271628645240
           3 :   -46.9252775856236
           4 :    34.9809461151269
           5 :   -25.0451740930859
           6 :    18.4135786610317
           7 :   -14.5575787023189
           8 :    11.9228874170945
           9 :   -9.09043527475174
          10 :    5.56791044901605
          11 :   -1.81869438010824
          12 :   -1.32732531996405
          13 :    3.36968994057807
          14 :   -4.45039849460116
          15 :    5.13877713777156
          16 :   -5.93391245961165
          17 :    6.89294972494209
          18 :   -7.64417069914762
          19 :    7.72797707857252
          20 :   -6.97368018948836
          21 :    5.62649990726210
          22 :   -4.15565051194397
          23 :    2.91901797525759
          24 :   -1.94881905446400
          25 :    1.00532732276437
          26 :   0.170126770032510
          27 :   -1.61510133151813
          28 :    3.10109234749029
          29 :   -4.30072477046588
          30 :    5.02082734055149
          31 :   -6.84484852440099
          32 :   -4.93847345120146

     Forces acting on atoms (Ry/au):

     negative rho (up, down):  2.579E-03 0.000E+00
     atom    1 type  1   force =     0.00000000    0.00000000    0.00000000
     atom    2 type  1   force =     0.00000000    0.00000000    0.00000000
     atom    3 type  1   force =     0.00000000    0.00000000    0.00000000
     atom    4 type  1   force =     0.00000000   -0.00000000    0.00000000

     Total force =     0.000000     Total SCF correction =     0.000000

     General routines

     Parallel routines

   This run was terminated on:  14:17:38  19Oct2017

   JOB DONE.