     Program PWSCF v.5.1rc2 (svn rev. ) starts on 19Oct2017 at 14:21:28

     Current dimensions of program PWSCF are:
     Max number of different atomic species (ntypx) = 10
     Max number of k-points (npk) =  40000
     Max angular momentum in pseudopotentials (lmaxx) =  3

     IMPORTANT: XC functional enforced from input :
     Exchange-correlation      = BEEF-VDW ( 1  4 27 13 2)
     Any further DFT definition will be discarded
     Please, verify this is what you really want

     Subspace diagonalization in iterative solution of the eigenvalue problem:
     a serial algorithm will be used

     Found symmetry operation: I + (  0.0000 -0.5000 -0.5000)
     This is a supercell, fractional translations are disabled

     bravais-lattice index     =            0
     lattice parameter (alat)  =       1.8897  a.u.
     unit-cell volume          =     447.0727 (a.u.)^3
     number of atoms/cell      =            4
     number of atomic types    =            1
     number of electrons       =        76.00
     number of Kohn-Sham states=           58
     kinetic-energy cutoff     =      58.7989  Ry
     charge density cutoff     =     587.9892  Ry
     convergence threshold     =      7.3E-09
     mixing beta               =       0.1000
     number of iterations used =           10  local-TF  mixing
     Exchange-correlation      = BEEF-VDW ( 1  4 27 13 2)

     celldm(1)=   1.889726  celldm(2)=   0.000000  celldm(3)=   0.000000
     celldm(4)=   0.000000  celldm(5)=   0.000000  celldm(6)=   0.000000

     crystal axes: (cart. coord. in units of alat)
               a(1) = (   4.046323   0.000000   0.000000 )
               a(2) = (   0.000000   4.046323   0.000000 )
               a(3) = (   0.000000   0.000000   4.046323 )

     reciprocal axes: (cart. coord. in units 2 pi/alat)
               b(1) = (  0.247138  0.000000  0.000000 )
               b(2) = (  0.000000  0.247138  0.000000 )
               b(3) = (  0.000000  0.000000  0.247138 )

     PseudoPot. # 1 for Ag read from file:
     /home/vossj/suncat/psp/gbrv1.5pbe/Ag.UPF
     MD5 check sum: d66d668201baa78d5eb5b04ef7011058
     Pseudo is Ultrasoft + core correction, Zval = 19.0
     Generated by new atomic code, or converted to UPF format
     Using radial grid of  887 points,  6 beta functions with:
                l(1) =   0
                l(2) =   0
                l(3) =   1
                l(4) =   1
                l(5) =   2
                l(6) =   2
     Q(r) pseudized with  6 coefficients,  rinner =    1.300   1.300   1.300
                                                       1.300   1.300

     vdW kernel table read from file vdW_kernel_table
     MD5 check sum: 095c7af220d748ca6e76c0b4c6cfb241

     atomic species   valence    mass     pseudopotential
        Ag1           19.00   107.86820     Ag( 1.00)

     48 Sym. Ops., with inversion, found

   Cartesian axes

     site n.     atom                  positions (alat units)
         1           Ag1 tau(   1) = (   0.0000000   0.0000000   0.0000000  )
         2           Ag1 tau(   2) = (   0.0000000   2.0231613   2.0231613  )
         3           Ag1 tau(   3) = (   2.0231613   0.0000000   2.0231613  )
         4           Ag1 tau(   4) = (   2.0231613   2.0231613   0.0000000  )

     number of k points=    84  Fermi-Dirac smearing, width (Ry)=  0.0073
                       cart. coord. in units 2pi/alat
        k(    1) = (   0.0000000   0.0000000   0.0000000), wk =   0.0011574
        k(    2) = (   0.0000000   0.0000000   0.0205948), wk =   0.0069444
        k(    3) = (   0.0000000   0.0000000   0.0411897), wk =   0.0069444
        k(    4) = (   0.0000000   0.0000000   0.0617845), wk =   0.0069444
        k(    5) = (   0.0000000   0.0000000   0.0823793), wk =   0.0069444
        k(    6) = (   0.0000000   0.0000000   0.1029742), wk =   0.0069444
        k(    7) = (   0.0000000   0.0000000  -0.1235690), wk =   0.0034722
        k(    8) = (   0.0000000   0.0205948   0.0205948), wk =   0.0138889
        k(    9) = (   0.0000000   0.0205948   0.0411897), wk =   0.0277778
        k(   10) = (   0.0000000   0.0205948   0.0617845), wk =   0.0277778
        k(   11) = (   0.0000000   0.0205948   0.0823793), wk =   0.0277778
        k(   12) = (   0.0000000   0.0205948   0.1029742), wk =   0.0277778
        k(   13) = (   0.0000000   0.0205948  -0.1235690), wk =   0.0138889
        k(   14) = (   0.0000000   0.0411897   0.0411897), wk =   0.0138889
        k(   15) = (   0.0000000   0.0411897   0.0617845), wk =   0.0277778
        k(   16) = (   0.0000000   0.0411897   0.0823793), wk =   0.0277778
        k(   17) = (   0.0000000   0.0411897   0.1029742), wk =   0.0277778
        k(   18) = (   0.0000000   0.0411897  -0.1235690), wk =   0.0138889
        k(   19) = (   0.0000000   0.0617845   0.0617845), wk =   0.0138889
        k(   20) = (   0.0000000   0.0617845   0.0823793), wk =   0.0277778
        k(   21) = (   0.0000000   0.0617845   0.1029742), wk =   0.0277778
        k(   22) = (   0.0000000   0.0617845  -0.1235690), wk =   0.0138889
        k(   23) = (   0.0000000   0.0823793   0.0823793), wk =   0.0138889
        k(   24) = (   0.0000000   0.0823793   0.1029742), wk =   0.0277778
        k(   25) = (   0.0000000   0.0823793  -0.1235690), wk =   0.0138889
        k(   26) = (   0.0000000   0.1029742   0.1029742), wk =   0.0138889
        k(   27) = (   0.0000000   0.1029742  -0.1235690), wk =   0.0138889
        k(   28) = (   0.0000000  -0.1235690  -0.1235690), wk =   0.0034722
        k(   29) = (   0.0205948   0.0205948   0.0205948), wk =   0.0092593
        k(   30) = (   0.0205948   0.0205948   0.0411897), wk =   0.0277778
        k(   31) = (   0.0205948   0.0205948   0.0617845), wk =   0.0277778
        k(   32) = (   0.0205948   0.0205948   0.0823793), wk =   0.0277778
        k(   33) = (   0.0205948   0.0205948   0.1029742), wk =   0.0277778
        k(   34) = (   0.0205948   0.0205948  -0.1235690), wk =   0.0138889
        k(   35) = (   0.0205948   0.0411897   0.0411897), wk =   0.0277778
        k(   36) = (   0.0205948   0.0411897   0.0617845), wk =   0.0555556
        k(   37) = (   0.0205948   0.0411897   0.0823793), wk =   0.0555556
        k(   38) = (   0.0205948   0.0411897   0.1029742), wk =   0.0555556
        k(   39) = (   0.0205948   0.0411897  -0.1235690), wk =   0.0277778
        k(   40) = (   0.0205948   0.0617845   0.0617845), wk =   0.0277778
        k(   41) = (   0.0205948   0.0617845   0.0823793), wk =   0.0555556
        k(   42) = (   0.0205948   0.0617845   0.1029742), wk =   0.0555556
        k(   43) = (   0.0205948   0.0617845  -0.1235690), wk =   0.0277778
        k(   44) = (   0.0205948   0.0823793   0.0823793), wk =   0.0277778
        k(   45) = (   0.0205948   0.0823793   0.1029742), wk =   0.0555556
        k(   46) = (   0.0205948   0.0823793  -0.1235690), wk =   0.0277778
        k(   47) = (   0.0205948   0.1029742   0.1029742), wk =   0.0277778
        k(   48) = (   0.0205948   0.1029742  -0.1235690), wk =   0.0277778
        k(   49) = (   0.0205948  -0.1235690  -0.1235690), wk =   0.0069444
        k(   50) = (   0.0411897   0.0411897   0.0411897), wk =   0.0092593
        k(   51) = (   0.0411897   0.0411897   0.0617845), wk =   0.0277778
        k(   52) = (   0.0411897   0.0411897   0.0823793), wk =   0.0277778
        k(   53) = (   0.0411897   0.0411897   0.1029742), wk =   0.0277778
        k(   54) = (   0.0411897   0.0411897  -0.1235690), wk =   0.0138889
        k(   55) = (   0.0411897   0.0617845   0.0617845), wk =   0.0277778
        k(   56) = (   0.0411897   0.0617845   0.0823793), wk =   0.0555556
        k(   57) = (   0.0411897   0.0617845   0.1029742), wk =   0.0555556
        k(   58) = (   0.0411897   0.0617845  -0.1235690), wk =   0.0277778
        k(   59) = (   0.0411897   0.0823793   0.0823793), wk =   0.0277778
        k(   60) = (   0.0411897   0.0823793   0.1029742), wk =   0.0555556
[...]
        k(   70) = (   0.0617845   0.0823793   0.1029742), wk =   0.0555556
        k(   71) = (   0.0617845   0.0823793  -0.1235690), wk =   0.0277778
        k(   72) = (   0.0617845   0.1029742   0.1029742), wk =   0.0277778
        k(   73) = (   0.0617845   0.1029742  -0.1235690), wk =   0.0277778
        k(   74) = (   0.0617845  -0.1235690  -0.1235690), wk =   0.0069444
        k(   75) = (   0.0823793   0.0823793   0.0823793), wk =   0.0092593
        k(   76) = (   0.0823793   0.0823793   0.1029742), wk =   0.0277778
        k(   77) = (   0.0823793   0.0823793  -0.1235690), wk =   0.0138889
        k(   78) = (   0.0823793   0.1029742   0.1029742), wk =   0.0277778
        k(   79) = (   0.0823793   0.1029742  -0.1235690), wk =   0.0277778
        k(   80) = (   0.0823793  -0.1235690  -0.1235690), wk =   0.0069444
        k(   81) = (   0.1029742   0.1029742   0.1029742), wk =   0.0092593
        k(   82) = (   0.1029742   0.1029742  -0.1235690), wk =   0.0138889
        k(   83) = (   0.1029742  -0.1235690  -0.1235690), wk =   0.0069444
        k(   84) = (  -0.1235690  -0.1235690  -0.1235690), wk =   0.0011574

     Largest allocated arrays     est. size (Mb)     dimensions
     Largest temporary arrays     est. size (Mb)     dimensions

     Initial potential from superposition of free atoms

     starting charge   73.99981, renormalised to   76.00000

     *
     * You are using vdW-DF for exchange-correlation in this calculation.
     * Please cite the following three references that made this development
     * possible:
     *
     *   M. Dion, H. Rydberg, E. Schroder, D. C. Langreth, and
     *   B. I. Lundqvist, Phys. Rev. Lett. 92, 246401 (2004).
     *
     *   T. Thonhauser, V. R. Cooper, S. Li, A. Puzder, P. Hyldgaard, and
     *   D. C. Langreth, Phys. Rev. B 76, 125112 (2007).
     *
     *   G. Roman-Perez and J. M. Soler, Phys. Rev. Lett. 103, 096102 (2009).
     *
     *
     * If you are using vdW-DF2, please also cite:
     *
     *   K. Lee, E. D. Murray, L. Kong, B. I. Lundqvist, and
     *   D. C. Langreth, Phys. Rev. B 82, 081101(R) (2010).
     *
     *
     * If you are calculating the stress with vdW-DF, please also cite:
     *
     *   R. Sabatini, E. Kucukbenli, B. Kolb, T. Thonhauser, and
     *   S. de Gironcoli, J. Phys.: Condens. Matter 24, 424209 (2012).
     *

     Carrying out vdW-DF run using the following parameters:

     Nqs =      20    Nr_points =    1024   r_max =   100.000
     q_mesh =
               0.00001000     0.04494208     0.09755937     0.15916263
               0.23128650     0.31572767     0.41458969     0.53033537
               0.66584808     0.82450364     1.01025438     1.22772762
               1.48234092     1.78043706     2.12944203     2.53805004
               3.01644009     3.57652955     4.23227104     5.00000000

     Gradients computed in reciprocal space

     Starting wfc are   52 randomized atomic wfcs +    6 random wfc

     Self-consistent Calculation

     iteration #  1     ecut=    58.80 Ry     beta=0.10
     Davidson diagonalization with overlap
     ethr =  1.00E-02,  avg # of iterations =  4.4

     total energy              =   -1187.38010861 Ry
     Harris-Foulkes estimate   =   -1187.61929796 Ry
     estimated scf accuracy    <       3.36650410 Ry

[...]

     total energy              =   -1186.67437360 Ry
     Harris-Foulkes estimate   =   -1186.67436560 Ry
     estimated scf accuracy    <       0.00000060 Ry

     iteration # 11     ecut=    58.80 Ry     beta=0.10
     Davidson diagonalization with overlap
     ethr =  7.95E-10,  avg # of iterations =  2.0

     End of self-consistent calculation

          k = 0.0000 0.0000 0.0000 (  3407 PWs)   bands (ev):

   -74.4282 -74.4020 -74.4019 -74.4019 -37.9983 -37.9983 -37.9983 -37.8963
   -37.8963 -37.8963 -37.8963 -37.8963 -37.8963 -37.8272 -37.8272 -37.8272
    10.0010  11.1620  11.1620  11.1620  11.3029  11.3029  11.3029  12.8411
    12.8411  12.8411  13.9012  13.9012  14.6898  14.6898  14.6899  14.9444
    14.9444  14.9444  14.9444  14.9444  14.9444  19.5829  19.5829  19.5829
    24.8584  24.8584  24.8584  28.8927  28.8927  28.8927  28.8927  28.8927
    28.8927  34.4599  35.3694  35.3694  35.3694  35.5413  35.5413  35.5413
    38.0936  38.0936

[...]

          k = 0.1030-0.1236-0.1236 (  3408 PWs)   bands (ev):

[...]

          k =-0.1236-0.1236-0.1236 (  3448 PWs)   bands (ev):

   -74.4085 -74.4085 -74.4085 -74.4085 -38.0070 -38.0070 -38.0070 -38.0070
   -37.8544 -37.8544 -37.8544 -37.8544 -37.8544 -37.8544 -37.8544 -37.8544
    11.2434  11.2434  11.2434  11.2434  12.8137  12.8137  12.8137  12.8137
    12.8137  12.8137  12.8137  12.8137  14.7267  14.7267  14.7267  14.7267
    14.7267  14.7267  14.7267  14.7267  17.5068  17.5068  17.5068  17.5068
    21.6456  21.6456  21.6456  21.6456  33.6015  33.6015  33.6015  33.6015
    36.3596  36.3596  36.3596  36.3596  36.3596  36.3596  36.3596  36.3596
    41.0946  41.0946

     the Fermi energy is    17.9566 ev

!    total energy              =   -1186.67440824 Ry
     Harris-Foulkes estimate   =   -1186.67437371 Ry
     estimated scf accuracy    <          6.0E-09 Ry

     The total energy is the sum of the following terms:

     one-electron contribution =    -485.20730813 Ry
     hartree contribution      =     285.01672475 Ry
     xc contribution           =    -120.64883276 Ry
     ewald contribution        =    -865.83290482 Ry
     smearing contrib. (-TS)   =      -0.00208727 Ry

     convergence has been achieved in  11 iterations

 BEEF-vdW xc energy contributions
           1 :   -104.643958494002
           2 :    95.2017584012859
           3 :   -79.1812546001986
           4 :    61.1336856175094
           5 :   -45.4998779885444
           6 :    35.0177245317718
           7 :   -30.0173512923383
           8 :    28.8175449209273
           9 :   -28.8992015855721
          10 :    28.2026346955885
          11 :   -25.9252996949324
          12 :    22.5344301210133
          13 :   -19.1465453530866
          14 :    16.7219007972105
          15 :   -15.5377913178280
          16 :    15.1695346718209
          17 :   -14.8857492367028
          18 :    14.1470139743156
          19 :   -12.8921823898783
          20 :    11.4765346115623
          21 :   -10.3587612528752
          22 :    9.77339241120126
          23 :   -9.59984044265231
          24 :    9.48572449480270
          25 :   -9.11173363629240
          26 :    8.40688815492030
          27 :   -7.57610219539582
          28 :    6.93880443428205
          29 :   -6.70186047187053
          30 :    6.82294970824323
          31 :   -10.4150749346248
          32 :   -7.68316925847135

     Forces acting on atoms (Ry/au):

     atom    1 type  1   force =     0.00000000    0.00000000    0.00000000
     atom    2 type  1   force =     0.00000000    0.00000000    0.00000000
     atom    3 type  1   force =     0.00000000    0.00000000    0.00000000
     atom    4 type  1   force =     0.00000000    0.00000000   -0.00000000

     Total force =     0.000000     Total SCF correction =     0.000000

     General routines

     Parallel routines

   This run was terminated on:  14:22:37  19Oct2017

   JOB DONE.