     Program PWSCF v.5.1rc2 (svn rev. ) starts on 19Oct2017 at 14:11:29

     Current dimensions of program PWSCF are:
     Max number of different atomic species (ntypx) = 10
     Max number of k-points (npk) =  40000
     Max angular momentum in pseudopotentials (lmaxx) =  3

     IMPORTANT: XC functional enforced from input :
     Exchange-correlation      = BEEF-VDW ( 1  4 27 13 2)
     Any further DFT definition will be discarded
     Please, verify this is what you really want

     Subspace diagonalization in iterative solution of the eigenvalue problem:
     a serial algorithm will be used

     Found symmetry operation: I + (  0.0000  0.5000  0.5000)
     This is a supercell, fractional translations are disabled

     bravais-lattice index     =            0
     lattice parameter (alat)  =       1.8897  a.u.
     unit-cell volume          =     399.2185 (a.u.)^3
     number of atoms/cell      =            4
     number of atomic types    =            1
     number of electrons       =        64.00
     number of Kohn-Sham states=           52
     kinetic-energy cutoff     =      58.7989  Ry
     charge density cutoff     =     587.9892  Ry
     convergence threshold     =      7.3E-09
     mixing beta               =       0.1000
     number of iterations used =           10  local-TF  mixing
     Exchange-correlation      = BEEF-VDW ( 1  4 27 13 2)

     celldm(1)=   1.889726  celldm(2)=   0.000000  celldm(3)=   0.000000
     celldm(4)=   0.000000  celldm(5)=   0.000000  celldm(6)=   0.000000

     crystal axes: (cart. coord. in units of alat)
               a(1) = (   3.896470   0.000000   0.000000 )
               a(2) = (   0.000000   3.896470   0.000000 )
               a(3) = (   0.000000   0.000000   3.896470 )

     reciprocal axes: (cart. coord. in units 2 pi/alat)
               b(1) = (  0.256643  0.000000  0.000000 )
               b(2) = (  0.000000  0.256643  0.000000 )
               b(3) = (  0.000000  0.000000  0.256643 )

     PseudoPot. # 1 for Pd read from file:
     /home/vossj/suncat/psp/gbrv1.5pbe/Pd.UPF
     MD5 check sum: 2d733d2bc2cbfd217af676df1668a4bc
     Pseudo is Ultrasoft + core correction, Zval = 16.0
     Generated by new atomic code, or converted to UPF format
     Using radial grid of  887 points,  6 beta functions with:
                l(1) =   0
                l(2) =   0
                l(3) =   1
                l(4) =   1
                l(5) =   2
                l(6) =   2
     Q(r) pseudized with  8 coefficients,  rinner =    1.130   1.130   1.130
                                                       1.130   1.130

     vdW kernel table read from file vdW_kernel_table
     MD5 check sum: 095c7af220d748ca6e76c0b4c6cfb241

     atomic species   valence    mass     pseudopotential
        Pd1           16.00   106.42000     Pd( 1.00)

     48 Sym. Ops., with inversion, found

   Cartesian axes

     site n.     atom                  positions (alat units)
         1           Pd1 tau(   1) = (   0.0000000   0.0000000   0.0000000  )
         2           Pd1 tau(   2) = (   0.0000000   1.9482350   1.9482350  )
         3           Pd1 tau(   3) = (   1.9482350   0.0000000   1.9482350  )
         4           Pd1 tau(   4) = (   1.9482350   1.9482350   0.0000000  )

     number of k points=    84  Fermi-Dirac smearing, width (Ry)=  0.0073
                       cart. coord. in units 2pi/alat
        k(    1) = (   0.0000000   0.0000000   0.0000000), wk =   0.0011574
        k(    2) = (   0.0000000   0.0000000   0.0213869), wk =   0.0069444
        k(    3) = (   0.0000000   0.0000000   0.0427738), wk =   0.0069444
        k(    4) = (   0.0000000   0.0000000   0.0641606), wk =   0.0069444
        k(    5) = (   0.0000000   0.0000000   0.0855475), wk =   0.0069444
        k(    6) = (   0.0000000   0.0000000   0.1069344), wk =   0.0069444
        k(    7) = (   0.0000000   0.0000000  -0.1283213), wk =   0.0034722
        k(    8) = (   0.0000000   0.0213869   0.0213869), wk =   0.0138889
        k(    9) = (   0.0000000   0.0213869   0.0427738), wk =   0.0277778
        k(   10) = (   0.0000000   0.0213869   0.0641606), wk =   0.0277778
        k(   11) = (   0.0000000   0.0213869   0.0855475), wk =   0.0277778
        k(   12) = (   0.0000000   0.0213869   0.1069344), wk =   0.0277778
        k(   13) = (   0.0000000   0.0213869  -0.1283213), wk =   0.0138889
        k(   14) = (   0.0000000   0.0427738   0.0427738), wk =   0.0138889
        k(   15) = (   0.0000000   0.0427738   0.0641606), wk =   0.0277778
        k(   16) = (   0.0000000   0.0427738   0.0855475), wk =   0.0277778
        k(   17) = (   0.0000000   0.0427738   0.1069344), wk =   0.0277778
        k(   18) = (   0.0000000   0.0427738  -0.1283213), wk =   0.0138889
        k(   19) = (   0.0000000   0.0641606   0.0641606), wk =   0.0138889
        k(   20) = (   0.0000000   0.0641606   0.0855475), wk =   0.0277778
        k(   21) = (   0.0000000   0.0641606   0.1069344), wk =   0.0277778
        k(   22) = (   0.0000000   0.0641606  -0.1283213), wk =   0.0138889
        k(   23) = (   0.0000000   0.0855475   0.0855475), wk =   0.0138889
        k(   24) = (   0.0000000   0.0855475   0.1069344), wk =   0.0277778
        k(   25) = (   0.0000000   0.0855475  -0.1283213), wk =   0.0138889
        k(   26) = (   0.0000000   0.1069344   0.1069344), wk =   0.0138889
        k(   27) = (   0.0000000   0.1069344  -0.1283213), wk =   0.0138889
        k(   28) = (   0.0000000  -0.1283213  -0.1283213), wk =   0.0034722
        k(   29) = (   0.0213869   0.0213869   0.0213869), wk =   0.0092593
        k(   30) = (   0.0213869   0.0213869   0.0427738), wk =   0.0277778
        k(   31) = (   0.0213869   0.0213869   0.0641606), wk =   0.0277778
        k(   32) = (   0.0213869   0.0213869   0.0855475), wk =   0.0277778
        k(   33) = (   0.0213869   0.0213869   0.1069344), wk =   0.0277778
        k(   34) = (   0.0213869   0.0213869  -0.1283213), wk =   0.0138889
        k(   35) = (   0.0213869   0.0427738   0.0427738), wk =   0.0277778
        k(   36) = (   0.0213869   0.0427738   0.0641606), wk =   0.0555556
        k(   37) = (   0.0213869   0.0427738   0.0855475), wk =   0.0555556
        k(   38) = (   0.0213869   0.0427738   0.1069344), wk =   0.0555556
        k(   39) = (   0.0213869   0.0427738  -0.1283213), wk =   0.0277778
        k(   40) = (   0.0213869   0.0641606   0.0641606), wk =   0.0277778
        k(   41) = (   0.0213869   0.0641606   0.0855475), wk =   0.0555556
        k(   42) = (   0.0213869   0.0641606   0.1069344), wk =   0.0555556
        k(   43) = (   0.0213869   0.0641606  -0.1283213), wk =   0.0277778
        k(   44) = (   0.0213869   0.0855475   0.0855475), wk =   0.0277778
        k(   45) = (   0.0213869   0.0855475   0.1069344), wk =   0.0555556
        k(   46) = (   0.0213869   0.0855475  -0.1283213), wk =   0.0277778
        k(   47) = (   0.0213869   0.1069344   0.1069344), wk =   0.0277778
        k(   48) = (   0.0213869   0.1069344  -0.1283213), wk =   0.0277778
        k(   49) = (   0.0213869  -0.1283213  -0.1283213), wk =   0.0069444
        k(   50) = (   0.0427738   0.0427738   0.0427738), wk =   0.0092593
        k(   51) = (   0.0427738   0.0427738   0.0641606), wk =   0.0277778
        k(   52) = (   0.0427738   0.0427738   0.0855475), wk =   0.0277778
        k(   53) = (   0.0427738   0.0427738   0.1069344), wk =   0.0277778
        k(   54) = (   0.0427738   0.0427738  -0.1283213), wk =   0.0138889
        k(   55) = (   0.0427738   0.0641606   0.0641606), wk =   0.0277778
        k(   56) = (   0.0427738   0.0641606   0.0855475), wk =   0.0555556
        k(   57) = (   0.0427738   0.0641606   0.1069344), wk =   0.0555556
        k(   58) = (   0.0427738   0.0641606  -0.1283213), wk =   0.0277778
        k(   59) = (   0.0427738   0.0855475   0.0855475), wk =   0.0277778
        k(   60) = (   0.0427738   0.0855475   0.1069344), wk =   0.0555556
[...]
        k(   70) = (   0.0641606   0.0855475   0.1069344), wk =   0.0555556
        k(   71) = (   0.0641606   0.0855475  -0.1283213), wk =   0.0277778
        k(   72) = (   0.0641606   0.1069344   0.1069344), wk =   0.0277778
        k(   73) = (   0.0641606   0.1069344  -0.1283213), wk =   0.0277778
        k(   74) = (   0.0641606  -0.1283213  -0.1283213), wk =   0.0069444
        k(   75) = (   0.0855475   0.0855475   0.0855475), wk =   0.0092593
        k(   76) = (   0.0855475   0.0855475   0.1069344), wk =   0.0277778
        k(   77) = (   0.0855475   0.0855475  -0.1283213), wk =   0.0138889
        k(   78) = (   0.0855475   0.1069344   0.1069344), wk =   0.0277778
        k(   79) = (   0.0855475   0.1069344  -0.1283213), wk =   0.0277778
        k(   80) = (   0.0855475  -0.1283213  -0.1283213), wk =   0.0069444
        k(   81) = (   0.1069344   0.1069344   0.1069344), wk =   0.0092593
        k(   82) = (   0.1069344   0.1069344  -0.1283213), wk =   0.0138889
        k(   83) = (   0.1069344  -0.1283213  -0.1283213), wk =   0.0069444
        k(   84) = (  -0.1283213  -0.1283213  -0.1283213), wk =   0.0011574

     Largest allocated arrays     est. size (Mb)     dimensions
     Largest temporary arrays     est. size (Mb)     dimensions

     Initial potential from superposition of free atoms
     Check: negative starting charge=   -0.311499

     starting charge   61.99997, renormalised to   64.00000

     negative rho (up, down):  3.215E-01 0.000E+00

     *
     * You are using vdW-DF for exchange-correlation in this calculation.
     * Please cite the following three references that made this development
     * possible:
     *
     *   M. Dion, H. Rydberg, E. Schroder, D. C. Langreth, and
     *   B. I. Lundqvist, Phys. Rev. Lett. 92, 246401 (2004).
     *
     *   T. Thonhauser, V. R. Cooper, S. Li, A. Puzder, P. Hyldgaard, and
     *   D. C. Langreth, Phys. Rev. B 76, 125112 (2007).
     *
     *   G. Roman-Perez and J. M. Soler, Phys. Rev. Lett. 103, 096102 (2009).
     *
     *
     * If you are using vdW-DF2, please also cite:
     *
     *   K. Lee, E. D. Murray, L. Kong, B. I. Lundqvist, and
     *   D. C. Langreth, Phys. Rev. B 82, 081101(R) (2010).
     *
     *
     * If you are calculating the stress with vdW-DF, please also cite:
     *
     *   R. Sabatini, E. Kucukbenli, B. Kolb, T. Thonhauser, and
     *   S. de Gironcoli, J. Phys.: Condens. Matter 24, 424209 (2012).
     *

     Carrying out vdW-DF run using the following parameters:

     Nqs =      20    Nr_points =    1024   r_max =   100.000
     q_mesh =
               0.00001000     0.04494208     0.09755937     0.15916263
               0.23128650     0.31572767     0.41458969     0.53033537
               0.66584808     0.82450364     1.01025438     1.22772762
               1.48234092     1.78043706     2.12944203     2.53805004
               3.01644009     3.57652955     4.23227104     5.00000000

     Gradients computed in reciprocal space

     Starting wfc are   48 randomized atomic wfcs +    4 random wfc

     Self-consistent Calculation

     iteration #  1     ecut=    58.80 Ry     beta=0.10
     Davidson diagonalization with overlap
     ethr =  1.00E-02,  avg # of iterations =  4.4

[...]

     total energy              =    -799.94579316 Ry
     Harris-Foulkes estimate   =    -800.18610457 Ry
     estimated scf accuracy    <       3.39417844 Ry

[...]

     total energy              =    -799.22225120 Ry
     Harris-Foulkes estimate   =    -799.22224886 Ry
     estimated scf accuracy    <       0.00000007 Ry

     iteration # 12     ecut=    58.80 Ry     beta=0.10
     Davidson diagonalization with overlap
     ethr =  1.15E-10,  avg # of iterations =  1.2

[...]

     negative rho (up, down):  3.271E-01 0.000E+00

     End of self-consistent calculation

          k = 0.0000 0.0000 0.0000 (  2969 PWs)   bands (ev):

   -31.7866 -31.7866 -31.7866 -31.5595 -31.5595 -31.5595 -31.5595 -31.5595
   -31.5595 -31.4103 -31.4103 -31.4103  11.4564  13.0711  13.0711  13.0711
    13.3567  13.3567  13.3567  15.5673  15.5673  15.5673  17.1236  17.1236
    18.2733  18.2733  18.2733  18.6285  18.6285  18.6285  18.6285  18.6285
    18.6285  21.9545  21.9545  21.9545  29.2287  29.2287  29.2287  32.0075
    32.0075  32.0075  32.0075  32.0075  32.0075  36.5034  40.0477  40.0477
    40.0478  40.0799  40.0799  40.0799

[...]

          k = 0.1069-0.1283-0.1283 (  3064 PWs)   bands (ev):

[...]

          k =-0.1283-0.1283-0.1283 (  3112 PWs)   bands (ev):

   -31.8081 -31.8081 -31.8081 -31.8081 -31.4677 -31.4677 -31.4677 -31.4677
   -31.4677 -31.4677 -31.4677 -31.4677  13.1991  13.1991  13.1991  13.1991
    15.5117  15.5117  15.5117  15.5117  15.5117  15.5117  15.5117  15.5117
    18.3121  18.3121  18.3121  18.3121  18.3121  18.3121  18.3121  18.3121
    19.5938  19.5938  19.5938  19.5938  25.7800  25.7800  25.7800  25.7800
    35.7047  35.7047  35.7047  35.7047  40.2642  40.2642  40.2642  40.2642
    40.2642  40.2642  40.2642  40.2642

     the Fermi energy is    18.3768 ev

!    total energy              =    -799.22226152 Ry
     Harris-Foulkes estimate   =    -799.22225121 Ry
     estimated scf accuracy    <          5.5E-09 Ry

     The total energy is the sum of the following terms:

     one-electron contribution =    -175.77262924 Ry
     hartree contribution      =     144.52265687 Ry
     xc contribution           =    -130.34272191 Ry
     ewald contribution        =    -637.61132450 Ry
     smearing contrib. (-TS)   =      -0.01824274 Ry

     convergence has been achieved in  12 iterations

 BEEF-vdW xc energy contributions
           1 :   -113.558466711257
           2 :    104.183244624419
           3 :   -87.9525807169708
           4 :    68.9758791826752
           5 :   -51.4882823256626
           6 :    38.4626686201122
           7 :   -30.8430863033994
           8 :    27.6432574826409
           9 :   -26.7642290923134
          10 :    26.0924373710143
          11 :   -24.3712215241730
          12 :    21.5076211964325
          13 :   -18.2804745627257
          14 :    15.6974337402995
          15 :   -14.3752555814296
          16 :    14.2462742363592
          17 :   -14.6835231196725
          18 :    14.9098334906749
          19 :   -14.4295118436930
          20 :    13.2473486645044
          21 :   -11.7860368065653
          22 :    10.5876471803636
          23 :   -9.99113400190028
          24 :    9.96672996142198
          25 :   -10.1791864297021
          26 :    10.2159033602476
          27 :   -9.83118124309887
          28 :    9.06582177721170
          29 :   -8.18785335187518
          30 :    7.50835642269831
          31 :   -11.0394653525045
          32 :   -8.25357711317777

     Forces acting on atoms (Ry/au):

     negative rho (up, down):  3.271E-01 0.000E+00
     atom    1 type  1   force =     0.00000000    0.00000000    0.00000000
     atom    2 type  1   force =     0.00000000    0.00000000    0.00000000
     atom    3 type  1   force =     0.00000000    0.00000000    0.00000000
     atom    4 type  1   force =     0.00000000    0.00000000    0.00000000

     Total force =     0.000000     Total SCF correction =     0.000000

     General routines

     Parallel routines

   This run was terminated on:  14:12:26  19Oct2017

   JOB DONE.