     Program PWSCF v.5.1rc2 (svn rev. ) starts on 19Oct2017 at 14: 8:43

     Current dimensions of program PWSCF are:
     Max number of different atomic species (ntypx) = 10
     Max number of k-points (npk) =  40000
     Max angular momentum in pseudopotentials (lmaxx) =  3

     IMPORTANT: XC functional enforced from input :
     Exchange-correlation      = BEEF-VDW ( 1  4 27 13 2)
     Any further DFT definition will be discarded
     Please, verify this is what you really want

     Subspace diagonalization in iterative solution of the eigenvalue problem:
     a serial algorithm will be used

     Found symmetry operation: I + (  0.0000 -0.5000 -0.5000)
     This is a supercell, fractional translations are disabled

     bravais-lattice index     =            0
     lattice parameter (alat)  =       1.8897  a.u.
     unit-cell volume          =     478.4008 (a.u.)^3
     number of atoms/cell      =            4
     number of atomic types    =            1
     number of electrons       =        52.00
     number of Kohn-Sham states=           46
     kinetic-energy cutoff     =      58.7989  Ry
     charge density cutoff     =     587.9892  Ry
     convergence threshold     =      7.3E-09
     mixing beta               =       0.1000
     number of iterations used =           10  local-TF  mixing
     Exchange-correlation      = BEEF-VDW ( 1  4 27 13 2)

     celldm(1)=   1.889726  celldm(2)=   0.000000  celldm(3)=   0.000000
     celldm(4)=   0.000000  celldm(5)=   0.000000  celldm(6)=   0.000000

     crystal axes: (cart. coord. in units of alat)
               a(1) = (   4.138711   0.000000   0.000000 )
               a(2) = (   0.000000   4.138711   0.000000 )
               a(3) = (   0.000000   0.000000   4.138711 )

     reciprocal axes: (cart. coord. in units 2 pi/alat)
               b(1) = (  0.241621  0.000000  0.000000 )
               b(2) = (  0.000000  0.241621  0.000000 )
               b(3) = (  0.000000  0.000000  0.241621 )

     PseudoPot. # 1 for Nb read from file:
     /home/vossj/suncat/psp/gbrv1.5pbe/Nb.UPF
     MD5 check sum: 573aab8a2fa660278ed4a62cd769473f
     Pseudo is Ultrasoft + core correction, Zval = 13.0
     Generated by new atomic code, or converted to UPF format
     Using radial grid of  887 points,  6 beta functions with:
                l(1) =   0
                l(2) =   0
                l(3) =   1
                l(4) =   1
                l(5) =   2
                l(6) =   2
     Q(r) pseudized with  6 coefficients,  rinner =    1.000   1.000   1.000
                                                       1.000   1.000

     vdW kernel table read from file vdW_kernel_table
     MD5 check sum: 095c7af220d748ca6e76c0b4c6cfb241

     atomic species   valence    mass     pseudopotential
        Nb1           13.00    92.90637     Nb( 1.00)

     48 Sym. Ops., with inversion, found

   Cartesian axes

     site n.     atom                  positions (alat units)
         1           Nb1 tau(   1) = (   0.0000000   0.0000000   0.0000000  )
         2           Nb1 tau(   2) = (   0.0000000   2.0693555   2.0693555  )
         3           Nb1 tau(   3) = (   2.0693555   0.0000000   2.0693555  )
         4           Nb1 tau(   4) = (   2.0693555   2.0693555   0.0000000  )

     number of k points=    84  Fermi-Dirac smearing, width (Ry)=  0.0073
                       cart. coord. in units 2pi/alat
        k(    1) = (   0.0000000   0.0000000   0.0000000), wk =   0.0011574
        k(    2) = (   0.0000000   0.0000000   0.0201351), wk =   0.0069444
        k(    3) = (   0.0000000   0.0000000   0.0402702), wk =   0.0069444
        k(    4) = (   0.0000000   0.0000000   0.0604053), wk =   0.0069444
        k(    5) = (   0.0000000   0.0000000   0.0805404), wk =   0.0069444
        k(    6) = (   0.0000000   0.0000000   0.1006755), wk =   0.0069444
        k(    7) = (   0.0000000   0.0000000  -0.1208106), wk =   0.0034722
        k(    8) = (   0.0000000   0.0201351   0.0201351), wk =   0.0138889
        k(    9) = (   0.0000000   0.0201351   0.0402702), wk =   0.0277778
        k(   10) = (   0.0000000   0.0201351   0.0604053), wk =   0.0277778
        k(   11) = (   0.0000000   0.0201351   0.0805404), wk =   0.0277778
        k(   12) = (   0.0000000   0.0201351   0.1006755), wk =   0.0277778
        k(   13) = (   0.0000000   0.0201351  -0.1208106), wk =   0.0138889
        k(   14) = (   0.0000000   0.0402702   0.0402702), wk =   0.0138889
        k(   15) = (   0.0000000   0.0402702   0.0604053), wk =   0.0277778
        k(   16) = (   0.0000000   0.0402702   0.0805404), wk =   0.0277778
        k(   17) = (   0.0000000   0.0402702   0.1006755), wk =   0.0277778
        k(   18) = (   0.0000000   0.0402702  -0.1208106), wk =   0.0138889
        k(   19) = (   0.0000000   0.0604053   0.0604053), wk =   0.0138889
        k(   20) = (   0.0000000   0.0604053   0.0805404), wk =   0.0277778
        k(   21) = (   0.0000000   0.0604053   0.1006755), wk =   0.0277778
        k(   22) = (   0.0000000   0.0604053  -0.1208106), wk =   0.0138889
        k(   23) = (   0.0000000   0.0805404   0.0805404), wk =   0.0138889
        k(   24) = (   0.0000000   0.0805404   0.1006755), wk =   0.0277778
        k(   25) = (   0.0000000   0.0805404  -0.1208106), wk =   0.0138889
        k(   26) = (   0.0000000   0.1006755   0.1006755), wk =   0.0138889
        k(   27) = (   0.0000000   0.1006755  -0.1208106), wk =   0.0138889
        k(   28) = (   0.0000000  -0.1208106  -0.1208106), wk =   0.0034722
        k(   29) = (   0.0201351   0.0201351   0.0201351), wk =   0.0092593
        k(   30) = (   0.0201351   0.0201351   0.0402702), wk =   0.0277778
        k(   31) = (   0.0201351   0.0201351   0.0604053), wk =   0.0277778
        k(   32) = (   0.0201351   0.0201351   0.0805404), wk =   0.0277778
        k(   33) = (   0.0201351   0.0201351   0.1006755), wk =   0.0277778
        k(   34) = (   0.0201351   0.0201351  -0.1208106), wk =   0.0138889
        k(   35) = (   0.0201351   0.0402702   0.0402702), wk =   0.0277778
        k(   36) = (   0.0201351   0.0402702   0.0604053), wk =   0.0555556
        k(   37) = (   0.0201351   0.0402702   0.0805404), wk =   0.0555556
        k(   38) = (   0.0201351   0.0402702   0.1006755), wk =   0.0555556
        k(   39) = (   0.0201351   0.0402702  -0.1208106), wk =   0.0277778
        k(   40) = (   0.0201351   0.0604053   0.0604053), wk =   0.0277778
        k(   41) = (   0.0201351   0.0604053   0.0805404), wk =   0.0555556
        k(   42) = (   0.0201351   0.0604053   0.1006755), wk =   0.0555556
        k(   43) = (   0.0201351   0.0604053  -0.1208106), wk =   0.0277778
        k(   44) = (   0.0201351   0.0805404   0.0805404), wk =   0.0277778
        k(   45) = (   0.0201351   0.0805404   0.1006755), wk =   0.0555556
        k(   46) = (   0.0201351   0.0805404  -0.1208106), wk =   0.0277778
        k(   47) = (   0.0201351   0.1006755   0.1006755), wk =   0.0277778
        k(   48) = (   0.0201351   0.1006755  -0.1208106), wk =   0.0277778
        k(   49) = (   0.0201351  -0.1208106  -0.1208106), wk =   0.0069444
        k(   50) = (   0.0402702   0.0402702   0.0402702), wk =   0.0092593
        k(   51) = (   0.0402702   0.0402702   0.0604053), wk =   0.0277778
        k(   52) = (   0.0402702   0.0402702   0.0805404), wk =   0.0277778
        k(   53) = (   0.0402702   0.0402702   0.1006755), wk =   0.0277778
        k(   54) = (   0.0402702   0.0402702  -0.1208106), wk =   0.0138889
        k(   55) = (   0.0402702   0.0604053   0.0604053), wk =   0.0277778
        k(   56) = (   0.0402702   0.0604053   0.0805404), wk =   0.0555556
        k(   57) = (   0.0402702   0.0604053   0.1006755), wk =   0.0555556
        k(   58) = (   0.0402702   0.0604053  -0.1208106), wk =   0.0277778
        k(   59) = (   0.0402702   0.0805404   0.0805404), wk =   0.0277778
        k(   60) = (   0.0402702   0.0805404   0.1006755), wk =   0.0555556
[...]
        k(   70) = (   0.0604053   0.0805404   0.1006755), wk =   0.0555556
        k(   71) = (   0.0604053   0.0805404  -0.1208106), wk =   0.0277778
        k(   72) = (   0.0604053   0.1006755   0.1006755), wk =   0.0277778
        k(   73) = (   0.0604053   0.1006755  -0.1208106), wk =   0.0277778
        k(   74) = (   0.0604053  -0.1208106  -0.1208106), wk =   0.0069444
        k(   75) = (   0.0805404   0.0805404   0.0805404), wk =   0.0092593
        k(   76) = (   0.0805404   0.0805404   0.1006755), wk =   0.0277778
        k(   77) = (   0.0805404   0.0805404  -0.1208106), wk =   0.0138889
        k(   78) = (   0.0805404   0.1006755   0.1006755), wk =   0.0277778
        k(   79) = (   0.0805404   0.1006755  -0.1208106), wk =   0.0277778
        k(   80) = (   0.0805404  -0.1208106  -0.1208106), wk =   0.0069444
        k(   81) = (   0.1006755   0.1006755   0.1006755), wk =   0.0092593
        k(   82) = (   0.1006755   0.1006755  -0.1208106), wk =   0.0138889
        k(   83) = (   0.1006755  -0.1208106  -0.1208106), wk =   0.0069444
        k(   84) = (  -0.1208106  -0.1208106  -0.1208106), wk =   0.0011574

     Largest allocated arrays     est. size (Mb)     dimensions
     Largest temporary arrays     est. size (Mb)     dimensions

     Initial potential from superposition of free atoms

     starting charge   51.98907, renormalised to   52.00000

     *
     * You are using vdW-DF for exchange-correlation in this calculation.
     * Please cite the following three references that made this development
     * possible:
     *
     *   M. Dion, H. Rydberg, E. Schroder, D. C. Langreth, and
     *   B. I. Lundqvist, Phys. Rev. Lett. 92, 246401 (2004).
     *
     *   T. Thonhauser, V. R. Cooper, S. Li, A. Puzder, P. Hyldgaard, and
     *   D. C. Langreth, Phys. Rev. B 76, 125112 (2007).
     *
     *   G. Roman-Perez and J. M. Soler, Phys. Rev. Lett. 103, 096102 (2009).
     *
     *
     * If you are using vdW-DF2, please also cite:
     *
     *   K. Lee, E. D. Murray, L. Kong, B. I. Lundqvist, and
     *   D. C. Langreth, Phys. Rev. B 82, 081101(R) (2010).
     *
     *
     * If you are calculating the stress with vdW-DF, please also cite:
     *
     *   R. Sabatini, E. Kucukbenli, B. Kolb, T. Thonhauser, and
     *   S. de Gironcoli, J. Phys.: Condens. Matter 24, 424209 (2012).
     *

     Carrying out vdW-DF run using the following parameters:

     Nqs =      20    Nr_points =    1024   r_max =   100.000
     q_mesh =
               0.00001000     0.04494208     0.09755937     0.15916263
               0.23128650     0.31572767     0.41458969     0.53033537
               0.66584808     0.82450364     1.01025438     1.22772762
               1.48234092     1.78043706     2.12944203     2.53805004
               3.01644009     3.57652955     4.23227104     5.00000000

     Gradients computed in reciprocal space

     Starting wfc are   52 randomized atomic wfcs

     Self-consistent Calculation

     iteration #  1     ecut=    58.80 Ry     beta=0.10
     Davidson diagonalization with overlap
     ethr =  1.00E-02,  avg # of iterations =  4.5

     Threshold (ethr) on eigenvalues was too large:
     Diagonalizing with lowered threshold

     Davidson diagonalization with overlap
     ethr =  4.89E-04,  avg # of iterations =  1.7

     total energy              =    -474.27612752 Ry
     Harris-Foulkes estimate   =    -474.28532745 Ry
     estimated scf accuracy    <       0.25636340 Ry

[...]

     total energy              =    -474.22117860 Ry
     Harris-Foulkes estimate   =    -474.22117715 Ry
     estimated scf accuracy    <       0.00000001 Ry

     iteration # 10     ecut=    58.80 Ry     beta=0.10
     Davidson diagonalization with overlap
     ethr =  2.27E-11,  avg # of iterations =  1.1

     End of self-consistent calculation

          k = 0.0000 0.0000 0.0000 (  3743 PWs)   bands (ev):

   -36.5977 -36.2816 -36.2816 -36.2816 -13.1361 -13.1361 -13.1361 -12.3374
   -12.3374 -12.3374 -12.3374 -12.3374 -12.3374 -11.8488 -11.8488 -11.8488
    12.1616  14.0828  14.0828  14.0828  14.8297  14.8297  14.8297  18.4728
    18.4728  18.4728  21.2517  21.2517  22.3626  22.3626  22.3626  23.3220
    23.3220  23.3220  23.9157  23.9157  23.9157  23.9157  23.9157  23.9157
    30.2046  30.2046  30.2046  30.2046  30.2046  30.2046

[...]

          k = 0.1007-0.1208-0.1208 (  3604 PWs)   bands (ev):

[...]

          k =-0.1208-0.1208-0.1208 (  3648 PWs)   bands (ev):

   -36.3593 -36.3593 -36.3593 -36.3593 -13.2307 -13.2307 -13.2307 -13.2307
   -12.0263 -12.0263 -12.0263 -12.0263 -12.0263 -12.0263 -12.0263 -12.0263
    14.4149  14.4149  14.4149  14.4149  18.2768  18.2768  18.2768  18.2768
    18.2768  18.2768  18.2768  18.2768  19.9910  19.9910  19.9910  19.9910
    23.3251  23.3251  23.3251  23.3251  23.3251  23.3251  23.3251  23.3251
    29.6960  29.6960  29.6960  29.6960  30.0726  30.0726

     the Fermi energy is    18.4260 ev

!    total energy              =    -474.22112723 Ry
     Harris-Foulkes estimate   =    -474.22117860 Ry
     estimated scf accuracy    <          1.6E-09 Ry

     The total energy is the sum of the following terms:

     one-electron contribution =     -60.96524296 Ry
     hartree contribution      =      59.66941866 Ry
     xc contribution           =     -76.62486003 Ry
     ewald contribution        =    -396.28625814 Ry
     smearing contrib. (-TS)   =      -0.01418477 Ry

     convergence has been achieved in  10 iterations

 BEEF-vdW xc energy contributions
           1 :   -65.7519962560647
           2 :    60.1875889306040
           3 :   -50.5347697743378
           4 :    39.2015840984926
           5 :   -28.6700753384340
           6 :    20.6790458983335
           7 :   -15.7682403398231
           8 :    13.3316778183144
           9 :   -12.1009227136743
          10 :    10.8040141575775
          11 :   -8.69865058424436
          12 :    5.77056405183049
          13 :   -2.56506255970878
          14 :  -0.208971133151266
          15 :    2.07773517950166
          16 :   -3.01060770044279
          17 :    3.36519444514371
          18 :   -3.63760779954387
          19 :    4.17522431201658
          20 :   -5.00771020392698
          21 :    5.87118179934313
          22 :   -6.39021489253709
          23 :    6.30308811294658
          24 :   -5.60513493142341
          25 :    4.54172234024725
          26 :   -3.46947944550577
          27 :    2.67280167823738
          28 :   -2.23782053557792
          29 :    2.04500626299993
          30 :   -1.87168974894385
          31 :   -7.55394873101170
          32 :   -5.81190963453966

     Forces acting on atoms (Ry/au):

     atom    1 type  1   force =     0.00000000    0.00000000    0.00000000
     atom    2 type  1   force =     0.00000000    0.00000000    0.00000000
     atom    3 type  1   force =     0.00000000    0.00000000    0.00000000
     atom    4 type  1   force =     0.00000000    0.00000000    0.00000000

     Total force =     0.000000     Total SCF correction =     0.000000

     General routines

     Parallel routines

   This run was terminated on:  14: 9:37  19Oct2017

   JOB DONE.