     Program PWSCF v.5.1rc2 (svn rev. ) starts on 19Oct2017 at 15:27: 2

     Current dimensions of program PWSCF are:
     Max number of different atomic species (ntypx) = 10
     Max number of k-points (npk) =  40000
     Max angular momentum in pseudopotentials (lmaxx) =  3

     IMPORTANT: XC functional enforced from input :
     Exchange-correlation      = BEEF-VDW ( 1  4 27 13 2)
     Any further DFT definition will be discarded
     Please, verify this is what you really want

     Subspace diagonalization in iterative solution of the eigenvalue problem:
     a serial algorithm will be used

     Found symmetry operation: I + (  0.0000 -0.5000 -0.5000)
     This is a supercell, fractional translations are disabled

     bravais-lattice index     =            0
     lattice parameter (alat)  =       1.8897  a.u.
     unit-cell volume          =     713.7094 (a.u.)^3
     number of atoms/cell      =            4
     number of atomic types    =            1
     number of electrons       =        52.00
     number of Kohn-Sham states=           46
     kinetic-energy cutoff     =      58.7989  Ry
     charge density cutoff     =     587.9892  Ry
     convergence threshold     =      7.3E-09
     mixing beta               =       0.1000
     number of iterations used =           10  local-TF  mixing
     Exchange-correlation      = BEEF-VDW ( 1  4 27 13 2)

     celldm(1)=   1.889726  celldm(2)=   0.000000  celldm(3)=   0.000000
     celldm(4)=   0.000000  celldm(5)=   0.000000  celldm(6)=   0.000000

     crystal axes: (cart. coord. in units of alat)
               a(1) = (   4.729061   0.000000   0.000000 )
               a(2) = (   0.000000   4.729061   0.000000 )
               a(3) = (   0.000000   0.000000   4.729061 )

     reciprocal axes: (cart. coord. in units 2 pi/alat)
               b(1) = (  0.211458  0.000000  0.000000 )
               b(2) = (  0.000000  0.211458  0.000000 )
               b(3) = (  0.000000  0.000000  0.211458 )

     PseudoPot. # 1 for Tl read from file:
     /home/vossj/suncat/psp/gbrv1.5pbe/Tl.UPF
     MD5 check sum: b76cf1f7e72655a2b2c53cf6385d7059
     Pseudo is Ultrasoft + core correction, Zval = 13.0
     Generated by new atomic code, or converted to UPF format
     Using radial grid of  899 points,  6 beta functions with:
                l(1) =   0
                l(2) =   0
                l(3) =   1
                l(4) =   1
                l(5) =   2
                l(6) =   2
     Q(r) pseudized with  6 coefficients,  rinner =    1.100   1.100   1.100
                                                       1.100   1.100

     vdW kernel table read from file vdW_kernel_table
     MD5 check sum: 095c7af220d748ca6e76c0b4c6cfb241

     atomic species   valence    mass     pseudopotential
        Tl1           13.00   204.38000     Tl( 1.00)

     48 Sym. Ops., with inversion, found

   Cartesian axes

     site n.     atom                  positions (alat units)
         1           Tl1 tau(   1) = (   0.0000000   0.0000000   0.0000000  )
         2           Tl1 tau(   2) = (   0.0000000   2.3645306   2.3645306  )
         3           Tl1 tau(   3) = (   2.3645306   0.0000000   2.3645306  )
         4           Tl1 tau(   4) = (   2.3645306   2.3645306   0.0000000  )

     number of k points=    84  Fermi-Dirac smearing, width (Ry)=  0.0073
                       cart. coord. in units 2pi/alat
        k(    1) = (   0.0000000   0.0000000   0.0000000), wk =   0.0011574
        k(    2) = (   0.0000000   0.0000000   0.0176215), wk =   0.0069444
        k(    3) = (   0.0000000   0.0000000   0.0352431), wk =   0.0069444
        k(    4) = (   0.0000000   0.0000000   0.0528646), wk =   0.0069444
        k(    5) = (   0.0000000   0.0000000   0.0704862), wk =   0.0069444
        k(    6) = (   0.0000000   0.0000000   0.0881077), wk =   0.0069444
        k(    7) = (   0.0000000   0.0000000  -0.1057292), wk =   0.0034722
        k(    8) = (   0.0000000   0.0176215   0.0176215), wk =   0.0138889
        k(    9) = (   0.0000000   0.0176215   0.0352431), wk =   0.0277778
        k(   10) = (   0.0000000   0.0176215   0.0528646), wk =   0.0277778
        k(   11) = (   0.0000000   0.0176215   0.0704862), wk =   0.0277778
        k(   12) = (   0.0000000   0.0176215   0.0881077), wk =   0.0277778
        k(   13) = (   0.0000000   0.0176215  -0.1057292), wk =   0.0138889
        k(   14) = (   0.0000000   0.0352431   0.0352431), wk =   0.0138889
        k(   15) = (   0.0000000   0.0352431   0.0528646), wk =   0.0277778
        k(   16) = (   0.0000000   0.0352431   0.0704862), wk =   0.0277778
        k(   17) = (   0.0000000   0.0352431   0.0881077), wk =   0.0277778
        k(   18) = (   0.0000000   0.0352431  -0.1057292), wk =   0.0138889
        k(   19) = (   0.0000000   0.0528646   0.0528646), wk =   0.0138889
        k(   20) = (   0.0000000   0.0528646   0.0704862), wk =   0.0277778
        k(   21) = (   0.0000000   0.0528646   0.0881077), wk =   0.0277778
        k(   22) = (   0.0000000   0.0528646  -0.1057292), wk =   0.0138889
        k(   23) = (   0.0000000   0.0704862   0.0704862), wk =   0.0138889
        k(   24) = (   0.0000000   0.0704862   0.0881077), wk =   0.0277778
        k(   25) = (   0.0000000   0.0704862  -0.1057292), wk =   0.0138889
        k(   26) = (   0.0000000   0.0881077   0.0881077), wk =   0.0138889
        k(   27) = (   0.0000000   0.0881077  -0.1057292), wk =   0.0138889
        k(   28) = (   0.0000000  -0.1057292  -0.1057292), wk =   0.0034722
        k(   29) = (   0.0176215   0.0176215   0.0176215), wk =   0.0092593
        k(   30) = (   0.0176215   0.0176215   0.0352431), wk =   0.0277778
        k(   31) = (   0.0176215   0.0176215   0.0528646), wk =   0.0277778
        k(   32) = (   0.0176215   0.0176215   0.0704862), wk =   0.0277778
        k(   33) = (   0.0176215   0.0176215   0.0881077), wk =   0.0277778
        k(   34) = (   0.0176215   0.0176215  -0.1057292), wk =   0.0138889
        k(   35) = (   0.0176215   0.0352431   0.0352431), wk =   0.0277778
        k(   36) = (   0.0176215   0.0352431   0.0528646), wk =   0.0555556
        k(   37) = (   0.0176215   0.0352431   0.0704862), wk =   0.0555556
        k(   38) = (   0.0176215   0.0352431   0.0881077), wk =   0.0555556
        k(   39) = (   0.0176215   0.0352431  -0.1057292), wk =   0.0277778
        k(   40) = (   0.0176215   0.0528646   0.0528646), wk =   0.0277778
        k(   41) = (   0.0176215   0.0528646   0.0704862), wk =   0.0555556
        k(   42) = (   0.0176215   0.0528646   0.0881077), wk =   0.0555556
        k(   43) = (   0.0176215   0.0528646  -0.1057292), wk =   0.0277778
        k(   44) = (   0.0176215   0.0704862   0.0704862), wk =   0.0277778
        k(   45) = (   0.0176215   0.0704862   0.0881077), wk =   0.0555556
        k(   46) = (   0.0176215   0.0704862  -0.1057292), wk =   0.0277778
        k(   47) = (   0.0176215   0.0881077   0.0881077), wk =   0.0277778
        k(   48) = (   0.0176215   0.0881077  -0.1057292), wk =   0.0277778
        k(   49) = (   0.0176215  -0.1057292  -0.1057292), wk =   0.0069444
        k(   50) = (   0.0352431   0.0352431   0.0352431), wk =   0.0092593
        k(   51) = (   0.0352431   0.0352431   0.0528646), wk =   0.0277778
        k(   52) = (   0.0352431   0.0352431   0.0704862), wk =   0.0277778
        k(   53) = (   0.0352431   0.0352431   0.0881077), wk =   0.0277778
        k(   54) = (   0.0352431   0.0352431  -0.1057292), wk =   0.0138889
        k(   55) = (   0.0352431   0.0528646   0.0528646), wk =   0.0277778
        k(   56) = (   0.0352431   0.0528646   0.0704862), wk =   0.0555556
        k(   57) = (   0.0352431   0.0528646   0.0881077), wk =   0.0555556
        k(   58) = (   0.0352431   0.0528646  -0.1057292), wk =   0.0277778
        k(   59) = (   0.0352431   0.0704862   0.0704862), wk =   0.0277778
        k(   60) = (   0.0352431   0.0704862   0.0881077), wk =   0.0555556
[...]
        k(   70) = (   0.0528646   0.0704862   0.0881077), wk =   0.0555556
        k(   71) = (   0.0528646   0.0704862  -0.1057292), wk =   0.0277778
        k(   72) = (   0.0528646   0.0881077   0.0881077), wk =   0.0277778
        k(   73) = (   0.0528646   0.0881077  -0.1057292), wk =   0.0277778
        k(   74) = (   0.0528646  -0.1057292  -0.1057292), wk =   0.0069444
        k(   75) = (   0.0704862   0.0704862   0.0704862), wk =   0.0092593
        k(   76) = (   0.0704862   0.0704862   0.0881077), wk =   0.0277778
        k(   77) = (   0.0704862   0.0704862  -0.1057292), wk =   0.0138889
        k(   78) = (   0.0704862   0.0881077   0.0881077), wk =   0.0277778
        k(   79) = (   0.0704862   0.0881077  -0.1057292), wk =   0.0277778
        k(   80) = (   0.0704862  -0.1057292  -0.1057292), wk =   0.0069444
        k(   81) = (   0.0881077   0.0881077   0.0881077), wk =   0.0092593
        k(   82) = (   0.0881077   0.0881077  -0.1057292), wk =   0.0138889
        k(   83) = (   0.0881077  -0.1057292  -0.1057292), wk =   0.0069444
        k(   84) = (  -0.1057292  -0.1057292  -0.1057292), wk =   0.0011574

     Largest allocated arrays     est. size (Mb)     dimensions
     Largest temporary arrays     est. size (Mb)     dimensions

     Initial potential from superposition of free atoms
     Check: negative starting charge=   -0.197178

     starting charge   51.98054, renormalised to   52.00000

     negative rho (up, down):  1.973E-01 0.000E+00

     *
     * You are using vdW-DF for exchange-correlation in this calculation.
     * Please cite the following three references that made this development
     * possible:
     *
     *   M. Dion, H. Rydberg, E. Schroder, D. C. Langreth, and
     *   B. I. Lundqvist, Phys. Rev. Lett. 92, 246401 (2004).
     *
     *   T. Thonhauser, V. R. Cooper, S. Li, A. Puzder, P. Hyldgaard, and
     *   D. C. Langreth, Phys. Rev. B 76, 125112 (2007).
     *
     *   G. Roman-Perez and J. M. Soler, Phys. Rev. Lett. 103, 096102 (2009).
     *
     *
     * If you are using vdW-DF2, please also cite:
     *
     *   K. Lee, E. D. Murray, L. Kong, B. I. Lundqvist, and
     *   D. C. Langreth, Phys. Rev. B 82, 081101(R) (2010).
     *
     *
     * If you are calculating the stress with vdW-DF, please also cite:
     *
     *   R. Sabatini, E. Kucukbenli, B. Kolb, T. Thonhauser, and
     *   S. de Gironcoli, J. Phys.: Condens. Matter 24, 424209 (2012).
     *

     Carrying out vdW-DF run using the following parameters:

     Nqs =      20    Nr_points =    1024   r_max =   100.000
     q_mesh =
               0.00001000     0.04494208     0.09755937     0.15916263
               0.23128650     0.31572767     0.41458969     0.53033537
               0.66584808     0.82450364     1.01025438     1.22772762
               1.48234092     1.78043706     2.12944203     2.53805004
               3.01644009     3.57652955     4.23227104     5.00000000

     Gradients computed in reciprocal space

     Starting wfc are   36 randomized atomic wfcs +   10 random wfc

     Self-consistent Calculation

     iteration #  1     ecut=    58.80 Ry     beta=0.10
     Davidson diagonalization with overlap
     ethr =  1.00E-02,  avg # of iterations =  6.0

     Threshold (ethr) on eigenvalues was too large:
     Diagonalizing with lowered threshold

     Davidson diagonalization with overlap
     ethr =  8.18E-06,  avg # of iterations =  6.9

[...]

     total energy              =    -587.19299456 Ry
     Harris-Foulkes estimate   =    -587.18977487 Ry
     estimated scf accuracy    <       0.00405906 Ry

[...]

     total energy              =    -587.20619745 Ry
     Harris-Foulkes estimate   =    -587.20619597 Ry
     estimated scf accuracy    <       0.00000001 Ry

     iteration # 38     ecut=    58.80 Ry     beta=0.10
     Davidson diagonalization with overlap
     ethr =  2.40E-11,  avg # of iterations =  2.0

[...]

     negative rho (up, down):  2.071E-01 0.000E+00

     End of self-consistent calculation

          k = 0.0000 0.0000 0.0000 (  5449 PWs)   bands (ev):

    -0.6303  -0.6303  -0.6303  -0.5213  -0.5213  -0.5213  -0.2155  -0.2155
    -0.2155   0.1060   0.1060   0.3732   0.3732   0.3732   0.4693   0.4693
     0.4693   0.4693   0.4693   0.4693   1.2768   8.4090   8.4090   8.4090
     9.8255   9.8255   9.8255  16.0774  16.0774  16.0774  16.0774  16.0774
    16.0774  19.8630  19.8630  19.8630  21.2788  21.2788  21.2788  22.7673
    22.7673  22.7673  23.0630  27.2691  27.7350  27.7350

[...]

          k = 0.0881-0.1057-0.1057 (  5460 PWs)   bands (ev):

[...]

          k =-0.1057-0.1057-0.1057 (  5520 PWs)   bands (ev):

    -0.4669  -0.4669  -0.4669  -0.4669  -0.2045  -0.2045  -0.2045  -0.2045
    -0.2045  -0.2045  -0.2045  -0.2045   0.3943   0.3943   0.3943   0.3943
     0.3943   0.3943   0.3943   0.3943   6.5118   6.5118   6.5118   6.5118
     8.6612   8.6612   8.6612   8.6612  20.5711  20.5711  20.5711  20.5711
    20.5711  20.5711  20.5711  20.5711  22.4847  22.4847  22.4847  22.4847
    25.3464  25.3464  25.3464  25.3464  26.0721  26.0721

     the Fermi energy is    11.8590 ev

!    total energy              =    -587.20620384 Ry
     Harris-Foulkes estimate   =    -587.20619745 Ry
     estimated scf accuracy    <          3.0E-09 Ry

     The total energy is the sum of the following terms:

     one-electron contribution =     -64.24136089 Ry
     hartree contribution      =      80.16530153 Ry
     xc contribution           =    -256.30884149 Ry
     ewald contribution        =    -346.81603203 Ry
     smearing contrib. (-TS)   =      -0.00527096 Ry

     convergence has been achieved in  38 iterations

 BEEF-vdW xc energy contributions
           1 :   -228.139083645981
           2 :    212.072757089609
           3 :   -183.604345688270
           4 :    148.774178083815
           5 :   -113.970480205934
           6 :    83.9999647234860
           7 :   -61.0000601395489
           8 :    44.5138612306339
           9 :   -32.5165617562099
          10 :    22.7963957687025
          11 :   -14.0234798411669
          12 :    6.08926682881247
          13 :   0.286334414676759
          14 :   -4.32525538425924
          15 :    5.85400961714583
          16 :   -5.50962823992916
          17 :    4.43823679614820
          18 :   -3.72078759574219
          19 :    3.88170556698364
          20 :   -4.74732504724719
          21 :    5.69441224922497
          22 :   -6.10509931526775
          23 :    5.74793535150519
          24 :   -4.87701017493532
          25 :    4.02489269096955
          26 :   -3.64518284661523
          27 :    3.83376763591903
          28 :   -4.29122186114068
          29 :    4.53230570813130
          30 :   -4.20037899940152
          31 :   -18.3019307009502
          32 :   -13.4467259501328

     Forces acting on atoms (Ry/au):

     negative rho (up, down):  2.071E-01 0.000E+00
     atom    1 type  1   force =     0.00000000    0.00000000    0.00000000
     atom    2 type  1   force =     0.00000000    0.00000000    0.00000000
     atom    3 type  1   force =     0.00000000    0.00000000    0.00000000
     atom    4 type  1   force =     0.00000000    0.00000000    0.00000000

     Total force =     0.000000     Total SCF correction =     0.000000

     General routines

     Parallel routines

   This run was terminated on:  15:30:41  19Oct2017

   JOB DONE.