     Program PWSCF v.5.1rc2 (svn rev. ) starts on 19Oct2017 at 14: 7:50

     Current dimensions of program PWSCF are:
     Max number of different atomic species (ntypx) = 10
     Max number of k-points (npk) =  40000
     Max angular momentum in pseudopotentials (lmaxx) =  3

     IMPORTANT: XC functional enforced from input :
     Exchange-correlation      = BEEF-VDW ( 1  4 27 13 2)
     Any further DFT definition will be discarded
     Please, verify this is what you really want

     Subspace diagonalization in iterative solution of the eigenvalue problem:
     a serial algorithm will be used

     Found symmetry operation: I + (  0.0000 -0.5000 -0.5000)
     This is a supercell, fractional translations are disabled

     bravais-lattice index     =            0
     lattice parameter (alat)  =       1.8897  a.u.
     unit-cell volume          =     535.5823 (a.u.)^3
     number of atoms/cell      =            4
     number of atomic types    =            1
     number of electrons       =        44.00
     number of Kohn-Sham states=           42
     kinetic-energy cutoff     =      58.7989  Ry
     charge density cutoff     =     587.9892  Ry
     convergence threshold     =      7.3E-09
     mixing beta               =       0.1000
     number of iterations used =           10  local-TF  mixing
     Exchange-correlation      = BEEF-VDW ( 1  4 27 13 2)

     celldm(1)=   1.889726  celldm(2)=   0.000000  celldm(3)=   0.000000
     celldm(4)=   0.000000  celldm(5)=   0.000000  celldm(6)=   0.000000

     crystal axes: (cart. coord. in units of alat)
               a(1) = (   4.297440   0.000000   0.000000 )
               a(2) = (   0.000000   4.297440   0.000000 )
               a(3) = (   0.000000   0.000000   4.297440 )

     reciprocal axes: (cart. coord. in units 2 pi/alat)
               b(1) = (  0.232697  0.000000  0.000000 )
               b(2) = (  0.000000  0.232697  0.000000 )
               b(3) = (  0.000000  0.000000  0.232697 )

     PseudoPot. # 1 for Au read from file:
     /home/vossj/suncat/psp/gbrv1.5pbe/Au.UPF
     MD5 check sum: 9d7f43293ad2c663164586bc4b293ffc
     Pseudo is Ultrasoft + core correction, Zval = 11.0
     Generated by new atomic code, or converted to UPF format
     Using radial grid of  985 points,  7 beta functions with:
                l(1) =   0
                l(2) =   0
                l(3) =   1
                l(4) =   1
                l(5) =   2
                l(6) =   2
                l(7) =   3
     Q(r) pseudized with  6 coefficients,  rinner =    1.900   1.900   1.900
                                                       1.900   1.900   1.900
                                                       1.900

     vdW kernel table read from file vdW_kernel_table
     MD5 check sum: 095c7af220d748ca6e76c0b4c6cfb241

     atomic species   valence    mass     pseudopotential
        Au1           11.00   196.96657     Au( 1.00)

     48 Sym. Ops., with inversion, found

   Cartesian axes

     site n.     atom                  positions (alat units)
         1           Au1 tau(   1) = (   0.0000000   0.0000000   0.0000000  )
         2           Au1 tau(   2) = (   0.0000000   2.1487202   2.1487202  )
         3           Au1 tau(   3) = (   2.1487202   0.0000000   2.1487202  )
         4           Au1 tau(   4) = (   2.1487202   2.1487202   0.0000000  )

     number of k points=    84  Fermi-Dirac smearing, width (Ry)=  0.0073
                       cart. coord. in units 2pi/alat
        k(    1) = (   0.0000000   0.0000000   0.0000000), wk =   0.0011574
        k(    2) = (   0.0000000   0.0000000   0.0193914), wk =   0.0069444
        k(    3) = (   0.0000000   0.0000000   0.0387828), wk =   0.0069444
        k(    4) = (   0.0000000   0.0000000   0.0581742), wk =   0.0069444
        k(    5) = (   0.0000000   0.0000000   0.0775656), wk =   0.0069444
        k(    6) = (   0.0000000   0.0000000   0.0969569), wk =   0.0069444
        k(    7) = (   0.0000000   0.0000000  -0.1163483), wk =   0.0034722
        k(    8) = (   0.0000000   0.0193914   0.0193914), wk =   0.0138889
        k(    9) = (   0.0000000   0.0193914   0.0387828), wk =   0.0277778
        k(   10) = (   0.0000000   0.0193914   0.0581742), wk =   0.0277778
        k(   11) = (   0.0000000   0.0193914   0.0775656), wk =   0.0277778
        k(   12) = (   0.0000000   0.0193914   0.0969569), wk =   0.0277778
        k(   13) = (   0.0000000   0.0193914  -0.1163483), wk =   0.0138889
        k(   14) = (   0.0000000   0.0387828   0.0387828), wk =   0.0138889
        k(   15) = (   0.0000000   0.0387828   0.0581742), wk =   0.0277778
        k(   16) = (   0.0000000   0.0387828   0.0775656), wk =   0.0277778
        k(   17) = (   0.0000000   0.0387828   0.0969569), wk =   0.0277778
        k(   18) = (   0.0000000   0.0387828  -0.1163483), wk =   0.0138889
        k(   19) = (   0.0000000   0.0581742   0.0581742), wk =   0.0138889
        k(   20) = (   0.0000000   0.0581742   0.0775656), wk =   0.0277778
        k(   21) = (   0.0000000   0.0581742   0.0969569), wk =   0.0277778
        k(   22) = (   0.0000000   0.0581742  -0.1163483), wk =   0.0138889
        k(   23) = (   0.0000000   0.0775656   0.0775656), wk =   0.0138889
        k(   24) = (   0.0000000   0.0775656   0.0969569), wk =   0.0277778
        k(   25) = (   0.0000000   0.0775656  -0.1163483), wk =   0.0138889
        k(   26) = (   0.0000000   0.0969569   0.0969569), wk =   0.0138889
        k(   27) = (   0.0000000   0.0969569  -0.1163483), wk =   0.0138889
        k(   28) = (   0.0000000  -0.1163483  -0.1163483), wk =   0.0034722
        k(   29) = (   0.0193914   0.0193914   0.0193914), wk =   0.0092593
        k(   30) = (   0.0193914   0.0193914   0.0387828), wk =   0.0277778
        k(   31) = (   0.0193914   0.0193914   0.0581742), wk =   0.0277778
        k(   32) = (   0.0193914   0.0193914   0.0775656), wk =   0.0277778
        k(   33) = (   0.0193914   0.0193914   0.0969569), wk =   0.0277778
        k(   34) = (   0.0193914   0.0193914  -0.1163483), wk =   0.0138889
        k(   35) = (   0.0193914   0.0387828   0.0387828), wk =   0.0277778
        k(   36) = (   0.0193914   0.0387828   0.0581742), wk =   0.0555556
        k(   37) = (   0.0193914   0.0387828   0.0775656), wk =   0.0555556
        k(   38) = (   0.0193914   0.0387828   0.0969569), wk =   0.0555556
        k(   39) = (   0.0193914   0.0387828  -0.1163483), wk =   0.0277778
        k(   40) = (   0.0193914   0.0581742   0.0581742), wk =   0.0277778
        k(   41) = (   0.0193914   0.0581742   0.0775656), wk =   0.0555556
        k(   42) = (   0.0193914   0.0581742   0.0969569), wk =   0.0555556
        k(   43) = (   0.0193914   0.0581742  -0.1163483), wk =   0.0277778
        k(   44) = (   0.0193914   0.0775656   0.0775656), wk =   0.0277778
        k(   45) = (   0.0193914   0.0775656   0.0969569), wk =   0.0555556
        k(   46) = (   0.0193914   0.0775656  -0.1163483), wk =   0.0277778
        k(   47) = (   0.0193914   0.0969569   0.0969569), wk =   0.0277778
        k(   48) = (   0.0193914   0.0969569  -0.1163483), wk =   0.0277778
        k(   49) = (   0.0193914  -0.1163483  -0.1163483), wk =   0.0069444
        k(   50) = (   0.0387828   0.0387828   0.0387828), wk =   0.0092593
        k(   51) = (   0.0387828   0.0387828   0.0581742), wk =   0.0277778
        k(   52) = (   0.0387828   0.0387828   0.0775656), wk =   0.0277778
        k(   53) = (   0.0387828   0.0387828   0.0969569), wk =   0.0277778
        k(   54) = (   0.0387828   0.0387828  -0.1163483), wk =   0.0138889
        k(   55) = (   0.0387828   0.0581742   0.0581742), wk =   0.0277778
        k(   56) = (   0.0387828   0.0581742   0.0775656), wk =   0.0555556
        k(   57) = (   0.0387828   0.0581742   0.0969569), wk =   0.0555556
        k(   58) = (   0.0387828   0.0581742  -0.1163483), wk =   0.0277778
        k(   59) = (   0.0387828   0.0775656   0.0775656), wk =   0.0277778
        k(   60) = (   0.0387828   0.0775656   0.0969569), wk =   0.0555556
[...]
        k(   70) = (   0.0581742   0.0775656   0.0969569), wk =   0.0555556
        k(   71) = (   0.0581742   0.0775656  -0.1163483), wk =   0.0277778
        k(   72) = (   0.0581742   0.0969569   0.0969569), wk =   0.0277778
        k(   73) = (   0.0581742   0.0969569  -0.1163483), wk =   0.0277778
        k(   74) = (   0.0581742  -0.1163483  -0.1163483), wk =   0.0069444
        k(   75) = (   0.0775656   0.0775656   0.0775656), wk =   0.0092593
        k(   76) = (   0.0775656   0.0775656   0.0969569), wk =   0.0277778
        k(   77) = (   0.0775656   0.0775656  -0.1163483), wk =   0.0138889
        k(   78) = (   0.0775656   0.0969569   0.0969569), wk =   0.0277778
        k(   79) = (   0.0775656   0.0969569  -0.1163483), wk =   0.0277778
        k(   80) = (   0.0775656  -0.1163483  -0.1163483), wk =   0.0069444
        k(   81) = (   0.0969569   0.0969569   0.0969569), wk =   0.0092593
        k(   82) = (   0.0969569   0.0969569  -0.1163483), wk =   0.0138889
        k(   83) = (   0.0969569  -0.1163483  -0.1163483), wk =   0.0069444
        k(   84) = (  -0.1163483  -0.1163483  -0.1163483), wk =   0.0011574

     Largest allocated arrays     est. size (Mb)     dimensions
     Largest temporary arrays     est. size (Mb)     dimensions

     Initial potential from superposition of free atoms

     starting charge   43.99951, renormalised to   44.00000

     *
     * You are using vdW-DF for exchange-correlation in this calculation.
     * Please cite the following three references that made this development
     * possible:
     *
     *   M. Dion, H. Rydberg, E. Schroder, D. C. Langreth, and
     *   B. I. Lundqvist, Phys. Rev. Lett. 92, 246401 (2004).
     *
     *   T. Thonhauser, V. R. Cooper, S. Li, A. Puzder, P. Hyldgaard, and
     *   D. C. Langreth, Phys. Rev. B 76, 125112 (2007).
     *
     *   G. Roman-Perez and J. M. Soler, Phys. Rev. Lett. 103, 096102 (2009).
     *
     *
     * If you are using vdW-DF2, please also cite:
     *
     *   K. Lee, E. D. Murray, L. Kong, B. I. Lundqvist, and
     *   D. C. Langreth, Phys. Rev. B 82, 081101(R) (2010).
     *
     *
     * If you are calculating the stress with vdW-DF, please also cite:
     *
     *   R. Sabatini, E. Kucukbenli, B. Kolb, T. Thonhauser, and
     *   S. de Gironcoli, J. Phys.: Condens. Matter 24, 424209 (2012).
     *

     Carrying out vdW-DF run using the following parameters:

     Nqs =      20    Nr_points =    1024   r_max =   100.000
     q_mesh =
               0.00001000     0.04494208     0.09755937     0.15916263
               0.23128650     0.31572767     0.41458969     0.53033537
               0.66584808     0.82450364     1.01025438     1.22772762
               1.48234092     1.78043706     2.12944203     2.53805004
               3.01644009     3.57652955     4.23227104     5.00000000

     Gradients computed in reciprocal space

     Starting wfc are   36 randomized atomic wfcs +    6 random wfc

     Self-consistent Calculation

     iteration #  1     ecut=    58.80 Ry     beta=0.10
     Davidson diagonalization with overlap
     ethr =  1.00E-02,  avg # of iterations =  6.3

     Threshold (ethr) on eigenvalues was too large:
     Diagonalizing with lowered threshold

     Davidson diagonalization with overlap
     ethr =  1.94E-04,  avg # of iterations =  3.1

     total energy              =    -466.88925726 Ry
     Harris-Foulkes estimate   =    -466.89445746 Ry
     estimated scf accuracy    <       0.08781578 Ry

[...]

     iteration #  4     ecut=    58.80 Ry     beta=0.10
     Davidson diagonalization with overlap
     c_bands:  2 eigenvalues not converged
     ethr =  5.29E-06,  avg # of iterations =  6.7

[...]

     total energy              =    -466.87282364 Ry
     Harris-Foulkes estimate   =    -466.87282372 Ry
     estimated scf accuracy    <       0.00000023 Ry

     iteration # 12     ecut=    58.80 Ry     beta=0.10
     Davidson diagonalization with overlap
     ethr =  5.15E-10,  avg # of iterations =  2.0

     End of self-consistent calculation

          k = 0.0000 0.0000 0.0000 (  4067 PWs)   bands (ev):

     4.0353   6.4343   6.4343   6.4343   6.6582   6.6582   6.6582   8.2072
     8.2072   8.2072   9.3220   9.3220  10.1832  10.1832  10.1832  10.4735
    10.4735  10.4735  10.4735  10.4735  10.4735  13.8583  13.8583  13.8583
    16.9052  16.9052  16.9052  21.9639  21.9639  21.9639  21.9639  21.9639
    21.9639  27.1201  27.9847  27.9847  27.9847  30.1600  30.1600  30.1600
    30.1652  30.1652

[...]

          k = 0.0970-0.1163-0.1163 (  4088 PWs)   bands (ev):

[...]

          k =-0.1163-0.1163-0.1163 (  4032 PWs)   bands (ev):

     6.2137   6.2137   6.2137   6.2137   8.1800   8.1800   8.1800   8.1800
     8.1800   8.1800   8.1800   8.1800  10.2291  10.2291  10.2291  10.2291
    10.2291  10.2291  10.2291  10.2291  12.1416  12.1416  12.1416  12.1416
    14.5637  14.5637  14.5637  14.5637  26.5244  26.5244  26.5244  26.5244
    28.3506  28.3506  28.3506  28.3506  28.3506  28.3506  28.3506  28.3506
    32.7995  32.7995

     the Fermi energy is    12.2732 ev

!    total energy              =    -466.87282384 Ry
     Harris-Foulkes estimate   =    -466.87282368 Ry
     estimated scf accuracy    <          3.6E-09 Ry

     The total energy is the sum of the following terms:

     one-electron contribution =      21.81815225 Ry
     hartree contribution      =      40.60853843 Ry
     xc contribution           =    -256.04501277 Ry
     ewald contribution        =    -273.25171839 Ry
     smearing contrib. (-TS)   =      -0.00278337 Ry

     convergence has been achieved in  12 iterations

 BEEF-vdW xc energy contributions
           1 :   -228.509075250915
           2 :    212.537723124521
           3 :   -183.830536517444
           4 :    147.853917311603
           5 :   -110.685213035025
           6 :    77.3853253957638
           7 :   -50.9292820933299
           8 :    31.9880421476170
           9 :   -19.4869448908037
          10 :    11.5718576051913
          11 :   -6.51605509203600
          12 :    3.22065494540084
          13 :   -1.21671235450691
          14 :   0.330124713378268
          15 :  -0.300247870828287
          16 :   0.603242991835515
          17 :  -0.565788735272122
          18 :  -0.332936538379101
          19 :    2.17993855747329
          20 :   -4.55317553606153
          21 :    6.70933772519851
          22 :   -7.93813101066007
          23 :    7.89523153101675
          24 :   -6.74329710993698
          25 :    5.03988966384566
          26 :   -3.44729581260407
          27 :    2.42637490565278
          28 :   -2.07092808857547
          29 :    2.15042660575784
          30 :   -2.31153013639897
          31 :   -18.0359082042273
          32 :   -13.1685187633575

     Forces acting on atoms (Ry/au):

     atom    1 type  1   force =     0.00000000    0.00000000    0.00000000
     atom    2 type  1   force =     0.00000000    0.00000000    0.00000000
     atom    3 type  1   force =     0.00000000    0.00000000    0.00000000
     atom    4 type  1   force =     0.00000000    0.00000000    0.00000000

     Total force =     0.000000     Total SCF correction =     0.000000

     General routines

     Parallel routines

   This run was terminated on:  14: 8:55  19Oct2017

   JOB DONE.