     Program PWSCF v.5.1rc2 (svn rev. ) starts on 19Oct2017 at 14:53:56

     Current dimensions of program PWSCF are:
     Max number of different atomic species (ntypx) = 10
     Max number of k-points (npk) =  40000
     Max angular momentum in pseudopotentials (lmaxx) =  3

     IMPORTANT: XC functional enforced from input :
     Exchange-correlation      = BEEF-VDW ( 1  4 27 13 2)
     Any further DFT definition will be discarded
     Please, verify this is what you really want

     Subspace diagonalization in iterative solution of the eigenvalue problem:
     a serial algorithm will be used

     Found symmetry operation: I + (  0.0000 -0.5000 -0.5000)
     This is a supercell, fractional translations are disabled

     bravais-lattice index     =            0
     lattice parameter (alat)  =       1.8897  a.u.
     unit-cell volume          =     381.3037 (a.u.)^3
     number of atoms/cell      =            4
     number of atomic types    =            1
     number of electrons       =        60.00
     number of Kohn-Sham states=           50
     kinetic-energy cutoff     =      58.7989  Ry
     charge density cutoff     =     587.9892  Ry
     convergence threshold     =      7.3E-09
     mixing beta               =       0.1000
     number of iterations used =           10  local-TF  mixing
     Exchange-correlation      = BEEF-VDW ( 1  4 27 13 2)

     celldm(1)=   1.889726  celldm(2)=   0.000000  celldm(3)=   0.000000
     celldm(4)=   0.000000  celldm(5)=   0.000000  celldm(6)=   0.000000

     crystal axes: (cart. coord. in units of alat)
               a(1) = (   3.837292   0.000000   0.000000 )
               a(2) = (   0.000000   3.837292   0.000000 )
               a(3) = (   0.000000   0.000000   3.837292 )

     reciprocal axes: (cart. coord. in units 2 pi/alat)
               b(1) = (  0.260600  0.000000  0.000000 )
               b(2) = (  0.000000  0.260600  0.000000 )
               b(3) = (  0.000000  0.000000  0.260600 )

     PseudoPot. # 1 for Rh read from file:
     /home/vossj/suncat/psp/gbrv1.5pbe/Rh.UPF
     MD5 check sum: 761627e959a2e3a1f56b0b5fe687810e
     Pseudo is Ultrasoft + core correction, Zval = 15.0
     Generated by new atomic code, or converted to UPF format
     Using radial grid of  969 points,  7 beta functions with:
                l(1) =   0
                l(2) =   0
                l(3) =   1
                l(4) =   1
                l(5) =   2
                l(6) =   2
                l(7) =   2
     Q(r) pseudized with  8 coefficients,  rinner =    1.200   1.200   1.200
                                                       1.200   1.200

     vdW kernel table read from file vdW_kernel_table
     MD5 check sum: 095c7af220d748ca6e76c0b4c6cfb241

     atomic species   valence    mass     pseudopotential
        Rh1           15.00   102.90550     Rh( 1.00)

     48 Sym. Ops., with inversion, found

   Cartesian axes

     site n.     atom                  positions (alat units)
         1           Rh1 tau(   1) = (   0.0000000   0.0000000   0.0000000  )
         2           Rh1 tau(   2) = (   0.0000000   1.9186459   1.9186459  )
         3           Rh1 tau(   3) = (   1.9186459   0.0000000   1.9186459  )
         4           Rh1 tau(   4) = (   1.9186459   1.9186459   0.0000000  )

     number of k points=    84  Fermi-Dirac smearing, width (Ry)=  0.0073
                       cart. coord. in units 2pi/alat
        k(    1) = (   0.0000000   0.0000000   0.0000000), wk =   0.0011574
        k(    2) = (   0.0000000   0.0000000   0.0217167), wk =   0.0069444
        k(    3) = (   0.0000000   0.0000000   0.0434334), wk =   0.0069444
        k(    4) = (   0.0000000   0.0000000   0.0651501), wk =   0.0069444
        k(    5) = (   0.0000000   0.0000000   0.0868668), wk =   0.0069444
        k(    6) = (   0.0000000   0.0000000   0.1085835), wk =   0.0069444
        k(    7) = (   0.0000000   0.0000000  -0.1303002), wk =   0.0034722
        k(    8) = (   0.0000000   0.0217167   0.0217167), wk =   0.0138889
        k(    9) = (   0.0000000   0.0217167   0.0434334), wk =   0.0277778
        k(   10) = (   0.0000000   0.0217167   0.0651501), wk =   0.0277778
        k(   11) = (   0.0000000   0.0217167   0.0868668), wk =   0.0277778
        k(   12) = (   0.0000000   0.0217167   0.1085835), wk =   0.0277778
        k(   13) = (   0.0000000   0.0217167  -0.1303002), wk =   0.0138889
        k(   14) = (   0.0000000   0.0434334   0.0434334), wk =   0.0138889
        k(   15) = (   0.0000000   0.0434334   0.0651501), wk =   0.0277778
        k(   16) = (   0.0000000   0.0434334   0.0868668), wk =   0.0277778
        k(   17) = (   0.0000000   0.0434334   0.1085835), wk =   0.0277778
        k(   18) = (   0.0000000   0.0434334  -0.1303002), wk =   0.0138889
        k(   19) = (   0.0000000   0.0651501   0.0651501), wk =   0.0138889
        k(   20) = (   0.0000000   0.0651501   0.0868668), wk =   0.0277778
        k(   21) = (   0.0000000   0.0651501   0.1085835), wk =   0.0277778
        k(   22) = (   0.0000000   0.0651501  -0.1303002), wk =   0.0138889
        k(   23) = (   0.0000000   0.0868668   0.0868668), wk =   0.0138889
        k(   24) = (   0.0000000   0.0868668   0.1085835), wk =   0.0277778
        k(   25) = (   0.0000000   0.0868668  -0.1303002), wk =   0.0138889
        k(   26) = (   0.0000000   0.1085835   0.1085835), wk =   0.0138889
        k(   27) = (   0.0000000   0.1085835  -0.1303002), wk =   0.0138889
        k(   28) = (   0.0000000  -0.1303002  -0.1303002), wk =   0.0034722
        k(   29) = (   0.0217167   0.0217167   0.0217167), wk =   0.0092593
        k(   30) = (   0.0217167   0.0217167   0.0434334), wk =   0.0277778
        k(   31) = (   0.0217167   0.0217167   0.0651501), wk =   0.0277778
        k(   32) = (   0.0217167   0.0217167   0.0868668), wk =   0.0277778
        k(   33) = (   0.0217167   0.0217167   0.1085835), wk =   0.0277778
        k(   34) = (   0.0217167   0.0217167  -0.1303002), wk =   0.0138889
        k(   35) = (   0.0217167   0.0434334   0.0434334), wk =   0.0277778
        k(   36) = (   0.0217167   0.0434334   0.0651501), wk =   0.0555556
        k(   37) = (   0.0217167   0.0434334   0.0868668), wk =   0.0555556
        k(   38) = (   0.0217167   0.0434334   0.1085835), wk =   0.0555556
        k(   39) = (   0.0217167   0.0434334  -0.1303002), wk =   0.0277778
        k(   40) = (   0.0217167   0.0651501   0.0651501), wk =   0.0277778
        k(   41) = (   0.0217167   0.0651501   0.0868668), wk =   0.0555556
        k(   42) = (   0.0217167   0.0651501   0.1085835), wk =   0.0555556
        k(   43) = (   0.0217167   0.0651501  -0.1303002), wk =   0.0277778
        k(   44) = (   0.0217167   0.0868668   0.0868668), wk =   0.0277778
        k(   45) = (   0.0217167   0.0868668   0.1085835), wk =   0.0555556
        k(   46) = (   0.0217167   0.0868668  -0.1303002), wk =   0.0277778
        k(   47) = (   0.0217167   0.1085835   0.1085835), wk =   0.0277778
        k(   48) = (   0.0217167   0.1085835  -0.1303002), wk =   0.0277778
        k(   49) = (   0.0217167  -0.1303002  -0.1303002), wk =   0.0069444
        k(   50) = (   0.0434334   0.0434334   0.0434334), wk =   0.0092593
        k(   51) = (   0.0434334   0.0434334   0.0651501), wk =   0.0277778
        k(   52) = (   0.0434334   0.0434334   0.0868668), wk =   0.0277778
        k(   53) = (   0.0434334   0.0434334   0.1085835), wk =   0.0277778
        k(   54) = (   0.0434334   0.0434334  -0.1303002), wk =   0.0138889
        k(   55) = (   0.0434334   0.0651501   0.0651501), wk =   0.0277778
        k(   56) = (   0.0434334   0.0651501   0.0868668), wk =   0.0555556
        k(   57) = (   0.0434334   0.0651501   0.1085835), wk =   0.0555556
        k(   58) = (   0.0434334   0.0651501  -0.1303002), wk =   0.0277778
        k(   59) = (   0.0434334   0.0868668   0.0868668), wk =   0.0277778
        k(   60) = (   0.0434334   0.0868668   0.1085835), wk =   0.0555556
[...]
        k(   70) = (   0.0651501   0.0868668   0.1085835), wk =   0.0555556
        k(   71) = (   0.0651501   0.0868668  -0.1303002), wk =   0.0277778
        k(   72) = (   0.0651501   0.1085835   0.1085835), wk =   0.0277778
        k(   73) = (   0.0651501   0.1085835  -0.1303002), wk =   0.0277778
        k(   74) = (   0.0651501  -0.1303002  -0.1303002), wk =   0.0069444
        k(   75) = (   0.0868668   0.0868668   0.0868668), wk =   0.0092593
        k(   76) = (   0.0868668   0.0868668   0.1085835), wk =   0.0277778
        k(   77) = (   0.0868668   0.0868668  -0.1303002), wk =   0.0138889
        k(   78) = (   0.0868668   0.1085835   0.1085835), wk =   0.0277778
        k(   79) = (   0.0868668   0.1085835  -0.1303002), wk =   0.0277778
        k(   80) = (   0.0868668  -0.1303002  -0.1303002), wk =   0.0069444
        k(   81) = (   0.1085835   0.1085835   0.1085835), wk =   0.0092593
        k(   82) = (   0.1085835   0.1085835  -0.1303002), wk =   0.0138889
        k(   83) = (   0.1085835  -0.1303002  -0.1303002), wk =   0.0069444
        k(   84) = (  -0.1303002  -0.1303002  -0.1303002), wk =   0.0011574

     Largest allocated arrays     est. size (Mb)     dimensions
     Largest temporary arrays     est. size (Mb)     dimensions

     Initial potential from superposition of free atoms
     Check: negative starting charge=   -0.224855

     starting charge   57.99961, renormalised to   60.00000

     negative rho (up, down):  2.326E-01 0.000E+00

     *
     * You are using vdW-DF for exchange-correlation in this calculation.
     * Please cite the following three references that made this development
     * possible:
     *
     *   M. Dion, H. Rydberg, E. Schroder, D. C. Langreth, and
     *   B. I. Lundqvist, Phys. Rev. Lett. 92, 246401 (2004).
     *
     *   T. Thonhauser, V. R. Cooper, S. Li, A. Puzder, P. Hyldgaard, and
     *   D. C. Langreth, Phys. Rev. B 76, 125112 (2007).
     *
     *   G. Roman-Perez and J. M. Soler, Phys. Rev. Lett. 103, 096102 (2009).
     *
     *
     * If you are using vdW-DF2, please also cite:
     *
     *   K. Lee, E. D. Murray, L. Kong, B. I. Lundqvist, and
     *   D. C. Langreth, Phys. Rev. B 82, 081101(R) (2010).
     *
     *
     * If you are calculating the stress with vdW-DF, please also cite:
     *
     *   R. Sabatini, E. Kucukbenli, B. Kolb, T. Thonhauser, and
     *   S. de Gironcoli, J. Phys.: Condens. Matter 24, 424209 (2012).
     *

     Carrying out vdW-DF run using the following parameters:

     Nqs =      20    Nr_points =    1024   r_max =   100.000
     q_mesh =
               0.00001000     0.04494208     0.09755937     0.15916263
               0.23128650     0.31572767     0.41458969     0.53033537
               0.66584808     0.82450364     1.01025438     1.22772762
               1.48234092     1.78043706     2.12944203     2.53805004
               3.01644009     3.57652955     4.23227104     5.00000000

     Gradients computed in reciprocal space

     Starting wfc are   48 randomized atomic wfcs +    2 random wfc

     Self-consistent Calculation

     iteration #  1     ecut=    58.80 Ry     beta=0.10
     Davidson diagonalization with overlap
     ethr =  1.00E-02,  avg # of iterations =  4.5

[...]

     total energy              =    -689.33993897 Ry
     Harris-Foulkes estimate   =    -689.45607763 Ry
     estimated scf accuracy    <       1.61630876 Ry

[...]

     total energy              =    -688.95305442 Ry
     Harris-Foulkes estimate   =    -688.95305422 Ry
     estimated scf accuracy    <       0.00000003 Ry

     iteration # 14     ecut=    58.80 Ry     beta=0.10
     Davidson diagonalization with overlap
     ethr =  3.74E-11,  avg # of iterations =  1.1

[...]

     negative rho (up, down):  2.384E-01 0.000E+00

     End of self-consistent calculation

          k = 0.0000 0.0000 0.0000 (  2945 PWs)   bands (ev):

   -26.7503 -26.7503 -26.7503 -26.3756 -26.3756 -26.3756 -26.3756 -26.3756
   -26.3756 -26.1351 -26.1351 -26.1351  12.7592  14.3380  14.3380  14.3380
    14.6950  14.6950  14.6950  17.4099  17.4099  17.4099  19.3537  19.3537
    20.7912  20.7912  20.7912  21.2304  21.2304  21.2304  21.2304  21.2304
    21.2304  23.7610  23.7610  23.7610  32.3203  32.3203  32.3203  33.8804
    33.8804  33.8804  33.8804  33.8804  33.8804  37.0984  42.4225  42.9664
    42.9665  42.9665

[...]

          k = 0.1086-0.1303-0.1303 (  2912 PWs)   bands (ev):

[...]

          k =-0.1303-0.1303-0.1303 (  2872 PWs)   bands (ev):

   -26.7881 -26.7881 -26.7881 -26.7881 -26.2260 -26.2260 -26.2260 -26.2260
   -26.2260 -26.2260 -26.2260 -26.2260  14.5384  14.5384  14.5384  14.5384
    17.3291  17.3291  17.3291  17.3291  17.3291  17.3291  17.3291  17.3291
    20.8323  20.8323  20.8323  20.8323  20.8323  20.8323  20.8323  20.8323
    21.2602  21.2602  21.2602  21.2602  28.7724  28.7724  28.7724  28.7724
    36.4782  36.4782  36.4782  36.4782  42.0775  42.0775  42.0775  42.0775
    42.0775  42.0775

     the Fermi energy is    20.3040 ev

!    total energy              =    -688.95305535 Ry
     Harris-Foulkes estimate   =    -688.95305442 Ry
     estimated scf accuracy    <          3.6E-09 Ry

     The total energy is the sum of the following terms:

     one-electron contribution =     -99.57162342 Ry
     hartree contribution      =     103.93351670 Ry
     xc contribution           =    -124.25783422 Ry
     ewald contribution        =    -569.04302313 Ry
     smearing contrib. (-TS)   =      -0.01409128 Ry

     convergence has been achieved in  14 iterations

 BEEF-vdW xc energy contributions
           1 :   -108.253070695894
           2 :    99.7654065049936
           3 :   -84.8975947790493
           4 :    67.1423355466815
           5 :   -50.2176336246135
           6 :    36.9175993758838
           7 :   -28.3972208487908
           8 :    24.1175685453585
           9 :   -22.3998914080791
          10 :    21.3001681263255
          11 :   -19.4180358144207
          12 :    16.3270172931720
          13 :   -12.5108727899287
          14 :    8.91616160640402
          15 :   -6.38191911886790
          16 :    5.22425461305089
          17 :   -5.14339038155008
          18 :    5.44757896161178
          19 :   -5.43961495241652
          20 :    4.75434913836901
          21 :   -3.48673815327166
          22 :    2.07295703509610
          23 :   -1.01434135343214
          24 :   0.602433372843279
          25 :  -0.785284389378901
          26 :    1.22820713549088
          27 :   -1.51695023069033
          28 :    1.38292934375157
          29 :  -0.830216007691419
          30 :   0.106328503313492
          31 :   -10.6854920697093
          32 :   -8.10131931488112

     Forces acting on atoms (Ry/au):

     negative rho (up, down):  2.384E-01 0.000E+00
     atom    1 type  1   force =     0.00000000    0.00000000   -0.00000000
     atom    2 type  1   force =     0.00000000    0.00000000    0.00000000
     atom    3 type  1   force =     0.00000000    0.00000000    0.00000000
     atom    4 type  1   force =     0.00000000    0.00000000    0.00000000

     Total force =     0.000000     Total SCF correction =     0.000000

     General routines

     Parallel routines

   This run was terminated on:  14:54:54  19Oct2017

   JOB DONE.