     Program PWSCF v.5.1rc2 (svn rev. ) starts on 19Oct2017 at 15:15:39

     Current dimensions of program PWSCF are:
     Max number of different atomic species (ntypx) = 10
     Max number of k-points (npk) =  40000
     Max angular momentum in pseudopotentials (lmaxx) =  3

     IMPORTANT: XC functional enforced from input :
     Exchange-correlation      = BEEF-VDW ( 1  4 27 13 2)
     Any further DFT definition will be discarded
     Please, verify this is what you really want

     Subspace diagonalization in iterative solution of the eigenvalue problem:
     a serial algorithm will be used

     Found symmetry operation: I + (  0.0000 -0.5000 -0.5000)
     This is a supercell, fractional translations are disabled

     bravais-lattice index     =            0
     lattice parameter (alat)  =       1.8897  a.u.
     unit-cell volume          =     607.8453 (a.u.)^3
     number of atoms/cell      =            4
     number of atomic types    =            1
     number of electrons       =        48.00
     number of Kohn-Sham states=           44
     kinetic-energy cutoff     =      58.7989  Ry
     charge density cutoff     =     587.9892  Ry
     convergence threshold     =      7.3E-09
     mixing beta               =       0.1000
     number of iterations used =           10  local-TF  mixing
     Exchange-correlation      = BEEF-VDW ( 1  4 27 13 2)

     celldm(1)=   1.889726  celldm(2)=   0.000000  celldm(3)=   0.000000
     celldm(4)=   0.000000  celldm(5)=   0.000000  celldm(6)=   0.000000

     crystal axes: (cart. coord. in units of alat)
               a(1) = (   4.482622   0.000000   0.000000 )
               a(2) = (   0.000000   4.482622   0.000000 )
               a(3) = (   0.000000   0.000000   4.482622 )

     reciprocal axes: (cart. coord. in units 2 pi/alat)
               b(1) = (  0.223084  0.000000  0.000000 )
               b(2) = (  0.000000  0.223084  0.000000 )
               b(3) = (  0.000000  0.000000  0.223084 )

     PseudoPot. # 1 for Zr read from file:
     /home/vossj/suncat/psp/gbrv1.5pbe/Zr.UPF
     MD5 check sum: 5db81b1e868ab7776c4564c113de050b
     Pseudo is Ultrasoft + core correction, Zval = 12.0
     Generated by new atomic code, or converted to UPF format
     Using radial grid of  887 points,  6 beta functions with:
                l(1) =   0
                l(2) =   0
                l(3) =   1
                l(4) =   1
                l(5) =   2
                l(6) =   2
     Q(r) pseudized with  6 coefficients,  rinner =    1.200   1.200   1.200
                                                       1.200   1.200

     vdW kernel table read from file vdW_kernel_table
     MD5 check sum: 095c7af220d748ca6e76c0b4c6cfb241

     atomic species   valence    mass     pseudopotential
        Zr1           12.00    91.22400     Zr( 1.00)

     48 Sym. Ops., with inversion, found

   Cartesian axes

     site n.     atom                  positions (alat units)
         1           Zr1 tau(   1) = (   0.0000000   0.0000000   0.0000000  )
         2           Zr1 tau(   2) = (   0.0000000   2.2413112   2.2413112  )
         3           Zr1 tau(   3) = (   2.2413112   0.0000000   2.2413112  )
         4           Zr1 tau(   4) = (   2.2413112   2.2413112   0.0000000  )

     number of k points=    84  Fermi-Dirac smearing, width (Ry)=  0.0073
                       cart. coord. in units 2pi/alat
        k(    1) = (   0.0000000   0.0000000   0.0000000), wk =   0.0011574
        k(    2) = (   0.0000000   0.0000000   0.0185903), wk =   0.0069444
        k(    3) = (   0.0000000   0.0000000   0.0371806), wk =   0.0069444
        k(    4) = (   0.0000000   0.0000000   0.0557709), wk =   0.0069444
        k(    5) = (   0.0000000   0.0000000   0.0743612), wk =   0.0069444
        k(    6) = (   0.0000000   0.0000000   0.0929515), wk =   0.0069444
        k(    7) = (   0.0000000   0.0000000  -0.1115418), wk =   0.0034722
        k(    8) = (   0.0000000   0.0185903   0.0185903), wk =   0.0138889
        k(    9) = (   0.0000000   0.0185903   0.0371806), wk =   0.0277778
        k(   10) = (   0.0000000   0.0185903   0.0557709), wk =   0.0277778
        k(   11) = (   0.0000000   0.0185903   0.0743612), wk =   0.0277778
        k(   12) = (   0.0000000   0.0185903   0.0929515), wk =   0.0277778
        k(   13) = (   0.0000000   0.0185903  -0.1115418), wk =   0.0138889
        k(   14) = (   0.0000000   0.0371806   0.0371806), wk =   0.0138889
        k(   15) = (   0.0000000   0.0371806   0.0557709), wk =   0.0277778
        k(   16) = (   0.0000000   0.0371806   0.0743612), wk =   0.0277778
        k(   17) = (   0.0000000   0.0371806   0.0929515), wk =   0.0277778
        k(   18) = (   0.0000000   0.0371806  -0.1115418), wk =   0.0138889
        k(   19) = (   0.0000000   0.0557709   0.0557709), wk =   0.0138889
        k(   20) = (   0.0000000   0.0557709   0.0743612), wk =   0.0277778
        k(   21) = (   0.0000000   0.0557709   0.0929515), wk =   0.0277778
        k(   22) = (   0.0000000   0.0557709  -0.1115418), wk =   0.0138889
        k(   23) = (   0.0000000   0.0743612   0.0743612), wk =   0.0138889
        k(   24) = (   0.0000000   0.0743612   0.0929515), wk =   0.0277778
        k(   25) = (   0.0000000   0.0743612  -0.1115418), wk =   0.0138889
        k(   26) = (   0.0000000   0.0929515   0.0929515), wk =   0.0138889
        k(   27) = (   0.0000000   0.0929515  -0.1115418), wk =   0.0138889
        k(   28) = (   0.0000000  -0.1115418  -0.1115418), wk =   0.0034722
        k(   29) = (   0.0185903   0.0185903   0.0185903), wk =   0.0092593
        k(   30) = (   0.0185903   0.0185903   0.0371806), wk =   0.0277778
        k(   31) = (   0.0185903   0.0185903   0.0557709), wk =   0.0277778
        k(   32) = (   0.0185903   0.0185903   0.0743612), wk =   0.0277778
        k(   33) = (   0.0185903   0.0185903   0.0929515), wk =   0.0277778
        k(   34) = (   0.0185903   0.0185903  -0.1115418), wk =   0.0138889
        k(   35) = (   0.0185903   0.0371806   0.0371806), wk =   0.0277778
        k(   36) = (   0.0185903   0.0371806   0.0557709), wk =   0.0555556
        k(   37) = (   0.0185903   0.0371806   0.0743612), wk =   0.0555556
        k(   38) = (   0.0185903   0.0371806   0.0929515), wk =   0.0555556
        k(   39) = (   0.0185903   0.0371806  -0.1115418), wk =   0.0277778
        k(   40) = (   0.0185903   0.0557709   0.0557709), wk =   0.0277778
        k(   41) = (   0.0185903   0.0557709   0.0743612), wk =   0.0555556
        k(   42) = (   0.0185903   0.0557709   0.0929515), wk =   0.0555556
        k(   43) = (   0.0185903   0.0557709  -0.1115418), wk =   0.0277778
        k(   44) = (   0.0185903   0.0743612   0.0743612), wk =   0.0277778
        k(   45) = (   0.0185903   0.0743612   0.0929515), wk =   0.0555556
        k(   46) = (   0.0185903   0.0743612  -0.1115418), wk =   0.0277778
        k(   47) = (   0.0185903   0.0929515   0.0929515), wk =   0.0277778
        k(   48) = (   0.0185903   0.0929515  -0.1115418), wk =   0.0277778
        k(   49) = (   0.0185903  -0.1115418  -0.1115418), wk =   0.0069444
        k(   50) = (   0.0371806   0.0371806   0.0371806), wk =   0.0092593
        k(   51) = (   0.0371806   0.0371806   0.0557709), wk =   0.0277778
        k(   52) = (   0.0371806   0.0371806   0.0743612), wk =   0.0277778
        k(   53) = (   0.0371806   0.0371806   0.0929515), wk =   0.0277778
        k(   54) = (   0.0371806   0.0371806  -0.1115418), wk =   0.0138889
        k(   55) = (   0.0371806   0.0557709   0.0557709), wk =   0.0277778
        k(   56) = (   0.0371806   0.0557709   0.0743612), wk =   0.0555556
        k(   57) = (   0.0371806   0.0557709   0.0929515), wk =   0.0555556
        k(   58) = (   0.0371806   0.0557709  -0.1115418), wk =   0.0277778
        k(   59) = (   0.0371806   0.0743612   0.0743612), wk =   0.0277778
        k(   60) = (   0.0371806   0.0743612   0.0929515), wk =   0.0555556
[...]
        k(   70) = (   0.0557709   0.0743612   0.0929515), wk =   0.0555556
        k(   71) = (   0.0557709   0.0743612  -0.1115418), wk =   0.0277778
        k(   72) = (   0.0557709   0.0929515   0.0929515), wk =   0.0277778
        k(   73) = (   0.0557709   0.0929515  -0.1115418), wk =   0.0277778
        k(   74) = (   0.0557709  -0.1115418  -0.1115418), wk =   0.0069444
        k(   75) = (   0.0743612   0.0743612   0.0743612), wk =   0.0092593
        k(   76) = (   0.0743612   0.0743612   0.0929515), wk =   0.0277778
        k(   77) = (   0.0743612   0.0743612  -0.1115418), wk =   0.0138889
        k(   78) = (   0.0743612   0.0929515   0.0929515), wk =   0.0277778
        k(   79) = (   0.0743612   0.0929515  -0.1115418), wk =   0.0277778
        k(   80) = (   0.0743612  -0.1115418  -0.1115418), wk =   0.0069444
        k(   81) = (   0.0929515   0.0929515   0.0929515), wk =   0.0092593
        k(   82) = (   0.0929515   0.0929515  -0.1115418), wk =   0.0138889
        k(   83) = (   0.0929515  -0.1115418  -0.1115418), wk =   0.0069444
        k(   84) = (  -0.1115418  -0.1115418  -0.1115418), wk =   0.0011574

     Largest allocated arrays     est. size (Mb)     dimensions
     Largest temporary arrays     est. size (Mb)     dimensions

     Initial potential from superposition of free atoms
     Check: negative starting charge=   -0.242703

     starting charge   47.99140, renormalised to   48.00000

     negative rho (up, down):  2.427E-01 0.000E+00

     *
     * You are using vdW-DF for exchange-correlation in this calculation.
     * Please cite the following three references that made this development
     * possible:
     *
     *   M. Dion, H. Rydberg, E. Schroder, D. C. Langreth, and
     *   B. I. Lundqvist, Phys. Rev. Lett. 92, 246401 (2004).
     *
     *   T. Thonhauser, V. R. Cooper, S. Li, A. Puzder, P. Hyldgaard, and
     *   D. C. Langreth, Phys. Rev. B 76, 125112 (2007).
     *
     *   G. Roman-Perez and J. M. Soler, Phys. Rev. Lett. 103, 096102 (2009).
     *
     *
     * If you are using vdW-DF2, please also cite:
     *
     *   K. Lee, E. D. Murray, L. Kong, B. I. Lundqvist, and
     *   D. C. Langreth, Phys. Rev. B 82, 081101(R) (2010).
     *
     *
     * If you are calculating the stress with vdW-DF, please also cite:
     *
     *   R. Sabatini, E. Kucukbenli, B. Kolb, T. Thonhauser, and
     *   S. de Gironcoli, J. Phys.: Condens. Matter 24, 424209 (2012).
     *

     Carrying out vdW-DF run using the following parameters:

     Nqs =      20    Nr_points =    1024   r_max =   100.000
     q_mesh =
               0.00001000     0.04494208     0.09755937     0.15916263
               0.23128650     0.31572767     0.41458969     0.53033537
               0.66584808     0.82450364     1.01025438     1.22772762
               1.48234092     1.78043706     2.12944203     2.53805004
               3.01644009     3.57652955     4.23227104     5.00000000

     Gradients computed in reciprocal space

     Starting wfc are   52 randomized atomic wfcs

     Self-consistent Calculation

     iteration #  1     ecut=    58.80 Ry     beta=0.10
     Davidson diagonalization with overlap
     ethr =  1.00E-02,  avg # of iterations =  3.5

     Threshold (ethr) on eigenvalues was too large:
     Diagonalizing with lowered threshold

     Davidson diagonalization with overlap
     ethr =  5.75E-05,  avg # of iterations =  3.6

[...]

     total energy              =    -399.12024854 Ry
     Harris-Foulkes estimate   =    -399.12056584 Ry
     estimated scf accuracy    <       0.03004426 Ry

[...]

     total energy              =    -399.11723872 Ry
     Harris-Foulkes estimate   =    -399.11719084 Ry
     estimated scf accuracy    <          7.8E-09 Ry

     iteration # 10     ecut=    58.80 Ry     beta=0.10
     Davidson diagonalization with overlap
     ethr =  1.63E-11,  avg # of iterations =  2.0

[...]

     negative rho (up, down):  2.495E-01 0.000E+00

     End of self-consistent calculation

          k = 0.0000 0.0000 0.0000 (  4625 PWs)   bands (ev):

   -34.5895 -34.3824 -34.3824 -34.3824 -12.9707 -12.9707 -12.9707 -12.3735
   -12.3735 -12.3735 -12.3735 -12.3735 -12.3735 -12.0090 -12.0090 -12.0090
     8.8101  11.2914  11.2914  11.2914  12.0912  12.0912  12.0912  15.3526
    15.3526  15.3526  17.5346  17.5346  17.5346  17.8411  17.8411  19.6688
    19.6688  19.6688  20.1659  20.1659  20.1659  20.1659  20.1659  20.1659
    24.4627  24.4627  24.4627  24.4627

[...]

          k = 0.0930-0.1115-0.1115 (  4656 PWs)   bands (ev):

[...]

          k =-0.1115-0.1115-0.1115 (  4680 PWs)   bands (ev):

   -34.4333 -34.4333 -34.4333 -34.4333 -13.0403 -13.0403 -13.0403 -13.0403
   -12.1419 -12.1419 -12.1419 -12.1419 -12.1419 -12.1419 -12.1419 -12.1419
    11.3870  11.3870  11.3870  11.3870  15.1701  15.1701  15.1701  15.1701
    15.1701  15.1701  15.1701  15.1701  15.5605  15.5605  15.5605  15.5605
    19.6523  19.6523  19.6523  19.6523  19.6523  19.6523  19.6523  19.6523
    24.2701  24.2701  24.2702  24.2702

     the Fermi energy is    14.3631 ev

!    total energy              =    -399.11725519 Ry
     Harris-Foulkes estimate   =    -399.11723873 Ry
     estimated scf accuracy    <          1.6E-09 Ry

     The total energy is the sum of the following terms:

     one-electron contribution =     -67.14426067 Ry
     hartree contribution      =      53.68904014 Ry
     xc contribution           =     -73.89000175 Ry
     ewald contribution        =    -311.75808844 Ry
     smearing contrib. (-TS)   =      -0.01394446 Ry

     convergence has been achieved in  10 iterations

 BEEF-vdW xc energy contributions
           1 :   -63.3300890602599
           2 :    57.6305321634434
           3 :   -47.8751854435084
           4 :    36.6640642995600
           5 :   -26.5140394506345
           6 :    18.9611211350050
           7 :   -14.1993747434008
           8 :    11.3584538327264
           9 :   -9.19899319274884
          10 :    6.82463086286050
          11 :   -4.05521627420939
          12 :    1.33243534499172
          13 :   0.704046516669919
          14 :   -1.67483679975081
          15 :    1.68547403370729
          16 :   -1.22358814715190
          17 :   0.838868673116508
          18 :  -0.828940764736515
          19 :    1.12065809003560
          20 :   -1.39360250430340
          21 :    1.33885897375920
          22 :  -0.875608729212132
          23 :   0.194622101833858
          24 :   0.379750988693530
          25 :  -0.602628602456321
          26 :   0.453648414380794
          27 :  -0.127894655006472
          28 :  -0.107654310191506
          29 :   8.898931824640499E-002
          30 :   0.152498683978962
          31 :   -7.31467884448691
          32 :   -5.53398227905990

     Forces acting on atoms (Ry/au):

     negative rho (up, down):  2.495E-01 0.000E+00
     atom    1 type  1   force =     0.00000000    0.00000000    0.00000000
     atom    2 type  1   force =     0.00000000    0.00000000   -0.00000000
     atom    3 type  1   force =     0.00000000    0.00000000    0.00000000
     atom    4 type  1   force =     0.00000000    0.00000000    0.00000000

     Total force =     0.000000     Total SCF correction =     0.000000

     General routines

     Parallel routines

   This run was terminated on:  15:16:39  19Oct2017

   JOB DONE.