     Program PWSCF v.5.1rc2 (svn rev. ) starts on 19Oct2017 at 14: 5:56

     Current dimensions of program PWSCF are:
     Max number of different atomic species (ntypx) = 10
     Max number of k-points (npk) =  40000
     Max angular momentum in pseudopotentials (lmaxx) =  3

     IMPORTANT: XC functional enforced from input :
     Exchange-correlation      = BEEF-VDW ( 1  4 27 13 2)
     Any further DFT definition will be discarded
     Please, verify this is what you really want

     Subspace diagonalization in iterative solution of the eigenvalue problem:
     a serial algorithm will be used

     Found symmetry operation: I + (  0.0000 -0.5000 -0.5000)
     This is a supercell, fractional translations are disabled

     bravais-lattice index     =            0
     lattice parameter (alat)  =       1.8897  a.u.
     unit-cell volume          =     583.6717 (a.u.)^3
     number of atoms/cell      =            4
     number of atomic types    =            1
     number of electrons       =        48.00
     number of Kohn-Sham states=           44
     kinetic-energy cutoff     =      58.7989  Ry
     charge density cutoff     =     587.9892  Ry
     convergence threshold     =      7.3E-09
     mixing beta               =       0.1000
     number of iterations used =           10  local-TF  mixing
     Exchange-correlation      = BEEF-VDW ( 1  4 27 13 2)

     celldm(1)=   1.889726  celldm(2)=   0.000000  celldm(3)=   0.000000
     celldm(4)=   0.000000  celldm(5)=   0.000000  celldm(6)=   0.000000

     crystal axes: (cart. coord. in units of alat)
               a(1) = (   4.422393   0.000000   0.000000 )
               a(2) = (   0.000000   4.422393   0.000000 )
               a(3) = (   0.000000   0.000000   4.422393 )

     reciprocal axes: (cart. coord. in units 2 pi/alat)
               b(1) = (  0.226122  0.000000  0.000000 )
               b(2) = (  0.000000  0.226122  0.000000 )
               b(3) = (  0.000000  0.000000  0.226122 )

     PseudoPot. # 1 for Cd read from file:
     /home/vossj/suncat/psp/gbrv1.5pbe/Cd.UPF
     MD5 check sum: 17164a7926edb8e0dc231208abae86a6
     Pseudo is Ultrasoft + core correction, Zval = 12.0
     Generated by new atomic code, or converted to UPF format
     Using radial grid of  889 points,  6 beta functions with:
                l(1) =   0
                l(2) =   0
                l(3) =   1
                l(4) =   1
                l(5) =   2
                l(6) =   2
     Q(r) pseudized with  6 coefficients,  rinner =    1.000   1.000   1.000
                                                       1.000   1.000

     vdW kernel table read from file vdW_kernel_table
     MD5 check sum: 095c7af220d748ca6e76c0b4c6cfb241

     atomic species   valence    mass     pseudopotential
        Cd1           12.00   112.41400     Cd( 1.00)

     48 Sym. Ops., with inversion, found

   Cartesian axes

     site n.     atom                  positions (alat units)
         1           Cd1 tau(   1) = (   0.0000000   0.0000000   0.0000000  )
         2           Cd1 tau(   2) = (   0.0000000   2.2111965   2.2111965  )
         3           Cd1 tau(   3) = (   2.2111965   0.0000000   2.2111965  )
         4           Cd1 tau(   4) = (   2.2111965   2.2111965   0.0000000  )

     number of k points=    84  Fermi-Dirac smearing, width (Ry)=  0.0073
                       cart. coord. in units 2pi/alat
        k(    1) = (   0.0000000   0.0000000   0.0000000), wk =   0.0011574
        k(    2) = (   0.0000000   0.0000000   0.0188435), wk =   0.0069444
        k(    3) = (   0.0000000   0.0000000   0.0376870), wk =   0.0069444
        k(    4) = (   0.0000000   0.0000000   0.0565305), wk =   0.0069444
        k(    5) = (   0.0000000   0.0000000   0.0753740), wk =   0.0069444
        k(    6) = (   0.0000000   0.0000000   0.0942175), wk =   0.0069444
        k(    7) = (   0.0000000   0.0000000  -0.1130610), wk =   0.0034722
        k(    8) = (   0.0000000   0.0188435   0.0188435), wk =   0.0138889
        k(    9) = (   0.0000000   0.0188435   0.0376870), wk =   0.0277778
        k(   10) = (   0.0000000   0.0188435   0.0565305), wk =   0.0277778
        k(   11) = (   0.0000000   0.0188435   0.0753740), wk =   0.0277778
        k(   12) = (   0.0000000   0.0188435   0.0942175), wk =   0.0277778
        k(   13) = (   0.0000000   0.0188435  -0.1130610), wk =   0.0138889
        k(   14) = (   0.0000000   0.0376870   0.0376870), wk =   0.0138889
        k(   15) = (   0.0000000   0.0376870   0.0565305), wk =   0.0277778
        k(   16) = (   0.0000000   0.0376870   0.0753740), wk =   0.0277778
        k(   17) = (   0.0000000   0.0376870   0.0942175), wk =   0.0277778
        k(   18) = (   0.0000000   0.0376870  -0.1130610), wk =   0.0138889
        k(   19) = (   0.0000000   0.0565305   0.0565305), wk =   0.0138889
        k(   20) = (   0.0000000   0.0565305   0.0753740), wk =   0.0277778
        k(   21) = (   0.0000000   0.0565305   0.0942175), wk =   0.0277778
        k(   22) = (   0.0000000   0.0565305  -0.1130610), wk =   0.0138889
        k(   23) = (   0.0000000   0.0753740   0.0753740), wk =   0.0138889
        k(   24) = (   0.0000000   0.0753740   0.0942175), wk =   0.0277778
        k(   25) = (   0.0000000   0.0753740  -0.1130610), wk =   0.0138889
        k(   26) = (   0.0000000   0.0942175   0.0942175), wk =   0.0138889
        k(   27) = (   0.0000000   0.0942175  -0.1130610), wk =   0.0138889
        k(   28) = (   0.0000000  -0.1130610  -0.1130610), wk =   0.0034722
        k(   29) = (   0.0188435   0.0188435   0.0188435), wk =   0.0092593
        k(   30) = (   0.0188435   0.0188435   0.0376870), wk =   0.0277778
        k(   31) = (   0.0188435   0.0188435   0.0565305), wk =   0.0277778
        k(   32) = (   0.0188435   0.0188435   0.0753740), wk =   0.0277778
        k(   33) = (   0.0188435   0.0188435   0.0942175), wk =   0.0277778
        k(   34) = (   0.0188435   0.0188435  -0.1130610), wk =   0.0138889
        k(   35) = (   0.0188435   0.0376870   0.0376870), wk =   0.0277778
        k(   36) = (   0.0188435   0.0376870   0.0565305), wk =   0.0555556
        k(   37) = (   0.0188435   0.0376870   0.0753740), wk =   0.0555556
        k(   38) = (   0.0188435   0.0376870   0.0942175), wk =   0.0555556
        k(   39) = (   0.0188435   0.0376870  -0.1130610), wk =   0.0277778
        k(   40) = (   0.0188435   0.0565305   0.0565305), wk =   0.0277778
        k(   41) = (   0.0188435   0.0565305   0.0753740), wk =   0.0555556
        k(   42) = (   0.0188435   0.0565305   0.0942175), wk =   0.0555556
        k(   43) = (   0.0188435   0.0565305  -0.1130610), wk =   0.0277778
        k(   44) = (   0.0188435   0.0753740   0.0753740), wk =   0.0277778
        k(   45) = (   0.0188435   0.0753740   0.0942175), wk =   0.0555556
        k(   46) = (   0.0188435   0.0753740  -0.1130610), wk =   0.0277778
        k(   47) = (   0.0188435   0.0942175   0.0942175), wk =   0.0277778
        k(   48) = (   0.0188435   0.0942175  -0.1130610), wk =   0.0277778
        k(   49) = (   0.0188435  -0.1130610  -0.1130610), wk =   0.0069444
        k(   50) = (   0.0376870   0.0376870   0.0376870), wk =   0.0092593
        k(   51) = (   0.0376870   0.0376870   0.0565305), wk =   0.0277778
        k(   52) = (   0.0376870   0.0376870   0.0753740), wk =   0.0277778
        k(   53) = (   0.0376870   0.0376870   0.0942175), wk =   0.0277778
        k(   54) = (   0.0376870   0.0376870  -0.1130610), wk =   0.0138889
        k(   55) = (   0.0376870   0.0565305   0.0565305), wk =   0.0277778
        k(   56) = (   0.0376870   0.0565305   0.0753740), wk =   0.0555556
        k(   57) = (   0.0376870   0.0565305   0.0942175), wk =   0.0555556
        k(   58) = (   0.0376870   0.0565305  -0.1130610), wk =   0.0277778
        k(   59) = (   0.0376870   0.0753740   0.0753740), wk =   0.0277778
        k(   60) = (   0.0376870   0.0753740   0.0942175), wk =   0.0555556
[...]
        k(   70) = (   0.0565305   0.0753740   0.0942175), wk =   0.0555556
        k(   71) = (   0.0565305   0.0753740  -0.1130610), wk =   0.0277778
        k(   72) = (   0.0565305   0.0942175   0.0942175), wk =   0.0277778
        k(   73) = (   0.0565305   0.0942175  -0.1130610), wk =   0.0277778
        k(   74) = (   0.0565305  -0.1130610  -0.1130610), wk =   0.0069444
        k(   75) = (   0.0753740   0.0753740   0.0753740), wk =   0.0092593
        k(   76) = (   0.0753740   0.0753740   0.0942175), wk =   0.0277778
        k(   77) = (   0.0753740   0.0753740  -0.1130610), wk =   0.0138889
        k(   78) = (   0.0753740   0.0942175   0.0942175), wk =   0.0277778
        k(   79) = (   0.0753740   0.0942175  -0.1130610), wk =   0.0277778
        k(   80) = (   0.0753740  -0.1130610  -0.1130610), wk =   0.0069444
        k(   81) = (   0.0942175   0.0942175   0.0942175), wk =   0.0092593
        k(   82) = (   0.0942175   0.0942175  -0.1130610), wk =   0.0138889
        k(   83) = (   0.0942175  -0.1130610  -0.1130610), wk =   0.0069444
        k(   84) = (  -0.1130610  -0.1130610  -0.1130610), wk =   0.0011574

     Largest allocated arrays     est. size (Mb)     dimensions
     Largest temporary arrays     est. size (Mb)     dimensions

     Initial potential from superposition of free atoms
     Check: negative starting charge=   -0.084714

     starting charge   45.99983, renormalised to   48.00000

     negative rho (up, down):  8.840E-02 0.000E+00

     *
     * You are using vdW-DF for exchange-correlation in this calculation.
     * Please cite the following three references that made this development
     * possible:
     *
     *   M. Dion, H. Rydberg, E. Schroder, D. C. Langreth, and
     *   B. I. Lundqvist, Phys. Rev. Lett. 92, 246401 (2004).
     *
     *   T. Thonhauser, V. R. Cooper, S. Li, A. Puzder, P. Hyldgaard, and
     *   D. C. Langreth, Phys. Rev. B 76, 125112 (2007).
     *
     *   G. Roman-Perez and J. M. Soler, Phys. Rev. Lett. 103, 096102 (2009).
     *
     *
     * If you are using vdW-DF2, please also cite:
     *
     *   K. Lee, E. D. Murray, L. Kong, B. I. Lundqvist, and
     *   D. C. Langreth, Phys. Rev. B 82, 081101(R) (2010).
     *
     *
     * If you are calculating the stress with vdW-DF, please also cite:
     *
     *   R. Sabatini, E. Kucukbenli, B. Kolb, T. Thonhauser, and
     *   S. de Gironcoli, J. Phys.: Condens. Matter 24, 424209 (2012).
     *

     Carrying out vdW-DF run using the following parameters:

     Nqs =      20    Nr_points =    1024   r_max =   100.000
     q_mesh =
               0.00001000     0.04494208     0.09755937     0.15916263
               0.23128650     0.31572767     0.41458969     0.53033537
               0.66584808     0.82450364     1.01025438     1.22772762
               1.48234092     1.78043706     2.12944203     2.53805004
               3.01644009     3.57652955     4.23227104     5.00000000

     Gradients computed in reciprocal space

     Starting wfc are   36 randomized atomic wfcs +    8 random wfc

     Self-consistent Calculation

     iteration #  1     ecut=    58.80 Ry     beta=0.10
     Davidson diagonalization with overlap
     ethr =  1.00E-02,  avg # of iterations =  5.0

     Threshold (ethr) on eigenvalues was too large:
     Diagonalizing with lowered threshold

     Davidson diagonalization with overlap
     ethr =  7.76E-04,  avg # of iterations =  1.1

[...]

     total energy              =    -464.48501463 Ry
     Harris-Foulkes estimate   =    -464.51054508 Ry
     estimated scf accuracy    <       0.36933430 Ry

[...]

     total energy              =    -464.38819898 Ry
     Harris-Foulkes estimate   =    -464.38815208 Ry
     estimated scf accuracy    <       0.00000003 Ry

     iteration # 13     ecut=    58.80 Ry     beta=0.10
     Davidson diagonalization with overlap
     ethr =  5.89E-11,  avg # of iterations =  4.0

[...]

     negative rho (up, down):  8.777E-02 0.000E+00

     End of self-consistent calculation

          k = 0.0000 0.0000 0.0000 (  4457 PWs)   bands (ev):

     1.4568   1.4568   1.4568   1.5308   1.5308   1.5308   2.0823   2.0823
     2.0823   2.5277   2.5277   2.6608   2.8770   2.8770   2.8770   2.9962
     2.9962   2.9962   2.9962   2.9962   2.9962  10.6871  10.6871  10.6871
    12.9042  12.9042  12.9042  18.2503  18.2503  18.2503  18.2503  18.2503
    18.2503  22.7299  22.7299  22.7299  22.7826  22.7826  22.7826  24.9855
    26.3155  26.3155  26.3155  30.0908

[...]

          k = 0.0942-0.1131-0.1131 (  4464 PWs)   bands (ev):

[...]

          k =-0.1131-0.1131-0.1131 (  4416 PWs)   bands (ev):

     1.6133   1.6133   1.6133   1.6133   2.0861   2.0861   2.0861   2.0861
     2.0861   2.0861   2.0861   2.0861   2.8999   2.8999   2.8999   2.8999
     2.8999   2.8999   2.8999   2.8999   9.1660   9.1660   9.1660   9.1660
    10.1636  10.1636  10.1636  10.1636  23.9638  23.9638  23.9638  23.9638
    23.9638  23.9638  23.9638  23.9638  24.1994  24.1994  24.1994  24.1994
    28.1460  28.1460  28.1460  28.1460

     the Fermi energy is    11.4764 ev

!    total energy              =    -464.38829849 Ry
     Harris-Foulkes estimate   =    -464.38819899 Ry
     estimated scf accuracy    <          2.1E-09 Ry

     The total energy is the sum of the following terms:

     one-electron contribution =     -69.93678680 Ry
     hartree contribution      =      84.93095885 Ry
     xc contribution           =    -163.37509237 Ry
     ewald contribution        =    -316.00397828 Ry
     smearing contrib. (-TS)   =      -0.00339990 Ry

     convergence has been achieved in  13 iterations

 BEEF-vdW xc energy contributions
           1 :   -143.159120328059
           2 :    131.195495065937
           3 :   -110.862226034323
           4 :    87.7983250853156
           5 :   -67.3742969764378
           6 :    52.7483805438488
           7 :   -44.1628124663728
           8 :    39.6463196064122
           9 :   -36.5595797433546
          10 :    33.0681465161670
          11 :   -28.8100868390078
          12 :    24.5821446600501
          13 :   -21.4391771976426
          14 :    19.8588757702559
          15 :   -19.4618765572120
          16 :    19.3523099348616
          17 :   -18.7493325696100
          18 :    17.4523682934516
          19 :   -15.8617761529072
          20 :    14.6057929954298
          21 :   -14.0733999278577
          22 :    14.1725077405806
          23 :   -14.4416429689232
          24 :    14.3937010604688
          25 :   -13.8335320890993
          26 :    12.9426398522046
          27 :   -12.1058613273474
          28 :    11.6293798341801
          29 :   -11.5515359979190
          30 :    11.6586077183899
          31 :   -12.8770362086655
          32 :   -9.45907902166073

     Forces acting on atoms (Ry/au):

     negative rho (up, down):  8.777E-02 0.000E+00
     atom    1 type  1   force =     0.00000000    0.00000000    0.00000000
     atom    2 type  1   force =     0.00000000    0.00000000   -0.00000000
     atom    3 type  1   force =     0.00000000   -0.00000000    0.00000000
     atom    4 type  1   force =     0.00000000    0.00000000    0.00000000

     Total force =     0.000000     Total SCF correction =     0.000000

     General routines

     Parallel routines

   This run was terminated on:  14: 7:11  19Oct2017

   JOB DONE.