     Program PWSCF v.5.1rc2 (svn rev. ) starts on 19Oct2017 at 14: 4:58

     Current dimensions of program PWSCF are:
     Max number of different atomic species (ntypx) = 10
     Max number of k-points (npk) =  40000
     Max angular momentum in pseudopotentials (lmaxx) =  3

     IMPORTANT: XC functional enforced from input :
     Exchange-correlation      = BEEF-VDW ( 1  4 27 13 2)
     Any further DFT definition will be discarded
     Please, verify this is what you really want

     Subspace diagonalization in iterative solution of the eigenvalue problem:
     a serial algorithm will be used

     Found symmetry operation: I + (  0.0000 -0.5000 -0.5000)
     This is a supercell, fractional translations are disabled

     bravais-lattice index     =            0
     lattice parameter (alat)  =       1.8897  a.u.
     unit-cell volume          =     425.2413 (a.u.)^3
     number of atoms/cell      =            4
     number of atomic types    =            1
     number of electrons       =        56.00
     number of Kohn-Sham states=           48
     kinetic-energy cutoff     =      58.7989  Ry
     charge density cutoff     =     587.9892  Ry
     convergence threshold     =      7.3E-09
     mixing beta               =       0.1000
     number of iterations used =           10  local-TF  mixing
     Exchange-correlation      = BEEF-VDW ( 1  4 27 13 2)

     celldm(1)=   1.889726  celldm(2)=   0.000000  celldm(3)=   0.000000
     celldm(4)=   0.000000  celldm(5)=   0.000000  celldm(6)=   0.000000

     crystal axes: (cart. coord. in units of alat)
               a(1) = (   3.979357   0.000000   0.000000 )
               a(2) = (   0.000000   3.979357   0.000000 )
               a(3) = (   0.000000   0.000000   3.979357 )

     reciprocal axes: (cart. coord. in units 2 pi/alat)
               b(1) = (  0.251297  0.000000  0.000000 )
               b(2) = (  0.000000  0.251297  0.000000 )
               b(3) = (  0.000000  0.000000  0.251297 )

     PseudoPot. # 1 for Mo read from file:
     /home/vossj/suncat/psp/gbrv1.5pbe/Mo.UPF
     MD5 check sum: 30c4dcd161f5d35cd49bb5239c51a633
     Pseudo is Ultrasoft + core correction, Zval = 14.0
     Generated by new atomic code, or converted to UPF format
     Using radial grid of  889 points,  6 beta functions with:
                l(1) =   0
                l(2) =   0
                l(3) =   1
                l(4) =   1
                l(5) =   2
                l(6) =   2
     Q(r) pseudized with  6 coefficients,  rinner =    1.000   1.000   1.000
                                                       1.000   1.000

     vdW kernel table read from file vdW_kernel_table
     MD5 check sum: 095c7af220d748ca6e76c0b4c6cfb241

     atomic species   valence    mass     pseudopotential
        Mo1           14.00    95.95000     Mo( 1.00)

     48 Sym. Ops., with inversion, found

   Cartesian axes

     site n.     atom                  positions (alat units)
         1           Mo1 tau(   1) = (   0.0000000   0.0000000   0.0000000  )
         2           Mo1 tau(   2) = (   0.0000000   1.9896787   1.9896787  )
         3           Mo1 tau(   3) = (   1.9896787   0.0000000   1.9896787  )
         4           Mo1 tau(   4) = (   1.9896787   1.9896787   0.0000000  )

     number of k points=    84  Fermi-Dirac smearing, width (Ry)=  0.0073
                       cart. coord. in units 2pi/alat
        k(    1) = (   0.0000000   0.0000000   0.0000000), wk =   0.0011574
        k(    2) = (   0.0000000   0.0000000   0.0209414), wk =   0.0069444
        k(    3) = (   0.0000000   0.0000000   0.0418828), wk =   0.0069444
        k(    4) = (   0.0000000   0.0000000   0.0628242), wk =   0.0069444
        k(    5) = (   0.0000000   0.0000000   0.0837656), wk =   0.0069444
        k(    6) = (   0.0000000   0.0000000   0.1047070), wk =   0.0069444
        k(    7) = (   0.0000000   0.0000000  -0.1256484), wk =   0.0034722
        k(    8) = (   0.0000000   0.0209414   0.0209414), wk =   0.0138889
        k(    9) = (   0.0000000   0.0209414   0.0418828), wk =   0.0277778
        k(   10) = (   0.0000000   0.0209414   0.0628242), wk =   0.0277778
        k(   11) = (   0.0000000   0.0209414   0.0837656), wk =   0.0277778
        k(   12) = (   0.0000000   0.0209414   0.1047070), wk =   0.0277778
        k(   13) = (   0.0000000   0.0209414  -0.1256484), wk =   0.0138889
        k(   14) = (   0.0000000   0.0418828   0.0418828), wk =   0.0138889
        k(   15) = (   0.0000000   0.0418828   0.0628242), wk =   0.0277778
        k(   16) = (   0.0000000   0.0418828   0.0837656), wk =   0.0277778
        k(   17) = (   0.0000000   0.0418828   0.1047070), wk =   0.0277778
        k(   18) = (   0.0000000   0.0418828  -0.1256484), wk =   0.0138889
        k(   19) = (   0.0000000   0.0628242   0.0628242), wk =   0.0138889
        k(   20) = (   0.0000000   0.0628242   0.0837656), wk =   0.0277778
        k(   21) = (   0.0000000   0.0628242   0.1047070), wk =   0.0277778
        k(   22) = (   0.0000000   0.0628242  -0.1256484), wk =   0.0138889
        k(   23) = (   0.0000000   0.0837656   0.0837656), wk =   0.0138889
        k(   24) = (   0.0000000   0.0837656   0.1047070), wk =   0.0277778
        k(   25) = (   0.0000000   0.0837656  -0.1256484), wk =   0.0138889
        k(   26) = (   0.0000000   0.1047070   0.1047070), wk =   0.0138889
        k(   27) = (   0.0000000   0.1047070  -0.1256484), wk =   0.0138889
        k(   28) = (   0.0000000  -0.1256484  -0.1256484), wk =   0.0034722
        k(   29) = (   0.0209414   0.0209414   0.0209414), wk =   0.0092593
        k(   30) = (   0.0209414   0.0209414   0.0418828), wk =   0.0277778
        k(   31) = (   0.0209414   0.0209414   0.0628242), wk =   0.0277778
        k(   32) = (   0.0209414   0.0209414   0.0837656), wk =   0.0277778
        k(   33) = (   0.0209414   0.0209414   0.1047070), wk =   0.0277778
        k(   34) = (   0.0209414   0.0209414  -0.1256484), wk =   0.0138889
        k(   35) = (   0.0209414   0.0418828   0.0418828), wk =   0.0277778
        k(   36) = (   0.0209414   0.0418828   0.0628242), wk =   0.0555556
        k(   37) = (   0.0209414   0.0418828   0.0837656), wk =   0.0555556
        k(   38) = (   0.0209414   0.0418828   0.1047070), wk =   0.0555556
        k(   39) = (   0.0209414   0.0418828  -0.1256484), wk =   0.0277778
        k(   40) = (   0.0209414   0.0628242   0.0628242), wk =   0.0277778
        k(   41) = (   0.0209414   0.0628242   0.0837656), wk =   0.0555556
        k(   42) = (   0.0209414   0.0628242   0.1047070), wk =   0.0555556
        k(   43) = (   0.0209414   0.0628242  -0.1256484), wk =   0.0277778
        k(   44) = (   0.0209414   0.0837656   0.0837656), wk =   0.0277778
        k(   45) = (   0.0209414   0.0837656   0.1047070), wk =   0.0555556
        k(   46) = (   0.0209414   0.0837656  -0.1256484), wk =   0.0277778
        k(   47) = (   0.0209414   0.1047070   0.1047070), wk =   0.0277778
        k(   48) = (   0.0209414   0.1047070  -0.1256484), wk =   0.0277778
        k(   49) = (   0.0209414  -0.1256484  -0.1256484), wk =   0.0069444
        k(   50) = (   0.0418828   0.0418828   0.0418828), wk =   0.0092593
        k(   51) = (   0.0418828   0.0418828   0.0628242), wk =   0.0277778
        k(   52) = (   0.0418828   0.0418828   0.0837656), wk =   0.0277778
        k(   53) = (   0.0418828   0.0418828   0.1047070), wk =   0.0277778
        k(   54) = (   0.0418828   0.0418828  -0.1256484), wk =   0.0138889
        k(   55) = (   0.0418828   0.0628242   0.0628242), wk =   0.0277778
        k(   56) = (   0.0418828   0.0628242   0.0837656), wk =   0.0555556
        k(   57) = (   0.0418828   0.0628242   0.1047070), wk =   0.0555556
        k(   58) = (   0.0418828   0.0628242  -0.1256484), wk =   0.0277778
        k(   59) = (   0.0418828   0.0837656   0.0837656), wk =   0.0277778
        k(   60) = (   0.0418828   0.0837656   0.1047070), wk =   0.0555556
[...]
        k(   70) = (   0.0628242   0.0837656   0.1047070), wk =   0.0555556
        k(   71) = (   0.0628242   0.0837656  -0.1256484), wk =   0.0277778
        k(   72) = (   0.0628242   0.1047070   0.1047070), wk =   0.0277778
        k(   73) = (   0.0628242   0.1047070  -0.1256484), wk =   0.0277778
        k(   74) = (   0.0628242  -0.1256484  -0.1256484), wk =   0.0069444
        k(   75) = (   0.0837656   0.0837656   0.0837656), wk =   0.0092593
        k(   76) = (   0.0837656   0.0837656   0.1047070), wk =   0.0277778
        k(   77) = (   0.0837656   0.0837656  -0.1256484), wk =   0.0138889
        k(   78) = (   0.0837656   0.1047070   0.1047070), wk =   0.0277778
        k(   79) = (   0.0837656   0.1047070  -0.1256484), wk =   0.0277778
        k(   80) = (   0.0837656  -0.1256484  -0.1256484), wk =   0.0069444
        k(   81) = (   0.1047070   0.1047070   0.1047070), wk =   0.0092593
        k(   82) = (   0.1047070   0.1047070  -0.1256484), wk =   0.0138889
        k(   83) = (   0.1047070  -0.1256484  -0.1256484), wk =   0.0069444
        k(   84) = (  -0.1256484  -0.1256484  -0.1256484), wk =   0.0011574

     Largest allocated arrays     est. size (Mb)     dimensions
     Largest temporary arrays     est. size (Mb)     dimensions

     Initial potential from superposition of free atoms

     starting charge   55.99575, renormalised to   56.00000

     *
     * You are using vdW-DF for exchange-correlation in this calculation.
     * Please cite the following three references that made this development
     * possible:
     *
     *   M. Dion, H. Rydberg, E. Schroder, D. C. Langreth, and
     *   B. I. Lundqvist, Phys. Rev. Lett. 92, 246401 (2004).
     *
     *   T. Thonhauser, V. R. Cooper, S. Li, A. Puzder, P. Hyldgaard, and
     *   D. C. Langreth, Phys. Rev. B 76, 125112 (2007).
     *
     *   G. Roman-Perez and J. M. Soler, Phys. Rev. Lett. 103, 096102 (2009).
     *
     *
     * If you are using vdW-DF2, please also cite:
     *
     *   K. Lee, E. D. Murray, L. Kong, B. I. Lundqvist, and
     *   D. C. Langreth, Phys. Rev. B 82, 081101(R) (2010).
     *
     *
     * If you are calculating the stress with vdW-DF, please also cite:
     *
     *   R. Sabatini, E. Kucukbenli, B. Kolb, T. Thonhauser, and
     *   S. de Gironcoli, J. Phys.: Condens. Matter 24, 424209 (2012).
     *

     Carrying out vdW-DF run using the following parameters:

     Nqs =      20    Nr_points =    1024   r_max =   100.000
     q_mesh =
               0.00001000     0.04494208     0.09755937     0.15916263
               0.23128650     0.31572767     0.41458969     0.53033537
               0.66584808     0.82450364     1.01025438     1.22772762
               1.48234092     1.78043706     2.12944203     2.53805004
               3.01644009     3.57652955     4.23227104     5.00000000

     Gradients computed in reciprocal space

     Starting wfc are   52 randomized atomic wfcs

     Self-consistent Calculation

     iteration #  1     ecut=    58.80 Ry     beta=0.10
     Davidson diagonalization with overlap
     ethr =  1.00E-02,  avg # of iterations =  4.3

     Threshold (ethr) on eigenvalues was too large:
     Diagonalizing with lowered threshold

     Davidson diagonalization with overlap
     ethr =  1.14E-04,  avg # of iterations =  2.9

     total energy              =    -559.94599819 Ry
     Harris-Foulkes estimate   =    -559.94847247 Ry
     estimated scf accuracy    <       0.06332359 Ry

[...]

     total energy              =    -559.93465660 Ry
     Harris-Foulkes estimate   =    -559.93465594 Ry
     estimated scf accuracy    <       0.00000028 Ry

     iteration #  9     ecut=    58.80 Ry     beta=0.10
     Davidson diagonalization with overlap
     ethr =  4.94E-10,  avg # of iterations =  2.0

     End of self-consistent calculation

          k = 0.0000 0.0000 0.0000 (  3239 PWs)   bands (ev):

   -40.5310 -40.2207 -40.2207 -40.2207 -15.0428 -15.0428 -15.0428 -14.2727
   -14.2727 -14.2727 -14.2727 -14.2727 -14.2727 -13.7972 -13.7972 -13.7972
    13.7842  15.4629  15.4629  15.4629  16.1293  16.1293  16.1293  19.7308
    19.7308  19.7308  22.4443  22.4443  24.4724  24.4724  24.4724  24.6224
    24.6224  24.6224  25.0765  25.0765  25.0765  25.0765  25.0765  25.0765
    33.1651  33.1651  33.1651  33.1651  33.1651  33.1651  33.6012  35.0341

[...]

          k = 0.1047-0.1256-0.1256 (  3236 PWs)   bands (ev):

[...]

          k =-0.1256-0.1256-0.1256 (  3184 PWs)   bands (ev):

   -40.2970 -40.2970 -40.2970 -40.2970 -15.1318 -15.1318 -15.1318 -15.1318
   -13.9712 -13.9712 -13.9712 -13.9712 -13.9712 -13.9712 -13.9712 -13.9712
    15.8478  15.8478  15.8478  15.8478  19.5548  19.5548  19.5548  19.5548
    19.5548  19.5548  19.5548  19.5548  22.0827  22.0827  22.0827  22.0827
    24.4967  24.4967  24.4967  24.4967  24.4967  24.4967  24.4967  24.4967
    31.7861  31.7861  31.7861  31.7861  33.3019  33.3019  33.3019  33.3019

     the Fermi energy is    20.4675 ev

!    total energy              =    -559.93466024 Ry
     Harris-Foulkes estimate   =    -559.93465666 Ry
     estimated scf accuracy    <          3.7E-09 Ry

     The total energy is the sum of the following terms:

     one-electron contribution =     -74.15147900 Ry
     hartree contribution      =      72.62282073 Ry
     xc contribution           =     -80.39072005 Ry
     ewald contribution        =    -478.00289529 Ry
     smearing contrib. (-TS)   =      -0.01238662 Ry

     convergence has been achieved in   9 iterations

 BEEF-vdW xc energy contributions
           1 :   -69.0844734461261
           2 :    63.4497261072450
           3 :   -53.6607323756797
           4 :    42.1645442127320
           5 :   -31.5494308499370
           6 :    23.7273393472836
           7 :   -19.4263145746494
           8 :    18.1556515654105
           9 :   -18.6086306742899
          10 :    19.2977962468487
          11 :   -19.1459675886159
          12 :    17.8058651698694
          13 :   -15.6212092353768
          14 :    13.3039468685058
          15 :   -11.5133294842537
          16 :    10.5391705518634
          17 :   -10.2163780289329
          18 :    10.0746847894270
          19 :   -9.61786864268286
          20 :    8.57972423234629
          21 :   -7.03457568753520
          22 :    5.32522585323871
          23 :   -3.86446459891262
          24 :    2.92199608516081
          25 :   -2.50389203994250
          26 :    2.37497008989268
          27 :   -2.19878215978858
          28 :    1.71420518318355
          29 :  -0.857415044495923
          30 :  -0.226042890705671
          31 :   -7.86220359985232
          32 :   -6.12269284929970

     Forces acting on atoms (Ry/au):

     atom    1 type  1   force =     0.00000000    0.00000000    0.00000000
     atom    2 type  1   force =     0.00000000    0.00000000    0.00000000
     atom    3 type  1   force =     0.00000000    0.00000000   -0.00000000
     atom    4 type  1   force =     0.00000000    0.00000000    0.00000000

     Total force =     0.000000     Total SCF correction =     0.000000

     General routines

     Parallel routines

   This run was terminated on:  14: 5:50  19Oct2017

   JOB DONE.