     Program PWSCF v.5.1rc2 (svn rev. ) starts on 19Oct2017 at 14:51:30

     Current dimensions of program PWSCF are:
     Max number of different atomic species (ntypx) = 10
     Max number of k-points (npk) =  40000
     Max angular momentum in pseudopotentials (lmaxx) =  3

     IMPORTANT: XC functional enforced from input :
     Exchange-correlation      = BEEF-VDW ( 1  4 27 13 2)
     Any further DFT definition will be discarded
     Please, verify this is what you really want

     Subspace diagonalization in iterative solution of the eigenvalue problem:
     a serial algorithm will be used

     Found symmetry operation: I + (  0.0000 -0.5000 -0.5000)
     This is a supercell, fractional translations are disabled

     bravais-lattice index     =            0
     lattice parameter (alat)  =       1.8897  a.u.
     unit-cell volume          =     789.5968 (a.u.)^3
     number of atoms/cell      =            4
     number of atomic types    =            1
     number of electrons       =        56.00
     number of Kohn-Sham states=           48
     kinetic-energy cutoff     =      58.7989  Ry
     charge density cutoff     =     587.9892  Ry
     convergence threshold     =      7.3E-09
     mixing beta               =       0.1000
     number of iterations used =           10  local-TF  mixing
     Exchange-correlation      = BEEF-VDW ( 1  4 27 13 2)

     celldm(1)=   1.889726  celldm(2)=   0.000000  celldm(3)=   0.000000
     celldm(4)=   0.000000  celldm(5)=   0.000000  celldm(6)=   0.000000

     crystal axes: (cart. coord. in units of alat)
               a(1) = (   4.891059   0.000000   0.000000 )
               a(2) = (   0.000000   4.891059   0.000000 )
               a(3) = (   0.000000   0.000000   4.891059 )

     reciprocal axes: (cart. coord. in units 2 pi/alat)
               b(1) = (  0.204455  0.000000  0.000000 )
               b(2) = (  0.000000  0.204455  0.000000 )
               b(3) = (  0.000000  0.000000  0.204455 )

     PseudoPot. # 1 for Pb read from file:
     /home/vossj/suncat/psp/gbrv1.5pbe/Pb.UPF
     MD5 check sum: 3d1c1779aa92214d1e8f3a7db79003e2
     Pseudo is Ultrasoft + core correction, Zval = 14.0
     Generated by new atomic code, or converted to UPF format
     Using radial grid of  899 points,  6 beta functions with:
                l(1) =   0
                l(2) =   0
                l(3) =   1
                l(4) =   1
                l(5) =   2
                l(6) =   2
     Q(r) pseudized with  6 coefficients,  rinner =    1.000   1.000   1.000
                                                       1.000   1.000

     vdW kernel table read from file vdW_kernel_table
     MD5 check sum: 095c7af220d748ca6e76c0b4c6cfb241

     atomic species   valence    mass     pseudopotential
        Pb1           14.00   207.20000     Pb( 1.00)

     48 Sym. Ops., with inversion, found

   Cartesian axes

     site n.     atom                  positions (alat units)
         1           Pb1 tau(   1) = (   0.0000000   0.0000000   0.0000000  )
         2           Pb1 tau(   2) = (   0.0000000   2.4455297   2.4455297  )
         3           Pb1 tau(   3) = (   2.4455297   0.0000000   2.4455297  )
         4           Pb1 tau(   4) = (   2.4455297   2.4455297   0.0000000  )

     number of k points=    84  Fermi-Dirac smearing, width (Ry)=  0.0073
                       cart. coord. in units 2pi/alat
        k(    1) = (   0.0000000   0.0000000   0.0000000), wk =   0.0011574
        k(    2) = (   0.0000000   0.0000000   0.0170379), wk =   0.0069444
        k(    3) = (   0.0000000   0.0000000   0.0340758), wk =   0.0069444
        k(    4) = (   0.0000000   0.0000000   0.0511137), wk =   0.0069444
        k(    5) = (   0.0000000   0.0000000   0.0681516), wk =   0.0069444
        k(    6) = (   0.0000000   0.0000000   0.0851895), wk =   0.0069444
        k(    7) = (   0.0000000   0.0000000  -0.1022273), wk =   0.0034722
        k(    8) = (   0.0000000   0.0170379   0.0170379), wk =   0.0138889
        k(    9) = (   0.0000000   0.0170379   0.0340758), wk =   0.0277778
        k(   10) = (   0.0000000   0.0170379   0.0511137), wk =   0.0277778
        k(   11) = (   0.0000000   0.0170379   0.0681516), wk =   0.0277778
        k(   12) = (   0.0000000   0.0170379   0.0851895), wk =   0.0277778
        k(   13) = (   0.0000000   0.0170379  -0.1022273), wk =   0.0138889
        k(   14) = (   0.0000000   0.0340758   0.0340758), wk =   0.0138889
        k(   15) = (   0.0000000   0.0340758   0.0511137), wk =   0.0277778
        k(   16) = (   0.0000000   0.0340758   0.0681516), wk =   0.0277778
        k(   17) = (   0.0000000   0.0340758   0.0851895), wk =   0.0277778
        k(   18) = (   0.0000000   0.0340758  -0.1022273), wk =   0.0138889
        k(   19) = (   0.0000000   0.0511137   0.0511137), wk =   0.0138889
        k(   20) = (   0.0000000   0.0511137   0.0681516), wk =   0.0277778
        k(   21) = (   0.0000000   0.0511137   0.0851895), wk =   0.0277778
        k(   22) = (   0.0000000   0.0511137  -0.1022273), wk =   0.0138889
        k(   23) = (   0.0000000   0.0681516   0.0681516), wk =   0.0138889
        k(   24) = (   0.0000000   0.0681516   0.0851895), wk =   0.0277778
        k(   25) = (   0.0000000   0.0681516  -0.1022273), wk =   0.0138889
        k(   26) = (   0.0000000   0.0851895   0.0851895), wk =   0.0138889
        k(   27) = (   0.0000000   0.0851895  -0.1022273), wk =   0.0138889
        k(   28) = (   0.0000000  -0.1022273  -0.1022273), wk =   0.0034722
        k(   29) = (   0.0170379   0.0170379   0.0170379), wk =   0.0092593
        k(   30) = (   0.0170379   0.0170379   0.0340758), wk =   0.0277778
        k(   31) = (   0.0170379   0.0170379   0.0511137), wk =   0.0277778
        k(   32) = (   0.0170379   0.0170379   0.0681516), wk =   0.0277778
        k(   33) = (   0.0170379   0.0170379   0.0851895), wk =   0.0277778
        k(   34) = (   0.0170379   0.0170379  -0.1022273), wk =   0.0138889
        k(   35) = (   0.0170379   0.0340758   0.0340758), wk =   0.0277778
        k(   36) = (   0.0170379   0.0340758   0.0511137), wk =   0.0555556
        k(   37) = (   0.0170379   0.0340758   0.0681516), wk =   0.0555556
        k(   38) = (   0.0170379   0.0340758   0.0851895), wk =   0.0555556
        k(   39) = (   0.0170379   0.0340758  -0.1022273), wk =   0.0277778
        k(   40) = (   0.0170379   0.0511137   0.0511137), wk =   0.0277778
        k(   41) = (   0.0170379   0.0511137   0.0681516), wk =   0.0555556
        k(   42) = (   0.0170379   0.0511137   0.0851895), wk =   0.0555556
        k(   43) = (   0.0170379   0.0511137  -0.1022273), wk =   0.0277778
        k(   44) = (   0.0170379   0.0681516   0.0681516), wk =   0.0277778
        k(   45) = (   0.0170379   0.0681516   0.0851895), wk =   0.0555556
        k(   46) = (   0.0170379   0.0681516  -0.1022273), wk =   0.0277778
        k(   47) = (   0.0170379   0.0851895   0.0851895), wk =   0.0277778
        k(   48) = (   0.0170379   0.0851895  -0.1022273), wk =   0.0277778
        k(   49) = (   0.0170379  -0.1022273  -0.1022273), wk =   0.0069444
        k(   50) = (   0.0340758   0.0340758   0.0340758), wk =   0.0092593
        k(   51) = (   0.0340758   0.0340758   0.0511137), wk =   0.0277778
        k(   52) = (   0.0340758   0.0340758   0.0681516), wk =   0.0277778
        k(   53) = (   0.0340758   0.0340758   0.0851895), wk =   0.0277778
        k(   54) = (   0.0340758   0.0340758  -0.1022273), wk =   0.0138889
        k(   55) = (   0.0340758   0.0511137   0.0511137), wk =   0.0277778
        k(   56) = (   0.0340758   0.0511137   0.0681516), wk =   0.0555556
        k(   57) = (   0.0340758   0.0511137   0.0851895), wk =   0.0555556
        k(   58) = (   0.0340758   0.0511137  -0.1022273), wk =   0.0277778
        k(   59) = (   0.0340758   0.0681516   0.0681516), wk =   0.0277778
        k(   60) = (   0.0340758   0.0681516   0.0851895), wk =   0.0555556
[...]
        k(   70) = (   0.0511137   0.0681516   0.0851895), wk =   0.0555556
        k(   71) = (   0.0511137   0.0681516  -0.1022273), wk =   0.0277778
        k(   72) = (   0.0511137   0.0851895   0.0851895), wk =   0.0277778
        k(   73) = (   0.0511137   0.0851895  -0.1022273), wk =   0.0277778
        k(   74) = (   0.0511137  -0.1022273  -0.1022273), wk =   0.0069444
        k(   75) = (   0.0681516   0.0681516   0.0681516), wk =   0.0092593
        k(   76) = (   0.0681516   0.0681516   0.0851895), wk =   0.0277778
        k(   77) = (   0.0681516   0.0681516  -0.1022273), wk =   0.0138889
        k(   78) = (   0.0681516   0.0851895   0.0851895), wk =   0.0277778
        k(   79) = (   0.0681516   0.0851895  -0.1022273), wk =   0.0277778
        k(   80) = (   0.0681516  -0.1022273  -0.1022273), wk =   0.0069444
        k(   81) = (   0.0851895   0.0851895   0.0851895), wk =   0.0092593
        k(   82) = (   0.0851895   0.0851895  -0.1022273), wk =   0.0138889
        k(   83) = (   0.0851895  -0.1022273  -0.1022273), wk =   0.0069444
        k(   84) = (  -0.1022273  -0.1022273  -0.1022273), wk =   0.0011574

     Largest allocated arrays     est. size (Mb)     dimensions
     Largest temporary arrays     est. size (Mb)     dimensions

     Initial potential from superposition of free atoms
     Check: negative starting charge=   -0.061019

     starting charge   55.99059, renormalised to   56.00000

     negative rho (up, down):  6.103E-02 0.000E+00

     *
     * You are using vdW-DF for exchange-correlation in this calculation.
     * Please cite the following three references that made this development
     * possible:
     *
     *   M. Dion, H. Rydberg, E. Schroder, D. C. Langreth, and
     *   B. I. Lundqvist, Phys. Rev. Lett. 92, 246401 (2004).
     *
     *   T. Thonhauser, V. R. Cooper, S. Li, A. Puzder, P. Hyldgaard, and
     *   D. C. Langreth, Phys. Rev. B 76, 125112 (2007).
     *
     *   G. Roman-Perez and J. M. Soler, Phys. Rev. Lett. 103, 096102 (2009).
     *
     *
     * If you are using vdW-DF2, please also cite:
     *
     *   K. Lee, E. D. Murray, L. Kong, B. I. Lundqvist, and
     *   D. C. Langreth, Phys. Rev. B 82, 081101(R) (2010).
     *
     *
     * If you are calculating the stress with vdW-DF, please also cite:
     *
     *   R. Sabatini, E. Kucukbenli, B. Kolb, T. Thonhauser, and
     *   S. de Gironcoli, J. Phys.: Condens. Matter 24, 424209 (2012).
     *

     Carrying out vdW-DF run using the following parameters:

     Nqs =      20    Nr_points =    1024   r_max =   100.000
     q_mesh =
               0.00001000     0.04494208     0.09755937     0.15916263
               0.23128650     0.31572767     0.41458969     0.53033537
               0.66584808     0.82450364     1.01025438     1.22772762
               1.48234092     1.78043706     2.12944203     2.53805004
               3.01644009     3.57652955     4.23227104     5.00000000

     Gradients computed in reciprocal space

     Starting wfc are   36 randomized atomic wfcs +   12 random wfc

     Self-consistent Calculation

     iteration #  1     ecut=    58.80 Ry     beta=0.10
     Davidson diagonalization with overlap
     ethr =  1.00E-02,  avg # of iterations =  6.4

     Threshold (ethr) on eigenvalues was too large:
     Diagonalizing with lowered threshold

     Davidson diagonalization with overlap
     ethr =  5.12E-06,  avg # of iterations = 11.2

[...]

     total energy              =    -664.07230424 Ry
     Harris-Foulkes estimate   =    -664.06826661 Ry
     estimated scf accuracy    <       0.00264316 Ry

[...]

     total energy              =    -664.08877937 Ry
     Harris-Foulkes estimate   =    -664.08867401 Ry
     estimated scf accuracy    <       0.00000004 Ry

     iteration # 19     ecut=    58.80 Ry     beta=0.10
     Davidson diagonalization with overlap
     ethr =  6.34E-11,  avg # of iterations =  2.7

[...]

     negative rho (up, down):  6.844E-02 0.000E+00

     End of self-consistent calculation

          k = 0.0000 0.0000 0.0000 (  6031 PWs)   bands (ev):

    -5.9254  -5.9254  -5.9254  -5.8325  -5.8325  -5.8325  -5.7525  -5.7525
    -5.7525  -5.6049  -5.6049  -5.4743  -5.4743  -5.4743  -5.4260  -5.4260
    -5.4260  -5.4260  -5.4260  -5.4260  -0.2468   5.0268   5.0268   5.0268
     8.3716   8.3716   8.3716  13.8417  13.8417  13.8417  13.8417  13.8417
    13.8417  17.2778  17.2778  17.2778  18.5479  18.5479  18.5479  19.3828
    19.3828  19.3828  21.6577  21.9881  22.1578  22.1578  22.1578  23.7575

[...]

          k = 0.0852-0.1022-0.1022 (  5972 PWs)   bands (ev):

[...]

          k =-0.1022-0.1022-0.1022 (  6008 PWs)   bands (ev):

    -5.7832  -5.7832  -5.7832  -5.7832  -5.7415  -5.7415  -5.7415  -5.7415
    -5.7415  -5.7415  -5.7415  -5.7415  -5.4624  -5.4624  -5.4624  -5.4624
    -5.4624  -5.4624  -5.4624  -5.4624   3.5432   3.5432   3.5432   3.5432
     7.4097   7.4097   7.4097   7.4097  17.4918  17.4918  17.4918  17.4918
    17.4918  17.4918  17.4918  17.4918  21.1338  21.1338  21.1338  21.1338
    21.3961  21.3961  21.3961  21.3961  22.3149  22.3149  22.3149  22.3149

     the Fermi energy is    11.8061 ev

!    total energy              =    -664.08922263 Ry
     Harris-Foulkes estimate   =    -664.08877941 Ry
     estimated scf accuracy    <          2.9E-09 Ry

     The total energy is the sum of the following terms:

     one-electron contribution =    -117.32390912 Ry
     hartree contribution      =     103.58950406 Ry
     xc contribution           =    -261.44672101 Ry
     ewald contribution        =    -388.90232178 Ry
     smearing contrib. (-TS)   =      -0.00577478 Ry

     convergence has been achieved in  19 iterations

 BEEF-vdW xc energy contributions
           1 :   -232.770354497538
           2 :    216.442191042250
           3 :   -187.516462424711
           4 :    152.160956776236
           5 :   -116.928845653871
           6 :    86.7763492629564
           7 :   -63.9019175883436
           8 :    47.7619824789267
           9 :   -36.0948215490200
          10 :    26.3783143091659
          11 :   -17.0350094246581
          12 :    7.90578606768622
          13 :   8.453754804293112E-002
          14 :   -5.75811631044124
          15 :    8.50906507995768
          16 :   -8.69734053881854
          17 :    7.46432392796919
          18 :   -6.14088671642182
          19 :    5.61140770077239
          20 :   -5.97903492332316
          21 :    6.67954614218792
          22 :   -6.93514816929604
          23 :    6.26662961778791
          24 :   -4.77724037733117
          25 :    3.07258531201700
          26 :   -1.89300140796544
          27 :    1.68800757058838
          28 :   -2.37731030418644
          29 :    3.42148493696013
          30 :   -4.14424671392172
          31 :   -18.5983968724099
          32 :   -13.6895359410805

     Forces acting on atoms (Ry/au):

     negative rho (up, down):  6.844E-02 0.000E+00
     atom    1 type  1   force =     0.00000000    0.00000000    0.00000000
     atom    2 type  1   force =     0.00000000    0.00000000    0.00000000
     atom    3 type  1   force =     0.00000000    0.00000000    0.00000000
     atom    4 type  1   force =     0.00000000    0.00000000    0.00000000

     Total force =     0.000000     Total SCF correction =     0.000000

     General routines

     Parallel routines

   This run was terminated on:  14:53:46  19Oct2017

   JOB DONE.