     Program PWSCF v.5.1rc2 (svn rev. ) starts on 19Oct2017 at 13:38: 6

     Current dimensions of program PWSCF are:
     Max number of different atomic species (ntypx) = 10
     Max number of k-points (npk) =  40000
     Max angular momentum in pseudopotentials (lmaxx) =  3

     IMPORTANT: XC functional enforced from input :
     Exchange-correlation      = BEEF-VDW ( 1  4 27 13 2)
     Any further DFT definition will be discarded
     Please, verify this is what you really want

     Subspace diagonalization in iterative solution of the eigenvalue problem:
     a serial algorithm will be used

     Found symmetry operation: I + (  0.0000 -0.5000 -0.5000)
     This is a supercell, fractional translations are disabled

     bravais-lattice index     =            0
     lattice parameter (alat)  =       1.8897  a.u.
     unit-cell volume          =     456.9860 (a.u.)^3
     number of atoms/cell      =            4
     number of atomic types    =            1
     number of electrons       =        12.00
     number of Kohn-Sham states=           26
     kinetic-energy cutoff     =      58.7989  Ry
     charge density cutoff     =     587.9892  Ry
     convergence threshold     =      7.3E-09
     mixing beta               =       0.1000
     number of iterations used =           10  local-TF  mixing
     Exchange-correlation      = BEEF-VDW ( 1  4 27 13 2)

     celldm(1)=   1.889726  celldm(2)=   0.000000  celldm(3)=   0.000000
     celldm(4)=   0.000000  celldm(5)=   0.000000  celldm(6)=   0.000000

     crystal axes: (cart. coord. in units of alat)
               a(1) = (   4.076012   0.000000   0.000000 )
               a(2) = (   0.000000   4.076012   0.000000 )
               a(3) = (   0.000000   0.000000   4.076012 )

     reciprocal axes: (cart. coord. in units 2 pi/alat)
               b(1) = (  0.245338  0.000000  0.000000 )
               b(2) = (  0.000000  0.245338  0.000000 )
               b(3) = (  0.000000  0.000000  0.245338 )

     PseudoPot. # 1 for Al read from file:
     /home/vossj/suncat/psp/gbrv1.5pbe/Al.UPF
     MD5 check sum: 0a6289f5291fc8f409219462bc851e1f
     Pseudo is Ultrasoft + core correction, Zval =  3.0
     Generated by new atomic code, or converted to UPF format
     Using radial grid of  893 points,  3 beta functions with:
                l(1) =   0
                l(2) =   1
                l(3) =   2
     Q(r) pseudized with  8 coefficients,  rinner =    0.900   0.900   0.900
                                                       0.900   0.900

     vdW kernel table read from file vdW_kernel_table
     MD5 check sum: 095c7af220d748ca6e76c0b4c6cfb241

     atomic species   valence    mass     pseudopotential
        Al1            3.00    26.98154     Al( 1.00)

     48 Sym. Ops., with inversion, found

   Cartesian axes

     site n.     atom                  positions (alat units)
         1           Al1 tau(   1) = (   0.0000000   0.0000000   0.0000000  )
         2           Al1 tau(   2) = (   0.0000000   2.0380059   2.0380059  )
         3           Al1 tau(   3) = (   2.0380059   0.0000000   2.0380059  )
         4           Al1 tau(   4) = (   2.0380059   2.0380059   0.0000000  )

     number of k points=    84  Fermi-Dirac smearing, width (Ry)=  0.0073
                       cart. coord. in units 2pi/alat
        k(    1) = (   0.0000000   0.0000000   0.0000000), wk =   0.0011574
        k(    2) = (   0.0000000   0.0000000   0.0204448), wk =   0.0069444
        k(    3) = (   0.0000000   0.0000000   0.0408896), wk =   0.0069444
        k(    4) = (   0.0000000   0.0000000   0.0613345), wk =   0.0069444
        k(    5) = (   0.0000000   0.0000000   0.0817793), wk =   0.0069444
        k(    6) = (   0.0000000   0.0000000   0.1022241), wk =   0.0069444
        k(    7) = (   0.0000000   0.0000000  -0.1226689), wk =   0.0034722
        k(    8) = (   0.0000000   0.0204448   0.0204448), wk =   0.0138889
        k(    9) = (   0.0000000   0.0204448   0.0408896), wk =   0.0277778
        k(   10) = (   0.0000000   0.0204448   0.0613345), wk =   0.0277778
        k(   11) = (   0.0000000   0.0204448   0.0817793), wk =   0.0277778
        k(   12) = (   0.0000000   0.0204448   0.1022241), wk =   0.0277778
        k(   13) = (   0.0000000   0.0204448  -0.1226689), wk =   0.0138889
        k(   14) = (   0.0000000   0.0408896   0.0408896), wk =   0.0138889
        k(   15) = (   0.0000000   0.0408896   0.0613345), wk =   0.0277778
        k(   16) = (   0.0000000   0.0408896   0.0817793), wk =   0.0277778
        k(   17) = (   0.0000000   0.0408896   0.1022241), wk =   0.0277778
        k(   18) = (   0.0000000   0.0408896  -0.1226689), wk =   0.0138889
        k(   19) = (   0.0000000   0.0613345   0.0613345), wk =   0.0138889
        k(   20) = (   0.0000000   0.0613345   0.0817793), wk =   0.0277778
        k(   21) = (   0.0000000   0.0613345   0.1022241), wk =   0.0277778
        k(   22) = (   0.0000000   0.0613345  -0.1226689), wk =   0.0138889
        k(   23) = (   0.0000000   0.0817793   0.0817793), wk =   0.0138889
        k(   24) = (   0.0000000   0.0817793   0.1022241), wk =   0.0277778
        k(   25) = (   0.0000000   0.0817793  -0.1226689), wk =   0.0138889
        k(   26) = (   0.0000000   0.1022241   0.1022241), wk =   0.0138889
        k(   27) = (   0.0000000   0.1022241  -0.1226689), wk =   0.0138889
        k(   28) = (   0.0000000  -0.1226689  -0.1226689), wk =   0.0034722
        k(   29) = (   0.0204448   0.0204448   0.0204448), wk =   0.0092593
        k(   30) = (   0.0204448   0.0204448   0.0408896), wk =   0.0277778
        k(   31) = (   0.0204448   0.0204448   0.0613345), wk =   0.0277778
        k(   32) = (   0.0204448   0.0204448   0.0817793), wk =   0.0277778
        k(   33) = (   0.0204448   0.0204448   0.1022241), wk =   0.0277778
        k(   34) = (   0.0204448   0.0204448  -0.1226689), wk =   0.0138889
        k(   35) = (   0.0204448   0.0408896   0.0408896), wk =   0.0277778
        k(   36) = (   0.0204448   0.0408896   0.0613345), wk =   0.0555556
        k(   37) = (   0.0204448   0.0408896   0.0817793), wk =   0.0555556
        k(   38) = (   0.0204448   0.0408896   0.1022241), wk =   0.0555556
        k(   39) = (   0.0204448   0.0408896  -0.1226689), wk =   0.0277778
        k(   40) = (   0.0204448   0.0613345   0.0613345), wk =   0.0277778
        k(   41) = (   0.0204448   0.0613345   0.0817793), wk =   0.0555556
        k(   42) = (   0.0204448   0.0613345   0.1022241), wk =   0.0555556
        k(   43) = (   0.0204448   0.0613345  -0.1226689), wk =   0.0277778
        k(   44) = (   0.0204448   0.0817793   0.0817793), wk =   0.0277778
        k(   45) = (   0.0204448   0.0817793   0.1022241), wk =   0.0555556
        k(   46) = (   0.0204448   0.0817793  -0.1226689), wk =   0.0277778
        k(   47) = (   0.0204448   0.1022241   0.1022241), wk =   0.0277778
        k(   48) = (   0.0204448   0.1022241  -0.1226689), wk =   0.0277778
        k(   49) = (   0.0204448  -0.1226689  -0.1226689), wk =   0.0069444
        k(   50) = (   0.0408896   0.0408896   0.0408896), wk =   0.0092593
        k(   51) = (   0.0408896   0.0408896   0.0613345), wk =   0.0277778
        k(   52) = (   0.0408896   0.0408896   0.0817793), wk =   0.0277778
        k(   53) = (   0.0408896   0.0408896   0.1022241), wk =   0.0277778
        k(   54) = (   0.0408896   0.0408896  -0.1226689), wk =   0.0138889
        k(   55) = (   0.0408896   0.0613345   0.0613345), wk =   0.0277778
        k(   56) = (   0.0408896   0.0613345   0.0817793), wk =   0.0555556
        k(   57) = (   0.0408896   0.0613345   0.1022241), wk =   0.0555556
        k(   58) = (   0.0408896   0.0613345  -0.1226689), wk =   0.0277778
        k(   59) = (   0.0408896   0.0817793   0.0817793), wk =   0.0277778
        k(   60) = (   0.0408896   0.0817793   0.1022241), wk =   0.0555556
[...]
        k(   70) = (   0.0613345   0.0817793   0.1022241), wk =   0.0555556
        k(   71) = (   0.0613345   0.0817793  -0.1226689), wk =   0.0277778
        k(   72) = (   0.0613345   0.1022241   0.1022241), wk =   0.0277778
        k(   73) = (   0.0613345   0.1022241  -0.1226689), wk =   0.0277778
        k(   74) = (   0.0613345  -0.1226689  -0.1226689), wk =   0.0069444
        k(   75) = (   0.0817793   0.0817793   0.0817793), wk =   0.0092593
        k(   76) = (   0.0817793   0.0817793   0.1022241), wk =   0.0277778
        k(   77) = (   0.0817793   0.0817793  -0.1226689), wk =   0.0138889
        k(   78) = (   0.0817793   0.1022241   0.1022241), wk =   0.0277778
        k(   79) = (   0.0817793   0.1022241  -0.1226689), wk =   0.0277778
        k(   80) = (   0.0817793  -0.1226689  -0.1226689), wk =   0.0069444
        k(   81) = (   0.1022241   0.1022241   0.1022241), wk =   0.0092593
        k(   82) = (   0.1022241   0.1022241  -0.1226689), wk =   0.0138889
        k(   83) = (   0.1022241  -0.1226689  -0.1226689), wk =   0.0069444
        k(   84) = (  -0.1226689  -0.1226689  -0.1226689), wk =   0.0011574

     Largest allocated arrays     est. size (Mb)     dimensions
     Largest temporary arrays     est. size (Mb)     dimensions

     Initial potential from superposition of free atoms

     starting charge   11.99014, renormalised to   12.00000

     *
     * You are using vdW-DF for exchange-correlation in this calculation.
     * Please cite the following three references that made this development
     * possible:
     *
     *   M. Dion, H. Rydberg, E. Schroder, D. C. Langreth, and
     *   B. I. Lundqvist, Phys. Rev. Lett. 92, 246401 (2004).
     *
     *   T. Thonhauser, V. R. Cooper, S. Li, A. Puzder, P. Hyldgaard, and
     *   D. C. Langreth, Phys. Rev. B 76, 125112 (2007).
     *
     *   G. Roman-Perez and J. M. Soler, Phys. Rev. Lett. 103, 096102 (2009).
     *
     *
     * If you are using vdW-DF2, please also cite:
     *
     *   K. Lee, E. D. Murray, L. Kong, B. I. Lundqvist, and
     *   D. C. Langreth, Phys. Rev. B 82, 081101(R) (2010).
     *
     *
     * If you are calculating the stress with vdW-DF, please also cite:
     *
     *   R. Sabatini, E. Kucukbenli, B. Kolb, T. Thonhauser, and
     *   S. de Gironcoli, J. Phys.: Condens. Matter 24, 424209 (2012).
     *

     Carrying out vdW-DF run using the following parameters:

     Nqs =      20    Nr_points =    1024   r_max =   100.000
     q_mesh =
               0.00001000     0.04494208     0.09755937     0.15916263
               0.23128650     0.31572767     0.41458969     0.53033537
               0.66584808     0.82450364     1.01025438     1.22772762
               1.48234092     1.78043706     2.12944203     2.53805004
               3.01644009     3.57652955     4.23227104     5.00000000

     Gradients computed in reciprocal space

     Starting wfc are   16 randomized atomic wfcs +   10 random wfc

     Self-consistent Calculation

     iteration #  1     ecut=    58.80 Ry     beta=0.10
     Davidson diagonalization with overlap
     ethr =  1.00E-02,  avg # of iterations =  6.3

     Threshold (ethr) on eigenvalues was too large:
     Diagonalizing with lowered threshold

     Davidson diagonalization with overlap
     ethr =  1.99E-04,  avg # of iterations =  2.4

     total energy              =     -27.53785180 Ry
     Harris-Foulkes estimate   =     -27.53848777 Ry
     estimated scf accuracy    <       0.02397813 Ry

[...]

     total energy              =     -27.53357779 Ry
     Harris-Foulkes estimate   =     -27.53357666 Ry
     estimated scf accuracy    <          8.0E-09 Ry

     iteration #  9     ecut=    58.80 Ry     beta=0.10
     Davidson diagonalization with overlap
     ethr =  6.63E-11,  avg # of iterations =  1.0

     End of self-consistent calculation

          k = 0.0000 0.0000 0.0000 (  3431 PWs)   bands (ev):

    -3.5650   4.5172   4.5172   4.5172   5.8491   5.8491   5.8491  12.6938
    12.6938  12.6938  12.8592  12.8592  12.8592  12.8592  12.8592  12.8592
    16.1635  16.1635  16.1635  19.8894  19.8894  19.8894  21.0003  21.0003
    21.0003  23.6626

[...]

          k = 0.1022-0.1227-0.1227 (  3488 PWs)   bands (ev):

[...]

          k =-0.1227-0.1227-0.1227 (  3448 PWs)   bands (ev):

     2.8929   2.8929   2.8929   2.8929   3.0844   3.0844   3.0844   3.0844
    18.4357  18.4357  18.4357  18.4357  18.4357  18.4357  18.4357  18.4357
    18.7691  18.7691  18.7691  18.7691  18.7691  18.7691  18.7691  18.7691
    22.1087  22.1087

     the Fermi energy is     7.4056 ev

!    total energy              =     -27.53358262 Ry
     Harris-Foulkes estimate   =     -27.53357779 Ry
     estimated scf accuracy    <          3.1E-10 Ry

     The total energy is the sum of the following terms:

     one-electron contribution =      11.69299713 Ry
     hartree contribution      =       0.03304830 Ry
     xc contribution           =     -17.82656362 Ry
     ewald contribution        =     -21.42863398 Ry
     smearing contrib. (-TS)   =      -0.00443045 Ry

     convergence has been achieved in   9 iterations

 BEEF-vdW xc energy contributions
           1 :   -14.6238938423144
           2 :    12.6943000418985
           3 :   -9.72469629365386
           4 :    6.91162686573563
           5 :   -5.03643028839492
           6 :    4.12480223686571
           7 :   -3.67326885011585
           8 :    3.17711623813676
           9 :   -2.50570757478789
          10 :    1.87124548255163
          11 :   -1.51319374669341
          12 :    1.43379776962334
          13 :   -1.41164582708397
          14 :    1.23107176208718
          15 :  -0.877788058200800
          16 :   0.520017413550072
          17 :  -0.321298770839412
          18 :   0.284561376169684
          19 :  -0.272056578096063
          20 :   0.159413497106488
          21 :   4.241282754186670E-002
          22 :  -0.213236247380436
          23 :   0.255981745309480
          24 :  -0.193070628580919
          25 :   0.134317944232624
          26 :  -0.160384568383424
          27 :   0.246154303690375
          28 :  -0.297509612317747
          29 :   0.254700825418109
          30 :  -0.152043041069611
          31 :   -2.18755080471340
          32 :   -1.65007995016661

     Forces acting on atoms (Ry/au):

     atom    1 type  1   force =     0.00000000   -0.00000000    0.00000000
     atom    2 type  1   force =     0.00000000   -0.00000000    0.00000000
     atom    3 type  1   force =     0.00000000    0.00000000    0.00000000
     atom    4 type  1   force =     0.00000000    0.00000000    0.00000000

     Total force =     0.000000     Total SCF correction =     0.000000

     General routines

     Parallel routines

   This run was terminated on:  13:38:28  19Oct2017

   JOB DONE.