     Program PWSCF v.5.1rc2 (svn rev. ) starts on 19Oct2017 at 14:16:48

     Current dimensions of program PWSCF are:
     Max number of different atomic species (ntypx) = 10
     Max number of k-points (npk) =  40000
     Max angular momentum in pseudopotentials (lmaxx) =  3

     IMPORTANT: XC functional enforced from input :
     Exchange-correlation      = BEEF-VDW ( 1  4 27 13 2)
     Any further DFT definition will be discarded
     Please, verify this is what you really want

     Subspace diagonalization in iterative solution of the eigenvalue problem:
     a serial algorithm will be used

     Found symmetry operation: I + (  0.0000 -0.5000 -0.5000)
     This is a supercell, fractional translations are disabled

     bravais-lattice index     =            0
     lattice parameter (alat)  =       1.8897  a.u.
     unit-cell volume          =     726.2975 (a.u.)^3
     number of atoms/cell      =            4
     number of atomic types    =            1
     number of electrons       =        56.00
     number of Kohn-Sham states=           48
     kinetic-energy cutoff     =      58.7989  Ry
     charge density cutoff     =     587.9892  Ry
     convergence threshold     =      7.3E-09
     mixing beta               =       0.1000
     number of iterations used =           10  local-TF  mixing
     Exchange-correlation      = BEEF-VDW ( 1  4 27 13 2)

     celldm(1)=   1.889726  celldm(2)=   0.000000  celldm(3)=   0.000000
     celldm(4)=   0.000000  celldm(5)=   0.000000  celldm(6)=   0.000000

     crystal axes: (cart. coord. in units of alat)
               a(1) = (   4.756702   0.000000   0.000000 )
               a(2) = (   0.000000   4.756702   0.000000 )
               a(3) = (   0.000000   0.000000   4.756702 )

     reciprocal axes: (cart. coord. in units 2 pi/alat)
               b(1) = (  0.210230  0.000000  0.000000 )
               b(2) = (  0.000000  0.210230  0.000000 )
               b(3) = (  0.000000  0.000000  0.210230 )

     PseudoPot. # 1 for Sn read from file:
     /home/vossj/suncat/psp/gbrv1.5pbe/Sn.UPF
     MD5 check sum: 469debedee59599fedebd795477fea03
     Pseudo is Ultrasoft + core correction, Zval = 14.0
     Generated by new atomic code, or converted to UPF format
     Using radial grid of  891 points,  6 beta functions with:
                l(1) =   0
                l(2) =   0
                l(3) =   1
                l(4) =   1
                l(5) =   2
                l(6) =   2
     Q(r) pseudized with  8 coefficients,  rinner =    1.350   1.350   1.350
                                                       1.350   1.350

     vdW kernel table read from file vdW_kernel_table
     MD5 check sum: 095c7af220d748ca6e76c0b4c6cfb241

     atomic species   valence    mass     pseudopotential
        Sn1           14.00   118.71000     Sn( 1.00)

     48 Sym. Ops., with inversion, found

   Cartesian axes

     site n.     atom                  positions (alat units)
         1           Sn1 tau(   1) = (   0.0000000   0.0000000   0.0000000  )
         2           Sn1 tau(   2) = (   0.0000000   2.3783512   2.3783512  )
         3           Sn1 tau(   3) = (   2.3783512   0.0000000   2.3783512  )
         4           Sn1 tau(   4) = (   2.3783512   2.3783512   0.0000000  )

     number of k points=    84  Fermi-Dirac smearing, width (Ry)=  0.0073
                       cart. coord. in units 2pi/alat
        k(    1) = (   0.0000000   0.0000000   0.0000000), wk =   0.0011574
        k(    2) = (   0.0000000   0.0000000   0.0175191), wk =   0.0069444
        k(    3) = (   0.0000000   0.0000000   0.0350383), wk =   0.0069444
        k(    4) = (   0.0000000   0.0000000   0.0525574), wk =   0.0069444
        k(    5) = (   0.0000000   0.0000000   0.0700766), wk =   0.0069444
        k(    6) = (   0.0000000   0.0000000   0.0875957), wk =   0.0069444
        k(    7) = (   0.0000000   0.0000000  -0.1051148), wk =   0.0034722
        k(    8) = (   0.0000000   0.0175191   0.0175191), wk =   0.0138889
        k(    9) = (   0.0000000   0.0175191   0.0350383), wk =   0.0277778
        k(   10) = (   0.0000000   0.0175191   0.0525574), wk =   0.0277778
        k(   11) = (   0.0000000   0.0175191   0.0700766), wk =   0.0277778
        k(   12) = (   0.0000000   0.0175191   0.0875957), wk =   0.0277778
        k(   13) = (   0.0000000   0.0175191  -0.1051148), wk =   0.0138889
        k(   14) = (   0.0000000   0.0350383   0.0350383), wk =   0.0138889
        k(   15) = (   0.0000000   0.0350383   0.0525574), wk =   0.0277778
        k(   16) = (   0.0000000   0.0350383   0.0700766), wk =   0.0277778
        k(   17) = (   0.0000000   0.0350383   0.0875957), wk =   0.0277778
        k(   18) = (   0.0000000   0.0350383  -0.1051148), wk =   0.0138889
        k(   19) = (   0.0000000   0.0525574   0.0525574), wk =   0.0138889
        k(   20) = (   0.0000000   0.0525574   0.0700766), wk =   0.0277778
        k(   21) = (   0.0000000   0.0525574   0.0875957), wk =   0.0277778
        k(   22) = (   0.0000000   0.0525574  -0.1051148), wk =   0.0138889
        k(   23) = (   0.0000000   0.0700766   0.0700766), wk =   0.0138889
        k(   24) = (   0.0000000   0.0700766   0.0875957), wk =   0.0277778
        k(   25) = (   0.0000000   0.0700766  -0.1051148), wk =   0.0138889
        k(   26) = (   0.0000000   0.0875957   0.0875957), wk =   0.0138889
        k(   27) = (   0.0000000   0.0875957  -0.1051148), wk =   0.0138889
        k(   28) = (   0.0000000  -0.1051148  -0.1051148), wk =   0.0034722
        k(   29) = (   0.0175191   0.0175191   0.0175191), wk =   0.0092593
        k(   30) = (   0.0175191   0.0175191   0.0350383), wk =   0.0277778
        k(   31) = (   0.0175191   0.0175191   0.0525574), wk =   0.0277778
        k(   32) = (   0.0175191   0.0175191   0.0700766), wk =   0.0277778
        k(   33) = (   0.0175191   0.0175191   0.0875957), wk =   0.0277778
        k(   34) = (   0.0175191   0.0175191  -0.1051148), wk =   0.0138889
        k(   35) = (   0.0175191   0.0350383   0.0350383), wk =   0.0277778
        k(   36) = (   0.0175191   0.0350383   0.0525574), wk =   0.0555556
        k(   37) = (   0.0175191   0.0350383   0.0700766), wk =   0.0555556
        k(   38) = (   0.0175191   0.0350383   0.0875957), wk =   0.0555556
        k(   39) = (   0.0175191   0.0350383  -0.1051148), wk =   0.0277778
        k(   40) = (   0.0175191   0.0525574   0.0525574), wk =   0.0277778
        k(   41) = (   0.0175191   0.0525574   0.0700766), wk =   0.0555556
        k(   42) = (   0.0175191   0.0525574   0.0875957), wk =   0.0555556
        k(   43) = (   0.0175191   0.0525574  -0.1051148), wk =   0.0277778
        k(   44) = (   0.0175191   0.0700766   0.0700766), wk =   0.0277778
        k(   45) = (   0.0175191   0.0700766   0.0875957), wk =   0.0555556
        k(   46) = (   0.0175191   0.0700766  -0.1051148), wk =   0.0277778
        k(   47) = (   0.0175191   0.0875957   0.0875957), wk =   0.0277778
        k(   48) = (   0.0175191   0.0875957  -0.1051148), wk =   0.0277778
        k(   49) = (   0.0175191  -0.1051148  -0.1051148), wk =   0.0069444
        k(   50) = (   0.0350383   0.0350383   0.0350383), wk =   0.0092593
        k(   51) = (   0.0350383   0.0350383   0.0525574), wk =   0.0277778
        k(   52) = (   0.0350383   0.0350383   0.0700766), wk =   0.0277778
        k(   53) = (   0.0350383   0.0350383   0.0875957), wk =   0.0277778
        k(   54) = (   0.0350383   0.0350383  -0.1051148), wk =   0.0138889
        k(   55) = (   0.0350383   0.0525574   0.0525574), wk =   0.0277778
        k(   56) = (   0.0350383   0.0525574   0.0700766), wk =   0.0555556
        k(   57) = (   0.0350383   0.0525574   0.0875957), wk =   0.0555556
        k(   58) = (   0.0350383   0.0525574  -0.1051148), wk =   0.0277778
        k(   59) = (   0.0350383   0.0700766   0.0700766), wk =   0.0277778
        k(   60) = (   0.0350383   0.0700766   0.0875957), wk =   0.0555556
[...]
        k(   70) = (   0.0525574   0.0700766   0.0875957), wk =   0.0555556
        k(   71) = (   0.0525574   0.0700766  -0.1051148), wk =   0.0277778
        k(   72) = (   0.0525574   0.0875957   0.0875957), wk =   0.0277778
        k(   73) = (   0.0525574   0.0875957  -0.1051148), wk =   0.0277778
        k(   74) = (   0.0525574  -0.1051148  -0.1051148), wk =   0.0069444
        k(   75) = (   0.0700766   0.0700766   0.0700766), wk =   0.0092593
        k(   76) = (   0.0700766   0.0700766   0.0875957), wk =   0.0277778
        k(   77) = (   0.0700766   0.0700766  -0.1051148), wk =   0.0138889
        k(   78) = (   0.0700766   0.0875957   0.0875957), wk =   0.0277778
        k(   79) = (   0.0700766   0.0875957  -0.1051148), wk =   0.0277778
        k(   80) = (   0.0700766  -0.1051148  -0.1051148), wk =   0.0069444
        k(   81) = (   0.0875957   0.0875957   0.0875957), wk =   0.0092593
        k(   82) = (   0.0875957   0.0875957  -0.1051148), wk =   0.0138889
        k(   83) = (   0.0875957  -0.1051148  -0.1051148), wk =   0.0069444
        k(   84) = (  -0.1051148  -0.1051148  -0.1051148), wk =   0.0011574

     Largest allocated arrays     est. size (Mb)     dimensions
     Largest temporary arrays     est. size (Mb)     dimensions

     Initial potential from superposition of free atoms

     starting charge   51.99982, renormalised to   56.00000

     *
     * You are using vdW-DF for exchange-correlation in this calculation.
     * Please cite the following three references that made this development
     * possible:
     *
     *   M. Dion, H. Rydberg, E. Schroder, D. C. Langreth, and
     *   B. I. Lundqvist, Phys. Rev. Lett. 92, 246401 (2004).
     *
     *   T. Thonhauser, V. R. Cooper, S. Li, A. Puzder, P. Hyldgaard, and
     *   D. C. Langreth, Phys. Rev. B 76, 125112 (2007).
     *
     *   G. Roman-Perez and J. M. Soler, Phys. Rev. Lett. 103, 096102 (2009).
     *
     *
     * If you are using vdW-DF2, please also cite:
     *
     *   K. Lee, E. D. Murray, L. Kong, B. I. Lundqvist, and
     *   D. C. Langreth, Phys. Rev. B 82, 081101(R) (2010).
     *
     *
     * If you are calculating the stress with vdW-DF, please also cite:
     *
     *   R. Sabatini, E. Kucukbenli, B. Kolb, T. Thonhauser, and
     *   S. de Gironcoli, J. Phys.: Condens. Matter 24, 424209 (2012).
     *

     Carrying out vdW-DF run using the following parameters:

     Nqs =      20    Nr_points =    1024   r_max =   100.000
     q_mesh =
               0.00001000     0.04494208     0.09755937     0.15916263
               0.23128650     0.31572767     0.41458969     0.53033537
               0.66584808     0.82450364     1.01025438     1.22772762
               1.48234092     1.78043706     2.12944203     2.53805004
               3.01644009     3.57652955     4.23227104     5.00000000

     Gradients computed in reciprocal space

     Starting wfc are   36 randomized atomic wfcs +   12 random wfc

     Self-consistent Calculation

     iteration #  1     ecut=    58.80 Ry     beta=0.10
     Davidson diagonalization with overlap
     ethr =  1.00E-02,  avg # of iterations =  5.6

     total energy              =    -644.32469024 Ry
     Harris-Foulkes estimate   =    -644.62365066 Ry
     estimated scf accuracy    <       4.09269582 Ry

[...]

     total energy              =    -642.84040868 Ry
     Harris-Foulkes estimate   =    -642.84038925 Ry
     estimated scf accuracy    <       0.00000003 Ry

     iteration # 15     ecut=    58.80 Ry     beta=0.10
     Davidson diagonalization with overlap
     ethr =  5.83E-11,  avg # of iterations =  2.0

     End of self-consistent calculation

          k = 0.0000 0.0000 0.0000 (  5497 PWs)   bands (ev):

   -11.1524 -11.1524 -11.1524 -11.0966 -11.0966 -11.0966 -11.0673 -11.0673
   -11.0673 -10.9924 -10.9924 -10.9229 -10.9229 -10.9229 -10.8954 -10.8954
   -10.8954 -10.8954 -10.8954 -10.8954  -0.2354   6.0543   6.0543   6.0543
     7.3146   7.3146   7.3146  13.0509  13.0509  13.0509  13.0509  13.0509
    13.0509  16.4294  16.4294  16.4294  16.7688  16.7688  16.7688  18.7124
    18.7124  18.7124  21.8249  22.8573  22.8573  22.8573  24.9518  27.2478

[...]

          k = 0.0876-0.1051-0.1051 (  5552 PWs)   bands (ev):

[...]

          k =-0.1051-0.1051-0.1051 (  5520 PWs)   bands (ev):

   -11.0652 -11.0652 -11.0652 -11.0652 -11.0609 -11.0609 -11.0609 -11.0609
   -11.0609 -11.0609 -11.0609 -11.0609 -10.9153 -10.9153 -10.9153 -10.9153
   -10.9153 -10.9153 -10.9153 -10.9153   4.1308   4.1308   4.1308   4.1308
     6.3084   6.3084   6.3084   6.3084  16.7956  16.7956  16.7956  16.7956
    16.7956  16.7956  16.7956  16.7956  21.1830  21.1830  21.1830  21.1830
    21.2643  21.2643  21.2643  21.2643  21.6731  21.6731  21.6731  21.6731

     the Fermi energy is    10.9883 ev

!    total energy              =    -642.84049127 Ry
     Harris-Foulkes estimate   =    -642.84040868 Ry
     estimated scf accuracy    <          1.4E-09 Ry

     The total energy is the sum of the following terms:

     one-electron contribution =    -213.71626521 Ry
     hartree contribution      =     148.87979505 Ry
     xc contribution           =    -178.11163935 Ry
     ewald contribution        =    -399.88718777 Ry
     smearing contrib. (-TS)   =      -0.00519398 Ry

     convergence has been achieved in  15 iterations

 BEEF-vdW xc energy contributions
           1 :   -156.475789258334
           2 :    143.472466656696
           3 :   -121.276665768798
           4 :    95.9324727392461
           5 :   -73.3211583005771
           6 :    57.0685925707625
           7 :   -47.6658120307749
           8 :    43.0581417087372
           9 :   -40.2251557254728
          10 :    36.8481180823422
          11 :   -32.2408346232656
          12 :    27.2156511874585
          13 :   -23.1621413734053
          14 :    20.9929450753544
          15 :   -20.5792600994263
          16 :    20.9238640772022
          17 :   -20.8548609884914
          18 :    19.7457465902909
          19 :   -17.8162143198124
          20 :    15.8770116121878
          21 :   -14.7379704922910
          22 :    14.6818188536566
          23 :   -15.3240106267232
          24 :    15.9075027896856
          25 :   -15.8061715372097
          26 :    14.9017444629047
          27 :   -13.6090095499999
          28 :    12.5647431246311
          29 :   -12.2055624764675
          30 :    12.5100536800217
          31 :   -13.6682329940551
          32 :   -10.0080318774112

     Forces acting on atoms (Ry/au):

     atom    1 type  1   force =     0.00000000    0.00000000    0.00000000
     atom    2 type  1   force =     0.00000000   -0.00000000    0.00000000
     atom    3 type  1   force =     0.00000000    0.00000000    0.00000000
     atom    4 type  1   force =     0.00000000    0.00000000    0.00000000

     Total force =     0.000000     Total SCF correction =     0.000000

     General routines

     Parallel routines

   This run was terminated on:  14:18:18  19Oct2017

   JOB DONE.