     Program PWSCF v.5.1rc2 (svn rev. ) starts on 19Oct2017 at 14:45:23

     Current dimensions of program PWSCF are:
     Max number of different atomic species (ntypx) = 10
     Max number of k-points (npk) =  40000
     Max angular momentum in pseudopotentials (lmaxx) =  3

     IMPORTANT: XC functional enforced from input :
     Exchange-correlation      = BEEF-VDW ( 1  4 27 13 2)
     Any further DFT definition will be discarded
     Please, verify this is what you really want

     Subspace diagonalization in iterative solution of the eigenvalue problem:
     a serial algorithm will be used

     Found symmetry operation: I + (  0.0000 -0.5000 -0.5000)
     This is a supercell, fractional translations are disabled

     bravais-lattice index     =            0
     lattice parameter (alat)  =       1.8897  a.u.
     unit-cell volume          =     743.2271 (a.u.)^3
     number of atoms/cell      =            4
     number of atomic types    =            1
     number of electrons       =        44.00
     number of Kohn-Sham states=           42
     kinetic-energy cutoff     =      58.7989  Ry
     charge density cutoff     =     587.9892  Ry
     convergence threshold     =      7.3E-09
     mixing beta               =       0.1000
     number of iterations used =           10  local-TF  mixing
     Exchange-correlation      = BEEF-VDW ( 1  4 27 13 2)

     celldm(1)=   1.889726  celldm(2)=   0.000000  celldm(3)=   0.000000
     celldm(4)=   0.000000  celldm(5)=   0.000000  celldm(6)=   0.000000

     crystal axes: (cart. coord. in units of alat)
               a(1) = (   4.793378   0.000000   0.000000 )
               a(2) = (   0.000000   4.793378   0.000000 )
               a(3) = (   0.000000   0.000000   4.793378 )

     reciprocal axes: (cart. coord. in units 2 pi/alat)
               b(1) = (  0.208621  0.000000  0.000000 )
               b(2) = (  0.000000  0.208621  0.000000 )
               b(3) = (  0.000000  0.000000  0.208621 )

     PseudoPot. # 1 for Sc read from file:
     /home/vossj/suncat/psp/gbrv1.5pbe/Sc.UPF
     MD5 check sum: db30a2753ba66ef00f23801d899b7e7f
     Pseudo is Ultrasoft + core correction, Zval = 11.0
     Generated by new atomic code, or converted to UPF format
     Using radial grid of  849 points,  6 beta functions with:
                l(1) =   0
                l(2) =   0
                l(3) =   1
                l(4) =   1
                l(5) =   2
                l(6) =   2
     Q(r) pseudized with  6 coefficients,  rinner =    1.200   1.200   1.200
                                                       1.200   1.200

     vdW kernel table read from file vdW_kernel_table
     MD5 check sum: 095c7af220d748ca6e76c0b4c6cfb241

     atomic species   valence    mass     pseudopotential
        Sc1           11.00    44.95591     Sc( 1.00)

     48 Sym. Ops., with inversion, found

   Cartesian axes

     site n.     atom                  positions (alat units)
         1           Sc1 tau(   1) = (   0.0000000   0.0000000   0.0000000  )
         2           Sc1 tau(   2) = (   0.0000000   2.3966888   2.3966888  )
         3           Sc1 tau(   3) = (   2.3966888   0.0000000   2.3966888  )
         4           Sc1 tau(   4) = (   2.3966888   2.3966888   0.0000000  )

     number of k points=    84  Fermi-Dirac smearing, width (Ry)=  0.0073
                       cart. coord. in units 2pi/alat
        k(    1) = (   0.0000000   0.0000000   0.0000000), wk =   0.0011574
        k(    2) = (   0.0000000   0.0000000   0.0173851), wk =   0.0069444
        k(    3) = (   0.0000000   0.0000000   0.0347702), wk =   0.0069444
        k(    4) = (   0.0000000   0.0000000   0.0521553), wk =   0.0069444
        k(    5) = (   0.0000000   0.0000000   0.0695404), wk =   0.0069444
        k(    6) = (   0.0000000   0.0000000   0.0869255), wk =   0.0069444
        k(    7) = (   0.0000000   0.0000000  -0.1043106), wk =   0.0034722
        k(    8) = (   0.0000000   0.0173851   0.0173851), wk =   0.0138889
        k(    9) = (   0.0000000   0.0173851   0.0347702), wk =   0.0277778
        k(   10) = (   0.0000000   0.0173851   0.0521553), wk =   0.0277778
        k(   11) = (   0.0000000   0.0173851   0.0695404), wk =   0.0277778
        k(   12) = (   0.0000000   0.0173851   0.0869255), wk =   0.0277778
        k(   13) = (   0.0000000   0.0173851  -0.1043106), wk =   0.0138889
        k(   14) = (   0.0000000   0.0347702   0.0347702), wk =   0.0138889
        k(   15) = (   0.0000000   0.0347702   0.0521553), wk =   0.0277778
        k(   16) = (   0.0000000   0.0347702   0.0695404), wk =   0.0277778
        k(   17) = (   0.0000000   0.0347702   0.0869255), wk =   0.0277778
        k(   18) = (   0.0000000   0.0347702  -0.1043106), wk =   0.0138889
        k(   19) = (   0.0000000   0.0521553   0.0521553), wk =   0.0138889
        k(   20) = (   0.0000000   0.0521553   0.0695404), wk =   0.0277778
        k(   21) = (   0.0000000   0.0521553   0.0869255), wk =   0.0277778
        k(   22) = (   0.0000000   0.0521553  -0.1043106), wk =   0.0138889
        k(   23) = (   0.0000000   0.0695404   0.0695404), wk =   0.0138889
        k(   24) = (   0.0000000   0.0695404   0.0869255), wk =   0.0277778
        k(   25) = (   0.0000000   0.0695404  -0.1043106), wk =   0.0138889
        k(   26) = (   0.0000000   0.0869255   0.0869255), wk =   0.0138889
        k(   27) = (   0.0000000   0.0869255  -0.1043106), wk =   0.0138889
        k(   28) = (   0.0000000  -0.1043106  -0.1043106), wk =   0.0034722
        k(   29) = (   0.0173851   0.0173851   0.0173851), wk =   0.0092593
        k(   30) = (   0.0173851   0.0173851   0.0347702), wk =   0.0277778
        k(   31) = (   0.0173851   0.0173851   0.0521553), wk =   0.0277778
        k(   32) = (   0.0173851   0.0173851   0.0695404), wk =   0.0277778
        k(   33) = (   0.0173851   0.0173851   0.0869255), wk =   0.0277778
        k(   34) = (   0.0173851   0.0173851  -0.1043106), wk =   0.0138889
        k(   35) = (   0.0173851   0.0347702   0.0347702), wk =   0.0277778
        k(   36) = (   0.0173851   0.0347702   0.0521553), wk =   0.0555556
        k(   37) = (   0.0173851   0.0347702   0.0695404), wk =   0.0555556
        k(   38) = (   0.0173851   0.0347702   0.0869255), wk =   0.0555556
        k(   39) = (   0.0173851   0.0347702  -0.1043106), wk =   0.0277778
        k(   40) = (   0.0173851   0.0521553   0.0521553), wk =   0.0277778
        k(   41) = (   0.0173851   0.0521553   0.0695404), wk =   0.0555556
        k(   42) = (   0.0173851   0.0521553   0.0869255), wk =   0.0555556
        k(   43) = (   0.0173851   0.0521553  -0.1043106), wk =   0.0277778
        k(   44) = (   0.0173851   0.0695404   0.0695404), wk =   0.0277778
        k(   45) = (   0.0173851   0.0695404   0.0869255), wk =   0.0555556
        k(   46) = (   0.0173851   0.0695404  -0.1043106), wk =   0.0277778
        k(   47) = (   0.0173851   0.0869255   0.0869255), wk =   0.0277778
        k(   48) = (   0.0173851   0.0869255  -0.1043106), wk =   0.0277778
        k(   49) = (   0.0173851  -0.1043106  -0.1043106), wk =   0.0069444
        k(   50) = (   0.0347702   0.0347702   0.0347702), wk =   0.0092593
        k(   51) = (   0.0347702   0.0347702   0.0521553), wk =   0.0277778
        k(   52) = (   0.0347702   0.0347702   0.0695404), wk =   0.0277778
        k(   53) = (   0.0347702   0.0347702   0.0869255), wk =   0.0277778
        k(   54) = (   0.0347702   0.0347702  -0.1043106), wk =   0.0138889
        k(   55) = (   0.0347702   0.0521553   0.0521553), wk =   0.0277778
        k(   56) = (   0.0347702   0.0521553   0.0695404), wk =   0.0555556
        k(   57) = (   0.0347702   0.0521553   0.0869255), wk =   0.0555556
        k(   58) = (   0.0347702   0.0521553  -0.1043106), wk =   0.0277778
        k(   59) = (   0.0347702   0.0695404   0.0695404), wk =   0.0277778
        k(   60) = (   0.0347702   0.0695404   0.0869255), wk =   0.0555556
[...]
        k(   70) = (   0.0521553   0.0695404   0.0869255), wk =   0.0555556
        k(   71) = (   0.0521553   0.0695404  -0.1043106), wk =   0.0277778
        k(   72) = (   0.0521553   0.0869255   0.0869255), wk =   0.0277778
        k(   73) = (   0.0521553   0.0869255  -0.1043106), wk =   0.0277778
        k(   74) = (   0.0521553  -0.1043106  -0.1043106), wk =   0.0069444
        k(   75) = (   0.0695404   0.0695404   0.0695404), wk =   0.0092593
        k(   76) = (   0.0695404   0.0695404   0.0869255), wk =   0.0277778
        k(   77) = (   0.0695404   0.0695404  -0.1043106), wk =   0.0138889
        k(   78) = (   0.0695404   0.0869255   0.0869255), wk =   0.0277778
        k(   79) = (   0.0695404   0.0869255  -0.1043106), wk =   0.0277778
        k(   80) = (   0.0695404  -0.1043106  -0.1043106), wk =   0.0069444
        k(   81) = (   0.0869255   0.0869255   0.0869255), wk =   0.0092593
        k(   82) = (   0.0869255   0.0869255  -0.1043106), wk =   0.0138889
        k(   83) = (   0.0869255  -0.1043106  -0.1043106), wk =   0.0069444
        k(   84) = (  -0.1043106  -0.1043106  -0.1043106), wk =   0.0011574

     Largest allocated arrays     est. size (Mb)     dimensions
     Largest temporary arrays     est. size (Mb)     dimensions

     Initial potential from superposition of free atoms

     starting charge   43.99039, renormalised to   44.00000

     *
     * You are using vdW-DF for exchange-correlation in this calculation.
     * Please cite the following three references that made this development
     * possible:
     *
     *   M. Dion, H. Rydberg, E. Schroder, D. C. Langreth, and
     *   B. I. Lundqvist, Phys. Rev. Lett. 92, 246401 (2004).
     *
     *   T. Thonhauser, V. R. Cooper, S. Li, A. Puzder, P. Hyldgaard, and
     *   D. C. Langreth, Phys. Rev. B 76, 125112 (2007).
     *
     *   G. Roman-Perez and J. M. Soler, Phys. Rev. Lett. 103, 096102 (2009).
     *
     *
     * If you are using vdW-DF2, please also cite:
     *
     *   K. Lee, E. D. Murray, L. Kong, B. I. Lundqvist, and
     *   D. C. Langreth, Phys. Rev. B 82, 081101(R) (2010).
     *
     *
     * If you are calculating the stress with vdW-DF, please also cite:
     *
     *   R. Sabatini, E. Kucukbenli, B. Kolb, T. Thonhauser, and
     *   S. de Gironcoli, J. Phys.: Condens. Matter 24, 424209 (2012).
     *

     Carrying out vdW-DF run using the following parameters:

     Nqs =      20    Nr_points =    1024   r_max =   100.000
     q_mesh =
               0.00001000     0.04494208     0.09755937     0.15916263
               0.23128650     0.31572767     0.41458969     0.53033537
               0.66584808     0.82450364     1.01025438     1.22772762
               1.48234092     1.78043706     2.12944203     2.53805004
               3.01644009     3.57652955     4.23227104     5.00000000

     Gradients computed in reciprocal space

     Starting wfc are   52 randomized atomic wfcs

     Self-consistent Calculation

     iteration #  1     ecut=    58.80 Ry     beta=0.10
     Davidson diagonalization with overlap
     ethr =  1.00E-02,  avg # of iterations =  2.2

     Threshold (ethr) on eigenvalues was too large:
     Diagonalizing with lowered threshold

     Davidson diagonalization with overlap
     ethr =  3.41E-05,  avg # of iterations =  3.8

     total energy              =    -379.31359912 Ry
     Harris-Foulkes estimate   =    -379.31358125 Ry
     estimated scf accuracy    <       0.01924386 Ry

[...]

     total energy              =    -379.31364516 Ry
     Harris-Foulkes estimate   =    -379.31365143 Ry
     estimated scf accuracy    <       0.00000003 Ry

     iteration # 13     ecut=    58.80 Ry     beta=0.10
     Davidson diagonalization with overlap
     ethr =  6.68E-11,  avg # of iterations =  2.7

     End of self-consistent calculation

          k = 0.0000 0.0000 0.0000 (  5695 PWs)   bands (ev):

   -42.1567 -42.1104 -42.1104 -42.1104 -20.8192 -20.8192 -20.8192 -20.6703
   -20.6703 -20.6703 -20.6703 -20.6703 -20.6703 -20.5771 -20.5771 -20.5771
     2.9446   6.5498   6.5498   6.5498   7.3382   7.3382   7.3382   9.2138
     9.2138   9.2138   9.4650   9.4650   9.4650  10.3723  10.3723  11.1061
    11.1061  11.1061  11.2866  11.2866  11.2866  11.2866  11.2866  11.2866
    15.2637  15.2637

[...]

          k = 0.0869-0.1043-0.1043 (  5692 PWs)   bands (ev):

[...]

          k =-0.1043-0.1043-0.1043 (  5616 PWs)   bands (ev):

   -42.1218 -42.1218 -42.1218 -42.1218 -20.8346 -20.8346 -20.8346 -20.8346
   -20.6121 -20.6121 -20.6121 -20.6121 -20.6121 -20.6121 -20.6121 -20.6121
     6.2307   6.2307   6.2307   6.2307   7.9360   7.9360   7.9360   7.9360
     9.1366   9.1366   9.1366   9.1366   9.1366   9.1366   9.1366   9.1366
    11.1026  11.1026  11.1026  11.1026  11.1026  11.1026  11.1026  11.1026
    13.6034  13.6034

     the Fermi energy is     7.8398 ev

!    total energy              =    -379.31368342 Ry
     Harris-Foulkes estimate   =    -379.31364516 Ry
     estimated scf accuracy    <          2.8E-09 Ry

     The total energy is the sum of the following terms:

     one-electron contribution =    -169.25971523 Ry
     hartree contribution      =      90.20891001 Ry
     xc contribution           =     -55.26124251 Ry
     ewald contribution        =    -244.98027951 Ry
     smearing contrib. (-TS)   =      -0.02135618 Ry

     convergence has been achieved in  13 iterations

 BEEF-vdW xc energy contributions
           1 :   -46.8026068566269
           2 :    41.2260663692963
           3 :   -32.5742080429569
           4 :    24.2796533385283
           5 :   -18.7152242548015
           6 :    16.1627473163310
           7 :   -15.2953798203521
           8 :    14.5614245369681
           9 :   -13.3017008368366
          10 :    11.8558133622951
          11 :   -10.8470141112908
          12 :    10.4480832292153
          13 :   -10.2666080015551
          14 :    9.81304851413835
          15 :   -8.99648282251925
          16 :    8.16423297958076
          17 :   -7.70750893814669
          18 :    7.66752569483694
          19 :   -7.72300915691110
          20 :    7.52942474151590
          21 :   -7.04488474733094
          22 :    6.52984058156510
          23 :   -6.25601470346454
          24 :    6.23817505313567
          25 :   -6.24793001831905
          26 :    6.06678029159444
          27 :   -5.70427801323394
          28 :    5.36693544240313
          29 :   -5.23030363888590
          30 :    5.25928626923799
          31 :   -5.52003815153385
          32 :   -3.98680179724529

     Forces acting on atoms (Ry/au):

     atom    1 type  1   force =     0.00000000    0.00000000    0.00000000
     atom    2 type  1   force =     0.00000000    0.00000000    0.00000000
     atom    3 type  1   force =     0.00000000    0.00000000   -0.00000000
     atom    4 type  1   force =     0.00000000    0.00000000   -0.00000000

     Total force =     0.000000     Total SCF correction =     0.000000

     General routines

     Parallel routines

   This run was terminated on:  14:46:32  19Oct2017

   JOB DONE.