     Program PWSCF v.5.1rc2 (svn rev. ) starts on 23Oct2017 at 17:24:31

     Current dimensions of program PWSCF are:
     Max number of different atomic species (ntypx) = 10
     Max number of k-points (npk) =  40000
     Max angular momentum in pseudopotentials (lmaxx) =  3

     IMPORTANT: XC functional enforced from input :
     Exchange-correlation      = BEEF-VDW ( 1  4 27 13 2)
     Any further DFT definition will be discarded
     Please, verify this is what you really want

     Subspace diagonalization in iterative solution of the eigenvalue problem:
     a serial algorithm will be used

     Found symmetry operation: I + (  0.0000 -0.5000 -0.5000)
     This is a supercell, fractional translations are disabled

     bravais-lattice index     =            0
     lattice parameter (alat)  =       1.8897  a.u.
     unit-cell volume          =     844.4597 (a.u.)^3
     number of atoms/cell      =            4
     number of atomic types    =            1
     number of electrons       =        44.00
     number of Kohn-Sham states=           42
     kinetic-energy cutoff     =      58.7989  Ry
     charge density cutoff     =     587.9892  Ry
     convergence threshold     =      7.3E-09
     mixing beta               =       0.1000
     number of iterations used =           10  local-TF  mixing
     Exchange-correlation      = BEEF-VDW ( 1  4 27 13 2)

     celldm(1)=   1.889726  celldm(2)=   0.000000  celldm(3)=   0.000000
     celldm(4)=   0.000000  celldm(5)=   0.000000  celldm(6)=   0.000000

     crystal axes: (cart. coord. in units of alat)
               a(1) = (   5.001813   0.000000   0.000000 )
               a(2) = (   0.000000   5.001813   0.000000 )
               a(3) = (   0.000000   0.000000   5.001813 )

     reciprocal axes: (cart. coord. in units 2 pi/alat)
               b(1) = (  0.199928  0.000000  0.000000 )
               b(2) = (  0.000000  0.199928  0.000000 )
               b(3) = (  0.000000  0.000000  0.199928 )

     PseudoPot. # 1 for La read from file:
     /home/vossj/suncat/psp/gbrv1.5pbe/La.UPF
     MD5 check sum: 5937b0c7494ba0601a847275249473aa
     Pseudo is Ultrasoft + core correction, Zval = 11.0
     Generated by new atomic code, or converted to UPF format
     Using radial grid of  995 points,  8 beta functions with:
                l(1) =   0
                l(2) =   0
                l(3) =   1
                l(4) =   1
                l(5) =   2
                l(6) =   2
                l(7) =   3
                l(8) =   3
     Q(r) pseudized with  8 coefficients,  rinner =    1.700   1.700   1.700
                                                       1.700   1.700   1.700
                                                       1.700

     vdW kernel table read from file vdW_kernel_table
     MD5 check sum: 095c7af220d748ca6e76c0b4c6cfb241

     atomic species   valence    mass     pseudopotential
        La1           11.00   138.90547     La( 1.00)

     48 Sym. Ops., with inversion, found

   Cartesian axes

     site n.     atom                  positions (alat units)
         1           La1 tau(   1) = (   0.0000000   0.0000000   0.0000000  )
         2           La1 tau(   2) = (   0.0000000   2.5009064   2.5009064  )
         3           La1 tau(   3) = (   2.5009064   0.0000000   2.5009064  )
         4           La1 tau(   4) = (   2.5009064   2.5009064   0.0000000  )

     number of k points=    84  Fermi-Dirac smearing, width (Ry)=  0.0073
                       cart. coord. in units 2pi/alat
        k(    1) = (   0.0000000   0.0000000   0.0000000), wk =   0.0011574
        k(    2) = (   0.0000000   0.0000000   0.0166606), wk =   0.0069444
        k(    3) = (   0.0000000   0.0000000   0.0333213), wk =   0.0069444
        k(    4) = (   0.0000000   0.0000000   0.0499819), wk =   0.0069444
        k(    5) = (   0.0000000   0.0000000   0.0666425), wk =   0.0069444
        k(    6) = (   0.0000000   0.0000000   0.0833031), wk =   0.0069444
        k(    7) = (   0.0000000   0.0000000  -0.0999638), wk =   0.0034722
        k(    8) = (   0.0000000   0.0166606   0.0166606), wk =   0.0138889
        k(    9) = (   0.0000000   0.0166606   0.0333213), wk =   0.0277778
        k(   10) = (   0.0000000   0.0166606   0.0499819), wk =   0.0277778
        k(   11) = (   0.0000000   0.0166606   0.0666425), wk =   0.0277778
        k(   12) = (   0.0000000   0.0166606   0.0833031), wk =   0.0277778
        k(   13) = (   0.0000000   0.0166606  -0.0999638), wk =   0.0138889
        k(   14) = (   0.0000000   0.0333213   0.0333213), wk =   0.0138889
        k(   15) = (   0.0000000   0.0333213   0.0499819), wk =   0.0277778
        k(   16) = (   0.0000000   0.0333213   0.0666425), wk =   0.0277778
        k(   17) = (   0.0000000   0.0333213   0.0833031), wk =   0.0277778
        k(   18) = (   0.0000000   0.0333213  -0.0999638), wk =   0.0138889
        k(   19) = (   0.0000000   0.0499819   0.0499819), wk =   0.0138889
        k(   20) = (   0.0000000   0.0499819   0.0666425), wk =   0.0277778
        k(   21) = (   0.0000000   0.0499819   0.0833031), wk =   0.0277778
        k(   22) = (   0.0000000   0.0499819  -0.0999638), wk =   0.0138889
        k(   23) = (   0.0000000   0.0666425   0.0666425), wk =   0.0138889
        k(   24) = (   0.0000000   0.0666425   0.0833031), wk =   0.0277778
        k(   25) = (   0.0000000   0.0666425  -0.0999638), wk =   0.0138889
        k(   26) = (   0.0000000   0.0833031   0.0833031), wk =   0.0138889
        k(   27) = (   0.0000000   0.0833031  -0.0999638), wk =   0.0138889
        k(   28) = (   0.0000000  -0.0999638  -0.0999638), wk =   0.0034722
        k(   29) = (   0.0166606   0.0166606   0.0166606), wk =   0.0092593
        k(   30) = (   0.0166606   0.0166606   0.0333213), wk =   0.0277778
        k(   31) = (   0.0166606   0.0166606   0.0499819), wk =   0.0277778
        k(   32) = (   0.0166606   0.0166606   0.0666425), wk =   0.0277778
        k(   33) = (   0.0166606   0.0166606   0.0833031), wk =   0.0277778
        k(   34) = (   0.0166606   0.0166606  -0.0999638), wk =   0.0138889
        k(   35) = (   0.0166606   0.0333213   0.0333213), wk =   0.0277778
        k(   36) = (   0.0166606   0.0333213   0.0499819), wk =   0.0555556
        k(   37) = (   0.0166606   0.0333213   0.0666425), wk =   0.0555556
        k(   38) = (   0.0166606   0.0333213   0.0833031), wk =   0.0555556
        k(   39) = (   0.0166606   0.0333213  -0.0999638), wk =   0.0277778
        k(   40) = (   0.0166606   0.0499819   0.0499819), wk =   0.0277778
        k(   41) = (   0.0166606   0.0499819   0.0666425), wk =   0.0555556
        k(   42) = (   0.0166606   0.0499819   0.0833031), wk =   0.0555556
        k(   43) = (   0.0166606   0.0499819  -0.0999638), wk =   0.0277778
        k(   44) = (   0.0166606   0.0666425   0.0666425), wk =   0.0277778
        k(   45) = (   0.0166606   0.0666425   0.0833031), wk =   0.0555556
        k(   46) = (   0.0166606   0.0666425  -0.0999638), wk =   0.0277778
        k(   47) = (   0.0166606   0.0833031   0.0833031), wk =   0.0277778
        k(   48) = (   0.0166606   0.0833031  -0.0999638), wk =   0.0277778
        k(   49) = (   0.0166606  -0.0999638  -0.0999638), wk =   0.0069444
        k(   50) = (   0.0333213   0.0333213   0.0333213), wk =   0.0092593
        k(   51) = (   0.0333213   0.0333213   0.0499819), wk =   0.0277778
        k(   52) = (   0.0333213   0.0333213   0.0666425), wk =   0.0277778
        k(   53) = (   0.0333213   0.0333213   0.0833031), wk =   0.0277778
        k(   54) = (   0.0333213   0.0333213  -0.0999638), wk =   0.0138889
        k(   55) = (   0.0333213   0.0499819   0.0499819), wk =   0.0277778
        k(   56) = (   0.0333213   0.0499819   0.0666425), wk =   0.0555556
        k(   57) = (   0.0333213   0.0499819   0.0833031), wk =   0.0555556
        k(   58) = (   0.0333213   0.0499819  -0.0999638), wk =   0.0277778
        k(   59) = (   0.0333213   0.0666425   0.0666425), wk =   0.0277778
        k(   60) = (   0.0333213   0.0666425   0.0833031), wk =   0.0555556
[...]
        k(   70) = (   0.0499819   0.0666425   0.0833031), wk =   0.0555556
        k(   71) = (   0.0499819   0.0666425  -0.0999638), wk =   0.0277778
        k(   72) = (   0.0499819   0.0833031   0.0833031), wk =   0.0277778
        k(   73) = (   0.0499819   0.0833031  -0.0999638), wk =   0.0277778
        k(   74) = (   0.0499819  -0.0999638  -0.0999638), wk =   0.0069444
        k(   75) = (   0.0666425   0.0666425   0.0666425), wk =   0.0092593
        k(   76) = (   0.0666425   0.0666425   0.0833031), wk =   0.0277778
        k(   77) = (   0.0666425   0.0666425  -0.0999638), wk =   0.0138889
        k(   78) = (   0.0666425   0.0833031   0.0833031), wk =   0.0277778
        k(   79) = (   0.0666425   0.0833031  -0.0999638), wk =   0.0277778
        k(   80) = (   0.0666425  -0.0999638  -0.0999638), wk =   0.0069444
        k(   81) = (   0.0833031   0.0833031   0.0833031), wk =   0.0092593
        k(   82) = (   0.0833031   0.0833031  -0.0999638), wk =   0.0138889
        k(   83) = (   0.0833031  -0.0999638  -0.0999638), wk =   0.0069444
        k(   84) = (  -0.0999638  -0.0999638  -0.0999638), wk =   0.0011574

     Largest allocated arrays     est. size (Mb)     dimensions
     Largest temporary arrays     est. size (Mb)     dimensions

     Initial potential from superposition of free atoms
     Check: negative starting charge=   -0.271640

     starting charge   43.87173, renormalised to   44.00000

     negative rho (up, down):  2.724E-01 0.000E+00

     *
     * You are using vdW-DF for exchange-correlation in this calculation.
     * Please cite the following three references that made this development
     * possible:
     *
     *   M. Dion, H. Rydberg, E. Schroder, D. C. Langreth, and
     *   B. I. Lundqvist, Phys. Rev. Lett. 92, 246401 (2004).
     *
     *   T. Thonhauser, V. R. Cooper, S. Li, A. Puzder, P. Hyldgaard, and
     *   D. C. Langreth, Phys. Rev. B 76, 125112 (2007).
     *
     *   G. Roman-Perez and J. M. Soler, Phys. Rev. Lett. 103, 096102 (2009).
     *
     *
     * If you are using vdW-DF2, please also cite:
     *
     *   K. Lee, E. D. Murray, L. Kong, B. I. Lundqvist, and
     *   D. C. Langreth, Phys. Rev. B 82, 081101(R) (2010).
     *
     *
     * If you are calculating the stress with vdW-DF, please also cite:
     *
     *   R. Sabatini, E. Kucukbenli, B. Kolb, T. Thonhauser, and
     *   S. de Gironcoli, J. Phys.: Condens. Matter 24, 424209 (2012).
     *

     Carrying out vdW-DF run using the following parameters:

     Nqs =      20    Nr_points =    1024   r_max =   100.000
     q_mesh =
               0.00001000     0.04494208     0.09755937     0.15916263
               0.23128650     0.31572767     0.41458969     0.53033537
               0.66584808     0.82450364     1.01025438     1.22772762
               1.48234092     1.78043706     2.12944203     2.53805004
               3.01644009     3.57652955     4.23227104     5.00000000

     Gradients computed in reciprocal space

     Starting wfc are   80 randomized atomic wfcs

     Self-consistent Calculation

     iteration #  1     ecut=    58.80 Ry     beta=0.10
     Davidson diagonalization with overlap
     ethr =  1.00E-02,  avg # of iterations =  2.0

     Threshold (ethr) on eigenvalues was too large:
     Diagonalizing with lowered threshold

     Davidson diagonalization with overlap
     ethr =  2.43E-05,  avg # of iterations =  4.0

[...]

     total energy              =    -416.12423937 Ry
     Harris-Foulkes estimate   =    -416.12473412 Ry
     estimated scf accuracy    <       0.01535890 Ry

[...]

     total energy              =    -416.12087122 Ry
     Harris-Foulkes estimate   =    -416.12086885 Ry
     estimated scf accuracy    <       0.00000002 Ry

     iteration # 27     ecut=    58.80 Ry     beta=0.10
     Davidson diagonalization with overlap
     ethr =  3.60E-11,  avg # of iterations =  3.9

[...]

     negative rho (up, down):  1.743E-01 0.000E+00

     End of self-consistent calculation

          k = 0.0000 0.0000 0.0000 (  6451 PWs)   bands (ev):

   -19.4687 -18.9827 -18.9822 -18.9822  -3.9122  -3.9122  -3.9122  -2.6736
    -2.6736  -2.6736  -2.6735  -2.6735  -2.6735  -1.9002  -1.9002  -1.9002
    10.5292  11.0599  11.0599  11.0599  11.7047  11.7047  11.7047  14.8444
    15.1497  15.1497  15.1497  15.5528  15.5528  15.5528  15.7071  15.7071
    15.7071  15.7344  15.7344  15.7344  15.7348  15.7348  15.7348  15.7991
    15.7991  15.7991

[...]

          k = 0.0833-0.1000-0.1000 (  6416 PWs)   bands (ev):

[...]

          k =-0.1000-0.1000-0.1000 (  6488 PWs)   bands (ev):

   -19.1032 -19.1025 -19.1025 -19.1025  -4.0725  -4.0725  -4.0725  -4.0724
    -2.1741  -2.1741  -2.1741  -2.1740  -2.1740  -2.1740  -2.1740  -2.1740
    11.6423  11.6424  11.6424  11.6424  14.8744  14.8744  14.8744  14.8744
    14.8744  14.8744  14.8744  14.8744  14.8908  14.8909  14.8909  14.8909
    15.6210  15.6210  15.6210  15.6210  15.6210  15.6215  15.6215  15.6215
    15.8067  15.8070

     the Fermi energy is    13.5072 ev

!    total energy              =    -416.12087282 Ry
     Harris-Foulkes estimate   =    -416.12087123 Ry
     estimated scf accuracy    <          2.6E-09 Ry

     The total energy is the sum of the following terms:

     one-electron contribution =      -2.43201381 Ry
     hartree contribution      =      24.66854285 Ry
     xc contribution           =    -203.57000237 Ry
     ewald contribution        =    -234.77147541 Ry
     smearing contrib. (-TS)   =      -0.01592409 Ry

     convergence has been achieved in  27 iterations

 BEEF-vdW xc energy contributions
           1 :   -180.428971491915
           2 :    166.465119659209
           3 :   -141.456993408958
           4 :    110.392549375512
           5 :   -78.9236478429274
           6 :    51.8858091404081
           7 :   -32.2142502909846
           8 :    20.5501205691703
           9 :   -15.5626246133565
          10 :    14.7672615334303
          11 :   -15.4900067506467
          12 :    15.6459813643232
          13 :   -14.1368721375513
          14 :    10.8485870625989
          15 :   -6.37021766521644
          16 :    1.61045171549091
          17 :    2.54118145138165
          18 :   -5.43522806959197
          19 :    6.76335501778630
          20 :   -6.57253408663698
          21 :    5.22192635241862
          22 :   -3.29180843692626
          23 :    1.44408266052380
          24 :  -0.247827339576190
          25 :   1.219950965207772E-002
          26 :  -0.689068651256150
          27 :    1.89738649140094
          28 :   -3.07677968193667
          29 :    3.71807379571717
          30 :   -3.57526487266699
          31 :   -15.3018416631953
          32 :   -11.0976614127117

     Forces acting on atoms (Ry/au):

     negative rho (up, down):  1.743E-01 0.000E+00
     atom    1 type  1   force =     0.00000000    0.00000000    0.00000000
     atom    2 type  1   force =     0.00000000    0.00000000    0.00000000
     atom    3 type  1   force =     0.00000000    0.00000000    0.00000000
     atom    4 type  1   force =     0.00000000    0.00000000    0.00000000

     Total force =     0.000000     Total SCF correction =     0.000000

     General routines

     Parallel routines

   This run was terminated on:  17:28: 1  23Oct2017

   JOB DONE.