     Program PWSCF v.5.1rc2 (svn rev. ) starts on 23Oct2017 at 18:13:38

     Current dimensions of program PWSCF are:
     Max number of different atomic species (ntypx) = 10
     Max number of k-points (npk) =  40000
     Max angular momentum in pseudopotentials (lmaxx) =  3

     IMPORTANT: XC functional enforced from input :
     Exchange-correlation      = BEEF-VDW ( 1  4 27 13 2)
     Any further DFT definition will be discarded
     Please, verify this is what you really want

     Subspace diagonalization in iterative solution of the eigenvalue problem:
     a serial algorithm will be used

     Found symmetry operation: I + (  0.0000 -0.5000 -0.5000)
     This is a supercell, fractional translations are disabled

     bravais-lattice index     =            0
     lattice parameter (alat)  =       1.8897  a.u.
     unit-cell volume          =     416.1659 (a.u.)^3
     number of atoms/cell      =            4
     number of atomic types    =            1
     number of electrons       =        64.00
     number of Kohn-Sham states=           52
     kinetic-energy cutoff     =      58.7989  Ry
     charge density cutoff     =     587.9892  Ry
     convergence threshold     =      7.3E-09
     mixing beta               =       0.1000
     number of iterations used =           10  local-TF  mixing
     Exchange-correlation      = BEEF-VDW ( 1  4 27 13 2)

     celldm(1)=   1.889726  celldm(2)=   0.000000  celldm(3)=   0.000000
     celldm(4)=   0.000000  celldm(5)=   0.000000  celldm(6)=   0.000000

     crystal axes: (cart. coord. in units of alat)
               a(1) = (   3.950845   0.000000   0.000000 )
               a(2) = (   0.000000   3.950845   0.000000 )
               a(3) = (   0.000000   0.000000   3.950845 )

     reciprocal axes: (cart. coord. in units 2 pi/alat)
               b(1) = (  0.253110  0.000000  0.000000 )
               b(2) = (  0.000000  0.253110  0.000000 )
               b(3) = (  0.000000  0.000000  0.253110 )

     PseudoPot. # 1 for Pt read from file:
     /home/vossj/suncat/psp/gbrv1.5pbe/Pt.UPF
     MD5 check sum: f09d6de1a584b5a045c4fc126da2d0c4
     Pseudo is Ultrasoft + core correction, Zval = 16.0
     Generated by new atomic code, or converted to UPF format
     Using radial grid of  985 points,  6 beta functions with:
                l(1) =   0
                l(2) =   0
                l(3) =   1
                l(4) =   1
                l(5) =   2
                l(6) =   2
     Q(r) pseudized with  8 coefficients,  rinner =    1.300   1.300   1.300
                                                       1.300   1.300

     vdW kernel table read from file vdW_kernel_table
     MD5 check sum: 095c7af220d748ca6e76c0b4c6cfb241

     atomic species   valence    mass     pseudopotential
        Pt1           16.00   195.08400     Pt( 1.00)

     48 Sym. Ops., with inversion, found

   Cartesian axes

     site n.     atom                  positions (alat units)
         1           Pt1 tau(   1) = (   0.0000000   0.0000000   0.0000000  )
         2           Pt1 tau(   2) = (   0.0000000   1.9754223   1.9754223  )
         3           Pt1 tau(   3) = (   1.9754223   0.0000000   1.9754223  )
         4           Pt1 tau(   4) = (   1.9754223   1.9754223   0.0000000  )

     number of k points=    84  Fermi-Dirac smearing, width (Ry)=  0.0073
                       cart. coord. in units 2pi/alat
        k(    1) = (   0.0000000   0.0000000   0.0000000), wk =   0.0011574
        k(    2) = (   0.0000000   0.0000000   0.0210925), wk =   0.0069444
        k(    3) = (   0.0000000   0.0000000   0.0421851), wk =   0.0069444
        k(    4) = (   0.0000000   0.0000000   0.0632776), wk =   0.0069444
        k(    5) = (   0.0000000   0.0000000   0.0843701), wk =   0.0069444
        k(    6) = (   0.0000000   0.0000000   0.1054627), wk =   0.0069444
        k(    7) = (   0.0000000   0.0000000  -0.1265552), wk =   0.0034722
        k(    8) = (   0.0000000   0.0210925   0.0210925), wk =   0.0138889
        k(    9) = (   0.0000000   0.0210925   0.0421851), wk =   0.0277778
        k(   10) = (   0.0000000   0.0210925   0.0632776), wk =   0.0277778
        k(   11) = (   0.0000000   0.0210925   0.0843701), wk =   0.0277778
        k(   12) = (   0.0000000   0.0210925   0.1054627), wk =   0.0277778
        k(   13) = (   0.0000000   0.0210925  -0.1265552), wk =   0.0138889
        k(   14) = (   0.0000000   0.0421851   0.0421851), wk =   0.0138889
        k(   15) = (   0.0000000   0.0421851   0.0632776), wk =   0.0277778
        k(   16) = (   0.0000000   0.0421851   0.0843701), wk =   0.0277778
        k(   17) = (   0.0000000   0.0421851   0.1054627), wk =   0.0277778
        k(   18) = (   0.0000000   0.0421851  -0.1265552), wk =   0.0138889
        k(   19) = (   0.0000000   0.0632776   0.0632776), wk =   0.0138889
        k(   20) = (   0.0000000   0.0632776   0.0843701), wk =   0.0277778
        k(   21) = (   0.0000000   0.0632776   0.1054627), wk =   0.0277778
        k(   22) = (   0.0000000   0.0632776  -0.1265552), wk =   0.0138889
        k(   23) = (   0.0000000   0.0843701   0.0843701), wk =   0.0138889
        k(   24) = (   0.0000000   0.0843701   0.1054627), wk =   0.0277778
        k(   25) = (   0.0000000   0.0843701  -0.1265552), wk =   0.0138889
        k(   26) = (   0.0000000   0.1054627   0.1054627), wk =   0.0138889
        k(   27) = (   0.0000000   0.1054627  -0.1265552), wk =   0.0138889
        k(   28) = (   0.0000000  -0.1265552  -0.1265552), wk =   0.0034722
        k(   29) = (   0.0210925   0.0210925   0.0210925), wk =   0.0092593
        k(   30) = (   0.0210925   0.0210925   0.0421851), wk =   0.0277778
        k(   31) = (   0.0210925   0.0210925   0.0632776), wk =   0.0277778
        k(   32) = (   0.0210925   0.0210925   0.0843701), wk =   0.0277778
        k(   33) = (   0.0210925   0.0210925   0.1054627), wk =   0.0277778
        k(   34) = (   0.0210925   0.0210925  -0.1265552), wk =   0.0138889
        k(   35) = (   0.0210925   0.0421851   0.0421851), wk =   0.0277778
        k(   36) = (   0.0210925   0.0421851   0.0632776), wk =   0.0555556
        k(   37) = (   0.0210925   0.0421851   0.0843701), wk =   0.0555556
        k(   38) = (   0.0210925   0.0421851   0.1054627), wk =   0.0555556
        k(   39) = (   0.0210925   0.0421851  -0.1265552), wk =   0.0277778
        k(   40) = (   0.0210925   0.0632776   0.0632776), wk =   0.0277778
        k(   41) = (   0.0210925   0.0632776   0.0843701), wk =   0.0555556
        k(   42) = (   0.0210925   0.0632776   0.1054627), wk =   0.0555556
        k(   43) = (   0.0210925   0.0632776  -0.1265552), wk =   0.0277778
        k(   44) = (   0.0210925   0.0843701   0.0843701), wk =   0.0277778
        k(   45) = (   0.0210925   0.0843701   0.1054627), wk =   0.0555556
        k(   46) = (   0.0210925   0.0843701  -0.1265552), wk =   0.0277778
        k(   47) = (   0.0210925   0.1054627   0.1054627), wk =   0.0277778
        k(   48) = (   0.0210925   0.1054627  -0.1265552), wk =   0.0277778
        k(   49) = (   0.0210925  -0.1265552  -0.1265552), wk =   0.0069444
        k(   50) = (   0.0421851   0.0421851   0.0421851), wk =   0.0092593
        k(   51) = (   0.0421851   0.0421851   0.0632776), wk =   0.0277778
        k(   52) = (   0.0421851   0.0421851   0.0843701), wk =   0.0277778
        k(   53) = (   0.0421851   0.0421851   0.1054627), wk =   0.0277778
        k(   54) = (   0.0421851   0.0421851  -0.1265552), wk =   0.0138889
        k(   55) = (   0.0421851   0.0632776   0.0632776), wk =   0.0277778
        k(   56) = (   0.0421851   0.0632776   0.0843701), wk =   0.0555556
        k(   57) = (   0.0421851   0.0632776   0.1054627), wk =   0.0555556
        k(   58) = (   0.0421851   0.0632776  -0.1265552), wk =   0.0277778
        k(   59) = (   0.0421851   0.0843701   0.0843701), wk =   0.0277778
        k(   60) = (   0.0421851   0.0843701   0.1054627), wk =   0.0555556
[...]
        k(   70) = (   0.0632776   0.0843701   0.1054627), wk =   0.0555556
        k(   71) = (   0.0632776   0.0843701  -0.1265552), wk =   0.0277778
        k(   72) = (   0.0632776   0.1054627   0.1054627), wk =   0.0277778
        k(   73) = (   0.0632776   0.1054627  -0.1265552), wk =   0.0277778
        k(   74) = (   0.0632776  -0.1265552  -0.1265552), wk =   0.0069444
        k(   75) = (   0.0843701   0.0843701   0.0843701), wk =   0.0092593
        k(   76) = (   0.0843701   0.0843701   0.1054627), wk =   0.0277778
        k(   77) = (   0.0843701   0.0843701  -0.1265552), wk =   0.0138889
        k(   78) = (   0.0843701   0.1054627   0.1054627), wk =   0.0277778
        k(   79) = (   0.0843701   0.1054627  -0.1265552), wk =   0.0277778
        k(   80) = (   0.0843701  -0.1265552  -0.1265552), wk =   0.0069444
        k(   81) = (   0.1054627   0.1054627   0.1054627), wk =   0.0092593
        k(   82) = (   0.1054627   0.1054627  -0.1265552), wk =   0.0138889
        k(   83) = (   0.1054627  -0.1265552  -0.1265552), wk =   0.0069444
        k(   84) = (  -0.1265552  -0.1265552  -0.1265552), wk =   0.0011574

     Largest allocated arrays     est. size (Mb)     dimensions
     Largest temporary arrays     est. size (Mb)     dimensions

     Initial potential from superposition of free atoms
     Check: negative starting charge=   -0.738857

     starting charge   61.99995, renormalised to   64.00000

     negative rho (up, down):  7.627E-01 0.000E+00

     *
     * You are using vdW-DF for exchange-correlation in this calculation.
     * Please cite the following three references that made this development
     * possible:
     *
     *   M. Dion, H. Rydberg, E. Schroder, D. C. Langreth, and
     *   B. I. Lundqvist, Phys. Rev. Lett. 92, 246401 (2004).
     *
     *   T. Thonhauser, V. R. Cooper, S. Li, A. Puzder, P. Hyldgaard, and
     *   D. C. Langreth, Phys. Rev. B 76, 125112 (2007).
     *
     *   G. Roman-Perez and J. M. Soler, Phys. Rev. Lett. 103, 096102 (2009).
     *
     *
     * If you are using vdW-DF2, please also cite:
     *
     *   K. Lee, E. D. Murray, L. Kong, B. I. Lundqvist, and
     *   D. C. Langreth, Phys. Rev. B 82, 081101(R) (2010).
     *
     *
     * If you are calculating the stress with vdW-DF, please also cite:
     *
     *   R. Sabatini, E. Kucukbenli, B. Kolb, T. Thonhauser, and
     *   S. de Gironcoli, J. Phys.: Condens. Matter 24, 424209 (2012).
     *

     Carrying out vdW-DF run using the following parameters:

     Nqs =      20    Nr_points =    1024   r_max =   100.000
     q_mesh =
               0.00001000     0.04494208     0.09755937     0.15916263
               0.23128650     0.31572767     0.41458969     0.53033537
               0.66584808     0.82450364     1.01025438     1.22772762
               1.48234092     1.78043706     2.12944203     2.53805004
               3.01644009     3.57652955     4.23227104     5.00000000

     Gradients computed in reciprocal space

     Starting wfc are   48 randomized atomic wfcs +    4 random wfc

     Self-consistent Calculation

     iteration #  1     ecut=    58.80 Ry     beta=0.10
     Davidson diagonalization with overlap
     ethr =  1.00E-02,  avg # of iterations =  4.5

[...]

     total energy              =    -850.12436751 Ry
     Harris-Foulkes estimate   =    -850.28292143 Ry
     estimated scf accuracy    <       2.34262817 Ry

[...]

     total energy              =    -849.50088452 Ry
     Harris-Foulkes estimate   =    -849.50088190 Ry
     estimated scf accuracy    <       0.00000001 Ry

     iteration # 12     ecut=    58.80 Ry     beta=0.10
     Davidson diagonalization with overlap
     ethr =  1.62E-11,  avg # of iterations =  2.0

[...]

     negative rho (up, down):  7.140E-01 0.000E+00

     End of self-consistent calculation

          k = 0.0000 0.0000 0.0000 (  3191 PWs)   bands (ev):

   -31.5336 -31.5336 -31.5336 -31.2929 -31.2929 -31.2929 -31.2929 -31.2929
   -31.2929 -31.1326 -31.1326 -31.1326  11.8308  14.8255  14.8255  14.8255
    15.2581  15.2581  15.2581  17.9514  17.9514  17.9514  19.9694  19.9694
    21.5160  21.5160  21.5160  22.0011  22.0011  22.0011  22.0011  22.0011
    22.0011  23.5948  23.5948  23.5948  30.3501  30.3501  30.3501  33.1305
    33.1305  33.1305  33.1305  33.1305  33.1305  36.4822  41.3137  41.3137
    41.3137  41.5289  41.5289  41.5289

[...]

          k = 0.1055-0.1266-0.1266 (  3148 PWs)   bands (ev):

[...]

          k =-0.1266-0.1266-0.1266 (  3184 PWs)   bands (ev):

   -31.5553 -31.5553 -31.5553 -31.5553 -31.1947 -31.1947 -31.1947 -31.1947
   -31.1947 -31.1947 -31.1947 -31.1947  14.6090  14.6090  14.6090  14.6090
    17.8812  17.8812  17.8812  17.8812  17.8812  17.8812  17.8812  17.8812
    21.3801  21.3801  21.3801  21.3801  21.5650  21.5650  21.5650  21.5650
    21.5650  21.5650  21.5650  21.5650  27.3442  27.3442  27.3442  27.3442
    36.0408  36.0408  36.0408  36.0408  40.6403  40.6403  40.6403  40.6403
    40.6403  40.6403  40.6403  40.6403

     the Fermi energy is    21.5470 ev

!    total energy              =    -849.50089567 Ry
     Harris-Foulkes estimate   =    -849.50088452 Ry
     estimated scf accuracy    <          2.3E-10 Ry

     The total energy is the sum of the following terms:

     one-electron contribution =     -87.85858540 Ry
     hartree contribution      =     101.95554609 Ry
     xc contribution           =    -234.74508541 Ry
     ewald contribution        =    -628.83601810 Ry
     smearing contrib. (-TS)   =      -0.01675285 Ry

     convergence has been achieved in  12 iterations

 BEEF-vdW xc energy contributions
           1 :   -208.789039584824
           2 :    194.700842820368
           3 :   -169.206538818098
           4 :    136.911643252941
           5 :   -103.086032898758
           6 :    72.3239458510136
           7 :   -47.5483335511541
           8 :    29.6383230206671
           9 :   -17.7214223275045
          10 :    9.93843849646092
          11 :   -4.34657806563840
          12 :  -0.378357218388174
          13 :    4.65687209972725
          14 :   -8.16350556231851
          15 :    10.2767335804527
          16 :   -10.5767158411098
          17 :    9.16413875894725
          18 :   -6.68239060299874
          19 :    4.06993955709768
          20 :   -2.18509281127697
          21 :    1.48544038945832
          22 :   -1.90026565410309
          23 :    2.93429922895103
          24 :   -3.93507775758312
          25 :    4.39118330743668
          26 :   -4.12921394369187
          27 :    3.33640185778413
          28 :   -2.42096552167885
          29 :    1.79276943079259
          30 :   -1.67260768908665
          31 :   -17.1006083133513
          32 :   -12.7419889094155

     Forces acting on atoms (Ry/au):

     negative rho (up, down):  7.140E-01 0.000E+00
     atom    1 type  1   force =     0.00000000    0.00000000    0.00000000
     atom    2 type  1   force =     0.00000000   -0.00000000    0.00000000
     atom    3 type  1   force =     0.00000000    0.00000000   -0.00000000
     atom    4 type  1   force =     0.00000000    0.00000000    0.00000000

     Total force =     0.000000     Total SCF correction =     0.000000

     General routines

     Parallel routines

   This run was terminated on:  18:14:34  23Oct2017

   JOB DONE.