     Program PWSCF v.5.1rc2 (svn rev. ) starts on 19Oct2017 at 14:10:31

     Current dimensions of program PWSCF are:
     Max number of different atomic species (ntypx) = 10
     Max number of k-points (npk) =  40000
     Max angular momentum in pseudopotentials (lmaxx) =  3

     IMPORTANT: XC functional enforced from input :
     Exchange-correlation      = BEEF-VDW ( 1  4 27 13 2)
     Any further DFT definition will be discarded
     Please, verify this is what you really want

     Subspace diagonalization in iterative solution of the eigenvalue problem:
     a serial algorithm will be used

     Found symmetry operation: I + (  0.0000 -0.5000 -0.5000)
     This is a supercell, fractional translations are disabled

     bravais-lattice index     =            0
     lattice parameter (alat)  =       1.8897  a.u.
     unit-cell volume          =     561.5526 (a.u.)^3
     number of atoms/cell      =            4
     number of atomic types    =            1
     number of electrons       =        48.00
     number of Kohn-Sham states=           44
     kinetic-energy cutoff     =      58.7989  Ry
     charge density cutoff     =     587.9892  Ry
     convergence threshold     =      7.3E-09
     mixing beta               =       0.1000
     number of iterations used =           10  local-TF  mixing
     Exchange-correlation      = BEEF-VDW ( 1  4 27 13 2)

     celldm(1)=   1.889726  celldm(2)=   0.000000  celldm(3)=   0.000000
     celldm(4)=   0.000000  celldm(5)=   0.000000  celldm(6)=   0.000000

     crystal axes: (cart. coord. in units of alat)
               a(1) = (   4.365808   0.000000   0.000000 )
               a(2) = (   0.000000   4.365808   0.000000 )
               a(3) = (   0.000000   0.000000   4.365808 )

     reciprocal axes: (cart. coord. in units 2 pi/alat)
               b(1) = (  0.229053  0.000000  0.000000 )
               b(2) = (  0.000000  0.229053  0.000000 )
               b(3) = (  0.000000  0.000000  0.229053 )

     PseudoPot. # 1 for Hf read from file:
     /home/vossj/suncat/psp/gbrv1.5pbe/Hf.UPF
     MD5 check sum: 8ee9378dfe14276e333edf04c5e4aa26
     Pseudo is Ultrasoft + core correction, Zval = 12.0
     Generated by new atomic code, or converted to UPF format
     Using radial grid of  921 points,  8 beta functions with:
                l(1) =   0
                l(2) =   0
                l(3) =   0
                l(4) =   1
                l(5) =   1
                l(6) =   2
                l(7) =   2
                l(8) =   3
     Q(r) pseudized with  6 coefficients,  rinner =    1.200   1.200   1.200
                                                       1.200   1.200   1.200
                                                       1.200

     vdW kernel table read from file vdW_kernel_table
     MD5 check sum: 095c7af220d748ca6e76c0b4c6cfb241

     atomic species   valence    mass     pseudopotential
        Hf1           12.00   178.49000     Hf( 1.00)

     48 Sym. Ops., with inversion, found

   Cartesian axes

     site n.     atom                  positions (alat units)
         1           Hf1 tau(   1) = (   0.0000000   0.0000000   0.0000000  )
         2           Hf1 tau(   2) = (   0.0000000   2.1829040   2.1829040  )
         3           Hf1 tau(   3) = (   2.1829040   0.0000000   2.1829040  )
         4           Hf1 tau(   4) = (   2.1829040   2.1829040   0.0000000  )

     number of k points=    84  Fermi-Dirac smearing, width (Ry)=  0.0073
                       cart. coord. in units 2pi/alat
        k(    1) = (   0.0000000   0.0000000   0.0000000), wk =   0.0011574
        k(    2) = (   0.0000000   0.0000000   0.0190877), wk =   0.0069444
        k(    3) = (   0.0000000   0.0000000   0.0381754), wk =   0.0069444
        k(    4) = (   0.0000000   0.0000000   0.0572632), wk =   0.0069444
        k(    5) = (   0.0000000   0.0000000   0.0763509), wk =   0.0069444
        k(    6) = (   0.0000000   0.0000000   0.0954386), wk =   0.0069444
        k(    7) = (   0.0000000   0.0000000  -0.1145263), wk =   0.0034722
        k(    8) = (   0.0000000   0.0190877   0.0190877), wk =   0.0138889
        k(    9) = (   0.0000000   0.0190877   0.0381754), wk =   0.0277778
        k(   10) = (   0.0000000   0.0190877   0.0572632), wk =   0.0277778
        k(   11) = (   0.0000000   0.0190877   0.0763509), wk =   0.0277778
        k(   12) = (   0.0000000   0.0190877   0.0954386), wk =   0.0277778
        k(   13) = (   0.0000000   0.0190877  -0.1145263), wk =   0.0138889
        k(   14) = (   0.0000000   0.0381754   0.0381754), wk =   0.0138889
        k(   15) = (   0.0000000   0.0381754   0.0572632), wk =   0.0277778
        k(   16) = (   0.0000000   0.0381754   0.0763509), wk =   0.0277778
        k(   17) = (   0.0000000   0.0381754   0.0954386), wk =   0.0277778
        k(   18) = (   0.0000000   0.0381754  -0.1145263), wk =   0.0138889
        k(   19) = (   0.0000000   0.0572632   0.0572632), wk =   0.0138889
        k(   20) = (   0.0000000   0.0572632   0.0763509), wk =   0.0277778
        k(   21) = (   0.0000000   0.0572632   0.0954386), wk =   0.0277778
        k(   22) = (   0.0000000   0.0572632  -0.1145263), wk =   0.0138889
        k(   23) = (   0.0000000   0.0763509   0.0763509), wk =   0.0138889
        k(   24) = (   0.0000000   0.0763509   0.0954386), wk =   0.0277778
        k(   25) = (   0.0000000   0.0763509  -0.1145263), wk =   0.0138889
        k(   26) = (   0.0000000   0.0954386   0.0954386), wk =   0.0138889
        k(   27) = (   0.0000000   0.0954386  -0.1145263), wk =   0.0138889
        k(   28) = (   0.0000000  -0.1145263  -0.1145263), wk =   0.0034722
        k(   29) = (   0.0190877   0.0190877   0.0190877), wk =   0.0092593
        k(   30) = (   0.0190877   0.0190877   0.0381754), wk =   0.0277778
        k(   31) = (   0.0190877   0.0190877   0.0572632), wk =   0.0277778
        k(   32) = (   0.0190877   0.0190877   0.0763509), wk =   0.0277778
        k(   33) = (   0.0190877   0.0190877   0.0954386), wk =   0.0277778
        k(   34) = (   0.0190877   0.0190877  -0.1145263), wk =   0.0138889
        k(   35) = (   0.0190877   0.0381754   0.0381754), wk =   0.0277778
        k(   36) = (   0.0190877   0.0381754   0.0572632), wk =   0.0555556
        k(   37) = (   0.0190877   0.0381754   0.0763509), wk =   0.0555556
        k(   38) = (   0.0190877   0.0381754   0.0954386), wk =   0.0555556
        k(   39) = (   0.0190877   0.0381754  -0.1145263), wk =   0.0277778
        k(   40) = (   0.0190877   0.0572632   0.0572632), wk =   0.0277778
        k(   41) = (   0.0190877   0.0572632   0.0763509), wk =   0.0555556
        k(   42) = (   0.0190877   0.0572632   0.0954386), wk =   0.0555556
        k(   43) = (   0.0190877   0.0572632  -0.1145263), wk =   0.0277778
        k(   44) = (   0.0190877   0.0763509   0.0763509), wk =   0.0277778
        k(   45) = (   0.0190877   0.0763509   0.0954386), wk =   0.0555556
        k(   46) = (   0.0190877   0.0763509  -0.1145263), wk =   0.0277778
        k(   47) = (   0.0190877   0.0954386   0.0954386), wk =   0.0277778
        k(   48) = (   0.0190877   0.0954386  -0.1145263), wk =   0.0277778
        k(   49) = (   0.0190877  -0.1145263  -0.1145263), wk =   0.0069444
        k(   50) = (   0.0381754   0.0381754   0.0381754), wk =   0.0092593
        k(   51) = (   0.0381754   0.0381754   0.0572632), wk =   0.0277778
        k(   52) = (   0.0381754   0.0381754   0.0763509), wk =   0.0277778
        k(   53) = (   0.0381754   0.0381754   0.0954386), wk =   0.0277778
        k(   54) = (   0.0381754   0.0381754  -0.1145263), wk =   0.0138889
        k(   55) = (   0.0381754   0.0572632   0.0572632), wk =   0.0277778
        k(   56) = (   0.0381754   0.0572632   0.0763509), wk =   0.0555556
        k(   57) = (   0.0381754   0.0572632   0.0954386), wk =   0.0555556
        k(   58) = (   0.0381754   0.0572632  -0.1145263), wk =   0.0277778
        k(   59) = (   0.0381754   0.0763509   0.0763509), wk =   0.0277778
        k(   60) = (   0.0381754   0.0763509   0.0954386), wk =   0.0555556
[...]
        k(   70) = (   0.0572632   0.0763509   0.0954386), wk =   0.0555556
        k(   71) = (   0.0572632   0.0763509  -0.1145263), wk =   0.0277778
        k(   72) = (   0.0572632   0.0954386   0.0954386), wk =   0.0277778
        k(   73) = (   0.0572632   0.0954386  -0.1145263), wk =   0.0277778
        k(   74) = (   0.0572632  -0.1145263  -0.1145263), wk =   0.0069444
        k(   75) = (   0.0763509   0.0763509   0.0763509), wk =   0.0092593
        k(   76) = (   0.0763509   0.0763509   0.0954386), wk =   0.0277778
        k(   77) = (   0.0763509   0.0763509  -0.1145263), wk =   0.0138889
        k(   78) = (   0.0763509   0.0954386   0.0954386), wk =   0.0277778
        k(   79) = (   0.0763509   0.0954386  -0.1145263), wk =   0.0277778
        k(   80) = (   0.0763509  -0.1145263  -0.1145263), wk =   0.0069444
        k(   81) = (   0.0954386   0.0954386   0.0954386), wk =   0.0092593
        k(   82) = (   0.0954386   0.0954386  -0.1145263), wk =   0.0138889
        k(   83) = (   0.0954386  -0.1145263  -0.1145263), wk =   0.0069444
        k(   84) = (  -0.1145263  -0.1145263  -0.1145263), wk =   0.0011574

     Largest allocated arrays     est. size (Mb)     dimensions
     Largest temporary arrays     est. size (Mb)     dimensions

     Initial potential from superposition of free atoms
     Check: negative starting charge=   -0.433367

     starting charge   39.99999, renormalised to   48.00000

     negative rho (up, down):  5.200E-01 0.000E+00

     *
     * You are using vdW-DF for exchange-correlation in this calculation.
     * Please cite the following three references that made this development
     * possible:
     *
     *   M. Dion, H. Rydberg, E. Schroder, D. C. Langreth, and
     *   B. I. Lundqvist, Phys. Rev. Lett. 92, 246401 (2004).
     *
     *   T. Thonhauser, V. R. Cooper, S. Li, A. Puzder, P. Hyldgaard, and
     *   D. C. Langreth, Phys. Rev. B 76, 125112 (2007).
     *
     *   G. Roman-Perez and J. M. Soler, Phys. Rev. Lett. 103, 096102 (2009).
     *
     *
     * If you are using vdW-DF2, please also cite:
     *
     *   K. Lee, E. D. Murray, L. Kong, B. I. Lundqvist, and
     *   D. C. Langreth, Phys. Rev. B 82, 081101(R) (2010).
     *
     *
     * If you are calculating the stress with vdW-DF, please also cite:
     *
     *   R. Sabatini, E. Kucukbenli, B. Kolb, T. Thonhauser, and
     *   S. de Gironcoli, J. Phys.: Condens. Matter 24, 424209 (2012).
     *

     Carrying out vdW-DF run using the following parameters:

     Nqs =      20    Nr_points =    1024   r_max =   100.000
     q_mesh =
               0.00001000     0.04494208     0.09755937     0.15916263
               0.23128650     0.31572767     0.41458969     0.53033537
               0.66584808     0.82450364     1.01025438     1.22772762
               1.48234092     1.78043706     2.12944203     2.53805004
               3.01644009     3.57652955     4.23227104     5.00000000

     Gradients computed in reciprocal space

     Starting wfc are   52 randomized atomic wfcs

     Self-consistent Calculation

     iteration #  1     ecut=    58.80 Ry     beta=0.10
     Davidson diagonalization with overlap
     ethr =  1.00E-02,  avg # of iterations =  3.1

[...]

     total energy              =    -645.89184628 Ry
     Harris-Foulkes estimate   =    -646.26885142 Ry
     estimated scf accuracy    <       8.26276602 Ry

[...]

     total energy              =    -642.36060446 Ry
     Harris-Foulkes estimate   =    -642.36060445 Ry
     estimated scf accuracy    <       0.00000001 Ry

     iteration # 14     ecut=    58.80 Ry     beta=0.10
     Davidson diagonalization with overlap
     ethr =  3.02E-11,  avg # of iterations =  1.6

[...]

     negative rho (up, down):  4.700E-01 0.000E+00

     End of self-consistent calculation

          k = 0.0000 0.0000 0.0000 (  4337 PWs)   bands (ev):

   -46.3720 -46.2605 -46.2605 -46.2605 -15.4061 -15.4061 -15.4061 -14.8271
   -14.8271 -14.8271 -14.8271 -14.8271 -14.8271 -14.4695 -14.4695 -14.4695
     8.1600  12.0333  12.0333  12.0333  13.1960  13.1960  13.1960  17.0220
    17.0220  17.0220  18.4566  18.4566  18.4566  20.0606  20.0606  22.3807
    22.3807  22.3807  23.0376  23.0376  23.0376  23.0376  23.0376  23.0376
    26.0866  26.0866  26.0866  26.0866

[...]

          k = 0.0954-0.1145-0.1145 (  4276 PWs)   bands (ev):

[...]

          k =-0.1145-0.1145-0.1145 (  4272 PWs)   bands (ev):

   -46.2880 -46.2880 -46.2880 -46.2880 -15.4712 -15.4712 -15.4712 -15.4712
   -14.6010 -14.6010 -14.6010 -14.6009 -14.6009 -14.6009 -14.6009 -14.6009
    11.7627  11.7627  11.7627  11.7627  16.3524  16.3524  16.3524  16.3525
    16.7720  16.7720  16.7720  16.7720  16.7720  16.7720  16.7720  16.7720
    22.3563  22.3563  22.3563  22.3563  22.3563  22.3563  22.3563  22.3563
    26.6863  26.6864  26.6864  26.6865

     the Fermi energy is    15.5782 ev

!    total energy              =    -642.36059539 Ry
     Harris-Foulkes estimate   =    -642.36060446 Ry
     estimated scf accuracy    <          3.8E-09 Ry

     The total energy is the sum of the following terms:

     one-electron contribution =     -65.04098755 Ry
     hartree contribution      =      52.70385403 Ry
     xc contribution           =    -309.91064962 Ry
     ewald contribution        =    -320.09970123 Ry
     smearing contrib. (-TS)   =      -0.01311103 Ry

     convergence has been achieved in  14 iterations

 BEEF-vdW xc energy contributions
           1 :   -279.573916369253
           2 :    260.242892589595
           3 :   -225.711147309097
           4 :    182.835347730153
           5 :   -139.011300860235
           6 :    100.124748378235
           7 :   -69.4025967904868
           8 :    47.4224723922237
           9 :   -32.9801821808348
          10 :    24.1975977335142
          11 :   -19.3094975418956
          12 :    16.9057945962504
          13 :   -15.7866039948791
          14 :    14.7815592212231
          15 :   -12.8061858038099
          16 :    9.17137335298582
          17 :   -3.92246227992484
          18 :   -2.07535837212725
          19 :    7.43971809865116
          20 :   -10.8494293707139
          21 :    11.6091060284106
          22 :   -9.91469023853784
          23 :    6.70815781637270
          24 :   -3.23538567815956
          25 :   0.559338141481931
          26 :   0.740333654765720
          27 :  -0.596084202255838
          28 :  -0.711687197245340
          29 :    2.75403251279795
          30 :   -5.06918660895997
          31 :   -20.0730888013413
          32 :   -14.5262460934191

     Forces acting on atoms (Ry/au):

     negative rho (up, down):  4.700E-01 0.000E+00
     atom    1 type  1   force =     0.00000000    0.00000000   -0.00000000
     atom    2 type  1   force =     0.00000000    0.00000000    0.00000000
     atom    3 type  1   force =     0.00000000    0.00000000   -0.00000000
     atom    4 type  1   force =     0.00000000    0.00000000   -0.00000000

     Total force =     0.000000     Total SCF correction =     0.000000

     General routines

     Parallel routines

   This run was terminated on:  14:11:47  19Oct2017

   JOB DONE.