     Program PWSCF v.5.1rc2 (svn rev. ) starts on 19Oct2017 at 14:16:12

     Current dimensions of program PWSCF are:
     Max number of different atomic species (ntypx) = 10
     Max number of k-points (npk) =  40000
     Max angular momentum in pseudopotentials (lmaxx) =  3

     IMPORTANT: XC functional enforced from input :
     Exchange-correlation      = BEEF-VDW ( 1  4 27 13 2)
     Any further DFT definition will be discarded
     Please, verify this is what you really want

     Subspace diagonalization in iterative solution of the eigenvalue problem:
     a serial algorithm will be used

     Found symmetry operation: I + (  0.0000 -0.5000 -0.5000)
     This is a supercell, fractional translations are disabled

     bravais-lattice index     =            0
     lattice parameter (alat)  =       1.8897  a.u.
     unit-cell volume          =     395.3943 (a.u.)^3
     number of atoms/cell      =            4
     number of atomic types    =            1
     number of electrons       =        60.00
     number of Kohn-Sham states=           50
     kinetic-energy cutoff     =      58.7989  Ry
     charge density cutoff     =     587.9892  Ry
     convergence threshold     =      7.3E-09
     mixing beta               =       0.1000
     number of iterations used =           10  local-TF  mixing
     Exchange-correlation      = BEEF-VDW ( 1  4 27 13 2)

     celldm(1)=   1.889726  celldm(2)=   0.000000  celldm(3)=   0.000000
     celldm(4)=   0.000000  celldm(5)=   0.000000  celldm(6)=   0.000000

     crystal axes: (cart. coord. in units of alat)
               a(1) = (   3.883988   0.000000   0.000000 )
               a(2) = (   0.000000   3.883988   0.000000 )
               a(3) = (   0.000000   0.000000   3.883988 )

     reciprocal axes: (cart. coord. in units 2 pi/alat)
               b(1) = (  0.257467  0.000000  0.000000 )
               b(2) = (  0.000000  0.257467  0.000000 )
               b(3) = (  0.000000  0.000000  0.257467 )

     PseudoPot. # 1 for Tc read from file:
     /home/vossj/suncat/psp/gbrv1.5pbe/Tc.UPF
     MD5 check sum: 9eb49e5b028550b2339a02317eb7b844
     Pseudo is Ultrasoft + core correction, Zval = 15.0
     Generated by new atomic code, or converted to UPF format
     Using radial grid of  965 points,  6 beta functions with:
                l(1) =   0
                l(2) =   0
                l(3) =   1
                l(4) =   1
                l(5) =   2
                l(6) =   2
     Q(r) pseudized with  8 coefficients,  rinner =    1.300   1.300   1.300
                                                       1.300   1.300

     vdW kernel table read from file vdW_kernel_table
     MD5 check sum: 095c7af220d748ca6e76c0b4c6cfb241

     atomic species   valence    mass     pseudopotential
        Tc1           15.00    97.90721     Tc( 1.00)

     48 Sym. Ops., with inversion, found

   Cartesian axes

     site n.     atom                  positions (alat units)
         1           Tc1 tau(   1) = (   0.0000000   0.0000000   0.0000000  )
         2           Tc1 tau(   2) = (   0.0000000   1.9419942   1.9419942  )
         3           Tc1 tau(   3) = (   1.9419942   0.0000000   1.9419942  )
         4           Tc1 tau(   4) = (   1.9419942   1.9419942   0.0000000  )

     number of k points=    84  Fermi-Dirac smearing, width (Ry)=  0.0073
                       cart. coord. in units 2pi/alat
        k(    1) = (   0.0000000   0.0000000   0.0000000), wk =   0.0011574
        k(    2) = (   0.0000000   0.0000000   0.0214556), wk =   0.0069444
        k(    3) = (   0.0000000   0.0000000   0.0429112), wk =   0.0069444
        k(    4) = (   0.0000000   0.0000000   0.0643668), wk =   0.0069444
        k(    5) = (   0.0000000   0.0000000   0.0858224), wk =   0.0069444
        k(    6) = (   0.0000000   0.0000000   0.1072780), wk =   0.0069444
        k(    7) = (   0.0000000   0.0000000  -0.1287336), wk =   0.0034722
        k(    8) = (   0.0000000   0.0214556   0.0214556), wk =   0.0138889
        k(    9) = (   0.0000000   0.0214556   0.0429112), wk =   0.0277778
        k(   10) = (   0.0000000   0.0214556   0.0643668), wk =   0.0277778
        k(   11) = (   0.0000000   0.0214556   0.0858224), wk =   0.0277778
        k(   12) = (   0.0000000   0.0214556   0.1072780), wk =   0.0277778
        k(   13) = (   0.0000000   0.0214556  -0.1287336), wk =   0.0138889
        k(   14) = (   0.0000000   0.0429112   0.0429112), wk =   0.0138889
        k(   15) = (   0.0000000   0.0429112   0.0643668), wk =   0.0277778
        k(   16) = (   0.0000000   0.0429112   0.0858224), wk =   0.0277778
        k(   17) = (   0.0000000   0.0429112   0.1072780), wk =   0.0277778
        k(   18) = (   0.0000000   0.0429112  -0.1287336), wk =   0.0138889
        k(   19) = (   0.0000000   0.0643668   0.0643668), wk =   0.0138889
        k(   20) = (   0.0000000   0.0643668   0.0858224), wk =   0.0277778
        k(   21) = (   0.0000000   0.0643668   0.1072780), wk =   0.0277778
        k(   22) = (   0.0000000   0.0643668  -0.1287336), wk =   0.0138889
        k(   23) = (   0.0000000   0.0858224   0.0858224), wk =   0.0138889
        k(   24) = (   0.0000000   0.0858224   0.1072780), wk =   0.0277778
        k(   25) = (   0.0000000   0.0858224  -0.1287336), wk =   0.0138889
        k(   26) = (   0.0000000   0.1072780   0.1072780), wk =   0.0138889
        k(   27) = (   0.0000000   0.1072780  -0.1287336), wk =   0.0138889
        k(   28) = (   0.0000000  -0.1287336  -0.1287336), wk =   0.0034722
        k(   29) = (   0.0214556   0.0214556   0.0214556), wk =   0.0092593
        k(   30) = (   0.0214556   0.0214556   0.0429112), wk =   0.0277778
        k(   31) = (   0.0214556   0.0214556   0.0643668), wk =   0.0277778
        k(   32) = (   0.0214556   0.0214556   0.0858224), wk =   0.0277778
        k(   33) = (   0.0214556   0.0214556   0.1072780), wk =   0.0277778
        k(   34) = (   0.0214556   0.0214556  -0.1287336), wk =   0.0138889
        k(   35) = (   0.0214556   0.0429112   0.0429112), wk =   0.0277778
        k(   36) = (   0.0214556   0.0429112   0.0643668), wk =   0.0555556
        k(   37) = (   0.0214556   0.0429112   0.0858224), wk =   0.0555556
        k(   38) = (   0.0214556   0.0429112   0.1072780), wk =   0.0555556
        k(   39) = (   0.0214556   0.0429112  -0.1287336), wk =   0.0277778
        k(   40) = (   0.0214556   0.0643668   0.0643668), wk =   0.0277778
        k(   41) = (   0.0214556   0.0643668   0.0858224), wk =   0.0555556
        k(   42) = (   0.0214556   0.0643668   0.1072780), wk =   0.0555556
        k(   43) = (   0.0214556   0.0643668  -0.1287336), wk =   0.0277778
        k(   44) = (   0.0214556   0.0858224   0.0858224), wk =   0.0277778
        k(   45) = (   0.0214556   0.0858224   0.1072780), wk =   0.0555556
        k(   46) = (   0.0214556   0.0858224  -0.1287336), wk =   0.0277778
        k(   47) = (   0.0214556   0.1072780   0.1072780), wk =   0.0277778
        k(   48) = (   0.0214556   0.1072780  -0.1287336), wk =   0.0277778
        k(   49) = (   0.0214556  -0.1287336  -0.1287336), wk =   0.0069444
        k(   50) = (   0.0429112   0.0429112   0.0429112), wk =   0.0092593
        k(   51) = (   0.0429112   0.0429112   0.0643668), wk =   0.0277778
        k(   52) = (   0.0429112   0.0429112   0.0858224), wk =   0.0277778
        k(   53) = (   0.0429112   0.0429112   0.1072780), wk =   0.0277778
        k(   54) = (   0.0429112   0.0429112  -0.1287336), wk =   0.0138889
        k(   55) = (   0.0429112   0.0643668   0.0643668), wk =   0.0277778
        k(   56) = (   0.0429112   0.0643668   0.0858224), wk =   0.0555556
        k(   57) = (   0.0429112   0.0643668   0.1072780), wk =   0.0555556
        k(   58) = (   0.0429112   0.0643668  -0.1287336), wk =   0.0277778
        k(   59) = (   0.0429112   0.0858224   0.0858224), wk =   0.0277778
        k(   60) = (   0.0429112   0.0858224   0.1072780), wk =   0.0555556
[...]
        k(   70) = (   0.0643668   0.0858224   0.1072780), wk =   0.0555556
        k(   71) = (   0.0643668   0.0858224  -0.1287336), wk =   0.0277778
        k(   72) = (   0.0643668   0.1072780   0.1072780), wk =   0.0277778
        k(   73) = (   0.0643668   0.1072780  -0.1287336), wk =   0.0277778
        k(   74) = (   0.0643668  -0.1287336  -0.1287336), wk =   0.0069444
        k(   75) = (   0.0858224   0.0858224   0.0858224), wk =   0.0092593
        k(   76) = (   0.0858224   0.0858224   0.1072780), wk =   0.0277778
        k(   77) = (   0.0858224   0.0858224  -0.1287336), wk =   0.0138889
        k(   78) = (   0.0858224   0.1072780   0.1072780), wk =   0.0277778
        k(   79) = (   0.0858224   0.1072780  -0.1287336), wk =   0.0277778
        k(   80) = (   0.0858224  -0.1287336  -0.1287336), wk =   0.0069444
        k(   81) = (   0.1072780   0.1072780   0.1072780), wk =   0.0092593
        k(   82) = (   0.1072780   0.1072780  -0.1287336), wk =   0.0138889
        k(   83) = (   0.1072780  -0.1287336  -0.1287336), wk =   0.0069444
        k(   84) = (  -0.1287336  -0.1287336  -0.1287336), wk =   0.0011574

     Largest allocated arrays     est. size (Mb)     dimensions
     Largest temporary arrays     est. size (Mb)     dimensions

     Check: negative/imaginary core charge=   -0.000012    0.000000

     Initial potential from superposition of free atoms
     Check: negative starting charge=   -0.495875

     starting charge   55.99989, renormalised to   60.00000

     negative rho (up, down):  5.313E-01 0.000E+00

     *
     * You are using vdW-DF for exchange-correlation in this calculation.
     * Please cite the following three references that made this development
     * possible:
     *
     *   M. Dion, H. Rydberg, E. Schroder, D. C. Langreth, and
     *   B. I. Lundqvist, Phys. Rev. Lett. 92, 246401 (2004).
     *
     *   T. Thonhauser, V. R. Cooper, S. Li, A. Puzder, P. Hyldgaard, and
     *   D. C. Langreth, Phys. Rev. B 76, 125112 (2007).
     *
     *   G. Roman-Perez and J. M. Soler, Phys. Rev. Lett. 103, 096102 (2009).
     *
     *
     * If you are using vdW-DF2, please also cite:
     *
     *   K. Lee, E. D. Murray, L. Kong, B. I. Lundqvist, and
     *   D. C. Langreth, Phys. Rev. B 82, 081101(R) (2010).
     *
     *
     * If you are calculating the stress with vdW-DF, please also cite:
     *
     *   R. Sabatini, E. Kucukbenli, B. Kolb, T. Thonhauser, and
     *   S. de Gironcoli, J. Phys.: Condens. Matter 24, 424209 (2012).
     *

     Carrying out vdW-DF run using the following parameters:

     Nqs =      20    Nr_points =    1024   r_max =   100.000
     q_mesh =
               0.00001000     0.04494208     0.09755937     0.15916263
               0.23128650     0.31572767     0.41458969     0.53033537
               0.66584808     0.82450364     1.01025438     1.22772762
               1.48234092     1.78043706     2.12944203     2.53805004
               3.01644009     3.57652955     4.23227104     5.00000000

     Gradients computed in reciprocal space

     Starting wfc are   52 randomized atomic wfcs

     Self-consistent Calculation

     iteration #  1     ecut=    58.80 Ry     beta=0.10
     Davidson diagonalization with overlap
     ethr =  1.00E-02,  avg # of iterations =  4.6

[...]

     total energy              =    -702.45236443 Ry
     Harris-Foulkes estimate   =    -702.70698617 Ry
     estimated scf accuracy    <       3.69336545 Ry

[...]

     total energy              =    -701.30351030 Ry
     Harris-Foulkes estimate   =    -701.30350974 Ry
     estimated scf accuracy    <       0.00000003 Ry

     iteration # 12     ecut=    58.80 Ry     beta=0.10
     Davidson diagonalization with overlap
     ethr =  4.34E-11,  avg # of iterations =  1.0

[...]

     negative rho (up, down):  5.224E-01 0.000E+00

     End of self-consistent calculation

          k = 0.0000 0.0000 0.0000 (  2969 PWs)   bands (ev):

   -45.3433 -45.0803 -45.0803 -45.0803 -17.7479 -17.7479 -17.7479 -17.0827
   -17.0827 -17.0827 -17.0827 -17.0827 -17.0827 -16.6676 -16.6676 -16.6676
    14.6587  16.2119  16.2119  16.2119  16.7769  16.7769  16.7769  20.1847
    20.1847  20.1847  22.7029  22.7029  24.5875  24.5875  24.5875  25.1696
    25.1696  25.1696  25.1696  25.1696  25.1696  25.7992  25.7992  25.7992
    34.9459  34.9459  34.9459  34.9459  34.9459  34.9459  35.8993  35.8993
    35.8993  35.9313

[...]

          k = 0.1073-0.1287-0.1287 (  3048 PWs)   bands (ev):

[...]

          k =-0.1287-0.1287-0.1287 (  3016 PWs)   bands (ev):

   -45.1451 -45.1451 -45.1451 -45.1451 -17.8221 -17.8221 -17.8221 -17.8221
   -16.8210 -16.8210 -16.8210 -16.8210 -16.8210 -16.8210 -16.8210 -16.8210
    16.5744  16.5744  16.5744  16.5744  20.0350  20.0350  20.0350  20.0350
    20.0350  20.0350  20.0350  20.0350  23.2034  23.2034  23.2034  23.2034
    24.6304  24.6304  24.6304  24.6304  24.6304  24.6304  24.6304  24.6304
    32.4829  32.4829  32.4829  32.4829  35.5822  35.5822  35.5822  35.5822
    41.9544  41.9544

     the Fermi energy is    21.9072 ev

!    total energy              =    -701.30351170 Ry
     Harris-Foulkes estimate   =    -701.30351030 Ry
     estimated scf accuracy    <          7.0E-09 Ry

     The total energy is the sum of the following terms:

     one-electron contribution =     -97.61105876 Ry
     hartree contribution      =      91.14087064 Ry
     xc contribution           =    -132.62050706 Ry
     ewald contribution        =    -562.20148378 Ry
     smearing contrib. (-TS)   =      -0.01133273 Ry

     convergence has been achieved in  12 iterations

 BEEF-vdW xc energy contributions
           1 :   -116.109886499540
           2 :    107.086655186902
           3 :   -90.8613218547603
           4 :    70.5212313820688
           5 :   -49.5144532774177
           6 :    30.7198656282396
           7 :   -15.8108632146620
           8 :    5.10008998987966
           9 :    2.14276730083682
          10 :   -7.08586255718927
          11 :    10.7176890371103
          12 :   -13.4627109682603
          13 :    15.1491825722535
          14 :   -15.2857074147804
          15 :    13.4762900174943
          16 :   -9.76328790701535
          17 :    4.74300628568511
          18 :   0.583536835877993
          19 :   -5.13964588766510
          20 :    8.12423454506636
          21 :   -9.23279746489442
          22 :    8.66825644168573
          23 :   -6.96298099677529
          24 :    4.71408931758553
          25 :   -2.35976524870722
          26 :   8.851991001111514E-002
          27 :    2.10116251335771
          28 :   -4.24784160743189
          29 :    6.27715337513652
          30 :   -7.93987767804876
          31 :   -11.0270700697548
          32 :   -8.17997705858519

     Forces acting on atoms (Ry/au):

     negative rho (up, down):  5.224E-01 0.000E+00
     atom    1 type  1   force =     0.00000000    0.00000000    0.00000000
     atom    2 type  1   force =     0.00000000   -0.00000000    0.00000000
     atom    3 type  1   force =     0.00000000    0.00000000    0.00000000
     atom    4 type  1   force =     0.00000000    0.00000000    0.00000000

     Total force =     0.000000     Total SCF correction =     0.000000

     General routines

     Parallel routines

   This run was terminated on:  14:17: 7  19Oct2017

   JOB DONE.