     Program PWSCF v.5.1rc2 (svn rev. ) starts on 13Feb2018 at 13:19:38

     Current dimensions of program PWSCF are:
     Max number of different atomic species (ntypx) = 10
     Max number of k-points (npk) =  40000
     Max angular momentum in pseudopotentials (lmaxx) =  3

     IMPORTANT: XC functional enforced from input :
     Exchange-correlation      = BEEF-VDW ( 1  4 27 13 2)
     Any further DFT definition will be discarded
     Please, verify this is what you really want

     Subspace diagonalization in iterative solution of the eigenvalue problem:
     a serial algorithm will be used

     Found symmetry operation: I + (  0.0000 -0.5000 -0.5000)
     This is a supercell, fractional translations are disabled

     bravais-lattice index     =            0
     lattice parameter (alat)  =       1.8897  a.u.
     unit-cell volume          =     805.2896 (a.u.)^3
     number of atoms/cell      =            4
     number of atomic types    =            1
     number of electrons       =        60.00
     number of Kohn-Sham states=           50
     kinetic-energy cutoff     =      58.7989  Ry
     charge density cutoff     =     587.9892  Ry
     convergence threshold     =      7.3E-09
     mixing beta               =       0.1000
     number of iterations used =           10  local-TF  mixing
     Exchange-correlation      = BEEF-VDW ( 1  4 27 13 2)

     celldm(1)=   1.889726  celldm(2)=   0.000000  celldm(3)=   0.000000
     celldm(4)=   0.000000  celldm(5)=   0.000000  celldm(6)=   0.000000

     crystal axes: (cart. coord. in units of alat)
               a(1) = (   4.923249   0.000000   0.000000 )
               a(2) = (   0.000000   4.923249   0.000000 )
               a(3) = (   0.000000   0.000000   4.923249 )

     reciprocal axes: (cart. coord. in units 2 pi/alat)
               b(1) = (  0.203118  0.000000  0.000000 )
               b(2) = (  0.000000  0.203118  0.000000 )
               b(3) = (  0.000000  0.000000  0.203118 )

     PseudoPot. # 1 for Bi read from file:
     /home/mamunm/src/pseudo/gbrv1.5pbe/Bi.UPF
     MD5 check sum: 81103212dc04adf40945787f699eab19
     Pseudo is Ultrasoft + core correction, Zval = 15.0
     Generated by new atomic code, or converted to UPF format
     Using radial grid of  899 points,  6 beta functions with:
                l(1) =   0
                l(2) =   0
                l(3) =   1
                l(4) =   1
                l(5) =   2
                l(6) =   2
     Q(r) pseudized with  6 coefficients,  rinner =    1.000   1.000   1.000
                                                       1.000   1.000

     vdW kernel table read from file vdW_kernel_table
     MD5 check sum: 095c7af220d748ca6e76c0b4c6cfb241

     atomic species   valence    mass     pseudopotential
        Bi1           15.00   208.98040     Bi( 1.00)

     48 Sym. Ops., with inversion, found

   Cartesian axes

     site n.     atom                  positions (alat units)
         1           Bi1 tau(   1) = (   0.0000000   0.0000000   0.0000000  )
         2           Bi1 tau(   2) = (   0.0000000   2.4616247   2.4616247  )
         3           Bi1 tau(   3) = (   2.4616247   0.0000000   2.4616247  )
         4           Bi1 tau(   4) = (   2.4616247   2.4616247   0.0000000  )

     number of k points=    84  Fermi-Dirac smearing, width (Ry)=  0.0073
                       cart. coord. in units 2pi/alat
        k(    1) = (   0.0000000   0.0000000   0.0000000), wk =   0.0011574
        k(    2) = (   0.0000000   0.0000000   0.0169265), wk =   0.0069444
        k(    3) = (   0.0000000   0.0000000   0.0338530), wk =   0.0069444
        k(    4) = (   0.0000000   0.0000000   0.0507795), wk =   0.0069444
        k(    5) = (   0.0000000   0.0000000   0.0677060), wk =   0.0069444
        k(    6) = (   0.0000000   0.0000000   0.0846325), wk =   0.0069444
        k(    7) = (   0.0000000   0.0000000  -0.1015589), wk =   0.0034722
        k(    8) = (   0.0000000   0.0169265   0.0169265), wk =   0.0138889
        k(    9) = (   0.0000000   0.0169265   0.0338530), wk =   0.0277778
        k(   10) = (   0.0000000   0.0169265   0.0507795), wk =   0.0277778
        k(   11) = (   0.0000000   0.0169265   0.0677060), wk =   0.0277778
        k(   12) = (   0.0000000   0.0169265   0.0846325), wk =   0.0277778
        k(   13) = (   0.0000000   0.0169265  -0.1015589), wk =   0.0138889
        k(   14) = (   0.0000000   0.0338530   0.0338530), wk =   0.0138889
        k(   15) = (   0.0000000   0.0338530   0.0507795), wk =   0.0277778
        k(   16) = (   0.0000000   0.0338530   0.0677060), wk =   0.0277778
        k(   17) = (   0.0000000   0.0338530   0.0846325), wk =   0.0277778
        k(   18) = (   0.0000000   0.0338530  -0.1015589), wk =   0.0138889
        k(   19) = (   0.0000000   0.0507795   0.0507795), wk =   0.0138889
        k(   20) = (   0.0000000   0.0507795   0.0677060), wk =   0.0277778
        k(   21) = (   0.0000000   0.0507795   0.0846325), wk =   0.0277778
        k(   22) = (   0.0000000   0.0507795  -0.1015589), wk =   0.0138889
        k(   23) = (   0.0000000   0.0677060   0.0677060), wk =   0.0138889
        k(   24) = (   0.0000000   0.0677060   0.0846325), wk =   0.0277778
        k(   25) = (   0.0000000   0.0677060  -0.1015589), wk =   0.0138889
        k(   26) = (   0.0000000   0.0846325   0.0846325), wk =   0.0138889
        k(   27) = (   0.0000000   0.0846325  -0.1015589), wk =   0.0138889
        k(   28) = (   0.0000000  -0.1015589  -0.1015589), wk =   0.0034722
        k(   29) = (   0.0169265   0.0169265   0.0169265), wk =   0.0092593
        k(   30) = (   0.0169265   0.0169265   0.0338530), wk =   0.0277778
        k(   31) = (   0.0169265   0.0169265   0.0507795), wk =   0.0277778
        k(   32) = (   0.0169265   0.0169265   0.0677060), wk =   0.0277778
        k(   33) = (   0.0169265   0.0169265   0.0846325), wk =   0.0277778
        k(   34) = (   0.0169265   0.0169265  -0.1015589), wk =   0.0138889
        k(   35) = (   0.0169265   0.0338530   0.0338530), wk =   0.0277778
        k(   36) = (   0.0169265   0.0338530   0.0507795), wk =   0.0555556
        k(   37) = (   0.0169265   0.0338530   0.0677060), wk =   0.0555556
        k(   38) = (   0.0169265   0.0338530   0.0846325), wk =   0.0555556
        k(   39) = (   0.0169265   0.0338530  -0.1015589), wk =   0.0277778
        k(   40) = (   0.0169265   0.0507795   0.0507795), wk =   0.0277778
        k(   41) = (   0.0169265   0.0507795   0.0677060), wk =   0.0555556
        k(   42) = (   0.0169265   0.0507795   0.0846325), wk =   0.0555556
        k(   43) = (   0.0169265   0.0507795  -0.1015589), wk =   0.0277778
        k(   44) = (   0.0169265   0.0677060   0.0677060), wk =   0.0277778
        k(   45) = (   0.0169265   0.0677060   0.0846325), wk =   0.0555556
        k(   46) = (   0.0169265   0.0677060  -0.1015589), wk =   0.0277778
        k(   47) = (   0.0169265   0.0846325   0.0846325), wk =   0.0277778
        k(   48) = (   0.0169265   0.0846325  -0.1015589), wk =   0.0277778
        k(   49) = (   0.0169265  -0.1015589  -0.1015589), wk =   0.0069444
        k(   50) = (   0.0338530   0.0338530   0.0338530), wk =   0.0092593
        k(   51) = (   0.0338530   0.0338530   0.0507795), wk =   0.0277778
        k(   52) = (   0.0338530   0.0338530   0.0677060), wk =   0.0277778
        k(   53) = (   0.0338530   0.0338530   0.0846325), wk =   0.0277778
        k(   54) = (   0.0338530   0.0338530  -0.1015589), wk =   0.0138889
        k(   55) = (   0.0338530   0.0507795   0.0507795), wk =   0.0277778
        k(   56) = (   0.0338530   0.0507795   0.0677060), wk =   0.0555556
        k(   57) = (   0.0338530   0.0507795   0.0846325), wk =   0.0555556
        k(   58) = (   0.0338530   0.0507795  -0.1015589), wk =   0.0277778
        k(   59) = (   0.0338530   0.0677060   0.0677060), wk =   0.0277778
        k(   60) = (   0.0338530   0.0677060   0.0846325), wk =   0.0555556
[...]
        k(   70) = (   0.0507795   0.0677060   0.0846325), wk =   0.0555556
        k(   71) = (   0.0507795   0.0677060  -0.1015589), wk =   0.0277778
        k(   72) = (   0.0507795   0.0846325   0.0846325), wk =   0.0277778
        k(   73) = (   0.0507795   0.0846325  -0.1015589), wk =   0.0277778
        k(   74) = (   0.0507795  -0.1015589  -0.1015589), wk =   0.0069444
        k(   75) = (   0.0677060   0.0677060   0.0677060), wk =   0.0092593
        k(   76) = (   0.0677060   0.0677060   0.0846325), wk =   0.0277778
        k(   77) = (   0.0677060   0.0677060  -0.1015589), wk =   0.0138889
        k(   78) = (   0.0677060   0.0846325   0.0846325), wk =   0.0277778
        k(   79) = (   0.0677060   0.0846325  -0.1015589), wk =   0.0277778
        k(   80) = (   0.0677060  -0.1015589  -0.1015589), wk =   0.0069444
        k(   81) = (   0.0846325   0.0846325   0.0846325), wk =   0.0092593
        k(   82) = (   0.0846325   0.0846325  -0.1015589), wk =   0.0138889
        k(   83) = (   0.0846325  -0.1015589  -0.1015589), wk =   0.0069444
        k(   84) = (  -0.1015589  -0.1015589  -0.1015589), wk =   0.0011574

     Largest allocated arrays     est. size (Mb)     dimensions
     Largest temporary arrays     est. size (Mb)     dimensions

     Initial potential from superposition of free atoms
     Check: negative starting charge=   -0.169621

     starting charge   55.99983, renormalised to   60.00000

     negative rho (up, down):  1.817E-01 0.000E+00

     *
     * You are using vdW-DF for exchange-correlation in this calculation.
     * Please cite the following three references that made this development
     * possible:
     *
     *   M. Dion, H. Rydberg, E. Schroder, D. C. Langreth, and
     *   B. I. Lundqvist, Phys. Rev. Lett. 92, 246401 (2004).
     *
     *   T. Thonhauser, V. R. Cooper, S. Li, A. Puzder, P. Hyldgaard, and
     *   D. C. Langreth, Phys. Rev. B 76, 125112 (2007).
     *
     *   G. Roman-Perez and J. M. Soler, Phys. Rev. Lett. 103, 096102 (2009).
     *
     *
     * If you are using vdW-DF2, please also cite:
     *
     *   K. Lee, E. D. Murray, L. Kong, B. I. Lundqvist, and
     *   D. C. Langreth, Phys. Rev. B 82, 081101(R) (2010).
     *
     *
     * If you are calculating the stress with vdW-DF, please also cite:
     *
     *   R. Sabatini, E. Kucukbenli, B. Kolb, T. Thonhauser, and
     *   S. de Gironcoli, J. Phys.: Condens. Matter 24, 424209 (2012).
     *

     Carrying out vdW-DF run using the following parameters:

     Nqs =      20    Nr_points =    1024   r_max =   100.000
     q_mesh =
               0.00001000     0.04494208     0.09755937     0.15916263
               0.23128650     0.31572767     0.41458969     0.53033537
               0.66584808     0.82450364     1.01025438     1.22772762
               1.48234092     1.78043706     2.12944203     2.53805004
               3.01644009     3.57652955     4.23227104     5.00000000

     Gradients computed in reciprocal space

     Starting wfc are   36 randomized atomic wfcs +   14 random wfc

     Self-consistent Calculation

     iteration #  1     ecut=    58.80 Ry     beta=0.10
     Davidson diagonalization with overlap
     ethr =  1.00E-02,  avg # of iterations =  6.3

[...]

     total energy              =    -749.58687014 Ry
     Harris-Foulkes estimate   =    -749.74532448 Ry
     estimated scf accuracy    <       2.30324854 Ry

[...]

     total energy              =    -748.62982977 Ry
     Harris-Foulkes estimate   =    -748.62980421 Ry
     estimated scf accuracy    <       0.00000002 Ry

     iteration # 16     ecut=    58.80 Ry     beta=0.10
     Davidson diagonalization with overlap
     ethr =  3.32E-11,  avg # of iterations =  2.0

[...]

     negative rho (up, down):  1.792E-01 0.000E+00

     End of self-consistent calculation

          k = 0.0000 0.0000 0.0000 (  6043 PWs)   bands (ev):

   -11.1474 -11.1474 -11.1474 -11.0871 -11.0871 -11.0871 -11.0645 -11.0645
   -11.0645 -10.9876 -10.9876 -10.9149 -10.9149 -10.9149 -10.8866 -10.8866
   -10.8866 -10.8866 -10.8866 -10.8866  -1.3795   2.8564   2.8564   2.8564
     7.8609   7.8609   7.8609  12.8990  12.8990  12.8990  12.8990  12.8990
    12.8990  16.6576  16.6576  16.6576  17.7173  17.7173  17.7173  17.8454
    17.8454  17.8454  21.7653  21.8822  23.5942  23.5942  23.5942  26.4553
    26.4553  26.4553

[...]

          k = 0.0846-0.1016-0.1016 (  6088 PWs)   bands (ev):

[...]

          k =-0.1016-0.1016-0.1016 (  6152 PWs)   bands (ev):

   -11.0571 -11.0571 -11.0571 -11.0571 -11.0568 -11.0568 -11.0568 -11.0568
   -11.0568 -11.0568 -11.0568 -11.0568 -10.9072 -10.9072 -10.9072 -10.9072
   -10.9072 -10.9072 -10.9072 -10.9072   1.6707   1.6707   1.6707   1.6707
     7.0182   7.0182   7.0182   7.0182  16.0563  16.0563  16.0563  16.0563
    16.0563  16.0563  16.0563  16.0563  20.1715  20.1715  20.1715  20.1715
    21.2851  21.2851  21.2851  21.2851  22.4568  22.4568  22.4568  22.4568
    22.4568  22.4568

     the Fermi energy is    12.5583 ev

!    total energy              =    -748.62993805 Ry
     Harris-Foulkes estimate   =    -748.62982978 Ry
     estimated scf accuracy    <          4.4E-09 Ry

     The total energy is the sum of the following terms:

     one-electron contribution =    -162.33917824 Ry
     hartree contribution      =     123.73594549 Ry
     xc contribution           =    -266.49506051 Ry
     ewald contribution        =    -443.52498117 Ry
     smearing contrib. (-TS)   =      -0.00666362 Ry

     convergence has been achieved in  16 iterations

 BEEF-vdW xc energy contributions
           1 :   -237.335342226843
           2 :    220.841008514146
           3 :   -191.560224893684
           4 :    155.683189961909
           5 :   -119.906789489856
           6 :    89.4596281311703
           7 :   -66.8416679048288
           8 :    51.6687385441092
           9 :   -41.5494372694881
          10 :    33.5220419293145
          11 :   -25.4070093522489
          12 :    16.5432146026117
          13 :   -7.70222113884319
          14 :   0.354521663967887
          15 :    4.27689392838346
          16 :   -5.90229509160133
          17 :    5.29785796884502
          18 :   -3.88843651980017
          19 :    3.04591173791783
          20 :   -3.47751944250592
          21 :    4.99688310359937
          22 :   -6.75466364933834
          23 :    7.77194752270827
          24 :   -7.48319685000780
          25 :    6.01568784321552
          26 :   -4.08661656876058
          27 :    2.60072806900118
          28 :   -2.17642880274275
          29 :    2.84826322218069
          30 :   -4.08693568440208
          31 :   -18.9168346393371
          32 :   -13.9857020277350

     Forces acting on atoms (Ry/au):

     negative rho (up, down):  1.792E-01 0.000E+00
     atom    1 type  1   force =     0.00000000    0.00000000   -0.00000000
     atom    2 type  1   force =     0.00000000    0.00000000    0.00000000
     atom    3 type  1   force =     0.00000000    0.00000000   -0.00000000
     atom    4 type  1   force =     0.00000000    0.00000000   -0.00000000

     Total force =     0.000000     Total SCF correction =     0.000000

     General routines

     Parallel routines

   This run was terminated on:  13:21:34  13Feb2018

   JOB DONE.