     Program PWSCF v.5.1rc2 (svn rev. 11289) starts on  2Jan2019 at 14:45:15

     Current dimensions of program PWSCF are:
     Max number of different atomic species (ntypx) = 10
     Max number of k-points (npk) =  40000
     Max angular momentum in pseudopotentials (lmaxx) =  3
     Presently stress not available with electric field

     IMPORTANT: XC functional enforced from input :
     Exchange-correlation      = BEEF-VDW ( 1  4 27 13 2)
     Any further DFT definition will be discarded
     Please, verify this is what you really want

     Subspace diagonalization in iterative solution of the eigenvalue problem:
     a serial algorithm will be used

     bravais-lattice index     =            0
     lattice parameter (alat)  =       1.8897  a.u.
     unit-cell volume          =    6563.5400 (a.u.)^3
     number of atoms/cell      =           12
     number of atomic types    =            2
     number of electrons       =       141.00
     number of Kohn-Sham states=          100
     kinetic-energy cutoff     =      36.7493  Ry
     charge density cutoff     =     367.4932  Ry
     convergence threshold     =      1.0E-06
     mixing beta               =       0.1000
     number of iterations used =           10  plain     mixing
     Exchange-correlation      = BEEF-VDW ( 1  4 27 13 2)
     nstep                     =           50

     celldm(1)=   1.889726  celldm(2)=   0.000000  celldm(3)=   0.000000
     celldm(4)=   0.000000  celldm(5)=   0.000000  celldm(6)=   0.000000

     crystal axes: (cart. coord. in units of alat)
               a(1) = (   6.646033   0.000000   0.000000 )
               a(2) = (  -3.323016   5.755633   0.000000 )
               a(3) = (   0.000000   0.000000  25.426463 )

     reciprocal axes: (cart. coord. in units 2 pi/alat)
               b(1) = (  0.150466  0.086871  0.000000 )
               b(2) = (  0.000000  0.173743  0.000000 )
               b(3) = (  0.000000  0.000000  0.039329 )

     PseudoPot. # 1 for Y  read from file:
     /afs/slac.stanford.edu/u/if/mamunm/psp/gbrv1.5pbe/Y.UPF
     MD5 check sum: d034151ed7554c50b6e82763ed42c788
     Pseudo is Ultrasoft + core correction, Zval = 11.0
     Generated by new atomic code, or converted to UPF format
     Using radial grid of  885 points,  6 beta functions with:
                l(1) =   0
                l(2) =   0
                l(3) =   1
                l(4) =   1
                l(5) =   2
                l(6) =   2
     Q(r) pseudized with  8 coefficients,  rinner =    1.200   1.200   1.200
                                                       1.200   1.200

     PseudoPot. # 2 for W  read from file:
     /afs/slac.stanford.edu/u/if/mamunm/psp/gbrv1.5pbe/W.UPF
     MD5 check sum: 9c083fa34c2a2ea0f02f1f893e16e1c8
     Pseudo is Ultrasoft + core correction, Zval = 14.0
     Generated by new atomic code, or converted to UPF format
     Using radial grid of  923 points,  8 beta functions with:
                l(1) =   0
                l(2) =   0
                l(3) =   0
                l(4) =   1
                l(5) =   1
                l(6) =   2
                l(7) =   2
                l(8) =   3
     Q(r) pseudized with  6 coefficients,  rinner =    1.350   1.350   1.350
                                                       1.350   1.350   1.350
                                                       1.350

     vdW kernel table read from file vdW_kernel_table
     MD5 check sum: 095c7af220d748ca6e76c0b4c6cfb241

     atomic species   valence    mass     pseudopotential
        Y1            11.00    88.90584     Y ( 1.00)
        W1            14.00   183.84000     W ( 1.00)

     No symmetry found

   Cartesian axes

     site n.     atom                  positions (alat units)
         1           Y1  tau(   1) = (   0.0000000   0.0000000  10.0000000  )
         2           Y1  tau(   2) = (  -1.6615082   2.8778166  10.0000000  )
         3           Y1  tau(   3) = (   1.6615082   2.8778166  10.0000000  )
         4           W1  tau(   4) = (   3.3230164   0.0000000  10.0000000  )
         5           Y1  tau(   5) = (   3.3230164   1.9185444  12.7132315  )
         6           Y1  tau(   6) = (   1.6615082   4.7963610  12.7132315  )
         7           Y1  tau(   7) = (  -1.6615082   4.7963610  12.7132315  )
         8           W1  tau(   8) = (   0.0000000   1.9185444  12.7132315  )
         9           Y1  tau(   9) = (  -0.0000000   3.8370888  15.4264630  )
        10           Y1  tau(  10) = (   1.6615082   0.9592722  15.4264630  )
        11           Y1  tau(  11) = (   4.9845246   0.9592722  15.4264630  )
        12           W1  tau(  12) = (   3.3230164   3.8370888  15.4264630  )

     number of k points=    20  Fermi-Dirac smearing, width (Ry)=  0.0110
                       cart. coord. in units 2pi/alat
        k(    1) = (   0.0000000   0.0000000   0.0000000), wk =   0.0555556
        k(    2) = (   0.0000000   0.0289571   0.0000000), wk =   0.1111111
        k(    3) = (   0.0000000   0.0579143   0.0000000), wk =   0.1111111
        k(    4) = (   0.0000000  -0.0868714   0.0000000), wk =   0.0555556
        k(    5) = (   0.0250776   0.0144786   0.0000000), wk =   0.1111111
        k(    6) = (   0.0250776   0.0434357   0.0000000), wk =   0.1111111
        k(    7) = (   0.0250776   0.0723928   0.0000000), wk =   0.1111111
        k(    8) = (   0.0250776  -0.0723928   0.0000000), wk =   0.1111111
        k(    9) = (   0.0250776  -0.0434357   0.0000000), wk =   0.1111111
        k(   10) = (   0.0250776  -0.0144786   0.0000000), wk =   0.1111111
        k(   11) = (   0.0501552   0.0289571   0.0000000), wk =   0.1111111
        k(   12) = (   0.0501552   0.0579143   0.0000000), wk =   0.1111111
        k(   13) = (   0.0501552   0.0868714   0.0000000), wk =   0.1111111
        k(   14) = (   0.0501552  -0.0579143   0.0000000), wk =   0.1111111
        k(   15) = (   0.0501552  -0.0289571   0.0000000), wk =   0.1111111
        k(   16) = (   0.0501552   0.0000000   0.0000000), wk =   0.1111111
        k(   17) = (  -0.0752329  -0.0434357   0.0000000), wk =   0.0555556
        k(   18) = (  -0.0752329  -0.0144786   0.0000000), wk =   0.1111111
        k(   19) = (  -0.0752329   0.0144786   0.0000000), wk =   0.1111111
        k(   20) = (  -0.0752329  -0.1303071   0.0000000), wk =   0.0555556

     Largest allocated arrays     est. size (Mb)     dimensions
     Largest temporary arrays     est. size (Mb)     dimensions

     Initial potential from superposition of free atoms
     Check: negative starting charge=   -0.190640

     starting charge  140.65876, renormalised to  141.00000

     negative rho (up, down):  1.911E-01 0.000E+00

     *
     * You are using vdW-DF for exchange-correlation in this calculation.
     * Please cite the following three references that made this development
     * possible:
     *
     *   M. Dion, H. Rydberg, E. Schroder, D. C. Langreth, and
     *   B. I. Lundqvist, Phys. Rev. Lett. 92, 246401 (2004).
     *
     *   T. Thonhauser, V. R. Cooper, S. Li, A. Puzder, P. Hyldgaard, and
     *   D. C. Langreth, Phys. Rev. B 76, 125112 (2007).
     *
     *   G. Roman-Perez and J. M. Soler, Phys. Rev. Lett. 103, 096102 (2009).
     *
     *
     * If you are using vdW-DF2, please also cite:
     *
     *   K. Lee, E. D. Murray, L. Kong, B. I. Lundqvist, and
     *   D. C. Langreth, Phys. Rev. B 82, 081101(R) (2010).
     *
     *
     * If you are calculating the stress with vdW-DF, please also cite:
     *
     *   R. Sabatini, E. Kucukbenli, B. Kolb, T. Thonhauser, and
     *   S. de Gironcoli, J. Phys.: Condens. Matter 24, 424209 (2012).
     *

     Carrying out vdW-DF run using the following parameters:

     Nqs =      20    Nr_points =    1024   r_max =   100.000
     q_mesh =
               0.00001000     0.04494208     0.09755937     0.15916263
               0.23128650     0.31572767     0.41458969     0.53033537
               0.66584808     0.82450364     1.01025438     1.22772762
               1.48234092     1.78043706     2.12944203     2.53805004
               3.01644009     3.57652955     4.23227104     5.00000000

     Gradients computed in reciprocal space

     Adding external electric field

     Computed dipole along edir(3) :
        Dipole                0.0000 Ry au,          0.0000 Debye
        Dipole field          0.0000 Ry au

        Potential amp.       -0.0000 Ry
        Total length         46.8478 bohr

     Starting wfc are  156 randomized atomic wfcs

     Self-consistent Calculation

     iteration #  1     ecut=    36.75 Ry     beta=0.10
     Davidson diagonalization with overlap
     ethr =  1.00E-02,  avg # of iterations =  2.0

[...]

     total energy              =   -1323.50112898 Ry
     Harris-Foulkes estimate   =   -1324.56566708 Ry
     estimated scf accuracy    <       6.00165123 Ry

[...]

     End of self-consistent calculation

          k = 0.0000 0.0000 0.0000 ( 24633 PWs)   bands (ev):

   -72.7601 -72.6368 -72.6367 -41.6452 -41.6431 -41.5642 -41.5642 -41.5638
   -41.5637 -41.0671 -40.9884 -40.9884 -36.8054 -36.7817 -36.7817 -36.7025
   -36.7022 -36.6821 -36.6821 -36.6819 -36.6819 -22.0837 -22.0528 -21.7806
   -21.7439 -21.7439 -21.6964 -21.6964 -21.6638 -21.6333 -21.6333 -21.5657
   -21.5656 -21.4454 -21.3067 -21.2939 -21.2761 -21.2761 -21.2656 -21.2656
   -21.1117 -21.1116 -20.9809 -20.9386 -20.9386 -20.7698 -20.6979 -20.6979
    -3.6519  -2.6150  -1.9224  -0.9999  -0.9326  -0.7361  -0.7361  -0.6610
    -0.6610  -0.5767  -0.2862  -0.2862  -0.0752  -0.0752   0.0027   0.6219
     0.6219   0.7723   1.2193   1.3355   1.4054   1.4055   1.8631   1.8995
     2.1281   2.2092   2.2093   2.2702   2.4510   2.4510   2.6845   2.6845
     2.7233   2.8233   2.8233   2.8463   2.8464   3.1212   3.1346   3.1346
     3.1979   3.1979   3.6378   3.6378   3.6846   3.8387   4.3119   4.3119
     4.6629   4.6829   4.9488   4.9488

[...]

          k =-0.0752-0.0434 0.0000 ( 24728 PWs)   bands (ev):

[...]

     the Fermi energy is     1.3600 ev

!    total energy              =   -1324.06056687 Ry
     Harris-Foulkes estimate   =   -1324.06056633 Ry
     estimated scf accuracy    <       0.00000016 Ry

     The total energy is the sum of the following terms:

     one-electron contribution =   -7272.49210303 Ry
     hartree contribution      =    3627.21122580 Ry
     xc contribution           =    -381.86191996 Ry
     ewald contribution        =    2703.19392897 Ry
     electric field correction =       0.00000000 Ry
     smearing contrib. (-TS)   =      -0.11169866 Ry

     convergence has been achieved in  19 iterations

 BEEF-vdW xc energy contributions
           1 :   -334.159937107443
           2 :    303.168557019816
           3 :   -249.228583226495
           4 :    184.977216422386
           5 :   -122.855403151910
           6 :    71.3947463146944
           7 :   -33.9683936512640
           8 :    9.84611089240872
           9 :    3.66181248449664
          10 :   -9.34014777470355
          11 :    9.25917362511291
          12 :   -4.99240948219295
          13 :   -1.74665525210156
          14 :    8.75903827469631
          15 :   -13.6734222418170
[...]

     PseudoPot. # 1 for Y  read from file:
     /afs/slac.stanford.edu/u/if/mamunm/psp/gbrv1.5pbe/Y.UPF
     MD5 check sum: d034151ed7554c50b6e82763ed42c788
     Pseudo is Ultrasoft + core correction, Zval = 11.0
     Generated by new atomic code, or converted to UPF format
     Using radial grid of  885 points,  6 beta functions with:
                l(1) =   0
                l(2) =   0
                l(3) =   1
                l(4) =   1
                l(5) =   2
                l(6) =   2
     Q(r) pseudized with  8 coefficients,  rinner =    1.200   1.200   1.200
                                                       1.200   1.200

     PseudoPot. # 2 for W  read from file:
     /afs/slac.stanford.edu/u/if/mamunm/psp/gbrv1.5pbe/W.UPF
     MD5 check sum: 9c083fa34c2a2ea0f02f1f893e16e1c8
     Pseudo is Ultrasoft + core correction, Zval = 14.0
     Generated by new atomic code, or converted to UPF format
     Using radial grid of  923 points,  8 beta functions with:
                l(1) =   0
                l(2) =   0
                l(3) =   0
                l(4) =   1
                l(5) =   1
                l(6) =   2
                l(7) =   2
                l(8) =   3
     Q(r) pseudized with  6 coefficients,  rinner =    1.350   1.350   1.350
                                                       1.350   1.350   1.350
                                                       1.350

     vdW kernel table read from file vdW_kernel_table
     MD5 check sum: 095c7af220d748ca6e76c0b4c6cfb241

     atomic species   valence    mass     pseudopotential
        Y1            11.00    88.90584     Y ( 1.00)
        W1            14.00   183.84000     W ( 1.00)

     No symmetry found

   Cartesian axes

     site n.     atom                  positions (alat units)
         1           Y1  tau(   1) = (   0.0000000   0.0000000  10.0000000  )
         2           Y1  tau(   2) = (  -1.6615082   2.8778166  10.0000000  )
         3           Y1  tau(   3) = (   1.6615082   2.8778166  10.0000000  )
         4           W1  tau(   4) = (   3.3230164   0.0000000  10.0000000  )
         5           Y1  tau(   5) = (   3.3230164   1.9185444  12.7132315  )
         6           Y1  tau(   6) = (   1.6615082   4.7963610  12.7132315  )
         7           Y1  tau(   7) = (  -1.6615082   4.7963610  12.7132315  )
         8           W1  tau(   8) = (   0.0000000   1.9185444  12.7132315  )
         9           Y1  tau(   9) = (   0.0000136   3.7887760  15.3986101  )
        10           Y1  tau(  10) = (   1.6196932   0.9834473  15.3986013  )
        11           Y1  tau(  11) = (   5.0263648   0.9834060  15.3985951  )
        12           W1  tau(  12) = (   3.3229826   3.8370933  15.0453024  )

     number of k points=    20  Fermi-Dirac smearing, width (Ry)=  0.0110
                       cart. coord. in units 2pi/alat
        k(    1) = (   0.0000000   0.0000000   0.0000000), wk =   0.0555556
        k(    2) = (   0.0000000   0.0289571   0.0000000), wk =   0.1111111
        k(    3) = (   0.0000000   0.0579143   0.0000000), wk =   0.1111111
        k(    4) = (   0.0000000  -0.0868714   0.0000000), wk =   0.0555556
        k(    5) = (   0.0250776   0.0144786   0.0000000), wk =   0.1111111
        k(    6) = (   0.0250776   0.0434357   0.0000000), wk =   0.1111111
        k(    7) = (   0.0250776   0.0723928   0.0000000), wk =   0.1111111
        k(    8) = (   0.0250776  -0.0723928   0.0000000), wk =   0.1111111
        k(    9) = (   0.0250776  -0.0434357   0.0000000), wk =   0.1111111
        k(   10) = (   0.0250776  -0.0144786   0.0000000), wk =   0.1111111
        k(   11) = (   0.0501552   0.0289571   0.0000000), wk =   0.1111111
        k(   12) = (   0.0501552   0.0579143   0.0000000), wk =   0.1111111
        k(   13) = (   0.0501552   0.0868714   0.0000000), wk =   0.1111111
        k(   14) = (   0.0501552  -0.0579143   0.0000000), wk =   0.1111111
        k(   15) = (   0.0501552  -0.0289571   0.0000000), wk =   0.1111111
        k(   16) = (   0.0501552   0.0000000   0.0000000), wk =   0.1111111
        k(   17) = (  -0.0752329  -0.0434357   0.0000000), wk =   0.0555556
        k(   18) = (  -0.0752329  -0.0144786   0.0000000), wk =   0.1111111
        k(   19) = (  -0.0752329   0.0144786   0.0000000), wk =   0.1111111
        k(   20) = (  -0.0752329  -0.1303071   0.0000000), wk =   0.0555556

     Largest allocated arrays     est. size (Mb)     dimensions
     Largest temporary arrays     est. size (Mb)     dimensions

     Initial potential from superposition of free atoms
     Check: negative starting charge=   -0.191680

     starting charge  140.65876, renormalised to  141.00000

[...]

     *
     * You are using vdW-DF for exchange-correlation in this calculation.
     * Please cite the following three references that made this development
     * possible:
     *
     *   M. Dion, H. Rydberg, E. Schroder, D. C. Langreth, and
     *   B. I. Lundqvist, Phys. Rev. Lett. 92, 246401 (2004).
     *
     *   T. Thonhauser, V. R. Cooper, S. Li, A. Puzder, P. Hyldgaard, and
     *   D. C. Langreth, Phys. Rev. B 76, 125112 (2007).
     *
     *   G. Roman-Perez and J. M. Soler, Phys. Rev. Lett. 103, 096102 (2009).
     *
     *
     * If you are using vdW-DF2, please also cite:
     *
     *   K. Lee, E. D. Murray, L. Kong, B. I. Lundqvist, and
     *   D. C. Langreth, Phys. Rev. B 82, 081101(R) (2010).
     *
     *
     * If you are calculating the stress with vdW-DF, please also cite:
     *
     *   R. Sabatini, E. Kucukbenli, B. Kolb, T. Thonhauser, and
     *   S. de Gironcoli, J. Phys.: Condens. Matter 24, 424209 (2012).
     *

     Carrying out vdW-DF run using the following parameters:

     Nqs =      20    Nr_points =    1024   r_max =   100.000
     q_mesh =
               0.00001000     0.04494208     0.09755937     0.15916263
               0.23128650     0.31572767     0.41458969     0.53033537
               0.66584808     0.82450364     1.01025438     1.22772762
               1.48234092     1.78043706     2.12944203     2.53805004
               3.01644009     3.57652955     4.23227104     5.00000000

     Gradients computed in reciprocal space

[...]

     Starting wfc are  156 randomized atomic wfcs

     Self-consistent Calculation

[...]

     total energy              =   -1324.08825188 Ry
     Harris-Foulkes estimate   =   -1324.08825128 Ry
     estimated scf accuracy    <       0.00000121 Ry

     iteration # 19     ecut=    36.75 Ry     beta=0.10
     Davidson diagonalization with overlap
     ethr =  8.56E-10,  avg # of iterations =  2.2

[...]

     negative rho (up, down):  1.971E-01 0.000E+00

     Adding external electric field

     Computed dipole along edir(3) :
        Dipole                0.0677 Ry au,          0.1722 Debye
        Dipole field          0.0001 Ry au

        Potential amp.       -0.0122 Ry
        Total length         46.8478 bohr

     End of self-consistent calculation

[...]

          k = 0.0502 0.0000 0.0000 ( 24692 PWs)   bands (ev):

[...]

          k =-0.0752-0.1303 0.0000 ( 24728 PWs)   bands (ev):

   -72.7044 -72.5744 -72.4262 -41.5828 -41.5659 -41.5477 -41.5389 -41.5233
   -41.5122 -40.8314 -40.8043 -40.7773 -36.7508 -36.7290 -36.7284 -36.6433
   -36.6209 -36.6203 -36.5131 -36.5126 -36.4781 -21.8632 -21.8356 -21.6849
   -21.6387 -21.6228 -21.5958 -21.5810 -21.5715 -21.5513 -21.5276 -21.5060
   -21.5025 -21.4825 -21.4563 -21.4422 -21.4207 -21.2321 -21.2254 -21.0956
   -20.8699 -20.8274 -20.7795 -20.7642 -20.7608 -20.7360 -20.7246 -20.5192
    -2.3974  -2.1638  -1.4536  -1.0139  -0.6050  -0.1728  -0.1319  -0.0997
    -0.0684  -0.0343   0.4655   0.4817   0.5452   0.5973   0.7133   0.7545
     0.8596   1.0045   1.0228   1.0253   1.0695   1.1711   1.2833   1.2854
     1.3711   1.4490   1.6054   1.7315   1.9012   1.9386   1.9904   2.1414
     2.1743   2.2845   2.2933   2.4941   2.8367   2.9382   3.0843   3.2528
     3.3246   3.5590   3.6032   3.6529   3.8755   3.8970   3.9879   4.1427
     4.3370   4.3497   4.5418   4.7316

     the Fermi energy is     1.4134 ev

!    total energy              =   -1324.08825229 Ry
     Harris-Foulkes estimate   =   -1324.08825387 Ry
     estimated scf accuracy    <       0.00000081 Ry

     The total energy is the sum of the following terms:

     one-electron contribution =   -7408.92599969 Ry
     hartree contribution      =    3695.92236270 Ry
     xc contribution           =    -382.01741981 Ry
     ewald contribution        =    2771.04059344 Ry
     electric field correction =       0.00000879 Ry
     smearing contrib. (-TS)   =      -0.10779771 Ry

     convergence has been achieved in  19 iterations

 BEEF-vdW xc energy contributions
           1 :   -334.317585815600
           2 :    303.382104184231
           3 :   -249.502498009784
           4 :    185.250432747615
           5 :   -123.034248619988
           6 :    71.4133655074366
           7 :   -33.8372825525678
           8 :    9.65157418065735
           9 :    3.81217975433634
          10 :   -9.38854153640040
          11 :    9.23223469012186
          12 :   -4.97396805698196
          13 :   -1.68193044907667
          14 :    8.59987731219184
          15 :   -13.4761313305301
          16 :    14.5793783072944
          17 :   -11.4532684159515
          18 :    5.08759019432091
          19 :    2.55752940265643
          20 :   -9.38075616843372
          21 :    13.8705459067410
          22 :   -15.4381082085100
          23 :    14.3300388057054
          24 :   -11.3065912327507
          25 :    7.30901686543029
          26 :   -3.24476200105232
          27 :  -0.117713491210111
          28 :    2.22394543115320
          29 :   -2.82847019017390
          30 :    2.07118978947301
          31 :   -31.3335327681609
          32 :   -22.0545471286343

     Forces acting on atoms (Ry/au):

     negative rho (up, down):  1.971E-01 0.000E+00
     atom    1 type  1   force =    -0.00000175    0.02020235   -0.00708596
     atom    2 type  1   force =     0.01749351   -0.01010475   -0.00708618
     atom    3 type  1   force =    -0.01749385   -0.01010147   -0.00708361
     atom    4 type  2   force =     0.00000134    0.00000199    0.05140091
     atom    5 type  1   force =    -0.00000325   -0.00731962   -0.01219257
     atom    6 type  1   force =    -0.00633911    0.00365860   -0.01219677
     atom    7 type  1   force =     0.00633795    0.00366222   -0.01218914
     atom    8 type  2   force =     0.00000191   -0.00000035    0.00647105
     atom    9 type  1   force =     0.00000166   -0.00085646    0.00000402
     atom   10 type  1   force =    -0.00074232    0.00043009    0.00000373
     atom   11 type  1   force =     0.00074332    0.00042883    0.00000422
     atom   12 type  2   force =     0.00000060   -0.00000144   -0.00004970

     Total force =     0.068321     Total SCF correction =     0.003236

     entering subroutine stress ...

     negative rho (up, down):  1.971E-01 0.000E+00
          total   stress  (Ry/bohr**3)                   (kbar)     P=   -7.30
  -0.00005441  -0.00000000   0.00000000         -8.00     -0.00      0.00
  -0.00000000  -0.00005441   0.00000000         -0.00     -8.00      0.00
   0.00000000   0.00000000  -0.00003995          0.00      0.00     -5.88

 !ASE

     Writing output data file calc.save

     General routines

     Parallel routines

   This run was terminated on:  17:30:43   2Jan2019

   JOB DONE.
Job  /afs/slac/g/suncat/bin/suncat-tsmpirun -x LD_LIBRARY_PATH -wdir /scratch/qe649459_ScWsP pw.x -in pw.inp

TID   HOST_NAME   COMMAND_LINE            STATUS            TERMINATION_TIME
00000 suncat0141 pw.x -in pw.inp   Done                     01/02/2019 17:30:43
00001 suncat0141 pw.x -in pw.inp   Done                     01/02/2019 17:30:43
00002 suncat0141 pw.x -in pw.inp   Done                     01/02/2019 17:30:43
00003 suncat0141 pw.x -in pw.inp   Done                     01/02/2019 17:30:43
00004 suncat0141 pw.x -in pw.inp   Done                     01/02/2019 17:30:43
00005 suncat0141 pw.x -in pw.inp   Done                     01/02/2019 17:30:43
00006 suncat0141 pw.x -in pw.inp   Done                     01/02/2019 17:30:43
00007 suncat0141 pw.x -in pw.inp   Done                     01/02/2019 17:30:43
00008 suncat0140 pw.x -in pw.inp   Done                     01/02/2019 17:30:43
00009 suncat0140 pw.x -in pw.inp   Done                     01/02/2019 17:30:43
00010 suncat0140 pw.x -in pw.inp   Done                     01/02/2019 17:30:43
00011 suncat0140 pw.x -in pw.inp   Done                     01/02/2019 17:30:43
00012 suncat0140 pw.x -in pw.inp   Done                     01/02/2019 17:30:43
00013 suncat0140 pw.x -in pw.inp   Done                     01/02/2019 17:30:43
00014 suncat0140 pw.x -in pw.inp   Done                     01/02/2019 17:30:43
00015 suncat0140 pw.x -in pw.inp   Done                     01/02/2019 17:30:43
00016 suncat0135 pw.x -in pw.inp   Done                     01/02/2019 17:30:43
00017 suncat0135 pw.x -in pw.inp   Done                     01/02/2019 17:30:43
00018 suncat0135 pw.x -in pw.inp   Done                     01/02/2019 17:30:43
00019 suncat0135 pw.x -in pw.inp   Done                     01/02/2019 17:30:43
00020 suncat0135 pw.x -in pw.inp   Done                     01/02/2019 17:30:43
00021 suncat0135 pw.x -in pw.inp   Done                     01/02/2019 17:30:43
00022 suncat0135 pw.x -in pw.inp   Done                     01/02/2019 17:30:43
00023 suncat0135 pw.x -in pw.inp   Done                     01/02/2019 17:30:43
00024 suncat0134 pw.x -in pw.inp   Done                     01/02/2019 17:30:43
00025 suncat0134 pw.x -in pw.inp   Done                     01/02/2019 17:30:43
00026 suncat0134 pw.x -in pw.inp   Done                     01/02/2019 17:30:43
00027 suncat0134 pw.x -in pw.inp   Done                     01/02/2019 17:30:43
00028 suncat0134 pw.x -in pw.inp   Done                     01/02/2019 17:30:43
00029 suncat0134 pw.x -in pw.inp   Done                     01/02/2019 17:30:43
00030 suncat0134 pw.x -in pw.inp   Done                     01/02/2019 17:30:43
00031 suncat0134 pw.x -in pw.inp   Done                     01/02/2019 17:30:43
00032 suncat0272 pw.x -in pw.inp   Done                     01/02/2019 17:30:43
00033 suncat0272 pw.x -in pw.inp   Done                     01/02/2019 17:30:43
00034 suncat0272 pw.x -in pw.inp   Done                     01/02/2019 17:30:43
00035 suncat0272 pw.x -in pw.inp   Done                     01/02/2019 17:30:43
00036 suncat0272 pw.x -in pw.inp   Done                     01/02/2019 17:30:43
00037 suncat0272 pw.x -in pw.inp   Done                     01/02/2019 17:30:43
00038 suncat0272 pw.x -in pw.inp   Done                     01/02/2019 17:30:43
00039 suncat0272 pw.x -in pw.inp   Done                     01/02/2019 17:30:43
00040 suncat0262 pw.x -in pw.inp   Done                     01/02/2019 17:30:43
00041 suncat0262 pw.x -in pw.inp   Done                     01/02/2019 17:30:43
00042 suncat0262 pw.x -in pw.inp   Done                     01/02/2019 17:30:43
00043 suncat0262 pw.x -in pw.inp   Done                     01/02/2019 17:30:43
00044 suncat0262 pw.x -in pw.inp   Done                     01/02/2019 17:30:43
00045 suncat0262 pw.x -in pw.inp   Done                     01/02/2019 17:30:43
00046 suncat0262 pw.x -in pw.inp   Done                     01/02/2019 17:30:43
00047 suncat0262 pw.x -in pw.inp   Done                     01/02/2019 17:30:43
00048 suncat0258 pw.x -in pw.inp   Done                     01/02/2019 17:30:43
00049 suncat0258 pw.x -in pw.inp   Done                     01/02/2019 17:30:43
00050 suncat0258 pw.x -in pw.inp   Done                     01/02/2019 17:30:43
00051 suncat0258 pw.x -in pw.inp   Done                     01/02/2019 17:30:43
00052 suncat0258 pw.x -in pw.inp   Done                     01/02/2019 17:30:43
00053 suncat0258 pw.x -in pw.inp   Done                     01/02/2019 17:30:43
00054 suncat0258 pw.x -in pw.inp   Done                     01/02/2019 17:30:43
00055 suncat0258 pw.x -in pw.inp   Done                     01/02/2019 17:30:43
00056 suncat0257 pw.x -in pw.inp   Done                     01/02/2019 17:30:43
00057 suncat0257 pw.x -in pw.inp   Done                     01/02/2019 17:30:43
00058 suncat0257 pw.x -in pw.inp   Done                     01/02/2019 17:30:43
00059 suncat0257 pw.x -in pw.inp   Done                     01/02/2019 17:30:43
00060 suncat0257 pw.x -in pw.inp   Done                     01/02/2019 17:30:43
00061 suncat0257 pw.x -in pw.inp   Done                     01/02/2019 17:30:43
00062 suncat0257 pw.x -in pw.inp   Done                     01/02/2019 17:30:43
00063 suncat0257 pw.x -in pw.inp   Done                     01/02/2019 17:30:43