     Program PWSCF v.5.1rc2 (svn rev. 11289) starts on 28Dec2018 at  3:10: 6

     Current dimensions of program PWSCF are:
     Max number of different atomic species (ntypx) = 10
     Max number of k-points (npk) =  40000
     Max angular momentum in pseudopotentials (lmaxx) =  3
     Presently stress not available with electric field

     IMPORTANT: XC functional enforced from input :
     Exchange-correlation      = BEEF-VDW ( 1  4 27 13 2)
     Any further DFT definition will be discarded
     Please, verify this is what you really want

     Subspace diagonalization in iterative solution of the eigenvalue problem:
     a serial algorithm will be used

     bravais-lattice index     =            0
     lattice parameter (alat)  =       1.8897  a.u.
     unit-cell volume          =    4932.9055 (a.u.)^3
     number of atoms/cell      =           12
     number of atomic types    =            2
     number of electrons       =       150.00
     number of Kohn-Sham states=          105
     kinetic-energy cutoff     =      36.7493  Ry
     charge density cutoff     =     367.4932  Ry
     convergence threshold     =      1.0E-06
     mixing beta               =       0.1000
     number of iterations used =           10  plain     mixing
     Exchange-correlation      = BEEF-VDW ( 1  4 27 13 2)
     nstep                     =           50

     celldm(1)=   1.889726  celldm(2)=   0.000000  celldm(3)=   0.000000
     celldm(4)=   0.000000  celldm(5)=   0.000000  celldm(6)=   0.000000

     crystal axes: (cart. coord. in units of alat)
               a(1) = (   5.837872   0.000000   0.000000 )
               a(2) = (  -2.918936   5.055745   0.000000 )
               a(3) = (   0.000000   0.000000  24.766602 )

     reciprocal axes: (cart. coord. in units 2 pi/alat)
               b(1) = (  0.171295  0.098897  0.000000 )
               b(2) = (  0.000000  0.197795  0.000000 )
               b(3) = (  0.000000  0.000000  0.040377 )

     PseudoPot. # 1 for V  read from file:
     /afs/slac.stanford.edu/u/if/mamunm/psp/gbrv1.5pbe/V.UPF
     MD5 check sum: 22b79981416ebb76fdaf5b1b8640f6fb
     Pseudo is Ultrasoft + core correction, Zval = 13.0
     Generated by new atomic code, or converted to UPF format
     Using radial grid of  853 points,  6 beta functions with:
                l(1) =   0
                l(2) =   0
                l(3) =   1
                l(4) =   1
                l(5) =   2
                l(6) =   2
     Q(r) pseudized with  8 coefficients,  rinner =    1.100   1.100   1.100
                                                       1.100   1.100

     PseudoPot. # 2 for Y  read from file:
     /afs/slac.stanford.edu/u/if/mamunm/psp/gbrv1.5pbe/Y.UPF
     MD5 check sum: d034151ed7554c50b6e82763ed42c788
     Pseudo is Ultrasoft + core correction, Zval = 11.0
     Generated by new atomic code, or converted to UPF format
     Using radial grid of  885 points,  6 beta functions with:
                l(1) =   0
                l(2) =   0
                l(3) =   1
                l(4) =   1
                l(5) =   2
                l(6) =   2
     Q(r) pseudized with  8 coefficients,  rinner =    1.200   1.200   1.200
                                                       1.200   1.200

     vdW kernel table read from file vdW_kernel_table
     MD5 check sum: 095c7af220d748ca6e76c0b4c6cfb241

     atomic species   valence    mass     pseudopotential
        V1            13.00    50.94150     V ( 1.00)
        Y1            11.00    88.90584     Y ( 1.00)

     No symmetry found

   Cartesian axes

     site n.     atom                  positions (alat units)
         1           V1  tau(   1) = (   0.0000000   0.0000000  10.0000000  )
         2           V1  tau(   2) = (  -1.4594680   2.5278727  10.0000000  )
         3           V1  tau(   3) = (   1.4594680   2.5278727  10.0000000  )
         4           Y1  tau(   4) = (   2.9189360   0.0000000  10.0000000  )
         5           V1  tau(   5) = (   2.9189360   1.6852485  12.3833012  )
         6           V1  tau(   6) = (   1.4594680   4.2131212  12.3833012  )
         7           V1  tau(   7) = (  -1.4594680   4.2131212  12.3833012  )
         8           Y1  tau(   8) = (   0.0000000   1.6852485  12.3833012  )
         9           V1  tau(   9) = (  -0.0000000   3.3704969  14.7666025  )
        10           V1  tau(  10) = (   1.4594680   0.8426242  14.7666025  )
        11           V1  tau(  11) = (   4.3784040   0.8426242  14.7666025  )
        12           Y1  tau(  12) = (   2.9189360   3.3704969  14.7666025  )

     number of k points=    20  Fermi-Dirac smearing, width (Ry)=  0.0110
                       cart. coord. in units 2pi/alat
        k(    1) = (   0.0000000   0.0000000   0.0000000), wk =   0.0555556
        k(    2) = (   0.0000000   0.0329658   0.0000000), wk =   0.1111111
        k(    3) = (   0.0000000   0.0659316   0.0000000), wk =   0.1111111
        k(    4) = (   0.0000000  -0.0988974   0.0000000), wk =   0.0555556
        k(    5) = (   0.0285492   0.0164829   0.0000000), wk =   0.1111111
        k(    6) = (   0.0285492   0.0494487   0.0000000), wk =   0.1111111
        k(    7) = (   0.0285492   0.0824145   0.0000000), wk =   0.1111111
        k(    8) = (   0.0285492  -0.0824145   0.0000000), wk =   0.1111111
        k(    9) = (   0.0285492  -0.0494487   0.0000000), wk =   0.1111111
        k(   10) = (   0.0285492  -0.0164829   0.0000000), wk =   0.1111111
        k(   11) = (   0.0570984   0.0329658   0.0000000), wk =   0.1111111
        k(   12) = (   0.0570984   0.0659316   0.0000000), wk =   0.1111111
        k(   13) = (   0.0570984   0.0988974   0.0000000), wk =   0.1111111
        k(   14) = (   0.0570984  -0.0659316   0.0000000), wk =   0.1111111
        k(   15) = (   0.0570984  -0.0329658   0.0000000), wk =   0.1111111
        k(   16) = (   0.0570984   0.0000000   0.0000000), wk =   0.1111111
        k(   17) = (  -0.0856476  -0.0494487   0.0000000), wk =   0.0555556
        k(   18) = (  -0.0856476  -0.0164829   0.0000000), wk =   0.1111111
        k(   19) = (  -0.0856476   0.0164829   0.0000000), wk =   0.1111111
        k(   20) = (  -0.0856476  -0.1483461   0.0000000), wk =   0.0555556

     Largest allocated arrays     est. size (Mb)     dimensions
     Largest temporary arrays     est. size (Mb)     dimensions

     Check: negative/imaginary core charge=   -0.000001    0.000000

     Initial potential from superposition of free atoms
     Check: negative starting charge=   -0.007503

     starting charge  149.97555, renormalised to  150.00000

     negative rho (up, down):  7.504E-03 0.000E+00

     *
     * You are using vdW-DF for exchange-correlation in this calculation.
     * Please cite the following three references that made this development
     * possible:
     *
     *   M. Dion, H. Rydberg, E. Schroder, D. C. Langreth, and
     *   B. I. Lundqvist, Phys. Rev. Lett. 92, 246401 (2004).
     *
     *   T. Thonhauser, V. R. Cooper, S. Li, A. Puzder, P. Hyldgaard, and
     *   D. C. Langreth, Phys. Rev. B 76, 125112 (2007).
     *
     *   G. Roman-Perez and J. M. Soler, Phys. Rev. Lett. 103, 096102 (2009).
     *
     *
     * If you are using vdW-DF2, please also cite:
     *
     *   K. Lee, E. D. Murray, L. Kong, B. I. Lundqvist, and
     *   D. C. Langreth, Phys. Rev. B 82, 081101(R) (2010).
     *
     *
     * If you are calculating the stress with vdW-DF, please also cite:
     *
     *   R. Sabatini, E. Kucukbenli, B. Kolb, T. Thonhauser, and
     *   S. de Gironcoli, J. Phys.: Condens. Matter 24, 424209 (2012).
     *

     Carrying out vdW-DF run using the following parameters:

     Nqs =      20    Nr_points =    1024   r_max =   100.000
     q_mesh =
               0.00001000     0.04494208     0.09755937     0.15916263
               0.23128650     0.31572767     0.41458969     0.53033537
               0.66584808     0.82450364     1.01025438     1.22772762
               1.48234092     1.78043706     2.12944203     2.53805004
               3.01644009     3.57652955     4.23227104     5.00000000

     Gradients computed in reciprocal space

     Adding external electric field

     Computed dipole along edir(3) :
        Dipole                0.0000 Ry au,          0.0000 Debye
        Dipole field          0.0000 Ry au

        Potential amp.       -0.0000 Ry
        Total length         45.6320 bohr

     Starting wfc are  129 randomized atomic wfcs

     Self-consistent Calculation

     iteration #  1     ecut=    36.75 Ry     beta=0.10
     Davidson diagonalization with overlap
     ethr =  1.00E-02,  avg # of iterations =  2.5

[...]

     total energy              =   -1590.71015874 Ry
     Harris-Foulkes estimate   =   -1593.00108872 Ry
     estimated scf accuracy    <      12.61560664 Ry

[...]

     End of self-consistent calculation

          k = 0.0000 0.0000 0.0000 ( 18535 PWs)   bands (ev):

   -63.3531 -63.3195 -63.3195 -63.3028 -63.2986 -63.2723 -63.2722 -63.2712
   -63.2712 -41.1218 -41.1187 -40.4683 -37.2922 -37.2403 -37.2403 -37.2204
   -37.2029 -37.2002 -37.2002 -37.1997 -37.1535 -37.1534 -37.1522 -37.1258
   -37.1257 -37.1085 -37.1085 -37.0919 -37.0515 -37.0491 -37.0491 -37.0258
   -37.0119 -37.0081 -37.0081 -36.9520 -36.9519 -36.9510 -36.9509 -21.1999
   -21.1809 -21.1720 -21.1720 -21.1674 -21.1674 -20.6072 -20.5703 -20.5703
    -4.3379  -3.0333  -2.0412  -1.6342  -1.6342  -1.5420  -1.5420  -1.0862
    -1.0128  -1.0128  -0.8050  -0.7495  -0.7495  -0.6995  -0.5737  -0.0519
    -0.0519   0.0142   0.6874   0.7513   0.7513   0.8800   0.9229   1.1037
     1.2144   1.2888   1.2888   1.4068   1.4068   1.4133   1.4703   1.4703
     1.5671   1.5671   1.7105   1.7105   1.9425   1.9735   2.0129   2.0129
     2.1366   2.2837   2.2837   2.4943   2.4943   2.7269   2.7269   2.8178
     2.8803   3.1316   3.1316   3.1982   3.2644   3.3151   4.1400   4.1400
     4.2411

[...]

          k =-0.0856-0.0494 0.0000 ( 18584 PWs)   bands (ev):

[...]

     the Fermi energy is     0.9832 ev

!    total energy              =   -1592.29637387 Ry
     Harris-Foulkes estimate   =   -1592.29637058 Ry
     estimated scf accuracy    <       0.00000077 Ry

     The total energy is the sum of the following terms:

     one-electron contribution =  -11486.16968824 Ry
     hartree contribution      =    5732.33357653 Ry
     xc contribution           =    -267.95677245 Ry
     ewald contribution        =    4429.65912350 Ry
     electric field correction =       0.00000006 Ry
     smearing contrib. (-TS)   =      -0.16261326 Ry

     convergence has been achieved in  29 iterations

 BEEF-vdW xc energy contributions
           1 :   -231.688479038839
           2 :    207.874543110695
           3 :   -168.011793855131
           4 :    123.791058694644
           5 :   -85.6029750662316
           6 :    58.7760910546662
           7 :   -42.9612827718380
           8 :    34.3088954490858
           9 :   -28.6562558205135
          10 :    23.7694927314274
          11 :   -19.6847880253055
          12 :    17.4952808980707
          13 :   -17.7678296412822
          14 :    19.7176513990821
          15 :   -21.5595900433401
[...]
     Pseudo is Ultrasoft + core correction, Zval = 13.0
     Generated by new atomic code, or converted to UPF format
     Using radial grid of  853 points,  6 beta functions with:
                l(1) =   0
                l(2) =   0
                l(3) =   1
                l(4) =   1
                l(5) =   2
                l(6) =   2
     Q(r) pseudized with  8 coefficients,  rinner =    1.100   1.100   1.100
                                                       1.100   1.100

     PseudoPot. # 2 for Y  read from file:
     /afs/slac.stanford.edu/u/if/mamunm/psp/gbrv1.5pbe/Y.UPF
     MD5 check sum: d034151ed7554c50b6e82763ed42c788
     Pseudo is Ultrasoft + core correction, Zval = 11.0
     Generated by new atomic code, or converted to UPF format
     Using radial grid of  885 points,  6 beta functions with:
                l(1) =   0
                l(2) =   0
                l(3) =   1
                l(4) =   1
                l(5) =   2
                l(6) =   2
     Q(r) pseudized with  8 coefficients,  rinner =    1.200   1.200   1.200
                                                       1.200   1.200

     vdW kernel table read from file vdW_kernel_table
     MD5 check sum: 095c7af220d748ca6e76c0b4c6cfb241

     atomic species   valence    mass     pseudopotential
        V1            13.00    50.94150     V ( 1.00)
        Y1            11.00    88.90584     Y ( 1.00)

     No symmetry found

   Cartesian axes

     site n.     atom                  positions (alat units)
         1           V1  tau(   1) = (   0.0000000   0.0000000  10.0000000  )
         2           V1  tau(   2) = (  -1.4594680   2.5278727  10.0000000  )
         3           V1  tau(   3) = (   1.4594680   2.5278727  10.0000000  )
         4           Y1  tau(   4) = (   2.9189360   0.0000000  10.0000000  )
         5           V1  tau(   5) = (   2.9189360   1.6852485  12.3833012  )
         6           V1  tau(   6) = (   1.4594680   4.2131212  12.3833012  )
         7           V1  tau(   7) = (  -1.4594680   4.2131212  12.3833012  )
         8           Y1  tau(   8) = (   0.0000000   1.6852485  12.3833012  )
         9           V1  tau(   9) = (   0.0000096   3.6660327  14.4417965  )
        10           V1  tau(  10) = (   1.7153476   0.6948999  14.4418222  )
        11           V1  tau(  11) = (   4.1225229   0.6948883  14.4418444  )
        12           Y1  tau(  12) = (   2.9189654   3.3705074  15.1530470  )

     number of k points=    20  Fermi-Dirac smearing, width (Ry)=  0.0110
                       cart. coord. in units 2pi/alat
        k(    1) = (   0.0000000   0.0000000   0.0000000), wk =   0.0555556
        k(    2) = (   0.0000000   0.0329658   0.0000000), wk =   0.1111111
        k(    3) = (   0.0000000   0.0659316   0.0000000), wk =   0.1111111
        k(    4) = (   0.0000000  -0.0988974   0.0000000), wk =   0.0555556
        k(    5) = (   0.0285492   0.0164829   0.0000000), wk =   0.1111111
        k(    6) = (   0.0285492   0.0494487   0.0000000), wk =   0.1111111
        k(    7) = (   0.0285492   0.0824145   0.0000000), wk =   0.1111111
        k(    8) = (   0.0285492  -0.0824145   0.0000000), wk =   0.1111111
        k(    9) = (   0.0285492  -0.0494487   0.0000000), wk =   0.1111111
        k(   10) = (   0.0285492  -0.0164829   0.0000000), wk =   0.1111111
        k(   11) = (   0.0570984   0.0329658   0.0000000), wk =   0.1111111
        k(   12) = (   0.0570984   0.0659316   0.0000000), wk =   0.1111111
        k(   13) = (   0.0570984   0.0988974   0.0000000), wk =   0.1111111
        k(   14) = (   0.0570984  -0.0659316   0.0000000), wk =   0.1111111
        k(   15) = (   0.0570984  -0.0329658   0.0000000), wk =   0.1111111
        k(   16) = (   0.0570984   0.0000000   0.0000000), wk =   0.1111111
        k(   17) = (  -0.0856476  -0.0494487   0.0000000), wk =   0.0555556
        k(   18) = (  -0.0856476  -0.0164829   0.0000000), wk =   0.1111111
        k(   19) = (  -0.0856476   0.0164829   0.0000000), wk =   0.1111111
        k(   20) = (  -0.0856476  -0.1483461   0.0000000), wk =   0.0555556

     Largest allocated arrays     est. size (Mb)     dimensions
     Largest temporary arrays     est. size (Mb)     dimensions

     Check: negative/imaginary core charge=   -0.000001    0.000000

     Initial potential from superposition of free atoms
     Check: negative starting charge=   -0.007564

     starting charge  149.97555, renormalised to  150.00000

[...]

     *
     * You are using vdW-DF for exchange-correlation in this calculation.
     * Please cite the following three references that made this development
     * possible:
     *
     *   M. Dion, H. Rydberg, E. Schroder, D. C. Langreth, and
     *   B. I. Lundqvist, Phys. Rev. Lett. 92, 246401 (2004).
     *
     *   T. Thonhauser, V. R. Cooper, S. Li, A. Puzder, P. Hyldgaard, and
     *   D. C. Langreth, Phys. Rev. B 76, 125112 (2007).
     *
     *   G. Roman-Perez and J. M. Soler, Phys. Rev. Lett. 103, 096102 (2009).
     *
     *
     * If you are using vdW-DF2, please also cite:
     *
     *   K. Lee, E. D. Murray, L. Kong, B. I. Lundqvist, and
     *   D. C. Langreth, Phys. Rev. B 82, 081101(R) (2010).
     *
     *
     * If you are calculating the stress with vdW-DF, please also cite:
     *
     *   R. Sabatini, E. Kucukbenli, B. Kolb, T. Thonhauser, and
     *   S. de Gironcoli, J. Phys.: Condens. Matter 24, 424209 (2012).
     *

     Carrying out vdW-DF run using the following parameters:

     Nqs =      20    Nr_points =    1024   r_max =   100.000
     q_mesh =
               0.00001000     0.04494208     0.09755937     0.15916263
               0.23128650     0.31572767     0.41458969     0.53033537
               0.66584808     0.82450364     1.01025438     1.22772762
               1.48234092     1.78043706     2.12944203     2.53805004
               3.01644009     3.57652955     4.23227104     5.00000000

     Gradients computed in reciprocal space

[...]

     Starting wfc are  129 randomized atomic wfcs

     Self-consistent Calculation

[...]

     iteration #  8     ecut=    36.75 Ry     beta=0.10
     Davidson diagonalization with overlap
     c_bands:  1 eigenvalues not converged
     ethr =  1.61E-04,  avg # of iterations =  9.2

[...]

     total energy              =   -1592.42705571 Ry
     Harris-Foulkes estimate   =   -1592.42705541 Ry
     estimated scf accuracy    <       0.00000283 Ry

     iteration # 26     ecut=    36.75 Ry     beta=0.10
     Davidson diagonalization with overlap
     ethr =  1.31E-09,  avg # of iterations =  1.1

[...]

     negative rho (up, down):  8.543E-03 0.000E+00

     Adding external electric field

     Computed dipole along edir(3) :
        Dipole                0.2590 Ry au,          0.6582 Debye
        Dipole field          0.0007 Ry au

        Potential amp.       -0.0602 Ry
        Total length         45.6320 bohr

     End of self-consistent calculation

[...]

          k = 0.0571 0.0000 0.0000 ( 18555 PWs)   bands (ev):

[...]

          k =-0.0856-0.1483 0.0000 ( 18584 PWs)   bands (ev):

   -62.9930 -62.9885 -62.9749 -62.9692 -62.9650 -62.9549 -62.8341 -62.7077
   -62.7061 -41.6284 -40.8324 -40.3281 -37.1172 -36.9544 -36.9278 -36.9162
   -36.8914 -36.8628 -36.8536 -36.8332 -36.8204 -36.8147 -36.7911 -36.7844
   -36.7802 -36.7715 -36.7660 -36.7518 -36.7421 -36.6672 -36.6604 -36.6238
   -36.6077 -36.4995 -36.4897 -36.4822 -36.3368 -36.3278 -36.3122 -21.6531
   -21.5861 -21.5774 -20.9093 -20.9010 -20.8894 -20.4857 -20.4510 -20.4307
    -2.5899  -2.4807  -1.4636  -1.2627  -0.9904  -0.7274  -0.7196  -0.5667
    -0.4357  -0.3606  -0.1792  -0.1153  -0.0820   0.1279   0.2550   0.3443
     0.3862   0.4528   0.5216   0.5814   0.5915   0.6858   0.8545   0.8557
     0.8852   0.9434   1.0578   1.1376   1.2369   1.3078   1.4269   1.5094
     1.6148   1.6853   1.7820   1.8522   1.9496   2.0616   2.1014   2.2380
     2.2775   2.3430   2.4209   2.4820   2.5062   2.6628   2.6796   2.9396
     2.9788   3.1101   3.1337   3.2974   3.4230   3.6540   3.8325   3.9870
     4.2518

     the Fermi energy is     1.2721 ev

!    total energy              =   -1592.42705580 Ry
     Harris-Foulkes estimate   =   -1592.42705719 Ry
     estimated scf accuracy    <       0.00000035 Ry

     The total energy is the sum of the following terms:

     one-electron contribution =  -11766.05817338 Ry
     hartree contribution      =    5873.79323187 Ry
     xc contribution           =    -268.25517115 Ry
     ewald contribution        =    4568.22418565 Ry
     electric field correction =       0.00017083 Ry
     smearing contrib. (-TS)   =      -0.13129963 Ry

     convergence has been achieved in  26 iterations

 BEEF-vdW xc energy contributions
           1 :   -232.149115557185
           2 :    208.446432857484
           3 :   -168.695635726124
           4 :    124.435432522234
           5 :   -85.9766741805666
           6 :    58.7272860996923
           7 :   -42.5492567020724
           8 :    33.7886464315688
           9 :   -28.3148360064658
          10 :    23.7372176516265
          11 :   -19.8567501124805
          12 :    17.6080134380700
          13 :   -17.5752352358268
          14 :    19.1549844448793
          15 :   -20.7913036930915
          16 :    20.9207776129903
          17 :   -18.8845577807849
          18 :    15.2098817714956
          19 :   -11.1685396709034
          20 :    7.98491022989614
          21 :   -6.23080354263442
          22 :    5.72861111653376
          23 :   -5.90679674351543
          24 :    6.26998047243879
          25 :   -6.64788309893038
          26 :    7.11144519949073
          27 :   -7.71262943670638
          28 :    8.30372986020899
          29 :   -8.58500305655764
          30 :    8.31780536046347
          31 :   -23.3864348608621
          32 :   -16.5914175717340

     Forces acting on atoms (Ry/au):

     negative rho (up, down):  8.543E-03 0.000E+00
     atom    1 type  1   force =    -0.00000006   -0.02623462    0.02842694
     atom    2 type  1   force =    -0.02272074    0.01311793    0.02842650
     atom    3 type  1   force =     0.02272024    0.01311777    0.02842420
     atom    4 type  2   force =    -0.00000702    0.00000169   -0.05031166
     atom    5 type  1   force =     0.00000119    0.03034770   -0.00836912
     atom    6 type  1   force =     0.02628779   -0.01517332   -0.00836835
     atom    7 type  1   force =    -0.02628831   -0.01517564   -0.00837446
     atom    8 type  2   force =    -0.00000622   -0.00000326   -0.00868156
     atom    9 type  1   force =     0.00000378   -0.00062055   -0.00056807
     atom   10 type  1   force =    -0.00053135    0.00031277   -0.00056788
     atom   11 type  1   force =     0.00054151    0.00031482   -0.00056653
     atom   12 type  2   force =    -0.00000082   -0.00000528    0.00053000

     Total force =     0.100358     Total SCF correction =     0.001657

     entering subroutine stress ...

     negative rho (up, down):  8.543E-03 0.000E+00
          total   stress  (Ry/bohr**3)                   (kbar)     P=   -5.69
  -0.00003953   0.00000000   0.00000000         -5.82      0.00      0.00
   0.00000000  -0.00003954   0.00000000          0.00     -5.82      0.00
   0.00000000   0.00000000  -0.00003703          0.00      0.00     -5.45

 !ASE

     Writing output data file calc.save

     General routines

     Parallel routines

   This run was terminated on:   5:32: 4  28Dec2018

   JOB DONE.
Job  /afs/slac/g/suncat/bin/suncat-tsmpirun -x LD_LIBRARY_PATH -wdir /scratch/qe111298_HAwNb pw.x -in pw.inp

TID   HOST_NAME   COMMAND_LINE            STATUS            TERMINATION_TIME
00000 suncat0185 pw.x -in pw.inp   Done                     12/28/2018 05:32:04
00001 suncat0185 pw.x -in pw.inp   Done                     12/28/2018 05:32:04
00002 suncat0185 pw.x -in pw.inp   Done                     12/28/2018 05:32:04
00003 suncat0185 pw.x -in pw.inp   Done                     12/28/2018 05:32:04
00004 suncat0185 pw.x -in pw.inp   Done                     12/28/2018 05:32:04
00005 suncat0185 pw.x -in pw.inp   Done                     12/28/2018 05:32:04
00006 suncat0185 pw.x -in pw.inp   Done                     12/28/2018 05:32:04
00007 suncat0185 pw.x -in pw.inp   Done                     12/28/2018 05:32:04
00008 suncat0154 pw.x -in pw.inp   Done                     12/28/2018 05:32:04
00009 suncat0154 pw.x -in pw.inp   Done                     12/28/2018 05:32:04
00010 suncat0154 pw.x -in pw.inp   Done                     12/28/2018 05:32:04
00011 suncat0154 pw.x -in pw.inp   Done                     12/28/2018 05:32:04
00012 suncat0154 pw.x -in pw.inp   Done                     12/28/2018 05:32:04
00013 suncat0154 pw.x -in pw.inp   Done                     12/28/2018 05:32:04
00014 suncat0154 pw.x -in pw.inp   Done                     12/28/2018 05:32:04
00015 suncat0154 pw.x -in pw.inp   Done                     12/28/2018 05:32:04
00016 suncat0108 pw.x -in pw.inp   Done                     12/28/2018 05:32:04
00017 suncat0108 pw.x -in pw.inp   Done                     12/28/2018 05:32:04
00018 suncat0108 pw.x -in pw.inp   Done                     12/28/2018 05:32:04
00019 suncat0108 pw.x -in pw.inp   Done                     12/28/2018 05:32:04
00020 suncat0108 pw.x -in pw.inp   Done                     12/28/2018 05:32:04
00021 suncat0108 pw.x -in pw.inp   Done                     12/28/2018 05:32:04
00022 suncat0108 pw.x -in pw.inp   Done                     12/28/2018 05:32:04
00023 suncat0108 pw.x -in pw.inp   Done                     12/28/2018 05:32:04
00024 suncat0107 pw.x -in pw.inp   Done                     12/28/2018 05:32:04
00025 suncat0107 pw.x -in pw.inp   Done                     12/28/2018 05:32:04
00026 suncat0107 pw.x -in pw.inp   Done                     12/28/2018 05:32:04
00027 suncat0107 pw.x -in pw.inp   Done                     12/28/2018 05:32:04
00028 suncat0107 pw.x -in pw.inp   Done                     12/28/2018 05:32:04
00029 suncat0107 pw.x -in pw.inp   Done                     12/28/2018 05:32:04
00030 suncat0107 pw.x -in pw.inp   Done                     12/28/2018 05:32:04
00031 suncat0107 pw.x -in pw.inp   Done                     12/28/2018 05:32:04
00032 suncat0106 pw.x -in pw.inp   Done                     12/28/2018 05:32:04
00033 suncat0106 pw.x -in pw.inp   Done                     12/28/2018 05:32:04
00034 suncat0106 pw.x -in pw.inp   Done                     12/28/2018 05:32:04
00035 suncat0106 pw.x -in pw.inp   Done                     12/28/2018 05:32:04
00036 suncat0106 pw.x -in pw.inp   Done                     12/28/2018 05:32:04
00037 suncat0106 pw.x -in pw.inp   Done                     12/28/2018 05:32:04
00038 suncat0106 pw.x -in pw.inp   Done                     12/28/2018 05:32:04
00039 suncat0106 pw.x -in pw.inp   Done                     12/28/2018 05:32:04
00040 suncat0105 pw.x -in pw.inp   Done                     12/28/2018 05:32:04
00041 suncat0105 pw.x -in pw.inp   Done                     12/28/2018 05:32:04
00042 suncat0105 pw.x -in pw.inp   Done                     12/28/2018 05:32:04
00043 suncat0105 pw.x -in pw.inp   Done                     12/28/2018 05:32:04
00044 suncat0105 pw.x -in pw.inp   Done                     12/28/2018 05:32:04
00045 suncat0105 pw.x -in pw.inp   Done                     12/28/2018 05:32:04
00046 suncat0105 pw.x -in pw.inp   Done                     12/28/2018 05:32:04
00047 suncat0105 pw.x -in pw.inp   Done                     12/28/2018 05:32:04
00048 suncat0277 pw.x -in pw.inp   Done                     12/28/2018 05:32:04
00049 suncat0277 pw.x -in pw.inp   Done                     12/28/2018 05:32:04
00050 suncat0277 pw.x -in pw.inp   Done                     12/28/2018 05:32:04
00051 suncat0277 pw.x -in pw.inp   Done                     12/28/2018 05:32:04
00052 suncat0277 pw.x -in pw.inp   Done                     12/28/2018 05:32:04
00053 suncat0277 pw.x -in pw.inp   Done                     12/28/2018 05:32:04
00054 suncat0277 pw.x -in pw.inp   Done                     12/28/2018 05:32:04
00055 suncat0277 pw.x -in pw.inp   Done                     12/28/2018 05:32:04
00056 suncat0276 pw.x -in pw.inp   Done                     12/28/2018 05:32:04
00057 suncat0276 pw.x -in pw.inp   Done                     12/28/2018 05:32:04
00058 suncat0276 pw.x -in pw.inp   Done                     12/28/2018 05:32:04
00059 suncat0276 pw.x -in pw.inp   Done                     12/28/2018 05:32:04
00060 suncat0276 pw.x -in pw.inp   Done                     12/28/2018 05:32:04
00061 suncat0276 pw.x -in pw.inp   Done                     12/28/2018 05:32:04
00062 suncat0276 pw.x -in pw.inp   Done                     12/28/2018 05:32:04
00063 suncat0276 pw.x -in pw.inp   Done                     12/28/2018 05:32:04