     Program PWSCF v.5.1rc2 (svn rev. 11289) starts on 28Dec2018 at  3:21:42

     Current dimensions of program PWSCF are:
     Max number of different atomic species (ntypx) = 10
     Max number of k-points (npk) =  40000
     Max angular momentum in pseudopotentials (lmaxx) =  3
     Presently stress not available with electric field

     IMPORTANT: XC functional enforced from input :
     Exchange-correlation      = BEEF-VDW ( 1  4 27 13 2)
     Any further DFT definition will be discarded
     Please, verify this is what you really want

     Subspace diagonalization in iterative solution of the eigenvalue problem:
     a serial algorithm will be used

     bravais-lattice index     =            0
     lattice parameter (alat)  =       1.8897  a.u.
     unit-cell volume          =    5205.5512 (a.u.)^3
     number of atoms/cell      =           12
     number of atomic types    =            2
     number of electrons       =       159.00
     number of Kohn-Sham states=          109
     kinetic-energy cutoff     =      36.7493  Ry
     charge density cutoff     =     367.4932  Ry
     convergence threshold     =      1.0E-06
     mixing beta               =       0.1000
     number of iterations used =           10  plain     mixing
     Exchange-correlation      = BEEF-VDW ( 1  4 27 13 2)
     nstep                     =           50

     celldm(1)=   1.889726  celldm(2)=   0.000000  celldm(3)=   0.000000
     celldm(4)=   0.000000  celldm(5)=   0.000000  celldm(6)=   0.000000

     crystal axes: (cart. coord. in units of alat)
               a(1) = (   5.982762   0.000000   0.000000 )
               a(2) = (  -2.991381   5.181224   0.000000 )
               a(3) = (   0.000000   0.000000  24.884905 )

     reciprocal axes: (cart. coord. in units 2 pi/alat)
               b(1) = (  0.167147  0.096502  0.000000 )
               b(2) = (  0.000000  0.193005  0.000000 )
               b(3) = (  0.000000  0.000000  0.040185 )

     PseudoPot. # 1 for W  read from file:
     /afs/slac.stanford.edu/u/if/mamunm/psp/gbrv1.5pbe/W.UPF
     MD5 check sum: 9c083fa34c2a2ea0f02f1f893e16e1c8
     Pseudo is Ultrasoft + core correction, Zval = 14.0
     Generated by new atomic code, or converted to UPF format
     Using radial grid of  923 points,  8 beta functions with:
                l(1) =   0
                l(2) =   0
                l(3) =   0
                l(4) =   1
                l(5) =   1
                l(6) =   2
                l(7) =   2
                l(8) =   3
     Q(r) pseudized with  6 coefficients,  rinner =    1.350   1.350   1.350
                                                       1.350   1.350   1.350
                                                       1.350

     PseudoPot. # 2 for Y  read from file:
     /afs/slac.stanford.edu/u/if/mamunm/psp/gbrv1.5pbe/Y.UPF
     MD5 check sum: d034151ed7554c50b6e82763ed42c788
     Pseudo is Ultrasoft + core correction, Zval = 11.0
     Generated by new atomic code, or converted to UPF format
     Using radial grid of  885 points,  6 beta functions with:
                l(1) =   0
                l(2) =   0
                l(3) =   1
                l(4) =   1
                l(5) =   2
                l(6) =   2
     Q(r) pseudized with  8 coefficients,  rinner =    1.200   1.200   1.200
                                                       1.200   1.200

     vdW kernel table read from file vdW_kernel_table
     MD5 check sum: 095c7af220d748ca6e76c0b4c6cfb241

     atomic species   valence    mass     pseudopotential
        W1            14.00   183.84000     W ( 1.00)
        Y1            11.00    88.90584     Y ( 1.00)

     No symmetry found

   Cartesian axes

     site n.     atom                  positions (alat units)
         1           W1  tau(   1) = (   0.0000000   0.0000000  10.0000000  )
         2           W1  tau(   2) = (  -1.4956906   2.5906121  10.0000000  )
         3           W1  tau(   3) = (   1.4956906   2.5906121  10.0000000  )
         4           Y1  tau(   4) = (   2.9913812   0.0000000  10.0000000  )
         5           W1  tau(   5) = (   2.9913812   1.7270747  12.4424525  )
         6           W1  tau(   6) = (   1.4956906   4.3176868  12.4424525  )
         7           W1  tau(   7) = (  -1.4956906   4.3176868  12.4424525  )
         8           Y1  tau(   8) = (   0.0000000   1.7270747  12.4424525  )
         9           W1  tau(   9) = (  -0.0000000   3.4541495  14.8849050  )
        10           W1  tau(  10) = (   1.4956906   0.8635374  14.8849050  )
        11           W1  tau(  11) = (   4.4870718   0.8635374  14.8849050  )
        12           Y1  tau(  12) = (   2.9913812   3.4541495  14.8849050  )

     number of k points=    20  Fermi-Dirac smearing, width (Ry)=  0.0110
                       cart. coord. in units 2pi/alat
        k(    1) = (   0.0000000   0.0000000   0.0000000), wk =   0.0555556
        k(    2) = (   0.0000000   0.0321674   0.0000000), wk =   0.1111111
        k(    3) = (   0.0000000   0.0643349   0.0000000), wk =   0.1111111
        k(    4) = (   0.0000000  -0.0965023   0.0000000), wk =   0.0555556
        k(    5) = (   0.0278578   0.0160837   0.0000000), wk =   0.1111111
        k(    6) = (   0.0278578   0.0482511   0.0000000), wk =   0.1111111
        k(    7) = (   0.0278578   0.0804186   0.0000000), wk =   0.1111111
        k(    8) = (   0.0278578  -0.0804186   0.0000000), wk =   0.1111111
        k(    9) = (   0.0278578  -0.0482511   0.0000000), wk =   0.1111111
        k(   10) = (   0.0278578  -0.0160837   0.0000000), wk =   0.1111111
        k(   11) = (   0.0557156   0.0321674   0.0000000), wk =   0.1111111
        k(   12) = (   0.0557156   0.0643349   0.0000000), wk =   0.1111111
        k(   13) = (   0.0557156   0.0965023   0.0000000), wk =   0.1111111
        k(   14) = (   0.0557156  -0.0643349   0.0000000), wk =   0.1111111
        k(   15) = (   0.0557156  -0.0321674   0.0000000), wk =   0.1111111
        k(   16) = (   0.0557156   0.0000000   0.0000000), wk =   0.1111111
        k(   17) = (  -0.0835734  -0.0482511   0.0000000), wk =   0.0555556
        k(   18) = (  -0.0835734  -0.0160837   0.0000000), wk =   0.1111111
        k(   19) = (  -0.0835734   0.0160837   0.0000000), wk =   0.1111111
        k(   20) = (  -0.0835734  -0.1447534   0.0000000), wk =   0.0555556

     Largest allocated arrays     est. size (Mb)     dimensions
     Largest temporary arrays     est. size (Mb)     dimensions

     Initial potential from superposition of free atoms
     Check: negative starting charge=   -0.576827

     starting charge  158.08353, renormalised to  159.00000

     negative rho (up, down):  5.802E-01 0.000E+00

     *
     * You are using vdW-DF for exchange-correlation in this calculation.
     * Please cite the following three references that made this development
     * possible:
     *
     *   M. Dion, H. Rydberg, E. Schroder, D. C. Langreth, and
     *   B. I. Lundqvist, Phys. Rev. Lett. 92, 246401 (2004).
     *
     *   T. Thonhauser, V. R. Cooper, S. Li, A. Puzder, P. Hyldgaard, and
     *   D. C. Langreth, Phys. Rev. B 76, 125112 (2007).
     *
     *   G. Roman-Perez and J. M. Soler, Phys. Rev. Lett. 103, 096102 (2009).
     *
     *
     * If you are using vdW-DF2, please also cite:
     *
     *   K. Lee, E. D. Murray, L. Kong, B. I. Lundqvist, and
     *   D. C. Langreth, Phys. Rev. B 82, 081101(R) (2010).
     *
     *
     * If you are calculating the stress with vdW-DF, please also cite:
     *
     *   R. Sabatini, E. Kucukbenli, B. Kolb, T. Thonhauser, and
     *   S. de Gironcoli, J. Phys.: Condens. Matter 24, 424209 (2012).
     *

     Carrying out vdW-DF run using the following parameters:

     Nqs =      20    Nr_points =    1024   r_max =   100.000
     q_mesh =
               0.00001000     0.04494208     0.09755937     0.15916263
               0.23128650     0.31572767     0.41458969     0.53033537
               0.66584808     0.82450364     1.01025438     1.22772762
               1.48234092     1.78043706     2.12944203     2.53805004
               3.01644009     3.57652955     4.23227104     5.00000000

     Gradients computed in reciprocal space

     Adding external electric field

     Computed dipole along edir(3) :
        Dipole                0.0000 Ry au,          0.0000 Debye
        Dipole field          0.0000 Ry au

        Potential amp.       -0.0000 Ry
        Total length         45.8500 bohr

     Starting wfc are  156 randomized atomic wfcs

     Self-consistent Calculation

     iteration #  1     ecut=    36.75 Ry     beta=0.10
     Davidson diagonalization with overlap
     ethr =  1.00E-02,  avg # of iterations =  2.0

[...]

     total energy              =   -1723.72863438 Ry
     Harris-Foulkes estimate   =   -1724.56151842 Ry
     estimated scf accuracy    <       4.81098934 Ry

[...]

     End of self-consistent calculation

          k = 0.0000 0.0000 0.0000 ( 19507 PWs)   bands (ev):

   -72.3904 -72.3628 -72.3628 -72.2159 -72.2149 -72.1892 -72.1892 -72.1889
   -72.1889 -39.8731 -39.8677 -39.2410 -36.7299 -36.5951 -36.5951 -36.5606
   -36.4883 -36.4882 -36.4826 -36.4737 -36.3581 -36.3581 -36.3358 -36.3312
   -36.3080 -36.3080 -36.2888 -36.2888 -36.2281 -36.2281 -36.2040 -36.2004
   -36.2004 -36.1239 -36.1089 -36.0206 -36.0206 -36.0186 -36.0186 -19.9888
   -19.9535 -19.9219 -19.9219 -19.9129 -19.9129 -19.4097 -19.3704 -19.3704
    -4.9235  -3.4291  -2.7317  -2.1417  -2.1417  -1.8831  -1.8831  -1.7143
    -1.2193  -1.2193  -1.1675  -1.0626  -1.0281  -1.0281  -0.8305   0.0398
     0.2825   0.2825   1.0162   1.0162   1.0933   1.2746   1.6419   1.7876
     1.7876   1.7886   1.7985   2.1233   2.1233   2.2981   2.2981   2.4990
     2.5404   2.5404   2.7156   2.7156   2.9404   3.1805   3.1805   3.2932
     3.3239   3.8651   3.8651   3.9601   4.2463   4.2463   4.2575   4.2575
     4.4799   4.4799   5.1206   5.7066   5.9444   5.9444   5.9775   5.9951
     6.2539   6.3576   6.4714   6.4869   6.4869

[...]

          k =-0.0836-0.0483 0.0000 ( 19588 PWs)   bands (ev):

[...]

     the Fermi energy is     2.0161 ev

!    total energy              =   -1724.14943041 Ry
     Harris-Foulkes estimate   =   -1724.15638749 Ry
     estimated scf accuracy    <       0.00000099 Ry

     The total energy is the sum of the following terms:

     one-electron contribution =  -11778.28276559 Ry
     hartree contribution      =    5875.11050186 Ry
     xc contribution           =    -467.37268249 Ry
     ewald contribution        =    4646.49940815 Ry
     electric field correction =       0.00000000 Ry
     smearing contrib. (-TS)   =      -0.10389235 Ry

     convergence has been achieved in  16 iterations

 BEEF-vdW xc energy contributions
           1 :   -410.370741305273
           2 :    377.603204186836
           3 :   -320.004393428151
           4 :    250.380628893593
           5 :   -181.965100831979
           6 :    124.539118166496
           7 :   -82.4459770772769
           8 :    54.8670039123222
           9 :   -37.7987553312789
          10 :    26.6007472238828
          11 :   -17.9592760996711
          12 :    10.5831569211850
          13 :   -4.67538488396826
[...]
     MD5 check sum: 9c083fa34c2a2ea0f02f1f893e16e1c8
     Pseudo is Ultrasoft + core correction, Zval = 14.0
     Generated by new atomic code, or converted to UPF format
     Using radial grid of  923 points,  8 beta functions with:
                l(1) =   0
                l(2) =   0
                l(3) =   0
                l(4) =   1
                l(5) =   1
                l(6) =   2
                l(7) =   2
                l(8) =   3
     Q(r) pseudized with  6 coefficients,  rinner =    1.350   1.350   1.350
                                                       1.350   1.350   1.350
                                                       1.350

     PseudoPot. # 2 for Y  read from file:
     /afs/slac.stanford.edu/u/if/mamunm/psp/gbrv1.5pbe/Y.UPF
     MD5 check sum: d034151ed7554c50b6e82763ed42c788
     Pseudo is Ultrasoft + core correction, Zval = 11.0
     Generated by new atomic code, or converted to UPF format
     Using radial grid of  885 points,  6 beta functions with:
                l(1) =   0
                l(2) =   0
                l(3) =   1
                l(4) =   1
                l(5) =   2
                l(6) =   2
     Q(r) pseudized with  8 coefficients,  rinner =    1.200   1.200   1.200
                                                       1.200   1.200

     vdW kernel table read from file vdW_kernel_table
     MD5 check sum: 095c7af220d748ca6e76c0b4c6cfb241

     atomic species   valence    mass     pseudopotential
        W1            14.00   183.84000     W ( 1.00)
        Y1            11.00    88.90584     Y ( 1.00)

     No symmetry found

   Cartesian axes

     site n.     atom                  positions (alat units)
         1           W1  tau(   1) = (   0.0000000   0.0000000  10.0000000  )
         2           W1  tau(   2) = (  -1.4956906   2.5906121  10.0000000  )
         3           W1  tau(   3) = (   1.4956906   2.5906121  10.0000000  )
         4           Y1  tau(   4) = (   2.9913812   0.0000000  10.0000000  )
         5           W1  tau(   5) = (   2.9913812   1.7270747  12.4424525  )
         6           W1  tau(   6) = (   1.4956906   4.3176868  12.4424525  )
         7           W1  tau(   7) = (  -1.4956906   4.3176868  12.4424525  )
         8           Y1  tau(   8) = (   0.0000000   1.7270747  12.4424525  )
         9           W1  tau(   9) = (   0.0000004   3.6536784  14.5888908  )
        10           W1  tau(  10) = (   1.6685026   0.7637534  14.5888797  )
        11           W1  tau(  11) = (   4.3142632   0.7637593  14.5888907  )
        12           Y1  tau(  12) = (   2.9913744   3.4541362  15.5073305  )

     number of k points=    20  Fermi-Dirac smearing, width (Ry)=  0.0110
                       cart. coord. in units 2pi/alat
        k(    1) = (   0.0000000   0.0000000   0.0000000), wk =   0.0555556
        k(    2) = (   0.0000000   0.0321674   0.0000000), wk =   0.1111111
        k(    3) = (   0.0000000   0.0643349   0.0000000), wk =   0.1111111
        k(    4) = (   0.0000000  -0.0965023   0.0000000), wk =   0.0555556
        k(    5) = (   0.0278578   0.0160837   0.0000000), wk =   0.1111111
        k(    6) = (   0.0278578   0.0482511   0.0000000), wk =   0.1111111
        k(    7) = (   0.0278578   0.0804186   0.0000000), wk =   0.1111111
        k(    8) = (   0.0278578  -0.0804186   0.0000000), wk =   0.1111111
        k(    9) = (   0.0278578  -0.0482511   0.0000000), wk =   0.1111111
        k(   10) = (   0.0278578  -0.0160837   0.0000000), wk =   0.1111111
        k(   11) = (   0.0557156   0.0321674   0.0000000), wk =   0.1111111
        k(   12) = (   0.0557156   0.0643349   0.0000000), wk =   0.1111111
        k(   13) = (   0.0557156   0.0965023   0.0000000), wk =   0.1111111
        k(   14) = (   0.0557156  -0.0643349   0.0000000), wk =   0.1111111
        k(   15) = (   0.0557156  -0.0321674   0.0000000), wk =   0.1111111
        k(   16) = (   0.0557156   0.0000000   0.0000000), wk =   0.1111111
        k(   17) = (  -0.0835734  -0.0482511   0.0000000), wk =   0.0555556
        k(   18) = (  -0.0835734  -0.0160837   0.0000000), wk =   0.1111111
        k(   19) = (  -0.0835734   0.0160837   0.0000000), wk =   0.1111111
        k(   20) = (  -0.0835734  -0.1447534   0.0000000), wk =   0.0555556

     Largest allocated arrays     est. size (Mb)     dimensions
     Largest temporary arrays     est. size (Mb)     dimensions

     Initial potential from superposition of free atoms
     Check: negative starting charge=   -0.570593

     starting charge  158.08353, renormalised to  159.00000

[...]

     *
     * You are using vdW-DF for exchange-correlation in this calculation.
     * Please cite the following three references that made this development
     * possible:
     *
     *   M. Dion, H. Rydberg, E. Schroder, D. C. Langreth, and
     *   B. I. Lundqvist, Phys. Rev. Lett. 92, 246401 (2004).
     *
     *   T. Thonhauser, V. R. Cooper, S. Li, A. Puzder, P. Hyldgaard, and
     *   D. C. Langreth, Phys. Rev. B 76, 125112 (2007).
     *
     *   G. Roman-Perez and J. M. Soler, Phys. Rev. Lett. 103, 096102 (2009).
     *
     *
     * If you are using vdW-DF2, please also cite:
     *
     *   K. Lee, E. D. Murray, L. Kong, B. I. Lundqvist, and
     *   D. C. Langreth, Phys. Rev. B 82, 081101(R) (2010).
     *
     *
     * If you are calculating the stress with vdW-DF, please also cite:
     *
     *   R. Sabatini, E. Kucukbenli, B. Kolb, T. Thonhauser, and
     *   S. de Gironcoli, J. Phys.: Condens. Matter 24, 424209 (2012).
     *

     Carrying out vdW-DF run using the following parameters:

     Nqs =      20    Nr_points =    1024   r_max =   100.000
     q_mesh =
               0.00001000     0.04494208     0.09755937     0.15916263
               0.23128650     0.31572767     0.41458969     0.53033537
               0.66584808     0.82450364     1.01025438     1.22772762
               1.48234092     1.78043706     2.12944203     2.53805004
               3.01644009     3.57652955     4.23227104     5.00000000

     Gradients computed in reciprocal space

[...]

     Starting wfc are  156 randomized atomic wfcs

     Self-consistent Calculation

[...]

     total energy              =   -1724.29341053 Ry
     Harris-Foulkes estimate   =   -1724.29341461 Ry
     estimated scf accuracy    <       0.00000449 Ry

     iteration # 16     ecut=    36.75 Ry     beta=0.10
     Davidson diagonalization with overlap
     ethr =  2.82E-09,  avg # of iterations =  2.2

[...]

     negative rho (up, down):  5.924E-01 0.000E+00

     Adding external electric field

     Computed dipole along edir(3) :
        Dipole                0.4037 Ry au,          1.0262 Debye
        Dipole field          0.0010 Ry au

        Potential amp.       -0.0894 Ry
        Total length         45.8500 bohr

     End of self-consistent calculation

[...]

          k = 0.0557 0.0000 0.0000 ( 19585 PWs)   bands (ev):

[...]

          k =-0.0836-0.1448 0.0000 ( 19588 PWs)   bands (ev):

   -71.8330 -71.8217 -71.8112 -71.7308 -71.7222 -71.7135 -71.6239 -71.5652
   -71.5627 -40.5885 -39.3631 -38.9085 -36.3062 -36.1844 -36.1243 -36.1030
   -36.0813 -36.0283 -35.9552 -35.9470 -35.9180 -35.8748 -35.8487 -35.8193
   -35.7980 -35.7701 -35.7663 -35.7480 -35.7414 -35.7154 -35.6844 -35.6526
   -35.5633 -35.5179 -35.4985 -35.4976 -35.4386 -35.4302 -35.3764 -20.6521
   -20.4912 -20.4813 -19.4617 -19.4584 -19.4270 -19.1258 -19.0829 -19.0457
    -3.1574  -2.7500  -1.5136  -1.3244  -1.1320  -1.0147  -0.7173  -0.6415
    -0.5260  -0.3716  -0.2741   0.0123   0.0943   0.3063   0.5427   0.5656
     0.6322   0.6473   0.8148   0.9984   1.1166   1.1455   1.3792   1.4482
     1.4786   1.5542   1.6875   1.7781   1.9852   2.0144   2.0426   2.2334
     2.3339   2.5305   2.7190   2.9836   3.0354   3.1487   3.1674   3.3693
     3.4967   3.6956   3.7464   3.9520   4.0844   4.1025   4.1555   4.2173
     4.4435   4.4656   4.9908   5.0180   5.1582   5.2247   5.6654   6.0608
     6.1707   6.3082   6.4289   6.4650   6.5550

     the Fermi energy is     2.4781 ev

!    total energy              =   -1724.29341185 Ry
     Harris-Foulkes estimate   =   -1724.29340811 Ry
     estimated scf accuracy    <       0.00000087 Ry

     The total energy is the sum of the following terms:

     one-electron contribution =  -11945.05342233 Ry
     hartree contribution      =    5960.73454729 Ry
     xc contribution           =    -467.71952966 Ry
     ewald contribution        =    4727.83926405 Ry
     electric field correction =       0.00039350 Ry
     smearing contrib. (-TS)   =      -0.09466471 Ry

     convergence has been achieved in  16 iterations

 BEEF-vdW xc energy contributions
           1 :   -411.023345379596
           2 :    378.354405586540
           3 :   -320.908025752150
           4 :    251.389718736417
           5 :   -182.907005205333
           6 :    125.184988075370
           7 :   -82.6492583646623
           8 :    54.6627953404587
           9 :   -37.3951112081253
          10 :    26.2785032212776
          11 :   -17.9363088738274
          12 :    10.9055007876303
          13 :   -5.19305916271378
          14 :    1.25942896466034
          15 :   0.853893641003822
          16 :   -1.80937968686487
          17 :    2.65659709624003
          18 :   -4.23746258404867
          19 :    6.72640037126843
          20 :   -9.56893078857826
          21 :    11.8199245120638
          22 :   -12.6657855262590
          23 :    11.8384364521597
          24 :   -9.72000380042039
          25 :    7.12304580827453
          26 :   -4.89773642601273
          27 :    3.57800939910913
          28 :   -3.22708069321209
          29 :    3.52110955185009
          30 :   -3.98859168381858
          31 :   -37.5035766581233
          32 :   -27.5975069862661

     Forces acting on atoms (Ry/au):

     negative rho (up, down):  5.924E-01 0.000E+00
     atom    1 type  1   force =     0.00000213   -0.04342019    0.03863935
     atom    2 type  1   force =    -0.03760458    0.02171177    0.03863938
     atom    3 type  1   force =     0.03760215    0.02171217    0.03863939
     atom    4 type  2   force =    -0.00000219    0.00000127   -0.08439216
     atom    5 type  1   force =    -0.00000108    0.04743092   -0.00036681
     atom    6 type  1   force =     0.04107411   -0.02372173   -0.00036362
     atom    7 type  1   force =    -0.04107492   -0.02371663   -0.00035981
     atom    8 type  2   force =     0.00000457    0.00000670   -0.03087763
     atom    9 type  1   force =     0.00000227    0.00038472    0.00008479
     atom   10 type  1   force =     0.00033531   -0.00019200    0.00008475
     atom   11 type  1   force =    -0.00033595   -0.00019665    0.00008550
     atom   12 type  2   force =    -0.00000183   -0.00000035    0.00018687

     Total force =     0.157989     Total SCF correction =     0.003203

     entering subroutine stress ...

     negative rho (up, down):  5.924E-01 0.000E+00
          total   stress  (Ry/bohr**3)                   (kbar)     P=  -21.51
  -0.00017823  -0.00000000   0.00000000        -26.22     -0.00      0.00
  -0.00000000  -0.00017823   0.00000000         -0.00    -26.22      0.00
   0.00000000   0.00000000  -0.00008215          0.00      0.00    -12.08

 !ASE

     Writing output data file calc.save

     General routines

     Parallel routines

   This run was terminated on:   5:25:17  28Dec2018

   JOB DONE.
Job  /afs/slac/g/suncat/bin/suncat-tsmpirun -x LD_LIBRARY_PATH -wdir /scratch/qe111371_Y6VSq pw.x -in pw.inp

TID   HOST_NAME   COMMAND_LINE            STATUS            TERMINATION_TIME
00000 suncat0060 pw.x -in pw.inp   Done                     12/28/2018 05:25:17
00001 suncat0060 pw.x -in pw.inp   Done                     12/28/2018 05:25:17
00002 suncat0060 pw.x -in pw.inp   Done                     12/28/2018 05:25:17
00003 suncat0060 pw.x -in pw.inp   Done                     12/28/2018 05:25:17
00004 suncat0060 pw.x -in pw.inp   Done                     12/28/2018 05:25:17
00005 suncat0060 pw.x -in pw.inp   Done                     12/28/2018 05:25:17
00006 suncat0060 pw.x -in pw.inp   Done                     12/28/2018 05:25:17
00007 suncat0060 pw.x -in pw.inp   Done                     12/28/2018 05:25:17
00008 suncat0059 pw.x -in pw.inp   Done                     12/28/2018 05:25:17
00009 suncat0059 pw.x -in pw.inp   Done                     12/28/2018 05:25:17
00010 suncat0059 pw.x -in pw.inp   Done                     12/28/2018 05:25:17
00011 suncat0059 pw.x -in pw.inp   Done                     12/28/2018 05:25:17
00012 suncat0059 pw.x -in pw.inp   Done                     12/28/2018 05:25:17
00013 suncat0059 pw.x -in pw.inp   Done                     12/28/2018 05:25:17
00014 suncat0059 pw.x -in pw.inp   Done                     12/28/2018 05:25:17
00015 suncat0059 pw.x -in pw.inp   Done                     12/28/2018 05:25:17
00016 suncat0180 pw.x -in pw.inp   Done                     12/28/2018 05:25:17
00017 suncat0180 pw.x -in pw.inp   Done                     12/28/2018 05:25:17
00018 suncat0180 pw.x -in pw.inp   Done                     12/28/2018 05:25:17
00019 suncat0180 pw.x -in pw.inp   Done                     12/28/2018 05:25:17
00020 suncat0180 pw.x -in pw.inp   Done                     12/28/2018 05:25:17
00021 suncat0180 pw.x -in pw.inp   Done                     12/28/2018 05:25:17
00022 suncat0180 pw.x -in pw.inp   Done                     12/28/2018 05:25:17
00023 suncat0180 pw.x -in pw.inp   Done                     12/28/2018 05:25:17
00024 suncat0167 pw.x -in pw.inp   Done                     12/28/2018 05:25:17
00025 suncat0167 pw.x -in pw.inp   Done                     12/28/2018 05:25:17
00026 suncat0167 pw.x -in pw.inp   Done                     12/28/2018 05:25:17
00027 suncat0167 pw.x -in pw.inp   Done                     12/28/2018 05:25:17
00028 suncat0167 pw.x -in pw.inp   Done                     12/28/2018 05:25:17
00029 suncat0167 pw.x -in pw.inp   Done                     12/28/2018 05:25:17
00030 suncat0167 pw.x -in pw.inp   Done                     12/28/2018 05:25:17
00031 suncat0167 pw.x -in pw.inp   Done                     12/28/2018 05:25:17
00032 suncat0166 pw.x -in pw.inp   Done                     12/28/2018 05:25:17
00033 suncat0166 pw.x -in pw.inp   Done                     12/28/2018 05:25:17
00034 suncat0166 pw.x -in pw.inp   Done                     12/28/2018 05:25:17
00035 suncat0166 pw.x -in pw.inp   Done                     12/28/2018 05:25:17
00036 suncat0166 pw.x -in pw.inp   Done                     12/28/2018 05:25:17
00037 suncat0166 pw.x -in pw.inp   Done                     12/28/2018 05:25:17
00038 suncat0166 pw.x -in pw.inp   Done                     12/28/2018 05:25:17
00039 suncat0166 pw.x -in pw.inp   Done                     12/28/2018 05:25:17
00040 suncat0149 pw.x -in pw.inp   Done                     12/28/2018 05:25:17
00041 suncat0149 pw.x -in pw.inp   Done                     12/28/2018 05:25:17
00042 suncat0149 pw.x -in pw.inp   Done                     12/28/2018 05:25:17
00043 suncat0149 pw.x -in pw.inp   Done                     12/28/2018 05:25:17
00044 suncat0149 pw.x -in pw.inp   Done                     12/28/2018 05:25:17
00045 suncat0149 pw.x -in pw.inp   Done                     12/28/2018 05:25:17
00046 suncat0149 pw.x -in pw.inp   Done                     12/28/2018 05:25:17
00047 suncat0149 pw.x -in pw.inp   Done                     12/28/2018 05:25:17
00048 suncat0148 pw.x -in pw.inp   Done                     12/28/2018 05:25:17
00049 suncat0148 pw.x -in pw.inp   Done                     12/28/2018 05:25:17
00050 suncat0148 pw.x -in pw.inp   Done                     12/28/2018 05:25:17
00051 suncat0148 pw.x -in pw.inp   Done                     12/28/2018 05:25:17
00052 suncat0148 pw.x -in pw.inp   Done                     12/28/2018 05:25:17
00053 suncat0148 pw.x -in pw.inp   Done                     12/28/2018 05:25:17
00054 suncat0148 pw.x -in pw.inp   Done                     12/28/2018 05:25:17
00055 suncat0148 pw.x -in pw.inp   Done                     12/28/2018 05:25:17
00056 suncat0142 pw.x -in pw.inp   Done                     12/28/2018 05:25:17
00057 suncat0142 pw.x -in pw.inp   Done                     12/28/2018 05:25:17
00058 suncat0142 pw.x -in pw.inp   Done                     12/28/2018 05:25:17
00059 suncat0142 pw.x -in pw.inp   Done                     12/28/2018 05:25:17
00060 suncat0142 pw.x -in pw.inp   Done                     12/28/2018 05:25:17
00061 suncat0142 pw.x -in pw.inp   Done                     12/28/2018 05:25:17
00062 suncat0142 pw.x -in pw.inp   Done                     12/28/2018 05:25:17
00063 suncat0142 pw.x -in pw.inp   Done                     12/28/2018 05:25:17