     Program PWSCF v.5.1rc2 (svn rev. 11289) starts on 28Dec2018 at  3:10: 8

     Current dimensions of program PWSCF are:
     Max number of different atomic species (ntypx) = 10
     Max number of k-points (npk) =  40000
     Max angular momentum in pseudopotentials (lmaxx) =  3
     Presently stress not available with electric field

     IMPORTANT: XC functional enforced from input :
     Exchange-correlation      = BEEF-VDW ( 1  4 27 13 2)
     Any further DFT definition will be discarded
     Please, verify this is what you really want

     Subspace diagonalization in iterative solution of the eigenvalue problem:
     a serial algorithm will be used

     bravais-lattice index     =            0
     lattice parameter (alat)  =       1.8897  a.u.
     unit-cell volume          =    4325.2921 (a.u.)^3
     number of atoms/cell      =           12
     number of atomic types    =            2
     number of electrons       =       159.00
     number of Kohn-Sham states=          109
     kinetic-energy cutoff     =      36.7493  Ry
     charge density cutoff     =     367.4932  Ry
     convergence threshold     =      1.0E-06
     mixing beta               =       0.1000
     number of iterations used =           10  plain     mixing
     Exchange-correlation      = BEEF-VDW ( 1  4 27 13 2)
     nstep                     =           50

     celldm(1)=   1.889726  celldm(2)=   0.000000  celldm(3)=   0.000000
     celldm(4)=   0.000000  celldm(5)=   0.000000  celldm(6)=   0.000000

     crystal axes: (cart. coord. in units of alat)
               a(1) = (   5.497455   0.000000   0.000000 )
               a(2) = (  -2.748727   4.760935   0.000000 )
               a(3) = (   0.000000   0.000000  24.488653 )

     reciprocal axes: (cart. coord. in units 2 pi/alat)
               b(1) = (  0.181902  0.105021  0.000000 )
               b(2) = (  0.000000  0.210043  0.000000 )
               b(3) = (  0.000000  0.000000  0.040835 )

     PseudoPot. # 1 for V  read from file:
     /afs/slac.stanford.edu/u/if/mamunm/psp/gbrv1.5pbe/V.UPF
     MD5 check sum: 22b79981416ebb76fdaf5b1b8640f6fb
     Pseudo is Ultrasoft + core correction, Zval = 13.0
     Generated by new atomic code, or converted to UPF format
     Using radial grid of  853 points,  6 beta functions with:
                l(1) =   0
                l(2) =   0
                l(3) =   1
                l(4) =   1
                l(5) =   2
                l(6) =   2
     Q(r) pseudized with  8 coefficients,  rinner =    1.100   1.100   1.100
                                                       1.100   1.100

     PseudoPot. # 2 for W  read from file:
     /afs/slac.stanford.edu/u/if/mamunm/psp/gbrv1.5pbe/W.UPF
     MD5 check sum: 9c083fa34c2a2ea0f02f1f893e16e1c8
     Pseudo is Ultrasoft + core correction, Zval = 14.0
     Generated by new atomic code, or converted to UPF format
     Using radial grid of  923 points,  8 beta functions with:
                l(1) =   0
                l(2) =   0
                l(3) =   0
                l(4) =   1
                l(5) =   1
                l(6) =   2
                l(7) =   2
                l(8) =   3
     Q(r) pseudized with  6 coefficients,  rinner =    1.350   1.350   1.350
                                                       1.350   1.350   1.350
                                                       1.350

     vdW kernel table read from file vdW_kernel_table
     MD5 check sum: 095c7af220d748ca6e76c0b4c6cfb241

     atomic species   valence    mass     pseudopotential
        V1            13.00    50.94150     V ( 1.00)
        W1            14.00   183.84000     W ( 1.00)

     No symmetry found

   Cartesian axes

     site n.     atom                  positions (alat units)
         1           V1  tau(   1) = (   0.0000000   0.0000000  10.0000000  )
         2           V1  tau(   2) = (  -1.3743637   2.3804677  10.0000000  )
         3           V1  tau(   3) = (   1.3743637   2.3804677  10.0000000  )
         4           W1  tau(   4) = (   2.7487273   0.0000000  10.0000000  )
         5           V1  tau(   5) = (   2.7487273   1.5869785  12.2443265  )
         6           V1  tau(   6) = (   1.3743637   3.9674462  12.2443265  )
         7           V1  tau(   7) = (  -1.3743637   3.9674462  12.2443265  )
         8           W1  tau(   8) = (   0.0000000   1.5869785  12.2443265  )
         9           V1  tau(   9) = (  -0.0000000   3.1739569  14.4886529  )
        10           V1  tau(  10) = (   1.3743637   0.7934892  14.4886529  )
        11           V1  tau(  11) = (   4.1230910   0.7934892  14.4886529  )
        12           W1  tau(  12) = (   2.7487273   3.1739569  14.4886529  )

     number of k points=    20  Fermi-Dirac smearing, width (Ry)=  0.0110
                       cart. coord. in units 2pi/alat
        k(    1) = (   0.0000000   0.0000000   0.0000000), wk =   0.0555556
        k(    2) = (   0.0000000   0.0350071   0.0000000), wk =   0.1111111
        k(    3) = (   0.0000000   0.0700143   0.0000000), wk =   0.1111111
        k(    4) = (   0.0000000  -0.1050214   0.0000000), wk =   0.0555556
        k(    5) = (   0.0303171   0.0175036   0.0000000), wk =   0.1111111
        k(    6) = (   0.0303171   0.0525107   0.0000000), wk =   0.1111111
        k(    7) = (   0.0303171   0.0875178   0.0000000), wk =   0.1111111
        k(    8) = (   0.0303171  -0.0875178   0.0000000), wk =   0.1111111
        k(    9) = (   0.0303171  -0.0525107   0.0000000), wk =   0.1111111
        k(   10) = (   0.0303171  -0.0175036   0.0000000), wk =   0.1111111
        k(   11) = (   0.0606341   0.0350071   0.0000000), wk =   0.1111111
        k(   12) = (   0.0606341   0.0700143   0.0000000), wk =   0.1111111
        k(   13) = (   0.0606341   0.1050214   0.0000000), wk =   0.1111111
        k(   14) = (   0.0606341  -0.0700143   0.0000000), wk =   0.1111111
        k(   15) = (   0.0606341  -0.0350071   0.0000000), wk =   0.1111111
        k(   16) = (   0.0606341   0.0000000   0.0000000), wk =   0.1111111
        k(   17) = (  -0.0909512  -0.0525107   0.0000000), wk =   0.0555556
        k(   18) = (  -0.0909512  -0.0175036   0.0000000), wk =   0.1111111
        k(   19) = (  -0.0909512   0.0175036   0.0000000), wk =   0.1111111
        k(   20) = (  -0.0909512  -0.1575321   0.0000000), wk =   0.0555556

     Largest allocated arrays     est. size (Mb)     dimensions
     Largest temporary arrays     est. size (Mb)     dimensions

     Initial potential from superposition of free atoms
     Check: negative starting charge=   -0.195089

     starting charge  158.68793, renormalised to  159.00000

     negative rho (up, down):  1.955E-01 0.000E+00

     *
     * You are using vdW-DF for exchange-correlation in this calculation.
     * Please cite the following three references that made this development
     * possible:
     *
     *   M. Dion, H. Rydberg, E. Schroder, D. C. Langreth, and
     *   B. I. Lundqvist, Phys. Rev. Lett. 92, 246401 (2004).
     *
     *   T. Thonhauser, V. R. Cooper, S. Li, A. Puzder, P. Hyldgaard, and
     *   D. C. Langreth, Phys. Rev. B 76, 125112 (2007).
     *
     *   G. Roman-Perez and J. M. Soler, Phys. Rev. Lett. 103, 096102 (2009).
     *
     *
     * If you are using vdW-DF2, please also cite:
     *
     *   K. Lee, E. D. Murray, L. Kong, B. I. Lundqvist, and
     *   D. C. Langreth, Phys. Rev. B 82, 081101(R) (2010).
     *
     *
     * If you are calculating the stress with vdW-DF, please also cite:
     *
     *   R. Sabatini, E. Kucukbenli, B. Kolb, T. Thonhauser, and
     *   S. de Gironcoli, J. Phys.: Condens. Matter 24, 424209 (2012).
     *

     Carrying out vdW-DF run using the following parameters:

     Nqs =      20    Nr_points =    1024   r_max =   100.000
     q_mesh =
               0.00001000     0.04494208     0.09755937     0.15916263
               0.23128650     0.31572767     0.41458969     0.53033537
               0.66584808     0.82450364     1.01025438     1.22772762
               1.48234092     1.78043706     2.12944203     2.53805004
               3.01644009     3.57652955     4.23227104     5.00000000

     Gradients computed in reciprocal space

     Adding external electric field

     Computed dipole along edir(3) :
        Dipole               -0.0000 Ry au,         -0.0000 Debye
        Dipole field         -0.0000 Ry au

        Potential amp.        0.0000 Ry
        Total length         45.1199 bohr

     Starting wfc are  129 randomized atomic wfcs

     Self-consistent Calculation

     iteration #  1     ecut=    36.75 Ry     beta=0.10
     Davidson diagonalization with overlap
     ethr =  1.00E-02,  avg # of iterations =  2.2

[...]

     total energy              =   -1791.69624206 Ry
     Harris-Foulkes estimate   =   -1793.42455176 Ry
     estimated scf accuracy    <       9.58534554 Ry

[...]

     End of self-consistent calculation

          k = 0.0000 0.0000 0.0000 ( 16187 PWs)   bands (ev):

   -72.7390 -72.6599 -72.6599 -63.0206 -62.9496 -62.9494 -62.9372 -62.9262
   -62.8741 -62.8737 -62.8712 -62.8709 -37.2526 -37.2525 -37.1906 -37.1268
   -37.1253 -37.1252 -37.0713 -37.0712 -37.0501 -36.9437 -36.8600 -36.7593
   -36.7566 -36.7563 -36.7507 -36.7505 -36.7458 -36.6795 -36.6697 -36.6696
   -36.6290 -36.6289 -36.5661 -36.5484 -36.5468 -36.5371 -36.5369 -36.5292
   -36.5290 -36.5254 -36.4666 -36.4665 -36.3723 -36.3722 -36.3608 -36.3607
    -5.4060  -3.7977  -2.7393  -2.4411  -2.4411  -2.1001  -2.1000  -1.9881
    -1.6755  -1.5436  -1.5435  -1.4434  -1.4434  -1.3288  -1.0786  -0.5413
    -0.5412  -0.0799   0.4676   0.6358   0.6358   0.7830   1.0005   1.0939
     1.2365   1.3261   1.3261   1.4718   1.4719   1.5294   1.5294   1.5793
     1.5794   1.6182   1.6848   1.6848   1.8633   2.1132   2.1817   2.1818
     2.6013   2.7345   2.7347   3.0107   3.0108   3.1766   3.2782   3.2782
     3.4415   3.4417   3.5440   3.5441   3.6278   3.9632   4.0511   4.1552
     4.1552   4.1811   4.2282   4.3936   4.3936

[...]

          k =-0.0910-0.0525 0.0000 ( 16232 PWs)   bands (ev):

[...]

     the Fermi energy is     1.3106 ev

!    total energy              =   -1792.78588286 Ry
     Harris-Foulkes estimate   =   -1792.78588347 Ry
     estimated scf accuracy    <       0.00000094 Ry

     The total energy is the sum of the following terms:

     one-electron contribution =  -14670.94460666 Ry
     hartree contribution      =    7320.97926514 Ry
     xc contribution           =    -310.56139244 Ry
     ewald contribution        =    5867.88236113 Ry
     electric field correction =       0.00000000 Ry
     smearing contrib. (-TS)   =      -0.14151002 Ry

     convergence has been achieved in  22 iterations

 BEEF-vdW xc energy contributions
           1 :   -269.990759261157
           2 :    245.425482312542
           3 :   -203.921229722544
           4 :    157.141150964986
           5 :   -115.809173466637
           6 :    85.9095438053349
           7 :   -67.6838322301128
           8 :    57.3422650644653
           9 :   -50.0856329941444
          10 :    42.6665043500234
          11 :   -34.3712629844615
          12 :    26.3665887534144
          13 :   -20.2207888195913
[...]
     MD5 check sum: 22b79981416ebb76fdaf5b1b8640f6fb
     Pseudo is Ultrasoft + core correction, Zval = 13.0
     Generated by new atomic code, or converted to UPF format
     Using radial grid of  853 points,  6 beta functions with:
                l(1) =   0
                l(2) =   0
                l(3) =   1
                l(4) =   1
                l(5) =   2
                l(6) =   2
     Q(r) pseudized with  8 coefficients,  rinner =    1.100   1.100   1.100
                                                       1.100   1.100

     PseudoPot. # 2 for W  read from file:
     /afs/slac.stanford.edu/u/if/mamunm/psp/gbrv1.5pbe/W.UPF
     MD5 check sum: 9c083fa34c2a2ea0f02f1f893e16e1c8
     Pseudo is Ultrasoft + core correction, Zval = 14.0
     Generated by new atomic code, or converted to UPF format
     Using radial grid of  923 points,  8 beta functions with:
                l(1) =   0
                l(2) =   0
                l(3) =   0
                l(4) =   1
                l(5) =   1
                l(6) =   2
                l(7) =   2
                l(8) =   3
     Q(r) pseudized with  6 coefficients,  rinner =    1.350   1.350   1.350
                                                       1.350   1.350   1.350
                                                       1.350

     vdW kernel table read from file vdW_kernel_table
     MD5 check sum: 095c7af220d748ca6e76c0b4c6cfb241

     atomic species   valence    mass     pseudopotential
        V1            13.00    50.94150     V ( 1.00)
        W1            14.00   183.84000     W ( 1.00)

     No symmetry found

   Cartesian axes

     site n.     atom                  positions (alat units)
         1           V1  tau(   1) = (   0.0000000   0.0000000  10.0000000  )
         2           V1  tau(   2) = (  -1.3743637   2.3804677  10.0000000  )
         3           V1  tau(   3) = (   1.3743637   2.3804677  10.0000000  )
         4           W1  tau(   4) = (   2.7487273   0.0000000  10.0000000  )
         5           V1  tau(   5) = (   2.7487273   1.5869785  12.2443265  )
         6           V1  tau(   6) = (   1.3743637   3.9674462  12.2443265  )
         7           V1  tau(   7) = (  -1.3743637   3.9674462  12.2443265  )
         8           W1  tau(   8) = (   0.0000000   1.5869785  12.2443265  )
         9           V1  tau(   9) = (  -0.0000338   3.1964224  14.5184591  )
        10           V1  tau(  10) = (   1.3937683   0.7822129  14.5185344  )
        11           V1  tau(  11) = (   4.1036399   0.7822210  14.5184582  )
        12           W1  tau(  12) = (   2.7486233   3.1738527  14.3889902  )

     number of k points=    20  Fermi-Dirac smearing, width (Ry)=  0.0110
                       cart. coord. in units 2pi/alat
        k(    1) = (   0.0000000   0.0000000   0.0000000), wk =   0.0555556
        k(    2) = (   0.0000000   0.0350071   0.0000000), wk =   0.1111111
        k(    3) = (   0.0000000   0.0700143   0.0000000), wk =   0.1111111
        k(    4) = (   0.0000000  -0.1050214   0.0000000), wk =   0.0555556
        k(    5) = (   0.0303171   0.0175036   0.0000000), wk =   0.1111111
        k(    6) = (   0.0303171   0.0525107   0.0000000), wk =   0.1111111
        k(    7) = (   0.0303171   0.0875178   0.0000000), wk =   0.1111111
        k(    8) = (   0.0303171  -0.0875178   0.0000000), wk =   0.1111111
        k(    9) = (   0.0303171  -0.0525107   0.0000000), wk =   0.1111111
        k(   10) = (   0.0303171  -0.0175036   0.0000000), wk =   0.1111111
        k(   11) = (   0.0606341   0.0350071   0.0000000), wk =   0.1111111
        k(   12) = (   0.0606341   0.0700143   0.0000000), wk =   0.1111111
        k(   13) = (   0.0606341   0.1050214   0.0000000), wk =   0.1111111
        k(   14) = (   0.0606341  -0.0700143   0.0000000), wk =   0.1111111
        k(   15) = (   0.0606341  -0.0350071   0.0000000), wk =   0.1111111
        k(   16) = (   0.0606341   0.0000000   0.0000000), wk =   0.1111111
        k(   17) = (  -0.0909512  -0.0525107   0.0000000), wk =   0.0555556
        k(   18) = (  -0.0909512  -0.0175036   0.0000000), wk =   0.1111111
        k(   19) = (  -0.0909512   0.0175036   0.0000000), wk =   0.1111111
        k(   20) = (  -0.0909512  -0.1575321   0.0000000), wk =   0.0555556

     Largest allocated arrays     est. size (Mb)     dimensions
     Largest temporary arrays     est. size (Mb)     dimensions

     Initial potential from superposition of free atoms
     Check: negative starting charge=   -0.195366

     starting charge  158.68793, renormalised to  159.00000

[...]

     *
     * You are using vdW-DF for exchange-correlation in this calculation.
     * Please cite the following three references that made this development
     * possible:
     *
     *   M. Dion, H. Rydberg, E. Schroder, D. C. Langreth, and
     *   B. I. Lundqvist, Phys. Rev. Lett. 92, 246401 (2004).
     *
     *   T. Thonhauser, V. R. Cooper, S. Li, A. Puzder, P. Hyldgaard, and
     *   D. C. Langreth, Phys. Rev. B 76, 125112 (2007).
     *
     *   G. Roman-Perez and J. M. Soler, Phys. Rev. Lett. 103, 096102 (2009).
     *
     *
     * If you are using vdW-DF2, please also cite:
     *
     *   K. Lee, E. D. Murray, L. Kong, B. I. Lundqvist, and
     *   D. C. Langreth, Phys. Rev. B 82, 081101(R) (2010).
     *
     *
     * If you are calculating the stress with vdW-DF, please also cite:
     *
     *   R. Sabatini, E. Kucukbenli, B. Kolb, T. Thonhauser, and
     *   S. de Gironcoli, J. Phys.: Condens. Matter 24, 424209 (2012).
     *

     Carrying out vdW-DF run using the following parameters:

     Nqs =      20    Nr_points =    1024   r_max =   100.000
     q_mesh =
               0.00001000     0.04494208     0.09755937     0.15916263
               0.23128650     0.31572767     0.41458969     0.53033537
               0.66584808     0.82450364     1.01025438     1.22772762
               1.48234092     1.78043706     2.12944203     2.53805004
               3.01644009     3.57652955     4.23227104     5.00000000

     Gradients computed in reciprocal space

[...]

     Starting wfc are  129 randomized atomic wfcs

     Self-consistent Calculation

[...]

     total energy              =   -1792.78756832 Ry
     Harris-Foulkes estimate   =   -1792.78756820 Ry
     estimated scf accuracy    <       0.00000213 Ry

     iteration # 23     ecut=    36.75 Ry     beta=0.10
     Davidson diagonalization with overlap
     ethr =  1.18E-09,  avg # of iterations =  1.8

[...]

     negative rho (up, down):  2.062E-01 0.000E+00

     Adding external electric field

     Computed dipole along edir(3) :
        Dipole                0.0170 Ry au,          0.0433 Debye
        Dipole field          0.0000 Ry au

        Potential amp.       -0.0045 Ry
        Total length         45.1199 bohr

     End of self-consistent calculation

[...]

          k = 0.0606 0.0000 0.0000 ( 16286 PWs)   bands (ev):

[...]

          k =-0.0910-0.1575 0.0000 ( 16232 PWs)   bands (ev):

   -72.7431 -72.6362 -72.5961 -62.9655 -62.9449 -62.9181 -62.8981 -62.8878
   -62.8789 -62.8692 -62.8588 -62.8495 -37.1239 -37.0750 -37.0710 -37.0329
   -36.9769 -36.9637 -36.9472 -36.9356 -36.8727 -36.8707 -36.8267 -36.8222
   -36.7408 -36.7304 -36.7021 -36.7021 -36.6926 -36.6868 -36.6774 -36.6740
   -36.6675 -36.6569 -36.6401 -36.6345 -36.6224 -36.6141 -36.5845 -36.5629
   -36.5498 -36.5179 -36.5028 -36.4680 -36.4646 -36.4420 -36.3976 -36.3760
    -3.8189  -3.4655  -2.4709  -2.0067  -1.6688  -1.6630  -1.4028  -1.2693
    -1.2078  -1.0026  -0.8519  -0.5921  -0.5693  -0.4705  -0.4034  -0.1958
    -0.1216  -0.0544   0.0305   0.2338   0.2695   0.3542   0.3704   0.5648
     0.6774   0.7419   0.7475   0.9051   0.9275   0.9472   1.0288   1.1375
     1.2686   1.3756   1.3921   1.4383   1.4628   1.5099   1.9031   1.9834
     2.1713   2.3089   2.3886   2.4016   2.5370   2.6297   2.6394   2.8038
     2.8384   2.9363   2.9881   3.0322   3.1304   3.1315   3.2684   3.4288
     3.5004   3.5700   3.8484   3.8897   3.9517

     the Fermi energy is     1.3329 ev

!    total energy              =   -1792.78756795 Ry
     Harris-Foulkes estimate   =   -1792.78756839 Ry
     estimated scf accuracy    <       0.00000060 Ry

     The total energy is the sum of the following terms:

     one-electron contribution =  -14679.15620710 Ry
     hartree contribution      =    7325.21923728 Ry
     xc contribution           =    -310.58395639 Ry
     ewald contribution        =    5871.87507226 Ry
     electric field correction =       0.00000084 Ry
     smearing contrib. (-TS)   =      -0.14171483 Ry

     convergence has been achieved in  23 iterations

 BEEF-vdW xc energy contributions
           1 :   -270.012855674665
           2 :    245.452800248746
           3 :   -203.957024081713
           4 :    157.182905356044
           5 :   -115.845871405335
           6 :    85.9258052020332
           7 :   -67.6716255514564
           8 :    57.3101721649506
           9 :   -50.0548818758911
          10 :    42.6546916239792
          11 :   -34.3780860046845
          12 :    26.3747093283654
          13 :   -20.2102931398795
          14 :    16.5991182702737
          15 :   -15.0156903229089
          16 :    14.2061112669206
          17 :   -13.0832471830557
          18 :    11.3430797161619
          19 :   -9.44511287954975
          20 :    8.08164195965327
          21 :   -7.59349779598938
          22 :    7.74730348766286
          23 :   -7.96920748673625
          24 :    7.78927692183652
          25 :   -7.14637526395398
          26 :    6.35597936408391
          27 :   -5.81543370387158
          28 :    5.69245825093225
          29 :   -5.82378513058728
          30 :    5.87308252735880
          31 :   -26.4432428545654
          32 :   -19.3452327495488

     Forces acting on atoms (Ry/au):

     negative rho (up, down):  2.062E-01 0.000E+00
     atom    1 type  1   force =     0.00000113   -0.00282602   -0.00373649
     atom    2 type  1   force =    -0.00244717    0.00141467   -0.00373837
     atom    3 type  1   force =     0.00244540    0.00141225   -0.00374843
     atom    4 type  2   force =    -0.00000821   -0.00000269    0.01485165
     atom    5 type  1   force =    -0.00000275   -0.00554843   -0.00658899
     atom    6 type  1   force =    -0.00480268    0.00277508   -0.00659571
     atom    7 type  1   force =     0.00480382    0.00277810   -0.00657722
     atom    8 type  2   force =     0.00002436    0.00001096    0.01634844
     atom    9 type  1   force =    -0.00001260   -0.00104457    0.00019908
     atom   10 type  1   force =    -0.00090904    0.00051132    0.00018884
     atom   11 type  1   force =     0.00089883    0.00052039    0.00020280
     atom   12 type  2   force =     0.00000892   -0.00000106   -0.00080561

     Total force =     0.027934     Total SCF correction =     0.001124

     entering subroutine stress ...

     negative rho (up, down):  2.062E-01 0.000E+00
          total   stress  (Ry/bohr**3)                   (kbar)     P=  -29.24
  -0.00028209   0.00000001  -0.00000001        -41.50      0.00     -0.00
   0.00000001  -0.00028210  -0.00000001          0.00    -41.50     -0.00
  -0.00000001  -0.00000001  -0.00003212         -0.00     -0.00     -4.73

 !ASE

     Writing output data file calc.save

     General routines

     Parallel routines

   This run was terminated on:   4:38: 2  28Dec2018

   JOB DONE.
Job  /afs/slac/g/suncat/bin/suncat-tsmpirun -x LD_LIBRARY_PATH -wdir /scratch/qe111297_aNy2M pw.x -in pw.inp

TID   HOST_NAME   COMMAND_LINE            STATUS            TERMINATION_TIME
00000 suncat0238 pw.x -in pw.inp   Done                     12/28/2018 04:38:02
00001 suncat0238 pw.x -in pw.inp   Done                     12/28/2018 04:38:02
00002 suncat0238 pw.x -in pw.inp   Done                     12/28/2018 04:38:02
00003 suncat0238 pw.x -in pw.inp   Done                     12/28/2018 04:38:02
00004 suncat0238 pw.x -in pw.inp   Done                     12/28/2018 04:38:02
00005 suncat0238 pw.x -in pw.inp   Done                     12/28/2018 04:38:02
00006 suncat0238 pw.x -in pw.inp   Done                     12/28/2018 04:38:02
00007 suncat0238 pw.x -in pw.inp   Done                     12/28/2018 04:38:02
00008 suncat0237 pw.x -in pw.inp   Done                     12/28/2018 04:38:02
00009 suncat0237 pw.x -in pw.inp   Done                     12/28/2018 04:38:02
00010 suncat0237 pw.x -in pw.inp   Done                     12/28/2018 04:38:02
00011 suncat0237 pw.x -in pw.inp   Done                     12/28/2018 04:38:02
00012 suncat0237 pw.x -in pw.inp   Done                     12/28/2018 04:38:02
00013 suncat0237 pw.x -in pw.inp   Done                     12/28/2018 04:38:02
00014 suncat0237 pw.x -in pw.inp   Done                     12/28/2018 04:38:02
00015 suncat0237 pw.x -in pw.inp   Done                     12/28/2018 04:38:02
00016 suncat0236 pw.x -in pw.inp   Done                     12/28/2018 04:38:02
00017 suncat0236 pw.x -in pw.inp   Done                     12/28/2018 04:38:02
00018 suncat0236 pw.x -in pw.inp   Done                     12/28/2018 04:38:02
00019 suncat0236 pw.x -in pw.inp   Done                     12/28/2018 04:38:02
00020 suncat0236 pw.x -in pw.inp   Done                     12/28/2018 04:38:02
00021 suncat0236 pw.x -in pw.inp   Done                     12/28/2018 04:38:02
00022 suncat0236 pw.x -in pw.inp   Done                     12/28/2018 04:38:02
00023 suncat0236 pw.x -in pw.inp   Done                     12/28/2018 04:38:02
00024 suncat0235 pw.x -in pw.inp   Done                     12/28/2018 04:38:02
00025 suncat0235 pw.x -in pw.inp   Done                     12/28/2018 04:38:02
00026 suncat0235 pw.x -in pw.inp   Done                     12/28/2018 04:38:02
00027 suncat0235 pw.x -in pw.inp   Done                     12/28/2018 04:38:02
00028 suncat0235 pw.x -in pw.inp   Done                     12/28/2018 04:38:02
00029 suncat0235 pw.x -in pw.inp   Done                     12/28/2018 04:38:02
00030 suncat0235 pw.x -in pw.inp   Done                     12/28/2018 04:38:02
00031 suncat0235 pw.x -in pw.inp   Done                     12/28/2018 04:38:02
00032 suncat0218 pw.x -in pw.inp   Done                     12/28/2018 04:38:02
00033 suncat0218 pw.x -in pw.inp   Done                     12/28/2018 04:38:02
00034 suncat0218 pw.x -in pw.inp   Done                     12/28/2018 04:38:02
00035 suncat0218 pw.x -in pw.inp   Done                     12/28/2018 04:38:02
00036 suncat0218 pw.x -in pw.inp   Done                     12/28/2018 04:38:02
00037 suncat0218 pw.x -in pw.inp   Done                     12/28/2018 04:38:02
00038 suncat0218 pw.x -in pw.inp   Done                     12/28/2018 04:38:02
00039 suncat0218 pw.x -in pw.inp   Done                     12/28/2018 04:38:02
00040 suncat0212 pw.x -in pw.inp   Done                     12/28/2018 04:38:02
00041 suncat0212 pw.x -in pw.inp   Done                     12/28/2018 04:38:02
00042 suncat0212 pw.x -in pw.inp   Done                     12/28/2018 04:38:02
00043 suncat0212 pw.x -in pw.inp   Done                     12/28/2018 04:38:02
00044 suncat0212 pw.x -in pw.inp   Done                     12/28/2018 04:38:02
00045 suncat0212 pw.x -in pw.inp   Done                     12/28/2018 04:38:02
00046 suncat0212 pw.x -in pw.inp   Done                     12/28/2018 04:38:02
00047 suncat0212 pw.x -in pw.inp   Done                     12/28/2018 04:38:02
00048 suncat0211 pw.x -in pw.inp   Done                     12/28/2018 04:38:02
00049 suncat0211 pw.x -in pw.inp   Done                     12/28/2018 04:38:02
00050 suncat0211 pw.x -in pw.inp   Done                     12/28/2018 04:38:02
00051 suncat0211 pw.x -in pw.inp   Done                     12/28/2018 04:38:02
00052 suncat0211 pw.x -in pw.inp   Done                     12/28/2018 04:38:02
00053 suncat0211 pw.x -in pw.inp   Done                     12/28/2018 04:38:02
00054 suncat0211 pw.x -in pw.inp   Done                     12/28/2018 04:38:02
00055 suncat0211 pw.x -in pw.inp   Done                     12/28/2018 04:38:02
00056 suncat0208 pw.x -in pw.inp   Done                     12/28/2018 04:38:02
00057 suncat0208 pw.x -in pw.inp   Done                     12/28/2018 04:38:02
00058 suncat0208 pw.x -in pw.inp   Done                     12/28/2018 04:38:02
00059 suncat0208 pw.x -in pw.inp   Done                     12/28/2018 04:38:02
00060 suncat0208 pw.x -in pw.inp   Done                     12/28/2018 04:38:02
00061 suncat0208 pw.x -in pw.inp   Done                     12/28/2018 04:38:02
00062 suncat0208 pw.x -in pw.inp   Done                     12/28/2018 04:38:02
00063 suncat0208 pw.x -in pw.inp   Done                     12/28/2018 04:38:02