     Program PWSCF v.5.1rc2 (svn rev. 11289) starts on  2Jan2019 at 14:11:53

     Current dimensions of program PWSCF are:
     Max number of different atomic species (ntypx) = 10
     Max number of k-points (npk) =  40000
     Max angular momentum in pseudopotentials (lmaxx) =  3
     Presently stress not available with electric field

     IMPORTANT: XC functional enforced from input :
     Exchange-correlation      = BEEF-VDW ( 1  4 27 13 2)
     Any further DFT definition will be discarded
     Please, verify this is what you really want

     Subspace diagonalization in iterative solution of the eigenvalue problem:
     a serial algorithm will be used

     bravais-lattice index     =            0
     lattice parameter (alat)  =       1.8897  a.u.
     unit-cell volume          =    6696.7467 (a.u.)^3
     number of atoms/cell      =           12
     number of atomic types    =            2
     number of electrons       =       138.00
     number of Kohn-Sham states=           99
     kinetic-energy cutoff     =      36.7493  Ry
     charge density cutoff     =     367.4932  Ry
     convergence threshold     =      1.0E-06
     mixing beta               =       0.1000
     number of iterations used =           10  plain     mixing
     Exchange-correlation      = BEEF-VDW ( 1  4 27 13 2)
     nstep                     =           50

     celldm(1)=   1.889726  celldm(2)=   0.000000  celldm(3)=   0.000000
     celldm(4)=   0.000000  celldm(5)=   0.000000  celldm(6)=   0.000000

     crystal axes: (cart. coord. in units of alat)
               a(1) = (   6.706614   0.000000   0.000000 )
               a(2) = (  -3.353307   5.808098   0.000000 )
               a(3) = (   0.000000   0.000000  25.475927 )

     reciprocal axes: (cart. coord. in units 2 pi/alat)
               b(1) = (  0.149107  0.086087  0.000000 )
               b(2) = (  0.000000  0.172173  0.000000 )
               b(3) = (  0.000000  0.000000  0.039253 )

     PseudoPot. # 1 for Y  read from file:
     /afs/slac.stanford.edu/u/if/mamunm/psp/gbrv1.5pbe/Y.UPF
     MD5 check sum: d034151ed7554c50b6e82763ed42c788
     Pseudo is Ultrasoft + core correction, Zval = 11.0
     Generated by new atomic code, or converted to UPF format
     Using radial grid of  885 points,  6 beta functions with:
                l(1) =   0
                l(2) =   0
                l(3) =   1
                l(4) =   1
                l(5) =   2
                l(6) =   2
     Q(r) pseudized with  8 coefficients,  rinner =    1.200   1.200   1.200
                                                       1.200   1.200

     PseudoPot. # 2 for V  read from file:
     /afs/slac.stanford.edu/u/if/mamunm/psp/gbrv1.5pbe/V.UPF
     MD5 check sum: 22b79981416ebb76fdaf5b1b8640f6fb
     Pseudo is Ultrasoft + core correction, Zval = 13.0
     Generated by new atomic code, or converted to UPF format
     Using radial grid of  853 points,  6 beta functions with:
                l(1) =   0
                l(2) =   0
                l(3) =   1
                l(4) =   1
                l(5) =   2
                l(6) =   2
     Q(r) pseudized with  8 coefficients,  rinner =    1.100   1.100   1.100
                                                       1.100   1.100

     vdW kernel table read from file vdW_kernel_table
     MD5 check sum: 095c7af220d748ca6e76c0b4c6cfb241

     atomic species   valence    mass     pseudopotential
        Y1            11.00    88.90584     Y ( 1.00)
        V1            13.00    50.94150     V ( 1.00)

     No symmetry found

   Cartesian axes

     site n.     atom                  positions (alat units)
         1           Y1  tau(   1) = (   0.0000000   0.0000000  10.0000000  )
         2           Y1  tau(   2) = (  -1.6766535   2.9040491  10.0000000  )
         3           Y1  tau(   3) = (   1.6766535   2.9040491  10.0000000  )
         4           V1  tau(   4) = (   3.3533071   0.0000000  10.0000000  )
         5           Y1  tau(   5) = (   3.3533071   1.9360327  12.7379637  )
         6           Y1  tau(   6) = (   1.6766535   4.8400818  12.7379637  )
         7           Y1  tau(   7) = (  -1.6766535   4.8400818  12.7379637  )
         8           V1  tau(   8) = (   0.0000000   1.9360327  12.7379637  )
         9           Y1  tau(   9) = (  -0.0000000   3.8720655  15.4759275  )
        10           Y1  tau(  10) = (   1.6766535   0.9680164  15.4759275  )
        11           Y1  tau(  11) = (   5.0299606   0.9680164  15.4759275  )
        12           V1  tau(  12) = (   3.3533071   3.8720655  15.4759275  )

     number of k points=    20  Fermi-Dirac smearing, width (Ry)=  0.0110
                       cart. coord. in units 2pi/alat
        k(    1) = (   0.0000000   0.0000000   0.0000000), wk =   0.0555556
        k(    2) = (   0.0000000   0.0286956   0.0000000), wk =   0.1111111
        k(    3) = (   0.0000000   0.0573911   0.0000000), wk =   0.1111111
        k(    4) = (   0.0000000  -0.0860867   0.0000000), wk =   0.0555556
        k(    5) = (   0.0248511   0.0143478   0.0000000), wk =   0.1111111
        k(    6) = (   0.0248511   0.0430433   0.0000000), wk =   0.1111111
        k(    7) = (   0.0248511   0.0717389   0.0000000), wk =   0.1111111
        k(    8) = (   0.0248511  -0.0717389   0.0000000), wk =   0.1111111
        k(    9) = (   0.0248511  -0.0430433   0.0000000), wk =   0.1111111
        k(   10) = (   0.0248511  -0.0143478   0.0000000), wk =   0.1111111
        k(   11) = (   0.0497022   0.0286956   0.0000000), wk =   0.1111111
        k(   12) = (   0.0497022   0.0573911   0.0000000), wk =   0.1111111
        k(   13) = (   0.0497022   0.0860867   0.0000000), wk =   0.1111111
        k(   14) = (   0.0497022  -0.0573911   0.0000000), wk =   0.1111111
        k(   15) = (   0.0497022  -0.0286956   0.0000000), wk =   0.1111111
        k(   16) = (   0.0497022   0.0000000   0.0000000), wk =   0.1111111
        k(   17) = (  -0.0745533  -0.0430433   0.0000000), wk =   0.0555556
        k(   18) = (  -0.0745533  -0.0143478   0.0000000), wk =   0.1111111
        k(   19) = (  -0.0745533   0.0143478   0.0000000), wk =   0.1111111
        k(   20) = (  -0.0745533  -0.1291300   0.0000000), wk =   0.0555556

     Largest allocated arrays     est. size (Mb)     dimensions
     Largest temporary arrays     est. size (Mb)     dimensions

     Initial potential from superposition of free atoms
     Check: negative starting charge=   -0.003392

     starting charge  137.95610, renormalised to  138.00000

     negative rho (up, down):  3.393E-03 0.000E+00

     *
     * You are using vdW-DF for exchange-correlation in this calculation.
     * Please cite the following three references that made this development
     * possible:
     *
     *   M. Dion, H. Rydberg, E. Schroder, D. C. Langreth, and
     *   B. I. Lundqvist, Phys. Rev. Lett. 92, 246401 (2004).
     *
     *   T. Thonhauser, V. R. Cooper, S. Li, A. Puzder, P. Hyldgaard, and
     *   D. C. Langreth, Phys. Rev. B 76, 125112 (2007).
     *
     *   G. Roman-Perez and J. M. Soler, Phys. Rev. Lett. 103, 096102 (2009).
     *
     *
     * If you are using vdW-DF2, please also cite:
     *
     *   K. Lee, E. D. Murray, L. Kong, B. I. Lundqvist, and
     *   D. C. Langreth, Phys. Rev. B 82, 081101(R) (2010).
     *
     *
     * If you are calculating the stress with vdW-DF, please also cite:
     *
     *   R. Sabatini, E. Kucukbenli, B. Kolb, T. Thonhauser, and
     *   S. de Gironcoli, J. Phys.: Condens. Matter 24, 424209 (2012).
     *

     Carrying out vdW-DF run using the following parameters:

     Nqs =      20    Nr_points =    1024   r_max =   100.000
     q_mesh =
               0.00001000     0.04494208     0.09755937     0.15916263
               0.23128650     0.31572767     0.41458969     0.53033537
               0.66584808     0.82450364     1.01025438     1.22772762
               1.48234092     1.78043706     2.12944203     2.53805004
               3.01644009     3.57652955     4.23227104     5.00000000

     Gradients computed in reciprocal space

     Adding external electric field

     Computed dipole along edir(3) :
        Dipole                0.0000 Ry au,          0.0000 Debye
        Dipole field          0.0000 Ry au

        Potential amp.       -0.0000 Ry
        Total length         46.9390 bohr

     Starting wfc are  147 randomized atomic wfcs

     Self-consistent Calculation

     iteration #  1     ecut=    36.75 Ry     beta=0.10
     Davidson diagonalization with overlap
     ethr =  1.00E-02,  avg # of iterations =  2.0

[...]

     total energy              =   -1278.79377250 Ry
     Harris-Foulkes estimate   =   -1280.81339258 Ry
     estimated scf accuracy    <      11.21542526 Ry

[...]

     iteration # 16     ecut=    36.75 Ry     beta=0.10
     Davidson diagonalization with overlap
     c_bands:  1 eigenvalues not converged
     c_bands:  1 eigenvalues not converged
     ethr =  1.05E-06,  avg # of iterations = 12.3

[...]

     End of self-consistent calculation

          k = 0.0000 0.0000 0.0000 ( 25233 PWs)   bands (ev):

   -63.3153 -63.2927 -63.2924 -42.0404 -42.0386 -41.9683 -41.9683 -41.9678
   -41.9678 -41.4932 -41.4227 -41.4227 -37.1349 -37.1346 -37.1267 -37.0880
   -37.0880 -37.0813 -37.0813 -37.0811 -37.0811 -22.4072 -22.3776 -22.1590
   -22.1261 -22.1261 -22.0843 -22.0843 -22.0614 -22.0322 -22.0322 -21.9727
   -21.9727 -21.8403 -21.7365 -21.7255 -21.6757 -21.6757 -21.6667 -21.6667
   -21.5277 -21.5277 -21.4090 -21.3619 -21.3619 -21.2108 -21.1535 -21.1535
    -3.4901  -2.4916  -1.5265  -1.0763  -0.9582  -0.6163  -0.5469  -0.5469
    -0.4880  -0.4880  -0.1629  -0.1629   0.0514   0.0867   0.0867   0.4861
     0.6023   0.6023   1.0695   1.0962   1.2607   1.2607   1.4771   1.5196
     1.7181   1.7206   1.7206   1.8834   1.8834   1.8943   2.1208   2.1208
     2.2143   2.2143   2.2337   2.2423   2.2423   2.6168   2.6168   2.6432
     2.6432   2.6659   2.8287   2.8287   3.1034   3.1034   3.1969   3.2926
     4.0500   4.1551   4.3757

[...]

          k =-0.0746-0.0430 0.0000 ( 25250 PWs)   bands (ev):

[...]

     the Fermi energy is     1.0293 ev

!    total energy              =   -1280.11604691 Ry
     Harris-Foulkes estimate   =   -1280.11604808 Ry
     estimated scf accuracy    <       0.00000076 Ry

     The total energy is the sum of the following terms:

     one-electron contribution =   -6960.08295485 Ry
     hartree contribution      =    3471.73420950 Ry
     xc contribution           =    -315.26029544 Ry
     ewald contribution        =    2523.64503378 Ry
     electric field correction =       0.00000001 Ry
     smearing contrib. (-TS)   =      -0.15203991 Ry

     convergence has been achieved in  24 iterations

 BEEF-vdW xc energy contributions
           1 :   -274.412155786445
           2 :    246.401924786184
           3 :   -198.495658381943
           4 :    143.062409985580
           5 :   -91.5250815226859
           6 :    50.6848058082884
           7 :   -22.1019532396247
           8 :    3.99341469057157
           9 :    6.15779962535794
          10 :   -9.99457655426403
          11 :    8.27629483298318
          12 :   -1.89373026997305
[...]
               b(1) = (  0.149107  0.086087  0.000000 )
               b(2) = (  0.000000  0.172173  0.000000 )
               b(3) = (  0.000000  0.000000  0.039253 )

     PseudoPot. # 1 for Y  read from file:
     /afs/slac.stanford.edu/u/if/mamunm/psp/gbrv1.5pbe/Y.UPF
     MD5 check sum: d034151ed7554c50b6e82763ed42c788
     Pseudo is Ultrasoft + core correction, Zval = 11.0
     Generated by new atomic code, or converted to UPF format
     Using radial grid of  885 points,  6 beta functions with:
                l(1) =   0
                l(2) =   0
                l(3) =   1
                l(4) =   1
                l(5) =   2
                l(6) =   2
     Q(r) pseudized with  8 coefficients,  rinner =    1.200   1.200   1.200
                                                       1.200   1.200

     PseudoPot. # 2 for V  read from file:
     /afs/slac.stanford.edu/u/if/mamunm/psp/gbrv1.5pbe/V.UPF
     MD5 check sum: 22b79981416ebb76fdaf5b1b8640f6fb
     Pseudo is Ultrasoft + core correction, Zval = 13.0
     Generated by new atomic code, or converted to UPF format
     Using radial grid of  853 points,  6 beta functions with:
                l(1) =   0
                l(2) =   0
                l(3) =   1
                l(4) =   1
                l(5) =   2
                l(6) =   2
     Q(r) pseudized with  8 coefficients,  rinner =    1.100   1.100   1.100
                                                       1.100   1.100

     vdW kernel table read from file vdW_kernel_table
     MD5 check sum: 095c7af220d748ca6e76c0b4c6cfb241

     atomic species   valence    mass     pseudopotential
        Y1            11.00    88.90584     Y ( 1.00)
        V1            13.00    50.94150     V ( 1.00)

     No symmetry found

   Cartesian axes

     site n.     atom                  positions (alat units)
         1           Y1  tau(   1) = (   0.0000000   0.0000000  10.0000000  )
         2           Y1  tau(   2) = (  -1.6766535   2.9040491  10.0000000  )
         3           Y1  tau(   3) = (   1.6766535   2.9040491  10.0000000  )
         4           V1  tau(   4) = (   3.3533071   0.0000000  10.0000000  )
         5           Y1  tau(   5) = (   3.3533071   1.9360327  12.7379637  )
         6           Y1  tau(   6) = (   1.6766535   4.8400818  12.7379637  )
         7           Y1  tau(   7) = (  -1.6766535   4.8400818  12.7379637  )
         8           V1  tau(   8) = (   0.0000000   1.9360327  12.7379637  )
         9           Y1  tau(   9) = (   0.0000073   3.8355353  15.4461106  )
        10           Y1  tau(  10) = (   1.6450218   0.9862767  15.4460975  )
        11           Y1  tau(  11) = (   5.0615787   0.9862633  15.4460904  )
        12           V1  tau(  12) = (   3.3533105   3.8720664  15.0905212  )

     number of k points=    20  Fermi-Dirac smearing, width (Ry)=  0.0110
                       cart. coord. in units 2pi/alat
        k(    1) = (   0.0000000   0.0000000   0.0000000), wk =   0.0555556
        k(    2) = (   0.0000000   0.0286956   0.0000000), wk =   0.1111111
        k(    3) = (   0.0000000   0.0573911   0.0000000), wk =   0.1111111
        k(    4) = (   0.0000000  -0.0860867   0.0000000), wk =   0.0555556
        k(    5) = (   0.0248511   0.0143478   0.0000000), wk =   0.1111111
        k(    6) = (   0.0248511   0.0430433   0.0000000), wk =   0.1111111
        k(    7) = (   0.0248511   0.0717389   0.0000000), wk =   0.1111111
        k(    8) = (   0.0248511  -0.0717389   0.0000000), wk =   0.1111111
        k(    9) = (   0.0248511  -0.0430433   0.0000000), wk =   0.1111111
        k(   10) = (   0.0248511  -0.0143478   0.0000000), wk =   0.1111111
        k(   11) = (   0.0497022   0.0286956   0.0000000), wk =   0.1111111
        k(   12) = (   0.0497022   0.0573911   0.0000000), wk =   0.1111111
        k(   13) = (   0.0497022   0.0860867   0.0000000), wk =   0.1111111
        k(   14) = (   0.0497022  -0.0573911   0.0000000), wk =   0.1111111
        k(   15) = (   0.0497022  -0.0286956   0.0000000), wk =   0.1111111
        k(   16) = (   0.0497022   0.0000000   0.0000000), wk =   0.1111111
        k(   17) = (  -0.0745533  -0.0430433   0.0000000), wk =   0.0555556
        k(   18) = (  -0.0745533  -0.0143478   0.0000000), wk =   0.1111111
        k(   19) = (  -0.0745533   0.0143478   0.0000000), wk =   0.1111111
        k(   20) = (  -0.0745533  -0.1291300   0.0000000), wk =   0.0555556

     Largest allocated arrays     est. size (Mb)     dimensions
     Largest temporary arrays     est. size (Mb)     dimensions

     Initial potential from superposition of free atoms
     Check: negative starting charge=   -0.003259

     starting charge  137.95610, renormalised to  138.00000

[...]

     *
     * You are using vdW-DF for exchange-correlation in this calculation.
     * Please cite the following three references that made this development
     * possible:
     *
     *   M. Dion, H. Rydberg, E. Schroder, D. C. Langreth, and
     *   B. I. Lundqvist, Phys. Rev. Lett. 92, 246401 (2004).
     *
     *   T. Thonhauser, V. R. Cooper, S. Li, A. Puzder, P. Hyldgaard, and
     *   D. C. Langreth, Phys. Rev. B 76, 125112 (2007).
     *
     *   G. Roman-Perez and J. M. Soler, Phys. Rev. Lett. 103, 096102 (2009).
     *
     *
     * If you are using vdW-DF2, please also cite:
     *
     *   K. Lee, E. D. Murray, L. Kong, B. I. Lundqvist, and
     *   D. C. Langreth, Phys. Rev. B 82, 081101(R) (2010).
     *
     *
     * If you are calculating the stress with vdW-DF, please also cite:
     *
     *   R. Sabatini, E. Kucukbenli, B. Kolb, T. Thonhauser, and
     *   S. de Gironcoli, J. Phys.: Condens. Matter 24, 424209 (2012).
     *

     Carrying out vdW-DF run using the following parameters:

     Nqs =      20    Nr_points =    1024   r_max =   100.000
     q_mesh =
               0.00001000     0.04494208     0.09755937     0.15916263
               0.23128650     0.31572767     0.41458969     0.53033537
               0.66584808     0.82450364     1.01025438     1.22772762
               1.48234092     1.78043706     2.12944203     2.53805004
               3.01644009     3.57652955     4.23227104     5.00000000

     Gradients computed in reciprocal space

[...]

     Starting wfc are  147 randomized atomic wfcs

     Self-consistent Calculation

[...]

     total energy              =   -1280.13499411 Ry
     Harris-Foulkes estimate   =   -1280.13499410 Ry
     estimated scf accuracy    <       0.00000111 Ry

     iteration # 23     ecut=    36.75 Ry     beta=0.10
     Davidson diagonalization with overlap
     ethr =  8.05E-10,  avg # of iterations =  2.1

[...]

     negative rho (up, down):  3.216E-03 0.000E+00

     Adding external electric field

     Computed dipole along edir(3) :
        Dipole                0.0402 Ry au,          0.1021 Debye
        Dipole field          0.0001 Ry au

        Potential amp.       -0.0071 Ry
        Total length         46.9390 bohr

     End of self-consistent calculation

[...]

          k = 0.0497 0.0000 0.0000 ( 25184 PWs)   bands (ev):

[...]

          k =-0.0746-0.1291 0.0000 ( 25250 PWs)   bands (ev):

   -63.2771 -63.2711 -63.1568 -42.0013 -41.9927 -41.9775 -41.9645 -41.9536
   -41.9419 -41.3200 -41.2962 -41.2722 -37.1163 -37.0916 -37.0596 -37.0594
   -37.0494 -37.0492 -36.9804 -36.9802 -36.9445 -22.2293 -22.2064 -22.0940
   -22.0474 -22.0459 -22.0035 -22.0011 -21.9794 -21.9712 -21.9450 -21.9421
   -21.9151 -21.9000 -21.8987 -21.8799 -21.8561 -21.6696 -21.6561 -21.5493
   -21.3306 -21.2953 -21.2501 -21.2479 -21.2438 -21.2351 -21.2147 -21.0273
    -2.1626  -2.1309  -1.2550  -1.2137  -0.6147  -0.3230  -0.2901  -0.1388
    -0.1020   0.0371   0.4366   0.5499   0.5725   0.6191   0.6201   0.6845
     0.7828   0.8308   0.8364   0.9147   0.9488   0.9804   1.0094   1.0577
     1.0812   1.2058   1.2746   1.3770   1.5126   1.5294   1.5888   1.7100
     1.7629   1.7777   1.8551   2.0230   2.3201   2.3542   2.4837   2.5898
     2.6372   2.9628   2.9789   3.0820   3.1245   3.1710   3.2349   3.3199
     3.3696   3.8651   3.9898

     the Fermi energy is     1.0523 ev

!    total energy              =   -1280.13499427 Ry
     Harris-Foulkes estimate   =   -1280.13499404 Ry
     estimated scf accuracy    <       0.00000041 Ry

     The total energy is the sum of the following terms:

     one-electron contribution =   -7085.12086573 Ry
     hartree contribution      =    3534.56343759 Ry
     xc contribution           =    -315.36832825 Ry
     ewald contribution        =    2585.93789831 Ry
     electric field correction =       0.00000303 Ry
     smearing contrib. (-TS)   =      -0.14713922 Ry

     convergence has been achieved in  23 iterations

 BEEF-vdW xc energy contributions
           1 :   -274.522546999630
           2 :    246.553288513593
           3 :   -198.680507246880
           4 :    143.220571697311
           5 :   -91.5875528708612
           6 :    50.6306649759117
           7 :   -21.9807702736627
           8 :    3.89250168031566
           9 :    6.17767494611792
          10 :   -9.94412214998812
          11 :    8.22701271487432
          12 :   -1.92012582439747
          13 :   -7.09871787633887
          14 :    15.9418758168361
          15 :   -21.6492505333155
          16 :    22.4413141437105
          17 :   -18.4394948845078
          18 :    11.4050040224835
          19 :   -3.73484716890329
          20 :   -2.61251965397997
          21 :    6.66707742470788
          22 :   -8.34456501262383
          23 :    7.99766574988541
          24 :   -6.05002314895785
          25 :    2.92944097744930
          26 :   0.790647691836966
          27 :   -4.30418848142386
          28 :    6.72550111778611
          29 :   -7.44149602529620
          30 :    6.42578290504980
          31 :   -26.6073947677303
          32 :   -18.3865334534968

     Forces acting on atoms (Ry/au):

     negative rho (up, down):  3.216E-03 0.000E+00
     atom    1 type  1   force =    -0.00000093    0.01502651   -0.00424010
     atom    2 type  1   force =     0.01301245   -0.00751460   -0.00424073
     atom    3 type  1   force =    -0.01301154   -0.00751398   -0.00423984
     atom    4 type  2   force =    -0.00000002    0.00000008    0.03410449
     atom    5 type  1   force =    -0.00000134   -0.00151540   -0.00803157
     atom    6 type  1   force =    -0.00131096    0.00075721   -0.00803186
     atom    7 type  1   force =     0.00131199    0.00075868   -0.00802948
     atom    8 type  2   force =    -0.00000043   -0.00000025    0.00497914
     atom    9 type  1   force =    -0.00000165   -0.00176250   -0.00044896
     atom   10 type  1   force =    -0.00152630    0.00088036   -0.00044917
     atom   11 type  1   force =     0.00152951    0.00088399   -0.00044784
     atom   12 type  2   force =    -0.00000079   -0.00000009   -0.00092410

     Total force =     0.046156     Total SCF correction =     0.000896

     entering subroutine stress ...

     negative rho (up, down):  3.216E-03 0.000E+00
          total   stress  (Ry/bohr**3)                   (kbar)     P=   -3.21
  -0.00002248   0.00000000  -0.00000000         -3.31      0.00     -0.00
   0.00000000  -0.00002248   0.00000000          0.00     -3.31      0.00
  -0.00000000   0.00000000  -0.00002045         -0.00      0.00     -3.01

 !ASE

     Writing output data file calc.save

     General routines

     Parallel routines

   This run was terminated on:  17: 8:41   2Jan2019

   JOB DONE.
Job  /afs/slac/g/suncat/bin/suncat-tsmpirun -x LD_LIBRARY_PATH -wdir /scratch/qe649456_uXeto pw.x -in pw.inp

TID   HOST_NAME   COMMAND_LINE            STATUS            TERMINATION_TIME
00000 suncat0243 pw.x -in pw.inp   Done                     01/02/2019 17:08:41
00001 suncat0243 pw.x -in pw.inp   Done                     01/02/2019 17:08:41
00002 suncat0243 pw.x -in pw.inp   Done                     01/02/2019 17:08:41
00003 suncat0243 pw.x -in pw.inp   Done                     01/02/2019 17:08:41
00004 suncat0243 pw.x -in pw.inp   Done                     01/02/2019 17:08:41
00005 suncat0243 pw.x -in pw.inp   Done                     01/02/2019 17:08:41
00006 suncat0243 pw.x -in pw.inp   Done                     01/02/2019 17:08:41
00007 suncat0243 pw.x -in pw.inp   Done                     01/02/2019 17:08:41
00008 suncat0242 pw.x -in pw.inp   Done                     01/02/2019 17:08:41
00009 suncat0242 pw.x -in pw.inp   Done                     01/02/2019 17:08:41
00010 suncat0242 pw.x -in pw.inp   Done                     01/02/2019 17:08:41
00011 suncat0242 pw.x -in pw.inp   Done                     01/02/2019 17:08:41
00012 suncat0242 pw.x -in pw.inp   Done                     01/02/2019 17:08:41
00013 suncat0242 pw.x -in pw.inp   Done                     01/02/2019 17:08:41
00014 suncat0242 pw.x -in pw.inp   Done                     01/02/2019 17:08:41
00015 suncat0242 pw.x -in pw.inp   Done                     01/02/2019 17:08:41
00016 suncat0241 pw.x -in pw.inp   Done                     01/02/2019 17:08:41
00017 suncat0241 pw.x -in pw.inp   Done                     01/02/2019 17:08:41
00018 suncat0241 pw.x -in pw.inp   Done                     01/02/2019 17:08:41
00019 suncat0241 pw.x -in pw.inp   Done                     01/02/2019 17:08:41
00020 suncat0241 pw.x -in pw.inp   Done                     01/02/2019 17:08:41
00021 suncat0241 pw.x -in pw.inp   Done                     01/02/2019 17:08:41
00022 suncat0241 pw.x -in pw.inp   Done                     01/02/2019 17:08:41
00023 suncat0241 pw.x -in pw.inp   Done                     01/02/2019 17:08:41
00024 suncat0240 pw.x -in pw.inp   Done                     01/02/2019 17:08:41
00025 suncat0240 pw.x -in pw.inp   Done                     01/02/2019 17:08:41
00026 suncat0240 pw.x -in pw.inp   Done                     01/02/2019 17:08:41
00027 suncat0240 pw.x -in pw.inp   Done                     01/02/2019 17:08:41
00028 suncat0240 pw.x -in pw.inp   Done                     01/02/2019 17:08:41
00029 suncat0240 pw.x -in pw.inp   Done                     01/02/2019 17:08:41
00030 suncat0240 pw.x -in pw.inp   Done                     01/02/2019 17:08:41
00031 suncat0240 pw.x -in pw.inp   Done                     01/02/2019 17:08:41
00032 suncat0209 pw.x -in pw.inp   Done                     01/02/2019 17:08:41
00033 suncat0209 pw.x -in pw.inp   Done                     01/02/2019 17:08:41
00034 suncat0209 pw.x -in pw.inp   Done                     01/02/2019 17:08:41
00035 suncat0209 pw.x -in pw.inp   Done                     01/02/2019 17:08:41
00036 suncat0209 pw.x -in pw.inp   Done                     01/02/2019 17:08:41
00037 suncat0209 pw.x -in pw.inp   Done                     01/02/2019 17:08:41
00038 suncat0209 pw.x -in pw.inp   Done                     01/02/2019 17:08:41
00039 suncat0209 pw.x -in pw.inp   Done                     01/02/2019 17:08:41
00040 suncat0205 pw.x -in pw.inp   Done                     01/02/2019 17:08:41
00041 suncat0205 pw.x -in pw.inp   Done                     01/02/2019 17:08:41
00042 suncat0205 pw.x -in pw.inp   Done                     01/02/2019 17:08:41
00043 suncat0205 pw.x -in pw.inp   Done                     01/02/2019 17:08:41
00044 suncat0205 pw.x -in pw.inp   Done                     01/02/2019 17:08:41
00045 suncat0205 pw.x -in pw.inp   Done                     01/02/2019 17:08:41
00046 suncat0205 pw.x -in pw.inp   Done                     01/02/2019 17:08:41
00047 suncat0205 pw.x -in pw.inp   Done                     01/02/2019 17:08:41
00048 suncat0204 pw.x -in pw.inp   Done                     01/02/2019 17:08:41
00049 suncat0204 pw.x -in pw.inp   Done                     01/02/2019 17:08:41
00050 suncat0204 pw.x -in pw.inp   Done                     01/02/2019 17:08:41
00051 suncat0204 pw.x -in pw.inp   Done                     01/02/2019 17:08:41
00052 suncat0204 pw.x -in pw.inp   Done                     01/02/2019 17:08:41
00053 suncat0204 pw.x -in pw.inp   Done                     01/02/2019 17:08:41
00054 suncat0204 pw.x -in pw.inp   Done                     01/02/2019 17:08:41
00055 suncat0204 pw.x -in pw.inp   Done                     01/02/2019 17:08:41
00056 suncat0203 pw.x -in pw.inp   Done                     01/02/2019 17:08:41
00057 suncat0203 pw.x -in pw.inp   Done                     01/02/2019 17:08:41
00058 suncat0203 pw.x -in pw.inp   Done                     01/02/2019 17:08:41
00059 suncat0203 pw.x -in pw.inp   Done                     01/02/2019 17:08:41
00060 suncat0203 pw.x -in pw.inp   Done                     01/02/2019 17:08:41
00061 suncat0203 pw.x -in pw.inp   Done                     01/02/2019 17:08:41
00062 suncat0203 pw.x -in pw.inp   Done                     01/02/2019 17:08:41
00063 suncat0203 pw.x -in pw.inp   Done                     01/02/2019 17:08:41