     Program PWSCF v.5.1rc2 (svn rev. ) starts on 26Feb2018 at 20:22:20

     Current dimensions of program PWSCF are:
     Max number of different atomic species (ntypx) = 10
     Max number of k-points (npk) =  40000
     Max angular momentum in pseudopotentials (lmaxx) =  3
     Presently stress not available with electric field

     IMPORTANT: XC functional enforced from input :
     Exchange-correlation      = BEEF-VDW ( 1  4 27 13 2)
     Any further DFT definition will be discarded
     Please, verify this is what you really want

     Subspace diagonalization in iterative solution of the eigenvalue problem:
     a serial algorithm will be used

     bravais-lattice index     =            0
     lattice parameter (alat)  =       1.8897  a.u.
     unit-cell volume          =    7143.7327 (a.u.)^3
     number of atoms/cell      =           12
     number of atomic types    =            2
     number of electrons       =       168.00
     number of Kohn-Sham states=           94
     kinetic-energy cutoff     =      36.7493  Ry
     charge density cutoff     =     367.4932  Ry
     convergence threshold     =      1.0E-05
     mixing beta               =       0.3000
     number of iterations used =           10  plain     mixing
     Exchange-correlation      = BEEF-VDW ( 1  4 27 13 2)
     nstep                     =           50

     celldm(1)=   1.889726  celldm(2)=   0.000000  celldm(3)=   0.000000
     celldm(4)=   0.000000  celldm(5)=   0.000000  celldm(6)=   0.000000

     crystal axes: (cart. coord. in units of alat)
               a(1) = (   6.904914   0.000000   0.000000 )
               a(2) = (   3.452457   5.979831   0.000000 )
               a(3) = (   0.000000   0.000000  25.637839 )

     reciprocal axes: (cart. coord. in units 2 pi/alat)
               b(1) = (  0.144824 -0.083614  0.000000 )
               b(2) = (  0.000000  0.167229  0.000000 )
               b(3) = (  0.000000  0.000000  0.039005 )

     PseudoPot. # 1 for Bi read from file:
     /home/mamunm/src/pseudo/gbrv1.5pbe/Bi.UPF
     MD5 check sum: 81103212dc04adf40945787f699eab19
     Pseudo is Ultrasoft + core correction, Zval = 15.0
     Generated by new atomic code, or converted to UPF format
     Using radial grid of  899 points,  6 beta functions with:
                l(1) =   0
                l(2) =   0
                l(3) =   1
                l(4) =   1
                l(5) =   2
                l(6) =   2
     Q(r) pseudized with  6 coefficients,  rinner =    1.000   1.000   1.000
                                                       1.000   1.000

     PseudoPot. # 2 for Au read from file:
     /home/mamunm/src/pseudo/gbrv1.5pbe/Au.UPF
     MD5 check sum: 9d7f43293ad2c663164586bc4b293ffc
     Pseudo is Ultrasoft + core correction, Zval = 11.0
     Generated by new atomic code, or converted to UPF format
     Using radial grid of  985 points,  7 beta functions with:
                l(1) =   0
                l(2) =   0
                l(3) =   1
                l(4) =   1
                l(5) =   2
                l(6) =   2
                l(7) =   3
     Q(r) pseudized with  6 coefficients,  rinner =    1.900   1.900   1.900
                                                       1.900   1.900   1.900
                                                       1.900

     vdW kernel table read from file vdW_kernel_table
     MD5 check sum: 095c7af220d748ca6e76c0b4c6cfb241

     atomic species   valence    mass     pseudopotential
        Bi1           15.00   208.98040     Bi( 1.00)
        Au1           11.00   196.96657     Au( 1.00)

     No symmetry found

   Cartesian axes

     site n.     atom                  positions (alat units)
         1           Bi1 tau(   1) = (   0.0000000   0.0000000  10.0000000  )
         2           Au1 tau(   2) = (   1.7262285   2.9899155  10.0000000  )
         3           Bi1 tau(   3) = (   3.4524570   0.0000000  10.0000000  )
         4           Bi1 tau(   4) = (   5.1786855   2.9899155  10.0000000  )
         5           Bi1 tau(   5) = (   6.9049140   3.9865540  12.8189193  )
         6           Au1 tau(   6) = (   5.1786855   0.9966385  12.8189193  )
         7           Bi1 tau(   7) = (   3.4524570   3.9865540  12.8189193  )
         8           Bi1 tau(   8) = (   1.7262285   0.9966385  12.8189193  )
         9           Bi1 tau(   9) = (   3.4524570   1.9932770  15.6378387  )
        10           Au1 tau(  10) = (   5.1786855   4.9831925  15.6378387  )
        11           Bi1 tau(  11) = (   6.9049140   1.9932770  15.6378387  )
        12           Bi1 tau(  12) = (   8.6311425   4.9831925  15.6378387  )

     number of k points=    20  Fermi-Dirac smearing, width (Ry)=  0.0110
                       cart. coord. in units 2pi/alat
        k(    1) = (   0.0000000   0.0000000   0.0000000), wk =   0.0555556
        k(    2) = (   0.0000000   0.0278715   0.0000000), wk =   0.1111111
        k(    3) = (   0.0000000   0.0557429   0.0000000), wk =   0.1111111
        k(    4) = (   0.0000000  -0.0836144   0.0000000), wk =   0.0555556
        k(    5) = (   0.0241374  -0.0139357   0.0000000), wk =   0.1111111
        k(    6) = (   0.0241374   0.0139357   0.0000000), wk =   0.1111111
        k(    7) = (   0.0241374   0.0418072   0.0000000), wk =   0.1111111
        k(    8) = (   0.0241374  -0.0975501   0.0000000), wk =   0.1111111
        k(    9) = (   0.0241374  -0.0696787   0.0000000), wk =   0.1111111
        k(   10) = (   0.0241374  -0.0418072   0.0000000), wk =   0.1111111
        k(   11) = (   0.0482748  -0.0278715   0.0000000), wk =   0.1111111
        k(   12) = (   0.0482748   0.0000000   0.0000000), wk =   0.1111111
        k(   13) = (   0.0482748   0.0278715   0.0000000), wk =   0.1111111
        k(   14) = (   0.0482748  -0.1114859   0.0000000), wk =   0.1111111
        k(   15) = (   0.0482748  -0.0836144   0.0000000), wk =   0.1111111
        k(   16) = (   0.0482748  -0.0557429   0.0000000), wk =   0.1111111
        k(   17) = (  -0.0724122   0.0418072   0.0000000), wk =   0.0555556
        k(   18) = (  -0.0724122   0.0696787   0.0000000), wk =   0.1111111
        k(   19) = (  -0.0724122   0.0975501   0.0000000), wk =   0.1111111
        k(   20) = (  -0.0724122  -0.0418072   0.0000000), wk =   0.0555556

     Largest allocated arrays     est. size (Mb)     dimensions
     Largest temporary arrays     est. size (Mb)     dimensions

     Check: negative/imaginary core charge=   -0.000001    0.000000

     Initial potential from superposition of free atoms
     Check: negative starting charge=   -0.375978

     starting charge  158.99926, renormalised to  168.00000

     negative rho (up, down):  3.973E-01 0.000E+00

     *
     * You are using vdW-DF for exchange-correlation in this calculation.
     * Please cite the following three references that made this development
     * possible:
     *
     *   M. Dion, H. Rydberg, E. Schroder, D. C. Langreth, and
     *   B. I. Lundqvist, Phys. Rev. Lett. 92, 246401 (2004).
     *
     *   T. Thonhauser, V. R. Cooper, S. Li, A. Puzder, P. Hyldgaard, and
     *   D. C. Langreth, Phys. Rev. B 76, 125112 (2007).
     *
     *   G. Roman-Perez and J. M. Soler, Phys. Rev. Lett. 103, 096102 (2009).
     *
     *
     * If you are using vdW-DF2, please also cite:
     *
     *   K. Lee, E. D. Murray, L. Kong, B. I. Lundqvist, and
     *   D. C. Langreth, Phys. Rev. B 82, 081101(R) (2010).
     *
     *
     * If you are calculating the stress with vdW-DF, please also cite:
     *
     *   R. Sabatini, E. Kucukbenli, B. Kolb, T. Thonhauser, and
     *   S. de Gironcoli, J. Phys.: Condens. Matter 24, 424209 (2012).
     *

     Carrying out vdW-DF run using the following parameters:

     Nqs =      20    Nr_points =    1024   r_max =   100.000
     q_mesh =
               0.00001000     0.04494208     0.09755937     0.15916263
               0.23128650     0.31572767     0.41458969     0.53033537
               0.66584808     0.82450364     1.01025438     1.22772762
               1.48234092     1.78043706     2.12944203     2.53805004
               3.01644009     3.57652955     4.23227104     5.00000000

     Gradients computed in reciprocal space

     Adding external electric field

     Computed dipole along edir(3) :
        Dipole               -0.0000 Ry au,         -0.0000 Debye
        Dipole field         -0.0000 Ry au

        Potential amp.        0.0000 Ry
        Total length         47.2373 bohr

     Starting wfc are  108 randomized atomic wfcs

     Self-consistent Calculation

     iteration #  1     ecut=    36.75 Ry     beta=0.30
     Davidson diagonalization with overlap
     ethr =  1.00E-02,  avg # of iterations =  3.0

[...]

     total energy              =   -2032.61056182 Ry
     Harris-Foulkes estimate   =   -2036.99049912 Ry
     estimated scf accuracy    <       9.55697700 Ry

[...]

     End of self-consistent calculation

          k = 0.0000 0.0000 0.0000 ( 27009 PWs)   bands (ev):

   -22.8891 -22.8891 -22.8848 -22.8476 -22.8432 -22.8432 -22.8285 -22.8192
   -22.8086 -22.8086 -22.7694 -22.7693 -22.7388 -22.7388 -22.7081 -22.6949
   -22.6948 -22.6936 -22.6912 -22.6912 -22.6912 -22.6347 -22.6321 -22.6237
   -22.6237 -22.6149 -22.6073 -22.6073 -22.6048 -22.6018 -22.6018 -22.5978
   -22.5970 -22.5970 -22.5839 -22.5616 -22.5616 -22.5560 -22.5560 -22.5327
   -22.5327 -22.5254 -22.5254 -22.5197 -22.5176 -12.0762 -11.1529 -10.3057
    -9.7956  -9.7956  -9.2327  -9.2327  -8.8414  -8.8414  -4.2021  -3.8438
    -3.4451  -3.1098  -3.1098  -3.0885  -3.0885  -2.8557  -2.8557  -2.7554
    -2.7083  -2.4802  -2.4802  -2.4492  -2.4492  -2.3868  -2.3868  -2.3650
    -2.3192  -2.3192  -2.2174  -2.1960  -2.1960  -1.8717  -1.5979  -1.5979
    -0.7675  -0.4055   0.5790   1.0929   1.0929   1.1730   1.1730   2.0598
     2.4054   3.0519   3.0519   3.2405   3.5868   3.5868

[...]

          k =-0.0724 0.0418 0.0000 ( 26846 PWs)   bands (ev):

[...]

     the Fermi energy is     0.7619 ev

!    total energy              =   -2034.48910292 Ry
     Harris-Foulkes estimate   =   -2034.48910122 Ry
     estimated scf accuracy    <       0.00000275 Ry

     The total energy is the sum of the following terms:

     one-electron contribution =   -9461.84210677 Ry
     hartree contribution      =    4793.59529357 Ry
     xc contribution           =    -790.80024920 Ry
     ewald contribution        =    3424.60100393 Ry
     electric field correction =       0.00000019 Ry
     smearing contrib. (-TS)   =      -0.04304465 Ry

     convergence has been achieved in  11 iterations

 BEEF-vdW xc energy contributions
           1 :   -705.575259151052
           2 :    655.564818381693
           3 :   -567.166351465781
           4 :    459.304217564898
           5 :   -351.887245716224
           6 :    260.029383317469
           7 :   -190.753037756245
           8 :    142.958919257690
           9 :   -110.211826505953
          10 :    84.8252225352655
          11 :   -61.3951231941855
          12 :    38.4031867924973
          13 :   -17.5916007974436
          14 :    1.86116060122458
          15 :    6.98836898463378
          16 :   -9.51755573450282
          17 :    8.41635225062407
          18 :   -7.11572732213767
          19 :    8.10276886118163
          20 :   -11.8544711692225
          21 :    16.8855980918572
          22 :   -20.7927008145680
          23 :    21.6656436977424
          24 :   -19.1082390258587
          25 :    14.3746431222783
          26 :   -9.63388811421419
          27 :    6.81706738929768
          28 :   -6.68062249656475
          29 :    8.54963293307139
          30 :   -10.8190664691610
          31 :   -56.0573602451914
          32 :   -41.0652434771150

     Forces acting on atoms (Ry/au):

     negative rho (up, down):  3.908E-01 0.000E+00
     atom    1 type  1   force =    -0.00190301    0.00110360    0.00605279
     atom    2 type  2   force =    -0.00000775   -0.00000218    0.00876315
     atom    3 type  1   force =     0.00190250    0.00109892    0.00605967
     atom    4 type  1   force =    -0.00000164   -0.00219853    0.00605743
     atom    5 type  1   force =    -0.00024067    0.00014546   -0.00027789
     atom    6 type  2   force =    -0.00000769    0.00000502    0.00026879
     atom    7 type  1   force =     0.00024227    0.00012819   -0.00026202
     atom    8 type  1   force =     0.00002025   -0.00027913   -0.00026259
     atom    9 type  1   force =     0.00190680   -0.00110506   -0.00612699
     atom   10 type  2   force =    -0.00000284    0.00000082   -0.00801877
     atom   11 type  1   force =    -0.00190725   -0.00110134   -0.00612701
     atom   12 type  1   force =    -0.00000098    0.00220423   -0.00612656

     Total force =     0.013838     Total SCF correction =     0.003427
     SCF correction compared to forces is large: reduce conv_thr to get better values

     entering subroutine stress ...

     negative rho (up, down):  3.908E-01 0.000E+00
          total   stress  (Ry/bohr**3)                   (kbar)     P=   -8.30
  -0.00005949  -0.00000000   0.00000000         -8.75     -0.00      0.00
  -0.00000000  -0.00005949   0.00000000         -0.00     -8.75      0.00
   0.00000000   0.00000000  -0.00005033          0.00      0.00     -7.40

     BFGS Geometry Optimization

     number of scf cycles    =   1
     number of bfgs steps    =   0

     energy   new            =   -2034.4891029157 Ry

     new trust radius        =       0.0080187712 bohr
     new conv_thr            =       0.0000099958 Ry

ATOMIC_POSITIONS (crystal)
Bi1      0.000000000   0.000000000   0.390048479    0   0   0
Au1      0.000000000   0.500000000   0.390048479    0   0   0
Bi1      0.500000000   0.000000000   0.390048479    0   0   0
Bi1      0.500000000   0.500000000   0.390048479    0   0   0
Bi1      0.666666667   0.666666667   0.500000000    0   0   0
Au1      0.666666667   0.166666667   0.500000000    0   0   0
Bi1      0.166666667   0.666666667   0.500000000    0   0   0
Bi1      0.166666667   0.166666667   0.500000000    0   0   0
Bi1      0.333528362   0.333235543   0.609825057
Au1      0.333333080   0.833333406   0.609786009
Bi1      0.833235896   0.333235872   0.609825056
Bi1      0.833235728   0.833528394   0.609825065

     Writing output data file calc.save
     Check: negative starting charge=   -0.375978
     NEW-OLD atomic charge density approx. for the potential

     Check: negative/imaginary core charge=   -0.000001    0.000000
     Check: negative starting charge=   -0.376098

[...]

     energy   old            =   -2034.4891029157 Ry
     energy   new            =   -2034.4893015139 Ry

     CASE: energy  _new < energy  _old

     WARNING: bfgs curvature condition failed, Theta= 0.732
     new trust radius        =       0.0120281567 bohr
     new conv_thr            =       0.0000001000 Ry

[...]

     Total force =     0.013972     Total SCF correction =     0.000608

[...]

     WARNING: info= 30 for Hessian

     WARNING: bfgs curvature condition failed, Theta= 0.046
     uphill step: resetting bfgs history

[...]

     WARNING: bfgs curvature condition failed, Theta= 0.918
     new trust radius        =       0.0074254494 bohr
     new conv_thr            =       0.0000001000 Ry

[...]

     Threshold (ethr) on eigenvalues was too large:
     Diagonalizing with lowered threshold

     Davidson diagonalization with overlap
     ethr =  5.00E-08,  avg # of iterations =  1.0

[...]

     Total force =     0.004947     Total SCF correction =     0.000388

[...]

     number of scf cycles    =  18
     number of bfgs steps    =  17

     energy   old            =   -2034.4952472834 Ry
     energy   new            =   -2034.4954120450 Ry

     CASE: energy  _new < energy  _old

     new trust radius        =       0.0563870061 bohr
     new conv_thr            =       0.0000001000 Ry

ATOMIC_POSITIONS (crystal)
Bi1      0.000000000   0.000000000   0.390048479    0   0   0
Au1      0.000000000   0.500000000   0.390048479    0   0   0
Bi1      0.500000000   0.000000000   0.390048479    0   0   0
Bi1      0.500000000   0.500000000   0.390048479    0   0   0
Bi1      0.666666667   0.666666667   0.500000000    0   0   0
Au1      0.666666667   0.166666667   0.500000000    0   0   0
Bi1      0.166666667   0.666666667   0.500000000    0   0   0
Bi1      0.166666667   0.166666667   0.500000000    0   0   0
Bi1      0.341760672   0.329118388   0.604851884
Au1      0.333330603   0.833333341   0.596652966
Bi1      0.829119100   0.329121248   0.604851975
Bi1      0.829120122   0.841761137   0.604851829

     Writing output data file calc.save
     Check: negative starting charge=   -0.375523
     NEW-OLD atomic charge density approx. for the potential

     Check: negative/imaginary core charge=   -0.000001    0.000000
     Check: negative starting charge=   -0.376212

[...]

     Self-consistent Calculation

[...]

     total energy              =   -2034.49558542 Ry
     Harris-Foulkes estimate   =   -2034.49558542 Ry
     estimated scf accuracy    <       0.00000011 Ry

     iteration #  8     ecut=    36.75 Ry     beta=0.30
     Davidson diagonalization with overlap
     ethr =  6.60E-11,  avg # of iterations =  2.4

[...]

     negative rho (up, down):  3.913E-01 0.000E+00

     Adding external electric field

     Computed dipole along edir(3) :
        Dipole                0.0493 Ry au,          0.1253 Debye
        Dipole field          0.0001 Ry au

        Potential amp.       -0.0082 Ry
        Total length         47.2373 bohr

     End of self-consistent calculation

[...]

          k = 0.0483-0.0557 0.0000 ( 26863 PWs)   bands (ev):

[...]

          k =-0.0724-0.0418 0.0000 ( 26846 PWs)   bands (ev):

   -22.8568 -22.8167 -22.8076 -22.8025 -22.8017 -22.7971 -22.7923 -22.7899
   -22.7799 -22.7783 -22.7717 -22.7617 -22.7495 -22.7426 -22.7019 -22.6742
   -22.6306 -22.6230 -22.6198 -22.6000 -22.5986 -22.5864 -22.5858 -22.5830
   -22.5738 -22.5734 -22.5716 -22.5610 -22.5606 -22.5543 -22.5530 -22.5525
   -22.5522 -22.5427 -22.5393 -22.5352 -22.5347 -22.5268 -22.5267 -22.5238
   -22.5163 -22.5130 -22.5033 -22.4942 -22.4605 -11.4769 -11.2115 -10.4966
   -10.0982 -10.0003  -9.7700  -9.4212  -9.2303  -8.7033  -4.3935  -3.8680
    -3.5946  -3.4422  -3.2348  -3.2168  -3.1760  -3.0997  -2.9757  -2.9343
    -2.8868  -2.7714  -2.7179  -2.6503  -2.4085  -2.3576  -2.3211  -2.2173
    -1.9866  -1.4893  -1.2483  -1.2044  -1.1696  -1.0805  -0.3638  -0.2448
    -0.1514  -0.0129   0.3354   0.4690   0.6244   1.2296   1.2837   1.4777
     1.8461   2.0613   2.1585   2.3301   2.6398   3.1158

     the Fermi energy is     0.8343 ev

!    total energy              =   -2034.49558543 Ry
     Harris-Foulkes estimate   =   -2034.49558539 Ry
     estimated scf accuracy    <       0.00000002 Ry

     The total energy is the sum of the following terms:

     one-electron contribution =   -9694.61794062 Ry
     hartree contribution      =    4910.06559952 Ry
     xc contribution           =    -790.93564619 Ry
     ewald contribution        =    3541.03392722 Ry
     electric field correction =       0.00000427 Ry
     smearing contrib. (-TS)   =      -0.04152963 Ry

     convergence has been achieved in   8 iterations

 BEEF-vdW xc energy contributions
           1 :   -705.724152119333
           2 :    655.815239308257
           3 :   -567.542440938127
           4 :    459.725010338632
           5 :   -352.207512363808
           6 :    260.125258198488
           7 :   -190.601118945934
           8 :    142.660430168361
           9 :   -109.945148798330
          10 :    84.7518110633697
          11 :   -61.5706702411427
          12 :    38.7452689376577
          13 :   -17.9237690448803
          14 :    2.00936506369374
          15 :    7.10013406934274
          16 :   -9.82524288079128
          17 :    8.75111449171834
          18 :   -7.29686428914204
          19 :    8.03646574563516
          20 :   -11.5834584644623
          21 :    16.5631474883779
          22 :   -20.5965846546031
          23 :    21.6997928023769
          24 :   -19.3470419972870
          25 :    14.6802109464769
          26 :   -9.83483147405002
          27 :    6.80405920797955
          28 :   -6.46568710162921
          29 :    8.25696845445339
          30 :   -10.6138346861197
          31 :   -56.0709616470984
          32 :   -41.1044801520635

     Forces acting on atoms (Ry/au):

     negative rho (up, down):  3.913E-01 0.000E+00
     atom    1 type  1   force =    -0.00395917    0.00228564    0.00497209
     atom    2 type  2   force =    -0.00000001    0.00000000    0.00852386
     atom    3 type  1   force =     0.00395893    0.00228589    0.00497206
     atom    4 type  1   force =     0.00000010   -0.00457161    0.00497213
     atom    5 type  1   force =     0.00054079   -0.00031231   -0.00747751
     atom    6 type  2   force =    -0.00000002    0.00000000   -0.00234699
     atom    7 type  1   force =    -0.00054098   -0.00031245   -0.00747808
     atom    8 type  1   force =    -0.00000010    0.00062467   -0.00747775
     atom    9 type  1   force =     0.00001585   -0.00000932    0.00091061
     atom   10 type  2   force =     0.00000035    0.00000000   -0.00139160
     atom   11 type  1   force =    -0.00001588   -0.00000889    0.00091058
     atom   12 type  1   force =     0.00000016    0.00001837    0.00091058

     Total force =     0.002104     Total SCF correction =     0.000394
     SCF correction compared to forces is large: reduce conv_thr to get better values

     entering subroutine stress ...

     negative rho (up, down):  3.913E-01 0.000E+00
          total   stress  (Ry/bohr**3)                   (kbar)     P=   -4.76
  -0.00003434   0.00000000   0.00000000         -5.05      0.00      0.00
   0.00000000  -0.00003434   0.00000000          0.00     -5.05      0.00
   0.00000000   0.00000000  -0.00002833          0.00      0.00     -4.17

     bfgs converged in  19 scf cycles and  18 bfgs steps
     (criteria: energy <  1.0E+00, force <  1.9E-03)

     End of BFGS Geometry Optimization

     Final energy   =   -2034.4955854270 Ry
Begin final coordinates

ATOMIC_POSITIONS (crystal)
Bi1      0.000000000   0.000000000   0.390048479    0   0   0
Au1      0.000000000   0.500000000   0.390048479    0   0   0
Bi1      0.500000000   0.000000000   0.390048479    0   0   0
Bi1      0.500000000   0.500000000   0.390048479    0   0   0
Bi1      0.666666667   0.666666667   0.500000000    0   0   0
Au1      0.666666667   0.166666667   0.500000000    0   0   0
Bi1      0.166666667   0.666666667   0.500000000    0   0   0
Bi1      0.166666667   0.166666667   0.500000000    0   0   0
Bi1      0.341760672   0.329118388   0.604851884
Au1      0.333330603   0.833333341   0.596652966
Bi1      0.829119100   0.329121248   0.604851975
Bi1      0.829120122   0.841761137   0.604851829
End final coordinates

     Writing output data file calc.save

     General routines

     Parallel routines

   This run was terminated on:  21:47:40  26Feb2018

   JOB DONE.