     Program PWSCF v.5.1rc2 (svn rev. ) starts on 23Feb2018 at 16:25:32

     Current dimensions of program PWSCF are:
     Max number of different atomic species (ntypx) = 10
     Max number of k-points (npk) =  40000
     Max angular momentum in pseudopotentials (lmaxx) =  3
     Presently stress not available with electric field

     IMPORTANT: XC functional enforced from input :
     Exchange-correlation      = BEEF-VDW ( 1  4 27 13 2)
     Any further DFT definition will be discarded
     Please, verify this is what you really want

     Subspace diagonalization in iterative solution of the eigenvalue problem:
     a serial algorithm will be used

     bravais-lattice index     =            0
     lattice parameter (alat)  =       1.8897  a.u.
     unit-cell volume          =    5783.4434 (a.u.)^3
     number of atoms/cell      =           12
     number of atomic types    =            2
     number of electrons       =        72.00
     number of Kohn-Sham states=           46
     kinetic-energy cutoff     =      36.7493  Ry
     charge density cutoff     =     367.4932  Ry
     convergence threshold     =      1.0E-05
     mixing beta               =       0.3000
     number of iterations used =           10  plain     mixing
     Exchange-correlation      = BEEF-VDW ( 1  4 27 13 2)
     nstep                     =           50

     celldm(1)=   1.889726  celldm(2)=   0.000000  celldm(3)=   0.000000
     celldm(4)=   0.000000  celldm(5)=   0.000000  celldm(6)=   0.000000

     crystal axes: (cart. coord. in units of alat)
               a(1) = (   6.275993   0.000000   0.000000 )
               a(2) = (   3.137996   5.435169   0.000000 )
               a(3) = (   0.000000   0.000000  25.124326 )

     reciprocal axes: (cart. coord. in units 2 pi/alat)
               b(1) = (  0.159337 -0.091993  0.000000 )
               b(2) = (  0.000000  0.183987  0.000000 )
               b(3) = (  0.000000  0.000000  0.039802 )

     PseudoPot. # 1 for Al read from file:
     /home/mamunm/src/pseudo/gbrv1.5pbe/Al.UPF
     MD5 check sum: 0a6289f5291fc8f409219462bc851e1f
     Pseudo is Ultrasoft + core correction, Zval =  3.0
     Generated by new atomic code, or converted to UPF format
     Using radial grid of  893 points,  3 beta functions with:
                l(1) =   0
                l(2) =   1
                l(3) =   2
     Q(r) pseudized with  8 coefficients,  rinner =    0.900   0.900   0.900
                                                       0.900   0.900

     PseudoPot. # 2 for Bi read from file:
     /home/mamunm/src/pseudo/gbrv1.5pbe/Bi.UPF
     MD5 check sum: 81103212dc04adf40945787f699eab19
     Pseudo is Ultrasoft + core correction, Zval = 15.0
     Generated by new atomic code, or converted to UPF format
     Using radial grid of  899 points,  6 beta functions with:
                l(1) =   0
                l(2) =   0
                l(3) =   1
                l(4) =   1
                l(5) =   2
                l(6) =   2
     Q(r) pseudized with  6 coefficients,  rinner =    1.000   1.000   1.000
                                                       1.000   1.000

     vdW kernel table read from file vdW_kernel_table
     MD5 check sum: 095c7af220d748ca6e76c0b4c6cfb241

     atomic species   valence    mass     pseudopotential
        Al1            3.00    26.98154     Al( 1.00)
        Bi1           15.00   208.98040     Bi( 1.00)

     No symmetry found

   Cartesian axes

     site n.     atom                  positions (alat units)
         1           Al1 tau(   1) = (   0.0000000   0.0000000  10.0000000  )
         2           Bi1 tau(   2) = (   1.5689981   2.7175845  10.0000000  )
         3           Al1 tau(   3) = (   3.1379963   0.0000000  10.0000000  )
         4           Al1 tau(   4) = (   4.7069944   2.7175845  10.0000000  )
         5           Al1 tau(   5) = (   6.2759925   3.6234460  12.5621632  )
         6           Bi1 tau(   6) = (   4.7069944   0.9058615  12.5621632  )
         7           Al1 tau(   7) = (   3.1379963   3.6234460  12.5621632  )
         8           Al1 tau(   8) = (   1.5689981   0.9058615  12.5621632  )
         9           Al1 tau(   9) = (   3.1379963   1.8117230  15.1243264  )
        10           Bi1 tau(  10) = (   4.7069944   4.5293074  15.1243264  )
        11           Al1 tau(  11) = (   6.2759925   1.8117230  15.1243264  )
        12           Al1 tau(  12) = (   7.8449906   4.5293074  15.1243264  )

     number of k points=    20  Fermi-Dirac smearing, width (Ry)=  0.0110
                       cart. coord. in units 2pi/alat
        k(    1) = (   0.0000000   0.0000000   0.0000000), wk =   0.0555556
        k(    2) = (   0.0000000   0.0306645   0.0000000), wk =   0.1111111
        k(    3) = (   0.0000000   0.0613290   0.0000000), wk =   0.1111111
        k(    4) = (   0.0000000  -0.0919935   0.0000000), wk =   0.0555556
        k(    5) = (   0.0265562  -0.0153322   0.0000000), wk =   0.1111111
        k(    6) = (   0.0265562   0.0153322   0.0000000), wk =   0.1111111
        k(    7) = (   0.0265562   0.0459967   0.0000000), wk =   0.1111111
        k(    8) = (   0.0265562  -0.1073257   0.0000000), wk =   0.1111111
        k(    9) = (   0.0265562  -0.0766612   0.0000000), wk =   0.1111111
        k(   10) = (   0.0265562  -0.0459967   0.0000000), wk =   0.1111111
        k(   11) = (   0.0531124  -0.0306645   0.0000000), wk =   0.1111111
        k(   12) = (   0.0531124   0.0000000   0.0000000), wk =   0.1111111
        k(   13) = (   0.0531124   0.0306645   0.0000000), wk =   0.1111111
        k(   14) = (   0.0531124  -0.1226579   0.0000000), wk =   0.1111111
        k(   15) = (   0.0531124  -0.0919935   0.0000000), wk =   0.1111111
        k(   16) = (   0.0531124  -0.0613290   0.0000000), wk =   0.1111111
        k(   17) = (  -0.0796687   0.0459967   0.0000000), wk =   0.0555556
        k(   18) = (  -0.0796687   0.0766612   0.0000000), wk =   0.1111111
        k(   19) = (  -0.0796687   0.1073257   0.0000000), wk =   0.1111111
        k(   20) = (  -0.0796687  -0.0459967   0.0000000), wk =   0.0555556

     Largest allocated arrays     est. size (Mb)     dimensions
     Largest temporary arrays     est. size (Mb)     dimensions

     Initial potential from superposition of free atoms
     Check: negative starting charge=   -0.126762

     starting charge   68.97769, renormalised to   72.00000

     negative rho (up, down):  1.323E-01 0.000E+00

     *
     * You are using vdW-DF for exchange-correlation in this calculation.
     * Please cite the following three references that made this development
     * possible:
     *
     *   M. Dion, H. Rydberg, E. Schroder, D. C. Langreth, and
     *   B. I. Lundqvist, Phys. Rev. Lett. 92, 246401 (2004).
     *
     *   T. Thonhauser, V. R. Cooper, S. Li, A. Puzder, P. Hyldgaard, and
     *   D. C. Langreth, Phys. Rev. B 76, 125112 (2007).
     *
     *   G. Roman-Perez and J. M. Soler, Phys. Rev. Lett. 103, 096102 (2009).
     *
     *
     * If you are using vdW-DF2, please also cite:
     *
     *   K. Lee, E. D. Murray, L. Kong, B. I. Lundqvist, and
     *   D. C. Langreth, Phys. Rev. B 82, 081101(R) (2010).
     *
     *
     * If you are calculating the stress with vdW-DF, please also cite:
     *
     *   R. Sabatini, E. Kucukbenli, B. Kolb, T. Thonhauser, and
     *   S. de Gironcoli, J. Phys.: Condens. Matter 24, 424209 (2012).
     *

     Carrying out vdW-DF run using the following parameters:

     Nqs =      20    Nr_points =    1024   r_max =   100.000
     q_mesh =
               0.00001000     0.04494208     0.09755937     0.15916263
               0.23128650     0.31572767     0.41458969     0.53033537
               0.66584808     0.82450364     1.01025438     1.22772762
               1.48234092     1.78043706     2.12944203     2.53805004
               3.01644009     3.57652955     4.23227104     5.00000000

     Gradients computed in reciprocal space

     Adding external electric field

     Computed dipole along edir(3) :
        Dipole                0.0000 Ry au,          0.0000 Debye
        Dipole field          0.0000 Ry au

        Potential amp.       -0.0000 Ry
        Total length         46.2911 bohr

     Starting wfc are   63 randomized atomic wfcs

     Self-consistent Calculation

     iteration #  1     ecut=    36.75 Ry     beta=0.30
     Davidson diagonalization with overlap
     ethr =  1.00E-02,  avg # of iterations =  3.0

[...]

     total energy              =    -622.90246073 Ry
     Harris-Foulkes estimate   =    -623.48306641 Ry
     estimated scf accuracy    <       1.27383067 Ry

[...]

     End of self-consistent calculation

          k = 0.0000 0.0000 0.0000 ( 21859 PWs)   bands (ev):

   -23.6263 -23.6263 -23.6102 -23.6102 -23.6091 -23.5064 -23.5064 -23.5062
   -23.5062 -23.4711 -23.4711 -23.4710 -23.4710 -23.4704 -23.4703 -12.4399
   -11.5675 -11.0653  -6.5494  -6.3198  -5.3675  -5.2093  -5.2093  -4.9774
    -4.9774  -4.0550  -3.9768  -3.9768  -3.3548  -3.3548  -3.2395  -2.3249
    -2.0836  -1.6583  -1.6583  -1.3633  -1.3632  -0.3797   0.8031   0.8800
     1.7657   1.7657   1.8900   1.8900   2.1695   3.0575

[...]

          k =-0.0797 0.0460 0.0000 ( 21740 PWs)   bands (ev):

[...]

     the Fermi energy is    -0.2851 ev

!    total energy              =    -623.03918731 Ry
     Harris-Foulkes estimate   =    -623.03935613 Ry
     estimated scf accuracy    <       0.00000141 Ry

     The total energy is the sum of the following terms:

     one-electron contribution =   -2301.22775240 Ry
     hartree contribution      =    1167.21538601 Ry
     xc contribution           =    -238.89187135 Ry
     ewald contribution        =     749.89732511 Ry
     electric field correction =       0.00000000 Ry
     smearing contrib. (-TS)   =      -0.03227467 Ry

     convergence has been achieved in   9 iterations

 BEEF-vdW xc energy contributions
           1 :   -210.225123116117
           2 :    193.002272256604
           3 :   -163.661474013046
           4 :    129.804922123334
           5 :   -98.2412573638173
           6 :    72.8508403974507
           7 :   -54.3339145399727
           8 :    41.3550261570842
           9 :   -31.9850018415510
          10 :    24.5859579682319
          11 :   -18.0374010608721
          12 :    11.7106849057650
          13 :   -5.52681087797606
          14 :   1.079217778328712E-002
          15 :    3.95023840254936
          16 :   -5.69921566237625
          17 :    5.38150625853450
          18 :   -4.01132450567704
          19 :    2.90399389823790
          20 :   -2.87965082071352
          21 :    3.83994766129734
          22 :   -5.00243491431297
          23 :    5.54422408387649
          24 :   -5.13719952001983
          25 :    4.03474619501006
          26 :   -2.77809788583551
          27 :    1.84055360571688
          28 :   -1.45573435668038
          29 :    1.63098388950300
          30 :   -2.20688442886041
          31 :   -19.0254780895398
          32 :   -13.9385184281361

     Forces acting on atoms (Ry/au):

     negative rho (up, down):  1.352E-01 0.000E+00
     atom    1 type  1   force =     0.00781504   -0.00451175    0.00941290
     atom    2 type  2   force =     0.00000632    0.00000502   -0.01216846
     atom    3 type  1   force =    -0.00782117   -0.00451848    0.00940278
     atom    4 type  1   force =     0.00000301    0.00903331    0.00940276
     atom    5 type  1   force =     0.00000343   -0.00000163   -0.00010743
     atom    6 type  2   force =    -0.00000167   -0.00000848    0.00029262
     atom    7 type  1   force =    -0.00000257   -0.00000192   -0.00010737
     atom    8 type  1   force =     0.00000079    0.00000363   -0.00010717
     atom    9 type  1   force =    -0.00780726    0.00450808   -0.00963196
     atom   10 type  2   force =    -0.00000848    0.00000164    0.01285506
     atom   11 type  1   force =     0.00781489    0.00451542   -0.00962181
     atom   12 type  1   force =    -0.00000233   -0.00902485   -0.00962193

     Total force =     0.026218     Total SCF correction =     0.000478

     entering subroutine stress ...

     negative rho (up, down):  1.352E-01 0.000E+00
          total   stress  (Ry/bohr**3)                   (kbar)     P=   -7.54
  -0.00005965  -0.00000001   0.00000000         -8.78     -0.00      0.00
  -0.00000001  -0.00005967  -0.00000000         -0.00     -8.78     -0.00
   0.00000000  -0.00000000  -0.00003452          0.00     -0.00     -5.08

     BFGS Geometry Optimization

     number of scf cycles    =   1
     number of bfgs steps    =   0

     energy   new            =    -623.0391873055 Ry

     new trust radius        =       0.0131928288 bohr
     new conv_thr            =       0.0000099958 Ry

ATOMIC_POSITIONS (crystal)
Al1      0.000000000   0.000000000   0.398020621    0   0   0
Bi1      0.000000000   0.500000000   0.398020621    0   0   0
Al1      0.500000000   0.000000000   0.398020621    0   0   0
Al1      0.500000000   0.500000000   0.398020621    0   0   0
Al1      0.666666667   0.666666667   0.500000000    0   0   0
Bi1      0.666666667   0.166666667   0.500000000    0   0   0
Al1      0.166666667   0.666666667   0.500000000    0   0   0
Al1      0.166666667   0.166666667   0.500000000    0   0   0
Al1      0.332455586   0.333772248   0.601776507
Bi1      0.333332538   0.833333493   0.602250137
Al1      0.833772452   0.333772963   0.601776721
Al1      0.833772474   0.832454659   0.601776719

     Writing output data file calc.save
     Check: negative starting charge=   -0.126762
     NEW-OLD atomic charge density approx. for the potential
     Check: negative starting charge=   -0.126905

[...]

     energy   old            =    -623.0391873055 Ry
     energy   new            =    -623.0400376236 Ry

     CASE: energy  _new < energy  _old

     WARNING: bfgs curvature condition failed, Theta= 0.821
     new trust radius        =       0.0145121117 bohr
     new conv_thr            =       0.0000001000 Ry

[...]

     number of scf cycles    =  12
     number of bfgs steps    =  11

     energy   old            =    -623.0557122192 Ry
     energy   new            =    -623.0558174881 Ry

     CASE: energy  _new < energy  _old

     new trust radius        =       0.0234050528 bohr
     new conv_thr            =       0.0000001000 Ry

ATOMIC_POSITIONS (crystal)
Al1      0.000000000   0.000000000   0.398020621    0   0   0
Bi1      0.000000000   0.500000000   0.398020621    0   0   0
Al1      0.500000000   0.000000000   0.398020621    0   0   0
Al1      0.500000000   0.500000000   0.398020621    0   0   0
Al1      0.666666667   0.666666667   0.500000000    0   0   0
Bi1      0.666666667   0.166666667   0.500000000    0   0   0
Al1      0.166666667   0.666666667   0.500000000    0   0   0
Al1      0.166666667   0.166666667   0.500000000    0   0   0
Al1      0.301667535   0.349165953   0.593241055
Bi1      0.333315203   0.833341409   0.611139861
Al1      0.849099128   0.349185490   0.593242623
Al1      0.849097998   0.801717318   0.593242746

     Writing output data file calc.save
     Check: negative starting charge=   -0.126911
     NEW-OLD atomic charge density approx. for the potential
     Check: negative starting charge=   -0.127001

[...]

     Self-consistent Calculation

[...]

     total energy              =    -623.05593592 Ry
     Harris-Foulkes estimate   =    -623.05593586 Ry
     estimated scf accuracy    <       0.00000023 Ry

     iteration #  7     ecut=    36.75 Ry     beta=0.30
     Davidson diagonalization with overlap
     ethr =  3.17E-10,  avg # of iterations =  2.1

[...]

     negative rho (up, down):  1.349E-01 0.000E+00

     Adding external electric field

     Computed dipole along edir(3) :
        Dipole               -0.0539 Ry au,         -0.1371 Debye
        Dipole field         -0.0001 Ry au

        Potential amp.        0.0109 Ry
        Total length         46.2911 bohr

     End of self-consistent calculation

[...]

          k = 0.0531-0.0613 0.0000 ( 21735 PWs)   bands (ev):

[...]

          k =-0.0797-0.0460 0.0000 ( 21740 PWs)   bands (ev):

   -23.7040 -23.7036 -23.6854 -23.6853 -23.6794 -23.5692 -23.5688 -23.5422
   -23.5418 -23.5355 -23.5353 -23.5343 -23.5025 -23.5024 -23.4970 -12.0619
   -11.5238 -11.2629  -8.1731  -7.2120  -6.6360  -6.5190  -5.1120  -4.9837
    -4.7693  -4.4761  -3.1393  -2.4206  -2.1709  -1.8580  -1.6162  -1.5337
    -1.3018  -1.3000  -0.4376  -0.0986  -0.0455   0.2798   0.3190   0.4783
     0.9277   0.9826   1.2534   1.6100   1.7511   2.0564

     the Fermi energy is    -0.2917 ev

!    total energy              =    -623.05593596 Ry
     Harris-Foulkes estimate   =    -623.05593600 Ry
     estimated scf accuracy    <       0.00000002 Ry

     The total energy is the sum of the following terms:

     one-electron contribution =   -2281.15098666 Ry
     hartree contribution      =    1157.07940553 Ry
     xc contribution           =    -238.97376511 Ry
     ewald contribution        =     740.02184654 Ry
     electric field correction =       0.00000632 Ry
     smearing contrib. (-TS)   =      -0.03244259 Ry

     convergence has been achieved in   7 iterations

 BEEF-vdW xc energy contributions
           1 :   -210.301121785985
           2 :    193.080560480939
           3 :   -163.749563153063
           4 :    129.918699557089
           5 :   -98.4041437362151
           6 :    73.0860684301569
           7 :   -54.6488747916847
           8 :    41.7263736913092
           9 :   -32.3602931676924
          10 :    24.9084288593363
          11 :   -18.2801460510368
          12 :    11.8946584365321
          13 :   -5.70582395994967
          14 :   0.232612023701677
          15 :    3.67791105639117
          16 :   -5.41373060323957
          17 :    5.14075546309388
          18 :   -3.86079582744313
          19 :    2.85846140399440
          20 :   -2.92599347227520
          21 :    3.95036548983057
          22 :   -5.14566288297362
          23 :    5.69233951794718
          24 :   -5.27287075991677
          25 :    4.15988499868087
          26 :   -2.91612450353773
          27 :    2.02313124867013
          28 :   -1.69700139780912
          29 :    1.90740224843648
          30 :   -2.46198699347406
          31 :   -19.0322969559026
          32 :   -13.9475444419420

     Forces acting on atoms (Ry/au):

     negative rho (up, down):  1.349E-01 0.000E+00
     atom    1 type  1   force =     0.00764051   -0.00441122    0.00885086
     atom    2 type  2   force =     0.00001001   -0.00000581   -0.00831069
     atom    3 type  1   force =    -0.00762813   -0.00441813    0.00883464
     atom    4 type  1   force =     0.00001217    0.00881526    0.00883465
     atom    5 type  1   force =    -0.00878400    0.00507157   -0.00397612
     atom    6 type  2   force =     0.00000926   -0.00000529   -0.00202791
     atom    7 type  1   force =     0.00879513    0.00506187   -0.00397745
     atom    8 type  1   force =     0.00001396   -0.01014778   -0.00397765
     atom    9 type  1   force =    -0.00059461    0.00034333   -0.00105736
     atom   10 type  2   force =    -0.00001021    0.00000579   -0.00107521
     atom   11 type  1   force =     0.00054035    0.00031712   -0.00105888
     atom   12 type  1   force =    -0.00000445   -0.00062671   -0.00105889

     Total force =     0.002403     Total SCF correction =     0.000228

     entering subroutine stress ...

     negative rho (up, down):  1.349E-01 0.000E+00
          total   stress  (Ry/bohr**3)                   (kbar)     P=   -5.92
  -0.00004859  -0.00000001   0.00000001         -7.15     -0.00      0.00
  -0.00000001  -0.00004860  -0.00000001         -0.00     -7.15     -0.00
   0.00000001  -0.00000001  -0.00002350          0.00     -0.00     -3.46

     bfgs converged in  13 scf cycles and  12 bfgs steps
     (criteria: energy <  1.0E+00, force <  1.9E-03)

     End of BFGS Geometry Optimization

     Final energy   =    -623.0559359576 Ry
Begin final coordinates

ATOMIC_POSITIONS (crystal)
Al1      0.000000000   0.000000000   0.398020621    0   0   0
Bi1      0.000000000   0.500000000   0.398020621    0   0   0
Al1      0.500000000   0.000000000   0.398020621    0   0   0
Al1      0.500000000   0.500000000   0.398020621    0   0   0
Al1      0.666666667   0.666666667   0.500000000    0   0   0
Bi1      0.666666667   0.166666667   0.500000000    0   0   0
Al1      0.166666667   0.666666667   0.500000000    0   0   0
Al1      0.166666667   0.166666667   0.500000000    0   0   0
Al1      0.301667535   0.349165953   0.593241055
Bi1      0.333315203   0.833341409   0.611139861
Al1      0.849099128   0.349185490   0.593242623
Al1      0.849097998   0.801717318   0.593242746
End final coordinates

     Writing output data file calc.save

     General routines

     Parallel routines

   This run was terminated on:  16:46:26  23Feb2018

   JOB DONE.