     Program PWSCF v.5.1rc2 (svn rev. ) starts on 23Feb2018 at 16:25:32

     Current dimensions of program PWSCF are:
     Max number of different atomic species (ntypx) = 10
     Max number of k-points (npk) =  40000
     Max angular momentum in pseudopotentials (lmaxx) =  3
     Presently stress not available with electric field

     IMPORTANT: XC functional enforced from input :
     Exchange-correlation      = BEEF-VDW ( 1  4 27 13 2)
     Any further DFT definition will be discarded
     Please, verify this is what you really want

     Subspace diagonalization in iterative solution of the eigenvalue problem:
     a serial algorithm will be used

     bravais-lattice index     =            0
     lattice parameter (alat)  =       1.8897  a.u.
     unit-cell volume          =    4758.1384 (a.u.)^3
     number of atoms/cell      =           12
     number of atomic types    =            2
     number of electrons       =       180.00
     number of Kohn-Sham states=          100
     kinetic-energy cutoff     =      36.7493  Ry
     charge density cutoff     =     367.4932  Ry
     convergence threshold     =      1.0E-05
     mixing beta               =       0.3000
     number of iterations used =           10  plain     mixing
     Exchange-correlation      = BEEF-VDW ( 1  4 27 13 2)
     nstep                     =           50

     celldm(1)=   1.889726  celldm(2)=   0.000000  celldm(3)=   0.000000
     celldm(4)=   0.000000  celldm(5)=   0.000000  celldm(6)=   0.000000

     crystal axes: (cart. coord. in units of alat)
               a(1) = (   5.742555   0.000000   0.000000 )
               a(2) = (   2.871277   4.973198   0.000000 )
               a(3) = (   0.000000   0.000000  24.688776 )

     reciprocal axes: (cart. coord. in units 2 pi/alat)
               b(1) = (  0.174139 -0.100539  0.000000 )
               b(2) = (  0.000000  0.201078  0.000000 )
               b(3) = (  0.000000  0.000000  0.040504 )

     PseudoPot. # 1 for Rh read from file:
     /home/mamunm/src/pseudo/gbrv1.5pbe/Rh.UPF
     MD5 check sum: 761627e959a2e3a1f56b0b5fe687810e
     Pseudo is Ultrasoft + core correction, Zval = 15.0
     Generated by new atomic code, or converted to UPF format
     Using radial grid of  969 points,  7 beta functions with:
                l(1) =   0
                l(2) =   0
                l(3) =   1
                l(4) =   1
                l(5) =   2
                l(6) =   2
                l(7) =   2
     Q(r) pseudized with  8 coefficients,  rinner =    1.200   1.200   1.200
                                                       1.200   1.200

     PseudoPot. # 2 for Bi read from file:
     /home/mamunm/src/pseudo/gbrv1.5pbe/Bi.UPF
     MD5 check sum: 81103212dc04adf40945787f699eab19
     Pseudo is Ultrasoft + core correction, Zval = 15.0
     Generated by new atomic code, or converted to UPF format
     Using radial grid of  899 points,  6 beta functions with:
                l(1) =   0
                l(2) =   0
                l(3) =   1
                l(4) =   1
                l(5) =   2
                l(6) =   2
     Q(r) pseudized with  6 coefficients,  rinner =    1.000   1.000   1.000
                                                       1.000   1.000

     vdW kernel table read from file vdW_kernel_table
     MD5 check sum: 095c7af220d748ca6e76c0b4c6cfb241

     atomic species   valence    mass     pseudopotential
        Rh1           15.00   102.90550     Rh( 1.00)
        Bi1           15.00   208.98040     Bi( 1.00)

     No symmetry found

   Cartesian axes

     site n.     atom                  positions (alat units)
         1           Rh1 tau(   1) = (   0.0000000   0.0000000  10.0000000  )
         2           Bi1 tau(   2) = (   1.4356387   2.4865991  10.0000000  )
         3           Rh1 tau(   3) = (   2.8712773   0.0000000  10.0000000  )
         4           Rh1 tau(   4) = (   4.3069160   2.4865991  10.0000000  )
         5           Rh1 tau(   5) = (   5.7425546   3.3154655  12.3443881  )
         6           Bi1 tau(   6) = (   4.3069160   0.8288664  12.3443881  )
         7           Rh1 tau(   7) = (   2.8712773   3.3154655  12.3443881  )
         8           Rh1 tau(   8) = (   1.4356387   0.8288664  12.3443881  )
         9           Rh1 tau(   9) = (   2.8712773   1.6577327  14.6887762  )
        10           Bi1 tau(  10) = (   4.3069160   4.1443318  14.6887762  )
        11           Rh1 tau(  11) = (   5.7425546   1.6577327  14.6887762  )
        12           Rh1 tau(  12) = (   7.1781933   4.1443318  14.6887762  )

     number of k points=    20  Fermi-Dirac smearing, width (Ry)=  0.0110
                       cart. coord. in units 2pi/alat
        k(    1) = (   0.0000000   0.0000000   0.0000000), wk =   0.0555556
        k(    2) = (   0.0000000   0.0335130   0.0000000), wk =   0.1111111
        k(    3) = (   0.0000000   0.0670259   0.0000000), wk =   0.1111111
        k(    4) = (   0.0000000  -0.1005389   0.0000000), wk =   0.0555556
        k(    5) = (   0.0290231  -0.0167565   0.0000000), wk =   0.1111111
        k(    6) = (   0.0290231   0.0167565   0.0000000), wk =   0.1111111
        k(    7) = (   0.0290231   0.0502695   0.0000000), wk =   0.1111111
        k(    8) = (   0.0290231  -0.1172954   0.0000000), wk =   0.1111111
        k(    9) = (   0.0290231  -0.0837824   0.0000000), wk =   0.1111111
        k(   10) = (   0.0290231  -0.0502695   0.0000000), wk =   0.1111111
        k(   11) = (   0.0580462  -0.0335130   0.0000000), wk =   0.1111111
        k(   12) = (   0.0580462  -0.0000000   0.0000000), wk =   0.1111111
        k(   13) = (   0.0580462   0.0335130   0.0000000), wk =   0.1111111
        k(   14) = (   0.0580462  -0.1340519   0.0000000), wk =   0.1111111
        k(   15) = (   0.0580462  -0.1005389   0.0000000), wk =   0.1111111
        k(   16) = (   0.0580462  -0.0670259   0.0000000), wk =   0.1111111
        k(   17) = (  -0.0870693   0.0502695   0.0000000), wk =   0.0555556
        k(   18) = (  -0.0870693   0.0837824   0.0000000), wk =   0.1111111
        k(   19) = (  -0.0870693   0.1172954   0.0000000), wk =   0.1111111
        k(   20) = (  -0.0870693  -0.0502695   0.0000000), wk =   0.0555556

     Largest allocated arrays     est. size (Mb)     dimensions
     Largest temporary arrays     est. size (Mb)     dimensions

     Initial potential from superposition of free atoms
     Check: negative starting charge=   -0.625749

     starting charge  172.49899, renormalised to  180.00000

     negative rho (up, down):  6.530E-01 0.000E+00

     *
     * You are using vdW-DF for exchange-correlation in this calculation.
     * Please cite the following three references that made this development
     * possible:
     *
     *   M. Dion, H. Rydberg, E. Schroder, D. C. Langreth, and
     *   B. I. Lundqvist, Phys. Rev. Lett. 92, 246401 (2004).
     *
     *   T. Thonhauser, V. R. Cooper, S. Li, A. Puzder, P. Hyldgaard, and
     *   D. C. Langreth, Phys. Rev. B 76, 125112 (2007).
     *
     *   G. Roman-Perez and J. M. Soler, Phys. Rev. Lett. 103, 096102 (2009).
     *
     *
     * If you are using vdW-DF2, please also cite:
     *
     *   K. Lee, E. D. Murray, L. Kong, B. I. Lundqvist, and
     *   D. C. Langreth, Phys. Rev. B 82, 081101(R) (2010).
     *
     *
     * If you are calculating the stress with vdW-DF, please also cite:
     *
     *   R. Sabatini, E. Kucukbenli, B. Kolb, T. Thonhauser, and
     *   S. de Gironcoli, J. Phys.: Condens. Matter 24, 424209 (2012).
     *

     Carrying out vdW-DF run using the following parameters:

     Nqs =      20    Nr_points =    1024   r_max =   100.000
     q_mesh =
               0.00001000     0.04494208     0.09755937     0.15916263
               0.23128650     0.31572767     0.41458969     0.53033537
               0.66584808     0.82450364     1.01025438     1.22772762
               1.48234092     1.78043706     2.12944203     2.53805004
               3.01644009     3.57652955     4.23227104     5.00000000

     Gradients computed in reciprocal space

     Adding external electric field

     Computed dipole along edir(3) :
        Dipole               -0.0000 Ry au,         -0.0000 Debye
        Dipole field         -0.0000 Ry au

        Potential amp.        0.0000 Ry
        Total length         45.4886 bohr

     Starting wfc are  135 randomized atomic wfcs

     Self-consistent Calculation

     iteration #  1     ecut=    36.75 Ry     beta=0.30
     Davidson diagonalization with overlap
     ethr =  1.00E-02,  avg # of iterations =  2.0

[...]

     total energy              =   -2109.93548983 Ry
     Harris-Foulkes estimate   =   -2113.17779398 Ry
     estimated scf accuracy    <       7.51259600 Ry

[...]

     End of self-consistent calculation

          k = 0.0000 0.0000 0.0000 ( 17959 PWs)   bands (ev):

   -44.4774 -44.4243 -44.4054 -44.4047 -44.3935 -44.3921 -44.2746 -44.2180
   -44.2165 -44.1352 -44.1298 -44.0601 -44.0601 -44.0484 -44.0484 -43.9348
   -43.9318 -43.8996 -43.8831 -43.8830 -43.8814 -43.8812 -43.8812 -43.8707
   -43.8706 -43.8610 -43.8609 -21.5535 -21.5535 -21.5306 -21.5224 -21.5224
   -21.3759 -21.3707 -21.3442 -21.3442 -21.3387 -21.3387 -21.3093 -21.3093
   -21.3091 -21.3091 -10.3806  -9.4726  -9.3209  -2.8387  -2.8296  -2.4737
    -2.1627  -2.1625  -1.8714  -1.8713  -1.6876  -1.6871  -1.6824  -1.6263
    -1.6263  -1.4338  -1.0572  -1.0572  -1.0134  -0.5004  -0.5003  -0.3703
    -0.1919  -0.1917  -0.1243  -0.0260  -0.0260   0.1268   0.2229   0.2431
     0.2431   0.6555   0.6564   0.7287   0.8887   0.8889   1.0268   1.0268
     1.0629   1.2710   1.2716   1.4060   1.4060   1.5104   1.5660   1.5662
     1.6982   1.9464   2.0904   2.0906   2.3045   2.5930   2.6018   2.6018
     2.6304   2.7186   2.7190   2.7191

[...]

          k =-0.0871 0.0503 0.0000 ( 17868 PWs)   bands (ev):

[...]

     the Fermi energy is     1.8409 ev

!    total energy              =   -2111.32134592 Ry
     Harris-Foulkes estimate   =   -2111.32666839 Ry
     estimated scf accuracy    <       0.00000808 Ry

     The total energy is the sum of the following terms:

     one-electron contribution =  -16717.84159383 Ry
     hartree contribution      =    8407.68950508 Ry
     xc contribution           =    -479.60882336 Ry
     ewald contribution        =    6678.52453889 Ry
     electric field correction =       0.00000002 Ry
     smearing contrib. (-TS)   =      -0.08497272 Ry

     convergence has been achieved in  15 iterations

 BEEF-vdW xc energy contributions
           1 :   -421.730133262746
           2 :    389.336783507234
           3 :   -332.911201259117
           4 :    265.867952125824
           5 :   -201.889785892098
           6 :    150.709233831075
           7 :   -115.900522988595
           8 :    95.1985184653791
           9 :   -82.8478042146252
          10 :    72.7425016411973
          11 :   -60.9724314528343
          12 :    46.8420800702007
          13 :   -32.2379484739535
          14 :    19.9622355352226
          15 :   -12.0014255106203
          16 :    8.54699571311068
          17 :   -8.09363676662969
          18 :    8.37657585841731
          19 :   -7.55406010195844
          20 :    5.00824088300254
          21 :   -1.40809215517555
          22 :   -1.89694930160800
          23 :    3.73911640311911
          24 :   -3.76619468218246
          25 :    2.55334261806303
          26 :   -1.20670724227688
          27 :   0.725305743487695
          28 :   -1.48286332636422
          29 :    3.09380124315010
          30 :   -4.70187618074425
          31 :   -38.2093454368423
          32 :   -28.4723316199303

     Forces acting on atoms (Ry/au):

     negative rho (up, down):  6.458E-01 0.000E+00
     atom    1 type  1   force =     0.00867872   -0.00494201    0.02367240
     atom    2 type  2   force =    -0.00017131   -0.00021942   -0.02627541
     atom    3 type  1   force =    -0.00852242   -0.00492909    0.02372172
     atom    4 type  1   force =     0.00006116    0.00995601    0.02360853
     atom    5 type  1   force =     0.00005733    0.00002370   -0.00012150
     atom    6 type  2   force =    -0.00083958   -0.00036987    0.00042625
     atom    7 type  1   force =     0.00007587    0.00002919   -0.00011220
     atom    8 type  1   force =     0.00005066    0.00003471   -0.00010001
     atom    9 type  1   force =    -0.00850667    0.00498614   -0.02383633
     atom   10 type  2   force =     0.00037350    0.00031414    0.02671060
     atom   11 type  1   force =     0.00866331    0.00499030   -0.02387931
     atom   12 type  1   force =     0.00007944   -0.00987381   -0.02381475

     Total force =     0.052095     Total SCF correction =     0.002154

     entering subroutine stress ...

     negative rho (up, down):  6.458E-01 0.000E+00
          total   stress  (Ry/bohr**3)                   (kbar)     P=  -32.60
  -0.00022854  -0.00000000   0.00000004        -33.62     -0.00      0.01
  -0.00000000  -0.00022855   0.00000002         -0.00    -33.62      0.00
   0.00000004   0.00000002  -0.00020781          0.01      0.00    -30.57

     BFGS Geometry Optimization

     number of scf cycles    =   1
     number of bfgs steps    =   0

     energy   new            =   -2111.3213459192 Ry

     new trust radius        =       0.0267150604 bohr
     new conv_thr            =       0.0000099958 Ry

ATOMIC_POSITIONS (crystal)
Rh1      0.000000000   0.000000000   0.405042352    0   0   0
Bi1     -0.000000000   0.500000000   0.405042352    0   0   0
Rh1      0.500000000   0.000000000   0.405042352    0   0   0
Rh1      0.500000000   0.500000000   0.405042352    0   0   0
Rh1      0.666666667   0.666666667   0.500000000    0   0   0
Bi1      0.666666667   0.166666667   0.500000000    0   0   0
Rh1      0.166666667   0.666666667   0.500000000    0   0   0
Rh1      0.166666667   0.166666667   0.500000000    0   0   0
Rh1      0.332284165   0.333863888   0.594446742
Bi1      0.333351038   0.833366760   0.595530161
Rh1      0.833866160   0.333864331   0.594445820
Rh1      0.833865969   0.832282702   0.594447204

     Writing output data file calc.save
     Check: negative starting charge=   -0.625749
     NEW-OLD atomic charge density approx. for the potential
     Check: negative starting charge=   -0.621705

[...]

     energy   old            =   -2111.3213459192 Ry
     energy   new            =   -2111.3307834664 Ry

     CASE: energy  _new < energy  _old

     WARNING: bfgs curvature condition failed, Theta= 0.892
     new trust radius        =       0.0400725905 bohr
     new conv_thr            =       0.0000001000 Ry

[...]

     Total force =     0.004315     Total SCF correction =     0.001532
     SCF correction compared to forces is large: reduce conv_thr to get better values

[...]

     new trust radius        =       0.0028523632 bohr
     new conv_thr            =       0.0000001000 Ry

[...]

     Threshold (ethr) on eigenvalues was too large:
     Diagonalizing with lowered threshold

     Davidson diagonalization with overlap
     ethr =  6.20E-08,  avg # of iterations =  1.0

[...]

     Total force =     0.003461     Total SCF correction =     0.000114

[...]

     number of scf cycles    =   7
     number of bfgs steps    =   6

     energy   old            =   -2111.3416854736 Ry
     energy   new            =   -2111.3417029821 Ry

     CASE: energy  _new < energy  _old

     WARNING: bfgs curvature condition failed, Theta= 0.996
     new trust radius        =       0.0031375996 bohr
     new conv_thr            =       0.0000001000 Ry

ATOMIC_POSITIONS (crystal)
Rh1      0.000000000   0.000000000   0.405042352    0   0   0
Bi1     -0.000000000   0.500000000   0.405042352    0   0   0
Rh1      0.500000000   0.000000000   0.405042352    0   0   0
Rh1      0.500000000   0.500000000   0.405042352    0   0   0
Rh1      0.666666667   0.666666667   0.500000000    0   0   0
Bi1      0.666666667   0.166666667   0.500000000    0   0   0
Rh1      0.166666667   0.666666667   0.500000000    0   0   0
Rh1      0.166666667   0.166666667   0.500000000    0   0   0
Rh1      0.324995176   0.337562284   0.589787442
Bi1      0.333356529   0.833421186   0.600202950
Rh1      0.837502772   0.337532702   0.589788359
Rh1      0.837550168   0.824994662   0.589787549

     Writing output data file calc.save
     Check: negative starting charge=   -0.622752
     NEW-OLD atomic charge density approx. for the potential
     Check: negative starting charge=   -0.622631

[...]

     Self-consistent Calculation

[...]

     Threshold (ethr) on eigenvalues was too large:
     Diagonalizing with lowered threshold

     Davidson diagonalization with overlap
     ethr =  6.51E-08,  avg # of iterations =  1.0

[...]

     total energy              =   -2111.34171738 Ry
     Harris-Foulkes estimate   =   -2111.34171743 Ry
     estimated scf accuracy    <       0.00000019 Ry

     iteration #  8     ecut=    36.75 Ry     beta=0.30
     Davidson diagonalization with overlap
     ethr =  1.07E-10,  avg # of iterations =  1.4

[...]

     negative rho (up, down):  6.431E-01 0.000E+00

     Adding external electric field

     Computed dipole along edir(3) :
        Dipole                0.0489 Ry au,          0.1243 Debye
        Dipole field          0.0001 Ry au

        Potential amp.       -0.0117 Ry
        Total length         45.4886 bohr

     End of self-consistent calculation

[...]

          k = 0.0580-0.0670 0.0000 ( 17865 PWs)   bands (ev):

[...]

          k =-0.0871-0.0503 0.0000 ( 17868 PWs)   bands (ev):

   -44.3998 -44.3845 -44.3787 -44.3692 -44.3123 -44.3063 -44.2930 -44.2685
   -44.1769 -44.1201 -44.0524 -44.0373 -44.0099 -44.0069 -44.0024 -43.9308
   -43.9304 -43.9226 -43.9173 -43.9120 -43.9094 -43.9083 -43.8984 -43.8147
   -43.8038 -43.7946 -43.7872 -21.5046 -21.4963 -21.4764 -21.4758 -21.4738
   -21.3740 -21.3419 -21.3415 -21.2910 -21.2843 -21.2841 -21.2574 -21.2572
   -21.2195 -21.2119  -9.7935  -9.2474  -9.0900  -3.8982  -3.2878  -3.0499
    -2.9784  -2.1769  -1.9291  -1.9253  -1.8850  -1.8799  -1.6287  -1.4332
    -1.3989  -1.0836  -1.0285  -0.9564  -0.9274  -0.8931  -0.6349  -0.5837
    -0.3940  -0.2377  -0.1771  -0.0744   0.0912   0.1422   0.1968   0.2204
     0.2512   0.3455   0.4482   0.6231   0.6606   0.7350   0.8003   0.8198
     0.8733   0.9916   1.0533   1.0789   1.1079   1.2194   1.2433   1.2903
     1.6237   1.7717   2.1028   2.1157   2.3736   2.4435   2.9807   3.1916
     3.2794   3.3515   4.1853   4.2599

     the Fermi energy is     1.9146 ev

!    total energy              =   -2111.34171736 Ry
     Harris-Foulkes estimate   =   -2111.34171734 Ry
     estimated scf accuracy    <       0.00000006 Ry

     The total energy is the sum of the following terms:

     one-electron contribution =  -16866.25050335 Ry
     hartree contribution      =    8482.09659390 Ry
     xc contribution           =    -479.66844539 Ry
     ewald contribution        =    6752.56249792 Ry
     electric field correction =       0.00000632 Ry
     smearing contrib. (-TS)   =      -0.08186676 Ry

     convergence has been achieved in   8 iterations

 BEEF-vdW xc energy contributions
           1 :   -421.997807192908
           2 :    389.656973979789
           3 :   -333.295359131338
           4 :    266.273575994373
           5 :   -202.243740745086
           6 :    150.951479468528
           7 :   -116.020328677571
           8 :    95.2427689197505
           9 :   -82.8980920834208
          10 :    72.8743063768387
          11 :   -61.2181914366498
          12 :    47.1770138445531
          13 :   -32.5950826349687
          14 :    20.2687244954211
          15 :   -12.2173491622768
          16 :    8.68593423906373
          17 :   -8.21394624625088
          18 :    8.54858435915150
          19 :   -7.82075923122682
          20 :    5.36109737468814
          21 :   -1.79270990605789
          22 :   -1.54886093800371
          23 :    3.47159736801825
          24 :   -3.57646582108305
          25 :    2.39539004259228
          26 :   -1.01737297319545
          27 :   0.459163505394201
          28 :   -1.13747316570800
          29 :    2.71093195724677
          30 :   -4.34347094349562
          31 :   -38.2269503005488
          32 :   -28.5015366605528

     Forces acting on atoms (Ry/au):

     negative rho (up, down):  6.431E-01 0.000E+00
     atom    1 type  1   force =     0.00831265   -0.00479985    0.02406520
     atom    2 type  2   force =    -0.00001055    0.00000821   -0.02481855
     atom    3 type  1   force =    -0.00831233   -0.00479822    0.02405643
     atom    4 type  1   force =    -0.00000015    0.00959939    0.02406118
     atom    5 type  1   force =    -0.00891222    0.00515749   -0.00906251
     atom    6 type  2   force =     0.00000121   -0.00001504   -0.02047356
     atom    7 type  1   force =     0.00892984    0.00515800   -0.00908398
     atom    8 type  1   force =     0.00000698   -0.01029216   -0.00905866
     atom    9 type  1   force =     0.00125353   -0.00072324   -0.00019309
     atom   10 type  2   force =    -0.00001316   -0.00003589    0.00090006
     atom   11 type  1   force =    -0.00124966   -0.00071553   -0.00019489
     atom   12 type  1   force =    -0.00000614    0.00145683   -0.00019764

     Total force =     0.002686     Total SCF correction =     0.000335
     SCF correction compared to forces is large: reduce conv_thr to get better values

     entering subroutine stress ...

     negative rho (up, down):  6.431E-01 0.000E+00
          total   stress  (Ry/bohr**3)                   (kbar)     P=  -28.26
  -0.00020814  -0.00000002  -0.00000002        -30.62     -0.00     -0.00
  -0.00000002  -0.00020812  -0.00000003         -0.00    -30.62     -0.00
  -0.00000002  -0.00000003  -0.00016014         -0.00     -0.00    -23.56

     bfgs converged in   8 scf cycles and   7 bfgs steps
     (criteria: energy <  1.0E+00, force <  1.9E-03)

     End of BFGS Geometry Optimization

     Final energy   =   -2111.3417173628 Ry
Begin final coordinates

ATOMIC_POSITIONS (crystal)
Rh1      0.000000000   0.000000000   0.405042352    0   0   0
Bi1     -0.000000000   0.500000000   0.405042352    0   0   0
Rh1      0.500000000   0.000000000   0.405042352    0   0   0
Rh1      0.500000000   0.500000000   0.405042352    0   0   0
Rh1      0.666666667   0.666666667   0.500000000    0   0   0
Bi1      0.666666667   0.166666667   0.500000000    0   0   0
Rh1      0.166666667   0.666666667   0.500000000    0   0   0
Rh1      0.166666667   0.166666667   0.500000000    0   0   0
Rh1      0.324995176   0.337562284   0.589787442
Bi1      0.333356529   0.833421186   0.600202950
Rh1      0.837502772   0.337532702   0.589788359
Rh1      0.837550168   0.824994662   0.589787549
End final coordinates

     Writing output data file calc.save

     General routines

     Parallel routines

   This run was terminated on:  16:56:29  23Feb2018

   JOB DONE.