     Program PWSCF v.5.1rc2 (svn rev. ) starts on 23Feb2018 at 16:25:32

     Current dimensions of program PWSCF are:
     Max number of different atomic species (ntypx) = 10
     Max number of k-points (npk) =  40000
     Max angular momentum in pseudopotentials (lmaxx) =  3
     Presently stress not available with electric field

     IMPORTANT: XC functional enforced from input :
     Exchange-correlation      = BEEF-VDW ( 1  4 27 13 2)
     Any further DFT definition will be discarded
     Please, verify this is what you really want

     Subspace diagonalization in iterative solution of the eigenvalue problem:
     a serial algorithm will be used

     bravais-lattice index     =            0
     lattice parameter (alat)  =       1.8897  a.u.
     unit-cell volume          =    6709.7279 (a.u.)^3
     number of atoms/cell      =           12
     number of atomic types    =            2
     number of electrons       =       183.00
     number of Kohn-Sham states=          101
     kinetic-energy cutoff     =      36.7493  Ry
     charge density cutoff     =     367.4932  Ry
     convergence threshold     =      1.0E-05
     mixing beta               =       0.3000
     number of iterations used =           10  plain     mixing
     Exchange-correlation      = BEEF-VDW ( 1  4 27 13 2)
     nstep                     =           50

     celldm(1)=   1.889726  celldm(2)=   0.000000  celldm(3)=   0.000000
     celldm(4)=   0.000000  celldm(5)=   0.000000  celldm(6)=   0.000000

     crystal axes: (cart. coord. in units of alat)
               a(1) = (   6.712480   0.000000   0.000000 )
               a(2) = (   3.356240   5.813178   0.000000 )
               a(3) = (   0.000000   0.000000  25.480717 )

     reciprocal axes: (cart. coord. in units 2 pi/alat)
               b(1) = (  0.148976 -0.086011  0.000000 )
               b(2) = (  0.000000  0.172023  0.000000 )
               b(3) = (  0.000000  0.000000  0.039245 )

     PseudoPot. # 1 for Bi read from file:
     /home/mamunm/src/pseudo/gbrv1.5pbe/Bi.UPF
     MD5 check sum: 81103212dc04adf40945787f699eab19
     Pseudo is Ultrasoft + core correction, Zval = 15.0
     Generated by new atomic code, or converted to UPF format
     Using radial grid of  899 points,  6 beta functions with:
                l(1) =   0
                l(2) =   0
                l(3) =   1
                l(4) =   1
                l(5) =   2
                l(6) =   2
     Q(r) pseudized with  6 coefficients,  rinner =    1.000   1.000   1.000
                                                       1.000   1.000

     PseudoPot. # 2 for Ru read from file:
     /home/mamunm/src/pseudo/gbrv1.5pbe/Ru.UPF
     MD5 check sum: 7158a806dd851261a58e6920c40ebe78
     Pseudo is Ultrasoft + core correction, Zval = 16.0
     Generated by new atomic code, or converted to UPF format
     Using radial grid of  967 points,  6 beta functions with:
                l(1) =   0
                l(2) =   0
                l(3) =   1
                l(4) =   1
                l(5) =   2
                l(6) =   2
     Q(r) pseudized with  8 coefficients,  rinner =    1.300   1.300   1.300
                                                       1.300   1.300

     vdW kernel table read from file vdW_kernel_table
     MD5 check sum: 095c7af220d748ca6e76c0b4c6cfb241

     atomic species   valence    mass     pseudopotential
        Bi1           15.00   208.98040     Bi( 1.00)
        Ru1           16.00   101.07000     Ru( 1.00)

     No symmetry found

   Cartesian axes

     site n.     atom                  positions (alat units)
         1           Bi1 tau(   1) = (   0.0000000   0.0000000  10.0000000  )
         2           Ru1 tau(   2) = (   1.6781200   2.9065892  10.0000000  )
         3           Bi1 tau(   3) = (   3.3562401   0.0000000  10.0000000  )
         4           Bi1 tau(   4) = (   5.0343601   2.9065892  10.0000000  )
         5           Bi1 tau(   5) = (   6.7124802   3.8754522  12.7403586  )
         6           Ru1 tau(   6) = (   5.0343601   0.9688631  12.7403586  )
         7           Bi1 tau(   7) = (   3.3562401   3.8754522  12.7403586  )
         8           Bi1 tau(   8) = (   1.6781200   0.9688631  12.7403586  )
         9           Bi1 tau(   9) = (   3.3562401   1.9377261  15.4807171  )
        10           Ru1 tau(  10) = (   5.0343601   4.8443153  15.4807171  )
        11           Bi1 tau(  11) = (   6.7124802   1.9377261  15.4807171  )
        12           Bi1 tau(  12) = (   8.3906002   4.8443153  15.4807171  )

     number of k points=    20  Fermi-Dirac smearing, width (Ry)=  0.0110
                       cart. coord. in units 2pi/alat
        k(    1) = (   0.0000000   0.0000000   0.0000000), wk =   0.0555556
        k(    2) = (   0.0000000   0.0286705   0.0000000), wk =   0.1111111
        k(    3) = (   0.0000000   0.0573410   0.0000000), wk =   0.1111111
        k(    4) = (   0.0000000  -0.0860115   0.0000000), wk =   0.0555556
        k(    5) = (   0.0248294  -0.0143352   0.0000000), wk =   0.1111111
        k(    6) = (   0.0248294   0.0143352   0.0000000), wk =   0.1111111
        k(    7) = (   0.0248294   0.0430057   0.0000000), wk =   0.1111111
        k(    8) = (   0.0248294  -0.1003467   0.0000000), wk =   0.1111111
        k(    9) = (   0.0248294  -0.0716762   0.0000000), wk =   0.1111111
        k(   10) = (   0.0248294  -0.0430057   0.0000000), wk =   0.1111111
        k(   11) = (   0.0496587  -0.0286705   0.0000000), wk =   0.1111111
        k(   12) = (   0.0496587   0.0000000   0.0000000), wk =   0.1111111
        k(   13) = (   0.0496587   0.0286705   0.0000000), wk =   0.1111111
        k(   14) = (   0.0496587  -0.1146820   0.0000000), wk =   0.1111111
        k(   15) = (   0.0496587  -0.0860115   0.0000000), wk =   0.1111111
        k(   16) = (   0.0496587  -0.0573410   0.0000000), wk =   0.1111111
        k(   17) = (  -0.0744881   0.0430057   0.0000000), wk =   0.0555556
        k(   18) = (  -0.0744881   0.0716762   0.0000000), wk =   0.1111111
        k(   19) = (  -0.0744881   0.1003467   0.0000000), wk =   0.1111111
        k(   20) = (  -0.0744881  -0.0430057   0.0000000), wk =   0.0555556

     Largest allocated arrays     est. size (Mb)     dimensions
     Largest temporary arrays     est. size (Mb)     dimensions

     Check: negative/imaginary core charge=   -0.000001    0.000000

     Initial potential from superposition of free atoms
     Check: negative starting charge=   -0.597332

     starting charge  170.99958, renormalised to  183.00000

     negative rho (up, down):  6.393E-01 0.000E+00

     *
     * You are using vdW-DF for exchange-correlation in this calculation.
     * Please cite the following three references that made this development
     * possible:
     *
     *   M. Dion, H. Rydberg, E. Schroder, D. C. Langreth, and
     *   B. I. Lundqvist, Phys. Rev. Lett. 92, 246401 (2004).
     *
     *   T. Thonhauser, V. R. Cooper, S. Li, A. Puzder, P. Hyldgaard, and
     *   D. C. Langreth, Phys. Rev. B 76, 125112 (2007).
     *
     *   G. Roman-Perez and J. M. Soler, Phys. Rev. Lett. 103, 096102 (2009).
     *
     *
     * If you are using vdW-DF2, please also cite:
     *
     *   K. Lee, E. D. Murray, L. Kong, B. I. Lundqvist, and
     *   D. C. Langreth, Phys. Rev. B 82, 081101(R) (2010).
     *
     *
     * If you are calculating the stress with vdW-DF, please also cite:
     *
     *   R. Sabatini, E. Kucukbenli, B. Kolb, T. Thonhauser, and
     *   S. de Gironcoli, J. Phys.: Condens. Matter 24, 424209 (2012).
     *

     Carrying out vdW-DF run using the following parameters:

     Nqs =      20    Nr_points =    1024   r_max =   100.000
     q_mesh =
               0.00001000     0.04494208     0.09755937     0.15916263
               0.23128650     0.31572767     0.41458969     0.53033537
               0.66584808     0.82450364     1.01025438     1.22772762
               1.48234092     1.78043706     2.12944203     2.53805004
               3.01644009     3.57652955     4.23227104     5.00000000

     Gradients computed in reciprocal space

     Adding external electric field

     Computed dipole along edir(3) :
        Dipole                0.0000 Ry au,          0.0000 Debye
        Dipole field          0.0000 Ry au

        Potential amp.       -0.0000 Ry
        Total length         46.9478 bohr

     Starting wfc are  120 randomized atomic wfcs

     Self-consistent Calculation

     iteration #  1     ecut=    36.75 Ry     beta=0.30
     Davidson diagonalization with overlap
     ethr =  1.00E-02,  avg # of iterations =  3.6

[...]

     total energy              =   -2265.12226264 Ry
     Harris-Foulkes estimate   =   -2273.53873497 Ry
     estimated scf accuracy    <      18.42023630 Ry

[...]

     End of self-consistent calculation

          k = 0.0000 0.0000 0.0000 ( 25317 PWs)   bands (ev):

   -70.5719 -70.3081 -70.3080 -40.6127 -40.5369 -40.5369 -40.3419 -40.3419
   -40.3418 -40.3418 -40.2689 -40.2689 -22.3232 -22.3045 -22.3045 -22.2712
   -22.2166 -22.2166 -22.1819 -22.1819 -22.1777 -22.1761 -22.1400 -22.1360
   -22.1268 -22.1268 -22.1108 -22.1108 -22.0991 -22.0991 -22.0813 -22.0813
   -22.0561 -22.0443 -22.0364 -21.9978 -21.9978 -21.9791 -21.9791 -21.9734
   -21.9684 -21.9539 -21.9539 -21.9391 -21.9378 -21.9378 -21.9268 -21.9268
   -21.9252 -21.9252 -21.9230 -21.9230 -21.9132 -21.9076 -21.9076 -21.8580
   -21.8575 -11.8824 -10.8623  -9.8450  -9.2320  -9.2320  -8.6049  -8.6049
    -8.1054  -8.1053  -4.0206  -3.2427  -2.8902  -2.5090  -2.5090  -2.4004
    -1.8291  -1.8291  -1.3527  -1.3527  -0.8945   0.0600   0.0600   0.2661
     0.2661   0.6033   0.6033   0.6185   0.8183   0.8183   0.8519   0.8519
     0.8831   0.8967   0.8967   0.9910   1.3619   1.8433   2.2952   2.2952
     2.3017   2.3017   2.6577   2.8959   3.9028

[...]

          k =-0.0745 0.0430 0.0000 ( 25258 PWs)   bands (ev):

[...]

     the Fermi energy is     1.2818 ev

!    total energy              =   -2269.35665300 Ry
     Harris-Foulkes estimate   =   -2269.35665549 Ry
     estimated scf accuracy    <       0.00000732 Ry

     The total energy is the sum of the following terms:

     one-electron contribution =  -12120.70747919 Ry
     hartree contribution      =    6101.30464141 Ry
     xc contribution           =    -679.56546343 Ry
     ewald contribution        =    4429.68925581 Ry
     electric field correction =       0.00000007 Ry
     smearing contrib. (-TS)   =      -0.07760768 Ry

     convergence has been achieved in  14 iterations

 BEEF-vdW xc energy contributions
           1 :   -603.966841595081
           2 :    560.257918905742
           3 :   -483.495495195411
           4 :    390.932793560131
           5 :   -300.468977879812
           6 :    225.264816496831
           7 :   -170.762830836337
           8 :    134.857742750210
           9 :   -110.723729072193
          10 :    90.7977931535477
          11 :   -70.1300632169899
          12 :    47.8177072538108
          13 :   -26.2737892585353
          14 :    9.08162474312803
          15 :    1.29794929747482
          16 :   -4.85326093715355
          17 :    3.90331452860823
          18 :   -1.82066601336055
          19 :    1.38493353614069
          20 :   -3.62551418915837
          21 :    7.66150157966376
          22 :   -11.4978178066876
          23 :    13.2641834172121
          24 :   -12.2268533211850
          25 :    9.09404547299175
          26 :   -5.54560183702711
          27 :    3.30646569049668
          28 :   -3.27671569278277
          29 :    5.15123198796573
          30 :   -7.67874426425124
          31 :   -49.7651286220701
          32 :   -36.6999870974689

     Forces acting on atoms (Ry/au):

     negative rho (up, down):  6.144E-01 0.000E+00
     atom    1 type  1   force =    -0.02584311    0.01491444   -0.00165573
     atom    2 type  2   force =     0.00000542    0.00000271    0.04988228
     atom    3 type  1   force =     0.02584448    0.01492211   -0.00164902
     atom    4 type  1   force =     0.00000299   -0.02984632   -0.00165592
     atom    5 type  1   force =     0.00013188   -0.00007313    0.00060280
     atom    6 type  2   force =    -0.00000046    0.00000881   -0.00024303
     atom    7 type  1   force =    -0.00013862   -0.00008268    0.00059647
     atom    8 type  1   force =     0.00000873    0.00015830    0.00060088
     atom    9 type  1   force =     0.02581090   -0.01491358    0.00137323
     atom   10 type  2   force =    -0.00000311   -0.00000554   -0.05059661
     atom   11 type  1   force =    -0.02580875   -0.01489358    0.00136948
     atom   12 type  1   force =    -0.00001035    0.02980846    0.00137517

     Total force =     0.072324     Total SCF correction =     0.008703
     SCF correction compared to forces is large: reduce conv_thr to get better values

     entering subroutine stress ...

     negative rho (up, down):  6.144E-01 0.000E+00
          total   stress  (Ry/bohr**3)                   (kbar)     P=  -12.92
  -0.00008764  -0.00000000   0.00000000        -12.89     -0.00      0.00
  -0.00000000  -0.00008764  -0.00000000         -0.00    -12.89     -0.00
   0.00000000  -0.00000000  -0.00008825          0.00     -0.00    -12.98

     BFGS Geometry Optimization

     number of scf cycles    =   1
     number of bfgs steps    =   0

     energy   new            =   -2269.3566529992 Ry

     new trust radius        =       0.0505966136 bohr
     new conv_thr            =       0.0000099958 Ry

ATOMIC_POSITIONS (crystal)
Bi1      0.000000000   0.000000000   0.392453633    0   0   0
Ru1      0.000000000   0.500000000   0.392453633    0   0   0
Bi1      0.500000000   0.000000000   0.392453633    0   0   0
Bi1      0.500000000   0.500000000   0.392453633    0   0   0
Bi1      0.666666667   0.666666667   0.500000000    0   0   0
Ru1      0.666666667   0.166666667   0.500000000    0   0   0
Bi1      0.166666667   0.666666667   0.500000000    0   0   0
Bi1      0.166666667   0.166666667   0.500000000    0   0   0
Bi1      0.336046927   0.331975741   0.607574886
Ru1      0.333333341   0.833332829   0.606495589
Bi1      0.831976591   0.331977562   0.607574808
Bi1      0.831975776   0.836046816   0.607574926

     Writing output data file calc.save
     Check: negative starting charge=   -0.597332
     NEW-OLD atomic charge density approx. for the potential

     Check: negative/imaginary core charge=   -0.000001    0.000000
     Check: negative starting charge=   -0.598764

[...]

     Total force =     0.068805     Total SCF correction =     0.004259

[...]

     energy   old            =   -2269.3566529992 Ry
     energy   new            =   -2269.3616649012 Ry

     CASE: energy  _new < energy  _old

     WARNING: bfgs curvature condition failed, Theta= 0.846
     new trust radius        =       0.0556562749 bohr
     new conv_thr            =       0.0000001000 Ry

[...]

     Total force =     0.007749     Total SCF correction =     0.000340

[...]

     number of scf cycles    =  16
     number of bfgs steps    =  15

     energy   old            =   -2269.4185737927 Ry
     energy   new            =   -2269.4187920573 Ry

     CASE: energy  _new < energy  _old

     new trust radius        =       0.0060688223 bohr
     new conv_thr            =       0.0000001000 Ry

ATOMIC_POSITIONS (crystal)
Bi1      0.000000000   0.000000000   0.392453633    0   0   0
Ru1      0.000000000   0.500000000   0.392453633    0   0   0
Bi1      0.500000000   0.000000000   0.392453633    0   0   0
Bi1      0.500000000   0.500000000   0.392453633    0   0   0
Bi1      0.666666667   0.666666667   0.500000000    0   0   0
Ru1      0.666666667   0.166666667   0.500000000    0   0   0
Bi1      0.166666667   0.666666667   0.500000000    0   0   0
Bi1      0.166666667   0.166666667   0.500000000    0   0   0
Bi1      0.355702984   0.322145295   0.602199735
Ru1      0.333345113   0.833321860   0.578937762
Bi1      0.822132905   0.322153969   0.602198978
Bi1      0.822142390   0.855710511   0.602199305

     Writing output data file calc.save
     Check: negative starting charge=   -0.597194
     NEW-OLD atomic charge density approx. for the potential

     Check: negative/imaginary core charge=   -0.000001    0.000000
     Check: negative starting charge=   -0.597173

[...]

     Self-consistent Calculation

[...]

     total energy              =   -2269.41882316 Ry
     Harris-Foulkes estimate   =   -2269.41882323 Ry
     estimated scf accuracy    <       0.00000054 Ry

     iteration #  9     ecut=    36.75 Ry     beta=0.30
     Davidson diagonalization with overlap
     ethr =  1.51E-10,  avg # of iterations =  2.2

[...]

     negative rho (up, down):  6.163E-01 0.000E+00

     Adding external electric field

     Computed dipole along edir(3) :
        Dipole                0.0827 Ry au,          0.2101 Debye
        Dipole field          0.0002 Ry au

        Potential amp.       -0.0145 Ry
        Total length         46.9478 bohr

     End of self-consistent calculation

[...]

          k = 0.0497-0.0573 0.0000 ( 25262 PWs)   bands (ev):

[...]

          k =-0.0745-0.0430 0.0000 ( 25258 PWs)   bands (ev):

   -70.5304 -70.3721 -70.2246 -40.5901 -40.4894 -40.4894 -40.4490 -40.3832
   -40.3832 -40.2661 -40.2661 -40.1836 -22.2198 -22.1594 -22.1544 -22.1484
   -22.1415 -22.1338 -22.1165 -22.1144 -22.1018 -22.0681 -22.0578 -22.0518
   -22.0494 -22.0388 -22.0322 -22.0276 -22.0108 -22.0005 -21.9947 -21.9819
   -21.9628 -21.9462 -21.9456 -21.9446 -21.9433 -21.9300 -21.9262 -21.9203
   -21.9169 -21.9115 -21.9073 -21.9050 -21.9022 -21.8991 -21.8935 -21.8912
   -21.8790 -21.8663 -21.8646 -21.8549 -21.8546 -21.8475 -21.8405 -21.8361
   -21.8054 -11.1548 -10.9716 -10.2512  -9.5979  -9.4700  -9.2911  -8.7269
    -8.5881  -7.9533  -3.4527  -3.0674  -2.4647  -1.6747  -1.5655  -1.4161
    -1.2963  -1.2803  -1.1633  -0.7913  -0.7465  -0.5583  -0.1382  -0.1356
     0.0108   0.2887   0.4324   0.5639   0.6516   0.7460   0.8242   0.8441
     0.9033   0.9473   1.0331   1.0672   1.4024   1.5638   1.6032   1.9413
     2.2359   2.6380   2.7822   2.9838   3.0236

     the Fermi energy is     1.3356 ev

!    total energy              =   -2269.41882312 Ry
     Harris-Foulkes estimate   =   -2269.41882242 Ry
     estimated scf accuracy    <       0.00000009 Ry

     The total energy is the sum of the following terms:

     one-electron contribution =  -12616.14132567 Ry
     hartree contribution      =    6349.39149777 Ry
     xc contribution           =    -679.91705853 Ry
     ewald contribution        =    4677.32254091 Ry
     electric field correction =       0.00001280 Ry
     smearing contrib. (-TS)   =      -0.07449040 Ry

     convergence has been achieved in   9 iterations

 BEEF-vdW xc energy contributions
           1 :   -604.335374758012
           2 :    560.795383202318
           3 :   -484.246067125797
           4 :    391.761350929834
           5 :   -301.119737462743
           6 :    225.504411916735
           7 :   -170.520726161656
           8 :    134.280590038934
           9 :   -110.111831264301
          10 :    90.4567282476439
          11 :   -70.2168476084344
          12 :    48.2640238122767
          13 :   -26.8276126320980
          14 :    9.44453328866587
          15 :    1.31170856925485
          16 :   -5.22079926095466
          17 :    4.41148387158000
          18 :   -2.18645070752939
          19 :    1.40944092842687
          20 :   -3.29696699447584
          21 :    7.15355170910152
          22 :   -11.0686657909511
          23 :    13.1155290217741
          24 :   -12.4007307388438
          25 :    9.46088986092207
          26 :   -5.88391081186546
          27 :    3.42529077203073
          28 :   -3.11323096867670
          29 :    4.79353565656561
          30 :   -7.30766144249696
          31 :   -49.7947410577481
          32 :   -36.7686850347019

     Forces acting on atoms (Ry/au):

     negative rho (up, down):  6.163E-01 0.000E+00
     atom    1 type  1   force =    -0.02368038    0.01367196    0.00031542
     atom    2 type  2   force =     0.00000070   -0.00000094    0.03147261
     atom    3 type  1   force =     0.02368005    0.01367215    0.00031496
     atom    4 type  1   force =    -0.00000010   -0.02734347    0.00031478
     atom    5 type  1   force =     0.00499220   -0.00288109   -0.01529533
     atom    6 type  2   force =    -0.00000087    0.00000054    0.01207278
     atom    7 type  1   force =    -0.00499002   -0.00288041   -0.01528920
     atom    8 type  1   force =    -0.00000152    0.00575894   -0.01528575
     atom    9 type  1   force =     0.00096570   -0.00055743    0.00044399
     atom   10 type  2   force =     0.00000304   -0.00000231    0.00004942
     atom   11 type  1   force =    -0.00096744   -0.00055512    0.00044348
     atom   12 type  1   force =    -0.00000133    0.00111716    0.00044284

     Total force =     0.002080     Total SCF correction =     0.001615
     SCF correction compared to forces is large: reduce conv_thr to get better values

     entering subroutine stress ...

     negative rho (up, down):  6.163E-01 0.000E+00
          total   stress  (Ry/bohr**3)                   (kbar)     P=   -4.71
  -0.00002991  -0.00000000  -0.00000000         -4.40     -0.00     -0.00
  -0.00000000  -0.00002992   0.00000000         -0.00     -4.40      0.00
  -0.00000000   0.00000000  -0.00003624         -0.00      0.00     -5.33

     bfgs converged in  17 scf cycles and  16 bfgs steps
     (criteria: energy <  1.0E+00, force <  1.9E-03)

     End of BFGS Geometry Optimization

     Final energy   =   -2269.4188231221 Ry
Begin final coordinates

ATOMIC_POSITIONS (crystal)
Bi1      0.000000000   0.000000000   0.392453633    0   0   0
Ru1      0.000000000   0.500000000   0.392453633    0   0   0
Bi1      0.500000000   0.000000000   0.392453633    0   0   0
Bi1      0.500000000   0.500000000   0.392453633    0   0   0
Bi1      0.666666667   0.666666667   0.500000000    0   0   0
Ru1      0.666666667   0.166666667   0.500000000    0   0   0
Bi1      0.166666667   0.666666667   0.500000000    0   0   0
Bi1      0.166666667   0.166666667   0.500000000    0   0   0
Bi1      0.355702984   0.322145295   0.602199735
Ru1      0.333345113   0.833321860   0.578937762
Bi1      0.822132905   0.322153969   0.602198978
Bi1      0.822142390   0.855710511   0.602199305
End final coordinates

     Writing output data file calc.save

     General routines

     Parallel routines

   This run was terminated on:  18: 0:42  23Feb2018

   JOB DONE.