     Program PWSCF v.5.1rc2 (svn rev. ) starts on 23Feb2018 at 16:25:32

     Current dimensions of program PWSCF are:
     Max number of different atomic species (ntypx) = 10
     Max number of k-points (npk) =  40000
     Max angular momentum in pseudopotentials (lmaxx) =  3
     Presently stress not available with electric field

     IMPORTANT: XC functional enforced from input :
     Exchange-correlation      = BEEF-VDW ( 1  4 27 13 2)
     Any further DFT definition will be discarded
     Please, verify this is what you really want

     Subspace diagonalization in iterative solution of the eigenvalue problem:
     a serial algorithm will be used

     bravais-lattice index     =            0
     lattice parameter (alat)  =       1.8897  a.u.
     unit-cell volume          =    7536.1677 (a.u.)^3
     number of atoms/cell      =           12
     number of atomic types    =            2
     number of electrons       =       171.00
     number of Kohn-Sham states=           95
     kinetic-energy cutoff     =      36.7493  Ry
     charge density cutoff     =     367.4932  Ry
     convergence threshold     =      1.0E-05
     mixing beta               =       0.3000
     number of iterations used =           10  plain     mixing
     Exchange-correlation      = BEEF-VDW ( 1  4 27 13 2)
     nstep                     =           50

     celldm(1)=   1.889726  celldm(2)=   0.000000  celldm(3)=   0.000000
     celldm(4)=   0.000000  celldm(5)=   0.000000  celldm(6)=   0.000000

     crystal axes: (cart. coord. in units of alat)
               a(1) = (   7.073117   0.000000   0.000000 )
               a(2) = (   3.536559   6.125499   0.000000 )
               a(3) = (   0.000000   0.000000  25.775176 )

     reciprocal axes: (cart. coord. in units 2 pi/alat)
               b(1) = (  0.141380 -0.081626  0.000000 )
               b(2) = (  0.000000  0.163252  0.000000 )
               b(3) = (  0.000000  0.000000  0.038797 )

     PseudoPot. # 1 for Bi read from file:
     /home/mamunm/src/pseudo/gbrv1.5pbe/Bi.UPF
     MD5 check sum: 81103212dc04adf40945787f699eab19
     Pseudo is Ultrasoft + core correction, Zval = 15.0
     Generated by new atomic code, or converted to UPF format
     Using radial grid of  899 points,  6 beta functions with:
                l(1) =   0
                l(2) =   0
                l(3) =   1
                l(4) =   1
                l(5) =   2
                l(6) =   2
     Q(r) pseudized with  6 coefficients,  rinner =    1.000   1.000   1.000
                                                       1.000   1.000

     PseudoPot. # 2 for Cd read from file:
     /home/mamunm/src/pseudo/gbrv1.5pbe/Cd.UPF
     MD5 check sum: 17164a7926edb8e0dc231208abae86a6
     Pseudo is Ultrasoft + core correction, Zval = 12.0
     Generated by new atomic code, or converted to UPF format
     Using radial grid of  889 points,  6 beta functions with:
                l(1) =   0
                l(2) =   0
                l(3) =   1
                l(4) =   1
                l(5) =   2
                l(6) =   2
     Q(r) pseudized with  6 coefficients,  rinner =    1.000   1.000   1.000
                                                       1.000   1.000

     vdW kernel table read from file vdW_kernel_table
     MD5 check sum: 095c7af220d748ca6e76c0b4c6cfb241

     atomic species   valence    mass     pseudopotential
        Bi1           15.00   208.98040     Bi( 1.00)
        Cd1           12.00   112.41400     Cd( 1.00)

     No symmetry found

   Cartesian axes

     site n.     atom                  positions (alat units)
         1           Bi1 tau(   1) = (   0.0000000   0.0000000  10.0000000  )
         2           Cd1 tau(   2) = (   1.7682793   3.0627495  10.0000000  )
         3           Bi1 tau(   3) = (   3.5365585   0.0000000  10.0000000  )
         4           Bi1 tau(   4) = (   5.3048378   3.0627495  10.0000000  )
         5           Bi1 tau(   5) = (   7.0731170   4.0836660  12.8875879  )
         6           Cd1 tau(   6) = (   5.3048378   1.0209165  12.8875879  )
         7           Bi1 tau(   7) = (   3.5365585   4.0836660  12.8875879  )
         8           Bi1 tau(   8) = (   1.7682793   1.0209165  12.8875879  )
         9           Bi1 tau(   9) = (   3.5365585   2.0418330  15.7751759  )
        10           Cd1 tau(  10) = (   5.3048378   5.1045825  15.7751759  )
        11           Bi1 tau(  11) = (   7.0731170   2.0418330  15.7751759  )
        12           Bi1 tau(  12) = (   8.8413963   5.1045825  15.7751759  )

     number of k points=    20  Fermi-Dirac smearing, width (Ry)=  0.0110
                       cart. coord. in units 2pi/alat
        k(    1) = (   0.0000000   0.0000000   0.0000000), wk =   0.0555556
        k(    2) = (   0.0000000   0.0272087   0.0000000), wk =   0.1111111
        k(    3) = (   0.0000000   0.0544173   0.0000000), wk =   0.1111111
        k(    4) = (   0.0000000  -0.0816260   0.0000000), wk =   0.0555556
        k(    5) = (   0.0235634  -0.0136043   0.0000000), wk =   0.1111111
        k(    6) = (   0.0235634   0.0136043   0.0000000), wk =   0.1111111
        k(    7) = (   0.0235634   0.0408130   0.0000000), wk =   0.1111111
        k(    8) = (   0.0235634  -0.0952303   0.0000000), wk =   0.1111111
        k(    9) = (   0.0235634  -0.0680217   0.0000000), wk =   0.1111111
        k(   10) = (   0.0235634  -0.0408130   0.0000000), wk =   0.1111111
        k(   11) = (   0.0471268  -0.0272087   0.0000000), wk =   0.1111111
        k(   12) = (   0.0471268   0.0000000   0.0000000), wk =   0.1111111
        k(   13) = (   0.0471268   0.0272087   0.0000000), wk =   0.1111111
        k(   14) = (   0.0471268  -0.1088347   0.0000000), wk =   0.1111111
        k(   15) = (   0.0471268  -0.0816260   0.0000000), wk =   0.1111111
        k(   16) = (   0.0471268  -0.0544173   0.0000000), wk =   0.1111111
        k(   17) = (  -0.0706902   0.0408130   0.0000000), wk =   0.0555556
        k(   18) = (  -0.0706902   0.0680217   0.0000000), wk =   0.1111111
        k(   19) = (  -0.0706902   0.0952303   0.0000000), wk =   0.1111111
        k(   20) = (  -0.0706902  -0.0408130   0.0000000), wk =   0.0555556

     Largest allocated arrays     est. size (Mb)     dimensions
     Largest temporary arrays     est. size (Mb)     dimensions

     Initial potential from superposition of free atoms
     Check: negative starting charge=   -0.444657

     starting charge  160.49950, renormalised to  171.00000

     negative rho (up, down):  4.737E-01 0.000E+00

     *
     * You are using vdW-DF for exchange-correlation in this calculation.
     * Please cite the following three references that made this development
     * possible:
     *
     *   M. Dion, H. Rydberg, E. Schroder, D. C. Langreth, and
     *   B. I. Lundqvist, Phys. Rev. Lett. 92, 246401 (2004).
     *
     *   T. Thonhauser, V. R. Cooper, S. Li, A. Puzder, P. Hyldgaard, and
     *   D. C. Langreth, Phys. Rev. B 76, 125112 (2007).
     *
     *   G. Roman-Perez and J. M. Soler, Phys. Rev. Lett. 103, 096102 (2009).
     *
     *
     * If you are using vdW-DF2, please also cite:
     *
     *   K. Lee, E. D. Murray, L. Kong, B. I. Lundqvist, and
     *   D. C. Langreth, Phys. Rev. B 82, 081101(R) (2010).
     *
     *
     * If you are calculating the stress with vdW-DF, please also cite:
     *
     *   R. Sabatini, E. Kucukbenli, B. Kolb, T. Thonhauser, and
     *   S. de Gironcoli, J. Phys.: Condens. Matter 24, 424209 (2012).
     *

     Carrying out vdW-DF run using the following parameters:

     Nqs =      20    Nr_points =    1024   r_max =   100.000
     q_mesh =
               0.00001000     0.04494208     0.09755937     0.15916263
               0.23128650     0.31572767     0.41458969     0.53033537
               0.66584808     0.82450364     1.01025438     1.22772762
               1.48234092     1.78043706     2.12944203     2.53805004
               3.01644009     3.57652955     4.23227104     5.00000000

     Gradients computed in reciprocal space

     Adding external electric field

     Computed dipole along edir(3) :
        Dipole               -0.0000 Ry au,         -0.0000 Debye
        Dipole field         -0.0000 Ry au

        Potential amp.        0.0000 Ry
        Total length         47.4903 bohr

     Starting wfc are  108 randomized atomic wfcs

     Self-consistent Calculation

     iteration #  1     ecut=    36.75 Ry     beta=0.30
     Davidson diagonalization with overlap
     ethr =  1.00E-02,  avg # of iterations =  3.4

[...]

     total energy              =   -2032.40113924 Ry
     Harris-Foulkes estimate   =   -2035.28756459 Ry
     estimated scf accuracy    <       6.36272548 Ry

[...]

     End of self-consistent calculation

          k = 0.0000 0.0000 0.0000 ( 28275 PWs)   bands (ev):

   -22.9244 -22.9244 -22.9204 -22.8995 -22.8792 -22.8792 -22.8664 -22.8619
   -22.8619 -22.8617 -22.8235 -22.8234 -22.8021 -22.8021 -22.7742 -22.7217
   -22.7205 -22.7188 -22.7187 -22.7162 -22.7161 -22.6685 -22.6670 -22.6608
   -22.6596 -22.6595 -22.6548 -22.6506 -22.6505 -22.6491 -22.6490 -22.6463
   -22.6462 -22.6377 -22.6285 -22.6177 -22.6176 -22.6148 -22.6147 -22.5919
   -22.5918 -22.5866 -22.5865 -22.5823 -22.5815 -11.8858 -11.0490 -10.3493
    -9.9314  -9.9314  -9.4059  -9.4059  -9.1176  -9.1175  -8.1344  -8.1308
    -8.1308  -8.0982  -8.0982  -7.9165  -7.9165  -7.9097  -7.8605  -7.8587
    -7.8587  -7.8202  -7.8202  -7.8085  -7.8084  -4.0036  -3.5591  -3.3611
    -2.9993  -2.9993  -2.7572  -2.3811  -2.3811  -2.0765  -1.9384  -1.9384
    -1.2590  -0.8816   0.2093   0.6519   0.6519   0.7236   0.7236   1.6878
     1.9002   2.5797   2.5797   2.7568   2.9502   2.9502   3.2197

[...]

          k =-0.0707 0.0408 0.0000 ( 28378 PWs)   bands (ev):

[...]

     the Fermi energy is     0.6076 ev

!    total energy              =   -2032.63840923 Ry
     Harris-Foulkes estimate   =   -2032.63840715 Ry
     estimated scf accuracy    <       0.00000193 Ry

     The total energy is the sum of the following terms:

     one-electron contribution =   -9351.90435612 Ry
     hartree contribution      =    4737.14582679 Ry
     xc contribution           =    -721.10314374 Ry
     ewald contribution        =    3303.26930888 Ry
     electric field correction =       0.00000000 Ry
     smearing contrib. (-TS)   =      -0.04604505 Ry

     convergence has been achieved in  10 iterations

 BEEF-vdW xc energy contributions
           1 :   -641.102395477305
           2 :    594.011053513613
           3 :   -511.792863230973
           4 :    413.597367389405
           5 :   -318.828256302735
           6 :    241.108632614745
           7 :   -185.317476500659
           8 :    148.350326528593
           9 :   -122.678194933855
          10 :    100.734967211562
          11 :   -78.1422823853832
          12 :    54.6537518258822
          13 :   -32.9480963453461
          14 :    16.3331411584713
          15 :   -6.67733196753170
          16 :    3.47523764814332
          17 :   -4.24168261633440
          18 :    5.79507970327177
          19 :   -5.69479271123760
          20 :    3.15985699620342
          21 :   0.875644643912210
          22 :   -4.50406356053281
          23 :    5.96834931668775
          24 :   -4.61280963402749
          25 :    1.21018200546428
          26 :    2.46943216100431
          27 :   -4.60505944878082
          28 :    4.27935375061020
          29 :   -1.93228521928347
          30 :  -0.926677079509204
          31 :   -52.1514602893956
          32 :   -38.2247657593931

     Forces acting on atoms (Ry/au):

     negative rho (up, down):  4.623E-01 0.000E+00
     atom    1 type  1   force =     0.00204685   -0.00120159    0.01018055
     atom    2 type  2   force =    -0.00000036    0.00000685   -0.00697130
     atom    3 type  1   force =    -0.00205840   -0.00121425    0.01018689
     atom    4 type  1   force =    -0.00000406    0.00239961    0.01020251
     atom    5 type  1   force =    -0.00000805    0.00002337    0.00002381
     atom    6 type  2   force =    -0.00000719   -0.00001043    0.00011971
     atom    7 type  1   force =     0.00000529    0.00001531    0.00003413
     atom    8 type  1   force =     0.00001229   -0.00001803    0.00002038
     atom    9 type  1   force =    -0.00201871    0.00117572   -0.01031381
     atom   10 type  2   force =     0.00000374   -0.00000562    0.00714769
     atom   11 type  1   force =     0.00203095    0.00119012   -0.01030556
     atom   12 type  1   force =    -0.00000234   -0.00236105   -0.01032499

     Total force =     0.019668     Total SCF correction =     0.001325

     entering subroutine stress ...

     negative rho (up, down):  4.623E-01 0.000E+00
          total   stress  (Ry/bohr**3)                   (kbar)     P=   -7.62
  -0.00005261  -0.00000000  -0.00000000         -7.74     -0.00     -0.00
  -0.00000000  -0.00005261   0.00000000         -0.00     -7.74      0.00
  -0.00000000   0.00000000  -0.00005018         -0.00      0.00     -7.38

     BFGS Geometry Optimization

     number of scf cycles    =   1
     number of bfgs steps    =   0

     energy   new            =   -2032.6384092339 Ry

     new trust radius        =       0.0105915060 bohr
     new conv_thr            =       0.0000099958 Ry

ATOMIC_POSITIONS (crystal)
Bi1      0.000000000   0.000000000   0.387970195    0   0   0
Cd1      0.000000000   0.500000000   0.387970195    0   0   0
Bi1      0.500000000   0.000000000   0.387970195    0   0   0
Bi1      0.500000000   0.500000000   0.387970195    0   0   0
Bi1      0.666666667   0.666666667   0.500000000    0   0   0
Cd1      0.666666667   0.166666667   0.500000000    0   0   0
Bi1      0.166666667   0.666666667   0.500000000    0   0   0
Bi1      0.166666667   0.166666667   0.500000000    0   0   0
Bi1      0.333131518   0.333434903   0.611818058
Cd1      0.333333856   0.833332848   0.612176551
Bi1      0.833433873   0.333436147   0.611818227
Bi1      0.833435143   0.833129364   0.611817828

     Writing output data file calc.save
     Check: negative starting charge=   -0.444657
     NEW-OLD atomic charge density approx. for the potential
     Check: negative starting charge=   -0.444452

[...]

     Total force =     0.016870     Total SCF correction =     0.004505
     SCF correction compared to forces is large: reduce conv_thr to get better values

[...]

     energy   old            =   -2032.6384092339 Ry
     energy   new            =   -2032.6387784319 Ry

     CASE: energy  _new < energy  _old

     WARNING: bfgs curvature condition failed, Theta= 0.957
     new trust radius        =       0.0116506566 bohr
     new conv_thr            =       0.0000001000 Ry

[...]

     WARNING: info= 33 for Hessian
     new trust radius        =       0.0220860605 bohr
     new conv_thr            =       0.0000001000 Ry

[...]

     WARNING: info= 36 for Hessian
     new trust radius        =       0.0512779397 bohr
     new conv_thr            =       0.0000001000 Ry

[...]

     WARNING: info= 36 for Hessian
     uphill step: resetting bfgs history

[...]

     WARNING: bfgs curvature condition failed, Theta= 0.898
     new trust radius        =       0.0104150569 bohr
     new conv_thr            =       0.0000001000 Ry

[...]

     Total force =     0.004853     Total SCF correction =     0.000391

[...]

     number of scf cycles    =  25
     number of bfgs steps    =  24

     energy   old            =   -2032.6466047064 Ry
     energy   new            =   -2032.6467658919 Ry

     CASE: energy  _new < energy  _old

     new trust radius        =       0.1186340073 bohr
     new conv_thr            =       0.0000001000 Ry

ATOMIC_POSITIONS (crystal)
Bi1      0.000000000   0.000000000   0.387970195    0   0   0
Cd1     -0.000000000   0.500000000   0.387970195    0   0   0
Bi1      0.500000000   0.000000000   0.387970195    0   0   0
Bi1      0.500000000   0.500000000   0.387970195    0   0   0
Bi1      0.666666667   0.666666667   0.500000000    0   0   0
Cd1      0.666666667   0.166666667   0.500000000    0   0   0
Bi1      0.166666667   0.666666667   0.500000000    0   0   0
Bi1      0.166666667   0.166666667   0.500000000    0   0   0
Bi1      0.333922130   0.333100640   0.603621988
Cd1      0.333329376   0.833408680   0.624791742
Bi1      0.832855947   0.332946202   0.603600752
Bi1      0.832940047   0.834029568   0.603609042

     Writing output data file calc.save
     Check: negative starting charge=   -0.442783
     NEW-OLD atomic charge density approx. for the potential
     Check: negative starting charge=   -0.442497

[...]

     Self-consistent Calculation

[...]

     total energy              =   -2032.64686204 Ry
     Harris-Foulkes estimate   =   -2032.64686202 Ry
     estimated scf accuracy    <       0.00000033 Ry

     iteration #  8     ecut=    36.75 Ry     beta=0.30
     Davidson diagonalization with overlap
     ethr =  1.94E-10,  avg # of iterations =  3.4

[...]

     negative rho (up, down):  4.604E-01 0.000E+00

     Adding external electric field

     Computed dipole along edir(3) :
        Dipole                0.0469 Ry au,          0.1193 Debye
        Dipole field          0.0001 Ry au

        Potential amp.       -0.0074 Ry
        Total length         47.4903 bohr

     End of self-consistent calculation

[...]

          k = 0.0471-0.0544 0.0000 ( 28376 PWs)   bands (ev):

[...]

          k =-0.0707-0.0408 0.0000 ( 28378 PWs)   bands (ev):

   -22.8728 -22.8416 -22.8387 -22.8321 -22.8313 -22.8294 -22.8232 -22.8066
   -22.7994 -22.7976 -22.7921 -22.7850 -22.7812 -22.7689 -22.7419 -22.7038
   -22.6683 -22.6646 -22.6520 -22.6513 -22.6466 -22.6363 -22.6332 -22.6325
   -22.6309 -22.6276 -22.6238 -22.6207 -22.6181 -22.6172 -22.6135 -22.6126
   -22.6050 -22.6036 -22.5987 -22.5941 -22.5910 -22.5870 -22.5866 -22.5839
   -22.5825 -22.5767 -22.5733 -22.5631 -22.5343 -11.4151 -11.1072 -10.4295
   -10.1544 -10.0869  -9.7778  -9.5270  -9.4195  -8.8889  -8.2551  -8.2489
    -8.2012  -8.1552  -8.1539  -7.8818  -7.8752  -7.8515  -7.8422  -7.8054
    -7.7986  -7.7960  -7.7752  -7.7735  -7.7393  -4.1292  -3.5111  -2.9949
    -2.2288  -1.7359  -1.7294  -1.6623  -1.5972  -1.5872  -1.0806  -0.9537
    -0.5451  -0.3440   0.0444   0.0908   0.2490   0.4293   0.6277   0.6987
     1.2925   1.3060   1.6082   2.0326   2.1546   2.6196   2.7462

     the Fermi energy is     0.6535 ev

!    total energy              =   -2032.64686204 Ry
     Harris-Foulkes estimate   =   -2032.64686215 Ry
     estimated scf accuracy    <       0.00000006 Ry

     The total energy is the sum of the following terms:

     one-electron contribution =   -9479.49627171 Ry
     hartree contribution      =    4801.17445004 Ry
     xc contribution           =    -721.21329866 Ry
     ewald contribution        =    3366.93143526 Ry
     electric field correction =       0.00000367 Ry
     smearing contrib. (-TS)   =      -0.04318065 Ry

     convergence has been achieved in   8 iterations

 BEEF-vdW xc energy contributions
           1 :   -641.214386949125
           2 :    594.163593152434
           3 :   -511.998904791861
           4 :    413.822630821796
           5 :   -318.998191468034
           6 :    241.146915505644
           7 :   -185.195380858805
           8 :    148.114960925906
           9 :   -122.438141689505
          10 :    100.607139430349
          11 :   -78.1890579994600
          12 :    54.8469643655312
          13 :   -33.1822227679718
          14 :    16.4820975864488
          15 :   -6.66364599113479
          16 :    3.31225661800681
          17 :   -4.02531237550147
          18 :    5.65021508592372
          19 :   -5.70637788268959
          20 :    3.32671545328128
          21 :   0.639113283133838
          22 :   -4.32006179076666
          23 :    5.92914927447850
          24 :   -4.73243165110489
          25 :    1.41934183607304
          26 :    2.28435287250636
          27 :   -4.54180732119289
          28 :    4.37036558734212
          29 :   -2.12988606599947
          30 :  -0.724810450815426
          31 :   -52.1609426708250
          32 :   -38.2435161729869

     Forces acting on atoms (Ry/au):

     negative rho (up, down):  4.604E-01 0.000E+00
     atom    1 type  1   force =     0.00103642   -0.00059391    0.00949173
     atom    2 type  2   force =     0.00000010   -0.00000014   -0.00727882
     atom    3 type  1   force =    -0.00102944   -0.00059477    0.00950023
     atom    4 type  1   force =    -0.00000870    0.00119494    0.00950218
     atom    5 type  1   force =    -0.00332693    0.00193414   -0.00462658
     atom    6 type  2   force =    -0.00001032   -0.00000234   -0.00998514
     atom    7 type  1   force =     0.00332530    0.00191093   -0.00461633
     atom    8 type  1   force =     0.00001688   -0.00384436   -0.00461860
     atom    9 type  1   force =    -0.00134966    0.00078701    0.00046610
     atom   10 type  2   force =    -0.00000858    0.00000182    0.00124101
     atom   11 type  1   force =     0.00134856    0.00075941    0.00045796
     atom   12 type  1   force =     0.00000637   -0.00155273    0.00046626

     Total force =     0.003071     Total SCF correction =     0.000625
     SCF correction compared to forces is large: reduce conv_thr to get better values

     entering subroutine stress ...

     negative rho (up, down):  4.604E-01 0.000E+00
          total   stress  (Ry/bohr**3)                   (kbar)     P=   -5.00
  -0.00003552  -0.00000000  -0.00000001         -5.23     -0.00     -0.00
  -0.00000000  -0.00003552  -0.00000001         -0.00     -5.23     -0.00
  -0.00000001  -0.00000001  -0.00003099         -0.00     -0.00     -4.56

     bfgs converged in  26 scf cycles and  25 bfgs steps
     (criteria: energy <  1.0E+00, force <  1.9E-03)

     End of BFGS Geometry Optimization

     Final energy   =   -2032.6468620391 Ry
Begin final coordinates

ATOMIC_POSITIONS (crystal)
Bi1      0.000000000   0.000000000   0.387970195    0   0   0
Cd1     -0.000000000   0.500000000   0.387970195    0   0   0
Bi1      0.500000000   0.000000000   0.387970195    0   0   0
Bi1      0.500000000   0.500000000   0.387970195    0   0   0
Bi1      0.666666667   0.666666667   0.500000000    0   0   0
Cd1      0.666666667   0.166666667   0.500000000    0   0   0
Bi1      0.166666667   0.666666667   0.500000000    0   0   0
Bi1      0.166666667   0.166666667   0.500000000    0   0   0
Bi1      0.333922130   0.333100640   0.603621988
Cd1      0.333329376   0.833408680   0.624791742
Bi1      0.832855947   0.332946202   0.603600752
Bi1      0.832940047   0.834029568   0.603609042
End final coordinates

     Writing output data file calc.save

     General routines

     Parallel routines

   This run was terminated on:  18:16:48  23Feb2018

   JOB DONE.