     Program PWSCF v.5.1rc2 (svn rev. ) starts on 23Feb2018 at 16:25:32

     Current dimensions of program PWSCF are:
     Max number of different atomic species (ntypx) = 10
     Max number of k-points (npk) =  40000
     Max angular momentum in pseudopotentials (lmaxx) =  3
     Presently stress not available with electric field

     IMPORTANT: XC functional enforced from input :
     Exchange-correlation      = BEEF-VDW ( 1  4 27 13 2)
     Any further DFT definition will be discarded
     Please, verify this is what you really want

     Subspace diagonalization in iterative solution of the eigenvalue problem:
     a serial algorithm will be used

     bravais-lattice index     =            0
     lattice parameter (alat)  =       1.8897  a.u.
     unit-cell volume          =    7305.5346 (a.u.)^3
     number of atoms/cell      =           12
     number of atomic types    =            2
     number of electrons       =       171.00
     number of Kohn-Sham states=           95
     kinetic-energy cutoff     =      36.7493  Ry
     charge density cutoff     =     367.4932  Ry
     convergence threshold     =      1.0E-05
     mixing beta               =       0.3000
     number of iterations used =           10  plain     mixing
     Exchange-correlation      = BEEF-VDW ( 1  4 27 13 2)
     nstep                     =           50

     celldm(1)=   1.889726  celldm(2)=   0.000000  celldm(3)=   0.000000
     celldm(4)=   0.000000  celldm(5)=   0.000000  celldm(6)=   0.000000

     crystal axes: (cart. coord. in units of alat)
               a(1) = (   6.974903   0.000000   0.000000 )
               a(2) = (   3.487452   6.040444   0.000000 )
               a(3) = (   0.000000   0.000000  25.694985 )

     reciprocal axes: (cart. coord. in units 2 pi/alat)
               b(1) = (  0.143371 -0.082775  0.000000 )
               b(2) = (  0.000000  0.165551  0.000000 )
               b(3) = (  0.000000  0.000000  0.038918 )

     PseudoPot. # 1 for Sn read from file:
     /home/mamunm/src/pseudo/gbrv1.5pbe/Sn.UPF
     MD5 check sum: 469debedee59599fedebd795477fea03
     Pseudo is Ultrasoft + core correction, Zval = 14.0
     Generated by new atomic code, or converted to UPF format
     Using radial grid of  891 points,  6 beta functions with:
                l(1) =   0
                l(2) =   0
                l(3) =   1
                l(4) =   1
                l(5) =   2
                l(6) =   2
     Q(r) pseudized with  8 coefficients,  rinner =    1.350   1.350   1.350
                                                       1.350   1.350

     PseudoPot. # 2 for Bi read from file:
     /home/mamunm/src/pseudo/gbrv1.5pbe/Bi.UPF
     MD5 check sum: 81103212dc04adf40945787f699eab19
     Pseudo is Ultrasoft + core correction, Zval = 15.0
     Generated by new atomic code, or converted to UPF format
     Using radial grid of  899 points,  6 beta functions with:
                l(1) =   0
                l(2) =   0
                l(3) =   1
                l(4) =   1
                l(5) =   2
                l(6) =   2
     Q(r) pseudized with  6 coefficients,  rinner =    1.000   1.000   1.000
                                                       1.000   1.000

     vdW kernel table read from file vdW_kernel_table
     MD5 check sum: 095c7af220d748ca6e76c0b4c6cfb241

     atomic species   valence    mass     pseudopotential
        Sn1           14.00   118.71000     Sn( 1.00)
        Bi1           15.00   208.98040     Bi( 1.00)

     No symmetry found

   Cartesian axes

     site n.     atom                  positions (alat units)
         1           Sn1 tau(   1) = (   0.0000000   0.0000000  10.0000000  )
         2           Bi1 tau(   2) = (   1.7437259   3.0202218  10.0000000  )
         3           Sn1 tau(   3) = (   3.4874517   0.0000000  10.0000000  )
         4           Sn1 tau(   4) = (   5.2311776   3.0202218  10.0000000  )
         5           Sn1 tau(   5) = (   6.9749035   4.0269624  12.8474924  )
         6           Bi1 tau(   6) = (   5.2311776   1.0067406  12.8474924  )
         7           Sn1 tau(   7) = (   3.4874517   4.0269624  12.8474924  )
         8           Sn1 tau(   8) = (   1.7437259   1.0067406  12.8474924  )
         9           Sn1 tau(   9) = (   3.4874517   2.0134812  15.6949848  )
        10           Bi1 tau(  10) = (   5.2311776   5.0337030  15.6949848  )
        11           Sn1 tau(  11) = (   6.9749035   2.0134812  15.6949848  )
        12           Sn1 tau(  12) = (   8.7186293   5.0337030  15.6949848  )

     number of k points=    20  Fermi-Dirac smearing, width (Ry)=  0.0110
                       cart. coord. in units 2pi/alat
        k(    1) = (   0.0000000   0.0000000   0.0000000), wk =   0.0555556
        k(    2) = (   0.0000000   0.0275918   0.0000000), wk =   0.1111111
        k(    3) = (   0.0000000   0.0551836   0.0000000), wk =   0.1111111
        k(    4) = (   0.0000000  -0.0827754   0.0000000), wk =   0.0555556
        k(    5) = (   0.0238952  -0.0137959   0.0000000), wk =   0.1111111
        k(    6) = (   0.0238952   0.0137959   0.0000000), wk =   0.1111111
        k(    7) = (   0.0238952   0.0413877   0.0000000), wk =   0.1111111
        k(    8) = (   0.0238952  -0.0965713   0.0000000), wk =   0.1111111
        k(    9) = (   0.0238952  -0.0689795   0.0000000), wk =   0.1111111
        k(   10) = (   0.0238952  -0.0413877   0.0000000), wk =   0.1111111
        k(   11) = (   0.0477904  -0.0275918   0.0000000), wk =   0.1111111
        k(   12) = (   0.0477904  -0.0000000   0.0000000), wk =   0.1111111
        k(   13) = (   0.0477904   0.0275918   0.0000000), wk =   0.1111111
        k(   14) = (   0.0477904  -0.1103672   0.0000000), wk =   0.1111111
        k(   15) = (   0.0477904  -0.0827754   0.0000000), wk =   0.1111111
        k(   16) = (   0.0477904  -0.0551836   0.0000000), wk =   0.1111111
        k(   17) = (  -0.0716856   0.0413877   0.0000000), wk =   0.0555556
        k(   18) = (  -0.0716856   0.0689795   0.0000000), wk =   0.1111111
        k(   19) = (  -0.0716856   0.0965713   0.0000000), wk =   0.1111111
        k(   20) = (  -0.0716856  -0.0413877   0.0000000), wk =   0.0555556

     Largest allocated arrays     est. size (Mb)     dimensions
     Largest temporary arrays     est. size (Mb)     dimensions

     Initial potential from superposition of free atoms
     Check: negative starting charge=   -0.129421

     starting charge  158.99947, renormalised to  171.00000

     negative rho (up, down):  1.392E-01 0.000E+00

     *
     * You are using vdW-DF for exchange-correlation in this calculation.
     * Please cite the following three references that made this development
     * possible:
     *
     *   M. Dion, H. Rydberg, E. Schroder, D. C. Langreth, and
     *   B. I. Lundqvist, Phys. Rev. Lett. 92, 246401 (2004).
     *
     *   T. Thonhauser, V. R. Cooper, S. Li, A. Puzder, P. Hyldgaard, and
     *   D. C. Langreth, Phys. Rev. B 76, 125112 (2007).
     *
     *   G. Roman-Perez and J. M. Soler, Phys. Rev. Lett. 103, 096102 (2009).
     *
     *
     * If you are using vdW-DF2, please also cite:
     *
     *   K. Lee, E. D. Murray, L. Kong, B. I. Lundqvist, and
     *   D. C. Langreth, Phys. Rev. B 82, 081101(R) (2010).
     *
     *
     * If you are calculating the stress with vdW-DF, please also cite:
     *
     *   R. Sabatini, E. Kucukbenli, B. Kolb, T. Thonhauser, and
     *   S. de Gironcoli, J. Phys.: Condens. Matter 24, 424209 (2012).
     *

     Carrying out vdW-DF run using the following parameters:

     Nqs =      20    Nr_points =    1024   r_max =   100.000
     q_mesh =
               0.00001000     0.04494208     0.09755937     0.15916263
               0.23128650     0.31572767     0.41458969     0.53033537
               0.66584808     0.82450364     1.01025438     1.22772762
               1.48234092     1.78043706     2.12944203     2.53805004
               3.01644009     3.57652955     4.23227104     5.00000000

     Gradients computed in reciprocal space

     Adding external electric field

     Computed dipole along edir(3) :
        Dipole               -0.0000 Ry au,         -0.0000 Debye
        Dipole field         -0.0000 Ry au

        Potential amp.        0.0000 Ry
        Total length         47.3426 bohr

     Starting wfc are  108 randomized atomic wfcs

     Self-consistent Calculation

     iteration #  1     ecut=    36.75 Ry     beta=0.30
     Davidson diagonalization with overlap
     ethr =  1.00E-02,  avg # of iterations =  4.8

[...]

     total energy              =   -2007.02346981 Ry
     Harris-Foulkes estimate   =   -2012.91327071 Ry
     estimated scf accuracy    <      12.71035950 Ry

[...]

     End of self-consistent calculation

          k = 0.0000 0.0000 0.0000 ( 27531 PWs)   bands (ev):

   -22.8095 -22.8086 -22.8086 -22.8037 -22.8037 -22.6446 -22.6446 -22.6440
   -22.6440 -22.6175 -22.6175 -22.6160 -22.6160 -22.6144 -22.6130 -21.5285
   -21.5260 -21.5249 -21.5249 -21.5213 -21.5212 -21.5032 -21.5000 -21.4977
   -21.4977 -21.4976 -21.4905 -21.4880 -21.4880 -21.4832 -21.4735 -21.4735
   -21.4697 -21.4681 -21.4681 -21.4622 -21.4622 -21.4547 -21.4546 -21.4546
   -21.4502 -21.4502 -21.4339 -21.4339 -21.4279 -21.4279 -21.4195 -21.4110
   -21.4096 -21.3968 -21.3965 -21.3965 -21.3831 -21.3831 -21.3770 -21.3666
   -21.3666 -21.3493 -21.3493 -21.3347 -11.0949 -10.3728 -10.0273  -7.3594
    -7.3136  -6.7098  -6.0806  -6.0806  -5.6677  -5.6677  -4.9246  -4.9246
    -3.4081  -3.4081  -3.2596  -2.7519  -2.3398  -2.3398  -2.3364  -2.2276
    -2.2276  -2.1056  -0.2530   0.8345   0.8540   1.3425   1.3425   1.4421
     1.4421   2.4064   2.4064   2.6081   2.7329   2.9766   3.4310

[...]

          k =-0.0717 0.0414 0.0000 ( 27478 PWs)   bands (ev):

[...]

     the Fermi energy is     0.5312 ev

!    total energy              =   -2007.68662022 Ry
     Harris-Foulkes estimate   =   -2007.68661894 Ry
     estimated scf accuracy    <       0.00000140 Ry

     The total energy is the sum of the following terms:

     one-electron contribution =   -9833.54233060 Ry
     hartree contribution      =    4975.42338548 Ry
     xc contribution           =    -599.68470296 Ry
     ewald contribution        =    3450.15694935 Ry
     electric field correction =       0.00000000 Ry
     smearing contrib. (-TS)   =      -0.03992149 Ry

     convergence has been achieved in  11 iterations

 BEEF-vdW xc energy contributions
           1 :   -529.573754465222
           2 :    487.125393818794
           3 :   -414.303590271262
           4 :    330.123666800203
           5 :   -253.126709587332
           6 :    195.082938794310
           7 :   -158.316762136192
           8 :    137.286586017575
           9 :   -123.122957733605
          10 :    108.592434921530
          11 :   -91.0876657287413
          12 :    72.5537788894204
          13 :   -57.0102282931618
          14 :    47.4675156314267
          15 :   -44.0599578781414
          16 :    44.2226038568317
          17 :   -44.4582622307514
          18 :    42.4024768172708
          19 :   -37.9280001224361
          20 :    32.7720706162418
          21 :   -29.1210591528964
          22 :    28.1451299041780
          23 :   -29.3754083625054
          24 :    31.1820665903185
          25 :   -31.9084482028029
          26 :    30.8686887792702
          27 :   -28.6110077450907
          28 :    26.3815098869951
          29 :   -25.2343798528282
          30 :    25.3953317765877
          31 :   -44.8686182024981
          32 :   -32.7064060716959

     Forces acting on atoms (Ry/au):

     negative rho (up, down):  1.344E-01 0.000E+00
     atom    1 type  1   force =     0.00046257   -0.00026986    0.00604938
     atom    2 type  2   force =     0.00000265   -0.00000469    0.00357576
     atom    3 type  1   force =    -0.00044562   -0.00023884    0.00606773
     atom    4 type  1   force =    -0.00000334    0.00051731    0.00604498
     atom    5 type  1   force =    -0.00009295    0.00005291    0.00001200
     atom    6 type  2   force =    -0.00000379    0.00000589   -0.00001108
     atom    7 type  1   force =     0.00008881    0.00005598    0.00001079
     atom    8 type  1   force =    -0.00000734   -0.00011213   -0.00000806
     atom    9 type  1   force =    -0.00034366    0.00019175   -0.00572038
     atom   10 type  2   force =     0.00000003    0.00000587   -0.00457491
     atom   11 type  1   force =     0.00033979    0.00019487   -0.00570051
     atom   12 type  1   force =     0.00000286   -0.00039907   -0.00574571

     Total force =     0.010938     Total SCF correction =     0.002538
     SCF correction compared to forces is large: reduce conv_thr to get better values

     entering subroutine stress ...

     negative rho (up, down):  1.344E-01 0.000E+00
          total   stress  (Ry/bohr**3)                   (kbar)     P=   -6.46
  -0.00004349  -0.00000000  -0.00000000         -6.40     -0.00     -0.00
  -0.00000000  -0.00004349   0.00000000         -0.00     -6.40      0.00
  -0.00000000   0.00000000  -0.00004485         -0.00      0.00     -6.60

     BFGS Geometry Optimization

     number of scf cycles    =   1
     number of bfgs steps    =   0

     energy   new            =   -2007.6866202188 Ry

     new trust radius        =       0.0057595560 bohr
     new conv_thr            =       0.0000099958 Ry

ATOMIC_POSITIONS (crystal)
Sn1      0.000000000   0.000000000   0.389181004    0   0   0
Bi1      0.000000000   0.500000000   0.389181004    0   0   0
Sn1      0.500000000   0.000000000   0.389181004    0   0   0
Sn1      0.500000000   0.500000000   0.389181004    0   0   0
Sn1      0.666666667   0.666666667   0.500000000    0   0   0
Bi1      0.666666667   0.166666667   0.500000000    0   0   0
Sn1      0.166666667   0.666666667   0.500000000    0   0   0
Sn1      0.166666667   0.166666667   0.500000000    0   0   0
Sn1      0.333298861   0.333350132   0.610701187
Bi1      0.333333078   0.833333847   0.610724777
Sn1      0.833350577   0.333350405   0.610701596
Sn1      0.833351031   0.833298372   0.610700665

     Writing output data file calc.save
     Check: negative starting charge=   -0.129421
     NEW-OLD atomic charge density approx. for the potential
     Check: negative starting charge=   -0.129353

[...]

     energy   old            =   -2007.6866202188 Ry
     energy   new            =   -2007.6867477804 Ry

     CASE: energy  _new < energy  _old

     WARNING: bfgs curvature condition failed, Theta= 0.656
     uphill step: resetting bfgs history

[...]

     Total force =     0.011781     Total SCF correction =     0.000416

[...]

     WARNING: bfgs curvature condition failed, Theta= 0.941
     new trust radius        =       0.0095032675 bohr
     new conv_thr            =       0.0000001000 Ry

[...]

     WARNING: bfgs curvature condition failed, Theta= 0.982
     new trust radius        =       0.0142549012 bohr
     new conv_thr            =       0.0000001000 Ry

[...]

     Total force =     0.003792     Total SCF correction =     0.000078

[...]

     number of scf cycles    =   9
     number of bfgs steps    =   8

     energy   old            =   -2007.6890338911 Ry
     energy   new            =   -2007.6897467636 Ry

     CASE: energy  _new < energy  _old

     new trust radius        =       0.1011267364 bohr
     new conv_thr            =       0.0000001000 Ry

ATOMIC_POSITIONS (crystal)
Sn1      0.000000000   0.000000000   0.389181004    0   0   0
Bi1     -0.000000000   0.500000000   0.389181004    0   0   0
Sn1      0.500000000  -0.000000000   0.389181004    0   0   0
Sn1      0.500000000   0.500000000   0.389181004    0   0   0
Sn1      0.666666667   0.666666667   0.500000000    0   0   0
Bi1      0.666666667   0.166666667   0.500000000    0   0   0
Sn1      0.166666667   0.666666667   0.500000000    0   0   0
Sn1      0.166666667   0.166666667   0.500000000    0   0   0
Sn1      0.331474691   0.334263120   0.604437258
Bi1      0.333331247   0.833333656   0.606959926
Sn1      0.834264548   0.334251862   0.604436829
Sn1      0.834264726   0.831481582   0.604435393

     Writing output data file calc.save
     Check: negative starting charge=   -0.129051
     NEW-OLD atomic charge density approx. for the potential
     Check: negative starting charge=   -0.128909

[...]

     Self-consistent Calculation

[...]

     total energy              =   -2007.68997282 Ry
     Harris-Foulkes estimate   =   -2007.68997308 Ry
     estimated scf accuracy    <       0.00000039 Ry

     iteration # 10     ecut=    36.75 Ry     beta=0.30
     Davidson diagonalization with overlap
     ethr =  2.28E-10,  avg # of iterations =  3.4

[...]

     negative rho (up, down):  1.338E-01 0.000E+00

     Adding external electric field

     Computed dipole along edir(3) :
        Dipole               -0.0052 Ry au,         -0.0132 Debye
        Dipole field         -0.0000 Ry au

        Potential amp.        0.0008 Ry
        Total length         47.3426 bohr

     End of self-consistent calculation

[...]

          k = 0.0478-0.0552 0.0000 ( 27486 PWs)   bands (ev):

[...]

          k =-0.0717-0.0414 0.0000 ( 27478 PWs)   bands (ev):

   -22.8357 -22.8326 -22.8322 -22.8316 -22.8312 -22.6543 -22.6526 -22.6402
   -22.6384 -22.6272 -22.6270 -22.6210 -22.6145 -22.6143 -22.6101 -21.5241
   -21.5108 -21.5006 -21.4940 -21.4932 -21.4910 -21.4891 -21.4875 -21.4867
   -21.4851 -21.4808 -21.4796 -21.4770 -21.4763 -21.4734 -21.4698 -21.4689
   -21.4686 -21.4646 -21.4642 -21.4632 -21.4621 -21.4614 -21.4588 -21.4548
   -21.4535 -21.4476 -21.4420 -21.4393 -21.4261 -21.4179 -21.4150 -21.4073
   -21.4052 -21.4016 -21.3964 -21.3900 -21.3888 -21.3781 -21.3739 -21.3707
   -21.3688 -21.3625 -21.3572 -21.3400 -10.7987 -10.3829 -10.2005  -8.2019
    -7.6471  -7.1521  -6.8290  -6.2951  -5.9482  -5.8543  -5.7801  -4.6209
    -2.0504  -1.9279  -1.8850  -1.7758  -1.7525  -1.6311  -0.9517  -0.9178
    -0.8618  -0.3217  -0.2071  -0.0477   0.3190   0.6458   0.8711   0.9363
     1.0652   1.2641   1.3683   1.4058   1.5601   1.6401   2.3517

     the Fermi energy is     0.5466 ev

!    total energy              =   -2007.68997256 Ry
     Harris-Foulkes estimate   =   -2007.68997289 Ry
     estimated scf accuracy    <       0.00000007 Ry

     The total energy is the sum of the following terms:

     one-electron contribution =  -10034.76274460 Ry
     hartree contribution      =    5076.03478106 Ry
     xc contribution           =    -599.80176143 Ry
     ewald contribution        =    3550.87866372 Ry
     electric field correction =       0.00000005 Ry
     smearing contrib. (-TS)   =      -0.03891137 Ry

     convergence has been achieved in  10 iterations

 BEEF-vdW xc energy contributions
           1 :   -529.695115492451
           2 :    487.310561252438
           3 :   -414.572237519155
           4 :    330.432771561012
           5 :   -253.391093663074
           6 :    195.223937253106
           7 :   -158.309538921047
           8 :    137.175436549860
           9 :   -122.995167368281
          10 :    108.527780059083
          11 :   -91.1151087452124
          12 :    72.6406507449145
          13 :   -57.0887088677607
          14 :    47.4805769875334
          15 :   -43.9973160796442
          16 :    44.1245720770971
          17 :   -44.3876829381816
          18 :    42.4036028881540
          19 :   -37.9985479500533
          20 :    32.8655573044637
          21 :   -29.1771017066596
          22 :    28.1272979110418
          23 :   -29.2930766505349
          24 :    31.0833170597173
          25 :   -31.8496878409187
          26 :    30.8812206283327
          27 :   -28.6847534636895
          28 :    26.4742579657089
          29 :   -25.2989720123503
          30 :    25.4068621883680
          31 :   -44.8796290989135
          32 :   -32.7344338519376

     Forces acting on atoms (Ry/au):

     negative rho (up, down):  1.338E-01 0.000E+00
     atom    1 type  1   force =     0.00096922   -0.00055976    0.00595627
     atom    2 type  2   force =    -0.00000038    0.00000046    0.00347081
     atom    3 type  1   force =    -0.00096549   -0.00056350    0.00596808
     atom    4 type  1   force =     0.00000580    0.00111848    0.00596831
     atom    5 type  1   force =    -0.00146755    0.00084744   -0.00570595
     atom    6 type  2   force =     0.00000153    0.00000000   -0.00679757
     atom    7 type  1   force =     0.00146499    0.00084557   -0.00570417
     atom    8 type  1   force =    -0.00000223   -0.00169143   -0.00570344
     atom    9 type  1   force =    -0.00059930    0.00034411    0.00079927
     atom   10 type  2   force =     0.00000202   -0.00000107    0.00014466
     atom   11 type  1   force =     0.00059468    0.00034730    0.00080178
     atom   12 type  1   force =    -0.00000328   -0.00068760    0.00080196

     Total force =     0.001836     Total SCF correction =     0.000250
     SCF correction compared to forces is large: reduce conv_thr to get better values

     entering subroutine stress ...

     negative rho (up, down):  1.338E-01 0.000E+00
          total   stress  (Ry/bohr**3)                   (kbar)     P=   -4.95
  -0.00003448  -0.00000000  -0.00000000         -5.07     -0.00     -0.00
  -0.00000000  -0.00003448   0.00000000         -0.00     -5.07      0.00
  -0.00000000   0.00000000  -0.00003206         -0.00      0.00     -4.72

     bfgs converged in  10 scf cycles and   9 bfgs steps
     (criteria: energy <  1.0E+00, force <  1.9E-03)

     End of BFGS Geometry Optimization

     Final energy   =   -2007.6899725637 Ry
Begin final coordinates

ATOMIC_POSITIONS (crystal)
Sn1      0.000000000   0.000000000   0.389181004    0   0   0
Bi1     -0.000000000   0.500000000   0.389181004    0   0   0
Sn1      0.500000000  -0.000000000   0.389181004    0   0   0
Sn1      0.500000000   0.500000000   0.389181004    0   0   0
Sn1      0.666666667   0.666666667   0.500000000    0   0   0
Bi1      0.666666667   0.166666667   0.500000000    0   0   0
Sn1      0.166666667   0.666666667   0.500000000    0   0   0
Sn1      0.166666667   0.166666667   0.500000000    0   0   0
Sn1      0.331474691   0.334263120   0.604437258
Bi1      0.333331247   0.833333656   0.606959926
Sn1      0.834264548   0.334251862   0.604436829
Sn1      0.834264726   0.831481582   0.604435393
End final coordinates

     Writing output data file calc.save

     General routines

     Parallel routines

   This run was terminated on:  17:11:56  23Feb2018

   JOB DONE.