     Program PWSCF v.5.1rc2 (svn rev. ) starts on 23Feb2018 at 16:25:32

     Current dimensions of program PWSCF are:
     Max number of different atomic species (ntypx) = 10
     Max number of k-points (npk) =  40000
     Max angular momentum in pseudopotentials (lmaxx) =  3
     Presently stress not available with electric field

     IMPORTANT: XC functional enforced from input :
     Exchange-correlation      = BEEF-VDW ( 1  4 27 13 2)
     Any further DFT definition will be discarded
     Please, verify this is what you really want

     Subspace diagonalization in iterative solution of the eigenvalue problem:
     a serial algorithm will be used

     bravais-lattice index     =            0
     lattice parameter (alat)  =       1.8897  a.u.
     unit-cell volume          =    6809.1695 (a.u.)^3
     number of atoms/cell      =           12
     number of atomic types    =            2
     number of electrons       =       177.00
     number of Kohn-Sham states=           98
     kinetic-energy cutoff     =      36.7493  Ry
     charge density cutoff     =     367.4932  Ry
     convergence threshold     =      1.0E-05
     mixing beta               =       0.3000
     number of iterations used =           10  plain     mixing
     Exchange-correlation      = BEEF-VDW ( 1  4 27 13 2)
     nstep                     =           50

     celldm(1)=   1.889726  celldm(2)=   0.000000  celldm(3)=   0.000000
     celldm(4)=   0.000000  celldm(5)=   0.000000  celldm(6)=   0.000000

     crystal axes: (cart. coord. in units of alat)
               a(1) = (   6.757199   0.000000   0.000000 )
               a(2) = (   3.378599   5.851906   0.000000 )
               a(3) = (   0.000000   0.000000  25.517230 )

     reciprocal axes: (cart. coord. in units 2 pi/alat)
               b(1) = (  0.147990 -0.085442  0.000000 )
               b(2) = (  0.000000  0.170885  0.000000 )
               b(3) = (  0.000000  0.000000  0.039189 )

     PseudoPot. # 1 for Bi read from file:
     /home/mamunm/src/pseudo/gbrv1.5pbe/Bi.UPF
     MD5 check sum: 81103212dc04adf40945787f699eab19
     Pseudo is Ultrasoft + core correction, Zval = 15.0
     Generated by new atomic code, or converted to UPF format
     Using radial grid of  899 points,  6 beta functions with:
                l(1) =   0
                l(2) =   0
                l(3) =   1
                l(4) =   1
                l(5) =   2
                l(6) =   2
     Q(r) pseudized with  6 coefficients,  rinner =    1.000   1.000   1.000
                                                       1.000   1.000

     PseudoPot. # 2 for Mo read from file:
     /home/mamunm/src/pseudo/gbrv1.5pbe/Mo.UPF
     MD5 check sum: 30c4dcd161f5d35cd49bb5239c51a633
     Pseudo is Ultrasoft + core correction, Zval = 14.0
     Generated by new atomic code, or converted to UPF format
     Using radial grid of  889 points,  6 beta functions with:
                l(1) =   0
                l(2) =   0
                l(3) =   1
                l(4) =   1
                l(5) =   2
                l(6) =   2
     Q(r) pseudized with  6 coefficients,  rinner =    1.000   1.000   1.000
                                                       1.000   1.000

     vdW kernel table read from file vdW_kernel_table
     MD5 check sum: 095c7af220d748ca6e76c0b4c6cfb241

     atomic species   valence    mass     pseudopotential
        Bi1           15.00   208.98040     Bi( 1.00)
        Mo1           14.00    95.95000     Mo( 1.00)

     No symmetry found

   Cartesian axes

     site n.     atom                  positions (alat units)
         1           Bi1 tau(   1) = (   0.0000000   0.0000000  10.0000000  )
         2           Mo1 tau(   2) = (   1.6892997   2.9259529  10.0000000  )
         3           Bi1 tau(   3) = (   3.3785994   0.0000000  10.0000000  )
         4           Bi1 tau(   4) = (   5.0678991   2.9259529  10.0000000  )
         5           Bi1 tau(   5) = (   6.7571988   3.9012705  12.7586148  )
         6           Mo1 tau(   6) = (   5.0678991   0.9753176  12.7586148  )
         7           Bi1 tau(   7) = (   3.3785994   3.9012705  12.7586148  )
         8           Bi1 tau(   8) = (   1.6892997   0.9753176  12.7586148  )
         9           Bi1 tau(   9) = (   3.3785994   1.9506353  15.5172297  )
        10           Mo1 tau(  10) = (   5.0678991   4.8765882  15.5172297  )
        11           Bi1 tau(  11) = (   6.7571988   1.9506353  15.5172297  )
        12           Bi1 tau(  12) = (   8.4464985   4.8765882  15.5172297  )

     number of k points=    20  Fermi-Dirac smearing, width (Ry)=  0.0110
                       cart. coord. in units 2pi/alat
        k(    1) = (   0.0000000   0.0000000   0.0000000), wk =   0.0555556
        k(    2) = (   0.0000000   0.0284808   0.0000000), wk =   0.1111111
        k(    3) = (   0.0000000   0.0569615   0.0000000), wk =   0.1111111
        k(    4) = (   0.0000000  -0.0854423   0.0000000), wk =   0.0555556
        k(    5) = (   0.0246651  -0.0142404   0.0000000), wk =   0.1111111
        k(    6) = (   0.0246651   0.0142404   0.0000000), wk =   0.1111111
        k(    7) = (   0.0246651   0.0427211   0.0000000), wk =   0.1111111
        k(    8) = (   0.0246651  -0.0996826   0.0000000), wk =   0.1111111
        k(    9) = (   0.0246651  -0.0712019   0.0000000), wk =   0.1111111
        k(   10) = (   0.0246651  -0.0427211   0.0000000), wk =   0.1111111
        k(   11) = (   0.0493301  -0.0284808   0.0000000), wk =   0.1111111
        k(   12) = (   0.0493301  -0.0000000   0.0000000), wk =   0.1111111
        k(   13) = (   0.0493301   0.0284808   0.0000000), wk =   0.1111111
        k(   14) = (   0.0493301  -0.1139230   0.0000000), wk =   0.1111111
        k(   15) = (   0.0493301  -0.0854423   0.0000000), wk =   0.1111111
        k(   16) = (   0.0493301  -0.0569615   0.0000000), wk =   0.1111111
        k(   17) = (  -0.0739952   0.0427211   0.0000000), wk =   0.0555556
        k(   18) = (  -0.0739952   0.0712019   0.0000000), wk =   0.1111111
        k(   19) = (  -0.0739952   0.0996826   0.0000000), wk =   0.1111111
        k(   20) = (  -0.0739952  -0.0427211   0.0000000), wk =   0.0555556

     Largest allocated arrays     est. size (Mb)     dimensions
     Largest temporary arrays     est. size (Mb)     dimensions

     Initial potential from superposition of free atoms
     Check: negative starting charge=   -0.378584

     starting charge  167.99643, renormalised to  177.00000

     negative rho (up, down):  3.989E-01 0.000E+00

     *
     * You are using vdW-DF for exchange-correlation in this calculation.
     * Please cite the following three references that made this development
     * possible:
     *
     *   M. Dion, H. Rydberg, E. Schroder, D. C. Langreth, and
     *   B. I. Lundqvist, Phys. Rev. Lett. 92, 246401 (2004).
     *
     *   T. Thonhauser, V. R. Cooper, S. Li, A. Puzder, P. Hyldgaard, and
     *   D. C. Langreth, Phys. Rev. B 76, 125112 (2007).
     *
     *   G. Roman-Perez and J. M. Soler, Phys. Rev. Lett. 103, 096102 (2009).
     *
     *
     * If you are using vdW-DF2, please also cite:
     *
     *   K. Lee, E. D. Murray, L. Kong, B. I. Lundqvist, and
     *   D. C. Langreth, Phys. Rev. B 82, 081101(R) (2010).
     *
     *
     * If you are calculating the stress with vdW-DF, please also cite:
     *
     *   R. Sabatini, E. Kucukbenli, B. Kolb, T. Thonhauser, and
     *   S. de Gironcoli, J. Phys.: Condens. Matter 24, 424209 (2012).
     *

     Carrying out vdW-DF run using the following parameters:

     Nqs =      20    Nr_points =    1024   r_max =   100.000
     q_mesh =
               0.00001000     0.04494208     0.09755937     0.15916263
               0.23128650     0.31572767     0.41458969     0.53033537
               0.66584808     0.82450364     1.01025438     1.22772762
               1.48234092     1.78043706     2.12944203     2.53805004
               3.01644009     3.57652955     4.23227104     5.00000000

     Gradients computed in reciprocal space

     Adding external electric field

     Computed dipole along edir(3) :
        Dipole               -0.0000 Ry au,         -0.0000 Debye
        Dipole field         -0.0000 Ry au

        Potential amp.        0.0000 Ry
        Total length         47.0151 bohr

     Starting wfc are  120 randomized atomic wfcs

     Self-consistent Calculation

     iteration #  1     ecut=    36.75 Ry     beta=0.30
     Davidson diagonalization with overlap
     ethr =  1.00E-02,  avg # of iterations =  3.0

[...]

     total energy              =   -2102.16949925 Ry
     Harris-Foulkes estimate   =   -2105.76661777 Ry
     estimated scf accuracy    <       7.98057392 Ry

[...]

     End of self-consistent calculation

          k = 0.0000 0.0000 0.0000 ( 25653 PWs)   bands (ev):

   -59.6703 -59.6566 -59.6563 -33.7146 -33.7146 -33.7143 -33.7143 -33.7110
   -33.7110 -33.6963 -33.6937 -33.6934 -22.2241 -22.2006 -22.2006 -22.1785
   -22.1206 -22.1206 -22.0735 -22.0735 -22.0729 -22.0675 -22.0341 -22.0341
   -22.0055 -22.0055 -22.0031 -22.0005 -21.9616 -21.9616 -21.9471 -21.9471
   -21.9428 -21.9238 -21.9090 -21.8660 -21.8660 -21.8552 -21.8552 -21.8332
   -21.8300 -21.8214 -21.8214 -21.8093 -21.8093 -21.8022 -21.7942 -21.7942
   -21.7883 -21.7883 -21.7854 -21.7854 -21.7817 -21.7764 -21.7764 -21.7275
   -21.7271 -11.7736 -10.7466  -9.7761  -9.2013  -9.2012  -8.5576  -8.5576
    -8.0907  -8.0907  -3.9230  -3.1486  -2.8844  -2.5489  -2.5489  -2.3406
    -1.8271  -1.8271  -1.3908  -1.3908  -0.8613   0.2947   0.2947   0.3703
     0.3703   1.0975   1.0975   1.1376   1.1722   1.2886   1.2886   1.2947
     1.2947   1.4248   1.4565   1.4565   1.4687   1.7995   2.4876   2.4876
     2.7451   2.7451

[...]

          k =-0.0740 0.0427 0.0000 ( 25614 PWs)   bands (ev):

[...]

     the Fermi energy is     1.3486 ev

!    total energy              =   -2103.70385386 Ry
     Harris-Foulkes estimate   =   -2103.70385374 Ry
     estimated scf accuracy    <       0.00000093 Ry

     The total energy is the sum of the following terms:

     one-electron contribution =  -11093.21551330 Ry
     hartree contribution      =    5585.04630013 Ry
     xc contribution           =    -658.88105791 Ry
     ewald contribution        =    4063.46268344 Ry
     electric field correction =       0.00000005 Ry
     smearing contrib. (-TS)   =      -0.11626628 Ry

     convergence has been achieved in  17 iterations

 BEEF-vdW xc energy contributions
           1 :   -585.543704184938
           2 :    543.208433127354
           3 :   -468.838644322763
           4 :    379.125938827899
           5 :   -291.426670207162
           6 :    218.533647913153
           7 :   -165.778283551072
           8 :    131.172791024575
           9 :   -108.123704229802
          10 :    89.2662847364514
          11 :   -69.7089993340755
          12 :    48.4459983323318
          13 :   -27.7022701058390
          14 :    10.9104988862749
          15 :  -0.517243169351332
          16 :   -3.32790621650906
          17 :    2.72511399148948
          18 :  -0.864728179795179
          19 :   0.473139569076807
          20 :   -2.67295832559694
          21 :    6.75387225006546
          22 :   -10.8561540203694
          23 :    13.1189169322702
          24 :   -12.6791276094782
          25 :    10.0478883740732
          26 :   -6.75366748426211
          27 :    4.50503240284797
          28 :   -4.33674578021100
          29 :    6.15886665475568
          30 :   -8.89602491338474
          31 :   -48.3962972956783
          32 :   -35.7340908740116

     Forces acting on atoms (Ry/au):

     negative rho (up, down):  3.973E-01 0.000E+00
     atom    1 type  1   force =    -0.02675106    0.01544546   -0.00253538
     atom    2 type  2   force =    -0.00000118   -0.00000022    0.04983227
     atom    3 type  1   force =     0.02675185    0.01544380   -0.00253671
     atom    4 type  1   force =     0.00000085   -0.03088961   -0.00253629
     atom    5 type  1   force =     0.00007598   -0.00004092   -0.00017108
     atom    6 type  2   force =    -0.00000048   -0.00000087    0.00025372
     atom    7 type  1   force =    -0.00007602   -0.00003936   -0.00016838
     atom    8 type  1   force =    -0.00000116    0.00008394   -0.00016914
     atom    9 type  1   force =     0.02671237   -0.01541994    0.00249340
     atom   10 type  2   force =    -0.00000073   -0.00000154   -0.04944919
     atom   11 type  1   force =    -0.02671168   -0.01542202    0.00249511
     atom   12 type  1   force =     0.00000126    0.03084128    0.00249165

     Total force =     0.072923     Total SCF correction =     0.002761

     entering subroutine stress ...

     negative rho (up, down):  3.973E-01 0.000E+00
          total   stress  (Ry/bohr**3)                   (kbar)     P=  -12.44
  -0.00008887   0.00000000   0.00000000        -13.07      0.00      0.00
   0.00000000  -0.00008887  -0.00000000          0.00    -13.07     -0.00
   0.00000000  -0.00000000  -0.00007590          0.00     -0.00    -11.16

     BFGS Geometry Optimization

     number of scf cycles    =   1
     number of bfgs steps    =   0

     energy   new            =   -2103.7038538639 Ry

     new trust radius        =       0.0494491865 bohr
     new conv_thr            =       0.0000099958 Ry

ATOMIC_POSITIONS (crystal)
Bi1      0.000000000   0.000000000   0.391892071    0   0   0
Mo1      0.000000000   0.500000000   0.391892071    0   0   0
Bi1      0.500000000   0.000000000   0.391892071    0   0   0
Bi1      0.500000000   0.500000000   0.391892071    0   0   0
Bi1      0.666666667   0.666666667   0.500000000    0   0   0
Mo1      0.666666667   0.166666667   0.500000000    0   0   0
Bi1      0.166666667   0.666666667   0.500000000    0   0   0
Bi1      0.166666667   0.166666667   0.500000000    0   0   0
Bi1      0.336122461   0.331938936   0.608159637
Mo1      0.333333346   0.833333194   0.607082450
Bi1      0.831938751   0.331938748   0.608159672
Bi1      0.831938971   0.836122254   0.608159600

     Writing output data file calc.save
     Check: negative starting charge=   -0.378584
     NEW-OLD atomic charge density approx. for the potential
     Check: negative starting charge=   -0.380037

[...]

     energy   old            =   -2103.7038538639 Ry
     energy   new            =   -2103.7090056045 Ry

     CASE: energy  _new < energy  _old

     WARNING: bfgs curvature condition failed, Theta= 0.834
     new trust radius        =       0.0741737798 bohr
     new conv_thr            =       0.0000001000 Ry

[...]

     iteration #  1     ecut=    36.75 Ry     beta=0.30
     Davidson diagonalization with overlap
     c_bands:  2 eigenvalues not converged
     c_bands:  2 eigenvalues not converged
     c_bands:  2 eigenvalues not converged
     ethr =  1.00E-06,  avg # of iterations = 10.8

[...]

     WARNING: bfgs curvature condition failed, Theta= 0.966
     new trust radius        =       0.0670744825 bohr
     new conv_thr            =       0.0000001000 Ry

[...]

     Total force =     0.006003     Total SCF correction =     0.000808
     SCF correction compared to forces is large: reduce conv_thr to get better values

[...]

     number of scf cycles    =  14
     number of bfgs steps    =  13

     energy   old            =   -2103.7604943191 Ry
     energy   new            =   -2103.7605670400 Ry

     CASE: energy  _new < energy  _old

     new trust radius        =       0.0157992825 bohr
     new conv_thr            =       0.0000001000 Ry

ATOMIC_POSITIONS (crystal)
Bi1      0.000000000   0.000000000   0.391892071    0   0   0
Mo1      0.000000000   0.500000000   0.391892071    0   0   0
Bi1      0.500000000   0.000000000   0.391892071    0   0   0
Bi1      0.500000000   0.500000000   0.391892071    0   0   0
Bi1      0.666666667   0.666666667   0.500000000    0   0   0
Mo1      0.666666667   0.166666667   0.500000000    0   0   0
Bi1      0.166666667   0.666666667   0.500000000    0   0   0
Bi1      0.166666667   0.166666667   0.500000000    0   0   0
Bi1      0.352491936   0.323756020   0.606393264
Mo1      0.333332763   0.833329222   0.582442502
Bi1      0.823755645   0.323755228   0.606393636
Bi1      0.823755271   0.852491552   0.606393113

     Writing output data file calc.save
     Check: negative starting charge=   -0.376289
     NEW-OLD atomic charge density approx. for the potential
     Check: negative starting charge=   -0.376530

[...]

     Self-consistent Calculation

[...]

     total energy              =   -2103.76065855 Ry
     Harris-Foulkes estimate   =   -2103.76065857 Ry
     estimated scf accuracy    <       0.00000019 Ry

     iteration # 12     ecut=    36.75 Ry     beta=0.30
     Davidson diagonalization with overlap
     ethr =  1.07E-10,  avg # of iterations =  1.6

[...]

     negative rho (up, down):  3.974E-01 0.000E+00

     Adding external electric field

     Computed dipole along edir(3) :
        Dipole                0.0498 Ry au,          0.1266 Debye
        Dipole field          0.0001 Ry au

        Potential amp.       -0.0086 Ry
        Total length         47.0151 bohr

     End of self-consistent calculation

[...]

          k = 0.0493-0.0570 0.0000 ( 25608 PWs)   bands (ev):

[...]

          k =-0.0740-0.0427 0.0000 ( 25614 PWs)   bands (ev):

   -59.6669 -59.6273 -59.5821 -33.7367 -33.7106 -33.7104 -33.6947 -33.6744
   -33.6743 -33.6520 -33.6504 -33.6498 -22.1677 -22.1222 -22.1016 -22.1000
   -22.0963 -22.0802 -22.0765 -22.0628 -22.0279 -22.0135 -22.0017 -21.9963
   -21.9881 -21.9825 -21.9686 -21.9616 -21.9458 -21.9313 -21.9249 -21.9110
   -21.8792 -21.8619 -21.8588 -21.8581 -21.8463 -21.8440 -21.8423 -21.8350
   -21.8260 -21.8239 -21.8226 -21.8179 -21.8143 -21.8110 -21.8068 -21.8040
   -21.7974 -21.7719 -21.7698 -21.7671 -21.7621 -21.7580 -21.7563 -21.7450
   -21.7180 -11.0488 -10.8008 -10.1423  -9.5451  -9.4062  -9.2880  -8.7940
    -8.5588  -8.0057  -3.4803  -3.0565  -2.4860  -1.7088  -1.5282  -1.4336
    -1.3127  -1.2491  -1.1898  -0.7070  -0.6937  -0.4621  -0.1005  -0.0124
     0.1986   0.3715   0.5070   0.7087   0.7636   0.9334   1.1218   1.2309
     1.3183   1.3592   1.4596   1.5082   1.6492   1.8705   2.1153   2.3999
     2.4999   2.7180

     the Fermi energy is     1.3880 ev

!    total energy              =   -2103.76065853 Ry
     Harris-Foulkes estimate   =   -2103.76065876 Ry
     estimated scf accuracy    <       0.00000004 Ry

     The total energy is the sum of the following terms:

     one-electron contribution =  -11383.49636826 Ry
     hartree contribution      =    5730.33027372 Ry
     xc contribution           =    -659.12994155 Ry
     ewald contribution        =    4208.64459063 Ry
     electric field correction =       0.00000458 Ry
     smearing contrib. (-TS)   =      -0.10921765 Ry

     convergence has been achieved in  12 iterations

 BEEF-vdW xc energy contributions
           1 :   -585.801532024971
           2 :    543.577268115389
           3 :   -469.351349158125
           4 :    379.699578633869
           5 :   -291.895578552270
           6 :    218.742253582710
           7 :   -165.674148352831
           8 :    130.842729910225
           9 :   -107.753178630670
          10 :    89.0466255598620
          11 :   -69.7427798303675
          12 :    48.7007638048874
          13 :   -28.0344500595816
          14 :    11.1447494422785
          15 :  -0.539029974769846
          16 :   -3.51524738112596
          17 :    3.00772106518366
          18 :   -1.08352807367623
          19 :   0.509646266835261
          20 :   -2.50866346886937
          21 :    6.47327841743345
          22 :   -10.5954120362289
          23 :    12.9919307020252
          24 :   -12.7219993718539
          25 :    10.2086031434418
          26 :   -6.92745464038421
          27 :    4.59252685138165
          28 :   -4.29210007579252
          29 :    6.00447462429815
          30 :   -8.70268576904562
          31 :   -48.4171788320289
          32 :   -35.7809738700230

     Forces acting on atoms (Ry/au):

     negative rho (up, down):  3.974E-01 0.000E+00
     atom    1 type  1   force =    -0.02332723    0.01346799   -0.00391854
     atom    2 type  2   force =    -0.00000023   -0.00000029    0.04395460
     atom    3 type  1   force =     0.02332728    0.01346806   -0.00391832
     atom    4 type  1   force =    -0.00000001   -0.02693593   -0.00391865
     atom    5 type  1   force =     0.01258513   -0.00726583   -0.01596073
     atom    6 type  2   force =     0.00000042    0.00000058    0.01852145
     atom    7 type  1   force =    -0.01258603   -0.00726649   -0.01596338
     atom    8 type  1   force =     0.00000022    0.01453109   -0.01595925
     atom    9 type  1   force =     0.00114703   -0.00066077   -0.00130676
     atom   10 type  2   force =    -0.00000098   -0.00000105    0.00108326
     atom   11 type  1   force =    -0.00114637   -0.00066155   -0.00130714
     atom   12 type  1   force =     0.00000078    0.00132419   -0.00130655

     Total force =     0.003399     Total SCF correction =     0.000192

     entering subroutine stress ...

     negative rho (up, down):  3.974E-01 0.000E+00
          total   stress  (Ry/bohr**3)                   (kbar)     P=   -6.53
  -0.00004686   0.00000000   0.00000000         -6.89      0.00      0.00
   0.00000000  -0.00004686   0.00000000          0.00     -6.89      0.00
   0.00000000   0.00000000  -0.00003954          0.00      0.00     -5.82

     bfgs converged in  15 scf cycles and  14 bfgs steps
     (criteria: energy <  1.0E+00, force <  1.9E-03)

     End of BFGS Geometry Optimization

     Final energy   =   -2103.7606585286 Ry
Begin final coordinates

ATOMIC_POSITIONS (crystal)
Bi1      0.000000000   0.000000000   0.391892071    0   0   0
Mo1      0.000000000   0.500000000   0.391892071    0   0   0
Bi1      0.500000000   0.000000000   0.391892071    0   0   0
Bi1      0.500000000   0.500000000   0.391892071    0   0   0
Bi1      0.666666667   0.666666667   0.500000000    0   0   0
Mo1      0.666666667   0.166666667   0.500000000    0   0   0
Bi1      0.166666667   0.666666667   0.500000000    0   0   0
Bi1      0.166666667   0.166666667   0.500000000    0   0   0
Bi1      0.352491936   0.323756020   0.606393264
Mo1      0.333332763   0.833329222   0.582442502
Bi1      0.823755645   0.323755228   0.606393636
Bi1      0.823755271   0.852491552   0.606393113
End final coordinates

     Writing output data file calc.save

     General routines

     Parallel routines

   This run was terminated on:  17:47:55  23Feb2018

   JOB DONE.