     Program PWSCF v.5.1rc2 (svn rev. ) starts on 23Feb2018 at 16:25:32

     Current dimensions of program PWSCF are:
     Max number of different atomic species (ntypx) = 10
     Max number of k-points (npk) =  40000
     Max angular momentum in pseudopotentials (lmaxx) =  3
     Presently stress not available with electric field

     IMPORTANT: XC functional enforced from input :
     Exchange-correlation      = BEEF-VDW ( 1  4 27 13 2)
     Any further DFT definition will be discarded
     Please, verify this is what you really want

     Subspace diagonalization in iterative solution of the eigenvalue problem:
     a serial algorithm will be used

     bravais-lattice index     =            0
     lattice parameter (alat)  =       1.8897  a.u.
     unit-cell volume          =    6687.0309 (a.u.)^3
     number of atoms/cell      =           12
     number of atomic types    =            2
     number of electrons       =       180.00
     number of Kohn-Sham states=          100
     kinetic-energy cutoff     =      36.7493  Ry
     charge density cutoff     =     367.4932  Ry
     convergence threshold     =      1.0E-05
     mixing beta               =       0.3000
     number of iterations used =           10  plain     mixing
     Exchange-correlation      = BEEF-VDW ( 1  4 27 13 2)
     nstep                     =           50

     celldm(1)=   1.889726  celldm(2)=   0.000000  celldm(3)=   0.000000
     celldm(4)=   0.000000  celldm(5)=   0.000000  celldm(6)=   0.000000

     crystal axes: (cart. coord. in units of alat)
               a(1) = (   6.702219   0.000000   0.000000 )
               a(2) = (   3.351110   5.804292   0.000000 )
               a(3) = (   0.000000   0.000000  25.472339 )

     reciprocal axes: (cart. coord. in units 2 pi/alat)
               b(1) = (  0.149204 -0.086143  0.000000 )
               b(2) = (  0.000000  0.172286 -0.000000 )
               b(3) = (  0.000000  0.000000  0.039258 )

     PseudoPot. # 1 for Bi read from file:
     /home/mamunm/src/pseudo/gbrv1.5pbe/Bi.UPF
     MD5 check sum: 81103212dc04adf40945787f699eab19
     Pseudo is Ultrasoft + core correction, Zval = 15.0
     Generated by new atomic code, or converted to UPF format
     Using radial grid of  899 points,  6 beta functions with:
                l(1) =   0
                l(2) =   0
                l(3) =   1
                l(4) =   1
                l(5) =   2
                l(6) =   2
     Q(r) pseudized with  6 coefficients,  rinner =    1.000   1.000   1.000
                                                       1.000   1.000

     PseudoPot. # 2 for Re read from file:
     /home/mamunm/src/pseudo/gbrv1.5pbe/Re.UPF
     MD5 check sum: 85f993410f3e006da9d71c142b4ad953
     Pseudo is Ultrasoft + core correction, Zval = 15.0
     Generated by new atomic code, or converted to UPF format
     Using radial grid of  981 points,  8 beta functions with:
                l(1) =   0
                l(2) =   0
                l(3) =   1
                l(4) =   1
                l(5) =   2
                l(6) =   2
                l(7) =   3
                l(8) =   3
     Q(r) pseudized with  8 coefficients,  rinner =    1.150   1.150   1.150
                                                       1.150   1.150   1.150
                                                       1.150

     vdW kernel table read from file vdW_kernel_table
     MD5 check sum: 095c7af220d748ca6e76c0b4c6cfb241

     atomic species   valence    mass     pseudopotential
        Bi1           15.00   208.98040     Bi( 1.00)
        Re1           15.00   186.20700     Re( 1.00)

     No symmetry found

   Cartesian axes

     site n.     atom                  positions (alat units)
         1           Bi1 tau(   1) = (   0.0000000   0.0000000  10.0000000  )
         2           Re1 tau(   2) = (   1.6755548   2.9021461  10.0000000  )
         3           Bi1 tau(   3) = (   3.3511096   0.0000000  10.0000000  )
         4           Bi1 tau(   4) = (   5.0266645   2.9021461  10.0000000  )
         5           Bi1 tau(   5) = (   6.7022193   3.8695281  12.7361696  )
         6           Re1 tau(   6) = (   5.0266645   0.9673820  12.7361696  )
         7           Bi1 tau(   7) = (   3.3511096   3.8695281  12.7361696  )
         8           Bi1 tau(   8) = (   1.6755548   0.9673820  12.7361696  )
         9           Bi1 tau(   9) = (   3.3511096   1.9347641  15.4723391  )
        10           Re1 tau(  10) = (   5.0266645   4.8369101  15.4723391  )
        11           Bi1 tau(  11) = (   6.7022193   1.9347641  15.4723391  )
        12           Bi1 tau(  12) = (   8.3777741   4.8369101  15.4723391  )

     number of k points=    20  Fermi-Dirac smearing, width (Ry)=  0.0110
                       cart. coord. in units 2pi/alat
        k(    1) = (   0.0000000   0.0000000   0.0000000), wk =   0.0555556
        k(    2) = (   0.0000000   0.0287144  -0.0000000), wk =   0.1111111
        k(    3) = (   0.0000000   0.0574288  -0.0000000), wk =   0.1111111
        k(    4) = (   0.0000000  -0.0861431   0.0000000), wk =   0.0555556
        k(    5) = (   0.0248674  -0.0143572   0.0000000), wk =   0.1111111
        k(    6) = (   0.0248674   0.0143572  -0.0000000), wk =   0.1111111
        k(    7) = (   0.0248674   0.0430716  -0.0000000), wk =   0.1111111
        k(    8) = (   0.0248674  -0.1005003   0.0000000), wk =   0.1111111
        k(    9) = (   0.0248674  -0.0717860   0.0000000), wk =   0.1111111
        k(   10) = (   0.0248674  -0.0430716   0.0000000), wk =   0.1111111
        k(   11) = (   0.0497348  -0.0287144   0.0000000), wk =   0.1111111
        k(   12) = (   0.0497348   0.0000000   0.0000000), wk =   0.1111111
        k(   13) = (   0.0497348   0.0287144  -0.0000000), wk =   0.1111111
        k(   14) = (   0.0497348  -0.1148575   0.0000000), wk =   0.1111111
        k(   15) = (   0.0497348  -0.0861431   0.0000000), wk =   0.1111111
        k(   16) = (   0.0497348  -0.0574288   0.0000000), wk =   0.1111111
        k(   17) = (  -0.0746022   0.0430716  -0.0000000), wk =   0.0555556
        k(   18) = (  -0.0746022   0.0717860  -0.0000000), wk =   0.1111111
        k(   19) = (  -0.0746022   0.1005003  -0.0000000), wk =   0.1111111
        k(   20) = (  -0.0746022  -0.0430716   0.0000000), wk =   0.0555556

     Largest allocated arrays     est. size (Mb)     dimensions
     Largest temporary arrays     est. size (Mb)     dimensions

     Initial potential from superposition of free atoms
     Check: negative starting charge=   -0.766268

     starting charge  169.49949, renormalised to  180.00000

     negative rho (up, down):  8.137E-01 0.000E+00

     *
     * You are using vdW-DF for exchange-correlation in this calculation.
     * Please cite the following three references that made this development
     * possible:
     *
     *   M. Dion, H. Rydberg, E. Schroder, D. C. Langreth, and
     *   B. I. Lundqvist, Phys. Rev. Lett. 92, 246401 (2004).
     *
     *   T. Thonhauser, V. R. Cooper, S. Li, A. Puzder, P. Hyldgaard, and
     *   D. C. Langreth, Phys. Rev. B 76, 125112 (2007).
     *
     *   G. Roman-Perez and J. M. Soler, Phys. Rev. Lett. 103, 096102 (2009).
     *
     *
     * If you are using vdW-DF2, please also cite:
     *
     *   K. Lee, E. D. Murray, L. Kong, B. I. Lundqvist, and
     *   D. C. Langreth, Phys. Rev. B 82, 081101(R) (2010).
     *
     *
     * If you are calculating the stress with vdW-DF, please also cite:
     *
     *   R. Sabatini, E. Kucukbenli, B. Kolb, T. Thonhauser, and
     *   S. de Gironcoli, J. Phys.: Condens. Matter 24, 424209 (2012).
     *

     Carrying out vdW-DF run using the following parameters:

     Nqs =      20    Nr_points =    1024   r_max =   100.000
     q_mesh =
               0.00001000     0.04494208     0.09755937     0.15916263
               0.23128650     0.31572767     0.41458969     0.53033537
               0.66584808     0.82450364     1.01025438     1.22772762
               1.48234092     1.78043706     2.12944203     2.53805004
               3.01644009     3.57652955     4.23227104     5.00000000

     Gradients computed in reciprocal space

     Adding external electric field

     Computed dipole along edir(3) :
        Dipole                0.0000 Ry au,          0.0000 Debye
        Dipole field          0.0000 Ry au

        Potential amp.       -0.0000 Ry
        Total length         46.9324 bohr

     Starting wfc are  120 randomized atomic wfcs

     Self-consistent Calculation

     iteration #  1     ecut=    36.75 Ry     beta=0.30
     Davidson diagonalization with overlap
     ethr =  1.00E-02,  avg # of iterations =  2.9

[...]

     total energy              =   -2259.20464453 Ry
     Harris-Foulkes estimate   =   -2262.63410255 Ry
     estimated scf accuracy    <       7.69466630 Ry

[...]

     End of self-consistent calculation

          k = 0.0000 0.0000 0.0000 ( 25137 PWs)   bands (ev):

   -78.6366 -78.5595 -78.5579 -40.3600 -40.3078 -40.3078 -40.2751 -40.2751
   -40.2737 -40.2737 -40.2213 -40.2200 -22.1684 -22.1486 -22.1486 -22.1215
   -22.0607 -22.0607 -22.0258 -22.0258 -22.0239 -22.0226 -22.0183 -22.0032
   -21.9827 -21.9827 -21.9717 -21.9717 -21.9537 -21.9537 -21.9379 -21.9374
   -21.9374 -21.9132 -21.8770 -21.8770 -21.8739 -21.8561 -21.8561 -21.8491
   -21.8426 -21.8319 -21.8319 -21.8151 -21.8112 -21.8112 -21.8035 -21.8035
   -21.7979 -21.7978 -21.7972 -21.7972 -21.7835 -21.7808 -21.7808 -21.7353
   -21.7345 -11.8645 -10.8291  -9.7690  -9.1453  -9.1453  -8.5261  -8.5261
    -8.0081  -8.0081  -3.9979  -3.3568  -2.9935  -2.5758  -2.5758  -2.3937
    -1.8192  -1.8192  -1.4134  -1.4134  -1.1398   0.2001   0.2001   0.3438
     0.3438   0.5943   0.6372   0.8405   0.9766   0.9766   1.1842   1.1842
     1.2037   1.2228   1.2228   1.2682   1.3510   1.3510   2.3580   2.5955
     2.5955   2.7886   2.7886   2.9367

[...]

          k =-0.0746 0.0431-0.0000 ( 25222 PWs)   bands (ev):

[...]

     the Fermi energy is     1.3831 ev

!    total energy              =   -2260.05597992 Ry
     Harris-Foulkes estimate   =   -2260.05598545 Ry
     estimated scf accuracy    <       0.00000663 Ry

     The total energy is the sum of the following terms:

     one-electron contribution =  -11681.59377792 Ry
     hartree contribution      =    5877.11573440 Ry
     xc contribution           =    -761.01613808 Ry
     ewald contribution        =    4305.53682643 Ry
     electric field correction =       0.00000033 Ry
     smearing contrib. (-TS)   =      -0.09862507 Ry

     convergence has been achieved in  15 iterations

 BEEF-vdW xc energy contributions
           1 :   -678.196367758736
           2 :    630.135546543765
           3 :   -545.065971667356
           4 :    441.081579478845
           5 :   -337.370120439821
           6 :    248.674876168140
           7 :   -181.991826870946
           8 :    136.359570528784
           9 :   -105.424325441787
          10 :    81.4037357935144
          11 :   -58.6644308371340
          12 :    35.5112547484077
          13 :   -13.7669183187253
          14 :   -3.24158708993878
          15 :    13.0508002352915
          16 :   -15.5870666623609
          17 :    13.2339008948688
          18 :   -9.61646706234148
          19 :    7.86579975028235
          20 :   -9.28874787014490
          21 :    13.0650292138671
          22 :   -17.0192685172067
          23 :    18.9658852725852
          24 :   -17.8899562606218
          25 :    14.3860986882673
          26 :   -10.2157054001592
          27 :    7.29840827038402
          28 :   -6.71078059867682
          29 :    8.20740886440137
          30 :   -10.4683052596490
          31 :   -54.4921163177810
          32 :   -40.0817920540936

     Forces acting on atoms (Ry/au):

     negative rho (up, down):  7.664E-01 0.000E+00
     atom    1 type  1   force =    -0.03095683    0.01786437   -0.00191864
     atom    2 type  2   force =     0.00000574   -0.00000912    0.05222305
     atom    3 type  1   force =     0.03095763    0.01787310   -0.00191650
     atom    4 type  1   force =    -0.00000401   -0.03573735   -0.00192349
     atom    5 type  1   force =    -0.00035847    0.00020422    0.00105129
     atom    6 type  2   force =    -0.00000417    0.00000056   -0.00117630
     atom    7 type  1   force =     0.00035541    0.00021086    0.00105059
     atom    8 type  1   force =    -0.00000758   -0.00041685    0.00104346
     atom    9 type  1   force =     0.03101655   -0.01790030    0.00191405
     atom   10 type  2   force =     0.00000345    0.00000316   -0.05415752
     atom   11 type  1   force =    -0.03101178   -0.01790262    0.00190448
     atom   12 type  1   force =     0.00000407    0.03580997    0.00190553

     Total force =     0.082407     Total SCF correction =     0.008302
     SCF correction compared to forces is large: reduce conv_thr to get better values

     entering subroutine stress ...

     negative rho (up, down):  7.664E-01 0.000E+00
          total   stress  (Ry/bohr**3)                   (kbar)     P=  -12.88
  -0.00008734  -0.00000000  -0.00000000        -12.85     -0.00     -0.00
  -0.00000000  -0.00008734   0.00000000         -0.00    -12.85      0.00
  -0.00000000   0.00000000  -0.00008793         -0.00      0.00    -12.93

     BFGS Geometry Optimization

     number of scf cycles    =   1
     number of bfgs steps    =   0

     energy   new            =   -2260.0559799213 Ry

     new trust radius        =       0.0541575175 bohr
     new conv_thr            =       0.0000099958 Ry

ATOMIC_POSITIONS (crystal)
Bi1      0.000000000  -0.000000000   0.392582713    0   0   0
Re1      0.000000000   0.500000000   0.392582713    0   0   0
Bi1      0.500000000  -0.000000000   0.392582713    0   0   0
Bi1      0.500000000   0.500000000   0.392582713    0   0   0
Bi1      0.666666667   0.666666667   0.500000000    0   0   0
Re1      0.666666667   0.166666667   0.500000000    0   0   0
Bi1      0.166666667   0.666666667   0.500000000    0   0   0
Bi1      0.166666667   0.166666667   0.500000000    0   0   0
Bi1      0.336598246   0.331701363   0.607457051
Re1      0.333333461   0.833333621   0.606292187
Bi1      0.831700873   0.331701152   0.607456852
Bi1      0.831701258   0.836598127   0.607456874

     Writing output data file calc.save
     Check: negative starting charge=   -0.766268
     NEW-OLD atomic charge density approx. for the potential
     Check: negative starting charge=   -0.767701

[...]

     energy   old            =   -2260.0559799213 Ry
     energy   new            =   -2260.0624202013 Ry

     CASE: energy  _new < energy  _old

     WARNING: bfgs curvature condition failed, Theta= 0.871
     new trust radius        =       0.0595732692 bohr
     new conv_thr            =       0.0000001000 Ry

[...]

     Total force =     0.068224     Total SCF correction =     0.000288

[...]

     iteration #  1     ecut=    36.75 Ry     beta=0.30
     Davidson diagonalization with overlap
     c_bands:  1 eigenvalues not converged
     c_bands:  1 eigenvalues not converged
     c_bands:  1 eigenvalues not converged
     ethr =  1.00E-06,  avg # of iterations =  8.2

[...]

     iteration #  1     ecut=    36.75 Ry     beta=0.30
     Davidson diagonalization with overlap
     c_bands:  1 eigenvalues not converged
     c_bands:  1 eigenvalues not converged
     c_bands:  1 eigenvalues not converged
     ethr =  1.00E-06,  avg # of iterations = 13.2

[...]

     Total force =     0.005225     Total SCF correction =     0.000515

[...]

     number of scf cycles    =  15
     number of bfgs steps    =  14

     energy   old            =   -2260.1184030581 Ry
     energy   new            =   -2260.1185726394 Ry

     CASE: energy  _new < energy  _old

     new trust radius        =       0.0318284224 bohr
     new conv_thr            =       0.0000001000 Ry

ATOMIC_POSITIONS (crystal)
Bi1      0.000000000  -0.000000000   0.392582713    0   0   0
Re1      0.000000000   0.500000000   0.392582713    0   0   0
Bi1      0.500000000  -0.000000000   0.392582713    0   0   0
Bi1      0.500000000   0.500000000   0.392582713    0   0   0
Bi1      0.666666667   0.666666667   0.500000000    0   0   0
Re1      0.666666667   0.166666667   0.500000000    0   0   0
Bi1      0.166666667   0.666666667   0.500000000    0   0   0
Bi1      0.166666667   0.166666667   0.500000000    0   0   0
Bi1      0.354154116   0.322925498   0.603263702
Re1      0.333334038   0.833333301   0.581721967
Bi1      0.822924314   0.322925649   0.603263634
Bi1      0.822923773   0.854155197   0.603263388

     Writing output data file calc.save
     Check: negative starting charge=   -0.762924
     NEW-OLD atomic charge density approx. for the potential
     Check: negative starting charge=   -0.762858

[...]

     Self-consistent Calculation

[...]

     total energy              =   -2260.11869795 Ry
     Harris-Foulkes estimate   =   -2260.11869799 Ry
     estimated scf accuracy    <       0.00000031 Ry

     iteration # 12     ecut=    36.75 Ry     beta=0.30
     Davidson diagonalization with overlap
     ethr =  1.74E-10,  avg # of iterations =  1.1

[...]

     negative rho (up, down):  7.654E-01 0.000E+00

     Adding external electric field

     Computed dipole along edir(3) :
        Dipole                0.1000 Ry au,          0.2542 Debye
        Dipole field          0.0002 Ry au

        Potential amp.       -0.0176 Ry
        Total length         46.9324 bohr

     End of self-consistent calculation

[...]

          k = 0.0497-0.0574 0.0000 ( 25155 PWs)   bands (ev):

[...]

          k =-0.0746-0.0431 0.0000 ( 25222 PWs)   bands (ev):

   -78.5311 -78.5000 -78.4199 -40.2536 -40.2119 -40.2118 -40.2080 -40.2080
   -40.2024 -40.1863 -40.1424 -40.1423 -22.0739 -22.0184 -22.0067 -22.0055
   -21.9982 -21.9846 -21.9767 -21.9700 -21.9614 -21.9305 -21.9136 -21.9119
   -21.9034 -21.8893 -21.8873 -21.8790 -21.8655 -21.8603 -21.8412 -21.8310
   -21.8307 -21.8174 -21.8137 -21.8113 -21.8033 -21.7990 -21.7940 -21.7894
   -21.7778 -21.7773 -21.7740 -21.7720 -21.7676 -21.7606 -21.7563 -21.7545
   -21.7437 -21.7330 -21.7308 -21.7220 -21.7210 -21.7111 -21.7075 -21.7012
   -21.6729 -11.1052 -10.9020 -10.1632  -9.5440  -9.3744  -9.2406  -8.6635
    -8.4939  -7.8535  -3.8082  -3.2907  -2.5913  -1.8280  -1.6101  -1.4623
    -1.3742  -1.3073  -1.2017  -0.8778  -0.8271  -0.5387  -0.1563  -0.0747
     0.0878   0.4089   0.5463   0.7060   0.8549   0.9608   0.9777   1.1417
     1.1486   1.2607   1.4390   1.4568   1.5978   1.9445   2.1420   2.4682
     2.6159   2.8475   3.1442   3.2770

     the Fermi energy is     1.4743 ev

!    total energy              =   -2260.11869792 Ry
     Harris-Foulkes estimate   =   -2260.11869797 Ry
     estimated scf accuracy    <       0.00000005 Ry

     The total energy is the sum of the following terms:

     one-electron contribution =  -12082.02285082 Ry
     hartree contribution      =    6077.77566701 Ry
     xc contribution           =    -761.37044857 Ry
     ewald contribution        =    4505.59252711 Ry
     electric field correction =       0.00001880 Ry
     smearing contrib. (-TS)   =      -0.09361145 Ry

     convergence has been achieved in  12 iterations

 BEEF-vdW xc energy contributions
           1 :   -678.560279777231
           2 :    630.651148018839
           3 :   -545.785002856299
           4 :    441.905131790936
           5 :   -338.083523484483
           6 :    249.057234973758
           7 :   -181.938922606133
           8 :    135.950351216610
           9 :   -104.892075082478
          10 :    81.0250761138376
          11 :   -58.6238003638770
          12 :    35.8118481338296
          13 :   -14.2350147439433
          14 :   -2.86204617888632
          15 :    12.9631141349906
          16 :   -15.8363407081739
          17 :    13.6864000955575
          18 :   -10.0329476456080
          19 :    8.02890899931936
          20 :   -9.11649274325657
          21 :    12.6508498557536
          22 :   -16.5788939716830
          23 :    18.7207581224883
          24 :   -17.9506628491179
          25 :    14.6981496034092
          26 :   -10.5942080101016
          27 :    7.52999135619700
          28 :   -6.66710293981816
          29 :    7.90997386357139
          30 :   -10.0717984646037
          31 :   -54.5205964817458
          32 :   -40.1471816101506

     Forces acting on atoms (Ry/au):

     negative rho (up, down):  7.654E-01 0.000E+00
     atom    1 type  1   force =    -0.02605098    0.01504092   -0.00115458
     atom    2 type  2   force =     0.00000033    0.00000004    0.03775184
     atom    3 type  1   force =     0.02605055    0.01504044   -0.00115524
     atom    4 type  1   force =     0.00000031   -0.03008092   -0.00115480
     atom    5 type  1   force =     0.01072803   -0.00619370   -0.01716744
     atom    6 type  2   force =     0.00000007    0.00000050    0.01565637
     atom    7 type  1   force =    -0.01072764   -0.00619392   -0.01716704
     atom    8 type  1   force =     0.00000034    0.01238766   -0.01716663
     atom    9 type  1   force =     0.00094046   -0.00054255    0.00033037
     atom   10 type  2   force =    -0.00000063   -0.00000114    0.00056549
     atom   11 type  1   force =    -0.00094092   -0.00054304    0.00033082
     atom   12 type  1   force =     0.00000009    0.00108572    0.00033084

     Total force =     0.002046     Total SCF correction =     0.000935
     SCF correction compared to forces is large: reduce conv_thr to get better values

     entering subroutine stress ...

     negative rho (up, down):  7.654E-01 0.000E+00
          total   stress  (Ry/bohr**3)                   (kbar)     P=   -5.65
  -0.00003604  -0.00000000  -0.00000000         -5.30     -0.00     -0.00
  -0.00000000  -0.00003604  -0.00000000         -0.00     -5.30     -0.00
  -0.00000000  -0.00000000  -0.00004311         -0.00     -0.00     -6.34

     bfgs converged in  16 scf cycles and  15 bfgs steps
     (criteria: energy <  1.0E+00, force <  1.9E-03)

     End of BFGS Geometry Optimization

     Final energy   =   -2260.1186979233 Ry
Begin final coordinates

ATOMIC_POSITIONS (crystal)
Bi1      0.000000000  -0.000000000   0.392582713    0   0   0
Re1      0.000000000   0.500000000   0.392582713    0   0   0
Bi1      0.500000000  -0.000000000   0.392582713    0   0   0
Bi1      0.500000000   0.500000000   0.392582713    0   0   0
Bi1      0.666666667   0.666666667   0.500000000    0   0   0
Re1      0.666666667   0.166666667   0.500000000    0   0   0
Bi1      0.166666667   0.666666667   0.500000000    0   0   0
Bi1      0.166666667   0.166666667   0.500000000    0   0   0
Bi1      0.354154116   0.322925498   0.603263702
Re1      0.333334038   0.833333301   0.581721967
Bi1      0.822924314   0.322925649   0.603263634
Bi1      0.822923773   0.854155197   0.603263388
End final coordinates

     Writing output data file calc.save

     General routines

     Parallel routines

   This run was terminated on:  18: 6:21  23Feb2018

   JOB DONE.