     Program PWSCF v.5.1rc2 (svn rev. ) starts on 23Feb2018 at 16:25:32

     Current dimensions of program PWSCF are:
     Max number of different atomic species (ntypx) = 10
     Max number of k-points (npk) =  40000
     Max angular momentum in pseudopotentials (lmaxx) =  3
     Presently stress not available with electric field

     IMPORTANT: XC functional enforced from input :
     Exchange-correlation      = BEEF-VDW ( 1  4 27 13 2)
     Any further DFT definition will be discarded
     Please, verify this is what you really want

     Subspace diagonalization in iterative solution of the eigenvalue problem:
     a serial algorithm will be used

     bravais-lattice index     =            0
     lattice parameter (alat)  =       1.8897  a.u.
     unit-cell volume          =    6800.9403 (a.u.)^3
     number of atoms/cell      =           12
     number of atomic types    =            2
     number of electrons       =       180.00
     number of Kohn-Sham states=          100
     kinetic-energy cutoff     =      36.7493  Ry
     charge density cutoff     =     367.4932  Ry
     convergence threshold     =      1.0E-05
     mixing beta               =       0.3000
     number of iterations used =           10  plain     mixing
     Exchange-correlation      = BEEF-VDW ( 1  4 27 13 2)
     nstep                     =           50

     celldm(1)=   1.889726  celldm(2)=   0.000000  celldm(3)=   0.000000
     celldm(4)=   0.000000  celldm(5)=   0.000000  celldm(6)=   0.000000

     crystal axes: (cart. coord. in units of alat)
               a(1) = (   6.753513   0.000000   0.000000 )
               a(2) = (   3.376756   5.848713   0.000000 )
               a(3) = (   0.000000   0.000000  25.514220 )

     reciprocal axes: (cart. coord. in units 2 pi/alat)
               b(1) = (  0.148071 -0.085489  0.000000 )
               b(2) = (  0.000000  0.170978  0.000000 )
               b(3) = (  0.000000  0.000000  0.039194 )

     PseudoPot. # 1 for Bi read from file:
     /home/mamunm/src/pseudo/gbrv1.5pbe/Bi.UPF
     MD5 check sum: 81103212dc04adf40945787f699eab19
     Pseudo is Ultrasoft + core correction, Zval = 15.0
     Generated by new atomic code, or converted to UPF format
     Using radial grid of  899 points,  6 beta functions with:
                l(1) =   0
                l(2) =   0
                l(3) =   1
                l(4) =   1
                l(5) =   2
                l(6) =   2
     Q(r) pseudized with  6 coefficients,  rinner =    1.000   1.000   1.000
                                                       1.000   1.000

     PseudoPot. # 2 for Rh read from file:
     /home/mamunm/src/pseudo/gbrv1.5pbe/Rh.UPF
     MD5 check sum: 761627e959a2e3a1f56b0b5fe687810e
     Pseudo is Ultrasoft + core correction, Zval = 15.0
     Generated by new atomic code, or converted to UPF format
     Using radial grid of  969 points,  7 beta functions with:
                l(1) =   0
                l(2) =   0
                l(3) =   1
                l(4) =   1
                l(5) =   2
                l(6) =   2
                l(7) =   2
     Q(r) pseudized with  8 coefficients,  rinner =    1.200   1.200   1.200
                                                       1.200   1.200

     vdW kernel table read from file vdW_kernel_table
     MD5 check sum: 095c7af220d748ca6e76c0b4c6cfb241

     atomic species   valence    mass     pseudopotential
        Bi1           15.00   208.98040     Bi( 1.00)
        Rh1           15.00   102.90550     Rh( 1.00)

     No symmetry found

   Cartesian axes

     site n.     atom                  positions (alat units)
         1           Bi1 tau(   1) = (   0.0000000   0.0000000  10.0000000  )
         2           Rh1 tau(   2) = (   1.6883782   2.9243567  10.0000000  )
         3           Bi1 tau(   3) = (   3.3767563   0.0000000  10.0000000  )
         4           Bi1 tau(   4) = (   5.0651345   2.9243567  10.0000000  )
         5           Bi1 tau(   5) = (   6.7535126   3.8991423  12.7571100  )
         6           Rh1 tau(   6) = (   5.0651345   0.9747856  12.7571100  )
         7           Bi1 tau(   7) = (   3.3767563   3.8991423  12.7571100  )
         8           Bi1 tau(   8) = (   1.6883782   0.9747856  12.7571100  )
         9           Bi1 tau(   9) = (   3.3767563   1.9495712  15.5142200  )
        10           Rh1 tau(  10) = (   5.0651345   4.8739279  15.5142200  )
        11           Bi1 tau(  11) = (   6.7535126   1.9495712  15.5142200  )
        12           Bi1 tau(  12) = (   8.4418908   4.8739279  15.5142200  )

     number of k points=    20  Fermi-Dirac smearing, width (Ry)=  0.0110
                       cart. coord. in units 2pi/alat
        k(    1) = (   0.0000000   0.0000000   0.0000000), wk =   0.0555556
        k(    2) = (   0.0000000   0.0284963   0.0000000), wk =   0.1111111
        k(    3) = (   0.0000000   0.0569926   0.0000000), wk =   0.1111111
        k(    4) = (   0.0000000  -0.0854889   0.0000000), wk =   0.0555556
        k(    5) = (   0.0246785  -0.0142481   0.0000000), wk =   0.1111111
        k(    6) = (   0.0246785   0.0142481   0.0000000), wk =   0.1111111
        k(    7) = (   0.0246785   0.0427444   0.0000000), wk =   0.1111111
        k(    8) = (   0.0246785  -0.0997370   0.0000000), wk =   0.1111111
        k(    9) = (   0.0246785  -0.0712407   0.0000000), wk =   0.1111111
        k(   10) = (   0.0246785  -0.0427444   0.0000000), wk =   0.1111111
        k(   11) = (   0.0493570  -0.0284963   0.0000000), wk =   0.1111111
        k(   12) = (   0.0493570   0.0000000   0.0000000), wk =   0.1111111
        k(   13) = (   0.0493570   0.0284963   0.0000000), wk =   0.1111111
        k(   14) = (   0.0493570  -0.1139852   0.0000000), wk =   0.1111111
        k(   15) = (   0.0493570  -0.0854889   0.0000000), wk =   0.1111111
        k(   16) = (   0.0493570  -0.0569926   0.0000000), wk =   0.1111111
        k(   17) = (  -0.0740355   0.0427444   0.0000000), wk =   0.0555556
        k(   18) = (  -0.0740355   0.0712407   0.0000000), wk =   0.1111111
        k(   19) = (  -0.0740355   0.0997370   0.0000000), wk =   0.1111111
        k(   20) = (  -0.0740355  -0.0427444   0.0000000), wk =   0.0555556

     Largest allocated arrays     est. size (Mb)     dimensions
     Largest temporary arrays     est. size (Mb)     dimensions

     Initial potential from superposition of free atoms
     Check: negative starting charge=   -0.543353

     starting charge  169.49933, renormalised to  180.00000

     negative rho (up, down):  5.770E-01 0.000E+00

     *
     * You are using vdW-DF for exchange-correlation in this calculation.
     * Please cite the following three references that made this development
     * possible:
     *
     *   M. Dion, H. Rydberg, E. Schroder, D. C. Langreth, and
     *   B. I. Lundqvist, Phys. Rev. Lett. 92, 246401 (2004).
     *
     *   T. Thonhauser, V. R. Cooper, S. Li, A. Puzder, P. Hyldgaard, and
     *   D. C. Langreth, Phys. Rev. B 76, 125112 (2007).
     *
     *   G. Roman-Perez and J. M. Soler, Phys. Rev. Lett. 103, 096102 (2009).
     *
     *
     * If you are using vdW-DF2, please also cite:
     *
     *   K. Lee, E. D. Murray, L. Kong, B. I. Lundqvist, and
     *   D. C. Langreth, Phys. Rev. B 82, 081101(R) (2010).
     *
     *
     * If you are calculating the stress with vdW-DF, please also cite:
     *
     *   R. Sabatini, E. Kucukbenli, B. Kolb, T. Thonhauser, and
     *   S. de Gironcoli, J. Phys.: Condens. Matter 24, 424209 (2012).
     *

     Carrying out vdW-DF run using the following parameters:

     Nqs =      20    Nr_points =    1024   r_max =   100.000
     q_mesh =
               0.00001000     0.04494208     0.09755937     0.15916263
               0.23128650     0.31572767     0.41458969     0.53033537
               0.66584808     0.82450364     1.01025438     1.22772762
               1.48234092     1.78043706     2.12944203     2.53805004
               3.01644009     3.57652955     4.23227104     5.00000000

     Gradients computed in reciprocal space

     Adding external electric field

     Computed dipole along edir(3) :
        Dipole               -0.0000 Ry au,         -0.0000 Debye
        Dipole field         -0.0000 Ry au

        Potential amp.        0.0000 Ry
        Total length         47.0095 bohr

     Starting wfc are  117 randomized atomic wfcs

     Self-consistent Calculation

     iteration #  1     ecut=    36.75 Ry     beta=0.30
     Davidson diagonalization with overlap
     ethr =  1.00E-02,  avg # of iterations =  3.1

[...]

     total energy              =   -2193.32566356 Ry
     Harris-Foulkes estimate   =   -2204.59986829 Ry
     estimated scf accuracy    <      24.18469370 Ry

[...]

     End of self-consistent calculation

          k = 0.0000 0.0000 0.0000 ( 25641 PWs)   bands (ev):

   -44.4465 -44.3643 -44.3643 -44.0383 -44.0383 -44.0382 -44.0382 -43.9353
   -43.9351 -22.5518 -22.5373 -22.5373 -22.4948 -22.4562 -22.4562 -22.4310
   -22.4214 -22.4208 -22.4208 -22.3723 -22.3723 -22.3641 -22.3641 -22.3276
   -22.3250 -22.3041 -22.2926 -22.2926 -22.2830 -22.2830 -22.2483 -22.2344
   -22.1983 -22.1983 -22.1828 -22.1820 -22.1820 -22.1786 -22.1573 -22.1573
   -22.1483 -22.1462 -22.1462 -22.1401 -22.1401 -22.1388 -22.1388 -22.1287
   -22.1272 -22.1272 -22.1158 -22.1158 -22.0694 -22.0688 -11.9756 -10.9654
   -10.0028  -9.4197  -9.4197  -8.7893  -8.7893  -8.3253  -8.3253  -4.1021
    -3.3323  -2.9940  -2.6127  -2.6127  -2.5137  -1.9601  -1.9601  -1.4815
    -1.4815  -1.0521  -0.3458  -0.3458  -0.0574  -0.0574   0.0067   0.0067
     0.0445   0.3001   0.3001   0.3224   0.3224   0.3637   0.3637   0.4179
     0.4626   1.1784   1.6300   1.8824   1.8824   1.9515   1.9515   2.3509
     2.6791   3.6611   3.7208   3.7208

[...]

          k =-0.0740 0.0427 0.0000 ( 25582 PWs)   bands (ev):

[...]

     the Fermi energy is     1.1080 ev

!    total energy              =   -2200.88414142 Ry
     Harris-Foulkes estimate   =   -2200.88414125 Ry
     estimated scf accuracy    <       0.00000042 Ry

     The total energy is the sum of the following terms:

     one-electron contribution =  -11538.84610692 Ry
     hartree contribution      =    5820.43833230 Ry
     xc contribution           =    -692.14301310 Ry
     ewald contribution        =    4209.72130266 Ry
     electric field correction =       0.00000000 Ry
     smearing contrib. (-TS)   =      -0.05465637 Ry

     convergence has been achieved in  15 iterations

 BEEF-vdW xc energy contributions
           1 :   -615.206906141981
           2 :    570.573694845519
           3 :   -492.270349551830
           4 :    398.002334482337
           5 :   -306.048375695220
           6 :    229.726560976594
           7 :   -174.397855424411
           8 :    137.743817612032
           9 :   -112.753142780085
          10 :    91.8246598498579
          11 :   -70.1351606422936
          12 :    46.9875145836124
          13 :   -24.9477646906469
          14 :    7.60148731848039
          15 :    2.74595604413787
          16 :   -6.30901822687338
          17 :    5.57446556136426
          18 :   -3.92854295714528
          19 :    4.00335763994349
          20 :   -6.60556620177113
          21 :    10.6887586589580
          22 :   -14.2520927869637
          23 :    15.5870745273535
          24 :   -14.1965291257134
          25 :    10.9647407534857
          26 :   -7.59046461837352
          27 :    5.65660896468034
          28 :   -5.84681681078519
          29 :    7.68890114100941
          30 :   -9.90460319301815
          31 :   -50.5284910959206
          32 :   -37.2053287036566

     Forces acting on atoms (Ry/au):

     negative rho (up, down):  5.557E-01 0.000E+00
     atom    1 type  1   force =    -0.01956132    0.01129346    0.00223628
     atom    2 type  2   force =     0.00000135    0.00000048    0.04720436
     atom    3 type  1   force =     0.01956098    0.01129431    0.00223436
     atom    4 type  1   force =     0.00000106   -0.02258767    0.00223618
     atom    5 type  1   force =    -0.00006333    0.00003396    0.00010422
     atom    6 type  2   force =    -0.00000120   -0.00000027   -0.00003047
     atom    7 type  1   force =     0.00006428    0.00003640    0.00010464
     atom    8 type  1   force =    -0.00000300   -0.00006912    0.00010496
     atom    9 type  1   force =     0.01957306   -0.01130021   -0.00232507
     atom   10 type  2   force =     0.00000068   -0.00000102   -0.04721955
     atom   11 type  1   force =    -0.01957342   -0.01130143   -0.00232570
     atom   12 type  1   force =     0.00000085    0.02260111   -0.00232421

     Total force =     0.061468     Total SCF correction =     0.000646

     entering subroutine stress ...

     negative rho (up, down):  5.557E-01 0.000E+00
          total   stress  (Ry/bohr**3)                   (kbar)     P=  -17.88
  -0.00012183  -0.00000000   0.00000000        -17.92     -0.00      0.00
  -0.00000000  -0.00012183  -0.00000000         -0.00    -17.92     -0.00
   0.00000000  -0.00000000  -0.00012107          0.00     -0.00    -17.81

     BFGS Geometry Optimization

     number of scf cycles    =   1
     number of bfgs steps    =   0

     energy   new            =   -2200.8841414194 Ry

     new trust radius        =       0.0472195487 bohr
     new conv_thr            =       0.0000099958 Ry

ATOMIC_POSITIONS (crystal)
Bi1      0.000000000   0.000000000   0.391938300    0   0   0
Rh1      0.000000000   0.500000000   0.391938300    0   0   0
Bi1      0.500000000   0.000000000   0.391938300    0   0   0
Bi1      0.500000000   0.500000000   0.391938300    0   0   0
Bi1      0.666666667   0.666666667   0.500000000    0   0   0
Rh1      0.666666667   0.166666667   0.500000000    0   0   0
Bi1      0.166666667   0.666666667   0.500000000    0   0   0
Bi1      0.166666667   0.166666667   0.500000000    0   0   0
Bi1      0.335378204   0.332310918   0.608013477
Rh1      0.333333433   0.833333241   0.607082344
Bi1      0.832310905   0.332310807   0.608013464
Bi1      0.832310954   0.835378226   0.608013495

     Writing output data file calc.save
     Check: negative starting charge=   -0.543353
     NEW-OLD atomic charge density approx. for the potential
     Check: negative starting charge=   -0.545060

[...]

     Total force =     0.061007     Total SCF correction =     0.007083
     SCF correction compared to forces is large: reduce conv_thr to get better values

[...]

     energy   old            =   -2200.8841414193 Ry
     energy   new            =   -2200.8878497023 Ry

     CASE: energy  _new < energy  _old

     WARNING: bfgs curvature condition failed, Theta= 0.806
     new trust radius        =       0.0519415035 bohr
     new conv_thr            =       0.0000001000 Ry

[...]

     Total force =     0.007213     Total SCF correction =     0.000507

[...]

     number of scf cycles    =  16
     number of bfgs steps    =  15

     energy   old            =   -2200.9464386306 Ry
     energy   new            =   -2200.9466581844 Ry

     CASE: energy  _new < energy  _old

     new trust radius        =       0.0193001871 bohr
     new conv_thr            =       0.0000001000 Ry

ATOMIC_POSITIONS (crystal)
Bi1      0.000000000   0.000000000   0.391938300    0   0   0
Rh1      0.000000000   0.500000000   0.391938300    0   0   0
Bi1      0.500000000   0.000000000   0.391938300    0   0   0
Bi1      0.500000000   0.500000000   0.391938300    0   0   0
Bi1      0.666666667   0.666666667   0.500000000    0   0   0
Rh1      0.666666667   0.166666667   0.500000000    0   0   0
Bi1      0.166666667   0.666666667   0.500000000    0   0   0
Bi1      0.166666667   0.166666667   0.500000000    0   0   0
Bi1      0.356596349   0.321701680   0.602310145
Rh1      0.333334656   0.833332051   0.577749062
Bi1      0.821701511   0.321702162   0.602310143
Bi1      0.821701821   0.856595546   0.602310197

     Writing output data file calc.save
     Check: negative starting charge=   -0.544142
     NEW-OLD atomic charge density approx. for the potential
     Check: negative starting charge=   -0.543833

[...]

     Self-consistent Calculation

[...]

     total energy              =   -2200.94674242 Ry
     Harris-Foulkes estimate   =   -2200.94674247 Ry
     estimated scf accuracy    <       0.00000028 Ry

     iteration # 10     ecut=    36.75 Ry     beta=0.30
     Davidson diagonalization with overlap
     ethr =  1.57E-10,  avg # of iterations =  2.4

[...]

     negative rho (up, down):  5.590E-01 0.000E+00

     Adding external electric field

     Computed dipole along edir(3) :
        Dipole                0.0900 Ry au,          0.2288 Debye
        Dipole field          0.0002 Ry au

        Potential amp.       -0.0156 Ry
        Total length         47.0095 bohr

     End of self-consistent calculation

[...]

          k = 0.0494-0.0570 0.0000 ( 25580 PWs)   bands (ev):

[...]

          k =-0.0740-0.0427 0.0000 ( 25582 PWs)   bands (ev):

   -44.4807 -44.3543 -44.3509 -44.3509 -44.3038 -44.3037 -43.8718 -43.8718
   -43.7136 -22.4237 -22.3613 -22.3602 -22.3514 -22.3458 -22.3420 -22.3198
   -22.3180 -22.3098 -22.2803 -22.2730 -22.2660 -22.2653 -22.2635 -22.2494
   -22.2460 -22.2253 -22.2082 -22.2041 -22.1876 -22.1610 -22.1533 -22.1465
   -22.1386 -22.1266 -22.1199 -22.1176 -22.1154 -22.1149 -22.1084 -22.1072
   -22.1013 -22.0976 -22.0890 -22.0801 -22.0745 -22.0696 -22.0547 -22.0542
   -22.0515 -22.0419 -22.0417 -22.0313 -22.0251 -21.9919 -11.2640 -11.0940
   -10.3777  -9.7156  -9.6373  -9.4515  -8.8917  -8.7585  -8.1654  -3.5607
    -3.1490  -2.5726  -1.8459  -1.7873  -1.6171  -1.5161  -1.4463  -1.3437
    -1.0693  -0.9669  -0.8523  -0.5106  -0.4772  -0.3093  -0.0723  -0.0320
     0.0719   0.1978   0.2082   0.4144   0.4955   0.5461   0.5670   0.6507
     0.6672   1.0440   1.0626   1.1414   1.4544   1.8269   2.1593   2.4837
     2.4840   2.6567   2.9845   3.3308

     the Fermi energy is     1.1930 ev

!    total energy              =   -2200.94674238 Ry
     Harris-Foulkes estimate   =   -2200.94674245 Ry
     estimated scf accuracy    <       0.00000002 Ry

     The total energy is the sum of the following terms:

     one-electron contribution =  -12030.55151734 Ry
     hartree contribution      =    6066.64270370 Ry
     xc contribution           =    -692.48211157 Ry
     ewald contribution        =    4455.49220562 Ry
     electric field correction =       0.00001497 Ry
     smearing contrib. (-TS)   =      -0.04803777 Ry

     convergence has been achieved in  10 iterations

 BEEF-vdW xc energy contributions
           1 :   -615.568172417584
           2 :    571.114104525932
           3 :   -493.028910976620
           4 :    398.822549833785
           5 :   -306.650908456620
           6 :    229.870941987155
           7 :   -174.033905665588
           8 :    137.061038902640
           9 :   -112.096755647752
          10 :    91.5220047974136
          11 :   -70.3269638689300
          12 :    47.5568135766949
          13 :   -25.5861635120608
          14 :    7.97725109617397
          15 :    2.80912537345228
          16 :   -6.74010844811892
          17 :    6.10029464178797
          18 :   -4.22894300920223
          19 :    3.88828530365470
          20 :   -6.11562437762007
          21 :    10.0648850203382
          22 :   -13.7950452166486
          23 :    15.4906227957480
          24 :   -14.4492782324968
          25 :    11.3701397076485
          26 :   -7.88541209567677
          27 :    5.65719398351541
          28 :   -5.54097204956008
          29 :    7.22997632730483
          30 :   -9.51624920691586
          31 :   -50.5580102849005
          32 :   -37.2752396402462

     Forces acting on atoms (Ry/au):

     negative rho (up, down):  5.590E-01 0.000E+00
     atom    1 type  1   force =    -0.02031698    0.01173000    0.00365804
     atom    2 type  2   force =     0.00000003   -0.00000005    0.02910963
     atom    3 type  1   force =     0.02031696    0.01173003    0.00365794
     atom    4 type  1   force =    -0.00000004   -0.02345998    0.00365790
     atom    5 type  1   force =     0.00408709   -0.00235969   -0.01641441
     atom    6 type  2   force =    -0.00000005   -0.00000003    0.00867199
     atom    7 type  1   force =    -0.00408686   -0.00235943   -0.01641379
     atom    8 type  1   force =    -0.00000009    0.00471869   -0.01641339
     atom    9 type  1   force =     0.00109898   -0.00063453    0.00015960
     atom   10 type  2   force =     0.00000004    0.00000012    0.00000739
     atom   11 type  1   force =    -0.00109923   -0.00063474    0.00015955
     atom   12 type  1   force =     0.00000014    0.00126962    0.00015954

     Total force =     0.002216     Total SCF correction =     0.000621
     SCF correction compared to forces is large: reduce conv_thr to get better values

     entering subroutine stress ...

     negative rho (up, down):  5.590E-01 0.000E+00
          total   stress  (Ry/bohr**3)                   (kbar)     P=   -9.13
  -0.00005925  -0.00000000  -0.00000000         -8.72     -0.00     -0.00
  -0.00000000  -0.00005926   0.00000000         -0.00     -8.72      0.00
  -0.00000000   0.00000000  -0.00006769         -0.00      0.00     -9.96

     bfgs converged in  17 scf cycles and  16 bfgs steps
     (criteria: energy <  1.0E+00, force <  1.9E-03)

     End of BFGS Geometry Optimization

     Final energy   =   -2200.9467423831 Ry
Begin final coordinates

ATOMIC_POSITIONS (crystal)
Bi1      0.000000000   0.000000000   0.391938300    0   0   0
Rh1      0.000000000   0.500000000   0.391938300    0   0   0
Bi1      0.500000000   0.000000000   0.391938300    0   0   0
Bi1      0.500000000   0.500000000   0.391938300    0   0   0
Bi1      0.666666667   0.666666667   0.500000000    0   0   0
Rh1      0.666666667   0.166666667   0.500000000    0   0   0
Bi1      0.166666667   0.666666667   0.500000000    0   0   0
Bi1      0.166666667   0.166666667   0.500000000    0   0   0
Bi1      0.356596349   0.321701680   0.602310145
Rh1      0.333334656   0.833332051   0.577749062
Bi1      0.821701511   0.321702162   0.602310143
Bi1      0.821701821   0.856595546   0.602310197
End final coordinates

     Writing output data file calc.save

     General routines

     Parallel routines

   This run was terminated on:  17:58:21  23Feb2018

   JOB DONE.