     Program PWSCF v.5.1rc2 starts on 26Feb2018 at 11:47:13

     Current dimensions of program PWSCF are:
     Max number of different atomic species (ntypx) = 10
     Max number of k-points (npk) =  40000
     Max angular momentum in pseudopotentials (lmaxx) =  3
     Presently stress not available with electric field

     IMPORTANT: XC functional enforced from input :
     Exchange-correlation      = BEEF-VDW ( 1  4 27 13 2)
     Any further DFT definition will be discarded
     Please, verify this is what you really want

     bravais-lattice index     =            0
     lattice parameter (alat)  =       1.8897  a.u.
     unit-cell volume          =    7152.1599 (a.u.)^3
     number of atoms/cell      =           12
     number of atomic types    =            2
     number of electrons       =       171.00
     number of Kohn-Sham states=           95
     kinetic-energy cutoff     =      36.7493  Ry
     charge density cutoff     =     367.4932  Ry
     convergence threshold     =      1.0E-05
     mixing beta               =       0.3000
     number of iterations used =           10  plain     mixing
     Exchange-correlation      = BEEF-VDW ( 1  4 27 13 2)
     nstep                     =           50

     celldm(1)=   1.889726  celldm(2)=   0.000000  celldm(3)=   0.000000
     celldm(4)=   0.000000  celldm(5)=   0.000000  celldm(6)=   0.000000

     crystal axes: (cart. coord. in units of alat)
               a(1) = (   6.908582   0.000000   0.000000 )
               a(2) = (   3.454291   5.983008   0.000000 )
               a(3) = (   0.000000   0.000000  25.640834 )

     reciprocal axes: (cart. coord. in units 2 pi/alat)
               b(1) = (  0.144748 -0.083570  0.000000 )
               b(2) = (  0.000000  0.167140  0.000000 )
               b(3) = (  0.000000  0.000000  0.039000 )

     PseudoPot. # 1 for Bi read from file:
     /home/users/mamunm/src/pseudo/gbrv1.5pbe/Bi.UPF
     MD5 check sum: 81103212dc04adf40945787f699eab19
     Pseudo is Ultrasoft + core correction, Zval = 15.0
     Generated by new atomic code, or converted to UPF format
     Using radial grid of  899 points,  6 beta functions with:
                l(1) =   0
                l(2) =   0
                l(3) =   1
                l(4) =   1
                l(5) =   2
                l(6) =   2
     Q(r) pseudized with  6 coefficients,  rinner =    1.000   1.000   1.000
                                                       1.000   1.000

     PseudoPot. # 2 for Zr read from file:
     /home/users/mamunm/src/pseudo/gbrv1.5pbe/Zr.UPF
     MD5 check sum: 5db81b1e868ab7776c4564c113de050b
     Pseudo is Ultrasoft + core correction, Zval = 12.0
     Generated by new atomic code, or converted to UPF format
     Using radial grid of  887 points,  6 beta functions with:
                l(1) =   0
                l(2) =   0
                l(3) =   1
                l(4) =   1
                l(5) =   2
                l(6) =   2
     Q(r) pseudized with  6 coefficients,  rinner =    1.200   1.200   1.200
                                                       1.200   1.200

     vdW kernel table read from file vdW_kernel_table
     MD5 check sum: 095c7af220d748ca6e76c0b4c6cfb241

     atomic species   valence    mass     pseudopotential
        Bi1           15.00   208.98040     Bi( 1.00)
        Zr1           12.00    91.22400     Zr( 1.00)

     No symmetry found

   Cartesian axes

     site n.     atom                  positions (alat units)
         1           Bi1 tau(   1) = (   0.0000000   0.0000000  10.0000000  )
         2           Zr1 tau(   2) = (   1.7271455   2.9915038  10.0000000  )
         3           Bi1 tau(   3) = (   3.4542910   0.0000000  10.0000000  )
         4           Bi1 tau(   4) = (   5.1814365   2.9915038  10.0000000  )
         5           Bi1 tau(   5) = (   6.9085821   3.9886717  12.8204168  )
         6           Zr1 tau(   6) = (   5.1814365   0.9971679  12.8204168  )
         7           Bi1 tau(   7) = (   3.4542910   3.9886717  12.8204168  )
         8           Bi1 tau(   8) = (   1.7271455   0.9971679  12.8204168  )
         9           Bi1 tau(   9) = (   3.4542910   1.9943359  15.6408336  )
        10           Zr1 tau(  10) = (   5.1814365   4.9858396  15.6408336  )
        11           Bi1 tau(  11) = (   6.9085821   1.9943359  15.6408336  )
        12           Bi1 tau(  12) = (   8.6357276   4.9858396  15.6408336  )

     number of k points=    20  Fermi-Dirac smearing, width (Ry)=  0.0110
                       cart. coord. in units 2pi/alat
        k(    1) = (   0.0000000   0.0000000   0.0000000), wk =   0.0555556
        k(    2) = (   0.0000000   0.0278567   0.0000000), wk =   0.1111111
        k(    3) = (   0.0000000   0.0557133   0.0000000), wk =   0.1111111
        k(    4) = (   0.0000000  -0.0835700   0.0000000), wk =   0.0555556
        k(    5) = (   0.0241246  -0.0139283   0.0000000), wk =   0.1111111
        k(    6) = (   0.0241246   0.0139283   0.0000000), wk =   0.1111111
        k(    7) = (   0.0241246   0.0417850   0.0000000), wk =   0.1111111
        k(    8) = (   0.0241246  -0.0974983   0.0000000), wk =   0.1111111
        k(    9) = (   0.0241246  -0.0696417   0.0000000), wk =   0.1111111
        k(   10) = (   0.0241246  -0.0417850   0.0000000), wk =   0.1111111
        k(   11) = (   0.0482492  -0.0278567   0.0000000), wk =   0.1111111
        k(   12) = (   0.0482492  -0.0000000   0.0000000), wk =   0.1111111
        k(   13) = (   0.0482492   0.0278567   0.0000000), wk =   0.1111111
        k(   14) = (   0.0482492  -0.1114267   0.0000000), wk =   0.1111111
        k(   15) = (   0.0482492  -0.0835700   0.0000000), wk =   0.1111111
        k(   16) = (   0.0482492  -0.0557133   0.0000000), wk =   0.1111111
        k(   17) = (  -0.0723738   0.0417850   0.0000000), wk =   0.0555556
        k(   18) = (  -0.0723738   0.0696417   0.0000000), wk =   0.1111111
        k(   19) = (  -0.0723738   0.0974983   0.0000000), wk =   0.1111111
        k(   20) = (  -0.0723738  -0.0417850   0.0000000), wk =   0.0555556

     Largest allocated arrays     est. size (Mb)     dimensions
     Largest temporary arrays     est. size (Mb)     dimensions

     Initial potential from superposition of free atoms
     Check: negative starting charge=   -0.559080

     starting charge  161.99318, renormalised to  171.00000

     negative rho (up, down):  5.902E-01 0.000E+00

     *
     * You are using vdW-DF for exchange-correlation in this calculation.
     * Please cite the following three references that made this development
     * possible:
     *
     *   M. Dion, H. Rydberg, E. Schroder, D. C. Langreth, and
     *   B. I. Lundqvist, Phys. Rev. Lett. 92, 246401 (2004).
     *
     *   T. Thonhauser, V. R. Cooper, S. Li, A. Puzder, P. Hyldgaard, and
     *   D. C. Langreth, Phys. Rev. B 76, 125112 (2007).
     *
     *   G. Roman-Perez and J. M. Soler, Phys. Rev. Lett. 103, 096102 (2009).
     *
     *
     * If you are using vdW-DF2, please also cite:
     *
     *   K. Lee, E. D. Murray, L. Kong, B. I. Lundqvist, and
     *   D. C. Langreth, Phys. Rev. B 82, 081101(R) (2010).
     *
     *
     * If you are calculating the stress with vdW-DF, please also cite:
     *
     *   R. Sabatini, E. Kucukbenli, B. Kolb, T. Thonhauser, and
     *   S. de Gironcoli, J. Phys.: Condens. Matter 24, 424209 (2012).
     *

     Carrying out vdW-DF run using the following parameters:

     Nqs =      20    Nr_points =    1024   r_max =   100.000
     q_mesh =
               0.00001000     0.04494208     0.09755937     0.15916263
               0.23128650     0.31572767     0.41458969     0.53033537
               0.66584808     0.82450364     1.01025438     1.22772762
               1.48234092     1.78043706     2.12944203     2.53805004
               3.01644009     3.57652955     4.23227104     5.00000000

     Gradients computed in reciprocal space

     Adding external electric field

     Computed dipole along edir(3) :
        Dipole               -0.0000 Ry au,         -0.0000 Debye
        Dipole field         -0.0000 Ry au

        Potential amp.        0.0000 Ry
        Total length         47.2428 bohr

     Starting wfc are  120 randomized atomic wfcs

     Self-consistent Calculation

     iteration #  1     ecut=    36.75 Ry     beta=0.30
     Davidson diagonalization with overlap
     ethr =  1.00E-02,  avg # of iterations =  2.5

[...]

     total energy              =   -1983.41315480 Ry
     Harris-Foulkes estimate   =   -1985.63107193 Ry
     estimated scf accuracy    <       5.04472741 Ry

[...]

     End of self-consistent calculation

          k = 0.0000 0.0000 0.0000 ( 27033 PWs)   bands (ev):

   -49.2088 -49.2083 -48.8969 -27.1978 -27.1964 -27.0935 -27.0935 -27.0929
   -27.0929 -26.8617 -26.8617 -26.7455 -22.2376 -22.2162 -22.2162 -22.2021
   -22.1583 -22.1583 -22.1093 -22.1089 -22.1086 -22.1086 -22.0749 -22.0749
   -22.0557 -22.0557 -21.9982 -21.9171 -21.9161 -21.8796 -21.8796 -21.8738
   -21.8738 -21.8510 -21.8451 -21.8052 -21.8052 -21.8016 -21.8016 -21.7692
   -21.7689 -21.7650 -21.7650 -21.7595 -21.7595 -21.7430 -21.7392 -21.7392
   -21.7352 -21.7352 -21.7332 -21.7300 -21.7300 -21.7261 -21.7261 -21.6837
   -21.6832 -11.5730 -10.5582  -9.7487  -9.2869  -9.2869  -8.6162  -8.6162
    -8.2509  -8.2509  -3.7379  -2.9621  -2.8562  -2.5830  -2.5830  -2.2441
    -1.8575  -1.8575  -1.4505  -1.4505  -0.8669   0.3587   0.3587   0.3864
     0.3864   1.0774   1.5556   1.5556   1.5902   1.6713   1.7565   1.7565
     1.7723   1.8075   1.8075   1.9114   2.1203   2.1203   2.2816

[...]

          k =-0.0724 0.0418 0.0000 ( 26878 PWs)   bands (ev):

[...]

     the Fermi energy is     1.3625 ev

!    total energy              =   -1983.61608787 Ry
     Harris-Foulkes estimate   =   -1983.61608774 Ry
     estimated scf accuracy    <       0.00000192 Ry

     The total energy is the sum of the following terms:

     one-electron contribution =   -9826.36676739 Ry
     hartree contribution      =    4950.57347970 Ry
     xc contribution           =    -654.09066192 Ry
     ewald contribution        =    3546.34553195 Ry
     electric field correction =       0.00000003 Ry
     smearing contrib. (-TS)   =      -0.07767024 Ry

     convergence has been achieved in  14 iterations

 BEEF-vdW xc energy contributions
           1 :   -581.385902339801
           2 :    539.263975012482
           3 :   -465.280599505921
           4 :    375.990284771192
           5 :   -288.453651759557
           6 :    215.105761136099
           7 :   -161.073026949457
           8 :    124.518327355077
           9 :   -99.3566246263890
          10 :    78.8452556849413
          11 :   -58.4765588173185
          12 :    37.1841674081934
          13 :   -16.7707304869624
          14 :   0.202001187529163
          15 :    10.2592676055300
          16 :   -14.2486380087125
          17 :    13.4249015206374
          18 :   -10.6395144263948
          19 :    8.64532489483759
          20 :   -8.97540060656343
          21 :    11.4794071532624
          22 :   -14.6726192069555
          23 :    16.6697493598233
          24 :   -16.2229606718693
          25 :    13.3592505574479
          26 :   -9.33040571301626
          27 :    5.93194100457868
          28 :   -4.56183689518025
          29 :    5.51480487252093
          30 :   -7.87937689062096
          31 :   -48.0004466322259
          32 :   -35.3669148840490

     Forces acting on atoms (Ry/au):

     negative rho (up, down):  5.793E-01 0.000E+00
     atom    1 type  1   force =    -0.01909073    0.01102379   -0.00801175
     atom    2 type  2   force =     0.00000043   -0.00000039    0.05406731
     atom    3 type  1   force =     0.01909010    0.01102177   -0.00800780
     atom    4 type  1   force =     0.00000110   -0.02204343   -0.00800545
     atom    5 type  1   force =     0.00012975   -0.00007702   -0.00023301
     atom    6 type  2   force =    -0.00000107   -0.00000138    0.00025555
     atom    7 type  1   force =    -0.00012874   -0.00007526   -0.00022981
     atom    8 type  1   force =    -0.00000331    0.00014955   -0.00023105
     atom    9 type  1   force =     0.01911738   -0.01103232    0.00803146
     atom   10 type  2   force =     0.00000075   -0.00000109   -0.05369620
     atom   11 type  1   force =    -0.01911795   -0.01103576    0.00802969
     atom   12 type  1   force =     0.00000228    0.02207154    0.00803106

     Total force =     0.067368     Total SCF correction =     0.000887

     entering subroutine stress ...

     negative rho (up, down):  5.793E-01 0.000E+00
          total   stress  (Ry/bohr**3)                   (kbar)     P=  -10.15
  -0.00007735   0.00000000  -0.00000000        -11.38      0.00     -0.00
   0.00000000  -0.00007735  -0.00000000          0.00    -11.38     -0.00
  -0.00000000  -0.00000000  -0.00005236         -0.00     -0.00     -7.70

     BFGS Geometry Optimization

     number of scf cycles    =   1
     number of bfgs steps    =   0

     energy   new            =   -1983.6160878717 Ry

     new trust radius        =       0.0536961992 bohr
     new conv_thr            =       0.0000099958 Ry

ATOMIC_POSITIONS (crystal)
Bi1      0.000000000   0.000000000   0.390002920    0   0   0
Zr1     -0.000000000   0.500000000   0.390002920    0   0   0
Bi1      0.500000000   0.000000000   0.390002920    0   0   0
Bi1      0.500000000   0.500000000   0.390002920    0   0   0
Bi1      0.666666667   0.666666667   0.500000000    0   0   0
Zr1      0.666666667   0.166666667   0.500000000    0   0   0
Bi1      0.166666667   0.666666667   0.500000000    0   0   0
Bi1      0.166666667   0.166666667   0.500000000    0   0   0
Bi1      0.335285555   0.332357561   0.610162833
Zr1      0.333333438   0.833333237   0.608888894
Bi1      0.832356993   0.332357257   0.610162797
Bi1      0.832357431   0.835285488   0.610162825

     Writing output data file calc.save
     Check: negative starting charge=   -0.559080
     NEW-OLD atomic charge density approx. for the potential
     Check: negative starting charge=   -0.559812

[...]

     energy   old            =   -1983.6160878717 Ry
     energy   new            =   -1983.6205476103 Ry

     CASE: energy  _new < energy  _old

     WARNING: bfgs curvature condition failed, Theta= 0.818
     new trust radius        =       0.0805442989 bohr
     new conv_thr            =       0.0000001000 Ry

[...]

     iteration #  1     ecut=    36.75 Ry     beta=0.30
     Davidson diagonalization with overlap
     c_bands:  1 eigenvalues not converged
     c_bands:  1 eigenvalues not converged
     c_bands:  1 eigenvalues not converged
     ethr =  1.00E-06,  avg # of iterations = 13.7

[...]

     WARNING: bfgs curvature condition failed, Theta= 0.955
     new trust radius        =       0.0219519279 bohr
     new conv_thr            =       0.0000001000 Ry

[...]

     Total force =     0.008910     Total SCF correction =     0.000441

[...]

     number of scf cycles    =  11
     number of bfgs steps    =  10

     energy   old            =   -1983.6641243145 Ry
     energy   new            =   -1983.6648033778 Ry

     CASE: energy  _new < energy  _old

     new trust radius        =       0.0388797816 bohr
     new conv_thr            =       0.0000001000 Ry

ATOMIC_POSITIONS (crystal)
Bi1      0.000000000   0.000000000   0.390002920    0   0   0
Zr1     -0.000000000   0.500000000   0.390002920    0   0   0
Bi1      0.500000000   0.000000000   0.390002920    0   0   0
Bi1      0.500000000   0.500000000   0.390002920    0   0   0
Bi1      0.666666667   0.666666667   0.500000000    0   0   0
Zr1      0.666666667   0.166666667   0.500000000    0   0   0
Bi1      0.166666667   0.666666667   0.500000000    0   0   0
Bi1      0.166666667   0.166666667   0.500000000    0   0   0
Bi1      0.350307762   0.324848648   0.612209997
Zr1      0.333334645   0.833331858   0.587597599
Bi1      0.824845101   0.324846954   0.612209704
Bi1      0.824846739   0.850308308   0.612209880

     Writing output data file calc.save
     Check: negative starting charge=   -0.557592
     NEW-OLD atomic charge density approx. for the potential
     Check: negative starting charge=   -0.557523

[...]

     Self-consistent Calculation

[...]

     total energy              =   -1983.66510768 Ry
     Harris-Foulkes estimate   =   -1983.66510741 Ry
     estimated scf accuracy    <       0.00000018 Ry

     iteration # 10     ecut=    36.75 Ry     beta=0.30
     Davidson diagonalization with overlap
     ethr =  1.04E-10,  avg # of iterations =  5.1

[...]

     negative rho (up, down):  5.796E-01 0.000E+00

     Adding external electric field

     Computed dipole along edir(3) :
        Dipole               -0.0050 Ry au,         -0.0128 Debye
        Dipole field         -0.0000 Ry au

        Potential amp.        0.0008 Ry
        Total length         47.2428 bohr

     End of self-consistent calculation

[...]

          k = 0.0482-0.0557 0.0000 ( 26891 PWs)   bands (ev):

[...]

          k =-0.0724-0.0418 0.0000 ( 26878 PWs)   bands (ev):

   -49.3404 -48.9643 -48.9051 -27.3439 -27.2093 -27.2082 -26.9646 -26.9169
   -26.9163 -26.8746 -26.8730 -26.7537 -22.2358 -22.2057 -22.1905 -22.1765
   -22.1751 -22.1726 -22.1575 -22.1498 -22.1102 -22.1026 -22.0992 -22.0912
   -22.0802 -22.0741 -22.0386 -21.9721 -21.9377 -21.9148 -21.9124 -21.8968
   -21.8738 -21.8629 -21.8579 -21.8543 -21.8538 -21.8491 -21.8343 -21.8342
   -21.8326 -21.8290 -21.8261 -21.8207 -21.8173 -21.8150 -21.8103 -21.8074
   -21.7990 -21.7803 -21.7770 -21.7755 -21.7738 -21.7730 -21.7654 -21.7592
   -21.7365 -10.9091 -10.6149 -10.0418  -9.5128  -9.4422  -9.3665  -8.9422
    -8.6415  -8.2444  -3.4861  -2.9943  -2.4955  -1.7794  -1.5718  -1.4560
    -1.3905  -1.3219  -1.2926  -0.7516  -0.6911  -0.4588  -0.2049  -0.0681
     0.2482   0.3133   0.3815   0.5145   0.6387   0.8336   1.5450   1.6460
     1.7456   1.8022   1.8793   1.9281   1.9808   2.1192   2.4604

     the Fermi energy is     1.3422 ev

!    total energy              =   -1983.66510769 Ry
     Harris-Foulkes estimate   =   -1983.66510771 Ry
     estimated scf accuracy    <       0.00000008 Ry

     The total energy is the sum of the following terms:

     one-electron contribution =   -9924.64135787 Ry
     hartree contribution      =    4999.53311964 Ry
     xc contribution           =    -654.23339049 Ry
     ewald contribution        =    3595.74306482 Ry
     electric field correction =       0.00000004 Ry
     smearing contrib. (-TS)   =      -0.06654384 Ry

     convergence has been achieved in  10 iterations

 BEEF-vdW xc energy contributions
           1 :   -581.528650476873
           2 :    539.448872921453
           3 :   -465.520659436546
           4 :    376.247918102342
           5 :   -288.652430675271
           6 :    215.175927143068
           7 :   -160.996906584813
           8 :    124.342773156357
           9 :   -99.1671705437318
          10 :    78.7222249098274
          11 :   -58.4605905824587
          12 :    37.2660395348209
          13 :   -16.9038795515276
          14 :   0.327377527647059
          15 :    10.1875496715359
          16 :   -14.2462806323292
          17 :    13.4753188628878
          18 :   -10.7074722625633
          19 :    8.69736774674141
          20 :   -8.99328431205151
          21 :    11.4600178918733
          22 :   -14.6211558393866
          23 :    16.5978501575000
          24 :   -16.1541548179024
          25 :    13.3302478685231
          26 :   -9.37553830481306
          27 :    6.05480490474770
          28 :   -4.71760465853345
          29 :    5.62587497409038
          30 :   -7.88140263040896
          31 :   -48.0121697734126
          32 :   -35.3874251211023

     Forces acting on atoms (Ry/au):

     negative rho (up, down):  5.796E-01 0.000E+00
     atom    1 type  1   force =    -0.01799994    0.01039204   -0.00726886
     atom    2 type  2   force =    -0.00000007   -0.00000011    0.05662862
     atom    3 type  1   force =     0.01799973    0.01039211   -0.00726889
     atom    4 type  1   force =    -0.00000005   -0.02078420   -0.00726914
     atom    5 type  1   force =     0.01552563   -0.00896357   -0.01435882
     atom    6 type  2   force =    -0.00000004    0.00000019    0.01156737
     atom    7 type  1   force =    -0.01552516   -0.00896339   -0.01435810
     atom    8 type  1   force =     0.00000013    0.01792688   -0.01435744
     atom    9 type  1   force =    -0.00019896    0.00011401   -0.00115212
     atom   10 type  2   force =    -0.00000021    0.00000009    0.00014113
     atom   11 type  1   force =     0.00019929    0.00011485   -0.00115156
     atom   12 type  1   force =    -0.00000035   -0.00022888   -0.00115220

     Total force =     0.002039     Total SCF correction =     0.000704
     SCF correction compared to forces is large: reduce conv_thr to get better values

     entering subroutine stress ...

     negative rho (up, down):  5.796E-01 0.000E+00
          total   stress  (Ry/bohr**3)                   (kbar)     P=   -8.33
  -0.00006505  -0.00000000  -0.00000000         -9.57     -0.00     -0.00
  -0.00000000  -0.00006505   0.00000000         -0.00     -9.57      0.00
  -0.00000000   0.00000000  -0.00003984         -0.00      0.00     -5.86

     bfgs converged in  12 scf cycles and  11 bfgs steps
     (criteria: energy <  1.0E+00, force <  1.9E-03)

     End of BFGS Geometry Optimization

     Final energy   =   -1983.6651076919 Ry
Begin final coordinates

ATOMIC_POSITIONS (crystal)
Bi1      0.000000000   0.000000000   0.390002920    0   0   0
Zr1     -0.000000000   0.500000000   0.390002920    0   0   0
Bi1      0.500000000   0.000000000   0.390002920    0   0   0
Bi1      0.500000000   0.500000000   0.390002920    0   0   0
Bi1      0.666666667   0.666666667   0.500000000    0   0   0
Zr1      0.666666667   0.166666667   0.500000000    0   0   0
Bi1      0.166666667   0.666666667   0.500000000    0   0   0
Bi1      0.166666667   0.166666667   0.500000000    0   0   0
Bi1      0.350307762   0.324848648   0.612209997
Zr1      0.333334645   0.833331858   0.587597599
Bi1      0.824845101   0.324846954   0.612209704
Bi1      0.824846739   0.850308308   0.612209880
End final coordinates

     Writing output data file calc.save

     General routines

     Parallel routines

   This run was terminated on:  12:41:48  26Feb2018

   JOB DONE.