     Program PWSCF v.5.1rc2 (svn rev. ) starts on 23Feb2018 at 16:46:14

     Current dimensions of program PWSCF are:
     Max number of different atomic species (ntypx) = 10
     Max number of k-points (npk) =  40000
     Max angular momentum in pseudopotentials (lmaxx) =  3
     Presently stress not available with electric field

     IMPORTANT: XC functional enforced from input :
     Exchange-correlation      = BEEF-VDW ( 1  4 27 13 2)
     Any further DFT definition will be discarded
     Please, verify this is what you really want

     Subspace diagonalization in iterative solution of the eigenvalue problem:
     a serial algorithm will be used

     bravais-lattice index     =            0
     lattice parameter (alat)  =       1.8897  a.u.
     unit-cell volume          =    7403.8847 (a.u.)^3
     number of atoms/cell      =           12
     number of atomic types    =            2
     number of electrons       =       144.00
     number of Kohn-Sham states=           82
     kinetic-energy cutoff     =      36.7493  Ry
     charge density cutoff     =     367.4932  Ry
     convergence threshold     =      1.0E-05
     mixing beta               =       0.3000
     number of iterations used =           10  plain     mixing
     Exchange-correlation      = BEEF-VDW ( 1  4 27 13 2)
     nstep                     =           50

     celldm(1)=   1.889726  celldm(2)=   0.000000  celldm(3)=   0.000000
     celldm(4)=   0.000000  celldm(5)=   0.000000  celldm(6)=   0.000000

     crystal axes: (cart. coord. in units of alat)
               a(1) = (   7.017004   0.000000   0.000000 )
               a(2) = (   3.508502   6.076904   0.000000 )
               a(3) = (   0.000000   0.000000  25.729360 )

     reciprocal axes: (cart. coord. in units 2 pi/alat)
               b(1) = (  0.142511 -0.082279  0.000000 )
               b(2) = (  0.000000  0.164557  0.000000 )
               b(3) = (  0.000000  0.000000  0.038866 )

     PseudoPot. # 1 for Bi read from file:
     /home/mamunm/src/pseudo/gbrv1.5pbe/Bi.UPF
     MD5 check sum: 81103212dc04adf40945787f699eab19
     Pseudo is Ultrasoft + core correction, Zval = 15.0
     Generated by new atomic code, or converted to UPF format
     Using radial grid of  899 points,  6 beta functions with:
                l(1) =   0
                l(2) =   0
                l(3) =   1
                l(4) =   1
                l(5) =   2
                l(6) =   2
     Q(r) pseudized with  6 coefficients,  rinner =    1.000   1.000   1.000
                                                       1.000   1.000

     PseudoPot. # 2 for Al read from file:
     /home/mamunm/src/pseudo/gbrv1.5pbe/Al.UPF
     MD5 check sum: 0a6289f5291fc8f409219462bc851e1f
     Pseudo is Ultrasoft + core correction, Zval =  3.0
     Generated by new atomic code, or converted to UPF format
     Using radial grid of  893 points,  3 beta functions with:
                l(1) =   0
                l(2) =   1
                l(3) =   2
     Q(r) pseudized with  8 coefficients,  rinner =    0.900   0.900   0.900
                                                       0.900   0.900

     vdW kernel table read from file vdW_kernel_table
     MD5 check sum: 095c7af220d748ca6e76c0b4c6cfb241

     atomic species   valence    mass     pseudopotential
        Bi1           15.00   208.98040     Bi( 1.00)
        Al1            3.00    26.98154     Al( 1.00)

     No symmetry found

   Cartesian axes

     site n.     atom                  positions (alat units)
         1           Bi1 tau(   1) = (   0.0000000   0.0000000  10.0000000  )
         2           Al1 tau(   2) = (   1.7542510   3.0384518  10.0000000  )
         3           Bi1 tau(   3) = (   3.5085020   0.0000000  10.0000000  )
         4           Bi1 tau(   4) = (   5.2627529   3.0384518  10.0000000  )
         5           Bi1 tau(   5) = (   7.0170039   4.0512691  12.8646799  )
         6           Al1 tau(   6) = (   5.2627529   1.0128173  12.8646799  )
         7           Bi1 tau(   7) = (   3.5085020   4.0512691  12.8646799  )
         8           Bi1 tau(   8) = (   1.7542510   1.0128173  12.8646799  )
         9           Bi1 tau(   9) = (   3.5085020   2.0256345  15.7293597  )
        10           Al1 tau(  10) = (   5.2627529   5.0640864  15.7293597  )
        11           Bi1 tau(  11) = (   7.0170039   2.0256345  15.7293597  )
        12           Bi1 tau(  12) = (   8.7712549   5.0640864  15.7293597  )

     number of k points=    20  Fermi-Dirac smearing, width (Ry)=  0.0110
                       cart. coord. in units 2pi/alat
        k(    1) = (   0.0000000   0.0000000   0.0000000), wk =   0.0555556
        k(    2) = (   0.0000000   0.0274262   0.0000000), wk =   0.1111111
        k(    3) = (   0.0000000   0.0548525   0.0000000), wk =   0.1111111
        k(    4) = (   0.0000000  -0.0822787   0.0000000), wk =   0.0555556
        k(    5) = (   0.0237518  -0.0137131   0.0000000), wk =   0.1111111
        k(    6) = (   0.0237518   0.0137131   0.0000000), wk =   0.1111111
        k(    7) = (   0.0237518   0.0411394   0.0000000), wk =   0.1111111
        k(    8) = (   0.0237518  -0.0959919   0.0000000), wk =   0.1111111
        k(    9) = (   0.0237518  -0.0685656   0.0000000), wk =   0.1111111
        k(   10) = (   0.0237518  -0.0411394   0.0000000), wk =   0.1111111
        k(   11) = (   0.0475037  -0.0274262   0.0000000), wk =   0.1111111
        k(   12) = (   0.0475037  -0.0000000   0.0000000), wk =   0.1111111
        k(   13) = (   0.0475037   0.0274262   0.0000000), wk =   0.1111111
        k(   14) = (   0.0475037  -0.1097050   0.0000000), wk =   0.1111111
        k(   15) = (   0.0475037  -0.0822787   0.0000000), wk =   0.1111111
        k(   16) = (   0.0475037  -0.0548525   0.0000000), wk =   0.1111111
        k(   17) = (  -0.0712555   0.0411394   0.0000000), wk =   0.0555556
        k(   18) = (  -0.0712555   0.0685656   0.0000000), wk =   0.1111111
        k(   19) = (  -0.0712555   0.0959919   0.0000000), wk =   0.1111111
        k(   20) = (  -0.0712555  -0.0411394   0.0000000), wk =   0.0555556

     Largest allocated arrays     est. size (Mb)     dimensions
     Largest temporary arrays     est. size (Mb)     dimensions

     Initial potential from superposition of free atoms
     Check: negative starting charge=   -0.378702

     starting charge  134.99223, renormalised to  144.00000

     negative rho (up, down):  4.040E-01 0.000E+00

     *
     * You are using vdW-DF for exchange-correlation in this calculation.
     * Please cite the following three references that made this development
     * possible:
     *
     *   M. Dion, H. Rydberg, E. Schroder, D. C. Langreth, and
     *   B. I. Lundqvist, Phys. Rev. Lett. 92, 246401 (2004).
     *
     *   T. Thonhauser, V. R. Cooper, S. Li, A. Puzder, P. Hyldgaard, and
     *   D. C. Langreth, Phys. Rev. B 76, 125112 (2007).
     *
     *   G. Roman-Perez and J. M. Soler, Phys. Rev. Lett. 103, 096102 (2009).
     *
     *
     * If you are using vdW-DF2, please also cite:
     *
     *   K. Lee, E. D. Murray, L. Kong, B. I. Lundqvist, and
     *   D. C. Langreth, Phys. Rev. B 82, 081101(R) (2010).
     *
     *
     * If you are calculating the stress with vdW-DF, please also cite:
     *
     *   R. Sabatini, E. Kucukbenli, B. Kolb, T. Thonhauser, and
     *   S. de Gironcoli, J. Phys.: Condens. Matter 24, 424209 (2012).
     *

     Carrying out vdW-DF run using the following parameters:

     Nqs =      20    Nr_points =    1024   r_max =   100.000
     q_mesh =
               0.00001000     0.04494208     0.09755937     0.15916263
               0.23128650     0.31572767     0.41458969     0.53033537
               0.66584808     0.82450364     1.01025438     1.22772762
               1.48234092     1.78043706     2.12944203     2.53805004
               3.01644009     3.57652955     4.23227104     5.00000000

     Gradients computed in reciprocal space

     Adding external electric field

     Computed dipole along edir(3) :
        Dipole               -0.0000 Ry au,         -0.0000 Debye
        Dipole field         -0.0000 Ry au

        Potential amp.        0.0000 Ry
        Total length         47.4059 bohr

     Starting wfc are   93 randomized atomic wfcs

     Self-consistent Calculation

     iteration #  1     ecut=    36.75 Ry     beta=0.30
     Davidson diagonalization with overlap
     ethr =  1.00E-02,  avg # of iterations =  3.5

[...]

     total energy              =   -1704.37844750 Ry
     Harris-Foulkes estimate   =   -1707.54232293 Ry
     estimated scf accuracy    <       6.84350447 Ry

[...]

     End of self-consistent calculation

          k = 0.0000 0.0000 0.0000 ( 27819 PWs)   bands (ev):

   -23.2072 -23.2002 -23.2002 -23.1713 -23.1407 -23.1407 -23.1171 -23.1154
   -23.1154 -23.1133 -23.0780 -23.0780 -23.0698 -23.0698 -23.0316 -22.9655
   -22.9644 -22.9484 -22.9483 -22.9444 -22.9443 -22.9057 -22.8997 -22.8750
   -22.8750 -22.8741 -22.8720 -22.8677 -22.8677 -22.8567 -22.8567 -22.8550
   -22.8550 -22.8456 -22.8456 -22.8440 -22.8420 -22.8420 -22.8342 -22.8223
   -22.8223 -22.8164 -22.8164 -22.7975 -22.7974 -12.2751 -11.3709 -10.5804
   -10.1162 -10.1162  -9.5731  -9.5731  -9.2285  -9.2285  -4.7046  -4.4217
    -4.0004  -3.5852  -3.5852  -3.4082  -3.2019  -2.8674  -2.8674  -2.5192
    -2.5192  -2.4946  -2.2260  -0.5773   0.2991   0.2991   0.3621   0.3621
     1.1935   1.5191   1.8466   2.1324   2.1325   2.3945   2.3945   2.4274
     2.6289   3.0868

[...]

          k =-0.0713 0.0411 0.0000 ( 27918 PWs)   bands (ev):

[...]

     the Fermi energy is     0.3806 ev

!    total energy              =   -1704.85379141 Ry
     Harris-Foulkes estimate   =   -1704.85915074 Ry
     estimated scf accuracy    <       0.00000016 Ry

     The total energy is the sum of the following terms:

     one-electron contribution =   -6919.63744000 Ry
     hartree contribution      =    3498.11640274 Ry
     xc contribution           =    -611.62589243 Ry
     ewald contribution        =    2328.33334346 Ry
     electric field correction =       0.00000000 Ry
     smearing contrib. (-TS)   =      -0.04020518 Ry

     convergence has been achieved in  12 iterations

 BEEF-vdW xc energy contributions
           1 :   -544.302166425627
           2 :    504.872691427959
           3 :   -435.688586080211
           4 :    352.281191328880
           5 :   -270.572465292055
           6 :    202.124408052796
           7 :   -151.704341204261
           8 :    117.621358556531
           9 :   -94.2062355007520
          10 :    75.1036267796014
          11 :   -55.9954717495870
          12 :    35.8434948714806
          13 :   -16.4664943898755
          14 :   0.919627803629396
          15 :    8.45278797801348
          16 :   -11.3813022577802
          17 :    9.85593411971593
          18 :   -7.12094195985708
          19 :    6.06114440658632
          20 :   -7.86844544795588
          21 :    11.6914568977962
          22 :   -15.3947396310466
          23 :    16.9201022980648
          24 :   -15.4510458871902
          25 :    11.7710726862382
          26 :   -7.72252433400479
          27 :    5.16357250188685
          28 :   -5.02528040864911
          29 :    6.92838390960128
          30 :   -9.48413554585170
          31 :   -44.1062358759508
          32 :   -32.3451339771875

     Forces acting on atoms (Ry/au):

     negative rho (up, down):  3.958E-01 0.000E+00
     atom    1 type  1   force =    -0.00102879    0.00060403    0.00635910
     atom    2 type  2   force =     0.00000062    0.00000176    0.01074022
     atom    3 type  1   force =     0.00103263    0.00059355    0.00635948
     atom    4 type  1   force =     0.00000897   -0.00118693    0.00636295
     atom    5 type  1   force =     0.00002190   -0.00004624    0.00002805
     atom    6 type  2   force =     0.00000201    0.00000098    0.00001665
     atom    7 type  1   force =    -0.00002049   -0.00000988    0.00000938
     atom    8 type  1   force =    -0.00003309    0.00003906    0.00002915
     atom    9 type  1   force =     0.00099688   -0.00057386   -0.00639138
     atom   10 type  2   force =     0.00000367    0.00000032   -0.01071256
     atom   11 type  1   force =    -0.00098423   -0.00056634   -0.00640450
     atom   12 type  1   force =    -0.00000008    0.00114356   -0.00639655

     Total force =     0.015539     Total SCF correction =     0.000382

     entering subroutine stress ...

     negative rho (up, down):  3.958E-01 0.000E+00
          total   stress  (Ry/bohr**3)                   (kbar)     P=   -9.77
  -0.00007079  -0.00000000   0.00000000        -10.41     -0.00      0.00
  -0.00000000  -0.00007079  -0.00000000         -0.00    -10.41     -0.00
   0.00000000  -0.00000000  -0.00005774          0.00     -0.00     -8.49

     BFGS Geometry Optimization

     number of scf cycles    =   1
     number of bfgs steps    =   0

     energy   new            =   -1704.8537914080 Ry

     new trust radius        =       0.0107125593 bohr
     new conv_thr            =       0.0000099958 Ry

ATOMIC_POSITIONS (crystal)
Bi1      0.000000000   0.000000000   0.388661052    0   0   0
Al1     -0.000000000   0.500000000   0.388661052    0   0   0
Bi1      0.500000000   0.000000000   0.388661052    0   0   0
Bi1      0.500000000   0.500000000   0.388661052    0   0   0
Bi1      0.666666667   0.666666667   0.500000000    0   0   0
Al1      0.666666667   0.166666667   0.500000000    0   0   0
Bi1      0.166666667   0.666666667   0.500000000    0   0   0
Bi1      0.166666667   0.166666667   0.500000000    0   0   0
Bi1      0.333433498   0.333283362   0.611207496
Al1      0.333333596   0.833333361   0.611118623
Bi1      0.833283767   0.333284016   0.611207227
Bi1      0.833283537   0.833432914   0.611207390

     Writing output data file calc.save
     Check: negative starting charge=   -0.378702
     NEW-OLD atomic charge density approx. for the potential
     Check: negative starting charge=   -0.378646

[...]

     Total force =     0.015262     Total SCF correction =     0.002755
     SCF correction compared to forces is large: reduce conv_thr to get better values

[...]

     energy   old            =   -1704.8537914080 Ry
     energy   new            =   -1704.8593923711 Ry

     CASE: energy  _new < energy  _old

     WARNING: bfgs curvature condition failed, Theta= 0.816
     new trust radius        =       0.0160688389 bohr
     new conv_thr            =       0.0000001000 Ry

[...]

     Total force =     0.004319     Total SCF correction =     0.000090

[...]

     number of scf cycles    =  12
     number of bfgs steps    =  11

     energy   old            =   -1704.8660381100 Ry
     energy   new            =   -1704.8661161097 Ry

     CASE: energy  _new < energy  _old

     new trust radius        =       0.0529325011 bohr
     new conv_thr            =       0.0000001000 Ry

ATOMIC_POSITIONS (crystal)
Bi1      0.000000000   0.000000000   0.388661052    0   0   0
Al1     -0.000000000   0.500000000   0.388661052    0   0   0
Bi1      0.500000000  -0.000000000   0.388661052    0   0   0
Bi1      0.500000000   0.500000000   0.388661052    0   0   0
Bi1      0.666666667   0.666666667   0.500000000    0   0   0
Al1      0.666666667   0.166666667   0.500000000    0   0   0
Bi1      0.166666667   0.666666667   0.500000000    0   0   0
Bi1      0.166666667   0.166666667   0.500000000    0   0   0
Bi1      0.341975075   0.329016584   0.604979079
Al1      0.333337208   0.833335055   0.597748021
Bi1      0.829110212   0.328980621   0.604991558
Bi1      0.829109806   0.841912334   0.604988185

     Writing output data file calc.save
     Check: negative starting charge=   -0.378114
     NEW-OLD atomic charge density approx. for the potential
     Check: negative starting charge=   -0.378454

[...]

     Self-consistent Calculation

[...]

     total energy              =   -1704.86624931 Ry
     Harris-Foulkes estimate   =   -1704.86624922 Ry
     estimated scf accuracy    <       0.00000068 Ry

     iteration #  7     ecut=    36.75 Ry     beta=0.30
     Davidson diagonalization with overlap
     ethr =  4.70E-10,  avg # of iterations =  2.9

[...]

     negative rho (up, down):  3.960E-01 0.000E+00

     Adding external electric field

     Computed dipole along edir(3) :
        Dipole                0.0032 Ry au,          0.0082 Debye
        Dipole field          0.0000 Ry au

        Potential amp.       -0.0005 Ry
        Total length         47.4059 bohr

     End of self-consistent calculation

[...]

          k = 0.0475-0.0549 0.0000 ( 27831 PWs)   bands (ev):

[...]

          k =-0.0713-0.0411 0.0000 ( 27918 PWs)   bands (ev):

   -23.2325 -23.1980 -23.1834 -23.1821 -23.1797 -23.1695 -23.1672 -23.1575
   -23.1391 -23.1319 -23.1300 -23.1252 -23.1205 -23.1043 -23.0847 -22.9776
   -22.9481 -22.9421 -22.9228 -22.9170 -22.9083 -22.9043 -22.8954 -22.8899
   -22.8893 -22.8876 -22.8863 -22.8834 -22.8809 -22.8808 -22.8784 -22.8760
   -22.8749 -22.8699 -22.8690 -22.8639 -22.8581 -22.8574 -22.8551 -22.8516
   -22.8512 -22.8486 -22.8409 -22.8337 -22.8110 -11.7968 -11.5267 -10.8265
   -10.4162 -10.4149 -10.1432  -9.7884  -9.6289  -9.1611  -5.2123  -4.6409
    -4.2586  -2.8107  -2.4321  -2.3663  -2.2887  -2.2277  -2.1863  -1.6136
    -1.5893  -1.2278  -0.8668  -0.8140  -0.5264  -0.1520  -0.0829   0.0947
     0.1383   0.5121   0.6348   0.7419   1.1397   1.6611   1.7361   1.7888
     1.8374   2.2197

     the Fermi energy is     0.3799 ev

!    total energy              =   -1704.86624932 Ry
     Harris-Foulkes estimate   =   -1704.86624940 Ry
     estimated scf accuracy    <       0.00000006 Ry

     The total energy is the sum of the following terms:

     one-electron contribution =   -7085.19243060 Ry
     hartree contribution      =    3580.82230469 Ry
     xc contribution           =    -611.79727634 Ry
     ewald contribution        =    2411.34102171 Ry
     electric field correction =       0.00000002 Ry
     smearing contrib. (-TS)   =      -0.03986880 Ry

     convergence has been achieved in   7 iterations

 BEEF-vdW xc energy contributions
           1 :   -544.629477624850
           2 :    505.278526922565
           3 :   -436.203829201651
           4 :    352.866519954547
           5 :   -271.133954081067
           6 :    202.561936492142
           7 :   -151.965986071696
           8 :    117.732304087675
           9 :   -94.2559954617448
          10 :    75.1991545774900
          11 :   -56.2046973216243
          12 :    36.1585947098642
          13 :   -16.8066365086670
          14 :    1.17320941378898
          15 :    8.36667694184416
          16 :   -11.4640922928616
          17 :    10.0211949774547
          18 :   -7.23367152648575
          19 :    6.00569290135229
          20 :   -7.60843857549230
          21 :    11.2881759258548
          22 :   -14.9739080495306
          23 :    16.6063506037500
          24 :   -15.3053264190328
          25 :    11.7631873812140
          26 :   -7.75166636943061
          27 :    5.11449295525460
          28 :   -4.82994594706145
          29 :    6.60174676274050
          30 :   -9.11668041065263
          31 :   -44.1300268203254
          32 :   -32.3911417547436

     Forces acting on atoms (Ry/au):

     negative rho (up, down):  3.960E-01 0.000E+00
     atom    1 type  1   force =    -0.00121737    0.00070308    0.00567144
     atom    2 type  2   force =    -0.00000317    0.00000186    0.00936875
     atom    3 type  1   force =     0.00122284    0.00070275    0.00566822
     atom    4 type  1   force =     0.00000269   -0.00141105    0.00566717
     atom    5 type  1   force =     0.00028848   -0.00016872   -0.00935707
     atom    6 type  2   force =     0.00000190   -0.00000001   -0.00314422
     atom    7 type  1   force =    -0.00028785   -0.00016036   -0.00936526
     atom    8 type  1   force =    -0.00000774    0.00033049   -0.00936432
     atom    9 type  1   force =     0.00064132   -0.00036977    0.00155733
     atom   10 type  2   force =     0.00000205   -0.00000102    0.00019495
     atom   11 type  1   force =    -0.00064755   -0.00037956    0.00154804
     atom   12 type  1   force =     0.00000439    0.00075231    0.00155496

     Total force =     0.002992     Total SCF correction =     0.000740
     SCF correction compared to forces is large: reduce conv_thr to get better values

     entering subroutine stress ...

     negative rho (up, down):  3.960E-01 0.000E+00
          total   stress  (Ry/bohr**3)                   (kbar)     P=   -5.86
  -0.00004644  -0.00000000  -0.00000001         -6.83     -0.00     -0.00
  -0.00000000  -0.00004644   0.00000000         -0.00     -6.83      0.00
  -0.00000001   0.00000000  -0.00002673         -0.00      0.00     -3.93

     bfgs converged in  13 scf cycles and  12 bfgs steps
     (criteria: energy <  1.0E+00, force <  1.9E-03)

     End of BFGS Geometry Optimization

     Final energy   =   -1704.8662493248 Ry
Begin final coordinates

ATOMIC_POSITIONS (crystal)
Bi1      0.000000000   0.000000000   0.388661052    0   0   0
Al1     -0.000000000   0.500000000   0.388661052    0   0   0
Bi1      0.500000000  -0.000000000   0.388661052    0   0   0
Bi1      0.500000000   0.500000000   0.388661052    0   0   0
Bi1      0.666666667   0.666666667   0.500000000    0   0   0
Al1      0.666666667   0.166666667   0.500000000    0   0   0
Bi1      0.166666667   0.666666667   0.500000000    0   0   0
Bi1      0.166666667   0.166666667   0.500000000    0   0   0
Bi1      0.341975075   0.329016584   0.604979079
Al1      0.333337208   0.833335055   0.597748021
Bi1      0.829110212   0.328980621   0.604991558
Bi1      0.829109806   0.841912334   0.604988185
End final coordinates

     Writing output data file calc.save

     General routines

     Parallel routines

   This run was terminated on:  17:33:53  23Feb2018

   JOB DONE.