     Program PWSCF v.5.1rc2 (svn rev. ) starts on 23Feb2018 at 17:10:44

     Current dimensions of program PWSCF are:
     Max number of different atomic species (ntypx) = 10
     Max number of k-points (npk) =  40000
     Max angular momentum in pseudopotentials (lmaxx) =  3
     Presently stress not available with electric field

     IMPORTANT: XC functional enforced from input :
     Exchange-correlation      = BEEF-VDW ( 1  4 27 13 2)
     Any further DFT definition will be discarded
     Please, verify this is what you really want

     Subspace diagonalization in iterative solution of the eigenvalue problem:
     a serial algorithm will be used

     bravais-lattice index     =            0
     lattice parameter (alat)  =       1.8897  a.u.
     unit-cell volume          =    5209.4267 (a.u.)^3
     number of atoms/cell      =           12
     number of atomic types    =            2
     number of electrons       =       153.00
     number of Kohn-Sham states=           86
     kinetic-energy cutoff     =      36.7493  Ry
     charge density cutoff     =     367.4932  Ry
     convergence threshold     =      1.0E-05
     mixing beta               =       0.3000
     number of iterations used =           10  plain     mixing
     Exchange-correlation      = BEEF-VDW ( 1  4 27 13 2)
     nstep                     =           50

     celldm(1)=   1.889726  celldm(2)=   0.000000  celldm(3)=   0.000000
     celldm(4)=   0.000000  celldm(5)=   0.000000  celldm(6)=   0.000000

     crystal axes: (cart. coord. in units of alat)
               a(1) = (   5.984790   0.000000   0.000000 )
               a(2) = (   2.992395   5.182980   0.000000 )
               a(3) = (   0.000000   0.000000  24.886561 )

     reciprocal axes: (cart. coord. in units 2 pi/alat)
               b(1) = (  0.167090 -0.096470  0.000000 )
               b(2) = (  0.000000  0.192939  0.000000 )
               b(3) = (  0.000000  0.000000  0.040182 )

     PseudoPot. # 1 for Ti read from file:
     /home/mamunm/src/pseudo/gbrv1.5pbe/Ti.UPF
     MD5 check sum: 88a00a6731bd790ddea75d31a80cb452
     Pseudo is Ultrasoft + core correction, Zval = 12.0
     Generated by new atomic code, or converted to UPF format
     Using radial grid of  851 points,  6 beta functions with:
                l(1) =   0
                l(2) =   0
                l(3) =   1
                l(4) =   1
                l(5) =   2
                l(6) =   2
     Q(r) pseudized with  6 coefficients,  rinner =    1.000   1.000   1.000
                                                       1.000   1.000

     PseudoPot. # 2 for Bi read from file:
     /home/mamunm/src/pseudo/gbrv1.5pbe/Bi.UPF
     MD5 check sum: 81103212dc04adf40945787f699eab19
     Pseudo is Ultrasoft + core correction, Zval = 15.0
     Generated by new atomic code, or converted to UPF format
     Using radial grid of  899 points,  6 beta functions with:
                l(1) =   0
                l(2) =   0
                l(3) =   1
                l(4) =   1
                l(5) =   2
                l(6) =   2
     Q(r) pseudized with  6 coefficients,  rinner =    1.000   1.000   1.000
                                                       1.000   1.000

     vdW kernel table read from file vdW_kernel_table
     MD5 check sum: 095c7af220d748ca6e76c0b4c6cfb241

     atomic species   valence    mass     pseudopotential
        Ti1           12.00    47.86700     Ti( 1.00)
        Bi1           15.00   208.98040     Bi( 1.00)

     No symmetry found

   Cartesian axes

     site n.     atom                  positions (alat units)
         1           Ti1 tau(   1) = (   0.0000000   0.0000000  10.0000000  )
         2           Bi1 tau(   2) = (   1.4961975   2.5914901  10.0000000  )
         3           Ti1 tau(   3) = (   2.9923950   0.0000000  10.0000000  )
         4           Ti1 tau(   4) = (   4.4885925   2.5914901  10.0000000  )
         5           Ti1 tau(   5) = (   5.9847899   3.4553201  12.4432803  )
         6           Bi1 tau(   6) = (   4.4885925   0.8638300  12.4432803  )
         7           Ti1 tau(   7) = (   2.9923950   3.4553201  12.4432803  )
         8           Ti1 tau(   8) = (   1.4961975   0.8638300  12.4432803  )
         9           Ti1 tau(   9) = (   2.9923950   1.7276600  14.8865605  )
        10           Bi1 tau(  10) = (   4.4885925   4.3191501  14.8865605  )
        11           Ti1 tau(  11) = (   5.9847899   1.7276600  14.8865605  )
        12           Ti1 tau(  12) = (   7.4809874   4.3191501  14.8865605  )

     number of k points=    20  Fermi-Dirac smearing, width (Ry)=  0.0110
                       cart. coord. in units 2pi/alat
        k(    1) = (   0.0000000   0.0000000   0.0000000), wk =   0.0555556
        k(    2) = (   0.0000000   0.0321565   0.0000000), wk =   0.1111111
        k(    3) = (   0.0000000   0.0643131   0.0000000), wk =   0.1111111
        k(    4) = (   0.0000000  -0.0964696   0.0000000), wk =   0.0555556
        k(    5) = (   0.0278484  -0.0160783   0.0000000), wk =   0.1111111
        k(    6) = (   0.0278484   0.0160783   0.0000000), wk =   0.1111111
        k(    7) = (   0.0278484   0.0482348   0.0000000), wk =   0.1111111
        k(    8) = (   0.0278484  -0.1125479   0.0000000), wk =   0.1111111
        k(    9) = (   0.0278484  -0.0803913   0.0000000), wk =   0.1111111
        k(   10) = (   0.0278484  -0.0482348   0.0000000), wk =   0.1111111
        k(   11) = (   0.0556967  -0.0321565   0.0000000), wk =   0.1111111
        k(   12) = (   0.0556967   0.0000000   0.0000000), wk =   0.1111111
        k(   13) = (   0.0556967   0.0321565   0.0000000), wk =   0.1111111
        k(   14) = (   0.0556967  -0.1286261   0.0000000), wk =   0.1111111
        k(   15) = (   0.0556967  -0.0964696   0.0000000), wk =   0.1111111
        k(   16) = (   0.0556967  -0.0643131   0.0000000), wk =   0.1111111
        k(   17) = (  -0.0835451   0.0482348   0.0000000), wk =   0.0555556
        k(   18) = (  -0.0835451   0.0803913   0.0000000), wk =   0.1111111
        k(   19) = (  -0.0835451   0.1125479   0.0000000), wk =   0.1111111
        k(   20) = (  -0.0835451  -0.0482348   0.0000000), wk =   0.0555556

     Largest allocated arrays     est. size (Mb)     dimensions
     Largest temporary arrays     est. size (Mb)     dimensions

     Check: negative/imaginary core charge=   -0.000005    0.000000

     Initial potential from superposition of free atoms
     Check: negative starting charge=   -0.133766

     starting charge  140.99948, renormalised to  153.00000

     negative rho (up, down):  1.452E-01 0.000E+00

     *
     * You are using vdW-DF for exchange-correlation in this calculation.
     * Please cite the following three references that made this development
     * possible:
     *
     *   M. Dion, H. Rydberg, E. Schroder, D. C. Langreth, and
     *   B. I. Lundqvist, Phys. Rev. Lett. 92, 246401 (2004).
     *
     *   T. Thonhauser, V. R. Cooper, S. Li, A. Puzder, P. Hyldgaard, and
     *   D. C. Langreth, Phys. Rev. B 76, 125112 (2007).
     *
     *   G. Roman-Perez and J. M. Soler, Phys. Rev. Lett. 103, 096102 (2009).
     *
     *
     * If you are using vdW-DF2, please also cite:
     *
     *   K. Lee, E. D. Murray, L. Kong, B. I. Lundqvist, and
     *   D. C. Langreth, Phys. Rev. B 82, 081101(R) (2010).
     *
     *
     * If you are calculating the stress with vdW-DF, please also cite:
     *
     *   R. Sabatini, E. Kucukbenli, B. Kolb, T. Thonhauser, and
     *   S. de Gironcoli, J. Phys.: Condens. Matter 24, 424209 (2012).
     *

     Carrying out vdW-DF run using the following parameters:

     Nqs =      20    Nr_points =    1024   r_max =   100.000
     q_mesh =
               0.00001000     0.04494208     0.09755937     0.15916263
               0.23128650     0.31572767     0.41458969     0.53033537
               0.66584808     0.82450364     1.01025438     1.22772762
               1.48234092     1.78043706     2.12944203     2.53805004
               3.01644009     3.57652955     4.23227104     5.00000000

     Gradients computed in reciprocal space

     Adding external electric field

     Computed dipole along edir(3) :
        Dipole               -0.0000 Ry au,         -0.0000 Debye
        Dipole field         -0.0000 Ry au

        Potential amp.        0.0000 Ry
        Total length         45.8531 bohr

     Starting wfc are  117 randomized atomic wfcs

     Self-consistent Calculation

     iteration #  1     ecut=    36.75 Ry     beta=0.30
     Davidson diagonalization with overlap
     ethr =  1.00E-02,  avg # of iterations =  4.3

[...]

     total energy              =   -1640.01589133 Ry
     Harris-Foulkes estimate   =   -1643.44254664 Ry
     estimated scf accuracy    <       7.76022259 Ry

[...]

     End of self-consistent calculation

          k = 0.0000 0.0000 0.0000 ( 19531 PWs)   bands (ev):

   -55.7366 -55.7348 -55.6941 -55.6935 -55.6931 -55.6924 -55.5036 -55.4632
   -55.4614 -32.1325 -32.1161 -32.0855 -32.0853 -32.0642 -32.0642 -32.0598
   -32.0596 -32.0321 -32.0320 -31.9821 -31.9506 -31.9272 -31.9042 -31.8957
   -31.8649 -31.8640 -31.7251 -31.7240 -31.7103 -31.6537 -31.6531 -31.6474
   -31.6468 -31.5988 -31.4449 -31.4433 -21.8723 -21.8681 -21.8681 -21.8527
   -21.8526 -21.5537 -21.5499 -21.5368 -21.5367 -21.5339 -21.5339 -21.5274
   -21.5274 -21.5252 -21.5252 -10.5348  -9.7316  -9.5621  -2.5375  -2.0616
    -2.0023  -2.0021  -1.5710  -1.5709  -1.2962  -0.8801  -0.4461  -0.4461
    -0.0199  -0.0196   0.0310   0.2602   0.3884   0.3888   0.7415   0.7417
     0.7656   0.9096   0.9099   1.0291   1.4769   1.4771   1.6833   1.7053
     1.7057   1.9033   2.1178   2.2232   2.3617   2.8390

[...]

          k =-0.0835 0.0482 0.0000 ( 19620 PWs)   bands (ev):

[...]

     the Fermi energy is     1.4636 ev

!    total energy              =   -1640.48604422 Ry
     Harris-Foulkes estimate   =   -1640.48605099 Ry
     estimated scf accuracy    <       0.00000881 Ry

     The total energy is the sum of the following terms:

     one-electron contribution =  -11149.05284639 Ry
     hartree contribution      =    5579.55002331 Ry
     xc contribution           =    -368.82129766 Ry
     ewald contribution        =    4297.95783339 Ry
     electric field correction =       0.00000084 Ry
     smearing contrib. (-TS)   =      -0.11975771 Ry

     convergence has been achieved in  19 iterations

 BEEF-vdW xc energy contributions
           1 :   -323.339487293828
           2 :    295.574963180258
           3 :   -248.468348643495
           4 :    194.710078643021
           5 :   -145.708488339023
           6 :    107.666950318283
           7 :   -80.9415747750400
           8 :    62.1441387352695
           9 :   -47.1711728486792
          10 :    33.3630710568293
          11 :   -20.0472685652534
          12 :    7.81009786925830
          13 :    2.57181877222223
          14 :   -10.7667083207193
          15 :    16.8603998257470
          16 :   -20.9994423664644
          17 :    23.1847878664329
          18 :   -23.4289991135922
          19 :    22.0602797500965
          20 :   -19.8049428634037
          21 :    17.4871492581663
          22 :   -15.5624972027588
          23 :    13.8661880462138
          24 :   -11.7974578306697
          25 :    8.81431701314239
          26 :   -4.88879961169090
          27 :   0.604736449362974
          28 :    3.15649598503200
          29 :   -5.72017761636943
          30 :    6.97116520459548
          31 :   -29.5683126772764
          32 :   -21.4590803464752

     Forces acting on atoms (Ry/au):

     negative rho (up, down):  1.442E-01 0.000E+00
     atom    1 type  1   force =     0.00892518   -0.00513270    0.02282092
     atom    2 type  2   force =    -0.00000227   -0.00030863   -0.04700862
     atom    3 type  1   force =    -0.00897030   -0.00514643    0.02288383
     atom    4 type  1   force =    -0.00000865    0.01030620    0.02280605
     atom    5 type  1   force =     0.00000995   -0.00002428   -0.00032325
     atom    6 type  2   force =     0.00029238   -0.00009320    0.00234385
     atom    7 type  1   force =    -0.00005331    0.00001662   -0.00033442
     atom    8 type  1   force =    -0.00006535    0.00002727   -0.00035251
     atom    9 type  1   force =    -0.00895157    0.00514469   -0.02379617
     atom   10 type  2   force =    -0.00006995    0.00033961    0.04850494
     atom   11 type  1   force =     0.00890910    0.00513464   -0.02380510
     atom   12 type  1   force =    -0.00001520   -0.01026379   -0.02373951

     Total force =     0.066084     Total SCF correction =     0.001422

     entering subroutine stress ...

     negative rho (up, down):  1.442E-01 0.000E+00
          total   stress  (Ry/bohr**3)                   (kbar)     P=  -12.14
  -0.00009818   0.00000005  -0.00000003        -14.44      0.01     -0.00
   0.00000005  -0.00009833  -0.00000007          0.01    -14.46     -0.01
  -0.00000003  -0.00000007  -0.00005113         -0.00     -0.01     -7.52

     BFGS Geometry Optimization

     number of scf cycles    =   1
     number of bfgs steps    =   0

     energy   new            =   -1640.4860442228 Ry

     new trust radius        =       0.0485061800 bohr
     new conv_thr            =       0.0000099958 Ry

ATOMIC_POSITIONS (crystal)
Ti1      0.000000000   0.000000000   0.401823305    0   0   0
Bi1     -0.000000000   0.500000000   0.401823305    0   0   0
Ti1      0.500000000   0.000000000   0.401823305    0   0   0
Ti1      0.500000000   0.500000000   0.401823305    0   0   0
Ti1      0.666666667   0.666666667   0.500000000    0   0   0
Bi1      0.666666667   0.166666667   0.500000000    0   0   0
Ti1      0.166666667   0.666666667   0.500000000    0   0   0
Ti1      0.166666667   0.166666667   0.500000000    0   0   0
Ti1      0.332279198   0.333858601   0.597670703
Bi1      0.333309812   0.833368007   0.599208083
Ti1      0.833858958   0.333857576   0.597670513
Ti1      0.833855951   0.832285410   0.597671908

     Writing output data file calc.save
     Check: negative starting charge=   -0.133766
     NEW-OLD atomic charge density approx. for the potential

     Check: negative/imaginary core charge=   -0.000005    0.000000
     Check: negative starting charge=   -0.134413

[...]

     energy   old            =   -1640.4860442228 Ry
     energy   new            =   -1640.4984141325 Ry

     CASE: energy  _new < energy  _old

     WARNING: bfgs curvature condition failed, Theta= 0.860
     new trust radius        =       0.0533567980 bohr
     new conv_thr            =       0.0000001000 Ry

[...]

     iteration #  5     ecut=    36.75 Ry     beta=0.30
     Davidson diagonalization with overlap
     c_bands:  1 eigenvalues not converged
     ethr =  2.08E-06,  avg # of iterations =  7.6

[...]

     Total force =     0.015715     Total SCF correction =     0.000690

[...]

     number of scf cycles    =   6
     number of bfgs steps    =   5

     energy   old            =   -1640.5154762091 Ry
     energy   new            =   -1640.5221125161 Ry

     CASE: energy  _new < energy  _old

     new trust radius        =       0.1410382218 bohr
     new conv_thr            =       0.0000001000 Ry

ATOMIC_POSITIONS (crystal)
Ti1      0.000000000   0.000000000   0.401823305    0   0   0
Bi1      0.000000000   0.500000000   0.401823305    0   0   0
Ti1      0.500000000   0.000000000   0.401823305    0   0   0
Ti1      0.500000000   0.500000000   0.401823305    0   0   0
Ti1      0.666666667   0.666666667   0.500000000    0   0   0
Bi1      0.666666667   0.166666667   0.500000000    0   0   0
Ti1      0.166666667   0.666666667   0.500000000    0   0   0
Ti1      0.166666667   0.166666667   0.500000000    0   0   0
Ti1      0.319227260   0.340401198   0.591150790
Bi1      0.333282657   0.833376439   0.611425326
Ti1      0.840345078   0.340405076   0.591150820
Ti1      0.840355482   0.819257807   0.591153592

     Writing output data file calc.save
     Check: negative starting charge=   -0.134703
     NEW-OLD atomic charge density approx. for the potential

     Check: negative/imaginary core charge=   -0.000005    0.000000
     Check: negative starting charge=   -0.134858

[...]

     Self-consistent Calculation

     iteration #  1     ecut=    36.75 Ry     beta=0.30
     Davidson diagonalization with overlap
     c_bands:  1 eigenvalues not converged
     ethr =  1.00E-06,  avg # of iterations = 13.8

[...]

     total energy              =   -1640.52362693 Ry
     Harris-Foulkes estimate   =   -1640.52362700 Ry
     estimated scf accuracy    <       0.00000047 Ry

     iteration # 20     ecut=    36.75 Ry     beta=0.30
     Davidson diagonalization with overlap
     ethr =  3.07E-10,  avg # of iterations =  4.1

[...]

     negative rho (up, down):  1.436E-01 0.000E+00

     Adding external electric field

     Computed dipole along edir(3) :
        Dipole               -0.0210 Ry au,         -0.0535 Debye
        Dipole field         -0.0001 Ry au

        Potential amp.        0.0047 Ry
        Total length         45.8531 bohr

     End of self-consistent calculation

[...]

          k = 0.0557-0.0643 0.0000 ( 19617 PWs)   bands (ev):

[...]

          k =-0.0835-0.0482 0.0000 ( 19620 PWs)   bands (ev):

   -55.7674 -55.7537 -55.7393 -55.6455 -55.6172 -55.6061 -55.4559 -55.4432
   -55.4298 -32.1481 -32.1300 -32.1084 -32.0995 -32.0392 -32.0368 -32.0146
   -32.0110 -31.9914 -31.9854 -31.9451 -31.9066 -31.8695 -31.8688 -31.8428
   -31.8182 -31.7652 -31.7524 -31.7509 -31.7354 -31.7051 -31.6808 -31.6673
   -31.5945 -31.5037 -31.4736 -31.4186 -21.9271 -21.9224 -21.9197 -21.9070
   -21.9052 -21.5844 -21.5671 -21.5661 -21.5594 -21.5556 -21.5493 -21.5185
   -21.5179 -21.4990 -21.4953 -10.2103  -9.6310  -9.3632  -3.7248  -3.0746
    -2.8603  -2.6421  -1.6252  -1.4708  -1.3180  -1.1487  -0.9942  -0.3976
    -0.0980   0.5557   0.7031   0.7401   0.8207   0.9169   0.9758   0.9930
     1.0947   1.1434   1.1691   1.1910   1.3977   1.4727   1.6888   1.7548
     1.7666   1.9472   1.9977   2.0344   2.3548   2.5065

     the Fermi energy is     1.4277 ev

!    total energy              =   -1640.52362694 Ry
     Harris-Foulkes estimate   =   -1640.52362688 Ry
     estimated scf accuracy    <       0.00000006 Ry

     The total energy is the sum of the following terms:

     one-electron contribution =  -11181.37207839 Ry
     hartree contribution      =    5595.77076940 Ry
     xc contribution           =    -368.88495397 Ry
     ewald contribution        =    4314.07277839 Ry
     electric field correction =       0.00000107 Ry
     smearing contrib. (-TS)   =      -0.11014344 Ry

     convergence has been achieved in  20 iterations

 BEEF-vdW xc energy contributions
           1 :   -323.637236319960
           2 :    295.878692994376
           3 :   -248.766598980110
           4 :    194.977357926903
           5 :   -145.931981092404
           6 :    107.870466198261
           7 :   -81.1770678214874
           8 :    62.4541062600812
           9 :   -47.5523538450138
          10 :    33.7589350454794
          11 :   -20.3747296097177
          12 :    8.00740871853748
          13 :    2.50166481015367
          14 :   -10.7462539811106
          15 :    16.7780415922326
          16 :   -20.7814058266067
          17 :    22.8483659726177
          18 :   -23.0733537280565
          19 :    21.7982095802039
          20 :   -19.6842348755644
          21 :    17.4587249326306
          22 :   -15.5168665677348
          23 :    13.7099664483002
          24 :   -11.5159755388480
          25 :    8.47828897655342
          26 :   -4.60145656176235
          27 :   0.427724066077303
          28 :    3.24449702670643
          29 :   -5.80251247124363
          30 :    7.12903333862289
          31 :   -29.5869636291532
          32 :   -21.4759735142972

     Forces acting on atoms (Ry/au):

     negative rho (up, down):  1.436E-01 0.000E+00
     atom    1 type  1   force =     0.00798984   -0.00461435    0.02082709
     atom    2 type  2   force =    -0.00003315    0.00001414   -0.05105669
     atom    3 type  1   force =    -0.00799538   -0.00461884    0.02083561
     atom    4 type  1   force =     0.00000078    0.00922671    0.02082338
     atom    5 type  1   force =    -0.00920462    0.00531007    0.00464790
     atom    6 type  2   force =     0.00003389    0.00001333   -0.02614119
     atom    7 type  1   force =     0.00919190    0.00530992    0.00464630
     atom    8 type  1   force =    -0.00000648   -0.01061233    0.00464595
     atom    9 type  1   force =     0.00109467   -0.00063971    0.00032334
     atom   10 type  2   force =     0.00004434   -0.00003751   -0.00019375
     atom   11 type  1   force =    -0.00110265   -0.00062838    0.00032417
     atom   12 type  1   force =    -0.00001315    0.00127695    0.00031789

     Total force =     0.002280     Total SCF correction =     0.000561
     SCF correction compared to forces is large: reduce conv_thr to get better values

     entering subroutine stress ...

     negative rho (up, down):  1.436E-01 0.000E+00
          total   stress  (Ry/bohr**3)                   (kbar)     P=   -9.94
  -0.00009332   0.00000002   0.00000001        -13.73      0.00      0.00
   0.00000002  -0.00009330  -0.00000001          0.00    -13.73     -0.00
   0.00000001  -0.00000001  -0.00001601          0.00     -0.00     -2.36

     bfgs converged in   7 scf cycles and   6 bfgs steps
     (criteria: energy <  1.0E+00, force <  1.9E-03)

     End of BFGS Geometry Optimization

     Final energy   =   -1640.5236269433 Ry
Begin final coordinates

ATOMIC_POSITIONS (crystal)
Ti1      0.000000000   0.000000000   0.401823305    0   0   0
Bi1      0.000000000   0.500000000   0.401823305    0   0   0
Ti1      0.500000000   0.000000000   0.401823305    0   0   0
Ti1      0.500000000   0.500000000   0.401823305    0   0   0
Ti1      0.666666667   0.666666667   0.500000000    0   0   0
Bi1      0.666666667   0.166666667   0.500000000    0   0   0
Ti1      0.166666667   0.666666667   0.500000000    0   0   0
Ti1      0.166666667   0.166666667   0.500000000    0   0   0
Ti1      0.319227260   0.340401198   0.591150790
Bi1      0.333282657   0.833376439   0.611425326
Ti1      0.840345078   0.340405076   0.591150820
Ti1      0.840355482   0.819257807   0.591153592
End final coordinates

     Writing output data file calc.save

     General routines

     Parallel routines

   This run was terminated on:  17:53: 2  23Feb2018

   JOB DONE.