     Program PWSCF v.5.1rc2 (svn rev. ) starts on 23Feb2018 at 17:10:45

     Current dimensions of program PWSCF are:
     Max number of different atomic species (ntypx) = 10
     Max number of k-points (npk) =  40000
     Max angular momentum in pseudopotentials (lmaxx) =  3
     Presently stress not available with electric field

     IMPORTANT: XC functional enforced from input :
     Exchange-correlation      = BEEF-VDW ( 1  4 27 13 2)
     Any further DFT definition will be discarded
     Please, verify this is what you really want

     Subspace diagonalization in iterative solution of the eigenvalue problem:
     a serial algorithm will be used

     bravais-lattice index     =            0
     lattice parameter (alat)  =       1.8897  a.u.
     unit-cell volume          =    7073.4662 (a.u.)^3
     number of atoms/cell      =           12
     number of atomic types    =            2
     number of electrons       =       183.00
     number of Kohn-Sham states=          101
     kinetic-energy cutoff     =      36.7493  Ry
     charge density cutoff     =     367.4932  Ry
     convergence threshold     =      1.0E-05
     mixing beta               =       0.3000
     number of iterations used =           10  plain     mixing
     Exchange-correlation      = BEEF-VDW ( 1  4 27 13 2)
     nstep                     =           50

     celldm(1)=   1.889726  celldm(2)=   0.000000  celldm(3)=   0.000000
     celldm(4)=   0.000000  celldm(5)=   0.000000  celldm(6)=   0.000000

     crystal axes: (cart. coord. in units of alat)
               a(1) = (   6.874231   0.000000   0.000000 )
               a(2) = (   3.437115   5.953259   0.000000 )
               a(3) = (   0.000000   0.000000  25.612786 )

     reciprocal axes: (cart. coord. in units 2 pi/alat)
               b(1) = (  0.145471 -0.083988  0.000000 )
               b(2) = (  0.000000  0.167975  0.000000 )
               b(3) = (  0.000000  0.000000  0.039043 )

     PseudoPot. # 1 for Bi read from file:
     /home/mamunm/src/pseudo/gbrv1.5pbe/Bi.UPF
     MD5 check sum: 81103212dc04adf40945787f699eab19
     Pseudo is Ultrasoft + core correction, Zval = 15.0
     Generated by new atomic code, or converted to UPF format
     Using radial grid of  899 points,  6 beta functions with:
                l(1) =   0
                l(2) =   0
                l(3) =   1
                l(4) =   1
                l(5) =   2
                l(6) =   2
     Q(r) pseudized with  6 coefficients,  rinner =    1.000   1.000   1.000
                                                       1.000   1.000

     PseudoPot. # 2 for Pd read from file:
     /home/mamunm/src/pseudo/gbrv1.5pbe/Pd.UPF
     MD5 check sum: 2d733d2bc2cbfd217af676df1668a4bc
     Pseudo is Ultrasoft + core correction, Zval = 16.0
     Generated by new atomic code, or converted to UPF format
     Using radial grid of  887 points,  6 beta functions with:
                l(1) =   0
                l(2) =   0
                l(3) =   1
                l(4) =   1
                l(5) =   2
                l(6) =   2
     Q(r) pseudized with  8 coefficients,  rinner =    1.130   1.130   1.130
                                                       1.130   1.130

     vdW kernel table read from file vdW_kernel_table
     MD5 check sum: 095c7af220d748ca6e76c0b4c6cfb241

     atomic species   valence    mass     pseudopotential
        Bi1           15.00   208.98040     Bi( 1.00)
        Pd1           16.00   106.42000     Pd( 1.00)

     No symmetry found

   Cartesian axes

     site n.     atom                  positions (alat units)
         1           Bi1 tau(   1) = (   0.0000000   0.0000000  10.0000000  )
         2           Pd1 tau(   2) = (   1.7185577   2.9766293  10.0000000  )
         3           Bi1 tau(   3) = (   3.4371154   0.0000000  10.0000000  )
         4           Bi1 tau(   4) = (   5.1556732   2.9766293  10.0000000  )
         5           Bi1 tau(   5) = (   6.8742309   3.9688391  12.8063930  )
         6           Pd1 tau(   6) = (   5.1556732   0.9922098  12.8063930  )
         7           Bi1 tau(   7) = (   3.4371154   3.9688391  12.8063930  )
         8           Bi1 tau(   8) = (   1.7185577   0.9922098  12.8063930  )
         9           Bi1 tau(   9) = (   3.4371154   1.9844195  15.6127860  )
        10           Pd1 tau(  10) = (   5.1556732   4.9610488  15.6127860  )
        11           Bi1 tau(  11) = (   6.8742309   1.9844195  15.6127860  )
        12           Bi1 tau(  12) = (   8.5927886   4.9610488  15.6127860  )

     number of k points=    20  Fermi-Dirac smearing, width (Ry)=  0.0110
                       cart. coord. in units 2pi/alat
        k(    1) = (   0.0000000   0.0000000   0.0000000), wk =   0.0555556
        k(    2) = (   0.0000000   0.0279959   0.0000000), wk =   0.1111111
        k(    3) = (   0.0000000   0.0559917   0.0000000), wk =   0.1111111
        k(    4) = (   0.0000000  -0.0839876   0.0000000), wk =   0.0555556
        k(    5) = (   0.0242451  -0.0139979   0.0000000), wk =   0.1111111
        k(    6) = (   0.0242451   0.0139979   0.0000000), wk =   0.1111111
        k(    7) = (   0.0242451   0.0419938   0.0000000), wk =   0.1111111
        k(    8) = (   0.0242451  -0.0979856   0.0000000), wk =   0.1111111
        k(    9) = (   0.0242451  -0.0699897   0.0000000), wk =   0.1111111
        k(   10) = (   0.0242451  -0.0419938   0.0000000), wk =   0.1111111
        k(   11) = (   0.0484903  -0.0279959   0.0000000), wk =   0.1111111
        k(   12) = (   0.0484903   0.0000000   0.0000000), wk =   0.1111111
        k(   13) = (   0.0484903   0.0279959   0.0000000), wk =   0.1111111
        k(   14) = (   0.0484903  -0.1119835   0.0000000), wk =   0.1111111
        k(   15) = (   0.0484903  -0.0839876   0.0000000), wk =   0.1111111
        k(   16) = (   0.0484903  -0.0559917   0.0000000), wk =   0.1111111
        k(   17) = (  -0.0727354   0.0419938   0.0000000), wk =   0.0555556
        k(   18) = (  -0.0727354   0.0699897   0.0000000), wk =   0.1111111
        k(   19) = (  -0.0727354   0.0979856   0.0000000), wk =   0.1111111
        k(   20) = (  -0.0727354  -0.0419938   0.0000000), wk =   0.0555556

     Largest allocated arrays     est. size (Mb)     dimensions
     Largest temporary arrays     est. size (Mb)     dimensions

     Initial potential from superposition of free atoms
     Check: negative starting charge=   -0.603746

     starting charge  172.49960, renormalised to  183.00000

     negative rho (up, down):  6.405E-01 0.000E+00

     *
     * You are using vdW-DF for exchange-correlation in this calculation.
     * Please cite the following three references that made this development
     * possible:
     *
     *   M. Dion, H. Rydberg, E. Schroder, D. C. Langreth, and
     *   B. I. Lundqvist, Phys. Rev. Lett. 92, 246401 (2004).
     *
     *   T. Thonhauser, V. R. Cooper, S. Li, A. Puzder, P. Hyldgaard, and
     *   D. C. Langreth, Phys. Rev. B 76, 125112 (2007).
     *
     *   G. Roman-Perez and J. M. Soler, Phys. Rev. Lett. 103, 096102 (2009).
     *
     *
     * If you are using vdW-DF2, please also cite:
     *
     *   K. Lee, E. D. Murray, L. Kong, B. I. Lundqvist, and
     *   D. C. Langreth, Phys. Rev. B 82, 081101(R) (2010).
     *
     *
     * If you are calculating the stress with vdW-DF, please also cite:
     *
     *   R. Sabatini, E. Kucukbenli, B. Kolb, T. Thonhauser, and
     *   S. de Gironcoli, J. Phys.: Condens. Matter 24, 424209 (2012).
     *

     Carrying out vdW-DF run using the following parameters:

     Nqs =      20    Nr_points =    1024   r_max =   100.000
     q_mesh =
               0.00001000     0.04494208     0.09755937     0.15916263
               0.23128650     0.31572767     0.41458969     0.53033537
               0.66584808     0.82450364     1.01025438     1.22772762
               1.48234092     1.78043706     2.12944203     2.53805004
               3.01644009     3.57652955     4.23227104     5.00000000

     Gradients computed in reciprocal space

     Adding external electric field

     Computed dipole along edir(3) :
        Dipole               -0.0000 Ry au,         -0.0000 Debye
        Dipole field         -0.0000 Ry au

        Potential amp.        0.0000 Ry
        Total length         47.1911 bohr

     Starting wfc are  117 randomized atomic wfcs

     Self-consistent Calculation

     iteration #  1     ecut=    36.75 Ry     beta=0.30
     Davidson diagonalization with overlap
     ethr =  1.00E-02,  avg # of iterations =  6.2

[...]

     total energy              =   -2237.43317578 Ry
     Harris-Foulkes estimate   =   -2293.53146801 Ry
     estimated scf accuracy    <     117.14922250 Ry

[...]

     End of self-consistent calculation

          k = 0.0000 0.0000 0.0000 ( 26673 PWs)   bands (ev):

   -48.7111 -48.6602 -48.6602 -48.3612 -48.3612 -48.3601 -48.3601 -48.2491
   -48.2480 -22.7872 -22.7778 -22.7778 -22.7328 -22.7149 -22.7149 -22.7060
   -22.6850 -22.6791 -22.6791 -22.6552 -22.6552 -22.6285 -22.6285 -22.5892
   -22.5055 -22.5039 -22.4880 -22.4880 -22.4840 -22.4840 -22.4374 -22.4309
   -22.4070 -22.4070 -22.4031 -22.3995 -22.3958 -22.3958 -22.3742 -22.3742
   -22.3729 -22.3729 -22.3724 -22.3661 -22.3661 -22.3610 -22.3608 -22.3608
   -22.3384 -22.3384 -22.3318 -22.3318 -22.3038 -22.3028 -11.9397 -10.9779
   -10.1389  -9.6294  -9.6294  -9.0146  -9.0146  -8.6273  -8.6272  -4.0550
    -3.3239  -3.0611  -2.6996  -2.6996  -2.5611  -2.0717  -2.0717  -1.7150
    -1.7150  -1.2991  -1.0597  -1.0597  -0.9269  -0.9269  -0.8437  -0.8295
    -0.8295  -0.7069  -0.7069  -0.7014  -0.7014  -0.6408  -0.6408  -0.5468
    -0.5206   0.8560   1.1694   1.3857   1.3857   1.4591   1.4591   1.9123
     2.3007   3.1999   3.2766   3.2766   3.8961

[...]

          k =-0.0727 0.0420 0.0000 ( 26574 PWs)   bands (ev):

[...]

     the Fermi energy is     0.8957 ev

!    total energy              =   -2283.76771390 Ry
     Harris-Foulkes estimate   =   -2283.76771420 Ry
     estimated scf accuracy    <       0.00000092 Ry

     The total energy is the sum of the following terms:

     one-electron contribution =  -11531.94931378 Ry
     hartree contribution      =    5817.19768034 Ry
     xc contribution           =    -696.49004165 Ry
     ewald contribution        =    4127.51358354 Ry
     electric field correction =       0.00000001 Ry
     smearing contrib. (-TS)   =      -0.03962236 Ry

     convergence has been achieved in  15 iterations

 BEEF-vdW xc energy contributions
           1 :   -618.961535803183
           2 :    573.604935037703
           3 :   -494.258381360040
           4 :    399.175138189725
           5 :   -307.001162095694
           6 :    231.058287655574
           7 :   -176.410230474595
           8 :    140.377278976112
           9 :   -115.766988153361
          10 :    95.0693687829756
          11 :   -73.7198662846562
          12 :    51.2320313145905
          13 :   -30.1634712577334
          14 :    13.8618338785151
          15 :   -4.31856102144320
          16 :    1.13431824973452
          17 :   -1.87963550540076
          18 :    3.41365413608776
          19 :   -3.35957714935228
          20 :    1.00013324869894
          21 :    2.74135195029692
          22 :   -6.08792829148649
          23 :    7.47770857762191
          24 :   -6.37376601987660
          25 :    3.46962013908308
          26 :  -0.268302400423408
          27 :   -1.70290993482877
          28 :    1.63606173433209
          29 :   0.207093733019860
          30 :   -2.68556674848617
          31 :   -50.7755106951790
          32 :   -37.2879293205789

     Forces acting on atoms (Ry/au):

     negative rho (up, down):  6.242E-01 0.000E+00
     atom    1 type  1   force =    -0.00969237    0.00559428    0.00740182
     atom    2 type  2   force =     0.00000043   -0.00000048    0.03132790
     atom    3 type  1   force =     0.00969029    0.00559501    0.00741067
     atom    4 type  1   force =     0.00000164   -0.01118978    0.00740386
     atom    5 type  1   force =    -0.00021853    0.00012067    0.00006276
     atom    6 type  2   force =     0.00000025    0.00000089    0.00000607
     atom    7 type  1   force =     0.00021934    0.00012114    0.00006864
     atom    8 type  1   force =     0.00000250   -0.00024987    0.00006244
     atom    9 type  1   force =     0.00955719   -0.00551332   -0.00749660
     atom   10 type  2   force =     0.00000032    0.00000083   -0.03125285
     atom   11 type  1   force =    -0.00955913   -0.00551358   -0.00750158
     atom   12 type  1   force =    -0.00000193    0.01103421   -0.00749313

     Total force =     0.038867     Total SCF correction =     0.001447

     entering subroutine stress ...

     negative rho (up, down):  6.242E-01 0.000E+00
          total   stress  (Ry/bohr**3)                   (kbar)     P=  -14.39
  -0.00010071  -0.00000000  -0.00000000        -14.82     -0.00     -0.00
  -0.00000000  -0.00010071  -0.00000000         -0.00    -14.82     -0.00
  -0.00000000  -0.00000000  -0.00009203         -0.00     -0.00    -13.54

     BFGS Geometry Optimization

     number of scf cycles    =   1
     number of bfgs steps    =   0

     energy   new            =   -2283.7677139015 Ry

     new trust radius        =       0.0312528453 bohr
     new conv_thr            =       0.0000099958 Ry

ATOMIC_POSITIONS (crystal)
Bi1      0.000000000   0.000000000   0.390429998    0   0   0
Pd1      0.000000000   0.500000000   0.390429998    0   0   0
Bi1      0.500000000   0.000000000   0.390429998    0   0   0
Bi1      0.500000000   0.500000000   0.390429998    0   0   0
Bi1      0.666666667   0.666666667   0.500000000    0   0   0
Pd1      0.666666667   0.166666667   0.500000000    0   0   0
Bi1      0.166666667   0.666666667   0.500000000    0   0   0
Bi1      0.166666667   0.166666667   0.500000000    0   0   0
Bi1      0.334314080   0.332843262   0.609415117
Pd1      0.333333321   0.833333407   0.608924297
Bi1      0.832842521   0.332843238   0.609415014
Bi1      0.832842776   0.834314149   0.609415189

     Writing output data file calc.save
     Check: negative starting charge=   -0.603746
     NEW-OLD atomic charge density approx. for the potential
     Check: negative starting charge=   -0.602538

[...]

     Total force =     0.039930     Total SCF correction =     0.004862
     SCF correction compared to forces is large: reduce conv_thr to get better values

[...]

     energy   old            =   -2283.7677139015 Ry
     energy   new            =   -2283.7692213151 Ry

     CASE: energy  _new < energy  _old

     WARNING: bfgs curvature condition failed, Theta= 0.781
     new trust radius        =       0.0343781299 bohr
     new conv_thr            =       0.0000001000 Ry

[...]

     Total force =     0.005355     Total SCF correction =     0.000528

[...]

     number of scf cycles    =  13
     number of bfgs steps    =  12

     energy   old            =   -2283.8099919867 Ry
     energy   new            =   -2283.8106446865 Ry

     CASE: energy  _new < energy  _old

     new trust radius        =       0.0233849786 bohr
     new conv_thr            =       0.0000001000 Ry

ATOMIC_POSITIONS (crystal)
Bi1      0.000000000   0.000000000   0.390429998    0   0   0
Pd1      0.000000000   0.500000000   0.390429998    0   0   0
Bi1      0.500000000   0.000000000   0.390429998    0   0   0
Bi1      0.500000000   0.500000000   0.390429998    0   0   0
Bi1      0.666666667   0.666666667   0.500000000    0   0   0
Pd1      0.666666667   0.166666667   0.500000000    0   0   0
Bi1      0.166666667   0.666666667   0.500000000    0   0   0
Bi1      0.166666667   0.166666667   0.500000000    0   0   0
Bi1      0.354848768   0.322587127   0.602268764
Pd1      0.333336110   0.833332385   0.581038324
Bi1      0.822556367   0.322580895   0.602265368
Bi1      0.822559818   0.854862054   0.602270858

     Writing output data file calc.save
     Check: negative starting charge=   -0.601906
     NEW-OLD atomic charge density approx. for the potential
     Check: negative starting charge=   -0.601507

[...]

     Self-consistent Calculation

[...]

     total energy              =   -2283.81077821 Ry
     Harris-Foulkes estimate   =   -2283.81077823 Ry
     estimated scf accuracy    <       0.00000043 Ry

     iteration #  8     ecut=    36.75 Ry     beta=0.30
     Davidson diagonalization with overlap
     ethr =  2.33E-10,  avg # of iterations =  2.0

[...]

     negative rho (up, down):  6.240E-01 0.000E+00

     Adding external electric field

     Computed dipole along edir(3) :
        Dipole                0.0843 Ry au,          0.2143 Debye
        Dipole field          0.0001 Ry au

        Potential amp.       -0.0141 Ry
        Total length         47.1911 bohr

     End of self-consistent calculation

[...]

          k = 0.0485-0.0560 0.0000 ( 26589 PWs)   bands (ev):

[...]

          k =-0.0727-0.0420 0.0000 ( 26574 PWs)   bands (ev):

   -49.0123 -48.9718 -48.9718 -48.8178 -48.7149 -48.7149 -48.1908 -48.1908
   -48.0670 -22.6953 -22.6399 -22.6353 -22.6335 -22.6211 -22.6189 -22.6116
   -22.6067 -22.6057 -22.5974 -22.5936 -22.5816 -22.5790 -22.5621 -22.5287
   -22.5043 -22.4751 -22.4587 -22.4182 -22.3896 -22.3832 -22.3797 -22.3782
   -22.3678 -22.3652 -22.3571 -22.3555 -22.3454 -22.3426 -22.3324 -22.3092
   -22.3012 -22.3011 -22.2894 -22.2854 -22.2798 -22.2726 -22.2688 -22.2672
   -22.2663 -22.2617 -22.2597 -22.2486 -22.2450 -22.2050 -11.3488 -11.1541
   -10.4399  -9.8644  -9.8324  -9.6298  -9.1120  -8.9884  -8.4807  -3.6994
    -3.2757  -2.7336  -2.2662  -2.2135  -2.1383  -1.9401  -1.8551  -1.8083
    -1.5515  -1.4728  -1.4629  -1.2673  -1.2172  -1.0841  -0.9758  -0.9153
    -0.7860  -0.5755  -0.5454  -0.4310  -0.4248  -0.3486  -0.3172   0.1250
     0.2480   0.3097   0.4145   0.6645   0.8830   1.1442   1.5456   1.7640
     1.9321   2.2470   2.5354   2.6562   3.4550

     the Fermi energy is     1.0192 ev

!    total energy              =   -2283.81077820 Ry
     Harris-Foulkes estimate   =   -2283.81077828 Ry
     estimated scf accuracy    <       0.00000006 Ry

     The total energy is the sum of the following terms:

     one-electron contribution =  -12064.89048426 Ry
     hartree contribution      =    6083.69429784 Ry
     xc contribution           =    -696.76414263 Ry
     ewald contribution        =    4394.18461650 Ry
     electric field correction =       0.00001263 Ry
     smearing contrib. (-TS)   =      -0.03507828 Ry

     convergence has been achieved in   8 iterations

 BEEF-vdW xc energy contributions
           1 :   -619.262588592908
           2 :    574.089144659544
           3 :   -494.957399295806
           4 :    399.918724510304
           5 :   -307.507393478223
           6 :    231.108688367021
           7 :   -175.996775992294
           8 :    139.726438124295
           9 :   -115.223248349865
          10 :    94.9068323705349
          11 :   -73.9940236942541
          12 :    51.7575601448783
          13 :   -30.6281715502816
          14 :    14.0070621649961
          15 :   -4.07953647790714
          16 :   0.662186605132547
          17 :   -1.44100528417528
          18 :    3.23409288627431
          19 :   -3.50416783418950
          20 :    1.35493276557190
          21 :    2.38750623401472
          22 :   -5.91988869891168
          23 :    7.56273566529080
          24 :   -6.64655779661859
          25 :    3.78771454157607
          26 :  -0.494617559757216
          27 :   -1.63854111645719
          28 :    1.72150128538567
          29 :   4.160138182965056E-002
          30 :   -2.52726942502591
          31 :   -50.8019755010588
          32 :   -37.3562029602144

     Forces acting on atoms (Ry/au):

     negative rho (up, down):  6.240E-01 0.000E+00
     atom    1 type  1   force =    -0.01143845    0.00660426    0.00808275
     atom    2 type  2   force =    -0.00000004    0.00000004    0.02276487
     atom    3 type  1   force =     0.01143917    0.00660498    0.00808188
     atom    4 type  1   force =    -0.00000134   -0.01320805    0.00808229
     atom    5 type  1   force =     0.00378326   -0.00217906   -0.01727163
     atom    6 type  2   force =    -0.00000065    0.00000022    0.00325758
     atom    7 type  1   force =    -0.00378310   -0.00217943   -0.01726657
     atom    8 type  1   force =     0.00000134    0.00436381   -0.01727034
     atom    9 type  1   force =    -0.00031122    0.00017598    0.00056476
     atom   10 type  2   force =     0.00000098   -0.00000230   -0.00015431
     atom   11 type  1   force =     0.00030987    0.00017538    0.00057193
     atom   12 type  1   force =     0.00000017   -0.00035583    0.00055680

     Total force =     0.001167     Total SCF correction =     0.000555
     SCF correction compared to forces is large: reduce conv_thr to get better values

     entering subroutine stress ...

     negative rho (up, down):  6.240E-01 0.000E+00
          total   stress  (Ry/bohr**3)                   (kbar)     P=   -6.93
  -0.00004694   0.00000000  -0.00000000         -6.91      0.00     -0.00
   0.00000000  -0.00004694  -0.00000001          0.00     -6.91     -0.00
  -0.00000000  -0.00000001  -0.00004736         -0.00     -0.00     -6.97

     bfgs converged in  14 scf cycles and  13 bfgs steps
     (criteria: energy <  1.0E+00, force <  1.9E-03)

     End of BFGS Geometry Optimization

     Final energy   =   -2283.8107782025 Ry
Begin final coordinates

ATOMIC_POSITIONS (crystal)
Bi1      0.000000000   0.000000000   0.390429998    0   0   0
Pd1      0.000000000   0.500000000   0.390429998    0   0   0
Bi1      0.500000000   0.000000000   0.390429998    0   0   0
Bi1      0.500000000   0.500000000   0.390429998    0   0   0
Bi1      0.666666667   0.666666667   0.500000000    0   0   0
Pd1      0.666666667   0.166666667   0.500000000    0   0   0
Bi1      0.166666667   0.666666667   0.500000000    0   0   0
Bi1      0.166666667   0.166666667   0.500000000    0   0   0
Bi1      0.354848768   0.322587127   0.602268764
Pd1      0.333336110   0.833332385   0.581038324
Bi1      0.822556367   0.322580895   0.602265368
Bi1      0.822559818   0.854862054   0.602270858
End final coordinates

     Writing output data file calc.save

     General routines

     Parallel routines

   This run was terminated on:  18:28: 3  23Feb2018

   JOB DONE.