     Program PWSCF v.5.1rc2 (svn rev. ) starts on 23Feb2018 at 17:13:17

     Current dimensions of program PWSCF are:
     Max number of different atomic species (ntypx) = 10
     Max number of k-points (npk) =  40000
     Max angular momentum in pseudopotentials (lmaxx) =  3
     Presently stress not available with electric field

     IMPORTANT: XC functional enforced from input :
     Exchange-correlation      = BEEF-VDW ( 1  4 27 13 2)
     Any further DFT definition will be discarded
     Please, verify this is what you really want

     Subspace diagonalization in iterative solution of the eigenvalue problem:
     a serial algorithm will be used

     bravais-lattice index     =            0
     lattice parameter (alat)  =       1.8897  a.u.
     unit-cell volume          =    4378.1764 (a.u.)^3
     number of atoms/cell      =           12
     number of atomic types    =            2
     number of electrons       =       171.00
     number of Kohn-Sham states=           95
     kinetic-energy cutoff     =      36.7493  Ry
     charge density cutoff     =     367.4932  Ry
     convergence threshold     =      1.0E-05
     mixing beta               =       0.3000
     number of iterations used =           10  plain     mixing
     Exchange-correlation      = BEEF-VDW ( 1  4 27 13 2)
     nstep                     =           50

     celldm(1)=   1.889726  celldm(2)=   0.000000  celldm(3)=   0.000000
     celldm(4)=   0.000000  celldm(5)=   0.000000  celldm(6)=   0.000000

     crystal axes: (cart. coord. in units of alat)
               a(1) = (   5.528134   0.000000   0.000000 )
               a(2) = (   2.764067   4.787504   0.000000 )
               a(3) = (   0.000000   0.000000  24.513702 )

     reciprocal axes: (cart. coord. in units 2 pi/alat)
               b(1) = (  0.180893 -0.104439  0.000000 )
               b(2) = (  0.000000  0.208877  0.000000 )
               b(3) = (  0.000000  0.000000  0.040794 )

     PseudoPot. # 1 for Cr read from file:
     /home/mamunm/src/pseudo/gbrv1.5pbe/Cr.UPF
     MD5 check sum: 0d52af634a40206e4dee301ad30da4bf
     Pseudo is Ultrasoft + core correction, Zval = 14.0
     Generated by new atomic code, or converted to UPF format
     Using radial grid of  857 points,  6 beta functions with:
                l(1) =   0
                l(2) =   0
                l(3) =   1
                l(4) =   1
                l(5) =   2
                l(6) =   2
     Q(r) pseudized with  8 coefficients,  rinner =    0.950   0.950   0.950
                                                       0.950   0.950

     PseudoPot. # 2 for Bi read from file:
     /home/mamunm/src/pseudo/gbrv1.5pbe/Bi.UPF
     MD5 check sum: 81103212dc04adf40945787f699eab19
     Pseudo is Ultrasoft + core correction, Zval = 15.0
     Generated by new atomic code, or converted to UPF format
     Using radial grid of  899 points,  6 beta functions with:
                l(1) =   0
                l(2) =   0
                l(3) =   1
                l(4) =   1
                l(5) =   2
                l(6) =   2
     Q(r) pseudized with  6 coefficients,  rinner =    1.000   1.000   1.000
                                                       1.000   1.000

     vdW kernel table read from file vdW_kernel_table
     MD5 check sum: 095c7af220d748ca6e76c0b4c6cfb241

     atomic species   valence    mass     pseudopotential
        Cr1           14.00    51.99610     Cr( 1.00)
        Bi1           15.00   208.98040     Bi( 1.00)

     No symmetry found

   Cartesian axes

     site n.     atom                  positions (alat units)
         1           Cr1 tau(   1) = (   0.0000000   0.0000000  10.0000000  )
         2           Bi1 tau(   2) = (   1.3820335   2.3937522  10.0000000  )
         3           Cr1 tau(   3) = (   2.7640670   0.0000000  10.0000000  )
         4           Cr1 tau(   4) = (   4.1461005   2.3937522  10.0000000  )
         5           Cr1 tau(   5) = (   5.5281339   3.1916696  12.2568512  )
         6           Bi1 tau(   6) = (   4.1461005   0.7979174  12.2568512  )
         7           Cr1 tau(   7) = (   2.7640670   3.1916696  12.2568512  )
         8           Cr1 tau(   8) = (   1.3820335   0.7979174  12.2568512  )
         9           Cr1 tau(   9) = (   2.7640670   1.5958348  14.5137025  )
        10           Bi1 tau(  10) = (   4.1461005   3.9895870  14.5137025  )
        11           Cr1 tau(  11) = (   5.5281339   1.5958348  14.5137025  )
        12           Cr1 tau(  12) = (   6.9101674   3.9895870  14.5137025  )

     number of k points=    20  Fermi-Dirac smearing, width (Ry)=  0.0110
                       cart. coord. in units 2pi/alat
        k(    1) = (   0.0000000   0.0000000   0.0000000), wk =   0.0555556
        k(    2) = (   0.0000000   0.0348128   0.0000000), wk =   0.1111111
        k(    3) = (   0.0000000   0.0696257   0.0000000), wk =   0.1111111
        k(    4) = (   0.0000000  -0.1044385   0.0000000), wk =   0.0555556
        k(    5) = (   0.0301488  -0.0174064   0.0000000), wk =   0.1111111
        k(    6) = (   0.0301488   0.0174064   0.0000000), wk =   0.1111111
        k(    7) = (   0.0301488   0.0522193   0.0000000), wk =   0.1111111
        k(    8) = (   0.0301488  -0.1218450   0.0000000), wk =   0.1111111
        k(    9) = (   0.0301488  -0.0870321   0.0000000), wk =   0.1111111
        k(   10) = (   0.0301488  -0.0522193   0.0000000), wk =   0.1111111
        k(   11) = (   0.0602976  -0.0348128   0.0000000), wk =   0.1111111
        k(   12) = (   0.0602976  -0.0000000   0.0000000), wk =   0.1111111
        k(   13) = (   0.0602976   0.0348128   0.0000000), wk =   0.1111111
        k(   14) = (   0.0602976  -0.1392514   0.0000000), wk =   0.1111111
        k(   15) = (   0.0602976  -0.1044385   0.0000000), wk =   0.1111111
        k(   16) = (   0.0602976  -0.0696257   0.0000000), wk =   0.1111111
        k(   17) = (  -0.0904464   0.0522193   0.0000000), wk =   0.0555556
        k(   18) = (  -0.0904464   0.0870321   0.0000000), wk =   0.1111111
        k(   19) = (  -0.0904464   0.1218450   0.0000000), wk =   0.1111111
        k(   20) = (  -0.0904464  -0.0522193   0.0000000), wk =   0.0555556

     Largest allocated arrays     est. size (Mb)     dimensions
     Largest temporary arrays     est. size (Mb)     dimensions

     Check: negative/imaginary core charge=   -0.000003    0.000000

     Initial potential from superposition of free atoms
     Check: negative starting charge=   -0.135031

     starting charge  158.99974, renormalised to  171.00000

     negative rho (up, down):  1.452E-01 0.000E+00

     *
     * You are using vdW-DF for exchange-correlation in this calculation.
     * Please cite the following three references that made this development
     * possible:
     *
     *   M. Dion, H. Rydberg, E. Schroder, D. C. Langreth, and
     *   B. I. Lundqvist, Phys. Rev. Lett. 92, 246401 (2004).
     *
     *   T. Thonhauser, V. R. Cooper, S. Li, A. Puzder, P. Hyldgaard, and
     *   D. C. Langreth, Phys. Rev. B 76, 125112 (2007).
     *
     *   G. Roman-Perez and J. M. Soler, Phys. Rev. Lett. 103, 096102 (2009).
     *
     *
     * If you are using vdW-DF2, please also cite:
     *
     *   K. Lee, E. D. Murray, L. Kong, B. I. Lundqvist, and
     *   D. C. Langreth, Phys. Rev. B 82, 081101(R) (2010).
     *
     *
     * If you are calculating the stress with vdW-DF, please also cite:
     *
     *   R. Sabatini, E. Kucukbenli, B. Kolb, T. Thonhauser, and
     *   S. de Gironcoli, J. Phys.: Condens. Matter 24, 424209 (2012).
     *

     Carrying out vdW-DF run using the following parameters:

     Nqs =      20    Nr_points =    1024   r_max =   100.000
     q_mesh =
               0.00001000     0.04494208     0.09755937     0.15916263
               0.23128650     0.31572767     0.41458969     0.53033537
               0.66584808     0.82450364     1.01025438     1.22772762
               1.48234092     1.78043706     2.12944203     2.53805004
               3.01644009     3.57652955     4.23227104     5.00000000

     Gradients computed in reciprocal space

     Adding external electric field

     Computed dipole along edir(3) :
        Dipole                0.0000 Ry au,          0.0000 Debye
        Dipole field          0.0000 Ry au

        Potential amp.       -0.0000 Ry
        Total length         45.1661 bohr

     Starting wfc are  117 randomized atomic wfcs

     Self-consistent Calculation

     iteration #  1     ecut=    36.75 Ry     beta=0.30
     Davidson diagonalization with overlap
     ethr =  1.00E-02,  avg # of iterations =  6.0

[...]

     total energy              =   -2139.96588977 Ry
     Harris-Foulkes estimate   =   -2153.56314664 Ry
     estimated scf accuracy    <      30.08991917 Ry

[...]

     End of self-consistent calculation

          k = 0.0000 0.0000 0.0000 ( 16439 PWs)   bands (ev):

   -70.1993 -70.1637 -70.1633 -70.0574 -70.0555 -70.0236 -70.0234 -70.0231
   -70.0230 -41.6482 -41.6089 -41.6087 -41.5518 -41.5275 -41.5273 -41.4658
   -41.4650 -41.4649 -41.4533 -41.4520 -41.4219 -41.4218 -41.3763 -41.3617
   -41.3615 -41.3613 -41.3612 -41.3385 -41.3298 -41.3239 -41.3238 -41.3080
   -41.1724 -41.1723 -41.1704 -41.1703 -21.9713 -21.9713 -21.9649 -21.9450
   -21.9449 -21.6020 -21.5960 -21.5916 -21.5916 -21.5895 -21.5895 -21.5654
   -21.5654 -21.5615 -21.5615 -11.2872 -10.1020  -9.7147  -2.9668  -2.5470
    -2.4582  -2.4582  -2.0359  -2.0359  -1.7996  -1.0895  -0.7087  -0.7086
    -0.5555  -0.5020  -0.5020  -0.4067  -0.4067  -0.0836  -0.0063   0.1581
     0.1582   0.4076   0.4237   0.4237   0.7613   0.7614   0.8221   0.8222
     1.1309   1.2317   1.4743   1.8468   1.8470   1.9847   1.9847   2.0155
     2.0784   2.1002   2.1003   2.2557   2.2559   2.3702   2.3731

[...]

          k =-0.0904 0.0522 0.0000 ( 16456 PWs)   bands (ev):

[...]

     the Fermi energy is     1.6635 ev

!    total energy              =   -2147.29095169 Ry
     Harris-Foulkes estimate   =   -2147.29095472 Ry
     estimated scf accuracy    <       0.00000347 Ry

     The total energy is the sum of the following terms:

     one-electron contribution =  -16864.44206352 Ry
     hartree contribution      =    8441.14328664 Ry
     xc contribution           =    -409.61208290 Ry
     ewald contribution        =    6685.73814149 Ry
     electric field correction =       0.00000003 Ry
     smearing contrib. (-TS)   =      -0.11823343 Ry

     convergence has been achieved in  32 iterations

 BEEF-vdW xc energy contributions
           1 :   -359.894365542899
           2 :    329.384492229473
           3 :   -277.323446365632
           4 :    217.604277576639
           5 :   -163.377460419342
           6 :    122.549898493949
           7 :   -96.3088465226240
           8 :    80.7641445434267
           9 :   -70.2904129482057
          10 :    60.5964817031576
          11 :   -50.1420315703891
          12 :    39.6984168371843
          13 :   -30.8655949349940
          14 :    24.6699772666653
          15 :   -20.9994311206003
          16 :    18.9310938077865
          17 :   -17.4710576554392
          18 :    16.1078208296982
          19 :   -14.8680125169383
          20 :    13.9745938314555
          21 :   -13.4677886166042
          22 :    13.1011042567021
          23 :   -12.5567246549555
          24 :    11.7499763712024
          25 :   -10.9365143184064
          26 :    10.5161867472409
          27 :   -10.6897732370353
          28 :    11.2487485818572
          29 :   -11.6766111848396
          30 :    11.4965485502582
          31 :   -32.0907943565047
          32 :   -23.3695308377941

     Forces acting on atoms (Ry/au):

     negative rho (up, down):  1.474E-01 0.000E+00
     atom    1 type  1   force =     0.02979210   -0.01719884    0.03170821
     atom    2 type  2   force =    -0.00005041   -0.00004575   -0.08046053
     atom    3 type  1   force =    -0.02973085   -0.01718512    0.03173726
     atom    4 type  1   force =     0.00002036    0.03434735    0.03174657
     atom    5 type  1   force =     0.00002428   -0.00000870    0.00010437
     atom    6 type  2   force =    -0.00019305    0.00007199   -0.00049980
     atom    7 type  1   force =     0.00001623   -0.00000527    0.00008822
     atom    8 type  1   force =     0.00001282    0.00000316    0.00010530
     atom    9 type  1   force =    -0.02974773    0.01717701   -0.03151250
     atom   10 type  2   force =     0.00008838    0.00003014    0.08002693
     atom   11 type  1   force =     0.02975963    0.01717627   -0.03150588
     atom   12 type  1   force =     0.00000824   -0.03436226   -0.03153814

     Total force =     0.113693     Total SCF correction =     0.004712

     entering subroutine stress ...

     negative rho (up, down):  1.474E-01 0.000E+00
          total   stress  (Ry/bohr**3)                   (kbar)     P=  -23.43
  -0.00021527  -0.00000005   0.00000003        -31.67     -0.01      0.00
  -0.00000005  -0.00021556  -0.00000007         -0.01    -31.71     -0.01
   0.00000003  -0.00000007  -0.00004699          0.00     -0.01     -6.91

     BFGS Geometry Optimization

     number of scf cycles    =   1
     number of bfgs steps    =   0

     energy   new            =   -2147.2909516877 Ry

     new trust radius        =       0.0800269801 bohr
     new conv_thr            =       0.0000099958 Ry

ATOMIC_POSITIONS (crystal)
Cr1      0.000000000   0.000000000   0.407935114    0   0   0
Bi1      0.000000000   0.500000000   0.407935114    0   0   0
Cr1      0.500000000   0.000000000   0.407935114    0   0   0
Cr1      0.500000000   0.500000000   0.407935114    0   0   0
Cr1      0.666666667   0.666666667   0.500000000    0   0   0
Bi1      0.666666667   0.166666667   0.500000000    0   0   0
Cr1      0.166666667   0.666666667   0.500000000    0   0   0
Cr1      0.166666667   0.166666667   0.500000000    0   0   0
Cr1      0.329536437   0.335231960   0.591384626
Bi1      0.333340128   0.833336665   0.593792427
Cr1      0.835232783   0.335231878   0.591384769
Cr1      0.835233204   0.829535170   0.591384073

     Writing output data file calc.save
     Check: negative starting charge=   -0.135031
     NEW-OLD atomic charge density approx. for the potential

     Check: negative/imaginary core charge=   -0.000003    0.000000
     Check: negative starting charge=   -0.137041

[...]

     iteration #  1     ecut=    36.75 Ry     beta=0.30
     Davidson diagonalization with overlap
     c_bands:  1 eigenvalues not converged
     c_bands:  1 eigenvalues not converged
     c_bands:  1 eigenvalues not converged
     c_bands:  1 eigenvalues not converged
     ethr =  1.00E-06,  avg # of iterations = 15.1

[...]

     energy   old            =   -2147.2909516877 Ry
     energy   new            =   -2147.3037092769 Ry

     CASE: energy  _new < energy  _old

     WARNING: bfgs curvature condition failed, Theta= 0.835
     new trust radius        =       0.0880296781 bohr
     new conv_thr            =       0.0000001000 Ry

[...]

     iteration #  1     ecut=    36.75 Ry     beta=0.30
     Davidson diagonalization with overlap
     c_bands:  1 eigenvalues not converged
     ethr =  1.00E-06,  avg # of iterations = 14.9

[...]

     CASE: energy  _new > energy  _old

[...]

     Total force =     0.007779     Total SCF correction =     0.000376

[...]

     Total force =     0.002810     Total SCF correction =     0.000496
     SCF correction compared to forces is large: reduce conv_thr to get better values

[...]

     Threshold (ethr) on eigenvalues was too large:
     Diagonalizing with lowered threshold

     Davidson diagonalization with overlap
     ethr =  2.84E-08,  avg # of iterations =  5.3

[...]

     number of scf cycles    =  11
     number of bfgs steps    =   9

     energy   old            =   -2147.4198999064 Ry
     energy   new            =   -2147.4199125898 Ry

     CASE: energy  _new < energy  _old

     new trust radius        =       0.0102061866 bohr
     new conv_thr            =       0.0000001000 Ry

ATOMIC_POSITIONS (crystal)
Cr1      0.000000000   0.000000000   0.407935114    0   0   0
Bi1      0.000000000   0.500000000   0.407935114    0   0   0
Cr1      0.500000000   0.000000000   0.407935114    0   0   0
Cr1      0.500000000   0.500000000   0.407935114    0   0   0
Cr1      0.666666667   0.666666667   0.500000000    0   0   0
Bi1      0.666666667   0.166666667   0.500000000    0   0   0
Cr1      0.166666667   0.666666667   0.500000000    0   0   0
Cr1      0.166666667   0.166666667   0.500000000    0   0   0
Cr1      0.268808452   0.365613157   0.582487240
Bi1      0.333347701   0.833331581   0.612345408
Cr1      0.865616836   0.365593491   0.582485220
Cr1      0.865634525   0.768791583   0.582485370

     Writing output data file calc.save
     Check: negative starting charge=   -0.137455
     NEW-OLD atomic charge density approx. for the potential

     Check: negative/imaginary core charge=   -0.000003    0.000000
     Check: negative starting charge=   -0.137093

[...]

     Self-consistent Calculation

[...]

     total energy              =   -2147.41993086 Ry
     Harris-Foulkes estimate   =   -2147.41993087 Ry
     estimated scf accuracy    <       0.00000018 Ry

     iteration # 19     ecut=    36.75 Ry     beta=0.30
     Davidson diagonalization with overlap
     ethr =  6.30E-11,  avg # of iterations =  1.4

[...]

     negative rho (up, down):  1.485E-01 0.000E+00

     Adding external electric field

     Computed dipole along edir(3) :
        Dipole                0.1252 Ry au,          0.3183 Debye
        Dipole field          0.0004 Ry au

        Potential amp.       -0.0325 Ry
        Total length         45.1661 bohr

     End of self-consistent calculation

[...]

          k = 0.0603-0.0696 0.0000 ( 16501 PWs)   bands (ev):

[...]

          k =-0.0904-0.0522 0.0000 ( 16456 PWs)   bands (ev):

   -70.0826 -70.0375 -70.0218 -70.0042 -69.8933 -69.8822 -69.8711 -69.8523
   -69.8509 -41.8240 -41.5884 -41.5749 -41.5341 -41.4886 -41.4346 -41.4014
   -41.3841 -41.3527 -41.3234 -41.3178 -41.3130 -41.2598 -41.2369 -41.2345
   -41.2267 -41.2261 -41.1942 -41.1604 -41.1425 -41.1201 -41.1149 -41.0884
   -41.0246 -41.0186 -40.8737 -40.8576 -21.8314 -21.8236 -21.8059 -21.7970
   -21.7969 -21.4836 -21.4535 -21.4514 -21.4512 -21.4363 -21.4309 -21.4190
   -21.4175 -21.4118 -21.4086 -10.4475  -9.7420  -9.3118  -4.3031  -3.4615
    -3.2944  -2.8906  -1.7458  -1.7133  -1.6456  -1.3189  -1.2675  -1.2648
    -0.6434  -0.4273  -0.1384  -0.1155   0.0277   0.1593   0.2098   0.2465
     0.3632   0.4824   0.5796   0.6683   0.8467   0.9452   0.9682   1.0397
     1.1442   1.2947   1.4161   1.5088   1.6529   1.7929   1.8826   1.9315
     2.0557   2.1717   2.1873   2.2263   2.2657   2.3796   2.4975

     the Fermi energy is     1.8145 ev

!    total energy              =   -2147.41993081 Ry
     Harris-Foulkes estimate   =   -2147.41993125 Ry
     estimated scf accuracy    <       0.00000006 Ry

     The total energy is the sum of the following terms:

     one-electron contribution =  -16965.71160429 Ry
     hartree contribution      =    8492.52918726 Ry
     xc contribution           =    -409.81935445 Ry
     ewald contribution        =    6735.68419837 Ry
     electric field correction =       0.00004502 Ry
     smearing contrib. (-TS)   =      -0.10240273 Ry

     convergence has been achieved in  19 iterations

 BEEF-vdW xc energy contributions
           1 :   -360.119840514266
           2 :    329.657770394987
           3 :   -277.610646536880
           4 :    217.768786902844
           5 :   -163.251080924998
           6 :    122.052954739878
           7 :   -95.5281463660157
           8 :    79.9274604705824
           9 :   -69.6479415709790
          10 :    60.2789923784355
          11 :   -50.0807326172119
          12 :    39.6577151151033
          13 :   -30.5785573835361
          14 :    24.0063062848808
          15 :   -20.0654335572002
          16 :    18.0278026958133
          17 :   -16.9188233863495
          18 :    16.0398531983888
          19 :   -15.1326871967836
          20 :    14.2244974391627
          21 :   -13.3858749079309
          22 :    12.6125211277699
          23 :   -11.8781094447333
          24 :    11.2406109512461
          25 :   -10.8545949468596
          26 :    10.8476272394912
          27 :   -11.1636014638345
          28 :    11.5224281777789
          29 :   -11.5614245616630
          30 :    11.0724841850663
          31 :   -32.1038437121825
          32 :   -23.3776241692286

     Forces acting on atoms (Ry/au):

     negative rho (up, down):  1.485E-01 0.000E+00
     atom    1 type  1   force =     0.02888934   -0.01667563    0.02676409
     atom    2 type  2   force =     0.00000321    0.00002298   -0.08632532
     atom    3 type  1   force =    -0.02890522   -0.01667799    0.02676444
     atom    4 type  1   force =    -0.00000568    0.03337377    0.02676336
     atom    5 type  1   force =    -0.02446571    0.01412447    0.00298248
     atom    6 type  2   force =     0.00005291   -0.00003564    0.00069098
     atom    7 type  1   force =     0.02445214    0.01412669    0.00298123
     atom    8 type  1   force =    -0.00000925   -0.02823516    0.00298539
     atom    9 type  1   force =    -0.00116335    0.00064954   -0.00063766
     atom   10 type  2   force =     0.00001566   -0.00000451   -0.00168793
     atom   11 type  1   force =     0.00116526    0.00068279   -0.00064035
     atom   12 type  1   force =    -0.00002932   -0.00135130   -0.00064071

     Total force =     0.003083     Total SCF correction =     0.000418
     SCF correction compared to forces is large: reduce conv_thr to get better values

     entering subroutine stress ...

     negative rho (up, down):  1.485E-01 0.000E+00
          total   stress  (Ry/bohr**3)                   (kbar)     P=  -13.56
  -0.00013292  -0.00000001  -0.00000000        -19.55     -0.00     -0.00
  -0.00000001  -0.00013292   0.00000000         -0.00    -19.55      0.00
  -0.00000000   0.00000000  -0.00001077         -0.00      0.00     -1.58

     bfgs converged in  12 scf cycles and  10 bfgs steps
     (criteria: energy <  1.0E+00, force <  1.9E-03)

     End of BFGS Geometry Optimization

     Final energy   =   -2147.4199308118 Ry
Begin final coordinates

ATOMIC_POSITIONS (crystal)
Cr1      0.000000000   0.000000000   0.407935114    0   0   0
Bi1      0.000000000   0.500000000   0.407935114    0   0   0
Cr1      0.500000000   0.000000000   0.407935114    0   0   0
Cr1      0.500000000   0.500000000   0.407935114    0   0   0
Cr1      0.666666667   0.666666667   0.500000000    0   0   0
Bi1      0.666666667   0.166666667   0.500000000    0   0   0
Cr1      0.166666667   0.666666667   0.500000000    0   0   0
Cr1      0.166666667   0.166666667   0.500000000    0   0   0
Cr1      0.268808452   0.365613157   0.582487240
Bi1      0.333347701   0.833331581   0.612345408
Cr1      0.865616836   0.365593491   0.582485220
Cr1      0.865634525   0.768791583   0.582485370
End final coordinates

     Writing output data file calc.save

     General routines

     Parallel routines

   This run was terminated on:  18:37:12  23Feb2018

   JOB DONE.