     Program PWSCF v.5.1rc2 starts on 23Feb2018 at 17:17:24

     Current dimensions of program PWSCF are:
     Max number of different atomic species (ntypx) = 10
     Max number of k-points (npk) =  40000
     Max angular momentum in pseudopotentials (lmaxx) =  3
     Presently stress not available with electric field

     IMPORTANT: XC functional enforced from input :
     Exchange-correlation      = BEEF-VDW ( 1  4 27 13 2)
     Any further DFT definition will be discarded
     Please, verify this is what you really want

     bravais-lattice index     =            0
     lattice parameter (alat)  =       1.8897  a.u.
     unit-cell volume          =    5048.6100 (a.u.)^3
     number of atoms/cell      =           12
     number of atomic types    =            2
     number of electrons       =       189.00
     number of Kohn-Sham states=          104
     kinetic-energy cutoff     =      36.7493  Ry
     charge density cutoff     =     367.4932  Ry
     convergence threshold     =      1.0E-05
     mixing beta               =       0.3000
     number of iterations used =           10  plain     mixing
     Exchange-correlation      = BEEF-VDW ( 1  4 27 13 2)
     nstep                     =           50

     celldm(1)=   1.889726  celldm(2)=   0.000000  celldm(3)=   0.000000
     celldm(4)=   0.000000  celldm(5)=   0.000000  celldm(6)=   0.000000

     crystal axes: (cart. coord. in units of alat)
               a(1) = (   5.899910   0.000000   0.000000 )
               a(2) = (   2.949955   5.109472   0.000000 )
               a(3) = (   0.000000   0.000000  24.817257 )

     reciprocal axes: (cart. coord. in units 2 pi/alat)
               b(1) = (  0.169494 -0.097857  0.000000 )
               b(2) = (  0.000000  0.195715 -0.000000 )
               b(3) = (  0.000000  0.000000  0.040295 )

     PseudoPot. # 1 for Pd read from file:
     /home/users/mamunm/src/pseudo/gbrv1.5pbe/Pd.UPF
     MD5 check sum: 2d733d2bc2cbfd217af676df1668a4bc
     Pseudo is Ultrasoft + core correction, Zval = 16.0
     Generated by new atomic code, or converted to UPF format
     Using radial grid of  887 points,  6 beta functions with:
                l(1) =   0
                l(2) =   0
                l(3) =   1
                l(4) =   1
                l(5) =   2
                l(6) =   2
     Q(r) pseudized with  8 coefficients,  rinner =    1.130   1.130   1.130
                                                       1.130   1.130

     PseudoPot. # 2 for Bi read from file:
     /home/users/mamunm/src/pseudo/gbrv1.5pbe/Bi.UPF
     MD5 check sum: 81103212dc04adf40945787f699eab19
     Pseudo is Ultrasoft + core correction, Zval = 15.0
     Generated by new atomic code, or converted to UPF format
     Using radial grid of  899 points,  6 beta functions with:
                l(1) =   0
                l(2) =   0
                l(3) =   1
                l(4) =   1
                l(5) =   2
                l(6) =   2
     Q(r) pseudized with  6 coefficients,  rinner =    1.000   1.000   1.000
                                                       1.000   1.000

     vdW kernel table read from file vdW_kernel_table
     MD5 check sum: 095c7af220d748ca6e76c0b4c6cfb241

     atomic species   valence    mass     pseudopotential
        Pd1           16.00   106.42000     Pd( 1.00)
        Bi1           15.00   208.98040     Bi( 1.00)

     No symmetry found

   Cartesian axes

     site n.     atom                  positions (alat units)
         1           Pd1 tau(   1) = (   0.0000000   0.0000000  10.0000000  )
         2           Bi1 tau(   2) = (   1.4749776   2.5547361  10.0000000  )
         3           Pd1 tau(   3) = (   2.9499551   0.0000000  10.0000000  )
         4           Pd1 tau(   4) = (   4.4249327   2.5547361  10.0000000  )
         5           Pd1 tau(   5) = (   5.8999103   3.4063148  12.4086283  )
         6           Bi1 tau(   6) = (   4.4249327   0.8515787  12.4086283  )
         7           Pd1 tau(   7) = (   2.9499551   3.4063148  12.4086283  )
         8           Pd1 tau(   8) = (   1.4749776   0.8515787  12.4086283  )
         9           Pd1 tau(   9) = (   2.9499551   1.7031574  14.8172566  )
        10           Bi1 tau(  10) = (   4.4249327   4.2578935  14.8172566  )
        11           Pd1 tau(  11) = (   5.8999103   1.7031574  14.8172566  )
        12           Pd1 tau(  12) = (   7.3748879   4.2578935  14.8172566  )

     number of k points=    20  Fermi-Dirac smearing, width (Ry)=  0.0110
                       cart. coord. in units 2pi/alat
        k(    1) = (   0.0000000   0.0000000   0.0000000), wk =   0.0555556
        k(    2) = (   0.0000000   0.0326192  -0.0000000), wk =   0.1111111
        k(    3) = (   0.0000000   0.0652383  -0.0000000), wk =   0.1111111
        k(    4) = (   0.0000000  -0.0978575   0.0000000), wk =   0.0555556
        k(    5) = (   0.0282490  -0.0163096   0.0000000), wk =   0.1111111
        k(    6) = (   0.0282490   0.0163096  -0.0000000), wk =   0.1111111
        k(    7) = (   0.0282490   0.0489287  -0.0000000), wk =   0.1111111
        k(    8) = (   0.0282490  -0.1141670   0.0000000), wk =   0.1111111
        k(    9) = (   0.0282490  -0.0815479   0.0000000), wk =   0.1111111
        k(   10) = (   0.0282490  -0.0489287   0.0000000), wk =   0.1111111
        k(   11) = (   0.0564980  -0.0326192   0.0000000), wk =   0.1111111
        k(   12) = (   0.0564980   0.0000000  -0.0000000), wk =   0.1111111
        k(   13) = (   0.0564980   0.0326192  -0.0000000), wk =   0.1111111
        k(   14) = (   0.0564980  -0.1304766   0.0000000), wk =   0.1111111
        k(   15) = (   0.0564980  -0.0978575   0.0000000), wk =   0.1111111
        k(   16) = (   0.0564980  -0.0652383   0.0000000), wk =   0.1111111
        k(   17) = (  -0.0847471   0.0489287  -0.0000000), wk =   0.0555556
        k(   18) = (  -0.0847471   0.0815479  -0.0000000), wk =   0.1111111
        k(   19) = (  -0.0847471   0.1141670  -0.0000000), wk =   0.1111111
        k(   20) = (  -0.0847471  -0.0489287   0.0000000), wk =   0.0555556

     Largest allocated arrays     est. size (Mb)     dimensions
     Largest temporary arrays     est. size (Mb)     dimensions

     Initial potential from superposition of free atoms
     Check: negative starting charge=   -0.797160

     starting charge  181.49981, renormalised to  189.00000

     negative rho (up, down):  8.301E-01 0.000E+00

     *
     * You are using vdW-DF for exchange-correlation in this calculation.
     * Please cite the following three references that made this development
     * possible:
     *
     *   M. Dion, H. Rydberg, E. Schroder, D. C. Langreth, and
     *   B. I. Lundqvist, Phys. Rev. Lett. 92, 246401 (2004).
     *
     *   T. Thonhauser, V. R. Cooper, S. Li, A. Puzder, P. Hyldgaard, and
     *   D. C. Langreth, Phys. Rev. B 76, 125112 (2007).
     *
     *   G. Roman-Perez and J. M. Soler, Phys. Rev. Lett. 103, 096102 (2009).
     *
     *
     * If you are using vdW-DF2, please also cite:
     *
     *   K. Lee, E. D. Murray, L. Kong, B. I. Lundqvist, and
     *   D. C. Langreth, Phys. Rev. B 82, 081101(R) (2010).
     *
     *
     * If you are calculating the stress with vdW-DF, please also cite:
     *
     *   R. Sabatini, E. Kucukbenli, B. Kolb, T. Thonhauser, and
     *   S. de Gironcoli, J. Phys.: Condens. Matter 24, 424209 (2012).
     *

     Carrying out vdW-DF run using the following parameters:

     Nqs =      20    Nr_points =    1024   r_max =   100.000
     q_mesh =
               0.00001000     0.04494208     0.09755937     0.15916263
               0.23128650     0.31572767     0.41458969     0.53033537
               0.66584808     0.82450364     1.01025438     1.22772762
               1.48234092     1.78043706     2.12944203     2.53805004
               3.01644009     3.57652955     4.23227104     5.00000000

     Gradients computed in reciprocal space

     Adding external electric field

     Computed dipole along edir(3) :
        Dipole               -0.0000 Ry au,         -0.0000 Debye
        Dipole field         -0.0000 Ry au

        Potential amp.        0.0000 Ry
        Total length         45.7254 bohr

     Starting wfc are  135 randomized atomic wfcs

     Self-consistent Calculation

     iteration #  1     ecut=    36.75 Ry     beta=0.30
     Davidson diagonalization with overlap
     ethr =  1.00E-02,  avg # of iterations =  4.0

[...]

     total energy              =   -2349.19146698 Ry
     Harris-Foulkes estimate   =   -2364.99398478 Ry
     estimated scf accuracy    <      34.80305176 Ry

[...]

     End of self-consistent calculation

          k = 0.0000 0.0000 0.0000 ( 19027 PWs)   bands (ev):

   -48.6783 -48.6236 -48.6215 -48.5744 -48.5727 -48.5321 -48.4882 -48.4250
   -48.4214 -48.3059 -48.3048 -48.3003 -48.2994 -48.2510 -48.2500 -48.2444
   -48.2436 -48.1314 -48.1312 -48.1305 -48.1297 -48.0747 -48.0683 -48.0548
   -48.0538 -48.0519 -48.0507 -22.1480 -22.1480 -22.1126 -22.1126 -22.1123
   -21.9591 -21.9564 -21.9390 -21.9390 -21.9362 -21.9362 -21.9164 -21.9163
   -21.9163 -21.9163 -10.5366  -9.7606  -9.5907  -3.1095  -3.0739  -2.7342
    -2.5565  -2.5555  -2.2346  -2.2341  -2.1750  -2.1742  -2.1232  -2.1024
    -2.1018  -1.8520  -1.6454  -1.6450  -1.6165  -1.2761  -1.2757  -0.9966
    -0.9925  -0.9522  -0.9514  -0.8010  -0.8007  -0.6612  -0.4310  -0.4285
    -0.3002  -0.3000  -0.2896  -0.2783  -0.2406  -0.2398  -0.1205  -0.1198
    -0.0674   0.1069   0.1084   0.2433   0.2439   0.3323   0.3332   0.3520
     0.5138   0.5251   0.7776   0.7780   0.7844   1.0394   1.0717   1.3654
     1.3665   1.4506   1.4509   1.6965   2.5374   3.2323   4.1849   5.2665

[...]

          k =-0.0847 0.0489-0.0000 ( 18988 PWs)   bands (ev):

[...]

     the Fermi energy is     1.4097 ev

!    total energy              =   -2359.76149923 Ry
     Harris-Foulkes estimate   =   -2359.76150398 Ry
     estimated scf accuracy    <       0.00000577 Ry

     The total energy is the sum of the following terms:

     one-electron contribution =  -17503.91572198 Ry
     hartree contribution      =    8804.43159197 Ry
     xc contribution           =    -492.98288590 Ry
     ewald contribution        =    6832.74473367 Ry
     electric field correction =       0.00000002 Ry
     smearing contrib. (-TS)   =      -0.03921702 Ry

     convergence has been achieved in  13 iterations

 BEEF-vdW xc energy contributions
           1 :   -433.335800206361
           2 :    398.892124435682
           3 :   -339.410396709894
           4 :    269.785602882554
           5 :   -204.814318729961
           6 :    154.445989292854
           7 :   -121.602446429635
           8 :    102.995697497248
           9 :   -92.1226302329072
          10 :    82.8083643565218
          11 :   -71.6958621772375
          12 :    58.8141370992705
          13 :   -46.4091390367666
          14 :    36.9963666661454
          15 :   -31.7767586009959
          16 :    30.1273123475888
          17 :   -30.1868214802796
          18 :    29.9923430751787
          19 :   -28.4551346279711
          20 :    25.6852730411995
          21 :   -22.6210405466495
          22 :    20.3007580093240
          23 :   -19.2428831241954
          24 :    19.2433543570460
          25 :   -19.6135571268649
          26 :    19.6390827131453
          27 :   -18.9663242862404
          28 :    17.7155377980365
          29 :   -16.3111685753739
          30 :    15.1789403072569
          31 :   -38.9831630025386
          32 :   -28.7836113960918

     Forces acting on atoms (Ry/au):

     negative rho (up, down):  8.287E-01 0.000E+00
     atom    1 type  1   force =     0.00267542   -0.00139311    0.00664373
     atom    2 type  2   force =    -0.00017931   -0.00052477   -0.01185744
     atom    3 type  1   force =    -0.00265432   -0.00142668    0.00675513
     atom    4 type  1   force =     0.00005178    0.00296490    0.00662054
     atom    5 type  1   force =     0.00003249    0.00003490   -0.00001690
     atom    6 type  2   force =    -0.00010573   -0.00011955    0.00051587
     atom    7 type  1   force =    -0.00003451   -0.00000300    0.00000648
     atom    8 type  1   force =     0.00002275    0.00000420   -0.00002479
     atom    9 type  1   force =    -0.00266481    0.00139997   -0.00688751
     atom   10 type  2   force =     0.00020649    0.00056020    0.01198026
     atom   11 type  1   force =     0.00268137    0.00145436   -0.00695322
     atom   12 type  1   force =    -0.00003163   -0.00295142   -0.00678215

     Total force =     0.017685     Total SCF correction =     0.007710
     SCF correction compared to forces is large: reduce conv_thr to get better values

     entering subroutine stress ...

     negative rho (up, down):  8.287E-01 0.000E+00
          total   stress  (Ry/bohr**3)                   (kbar)     P=  -11.88
  -0.00010602  -0.00000002  -0.00000001        -15.60     -0.00     -0.00
  -0.00000002  -0.00010595  -0.00000001         -0.00    -15.59     -0.00
  -0.00000001  -0.00000001  -0.00003029         -0.00     -0.00     -4.46

     BFGS Geometry Optimization

     number of scf cycles    =   1
     number of bfgs steps    =   0

     energy   new            =   -2359.7614992302 Ry

     new trust radius        =       0.0119951282 bohr
     new conv_thr            =       0.0000099958 Ry

ATOMIC_POSITIONS (crystal)
Pd1      0.000000000  -0.000000000   0.402945425    0   0   0
Bi1      0.000000000   0.500000000   0.402945425    0   0   0
Pd1      0.500000000  -0.000000000   0.402945425    0   0   0
Pd1      0.500000000   0.500000000   0.402945425    0   0   0
Pd1      0.666666667   0.666666667   0.500000000    0   0   0
Bi1      0.666666667   0.166666667   0.500000000    0   0   0
Pd1      0.166666667   0.666666667   0.500000000    0   0   0
Pd1      0.166666667   0.166666667   0.500000000    0   0   0
Pd1      0.333021825   0.333478325   0.596907713
Bi1      0.333322844   0.833391353   0.597310029
Pd1      0.833498519   0.333483958   0.596906312
Pd1      0.833483332   0.833027661   0.596909959

     Writing output data file calc.save
     Check: negative starting charge=   -0.797160
     NEW-OLD atomic charge density approx. for the potential
     Check: negative starting charge=   -0.796833

[...]

     energy   old            =   -2359.7614992302 Ry
     energy   new            =   -2359.7679940375 Ry

     CASE: energy  _new < energy  _old

     WARNING: bfgs curvature condition failed, Theta= 0.870
     new trust radius        =       0.0131946410 bohr
     new conv_thr            =       0.0000001000 Ry

[...]

     Threshold (ethr) on eigenvalues was too large:
     Diagonalizing with lowered threshold

     Davidson diagonalization with overlap
     ethr =  7.82E-08,  avg # of iterations =  1.0

[...]

     Total force =     0.014391     Total SCF correction =     0.000804

[...]

     Threshold (ethr) on eigenvalues was too large:
     Diagonalizing with lowered threshold

     Davidson diagonalization with overlap
     ethr =  4.15E-08,  avg # of iterations =  1.0

[...]

     Total force =     0.012359     Total SCF correction =     0.000786

[...]

     number of scf cycles    =   6
     number of bfgs steps    =   5

     energy   old            =   -2359.7692514762 Ry
     energy   new            =   -2359.7697724095 Ry

     CASE: energy  _new < energy  _old

     new trust radius        =       0.0499173940 bohr
     new conv_thr            =       0.0000001000 Ry

ATOMIC_POSITIONS (crystal)
Pd1      0.000000000  -0.000000000   0.402945425    0   0   0
Bi1      0.000000000   0.500000000   0.402945425    0   0   0
Pd1      0.500000000  -0.000000000   0.402945425    0   0   0
Pd1      0.500000000   0.500000000   0.402945425    0   0   0
Pd1      0.666666667   0.666666667   0.500000000    0   0   0
Bi1      0.666666667   0.166666667   0.500000000    0   0   0
Pd1      0.166666667   0.666666667   0.500000000    0   0   0
Pd1      0.166666667   0.166666667   0.500000000    0   0   0
Pd1      0.329610740   0.335207147   0.594555099
Bi1      0.333286451   0.833547037   0.600660190
Pd1      0.835194853   0.335206576   0.594550406
Pd1      0.835197072   0.829623926   0.594562094

     Writing output data file calc.save
     Check: negative starting charge=   -0.803864
     NEW-OLD atomic charge density approx. for the potential
     Check: negative starting charge=   -0.799375

[...]

     Self-consistent Calculation

[...]

     total energy              =   -2359.76997444 Ry
     Harris-Foulkes estimate   =   -2359.76997452 Ry
     estimated scf accuracy    <       0.00000011 Ry

     iteration # 10     ecut=    36.75 Ry     beta=0.30
     Davidson diagonalization with overlap
     ethr =  5.68E-11,  avg # of iterations =  2.0

[...]

     negative rho (up, down):  8.310E-01 0.000E+00

     Adding external electric field

     Computed dipole along edir(3) :
        Dipole                0.0236 Ry au,          0.0600 Debye
        Dipole field          0.0001 Ry au

        Potential amp.       -0.0054 Ry
        Total length         45.7254 bohr

     End of self-consistent calculation

[...]

          k = 0.0565-0.0652 0.0000 ( 19006 PWs)   bands (ev):

[...]

          k =-0.0847-0.0489 0.0000 ( 18988 PWs)   bands (ev):

   -48.5977 -48.5717 -48.5563 -48.5382 -48.5236 -48.5068 -48.4338 -48.4153
   -48.3886 -48.3049 -48.2860 -48.2738 -48.2657 -48.2461 -48.2337 -48.2197
   -48.1867 -48.1697 -48.1523 -48.1375 -48.1002 -48.0884 -48.0825 -48.0726
   -48.0331 -48.0272 -48.0199 -22.1301 -22.1261 -22.0977 -22.0969 -22.0935
   -21.9377 -21.9299 -21.9167 -21.9161 -21.9115 -21.9112 -21.8858 -21.8846
   -21.8820 -21.8808 -10.0582  -9.6142  -9.4795  -4.0453  -3.4860  -3.2967
    -3.2236  -2.5463  -2.3384  -2.3346  -2.2918  -2.2072  -2.0311  -1.9172
    -1.8505  -1.6779  -1.5826  -1.5296  -1.5116  -1.5028  -1.2433  -1.2367
    -1.1545  -1.0275  -0.9504  -0.8223  -0.7224  -0.7037  -0.6746  -0.6503
    -0.6146  -0.5882  -0.4272  -0.3996  -0.3810  -0.3359  -0.3331  -0.2310
    -0.2026  -0.1267  -0.1200  -0.0563  -0.0285   0.0139   0.0777   0.1363
     0.3553   0.4536   0.7278   0.9300   0.9566   1.3529   1.7507   1.9321
     1.9361   2.0572   2.9414   3.1275   3.4616   4.6289   5.2297   5.5604

     the Fermi energy is     1.4420 ev

!    total energy              =   -2359.76997442 Ry
     Harris-Foulkes estimate   =   -2359.76997444 Ry
     estimated scf accuracy    <       0.00000001 Ry

     The total energy is the sum of the following terms:

     one-electron contribution =  -17566.92958832 Ry
     hartree contribution      =    8836.03507983 Ry
     xc contribution           =    -492.99170019 Ry
     ewald contribution        =    6864.15588904 Ry
     electric field correction =       0.00000139 Ry
     smearing contrib. (-TS)   =      -0.03965617 Ry

     convergence has been achieved in  10 iterations

 BEEF-vdW xc energy contributions
           1 :   -433.527128366926
           2 :    399.099750923864
           3 :   -339.635032914963
           4 :    270.010741839539
           5 :   -205.018631249364
           6 :    154.619502246475
           7 :   -121.753620065599
           8 :    103.145959602343
           9 :   -92.2925578596943
          10 :    83.0051077625500
          11 :   -71.9095548952422
          12 :    59.0250066351333
          13 :   -46.6000957111468
          14 :    37.1635044193389
          15 :   -31.9314802130704
          16 :    30.2884197547209
          17 :   -30.3680277995541
          18 :    30.1935632865838
          19 :   -28.6627258062730
          20 :    25.8812611507613
          21 :   -22.7955129157201
          22 :    20.4583126749307
          23 :   -19.3988860656215
          24 :    19.4131167195750
          25 :   -19.8021484801915
          26 :    19.8383166876087
          27 :   -19.1599717690788
          28 :    17.8895562601473
          29 :   -16.4628410802582
          30 :    15.3191522946725
          31 :   -38.9951777464422
          32 :   -28.7990710878040

     Forces acting on atoms (Ry/au):

     negative rho (up, down):  8.310E-01 0.000E+00
     atom    1 type  1   force =     0.00281600   -0.00162503    0.00715016
     atom    2 type  2   force =     0.00000510    0.00000222   -0.00927567
     atom    3 type  1   force =    -0.00281753   -0.00162467    0.00714794
     atom    4 type  1   force =    -0.00000103    0.00325070    0.00714677
     atom    5 type  1   force =    -0.00379562    0.00219918   -0.00204504
     atom    6 type  2   force =     0.00000168   -0.00000028   -0.00514857
     atom    7 type  1   force =     0.00379913    0.00219828   -0.00203529
     atom    8 type  1   force =     0.00000214   -0.00438306   -0.00207440
     atom    9 type  1   force =     0.00157340   -0.00082006   -0.00034141
     atom   10 type  2   force =    -0.00003835   -0.00011457    0.00018016
     atom   11 type  1   force =    -0.00156616   -0.00084123   -0.00033678
     atom   12 type  1   force =     0.00002124    0.00175852   -0.00036787

     Total force =     0.003133     Total SCF correction =     0.000481
     SCF correction compared to forces is large: reduce conv_thr to get better values

     entering subroutine stress ...

     negative rho (up, down):  8.310E-01 0.000E+00
          total   stress  (Ry/bohr**3)                   (kbar)     P=  -11.95
  -0.00010763  -0.00000000  -0.00000001        -15.83     -0.00     -0.00
  -0.00000000  -0.00010762  -0.00000003         -0.00    -15.83     -0.00
  -0.00000001  -0.00000003  -0.00002838         -0.00     -0.00     -4.18

     bfgs converged in   7 scf cycles and   6 bfgs steps
     (criteria: energy <  1.0E+00, force <  1.9E-03)

     End of BFGS Geometry Optimization

     Final energy   =   -2359.7699744216 Ry
Begin final coordinates

ATOMIC_POSITIONS (crystal)
Pd1      0.000000000  -0.000000000   0.402945425    0   0   0
Bi1      0.000000000   0.500000000   0.402945425    0   0   0
Pd1      0.500000000  -0.000000000   0.402945425    0   0   0
Pd1      0.500000000   0.500000000   0.402945425    0   0   0
Pd1      0.666666667   0.666666667   0.500000000    0   0   0
Bi1      0.666666667   0.166666667   0.500000000    0   0   0
Pd1      0.166666667   0.666666667   0.500000000    0   0   0
Pd1      0.166666667   0.166666667   0.500000000    0   0   0
Pd1      0.329610740   0.335207147   0.594555099
Bi1      0.333286451   0.833547037   0.600660190
Pd1      0.835194853   0.335206576   0.594550406
Pd1      0.835197072   0.829623926   0.594562094
End final coordinates

     Writing output data file calc.save

     General routines

     Parallel routines

   This run was terminated on:  17:35:23  23Feb2018

   JOB DONE.