     Program PWSCF v.5.1rc2 starts on 26Feb2018 at 11:50:58

     Current dimensions of program PWSCF are:
     Max number of different atomic species (ntypx) = 10
     Max number of k-points (npk) =  40000
     Max angular momentum in pseudopotentials (lmaxx) =  3
     Presently stress not available with electric field

     IMPORTANT: XC functional enforced from input :
     Exchange-correlation      = BEEF-VDW ( 1  4 27 13 2)
     Any further DFT definition will be discarded
     Please, verify this is what you really want

     bravais-lattice index     =            0
     lattice parameter (alat)  =       1.8897  a.u.
     unit-cell volume          =    4800.8359 (a.u.)^3
     number of atoms/cell      =           12
     number of atomic types    =            2
     number of electrons       =       180.00
     number of Kohn-Sham states=          100
     kinetic-energy cutoff     =      36.7493  Ry
     charge density cutoff     =     367.4932  Ry
     convergence threshold     =      1.0E-05
     mixing beta               =       0.3000
     number of iterations used =           10  plain     mixing
     Exchange-correlation      = BEEF-VDW ( 1  4 27 13 2)
     nstep                     =           50

     celldm(1)=   1.889726  celldm(2)=   0.000000  celldm(3)=   0.000000
     celldm(4)=   0.000000  celldm(5)=   0.000000  celldm(6)=   0.000000

     crystal axes: (cart. coord. in units of alat)
               a(1) = (   5.766025   0.000000   0.000000 )
               a(2) = (   2.883013   4.993524   0.000000 )
               a(3) = (   0.000000   0.000000  24.707940 )

     reciprocal axes: (cart. coord. in units 2 pi/alat)
               b(1) = (  0.173430 -0.100130  0.000000 )
               b(2) = (  0.000000  0.200259  0.000000 )
               b(3) = (  0.000000  0.000000  0.040473 )

     PseudoPot. # 1 for Ir read from file:
     /home/users/mamunm/src/pseudo/gbrv1.5pbe/Ir.UPF
     MD5 check sum: 8836f839c3459d2b385c504ce6d91f2c
     Pseudo is Ultrasoft + core correction, Zval = 15.0
     Generated by new atomic code, or converted to UPF format
     Using radial grid of  983 points,  7 beta functions with:
                l(1) =   0
                l(2) =   0
                l(3) =   1
                l(4) =   1
                l(5) =   1
                l(6) =   2
                l(7) =   2
     Q(r) pseudized with  8 coefficients,  rinner =    1.400   1.400   1.400
                                                       1.400   1.400

     PseudoPot. # 2 for Bi read from file:
     /home/users/mamunm/src/pseudo/gbrv1.5pbe/Bi.UPF
     MD5 check sum: 81103212dc04adf40945787f699eab19
     Pseudo is Ultrasoft + core correction, Zval = 15.0
     Generated by new atomic code, or converted to UPF format
     Using radial grid of  899 points,  6 beta functions with:
                l(1) =   0
                l(2) =   0
                l(3) =   1
                l(4) =   1
                l(5) =   2
                l(6) =   2
     Q(r) pseudized with  6 coefficients,  rinner =    1.000   1.000   1.000
                                                       1.000   1.000

     vdW kernel table read from file vdW_kernel_table
     MD5 check sum: 095c7af220d748ca6e76c0b4c6cfb241

     atomic species   valence    mass     pseudopotential
        Ir1           15.00   192.21700     Ir( 1.00)
        Bi1           15.00   208.98040     Bi( 1.00)

     No symmetry found

   Cartesian axes

     site n.     atom                  positions (alat units)
         1           Ir1 tau(   1) = (   0.0000000   0.0000000  10.0000000  )
         2           Bi1 tau(   2) = (   1.4415063   2.4967622  10.0000000  )
         3           Ir1 tau(   3) = (   2.8830127   0.0000000  10.0000000  )
         4           Ir1 tau(   4) = (   4.3245190   2.4967622  10.0000000  )
         5           Ir1 tau(   5) = (   5.7660253   3.3290163  12.3539700  )
         6           Bi1 tau(   6) = (   4.3245190   0.8322541  12.3539700  )
         7           Ir1 tau(   7) = (   2.8830127   3.3290163  12.3539700  )
         8           Ir1 tau(   8) = (   1.4415063   0.8322541  12.3539700  )
         9           Ir1 tau(   9) = (   2.8830127   1.6645081  14.7079400  )
        10           Bi1 tau(  10) = (   4.3245190   4.1612703  14.7079400  )
        11           Ir1 tau(  11) = (   5.7660253   1.6645081  14.7079400  )
        12           Ir1 tau(  12) = (   7.2075317   4.1612703  14.7079400  )

     number of k points=    20  Fermi-Dirac smearing, width (Ry)=  0.0110
                       cart. coord. in units 2pi/alat
        k(    1) = (   0.0000000   0.0000000   0.0000000), wk =   0.0555556
        k(    2) = (   0.0000000   0.0333766   0.0000000), wk =   0.1111111
        k(    3) = (   0.0000000   0.0667531   0.0000000), wk =   0.1111111
        k(    4) = (   0.0000000  -0.1001297   0.0000000), wk =   0.0555556
        k(    5) = (   0.0289049  -0.0166883   0.0000000), wk =   0.1111111
        k(    6) = (   0.0289049   0.0166883   0.0000000), wk =   0.1111111
        k(    7) = (   0.0289049   0.0500648   0.0000000), wk =   0.1111111
        k(    8) = (   0.0289049  -0.1168180   0.0000000), wk =   0.1111111
        k(    9) = (   0.0289049  -0.0834414   0.0000000), wk =   0.1111111
        k(   10) = (   0.0289049  -0.0500648   0.0000000), wk =   0.1111111
        k(   11) = (   0.0578099  -0.0333766   0.0000000), wk =   0.1111111
        k(   12) = (   0.0578099   0.0000000   0.0000000), wk =   0.1111111
        k(   13) = (   0.0578099   0.0333766   0.0000000), wk =   0.1111111
        k(   14) = (   0.0578099  -0.1335062   0.0000000), wk =   0.1111111
        k(   15) = (   0.0578099  -0.1001297   0.0000000), wk =   0.1111111
        k(   16) = (   0.0578099  -0.0667531   0.0000000), wk =   0.1111111
        k(   17) = (  -0.0867148   0.0500648   0.0000000), wk =   0.0555556
        k(   18) = (  -0.0867148   0.0834414   0.0000000), wk =   0.1111111
        k(   19) = (  -0.0867148   0.1168180   0.0000000), wk =   0.1111111
        k(   20) = (  -0.0867148  -0.0500648   0.0000000), wk =   0.0555556

     Largest allocated arrays     est. size (Mb)     dimensions
     Largest temporary arrays     est. size (Mb)     dimensions

     Initial potential from superposition of free atoms
     Check: negative starting charge=   -3.408006

     starting charge  172.49959, renormalised to  180.00000

     negative rho (up, down):  3.556E+00 0.000E+00

     *
     * You are using vdW-DF for exchange-correlation in this calculation.
     * Please cite the following three references that made this development
     * possible:
     *
     *   M. Dion, H. Rydberg, E. Schroder, D. C. Langreth, and
     *   B. I. Lundqvist, Phys. Rev. Lett. 92, 246401 (2004).
     *
     *   T. Thonhauser, V. R. Cooper, S. Li, A. Puzder, P. Hyldgaard, and
     *   D. C. Langreth, Phys. Rev. B 76, 125112 (2007).
     *
     *   G. Roman-Perez and J. M. Soler, Phys. Rev. Lett. 103, 096102 (2009).
     *
     *
     * If you are using vdW-DF2, please also cite:
     *
     *   K. Lee, E. D. Murray, L. Kong, B. I. Lundqvist, and
     *   D. C. Langreth, Phys. Rev. B 82, 081101(R) (2010).
     *
     *
     * If you are calculating the stress with vdW-DF, please also cite:
     *
     *   R. Sabatini, E. Kucukbenli, B. Kolb, T. Thonhauser, and
     *   S. de Gironcoli, J. Phys.: Condens. Matter 24, 424209 (2012).
     *

     Carrying out vdW-DF run using the following parameters:

     Nqs =      20    Nr_points =    1024   r_max =   100.000
     q_mesh =
               0.00001000     0.04494208     0.09755937     0.15916263
               0.23128650     0.31572767     0.41458969     0.53033537
               0.66584808     0.82450364     1.01025438     1.22772762
               1.48234092     1.78043706     2.12944203     2.53805004
               3.01644009     3.57652955     4.23227104     5.00000000

     Gradients computed in reciprocal space

     Adding external electric field

     Computed dipole along edir(3) :
        Dipole                0.0000 Ry au,          0.0000 Debye
        Dipole field          0.0000 Ry au

        Potential amp.       -0.0000 Ry
        Total length         45.5240 bohr

     Starting wfc are  135 randomized atomic wfcs

     Self-consistent Calculation

     iteration #  1     ecut=    36.75 Ry     beta=0.30
     Davidson diagonalization with overlap
     ethr =  1.00E-02,  avg # of iterations =  3.3

[...]

     total energy              =   -2207.51861862 Ry
     Harris-Foulkes estimate   =   -2214.48114951 Ry
     estimated scf accuracy    <      16.23327277 Ry

[...]

     End of self-consistent calculation

          k = 0.0000 0.0000 0.0000 ( 18067 PWs)   bands (ev):

   -46.9473 -46.8718 -46.8486 -46.8486 -46.8317 -46.8317 -46.6961 -46.6553
   -46.6551 -46.4813 -46.4748 -46.3584 -46.3583 -46.3490 -46.3489 -46.2403
   -46.2243 -46.2241 -46.2234 -46.2164 -46.2161 -46.2096 -46.2071 -46.1773
   -46.1771 -46.1744 -46.1743 -21.1937 -21.1937 -21.1473 -21.1435 -21.1435
   -21.1103 -21.1042 -21.0708 -21.0708 -21.0652 -21.0652 -21.0264 -21.0264
   -21.0256 -21.0256 -10.6189  -9.5150  -9.3301  -3.8813  -3.6037  -3.3139
    -2.8179  -2.8179  -2.2259  -2.2259  -2.2201  -2.2201  -2.1125  -2.0264
    -2.0264  -1.7541  -1.2789  -1.2788  -1.1791  -0.5621  -0.5590  -0.5590
    -0.1272  -0.1271  -0.0934  -0.0654  -0.0654   0.1707   0.2711   0.2712
     0.3452   0.8587   0.8588   1.0213   1.2382   1.2383   1.4155   1.4156
     1.4543   1.5697   1.6285   1.6984   1.6985   1.8811   1.8812   2.0980
     2.0982   2.5279   2.6699   2.7370   2.7371   2.9973   3.0763   3.0764
     3.1256   3.4437   3.4437   3.5821

[...]

          k =-0.0867 0.0501 0.0000 ( 18028 PWs)   bands (ev):

[...]

     the Fermi energy is     2.2780 ev

!    total energy              =   -2211.01327058 Ry
     Harris-Foulkes estimate   =   -2211.02685559 Ry
     estimated scf accuracy    <       0.00000315 Ry

     The total energy is the sum of the following terms:

     one-electron contribution =  -16374.42751894 Ry
     hartree contribution      =    8227.44002813 Ry
     xc contribution           =    -668.00453720 Ry
     ewald contribution        =    6604.05545396 Ry
     electric field correction =       0.00000002 Ry
     smearing contrib. (-TS)   =      -0.07669654 Ry

     convergence has been achieved in  15 iterations

 BEEF-vdW xc energy contributions
           1 :   -592.553129505403
           2 :    551.130641524260
           3 :   -477.337324379724
           4 :    386.139738646259
           5 :   -293.780426998838
           6 :    213.368835642789
           7 :   -152.031564259644
           8 :    110.309156466904
           9 :   -83.7081337134024
          10 :    65.5548137220898
          11 :   -49.9303663821327
          12 :    33.6024508643602
          13 :   -16.4397511473726
          14 :   0.475229638256451
          15 :    11.7116637879921
          16 :   -18.4927262992892
          17 :    19.9645044401865
          18 :   -17.8024721964885
          19 :    14.4199771204653
          20 :   -11.9246314220251
          21 :    11.3650086142377
          22 :   -12.5475242047219
          23 :    14.4055763663523
          24 :   -15.6727228403462
          25 :    15.5178992185743
          26 :   -13.8726590144995
          27 :    11.3542580521566
          28 :   -8.88564082926484
          29 :    7.23376733475425
          30 :   -6.69156645024407
          31 :   -49.6407212004451
          32 :   -37.0130222923260

     Forces acting on atoms (Ry/au):

     negative rho (up, down):  3.111E+00 0.000E+00
     atom    1 type  1   force =     0.01113300   -0.00645550    0.03530524
     atom    2 type  2   force =    -0.00001802   -0.00003092   -0.05217199
     atom    3 type  1   force =    -0.01113154   -0.00644488    0.03539001
     atom    4 type  1   force =     0.00000315    0.01289439    0.03539112
     atom    5 type  1   force =    -0.00001322    0.00000495   -0.00011087
     atom    6 type  2   force =     0.00009556   -0.00010905   -0.00011959
     atom    7 type  1   force =    -0.00000215    0.00009345   -0.00019314
     atom    8 type  1   force =    -0.00003772   -0.00002944   -0.00016539
     atom    9 type  1   force =    -0.01116061    0.00644795   -0.03534363
     atom   10 type  2   force =     0.00001041    0.00005994    0.05287039
     atom   11 type  1   force =     0.01114741    0.00649151   -0.03542367
     atom   12 type  1   force =    -0.00002626   -0.01292239   -0.03542848

     Total force =     0.083988     Total SCF correction =     0.010810
     SCF correction compared to forces is large: reduce conv_thr to get better values

     entering subroutine stress ...

     negative rho (up, down):  3.111E+00 0.000E+00
          total   stress  (Ry/bohr**3)                   (kbar)     P=  -23.57
  -0.00017247  -0.00000001   0.00000001        -25.37     -0.00      0.00
  -0.00000001  -0.00017234   0.00000004         -0.00    -25.35      0.01
   0.00000001   0.00000004  -0.00013582          0.00      0.01    -19.98

     BFGS Geometry Optimization

     number of scf cycles    =   1
     number of bfgs steps    =   0

     energy   new            =   -2211.0132705797 Ry

     new trust radius        =       0.0528704206 bohr
     new conv_thr            =       0.0000099958 Ry

ATOMIC_POSITIONS (crystal)
Ir1      0.000000000   0.000000000   0.404728197    0   0   0
Bi1      0.000000000   0.500000000   0.404728197    0   0   0
Ir1      0.500000000   0.000000000   0.404728197    0   0   0
Ir1      0.500000000   0.500000000   0.404728197    0   0   0
Ir1      0.666666667   0.666666667   0.500000000    0   0   0
Bi1      0.666666667   0.166666667   0.500000000    0   0   0
Ir1      0.166666667   0.666666667   0.500000000    0   0   0
Ir1      0.166666667   0.166666667   0.500000000    0   0   0
Ir1      0.331967414   0.334016640   0.594514838
Bi1      0.333331113   0.833339685   0.596404143
Ir1      0.834012426   0.334021256   0.594513124
Ir1      0.834015634   0.831963913   0.594513021

     Writing output data file calc.save
     Check: negative starting charge=   -3.408006
     NEW-OLD atomic charge density approx. for the potential
     Check: negative starting charge=   -3.411155

[...]

     Total force =     0.073325     Total SCF correction =     0.003917

[...]

     energy   old            =   -2211.0132705797 Ry
     energy   new            =   -2211.0333821556 Ry

     CASE: energy  _new < energy  _old

     WARNING: bfgs curvature condition failed, Theta= 0.918
     new trust radius        =       0.0581574627 bohr
     new conv_thr            =       0.0000001000 Ry

[...]

     WARNING: bfgs curvature condition failed, Theta= 0.998
     new trust radius        =       0.0103374131 bohr
     new conv_thr            =       0.0000001000 Ry

[...]

     Total force =     0.006238     Total SCF correction =     0.000348

[...]

     number of scf cycles    =  11
     number of bfgs steps    =  10

     energy   old            =   -2211.0581880422 Ry
     energy   new            =   -2211.0583567832 Ry

     CASE: energy  _new < energy  _old

     new trust radius        =       0.0523331538 bohr
     new conv_thr            =       0.0000001000 Ry

ATOMIC_POSITIONS (crystal)
Ir1      0.000000000   0.000000000   0.404728197    0   0   0
Bi1      0.000000000   0.500000000   0.404728197    0   0   0
Ir1      0.500000000   0.000000000   0.404728197    0   0   0
Ir1      0.500000000   0.500000000   0.404728197    0   0   0
Ir1      0.666666667   0.666666667   0.500000000    0   0   0
Bi1      0.666666667   0.166666667   0.500000000    0   0   0
Ir1      0.166666667   0.666666667   0.500000000    0   0   0
Ir1      0.166666667   0.166666667   0.500000000    0   0   0
Ir1      0.323319058   0.338333975   0.588907294
Bi1      0.333324650   0.833338721   0.607643212
Ir1      0.838352893   0.338337586   0.588909001
Ir1      0.838346757   0.823309471   0.588908769

     Writing output data file calc.save
     Check: negative starting charge=   -3.406815
     NEW-OLD atomic charge density approx. for the potential
     Check: negative starting charge=   -3.405842

[...]

     Self-consistent Calculation

[...]

     total energy              =   -2211.05847325 Ry
     Harris-Foulkes estimate   =   -2211.05847328 Ry
     estimated scf accuracy    <       0.00000017 Ry

     iteration # 12     ecut=    36.75 Ry     beta=0.30
     Davidson diagonalization with overlap
     ethr =  8.92E-11,  avg # of iterations =  1.1

[...]

     negative rho (up, down):  3.108E+00 0.000E+00

     Adding external electric field

     Computed dipole along edir(3) :
        Dipole                0.1235 Ry au,          0.3139 Debye
        Dipole field          0.0003 Ry au

        Potential amp.       -0.0294 Ry
        Total length         45.5240 bohr

     End of self-consistent calculation

[...]

          k = 0.0578-0.0668 0.0000 ( 18021 PWs)   bands (ev):

[...]

          k =-0.0867-0.0501 0.0000 ( 18028 PWs)   bands (ev):

   -46.7534 -46.7158 -46.6927 -46.6763 -46.6255 -46.6054 -46.6003 -46.5604
   -46.4683 -46.4011 -46.3110 -46.2812 -46.2549 -46.2420 -46.2267 -46.2037
   -46.2005 -46.1913 -46.1742 -46.1312 -46.0897 -46.0851 -46.0689 -46.0324
   -46.0223 -46.0188 -45.9948 -21.0937 -21.0877 -21.0782 -21.0538 -21.0515
   -21.0426 -21.0402 -21.0372 -20.9651 -20.9584 -20.8745 -20.8434 -20.8430
   -20.7983 -20.7888  -9.7677  -9.0796  -8.8397  -4.7948  -3.9005  -3.7343
    -3.5293  -2.5853  -2.2705  -2.1516  -2.0679  -2.0363  -2.0001  -1.7468
    -1.6436  -1.2823  -1.1594  -1.1173  -1.0962  -0.9827  -0.7996  -0.7632
    -0.4122  -0.2293  -0.1963  -0.1033   0.1210   0.2415   0.2965   0.3486
     0.3839   0.5428   0.6214   0.9472   0.9541   0.9755   1.1689   1.1993
     1.2967   1.3419   1.4091   1.5006   1.5752   1.6196   1.7614   1.8122
     2.2609   2.3048   2.4419   2.4645   2.8939   3.1685   3.4032   3.5013
     4.0120   4.1634   4.2832   4.7787

     the Fermi energy is     2.4619 ev

!    total energy              =   -2211.05847325 Ry
     Harris-Foulkes estimate   =   -2211.05847408 Ry
     estimated scf accuracy    <       0.00000004 Ry

     The total energy is the sum of the following terms:

     one-electron contribution =  -16462.14541197 Ry
     hartree contribution      =    8272.01088872 Ry
     xc contribution           =    -668.06885809 Ry
     ewald contribution        =    6647.21779740 Ry
     electric field correction =       0.00003993 Ry
     smearing contrib. (-TS)   =      -0.07292923 Ry

     convergence has been achieved in  12 iterations

 BEEF-vdW xc energy contributions
           1 :   -593.016692324439
           2 :    551.635708448675
           3 :   -477.896618723605
           4 :    386.727314400865
           5 :   -294.342616944715
           6 :    213.848846720320
           7 :   -152.396488668933
           8 :    110.567533436419
           9 :   -83.9100186151710
          10 :    65.7736700121505
          11 :   -50.2334086756244
          12 :    34.0215183548493
          13 :   -16.9555410720177
          14 :    1.02307820358590
          15 :    11.2148443419961
          16 :   -18.1100572091659
          17 :    19.7070569622678
          18 :   -17.6209532576285
          19 :    14.2253200506590
          20 :   -11.6276551933263
          21 :    10.9172217440167
          22 :   -11.9654089564398
          23 :    13.7668345946053
          24 :   -15.0836257758616
          25 :    15.0646273372996
          26 :   -13.5790485254353
          27 :    11.1678520651827
          28 :   -8.70096067759584
          29 :    6.94211630016275
          30 :   -6.23333492783945
          31 :   -49.6675398248904
          32 :   -37.0491126897277

     Forces acting on atoms (Ry/au):

     negative rho (up, down):  3.108E+00 0.000E+00
     atom    1 type  1   force =     0.01213727   -0.00700745    0.03673555
     atom    2 type  2   force =     0.00000217    0.00000869   -0.04675640
     atom    3 type  1   force =    -0.01213794   -0.00700656    0.03673390
     atom    4 type  1   force =    -0.00000118    0.01401685    0.03673634
     atom    5 type  1   force =    -0.01940646    0.01120760   -0.01128631
     atom    6 type  2   force =     0.00000707   -0.00002261   -0.03118047
     atom    7 type  1   force =     0.01940881    0.01121170   -0.01129239
     atom    8 type  1   force =    -0.00000334   -0.02241610   -0.01130254
     atom    9 type  1   force =    -0.00017803    0.00011824    0.00031524
     atom   10 type  2   force =     0.00000405   -0.00001834    0.00069034
     atom   11 type  1   force =     0.00017235    0.00012143    0.00030372
     atom   12 type  1   force =    -0.00000476   -0.00021346    0.00030301

     Total force =     0.000947     Total SCF correction =     0.000879
     SCF correction compared to forces is large: reduce conv_thr to get better values

     entering subroutine stress ...

     negative rho (up, down):  3.108E+00 0.000E+00
          total   stress  (Ry/bohr**3)                   (kbar)     P=  -21.20
  -0.00016944   0.00000000  -0.00000000        -24.93      0.00     -0.00
   0.00000000  -0.00016944  -0.00000000          0.00    -24.93     -0.00
  -0.00000000  -0.00000000  -0.00009346         -0.00     -0.00    -13.75

     bfgs converged in  12 scf cycles and  11 bfgs steps
     (criteria: energy <  1.0E+00, force <  1.9E-03)

     End of BFGS Geometry Optimization

     Final energy   =   -2211.0584732501 Ry
Begin final coordinates

ATOMIC_POSITIONS (crystal)
Ir1      0.000000000   0.000000000   0.404728197    0   0   0
Bi1      0.000000000   0.500000000   0.404728197    0   0   0
Ir1      0.500000000   0.000000000   0.404728197    0   0   0
Ir1      0.500000000   0.500000000   0.404728197    0   0   0
Ir1      0.666666667   0.666666667   0.500000000    0   0   0
Bi1      0.666666667   0.166666667   0.500000000    0   0   0
Ir1      0.166666667   0.666666667   0.500000000    0   0   0
Ir1      0.166666667   0.166666667   0.500000000    0   0   0
Ir1      0.323319058   0.338333975   0.588907294
Bi1      0.333324650   0.833338721   0.607643212
Ir1      0.838352893   0.338337586   0.588909001
Ir1      0.838346757   0.823309471   0.588908769
End final coordinates

     Writing output data file calc.save

     General routines

     Parallel routines

   This run was terminated on:  12:27: 8  26Feb2018

   JOB DONE.