     Program PWSCF v.5.1rc2 (svn rev. ) starts on 23Feb2018 at 17:27:10

     Current dimensions of program PWSCF are:
     Max number of different atomic species (ntypx) = 10
     Max number of k-points (npk) =  40000
     Max angular momentum in pseudopotentials (lmaxx) =  3
     Presently stress not available with electric field

     IMPORTANT: XC functional enforced from input :
     Exchange-correlation      = BEEF-VDW ( 1  4 27 13 2)
     Any further DFT definition will be discarded
     Please, verify this is what you really want

     Subspace diagonalization in iterative solution of the eigenvalue problem:
     a serial algorithm will be used

     bravais-lattice index     =            0
     lattice parameter (alat)  =       1.8897  a.u.
     unit-cell volume          =    5342.6418 (a.u.)^3
     number of atoms/cell      =           12
     number of atomic types    =            2
     number of electrons       =       162.00
     number of Kohn-Sham states=           91
     kinetic-energy cutoff     =      36.7493  Ry
     charge density cutoff     =     367.4932  Ry
     convergence threshold     =      1.0E-05
     mixing beta               =       0.3000
     number of iterations used =           10  plain     mixing
     Exchange-correlation      = BEEF-VDW ( 1  4 27 13 2)
     nstep                     =           50

     celldm(1)=   1.889726  celldm(2)=   0.000000  celldm(3)=   0.000000
     celldm(4)=   0.000000  celldm(5)=   0.000000  celldm(6)=   0.000000

     crystal axes: (cart. coord. in units of alat)
               a(1) = (   6.053962   0.000000   0.000000 )
               a(2) = (   3.026981   5.242885   0.000000 )
               a(3) = (   0.000000   0.000000  24.943040 )

     reciprocal axes: (cart. coord. in units 2 pi/alat)
               b(1) = (  0.165181 -0.095367  0.000000 )
               b(2) = (  0.000000  0.190735  0.000000 )
               b(3) = (  0.000000  0.000000  0.040091 )

     PseudoPot. # 1 for Nb read from file:
     /home/mamunm/src/pseudo/gbrv1.5pbe/Nb.UPF
     MD5 check sum: 573aab8a2fa660278ed4a62cd769473f
     Pseudo is Ultrasoft + core correction, Zval = 13.0
     Generated by new atomic code, or converted to UPF format
     Using radial grid of  887 points,  6 beta functions with:
                l(1) =   0
                l(2) =   0
                l(3) =   1
                l(4) =   1
                l(5) =   2
                l(6) =   2
     Q(r) pseudized with  6 coefficients,  rinner =    1.000   1.000   1.000
                                                       1.000   1.000

     PseudoPot. # 2 for Bi read from file:
     /home/mamunm/src/pseudo/gbrv1.5pbe/Bi.UPF
     MD5 check sum: 81103212dc04adf40945787f699eab19
     Pseudo is Ultrasoft + core correction, Zval = 15.0
     Generated by new atomic code, or converted to UPF format
     Using radial grid of  899 points,  6 beta functions with:
                l(1) =   0
                l(2) =   0
                l(3) =   1
                l(4) =   1
                l(5) =   2
                l(6) =   2
     Q(r) pseudized with  6 coefficients,  rinner =    1.000   1.000   1.000
                                                       1.000   1.000

     vdW kernel table read from file vdW_kernel_table
     MD5 check sum: 095c7af220d748ca6e76c0b4c6cfb241

     atomic species   valence    mass     pseudopotential
        Nb1           13.00    92.90637     Nb( 1.00)
        Bi1           15.00   208.98040     Bi( 1.00)

     No symmetry found

   Cartesian axes

     site n.     atom                  positions (alat units)
         1           Nb1 tau(   1) = (   0.0000000   0.0000000  10.0000000  )
         2           Bi1 tau(   2) = (   1.5134906   2.6214426  10.0000000  )
         3           Nb1 tau(   3) = (   3.0269812   0.0000000  10.0000000  )
         4           Nb1 tau(   4) = (   4.5404719   2.6214426  10.0000000  )
         5           Nb1 tau(   5) = (   6.0539625   3.4952569  12.4715198  )
         6           Bi1 tau(   6) = (   4.5404719   0.8738142  12.4715198  )
         7           Nb1 tau(   7) = (   3.0269812   3.4952569  12.4715198  )
         8           Nb1 tau(   8) = (   1.5134906   0.8738142  12.4715198  )
         9           Nb1 tau(   9) = (   3.0269812   1.7476284  14.9430397  )
        10           Bi1 tau(  10) = (   4.5404719   4.3690711  14.9430397  )
        11           Nb1 tau(  11) = (   6.0539625   1.7476284  14.9430397  )
        12           Nb1 tau(  12) = (   7.5674531   4.3690711  14.9430397  )

     number of k points=    20  Fermi-Dirac smearing, width (Ry)=  0.0110
                       cart. coord. in units 2pi/alat
        k(    1) = (   0.0000000   0.0000000   0.0000000), wk =   0.0555556
        k(    2) = (   0.0000000   0.0317891   0.0000000), wk =   0.1111111
        k(    3) = (   0.0000000   0.0635782   0.0000000), wk =   0.1111111
        k(    4) = (   0.0000000  -0.0953673   0.0000000), wk =   0.0555556
        k(    5) = (   0.0275302  -0.0158946   0.0000000), wk =   0.1111111
        k(    6) = (   0.0275302   0.0158946   0.0000000), wk =   0.1111111
        k(    7) = (   0.0275302   0.0476837   0.0000000), wk =   0.1111111
        k(    8) = (   0.0275302  -0.1112619   0.0000000), wk =   0.1111111
        k(    9) = (   0.0275302  -0.0794728   0.0000000), wk =   0.1111111
        k(   10) = (   0.0275302  -0.0476837   0.0000000), wk =   0.1111111
        k(   11) = (   0.0550604  -0.0317891   0.0000000), wk =   0.1111111
        k(   12) = (   0.0550604   0.0000000   0.0000000), wk =   0.1111111
        k(   13) = (   0.0550604   0.0317891   0.0000000), wk =   0.1111111
        k(   14) = (   0.0550604  -0.1271564   0.0000000), wk =   0.1111111
        k(   15) = (   0.0550604  -0.0953673   0.0000000), wk =   0.1111111
        k(   16) = (   0.0550604  -0.0635782   0.0000000), wk =   0.1111111
        k(   17) = (  -0.0825905   0.0476837   0.0000000), wk =   0.0555556
        k(   18) = (  -0.0825905   0.0794728   0.0000000), wk =   0.1111111
        k(   19) = (  -0.0825905   0.1112619   0.0000000), wk =   0.1111111
        k(   20) = (  -0.0825905  -0.0476837   0.0000000), wk =   0.0555556

     Largest allocated arrays     est. size (Mb)     dimensions
     Largest temporary arrays     est. size (Mb)     dimensions

     Initial potential from superposition of free atoms
     Check: negative starting charge=   -0.127599

     starting charge  158.97528, renormalised to  162.00000

     negative rho (up, down):  1.300E-01 0.000E+00

     *
     * You are using vdW-DF for exchange-correlation in this calculation.
     * Please cite the following three references that made this development
     * possible:
     *
     *   M. Dion, H. Rydberg, E. Schroder, D. C. Langreth, and
     *   B. I. Lundqvist, Phys. Rev. Lett. 92, 246401 (2004).
     *
     *   T. Thonhauser, V. R. Cooper, S. Li, A. Puzder, P. Hyldgaard, and
     *   D. C. Langreth, Phys. Rev. B 76, 125112 (2007).
     *
     *   G. Roman-Perez and J. M. Soler, Phys. Rev. Lett. 103, 096102 (2009).
     *
     *
     * If you are using vdW-DF2, please also cite:
     *
     *   K. Lee, E. D. Murray, L. Kong, B. I. Lundqvist, and
     *   D. C. Langreth, Phys. Rev. B 82, 081101(R) (2010).
     *
     *
     * If you are calculating the stress with vdW-DF, please also cite:
     *
     *   R. Sabatini, E. Kucukbenli, B. Kolb, T. Thonhauser, and
     *   S. de Gironcoli, J. Phys.: Condens. Matter 24, 424209 (2012).
     *

     Carrying out vdW-DF run using the following parameters:

     Nqs =      20    Nr_points =    1024   r_max =   100.000
     q_mesh =
               0.00001000     0.04494208     0.09755937     0.15916263
               0.23128650     0.31572767     0.41458969     0.53033537
               0.66584808     0.82450364     1.01025438     1.22772762
               1.48234092     1.78043706     2.12944203     2.53805004
               3.01644009     3.57652955     4.23227104     5.00000000

     Gradients computed in reciprocal space

     Adding external electric field

     Computed dipole along edir(3) :
        Dipole               -0.0000 Ry au,         -0.0000 Debye
        Dipole field         -0.0000 Ry au

        Potential amp.        0.0000 Ry
        Total length         45.9571 bohr

     Starting wfc are  144 randomized atomic wfcs

     Self-consistent Calculation

     iteration #  1     ecut=    36.75 Ry     beta=0.30
     Davidson diagonalization with overlap
     ethr =  1.00E-02,  avg # of iterations =  2.0

[...]

     total energy              =   -1627.77351803 Ry
     Harris-Foulkes estimate   =   -1628.81182265 Ry
     estimated scf accuracy    <       2.68517839 Ry

[...]

     End of self-consistent calculation

          k = 0.0000 0.0000 0.0000 ( 19951 PWs)   bands (ev):

   -53.1200 -53.1103 -53.0353 -53.0351 -53.0330 -53.0327 -52.9675 -52.8967
   -52.8947 -29.4041 -29.3757 -29.3756 -29.3669 -29.3599 -29.3323 -29.3316
   -29.3152 -29.3150 -29.3042 -29.1836 -29.1230 -29.1227 -29.0555 -29.0552
   -29.0327 -28.9910 -28.8367 -28.8296 -28.8285 -28.7927 -28.6754 -28.6752
   -28.6685 -28.6683 -28.6067 -28.6052 -21.3792 -21.3792 -21.3727 -21.3497
   -21.3496 -20.9305 -20.9235 -20.9165 -20.9165 -20.9127 -20.9127 -20.9016
   -20.9016 -20.8949 -20.8949 -10.0326  -9.2204  -9.1610  -2.2719  -1.8874
    -1.4986  -1.3516  -1.3513  -1.2351  -1.2351  -0.4441  -0.3513  -0.2820
    -0.2819  -0.0806  -0.0801   0.2406   0.2409   0.5104   0.5344   0.6164
     0.6164   0.9610   0.9611   1.1190   1.6115   1.6117   1.6414   1.6417
     2.0513   2.2479   2.3926   3.0133   3.2873   3.4368   3.4374   3.5044
     3.5604   3.5605   3.6201

[...]

          k =-0.0826 0.0477 0.0000 ( 20120 PWs)   bands (ev):

[...]

     the Fermi energy is     2.1668 ev

!    total energy              =   -1628.11653455 Ry
     Harris-Foulkes estimate   =   -1628.12356985 Ry
     estimated scf accuracy    <       0.00000395 Ry

     The total energy is the sum of the following terms:

     one-electron contribution =  -11871.04820793 Ry
     hartree contribution      =    5945.08548855 Ry
     xc contribution           =    -371.47559742 Ry
     ewald contribution        =    4669.40300489 Ry
     electric field correction =       0.00000001 Ry
     smearing contrib. (-TS)   =      -0.08122266 Ry

     convergence has been achieved in  13 iterations

 BEEF-vdW xc energy contributions
           1 :   -325.312460639763
           2 :    299.780912882327
           3 :   -255.384269071065
           4 :    202.734532388083
           5 :   -152.541044053068
           6 :    112.233013014357
           7 :   -84.3441380722428
           8 :    66.9550926454520
           9 :   -55.6636113146716
          10 :    45.9877579856158
          11 :   -35.1741424818383
          12 :    22.8096399512210
          13 :   -10.2826883505187
          14 :  -0.416686047424037
          15 :    7.87456361416270
          16 :   -11.8980189894182
          17 :    13.4336416239213
          18 :   -13.9477822778704
          19 :    14.6595524907356
          20 :   -16.0318922674771
          21 :    17.7217890525765
          22 :   -18.9377448630952
          23 :    18.9528841691554
          24 :   -17.5018412003698
          25 :    14.8911306751080
          26 :   -11.8262937495827
          27 :    9.07808256145097
          28 :   -7.16466989019659
          29 :    6.18196694755557
          30 :   -5.83690340907651
          31 :   -31.1194184348386
          32 :   -23.3283416176394

     Forces acting on atoms (Ry/au):

     negative rho (up, down):  1.437E-01 0.000E+00
     atom    1 type  1   force =     0.01561115   -0.00897350    0.02733710
     atom    2 type  2   force =     0.00043547    0.00020424   -0.06285672
     atom    3 type  1   force =    -0.01561021   -0.00901791    0.02731407
     atom    4 type  1   force =     0.00004633    0.01798254    0.02733515
     atom    5 type  1   force =     0.00001313    0.00001686   -0.00004622
     atom    6 type  2   force =     0.00002578    0.00010754    0.00005591
     atom    7 type  1   force =    -0.00001949   -0.00001510   -0.00003912
     atom    8 type  1   force =     0.00002518   -0.00001436   -0.00006704
     atom    9 type  1   force =    -0.01562216    0.00895182   -0.02740632
     atom   10 type  2   force =    -0.00046571   -0.00023572    0.06347883
     atom   11 type  1   force =     0.01561318    0.00900092   -0.02757745
     atom   12 type  1   force =    -0.00005266   -0.01800732   -0.02752818

     Total force =     0.085279     Total SCF correction =     0.006123

     entering subroutine stress ...

     negative rho (up, down):  1.437E-01 0.000E+00
          total   stress  (Ry/bohr**3)                   (kbar)     P=  -16.91
  -0.00015373  -0.00000001  -0.00000002        -22.61     -0.00     -0.00
  -0.00000001  -0.00015371   0.00000002         -0.00    -22.61      0.00
  -0.00000002   0.00000002  -0.00003749         -0.00      0.00     -5.52

     BFGS Geometry Optimization

     number of scf cycles    =   1
     number of bfgs steps    =   0

     energy   new            =   -1628.1165345505 Ry

     new trust radius        =       0.0634809721 bohr
     new conv_thr            =       0.0000099958 Ry

ATOMIC_POSITIONS (crystal)
Nb1      0.000000000   0.000000000   0.400913447    0   0   0
Bi1      0.000000000   0.500000000   0.400913447    0   0   0
Nb1      0.500000000   0.000000000   0.400913447    0   0   0
Nb1      0.500000000   0.500000000   0.400913447    0   0   0
Nb1      0.666666667   0.666666667   0.500000000    0   0   0
Bi1      0.666666667   0.166666667   0.500000000    0   0   0
Nb1      0.166666667   0.666666667   0.500000000    0   0   0
Nb1      0.166666667   0.166666667   0.500000000    0   0   0
Nb1      0.331516035   0.334236862   0.598505117
Bi1      0.333304522   0.833309541   0.600433284
Nb1      0.834243840   0.334241818   0.598501486
Nb1      0.834237492   0.831515810   0.598502531

     Writing output data file calc.save
     Check: negative starting charge=   -0.127599
     NEW-OLD atomic charge density approx. for the potential
     Check: negative starting charge=   -0.126628

[...]

     iteration #  1     ecut=    36.75 Ry     beta=0.30
     Davidson diagonalization with overlap
     c_bands:  1 eigenvalues not converged
     c_bands:  1 eigenvalues not converged
     c_bands:  1 eigenvalues not converged
     c_bands:  1 eigenvalues not converged
     c_bands:  1 eigenvalues not converged
     c_bands:  1 eigenvalues not converged
     ethr =  1.00E-06,  avg # of iterations = 13.4

[...]

     Total force =     0.074432     Total SCF correction =     0.009369
     SCF correction compared to forces is large: reduce conv_thr to get better values

[...]

     energy   old            =   -1628.1165345505 Ry
     energy   new            =   -1628.1303440945 Ry

     CASE: energy  _new < energy  _old

     WARNING: bfgs curvature condition failed, Theta= 0.919
     new trust radius        =       0.0952214582 bohr
     new conv_thr            =       0.0000001000 Ry

[...]

     iteration #  1     ecut=    36.75 Ry     beta=0.30
     Davidson diagonalization with overlap
     c_bands:  1 eigenvalues not converged
     ethr =  1.00E-06,  avg # of iterations = 13.4

[...]

     Total force =     0.004099     Total SCF correction =     0.000233

[...]

     number of scf cycles    =   9
     number of bfgs steps    =   8

     energy   old            =   -1628.1629522217 Ry
     energy   new            =   -1628.1631235924 Ry

     CASE: energy  _new < energy  _old

     new trust radius        =       0.0264617390 bohr
     new conv_thr            =       0.0000001000 Ry

ATOMIC_POSITIONS (crystal)
Nb1      0.000000000   0.000000000   0.400913447    0   0   0
Bi1      0.000000000   0.500000000   0.400913447    0   0   0
Nb1      0.500000000   0.000000000   0.400913447    0   0   0
Nb1      0.500000000   0.500000000   0.400913447    0   0   0
Nb1      0.666666667   0.666666667   0.500000000    0   0   0
Bi1      0.666666667   0.166666667   0.500000000    0   0   0
Nb1      0.166666667   0.666666667   0.500000000    0   0   0
Nb1      0.166666667   0.166666667   0.500000000    0   0   0
Nb1      0.308924357   0.345538184   0.594063096
Bi1      0.333306136   0.833344520   0.613411925
Nb1      0.845492881   0.345533934   0.594066569
Nb1      0.845498247   0.808963863   0.594064821

     Writing output data file calc.save
     Check: negative starting charge=   -0.127702
     NEW-OLD atomic charge density approx. for the potential
     Check: negative starting charge=   -0.127433

[...]

     Self-consistent Calculation

[...]

     total energy              =   -1628.16321969 Ry
     Harris-Foulkes estimate   =   -1628.16321971 Ry
     estimated scf accuracy    <       0.00000032 Ry

     iteration # 11     ecut=    36.75 Ry     beta=0.30
     Davidson diagonalization with overlap
     ethr =  1.95E-10,  avg # of iterations =  4.5

[...]

     negative rho (up, down):  1.424E-01 0.000E+00

     Adding external electric field

     Computed dipole along edir(3) :
        Dipole                0.0484 Ry au,          0.1231 Debye
        Dipole field          0.0001 Ry au

        Potential amp.       -0.0105 Ry
        Total length         45.9571 bohr

     End of self-consistent calculation

[...]

          k = 0.0551-0.0636 0.0000 ( 20112 PWs)   bands (ev):

[...]

          k =-0.0826-0.0477 0.0000 ( 20120 PWs)   bands (ev):

   -53.0387 -53.0127 -52.9853 -52.9336 -52.8570 -52.8320 -52.8219 -52.8074
   -52.7848 -29.3314 -29.3148 -29.2845 -29.2109 -29.1999 -29.1695 -29.1626
   -29.1364 -29.1067 -29.0900 -29.0880 -29.0443 -29.0370 -29.0140 -28.9373
   -28.8894 -28.8662 -28.8213 -28.8106 -28.7658 -28.6698 -28.6456 -28.6322
   -28.6084 -28.5775 -28.5252 -28.4794 -21.3214 -21.3078 -21.3028 -21.2926
   -21.2920 -20.9110 -20.8792 -20.8763 -20.8761 -20.8599 -20.8574 -20.8515
   -20.8501 -20.8458 -20.8424  -9.5478  -8.9321  -8.6919  -3.2047  -2.5790
    -2.2536  -2.2283  -1.3364  -1.0958  -0.9088  -0.8493  -0.7766  -0.6573
    -0.0780   0.3684   0.5441   0.6463   0.7996   0.8693   0.8990   1.0343
     1.1537   1.3534   1.4610   1.5700   1.6526   1.7137   1.8804   2.0800
     2.1117   2.2951   2.3289   2.3876   2.8145   3.0434   3.0536   3.3743
     3.4887   3.5030   3.5640

     the Fermi energy is     2.2231 ev

!    total energy              =   -1628.16321971 Ry
     Harris-Foulkes estimate   =   -1628.16321984 Ry
     estimated scf accuracy    <       0.00000008 Ry

     The total energy is the sum of the following terms:

     one-electron contribution =  -11850.36686324 Ry
     hartree contribution      =    5935.21560067 Ry
     xc contribution           =    -371.57218776 Ry
     ewald contribution        =    4658.64024500 Ry
     electric field correction =       0.00000552 Ry
     smearing contrib. (-TS)   =      -0.08001990 Ry

     convergence has been achieved in  11 iterations

 BEEF-vdW xc energy contributions
           1 :   -325.608737359814
           2 :    300.074960533408
           3 :   -255.670604008971
           4 :    202.999697255444
           5 :   -152.763046428028
           6 :    112.391104595352
           7 :   -84.4299326686357
           8 :    66.9784945027809
           9 :   -55.6522501332089
          10 :    45.9805080000385
          11 :   -35.2081124567986
          12 :    22.9024970138628
          13 :   -10.4179131589923
          14 :  -0.287126091049856
          15 :    7.80542536763619
          16 :   -11.9143047484623
          17 :    13.5073253352009
          18 :   -14.0063391734176
          19 :    14.6241090634898
          20 :   -15.8630251330263
          21 :    17.4449121227574
          22 :   -18.6329711169711
          23 :    18.7158719850329
          24 :   -17.3969924488247
          25 :    14.9212539965935
          26 :   -11.9330903729725
          27 :    9.17294226943488
          28 :   -7.17329746222089
          29 :    6.08042322402969
          30 :   -5.66123082998467
          31 :   -31.1372605541266
          32 :   -23.3422756213441

     Forces acting on atoms (Ry/au):

     negative rho (up, down):  1.424E-01 0.000E+00
     atom    1 type  1   force =     0.01339187   -0.00773053    0.02715523
     atom    2 type  2   force =    -0.00003156    0.00004127   -0.06189715
     atom    3 type  1   force =    -0.01338082   -0.00772451    0.02714134
     atom    4 type  1   force =     0.00000041    0.01544492    0.02713966
     atom    5 type  1   force =    -0.01437531    0.00829717   -0.00237252
     atom    6 type  2   force =    -0.00002243    0.00003429   -0.01337328
     atom    7 type  1   force =     0.01437992    0.00830679   -0.00238746
     atom    8 type  1   force =    -0.00000595   -0.01661010   -0.00238526
     atom    9 type  1   force =    -0.00038092    0.00020735   -0.00020690
     atom   10 type  2   force =     0.00002903   -0.00003895    0.00161198
     atom   11 type  1   force =     0.00039193    0.00020943   -0.00021837
     atom   12 type  1   force =     0.00000383   -0.00043711   -0.00020728

     Total force =     0.001820     Total SCF correction =     0.000973
     SCF correction compared to forces is large: reduce conv_thr to get better values

     entering subroutine stress ...

     negative rho (up, down):  1.424E-01 0.000E+00
          total   stress  (Ry/bohr**3)                   (kbar)     P=  -14.95
  -0.00014094   0.00000001   0.00000001        -20.73      0.00      0.00
   0.00000001  -0.00014093  -0.00000001          0.00    -20.73     -0.00
   0.00000001  -0.00000001  -0.00002308          0.00     -0.00     -3.40

     bfgs converged in  10 scf cycles and   9 bfgs steps
     (criteria: energy <  1.0E+00, force <  1.9E-03)

     End of BFGS Geometry Optimization

     Final energy   =   -1628.1632197147 Ry
Begin final coordinates

ATOMIC_POSITIONS (crystal)
Nb1      0.000000000   0.000000000   0.400913447    0   0   0
Bi1      0.000000000   0.500000000   0.400913447    0   0   0
Nb1      0.500000000   0.000000000   0.400913447    0   0   0
Nb1      0.500000000   0.500000000   0.400913447    0   0   0
Nb1      0.666666667   0.666666667   0.500000000    0   0   0
Bi1      0.666666667   0.166666667   0.500000000    0   0   0
Nb1      0.166666667   0.666666667   0.500000000    0   0   0
Nb1      0.166666667   0.166666667   0.500000000    0   0   0
Nb1      0.308924357   0.345538184   0.594063096
Bi1      0.333306136   0.833344520   0.613411925
Nb1      0.845492881   0.345533934   0.594066569
Nb1      0.845498247   0.808963863   0.594064821
End final coordinates

     Writing output data file calc.save

     General routines

     Parallel routines

   This run was terminated on:  18:10:19  23Feb2018

   JOB DONE.