     Program PWSCF v.5.1rc2 (svn rev. ) starts on 23Feb2018 at 17:34:12

     Current dimensions of program PWSCF are:
     Max number of different atomic species (ntypx) = 10
     Max number of k-points (npk) =  40000
     Max angular momentum in pseudopotentials (lmaxx) =  3
     Presently stress not available with electric field

     IMPORTANT: XC functional enforced from input :
     Exchange-correlation      = BEEF-VDW ( 1  4 27 13 2)
     Any further DFT definition will be discarded
     Please, verify this is what you really want

     Subspace diagonalization in iterative solution of the eigenvalue problem:
     a serial algorithm will be used

     bravais-lattice index     =            0
     lattice parameter (alat)  =       1.8897  a.u.
     unit-cell volume          =    6632.3344 (a.u.)^3
     number of atoms/cell      =           12
     number of atomic types    =            2
     number of electrons       =       183.00
     number of Kohn-Sham states=          101
     kinetic-energy cutoff     =      36.7493  Ry
     charge density cutoff     =     367.4932  Ry
     convergence threshold     =      1.0E-05
     mixing beta               =       0.3000
     number of iterations used =           10  plain     mixing
     Exchange-correlation      = BEEF-VDW ( 1  4 27 13 2)
     nstep                     =           50

     celldm(1)=   1.889726  celldm(2)=   0.000000  celldm(3)=   0.000000
     celldm(4)=   0.000000  celldm(5)=   0.000000  celldm(6)=   0.000000

     crystal axes: (cart. coord. in units of alat)
               a(1) = (   6.677408   0.000000   0.000000 )
               a(2) = (   3.338704   5.782805   0.000000 )
               a(3) = (   0.000000   0.000000  25.452081 )

     reciprocal axes: (cart. coord. in units 2 pi/alat)
               b(1) = (  0.149759 -0.086463  0.000000 )
               b(2) = (  0.000000  0.172926  0.000000 )
               b(3) = (  0.000000  0.000000  0.039290 )

     PseudoPot. # 1 for Bi read from file:
     /home/mamunm/src/pseudo/gbrv1.5pbe/Bi.UPF
     MD5 check sum: 81103212dc04adf40945787f699eab19
     Pseudo is Ultrasoft + core correction, Zval = 15.0
     Generated by new atomic code, or converted to UPF format
     Using radial grid of  899 points,  6 beta functions with:
                l(1) =   0
                l(2) =   0
                l(3) =   1
                l(4) =   1
                l(5) =   2
                l(6) =   2
     Q(r) pseudized with  6 coefficients,  rinner =    1.000   1.000   1.000
                                                       1.000   1.000

     PseudoPot. # 2 for Os read from file:
     /home/mamunm/src/pseudo/gbrv1.5pbe/Os.UPF
     MD5 check sum: a3fb40a04f0c37c25c34bbc47164c9a8
     Pseudo is Ultrasoft + core correction, Zval = 16.0
     Generated by new atomic code, or converted to UPF format
     Using radial grid of  983 points,  8 beta functions with:
                l(1) =   0
                l(2) =   0
                l(3) =   1
                l(4) =   1
                l(5) =   2
                l(6) =   2
                l(7) =   3
                l(8) =   3
     Q(r) pseudized with  8 coefficients,  rinner =    1.150   1.150   1.150
                                                       1.150   1.150   1.150
                                                       1.150

     vdW kernel table read from file vdW_kernel_table
     MD5 check sum: 095c7af220d748ca6e76c0b4c6cfb241

     atomic species   valence    mass     pseudopotential
        Bi1           15.00   208.98040     Bi( 1.00)
        Os1           16.00   190.23000     Os( 1.00)

     No symmetry found

   Cartesian axes

     site n.     atom                  positions (alat units)
         1           Bi1 tau(   1) = (   0.0000000   0.0000000  10.0000000  )
         2           Os1 tau(   2) = (   1.6693521   2.8914027  10.0000000  )
         3           Bi1 tau(   3) = (   3.3387042   0.0000000  10.0000000  )
         4           Bi1 tau(   4) = (   5.0080563   2.8914027  10.0000000  )
         5           Bi1 tau(   5) = (   6.6774085   3.8552036  12.7260406  )
         6           Os1 tau(   6) = (   5.0080563   0.9638009  12.7260406  )
         7           Bi1 tau(   7) = (   3.3387042   3.8552036  12.7260406  )
         8           Bi1 tau(   8) = (   1.6693521   0.9638009  12.7260406  )
         9           Bi1 tau(   9) = (   3.3387042   1.9276018  15.4520812  )
        10           Os1 tau(  10) = (   5.0080563   4.8190045  15.4520812  )
        11           Bi1 tau(  11) = (   6.6774085   1.9276018  15.4520812  )
        12           Bi1 tau(  12) = (   8.3467606   4.8190045  15.4520812  )

     number of k points=    20  Fermi-Dirac smearing, width (Ry)=  0.0110
                       cart. coord. in units 2pi/alat
        k(    1) = (   0.0000000   0.0000000   0.0000000), wk =   0.0555556
        k(    2) = (   0.0000000   0.0288211   0.0000000), wk =   0.1111111
        k(    3) = (   0.0000000   0.0576421   0.0000000), wk =   0.1111111
        k(    4) = (   0.0000000  -0.0864632   0.0000000), wk =   0.0555556
        k(    5) = (   0.0249598  -0.0144105   0.0000000), wk =   0.1111111
        k(    6) = (   0.0249598   0.0144105   0.0000000), wk =   0.1111111
        k(    7) = (   0.0249598   0.0432316   0.0000000), wk =   0.1111111
        k(    8) = (   0.0249598  -0.1008738   0.0000000), wk =   0.1111111
        k(    9) = (   0.0249598  -0.0720527   0.0000000), wk =   0.1111111
        k(   10) = (   0.0249598  -0.0432316   0.0000000), wk =   0.1111111
        k(   11) = (   0.0499196  -0.0288211   0.0000000), wk =   0.1111111
        k(   12) = (   0.0499196   0.0000000   0.0000000), wk =   0.1111111
        k(   13) = (   0.0499196   0.0288211   0.0000000), wk =   0.1111111
        k(   14) = (   0.0499196  -0.1152843   0.0000000), wk =   0.1111111
        k(   15) = (   0.0499196  -0.0864632   0.0000000), wk =   0.1111111
        k(   16) = (   0.0499196  -0.0576421   0.0000000), wk =   0.1111111
        k(   17) = (  -0.0748793   0.0432316   0.0000000), wk =   0.0555556
        k(   18) = (  -0.0748793   0.0720527   0.0000000), wk =   0.1111111
        k(   19) = (  -0.0748793   0.1008738   0.0000000), wk =   0.1111111
        k(   20) = (  -0.0748793  -0.0432316   0.0000000), wk =   0.0555556

     Largest allocated arrays     est. size (Mb)     dimensions
     Largest temporary arrays     est. size (Mb)     dimensions

     Initial potential from superposition of free atoms
     Check: negative starting charge=   -0.751779

     starting charge  172.49952, renormalised to  183.00000

     negative rho (up, down):  7.975E-01 0.000E+00

     *
     * You are using vdW-DF for exchange-correlation in this calculation.
     * Please cite the following three references that made this development
     * possible:
     *
     *   M. Dion, H. Rydberg, E. Schroder, D. C. Langreth, and
     *   B. I. Lundqvist, Phys. Rev. Lett. 92, 246401 (2004).
     *
     *   T. Thonhauser, V. R. Cooper, S. Li, A. Puzder, P. Hyldgaard, and
     *   D. C. Langreth, Phys. Rev. B 76, 125112 (2007).
     *
     *   G. Roman-Perez and J. M. Soler, Phys. Rev. Lett. 103, 096102 (2009).
     *
     *
     * If you are using vdW-DF2, please also cite:
     *
     *   K. Lee, E. D. Murray, L. Kong, B. I. Lundqvist, and
     *   D. C. Langreth, Phys. Rev. B 82, 081101(R) (2010).
     *
     *
     * If you are calculating the stress with vdW-DF, please also cite:
     *
     *   R. Sabatini, E. Kucukbenli, B. Kolb, T. Thonhauser, and
     *   S. de Gironcoli, J. Phys.: Condens. Matter 24, 424209 (2012).
     *

     Carrying out vdW-DF run using the following parameters:

     Nqs =      20    Nr_points =    1024   r_max =   100.000
     q_mesh =
               0.00001000     0.04494208     0.09755937     0.15916263
               0.23128650     0.31572767     0.41458969     0.53033537
               0.66584808     0.82450364     1.01025438     1.22772762
               1.48234092     1.78043706     2.12944203     2.53805004
               3.01644009     3.57652955     4.23227104     5.00000000

     Gradients computed in reciprocal space

     Adding external electric field

     Computed dipole along edir(3) :
        Dipole                0.0000 Ry au,          0.0000 Debye
        Dipole field          0.0000 Ry au

        Potential amp.       -0.0000 Ry
        Total length         46.8950 bohr

     Starting wfc are  120 randomized atomic wfcs

     Self-consistent Calculation

     iteration #  1     ecut=    36.75 Ry     beta=0.30
     Davidson diagonalization with overlap
     ethr =  1.00E-02,  avg # of iterations =  3.0

[...]

     total energy              =   -2282.03950308 Ry
     Harris-Foulkes estimate   =   -2285.63675446 Ry
     estimated scf accuracy    <       8.02986759 Ry

[...]

     End of self-consistent calculation

          k = 0.0000 0.0000 0.0000 ( 24837 PWs)   bands (ev):

   -84.1428 -83.8770 -83.8756 -43.5160 -43.4079 -43.4079 -43.2209 -43.2209
   -43.2196 -43.2196 -43.1302 -43.1292 -22.1933 -22.1774 -22.1774 -22.1436
   -22.0853 -22.0853 -22.0687 -22.0651 -22.0619 -22.0619 -22.0485 -22.0359
   -22.0271 -22.0271 -21.9950 -21.9950 -21.9901 -21.9901 -21.9801 -21.9670
   -21.9670 -21.9510 -21.9195 -21.9195 -21.9001 -21.8951 -21.8915 -21.8915
   -21.8869 -21.8734 -21.8734 -21.8594 -21.8487 -21.8486 -21.8447 -21.8447
   -21.8416 -21.8416 -21.8415 -21.8414 -21.8236 -21.8204 -21.8204 -21.7746
   -21.7739 -11.9006 -10.8656  -9.7823  -9.1404  -9.1404  -8.5256  -8.5256
    -7.9901  -7.9901  -4.0224  -3.3873  -2.9686  -2.5303  -2.5303  -2.4029
    -1.7944  -1.7944  -1.3745  -1.3745  -1.1285   0.0557   0.0557   0.2891
     0.2891   0.5315   0.6829   0.6942   0.6942   0.6960   0.9458   0.9458
     0.9933   0.9933   1.0335   1.0618   1.0618   1.1101   2.1720   2.5312
     2.5312   2.5892   2.5892   3.0307   3.6510

[...]

          k =-0.0749 0.0432 0.0000 ( 25002 PWs)   bands (ev):

[...]

     the Fermi energy is     1.3966 ev

!    total energy              =   -2283.09527109 Ry
     Harris-Foulkes estimate   =   -2283.09527208 Ry
     estimated scf accuracy    <       0.00000208 Ry

     The total energy is the sum of the following terms:

     one-electron contribution =  -12206.23548514 Ry
     hartree contribution      =    6139.63626881 Ry
     xc contribution           =    -714.97093709 Ry
     ewald contribution        =    4498.54885426 Ry
     electric field correction =       0.00000000 Ry
     smearing contrib. (-TS)   =      -0.07397193 Ry

     convergence has been achieved in  14 iterations

 BEEF-vdW xc energy contributions
           1 :   -635.713831096405
           2 :    590.305112073754
           3 :   -510.249484603201
           4 :    413.105116695103
           5 :   -317.370840360382
           6 :    237.053124123454
           7 :   -178.459241254576
           8 :    140.046091277038
           9 :   -115.013472409733
          10 :    95.2854424885479
          11 :   -75.1097487247155
          12 :    52.8659199778602
          13 :   -30.6438423386217
          14 :    12.1867436166110
          15 :  -0.437899461460574
          16 :   -4.09284451942221
          17 :    3.48737064408215
          18 :   -1.24097533935662
          19 :   0.499498461530493
          20 :   -2.65922316601234
          21 :    6.98846311415673
          22 :   -11.3579053829218
          23 :    13.5944775753244
          24 :   -12.7055239262395
          25 :    9.35624128769393
          26 :   -5.42562952340631
          27 :    2.94905514375455
          28 :   -3.04820811876175
          29 :    5.40704194062573
          30 :   -8.53185369517360
          31 :   -52.1519645512531
          32 :   -38.5482106755404

     Forces acting on atoms (Ry/au):

     negative rho (up, down):  7.354E-01 0.000E+00
     atom    1 type  1   force =    -0.03094165    0.01785807   -0.00041678
     atom    2 type  2   force =     0.00000372   -0.00000383    0.05485285
     atom    3 type  1   force =     0.03093833    0.01785830   -0.00041462
     atom    4 type  1   force =    -0.00000030   -0.03572357   -0.00040937
     atom    5 type  1   force =     0.00017985   -0.00010235   -0.00003630
     atom    6 type  2   force =     0.00001913    0.00000812   -0.00020420
     atom    7 type  1   force =    -0.00017922   -0.00010934   -0.00004267
     atom    8 type  1   force =     0.00000363    0.00020580   -0.00003784
     atom    9 type  1   force =     0.03105058   -0.01793293    0.00054497
     atom   10 type  2   force =    -0.00001457    0.00000806   -0.05492568
     atom   11 type  1   force =    -0.03105312   -0.01791988    0.00054521
     atom   12 type  1   force =    -0.00000639    0.03585354    0.00054444

     Total force =     0.082912     Total SCF correction =     0.002954

     entering subroutine stress ...

     negative rho (up, down):  7.354E-01 0.000E+00
          total   stress  (Ry/bohr**3)                   (kbar)     P=  -13.72
  -0.00009052  -0.00000000   0.00000000        -13.32     -0.00      0.00
  -0.00000000  -0.00009052  -0.00000000         -0.00    -13.32     -0.00
   0.00000000  -0.00000000  -0.00009879          0.00     -0.00    -14.53

     BFGS Geometry Optimization

     number of scf cycles    =   1
     number of bfgs steps    =   0

     energy   new            =   -2283.0952710941 Ry

     new trust radius        =       0.0549256855 bohr
     new conv_thr            =       0.0000099958 Ry

ATOMIC_POSITIONS (crystal)
Bi1      0.000000000   0.000000000   0.392895180    0   0   0
Os1      0.000000000   0.500000000   0.392895180    0   0   0
Bi1      0.500000000   0.000000000   0.392895180    0   0   0
Bi1      0.500000000   0.500000000   0.392895180    0   0   0
Bi1      0.666666667   0.666666667   0.500000000    0   0   0
Os1      0.666666667   0.166666667   0.500000000    0   0   0
Bi1      0.166666667   0.666666667   0.500000000    0   0   0
Bi1      0.166666667   0.166666667   0.500000000    0   0   0
Bi1      0.336614568   0.331692313   0.607116151
Os1      0.333331810   0.833334071   0.605962854
Bi1      0.831692321   0.331693507   0.607116156
Bi1      0.831692371   0.836614245   0.607116140

     Writing output data file calc.save
     Check: negative starting charge=   -0.751779
     NEW-OLD atomic charge density approx. for the potential
     Check: negative starting charge=   -0.751674

[...]

     energy   old            =   -2283.0952710941 Ry
     energy   new            =   -2283.1017925065 Ry

     CASE: energy  _new < energy  _old

     WARNING: bfgs curvature condition failed, Theta= 0.865
     new trust radius        =       0.0823885282 bohr
     new conv_thr            =       0.0000001000 Ry

[...]

     Total force =     0.009949     Total SCF correction =     0.000561

[...]

     Total force =     0.008623     Total SCF correction =     0.001316
     SCF correction compared to forces is large: reduce conv_thr to get better values

[...]

     number of scf cycles    =  14
     number of bfgs steps    =  13

     energy   old            =   -2283.1576856299 Ry
     energy   new            =   -2283.1579104991 Ry

     CASE: energy  _new < energy  _old

     new trust radius        =       0.0172335593 bohr
     new conv_thr            =       0.0000001000 Ry

ATOMIC_POSITIONS (crystal)
Bi1      0.000000000   0.000000000   0.392895180    0   0   0
Os1      0.000000000   0.500000000   0.392895180    0   0   0
Bi1      0.500000000   0.000000000   0.392895180    0   0   0
Bi1      0.500000000   0.500000000   0.392895180    0   0   0
Bi1      0.666666667   0.666666667   0.500000000    0   0   0
Os1      0.666666667   0.166666667   0.500000000    0   0   0
Bi1      0.166666667   0.666666667   0.500000000    0   0   0
Bi1      0.166666667   0.166666667   0.500000000    0   0   0
Bi1      0.354770598   0.322609306   0.602158332
Os1      0.333310547   0.833346420   0.580910923
Bi1      0.822618346   0.322612010   0.602158486
Bi1      0.822625807   0.854767301   0.602158629

     Writing output data file calc.save
     Check: negative starting charge=   -0.751158
     NEW-OLD atomic charge density approx. for the potential
     Check: negative starting charge=   -0.751273

[...]

     Self-consistent Calculation

[...]

     total energy              =   -2283.15799338 Ry
     Harris-Foulkes estimate   =   -2283.15799338 Ry
     estimated scf accuracy    <       0.00000048 Ry

     iteration # 10     ecut=    36.75 Ry     beta=0.30
     Davidson diagonalization with overlap
     ethr =  2.62E-10,  avg # of iterations =  3.0

[...]

     negative rho (up, down):  7.376E-01 0.000E+00

     Adding external electric field

     Computed dipole along edir(3) :
        Dipole                0.1165 Ry au,          0.2961 Debye
        Dipole field          0.0002 Ry au

        Potential amp.       -0.0207 Ry
        Total length         46.8950 bohr

     End of self-consistent calculation

[...]

          k = 0.0499-0.0576 0.0000 ( 24958 PWs)   bands (ev):

[...]

          k =-0.0749-0.0432 0.0000 ( 25002 PWs)   bands (ev):

   -84.0465 -83.8355 -83.7510 -43.4374 -43.3091 -43.3091 -43.2288 -43.1675
   -43.1675 -43.1018 -43.1017 -43.0050 -22.0730 -22.0220 -22.0043 -22.0040
   -21.9992 -21.9837 -21.9759 -21.9606 -21.9577 -21.9362 -21.9293 -21.9206
   -21.9005 -21.8923 -21.8849 -21.8761 -21.8709 -21.8600 -21.8449 -21.8397
   -21.8330 -21.8298 -21.8267 -21.8234 -21.8205 -21.8140 -21.8104 -21.8048
   -21.7934 -21.7930 -21.7905 -21.7888 -21.7829 -21.7808 -21.7764 -21.7723
   -21.7548 -21.7527 -21.7503 -21.7414 -21.7403 -21.7254 -21.7209 -21.7161
   -21.6883 -11.1174 -10.9363 -10.1798  -9.5436  -9.3623  -9.2153  -8.6244
    -8.4782  -7.8035  -3.7638  -3.2463  -2.5594  -1.8043  -1.6166  -1.4373
    -1.3466  -1.2869  -1.1756  -0.9273  -0.8090  -0.6108  -0.2532  -0.0719
     0.0227   0.3789   0.5175   0.6178   0.7119   0.8775   0.9154   0.9475
     0.9690   1.0896   1.2164   1.2572   1.4992   1.8098   1.9118   2.2268
     2.5134   2.9023   3.0201   3.3096   3.3100

     the Fermi energy is     1.4963 ev

!    total energy              =   -2283.15799344 Ry
     Harris-Foulkes estimate   =   -2283.15799343 Ry
     estimated scf accuracy    <       0.00000005 Ry

     The total energy is the sum of the following terms:

     one-electron contribution =  -12667.64812640 Ry
     hartree contribution      =    6370.92071912 Ry
     xc contribution           =    -715.34577048 Ry
     ewald contribution        =    4728.98770791 Ry
     electric field correction =       0.00002572 Ry
     smearing contrib. (-TS)   =      -0.07254931 Ry

     convergence has been achieved in  10 iterations

 BEEF-vdW xc energy contributions
           1 :   -636.101287408024
           2 :    590.858013882869
           3 :   -511.022271743318
           4 :    413.986393268183
           5 :   -318.123427161356
           6 :    237.434374493204
           7 :   -178.355401887639
           8 :    139.545859978493
           9 :   -114.378919374248
          10 :    94.8321917440010
          11 :   -75.0562914422098
          12 :    53.2294091362321
          13 :   -31.2358632918435
          14 :    12.7114007793998
          15 :  -0.642362419711844
          16 :   -4.29162778200362
          17 :    3.96379956047861
          18 :   -1.72892545144600
          19 :   0.731000853771775
          20 :   -2.50141364735828
          21 :    6.50912563477345
          22 :   -10.7871987680055
          23 :    13.2029506115532
          24 :   -12.6631455121958
          25 :    9.64705629740956
          26 :   -5.86135916872638
          27 :    3.27214133529264
          28 :   -3.06864048975751
          29 :    5.10056281575123
          30 :   -8.04874070927372
          31 :   -52.1821792995203
          32 :   -38.6185094743929

     Forces acting on atoms (Ry/au):

     negative rho (up, down):  7.376E-01 0.000E+00
     atom    1 type  1   force =    -0.02681082    0.01547916    0.00076248
     atom    2 type  2   force =    -0.00000140    0.00000148    0.03152981
     atom    3 type  1   force =     0.02681147    0.01547928    0.00076258
     atom    4 type  1   force =     0.00000040   -0.03095912    0.00076257
     atom    5 type  1   force =     0.00785296   -0.00453326   -0.01543962
     atom    6 type  2   force =     0.00000069   -0.00000100    0.01235840
     atom    7 type  1   force =    -0.00785789   -0.00453910   -0.01545279
     atom    8 type  1   force =    -0.00000005    0.00907536   -0.01545456
     atom    9 type  1   force =     0.00079934   -0.00046366   -0.00000332
     atom   10 type  2   force =    -0.00000395    0.00000336    0.00017825
     atom   11 type  1   force =    -0.00079475   -0.00046098   -0.00000206
     atom   12 type  1   force =     0.00000401    0.00091847   -0.00000174

     Total force =     0.001604     Total SCF correction =     0.000217
     SCF correction compared to forces is large: reduce conv_thr to get better values

     entering subroutine stress ...

     negative rho (up, down):  7.376E-01 0.000E+00
          total   stress  (Ry/bohr**3)                   (kbar)     P=   -4.65
  -0.00002672   0.00000000   0.00000001         -3.93      0.00      0.00
   0.00000000  -0.00002672  -0.00000000          0.00     -3.93     -0.00
   0.00000001  -0.00000000  -0.00004133          0.00     -0.00     -6.08

     bfgs converged in  15 scf cycles and  14 bfgs steps
     (criteria: energy <  1.0E+00, force <  1.9E-03)

     End of BFGS Geometry Optimization

     Final energy   =   -2283.1579934402 Ry
Begin final coordinates

ATOMIC_POSITIONS (crystal)
Bi1      0.000000000   0.000000000   0.392895180    0   0   0
Os1      0.000000000   0.500000000   0.392895180    0   0   0
Bi1      0.500000000   0.000000000   0.392895180    0   0   0
Bi1      0.500000000   0.500000000   0.392895180    0   0   0
Bi1      0.666666667   0.666666667   0.500000000    0   0   0
Os1      0.666666667   0.166666667   0.500000000    0   0   0
Bi1      0.166666667   0.666666667   0.500000000    0   0   0
Bi1      0.166666667   0.166666667   0.500000000    0   0   0
Bi1      0.354770598   0.322609306   0.602158332
Os1      0.333310547   0.833346420   0.580910923
Bi1      0.822618346   0.322612010   0.602158486
Bi1      0.822625807   0.854767301   0.602158629
End final coordinates

     Writing output data file calc.save

     General routines

     Parallel routines

   This run was terminated on:  18:54:30  23Feb2018

   JOB DONE.