     Program PWSCF v.5.1rc2 (svn rev. ) starts on 23Feb2018 at 17:53:23

     Current dimensions of program PWSCF are:
     Max number of different atomic species (ntypx) = 10
     Max number of k-points (npk) =  40000
     Max angular momentum in pseudopotentials (lmaxx) =  3
     Presently stress not available with electric field

     IMPORTANT: XC functional enforced from input :
     Exchange-correlation      = BEEF-VDW ( 1  4 27 13 2)
     Any further DFT definition will be discarded
     Please, verify this is what you really want

     Subspace diagonalization in iterative solution of the eigenvalue problem:
     a serial algorithm will be used

     bravais-lattice index     =            0
     lattice parameter (alat)  =       1.8897  a.u.
     unit-cell volume          =    6690.0081 (a.u.)^3
     number of atoms/cell      =           12
     number of atomic types    =            2
     number of electrons       =       180.00
     number of Kohn-Sham states=          100
     kinetic-energy cutoff     =      36.7493  Ry
     charge density cutoff     =     367.4932  Ry
     convergence threshold     =      1.0E-05
     mixing beta               =       0.3000
     number of iterations used =           10  plain     mixing
     Exchange-correlation      = BEEF-VDW ( 1  4 27 13 2)
     nstep                     =           50

     celldm(1)=   1.889726  celldm(2)=   0.000000  celldm(3)=   0.000000
     celldm(4)=   0.000000  celldm(5)=   0.000000  celldm(6)=   0.000000

     crystal axes: (cart. coord. in units of alat)
               a(1) = (   6.703566   0.000000   0.000000 )
               a(2) = (   3.351783   5.805459   0.000000 )
               a(3) = (   0.000000   0.000000  25.473439 )

     reciprocal axes: (cart. coord. in units 2 pi/alat)
               b(1) = (  0.149174 -0.086126  0.000000 )
               b(2) = (  0.000000  0.172252 -0.000000 )
               b(3) = (  0.000000  0.000000  0.039257 )

     PseudoPot. # 1 for Bi read from file:
     /home/mamunm/src/pseudo/gbrv1.5pbe/Bi.UPF
     MD5 check sum: 81103212dc04adf40945787f699eab19
     Pseudo is Ultrasoft + core correction, Zval = 15.0
     Generated by new atomic code, or converted to UPF format
     Using radial grid of  899 points,  6 beta functions with:
                l(1) =   0
                l(2) =   0
                l(3) =   1
                l(4) =   1
                l(5) =   2
                l(6) =   2
     Q(r) pseudized with  6 coefficients,  rinner =    1.000   1.000   1.000
                                                       1.000   1.000

     PseudoPot. # 2 for Ir read from file:
     /home/mamunm/src/pseudo/gbrv1.5pbe/Ir.UPF
     MD5 check sum: 8836f839c3459d2b385c504ce6d91f2c
     Pseudo is Ultrasoft + core correction, Zval = 15.0
     Generated by new atomic code, or converted to UPF format
     Using radial grid of  983 points,  7 beta functions with:
                l(1) =   0
                l(2) =   0
                l(3) =   1
                l(4) =   1
                l(5) =   1
                l(6) =   2
                l(7) =   2
     Q(r) pseudized with  8 coefficients,  rinner =    1.400   1.400   1.400
                                                       1.400   1.400

     vdW kernel table read from file vdW_kernel_table
     MD5 check sum: 095c7af220d748ca6e76c0b4c6cfb241

     atomic species   valence    mass     pseudopotential
        Bi1           15.00   208.98040     Bi( 1.00)
        Ir1           15.00   192.21700     Ir( 1.00)

     No symmetry found

   Cartesian axes

     site n.     atom                  positions (alat units)
         1           Bi1 tau(   1) = (   0.0000000   0.0000000  10.0000000  )
         2           Ir1 tau(   2) = (   1.6758916   2.9027294  10.0000000  )
         3           Bi1 tau(   3) = (   3.3517832   0.0000000  10.0000000  )
         4           Bi1 tau(   4) = (   5.0276748   2.9027294  10.0000000  )
         5           Bi1 tau(   5) = (   6.7035664   3.8703059  12.7367195  )
         6           Ir1 tau(   6) = (   5.0276748   0.9675765  12.7367195  )
         7           Bi1 tau(   7) = (   3.3517832   3.8703059  12.7367195  )
         8           Bi1 tau(   8) = (   1.6758916   0.9675765  12.7367195  )
         9           Bi1 tau(   9) = (   3.3517832   1.9351529  15.4734390  )
        10           Ir1 tau(  10) = (   5.0276748   4.8378823  15.4734390  )
        11           Bi1 tau(  11) = (   6.7035664   1.9351529  15.4734390  )
        12           Bi1 tau(  12) = (   8.3794580   4.8378823  15.4734390  )

     number of k points=    20  Fermi-Dirac smearing, width (Ry)=  0.0110
                       cart. coord. in units 2pi/alat
        k(    1) = (   0.0000000   0.0000000   0.0000000), wk =   0.0555556
        k(    2) = (   0.0000000   0.0287086  -0.0000000), wk =   0.1111111
        k(    3) = (   0.0000000   0.0574172  -0.0000000), wk =   0.1111111
        k(    4) = (   0.0000000  -0.0861258   0.0000000), wk =   0.0555556
        k(    5) = (   0.0248624  -0.0143543   0.0000000), wk =   0.1111111
        k(    6) = (   0.0248624   0.0143543  -0.0000000), wk =   0.1111111
        k(    7) = (   0.0248624   0.0430629  -0.0000000), wk =   0.1111111
        k(    8) = (   0.0248624  -0.1004801   0.0000000), wk =   0.1111111
        k(    9) = (   0.0248624  -0.0717715   0.0000000), wk =   0.1111111
        k(   10) = (   0.0248624  -0.0430629   0.0000000), wk =   0.1111111
        k(   11) = (   0.0497248  -0.0287086   0.0000000), wk =   0.1111111
        k(   12) = (   0.0497248   0.0000000   0.0000000), wk =   0.1111111
        k(   13) = (   0.0497248   0.0287086  -0.0000000), wk =   0.1111111
        k(   14) = (   0.0497248  -0.1148345   0.0000000), wk =   0.1111111
        k(   15) = (   0.0497248  -0.0861258   0.0000000), wk =   0.1111111
        k(   16) = (   0.0497248  -0.0574172   0.0000000), wk =   0.1111111
        k(   17) = (  -0.0745872   0.0430629  -0.0000000), wk =   0.0555556
        k(   18) = (  -0.0745872   0.0717715  -0.0000000), wk =   0.1111111
        k(   19) = (  -0.0745872   0.1004801  -0.0000000), wk =   0.1111111
        k(   20) = (  -0.0745872  -0.0430629   0.0000000), wk =   0.0555556

     Largest allocated arrays     est. size (Mb)     dimensions
     Largest temporary arrays     est. size (Mb)     dimensions

     Initial potential from superposition of free atoms
     Check: negative starting charge=   -1.467273

     starting charge  169.49953, renormalised to  180.00000

     negative rho (up, down):  1.558E+00 0.000E+00

     *
     * You are using vdW-DF for exchange-correlation in this calculation.
     * Please cite the following three references that made this development
     * possible:
     *
     *   M. Dion, H. Rydberg, E. Schroder, D. C. Langreth, and
     *   B. I. Lundqvist, Phys. Rev. Lett. 92, 246401 (2004).
     *
     *   T. Thonhauser, V. R. Cooper, S. Li, A. Puzder, P. Hyldgaard, and
     *   D. C. Langreth, Phys. Rev. B 76, 125112 (2007).
     *
     *   G. Roman-Perez and J. M. Soler, Phys. Rev. Lett. 103, 096102 (2009).
     *
     *
     * If you are using vdW-DF2, please also cite:
     *
     *   K. Lee, E. D. Murray, L. Kong, B. I. Lundqvist, and
     *   D. C. Langreth, Phys. Rev. B 82, 081101(R) (2010).
     *
     *
     * If you are calculating the stress with vdW-DF, please also cite:
     *
     *   R. Sabatini, E. Kucukbenli, B. Kolb, T. Thonhauser, and
     *   S. de Gironcoli, J. Phys.: Condens. Matter 24, 424209 (2012).
     *

     Carrying out vdW-DF run using the following parameters:

     Nqs =      20    Nr_points =    1024   r_max =   100.000
     q_mesh =
               0.00001000     0.04494208     0.09755937     0.15916263
               0.23128650     0.31572767     0.41458969     0.53033537
               0.66584808     0.82450364     1.01025438     1.22772762
               1.48234092     1.78043706     2.12944203     2.53805004
               3.01644009     3.57652955     4.23227104     5.00000000

     Gradients computed in reciprocal space

     Adding external electric field

     Computed dipole along edir(3) :
        Dipole                0.0000 Ry au,          0.0000 Debye
        Dipole field          0.0000 Ry au

        Potential amp.       -0.0000 Ry
        Total length         46.9344 bohr

     Starting wfc are  117 randomized atomic wfcs

     Self-consistent Calculation

     iteration #  1     ecut=    36.75 Ry     beta=0.30
     Davidson diagonalization with overlap
     ethr =  1.00E-02,  avg # of iterations =  3.9

[...]

     total energy              =   -2220.91468465 Ry
     Harris-Foulkes estimate   =   -2239.40610841 Ry
     estimated scf accuracy    <      39.78106333 Ry

[...]

     End of self-consistent calculation

          k = 0.0000 0.0000 0.0000 ( 25185 PWs)   bands (ev):

   -46.9991 -46.9008 -46.9008 -46.4775 -46.4775 -46.4772 -46.4772 -46.3640
   -46.3636 -22.3874 -22.3771 -22.3771 -22.3294 -22.2916 -22.2916 -22.2611
   -22.2577 -22.2573 -22.2573 -22.2245 -22.2194 -22.1955 -22.1955 -22.1884
   -22.1884 -22.1867 -22.1867 -22.1704 -22.1704 -22.1400 -22.1258 -22.1194
   -22.0875 -22.0875 -22.0697 -22.0628 -22.0619 -22.0619 -22.0429 -22.0429
   -22.0347 -22.0261 -22.0261 -22.0224 -22.0224 -22.0185 -22.0185 -22.0090
   -22.0090 -22.0076 -21.9947 -21.9947 -21.9470 -21.9461 -11.9797 -10.9461
    -9.9099  -9.2911  -9.2911  -8.6665  -8.6665  -8.1609  -8.1609  -4.0885
    -3.4654  -3.0356  -2.5969  -2.5969  -2.4911  -1.8898  -1.8898  -1.4740
    -1.4740  -1.2422  -0.3452  -0.3452  -0.0358   0.0071   0.0071   0.0568
     0.0568   0.4544   0.4544   0.4579   0.4808   0.4827   0.4827   0.5409
     0.5409   0.7307   0.7548   1.8200   2.1890   2.1890   2.2377   2.2377
     2.8734   3.4666   3.9870   3.9870

[...]

          k =-0.0746 0.0431-0.0000 ( 25230 PWs)   bands (ev):

[...]

     the Fermi energy is     1.2807 ev

!    total energy              =   -2234.02858704 Ry
     Harris-Foulkes estimate   =   -2234.02858698 Ry
     estimated scf accuracy    <       0.00000099 Ry

     The total energy is the sum of the following terms:

     one-electron contribution =  -11661.23200572 Ry
     hartree contribution      =    5879.11770327 Ry
     xc contribution           =    -754.84803498 Ry
     ewald contribution        =    4302.98827162 Ry
     electric field correction =       0.00000001 Ry
     smearing contrib. (-TS)   =      -0.05452125 Ry

     convergence has been achieved in  15 iterations

 BEEF-vdW xc energy contributions
           1 :   -672.140398322861
           2 :    624.539641062861
           3 :   -540.442457035283
           4 :    437.980692766107
           5 :   -336.295052458121
           6 :    249.966877905845
           7 :   -185.732507361164
           8 :    142.319407934070
           9 :   -113.069022489140
          10 :    89.9592964203341
          11 :   -67.2316483607532
          12 :    43.2097841890113
          13 :   -19.8822711082400
          14 :   0.858919882629493
          15 :    11.0548640314194
          16 :   -15.4577375805195
          17 :    14.4903666454072
          18 :   -11.6638621965188
          19 :    10.1297227327314
          20 :   -11.3225779008771
          21 :    14.6110330370266
          22 :   -18.0174873239355
          23 :    19.5158802425337
          24 :   -18.1811568682308
          25 :    14.6186255133082
          26 :   -10.5337038092109
          27 :    7.75245928892741
          28 :   -7.25790021123476
          29 :    8.74698027245972
          30 :   -10.8998469585097
          31 :   -54.3440483169729
          32 :   -40.0585728540802

     Forces acting on atoms (Ry/au):

     negative rho (up, down):  1.404E+00 0.000E+00
     atom    1 type  1   force =    -0.02438046    0.01408067    0.00106787
     atom    2 type  2   force =    -0.00000176    0.00000013    0.05518892
     atom    3 type  1   force =     0.02437858    0.01407607    0.00107101
     atom    4 type  1   force =     0.00000421   -0.02815466    0.00106301
     atom    5 type  1   force =     0.00003449   -0.00001713    0.00009463
     atom    6 type  2   force =     0.00000092   -0.00000158   -0.00019936
     atom    7 type  1   force =    -0.00003547   -0.00001700    0.00009753
     atom    8 type  1   force =    -0.00000054    0.00003837    0.00009246
     atom    9 type  1   force =     0.02432336   -0.01404805   -0.00101080
     atom   10 type  2   force =     0.00000118   -0.00000056   -0.05544733
     atom   11 type  1   force =    -0.02432556   -0.01404204   -0.00100974
     atom   12 type  1   force =     0.00000106    0.02808579   -0.00100819

     Total force =     0.073785     Total SCF correction =     0.002512

     entering subroutine stress ...

     negative rho (up, down):  1.404E+00 0.000E+00
          total   stress  (Ry/bohr**3)                   (kbar)     P=  -16.00
  -0.00010644   0.00000000  -0.00000000        -15.66      0.00     -0.00
   0.00000000  -0.00010644  -0.00000000          0.00    -15.66     -0.00
  -0.00000000  -0.00000000  -0.00011344         -0.00     -0.00    -16.69

     BFGS Geometry Optimization

     number of scf cycles    =   1
     number of bfgs steps    =   0

     energy   new            =   -2234.0285870416 Ry

     new trust radius        =       0.0554473308 bohr
     new conv_thr            =       0.0000099958 Ry

ATOMIC_POSITIONS (crystal)
Bi1      0.000000000   0.000000000   0.392565762    0   0   0
Ir1      0.000000000   0.500000000   0.392565762    0   0   0
Bi1      0.500000000   0.000000000   0.392565762    0   0   0
Bi1      0.500000000   0.500000000   0.392565762    0   0   0
Bi1      0.666666667   0.666666667   0.500000000    0   0   0
Ir1      0.666666667   0.166666667   0.500000000    0   0   0
Bi1      0.166666667   0.666666667   0.500000000    0   0   0
Bi1      0.166666667   0.166666667   0.500000000    0   0   0
Bi1      0.335893662   0.332052830   0.607413240
Ir1      0.333333452   0.833333283   0.606282393
Bi1      0.832053059   0.332053378   0.607413262
Bi1      0.832053383   0.835893400   0.607413294

     Writing output data file calc.save
     Check: negative starting charge=   -1.467273
     NEW-OLD atomic charge density approx. for the potential
     Check: negative starting charge=   -1.467813

[...]

     Total force =     0.071370     Total SCF correction =     0.009424
     SCF correction compared to forces is large: reduce conv_thr to get better values

[...]

     energy   old            =   -2234.0285870416 Ry
     energy   new            =   -2234.0338975339 Ry

     CASE: energy  _new < energy  _old

     WARNING: bfgs curvature condition failed, Theta= 0.830
     new trust radius        =       0.0831709962 bohr
     new conv_thr            =       0.0000001000 Ry

[...]

     iteration #  1     ecut=    36.75 Ry     beta=0.30
     Davidson diagonalization with overlap
     c_bands:  1 eigenvalues not converged
     c_bands:  1 eigenvalues not converged
     c_bands:  1 eigenvalues not converged
     ethr =  1.00E-06,  avg # of iterations = 12.5

[...]

     Total force =     0.009158     Total SCF correction =     0.000580

[...]

     number of scf cycles    =  14
     number of bfgs steps    =  13

     energy   old            =   -2234.0923900531 Ry
     energy   new            =   -2234.0927133755 Ry

     CASE: energy  _new < energy  _old

     new trust radius        =       0.0294833531 bohr
     new conv_thr            =       0.0000001000 Ry

ATOMIC_POSITIONS (crystal)
Bi1      0.000000000  -0.000000000   0.392565762    0   0   0
Ir1      0.000000000   0.500000000   0.392565762    0   0   0
Bi1      0.500000000  -0.000000000   0.392565762    0   0   0
Bi1      0.500000000   0.500000000   0.392565762    0   0   0
Bi1      0.666666667   0.666666667   0.500000000    0   0   0
Ir1      0.666666667   0.166666667   0.500000000    0   0   0
Bi1      0.166666667   0.666666667   0.500000000    0   0   0
Bi1      0.166666667   0.166666667   0.500000000    0   0   0
Bi1      0.355420665   0.322280852   0.602186636
Ir1      0.333335804   0.833334548   0.579291731
Bi1      0.822283945   0.322293563   0.602186670
Bi1      0.822295536   0.855417434   0.602187107

     Writing output data file calc.save
     Check: negative starting charge=   -1.466403
     NEW-OLD atomic charge density approx. for the potential
     Check: negative starting charge=   -1.466855

[...]

     Self-consistent Calculation

[...]

     total energy              =   -2234.09284206 Ry
     Harris-Foulkes estimate   =   -2234.09284232 Ry
     estimated scf accuracy    <       0.00000099 Ry

     iteration # 10     ecut=    36.75 Ry     beta=0.30
     Davidson diagonalization with overlap
     ethr =  5.50E-10,  avg # of iterations =  2.5

[...]

     negative rho (up, down):  1.404E+00 0.000E+00

     Adding external electric field

     Computed dipole along edir(3) :
        Dipole                0.1246 Ry au,          0.3167 Debye
        Dipole field          0.0002 Ry au

        Potential amp.       -0.0220 Ry
        Total length         46.9344 bohr

     End of self-consistent calculation

[...]

          k = 0.0497-0.0574 0.0000 ( 25163 PWs)   bands (ev):

[...]

          k =-0.0746-0.0431 0.0000 ( 25230 PWs)   bands (ev):

   -46.9799 -46.8343 -46.8343 -46.6972 -46.6506 -46.6506 -46.2639 -46.2638
   -46.0877 -22.2341 -22.1693 -22.1681 -22.1604 -22.1570 -22.1484 -22.1353
   -22.1194 -22.1130 -22.0986 -22.0832 -22.0816 -22.0693 -22.0596 -22.0571
   -22.0562 -22.0377 -22.0343 -22.0204 -22.0016 -21.9984 -21.9882 -21.9799
   -21.9776 -21.9746 -21.9679 -21.9615 -21.9567 -21.9545 -21.9514 -21.9473
   -21.9447 -21.9415 -21.9398 -21.9331 -21.9278 -21.9174 -21.9111 -21.9082
   -21.8981 -21.8951 -21.8864 -21.8786 -21.8760 -21.8433 -11.2027 -11.0270
   -10.2745  -9.6290  -9.4892  -9.3384  -8.7446  -8.6034  -7.9637  -3.8401
    -3.2792  -2.6491  -1.9720  -1.8392  -1.6169  -1.4819  -1.4415  -1.3406
    -1.1924  -0.9646  -0.9048  -0.6230  -0.3548  -0.2644   0.0698   0.0981
     0.1215   0.2675   0.3474   0.5576   0.6951   0.7329   0.7543   0.7959
     0.8853   1.2219   1.4026   1.4185   1.7491   2.1704   2.5895   2.7319
     2.9381   2.9643   3.2208   3.8463

     the Fermi energy is     1.4061 ev

!    total energy              =   -2234.09284207 Ry
     Harris-Foulkes estimate   =   -2234.09284237 Ry
     estimated scf accuracy    <       0.00000004 Ry

     The total energy is the sum of the following terms:

     one-electron contribution =  -12122.76689882 Ry
     hartree contribution      =    6110.52730275 Ry
     xc contribution           =    -755.23285564 Ry
     ewald contribution        =    4533.42852319 Ry
     electric field correction =       0.00002916 Ry
     smearing contrib. (-TS)   =      -0.04894270 Ry

     convergence has been achieved in  10 iterations

 BEEF-vdW xc energy contributions
           1 :   -672.541406156564
           2 :    625.117571331641
           3 :   -541.249866052933
           4 :    438.888381179415
           5 :   -337.041937723636
           6 :    250.295646727240
           7 :   -185.535086062916
           8 :    141.710804588103
           9 :   -112.347323739236
          10 :    89.4689875325740
          11 :   -67.1988200402091
          12 :    43.6337508241327
          13 :   -20.5395539685527
          14 :    1.41808094360272
          15 :    10.8655011435305
          16 :   -15.7143182047170
          17 :    15.0389774657027
          18 :   -12.2046284572123
          19 :    10.3745540348879
          20 :   -11.1432094470272
          21 :    14.1000542839562
          22 :   -17.4331655799037
          23 :    19.1436543443917
          24 :   -18.1863762926730
          25 :    14.9668172344836
          26 :   -11.0171401415284
          27 :    8.10573613142071
          28 :   -7.29915193549823
          29 :    8.46897671665045
          30 :   -10.4650053777448
          31 :   -54.3751444598312
          32 :   -40.1316687336595

     Forces acting on atoms (Ry/au):

     negative rho (up, down):  1.404E+00 0.000E+00
     atom    1 type  1   force =    -0.02423637    0.01399277    0.00264453
     atom    2 type  2   force =     0.00000021    0.00000002    0.02987480
     atom    3 type  1   force =     0.02423611    0.01399312    0.00264443
     atom    4 type  1   force =     0.00000019   -0.02798578    0.00264453
     atom    5 type  1   force =     0.00770914   -0.00444969   -0.01626103
     atom    6 type  2   force =    -0.00000015   -0.00000040    0.00875129
     atom    7 type  1   force =    -0.00770675   -0.00445072   -0.01625843
     atom    8 type  1   force =    -0.00000142    0.00890069   -0.01626171
     atom    9 type  1   force =     0.00116526   -0.00067552    0.00050338
     atom   10 type  2   force =     0.00000042    0.00000096    0.00071250
     atom   11 type  1   force =    -0.00116748   -0.00067277    0.00050283
     atom   12 type  1   force =     0.00000085    0.00134731    0.00050289

     Total force =     0.002591     Total SCF correction =     0.000782
     SCF correction compared to forces is large: reduce conv_thr to get better values

     entering subroutine stress ...

     negative rho (up, down):  1.404E+00 0.000E+00
          total   stress  (Ry/bohr**3)                   (kbar)     P=   -5.42
  -0.00003134  -0.00000000  -0.00000000         -4.61     -0.00     -0.00
  -0.00000000  -0.00003134   0.00000000         -0.00     -4.61      0.00
  -0.00000000   0.00000000  -0.00004778         -0.00      0.00     -7.03

     bfgs converged in  15 scf cycles and  14 bfgs steps
     (criteria: energy <  1.0E+00, force <  1.9E-03)

     End of BFGS Geometry Optimization

     Final energy   =   -2234.0928420660 Ry
Begin final coordinates

ATOMIC_POSITIONS (crystal)
Bi1      0.000000000  -0.000000000   0.392565762    0   0   0
Ir1      0.000000000   0.500000000   0.392565762    0   0   0
Bi1      0.500000000  -0.000000000   0.392565762    0   0   0
Bi1      0.500000000   0.500000000   0.392565762    0   0   0
Bi1      0.666666667   0.666666667   0.500000000    0   0   0
Ir1      0.666666667   0.166666667   0.500000000    0   0   0
Bi1      0.166666667   0.666666667   0.500000000    0   0   0
Bi1      0.166666667   0.166666667   0.500000000    0   0   0
Bi1      0.355420665   0.322280852   0.602186636
Ir1      0.333335804   0.833334548   0.579291731
Bi1      0.822283945   0.322293563   0.602186670
Bi1      0.822295536   0.855417434   0.602187107
End final coordinates

     Writing output data file calc.save

     General routines

     Parallel routines

   This run was terminated on:  19:24:16  23Feb2018

   JOB DONE.