     Program PWSCF v.5.1rc2 (svn rev. ) starts on 23Feb2018 at 18: 1: 7

     Current dimensions of program PWSCF are:
     Max number of different atomic species (ntypx) = 10
     Max number of k-points (npk) =  40000
     Max angular momentum in pseudopotentials (lmaxx) =  3
     Presently stress not available with electric field

     IMPORTANT: XC functional enforced from input :
     Exchange-correlation      = BEEF-VDW ( 1  4 27 13 2)
     Any further DFT definition will be discarded
     Please, verify this is what you really want

     Subspace diagonalization in iterative solution of the eigenvalue problem:
     a serial algorithm will be used

     bravais-lattice index     =            0
     lattice parameter (alat)  =       1.8897  a.u.
     unit-cell volume          =    7668.0937 (a.u.)^3
     number of atoms/cell      =           12
     number of atomic types    =            2
     number of electrons       =       174.00
     number of Kohn-Sham states=           97
     kinetic-energy cutoff     =      36.7493  Ry
     charge density cutoff     =     367.4932  Ry
     convergence threshold     =      1.0E-05
     mixing beta               =       0.3000
     number of iterations used =           10  plain     mixing
     Exchange-correlation      = BEEF-VDW ( 1  4 27 13 2)
     nstep                     =           50

     celldm(1)=   1.889726  celldm(2)=   0.000000  celldm(3)=   0.000000
     celldm(4)=   0.000000  celldm(5)=   0.000000  celldm(6)=   0.000000

     crystal axes: (cart. coord. in units of alat)
               a(1) = (   7.128507   0.000000   0.000000 )
               a(2) = (   3.564254   6.173468   0.000000 )
               a(3) = (   0.000000   0.000000  25.820402 )

     reciprocal axes: (cart. coord. in units 2 pi/alat)
               b(1) = (  0.140282 -0.080992  0.000000 )
               b(2) = (  0.000000  0.161983 -0.000000 )
               b(3) = (  0.000000  0.000000  0.038729 )

     PseudoPot. # 1 for Bi read from file:
     /home/mamunm/src/pseudo/gbrv1.5pbe/Bi.UPF
     MD5 check sum: 81103212dc04adf40945787f699eab19
     Pseudo is Ultrasoft + core correction, Zval = 15.0
     Generated by new atomic code, or converted to UPF format
     Using radial grid of  899 points,  6 beta functions with:
                l(1) =   0
                l(2) =   0
                l(3) =   1
                l(4) =   1
                l(5) =   2
                l(6) =   2
     Q(r) pseudized with  6 coefficients,  rinner =    1.000   1.000   1.000
                                                       1.000   1.000

     PseudoPot. # 2 for In read from file:
     /home/mamunm/src/pseudo/gbrv1.5pbe/In.UPF
     MD5 check sum: 90777abd96fbb83f2e67db2a40c566b9
     Pseudo is Ultrasoft + core correction, Zval = 13.0
     Generated by new atomic code, or converted to UPF format
     Using radial grid of  889 points,  6 beta functions with:
                l(1) =   0
                l(2) =   0
                l(3) =   1
                l(4) =   1
                l(5) =   2
                l(6) =   2
     Q(r) pseudized with  6 coefficients,  rinner =    1.400   1.400   1.400
                                                       1.400   1.400

     vdW kernel table read from file vdW_kernel_table
     MD5 check sum: 095c7af220d748ca6e76c0b4c6cfb241

     atomic species   valence    mass     pseudopotential
        Bi1           15.00   208.98040     Bi( 1.00)
        In1           13.00   114.81800     In( 1.00)

     No symmetry found

   Cartesian axes

     site n.     atom                  positions (alat units)
         1           Bi1 tau(   1) = (   0.0000000   0.0000000  10.0000000  )
         2           In1 tau(   2) = (   1.7821268   3.0867342  10.0000000  )
         3           Bi1 tau(   3) = (   3.5642536   0.0000000  10.0000000  )
         4           Bi1 tau(   4) = (   5.3463804   3.0867342  10.0000000  )
         5           Bi1 tau(   5) = (   7.1285072   4.1156455  12.9102009  )
         6           In1 tau(   6) = (   5.3463804   1.0289114  12.9102009  )
         7           Bi1 tau(   7) = (   3.5642536   4.1156455  12.9102009  )
         8           Bi1 tau(   8) = (   1.7821268   1.0289114  12.9102009  )
         9           Bi1 tau(   9) = (   3.5642536   2.0578228  15.8204017  )
        10           In1 tau(  10) = (   5.3463804   5.1445569  15.8204017  )
        11           Bi1 tau(  11) = (   7.1285072   2.0578228  15.8204017  )
        12           Bi1 tau(  12) = (   8.9106340   5.1445569  15.8204017  )

     number of k points=    20  Fermi-Dirac smearing, width (Ry)=  0.0110
                       cart. coord. in units 2pi/alat
        k(    1) = (   0.0000000   0.0000000   0.0000000), wk =   0.0555556
        k(    2) = (   0.0000000   0.0269972  -0.0000000), wk =   0.1111111
        k(    3) = (   0.0000000   0.0539945  -0.0000000), wk =   0.1111111
        k(    4) = (   0.0000000  -0.0809917   0.0000000), wk =   0.0555556
        k(    5) = (   0.0233803  -0.0134986   0.0000000), wk =   0.1111111
        k(    6) = (   0.0233803   0.0134986  -0.0000000), wk =   0.1111111
        k(    7) = (   0.0233803   0.0404959  -0.0000000), wk =   0.1111111
        k(    8) = (   0.0233803  -0.0944904   0.0000000), wk =   0.1111111
        k(    9) = (   0.0233803  -0.0674931   0.0000000), wk =   0.1111111
        k(   10) = (   0.0233803  -0.0404959   0.0000000), wk =   0.1111111
        k(   11) = (   0.0467606  -0.0269972   0.0000000), wk =   0.1111111
        k(   12) = (   0.0467606  -0.0000000   0.0000000), wk =   0.1111111
        k(   13) = (   0.0467606   0.0269972  -0.0000000), wk =   0.1111111
        k(   14) = (   0.0467606  -0.1079890   0.0000000), wk =   0.1111111
        k(   15) = (   0.0467606  -0.0809917   0.0000000), wk =   0.1111111
        k(   16) = (   0.0467606  -0.0539945   0.0000000), wk =   0.1111111
        k(   17) = (  -0.0701409   0.0404959  -0.0000000), wk =   0.0555556
        k(   18) = (  -0.0701409   0.0674931  -0.0000000), wk =   0.1111111
        k(   19) = (  -0.0701409   0.0944904  -0.0000000), wk =   0.1111111
        k(   20) = (  -0.0701409  -0.0404959   0.0000000), wk =   0.0555556

     Largest allocated arrays     est. size (Mb)     dimensions
     Largest temporary arrays     est. size (Mb)     dimensions

     Initial potential from superposition of free atoms
     Check: negative starting charge=   -0.376569

     starting charge  160.49962, renormalised to  174.00000

     negative rho (up, down):  4.082E-01 0.000E+00

     *
     * You are using vdW-DF for exchange-correlation in this calculation.
     * Please cite the following three references that made this development
     * possible:
     *
     *   M. Dion, H. Rydberg, E. Schroder, D. C. Langreth, and
     *   B. I. Lundqvist, Phys. Rev. Lett. 92, 246401 (2004).
     *
     *   T. Thonhauser, V. R. Cooper, S. Li, A. Puzder, P. Hyldgaard, and
     *   D. C. Langreth, Phys. Rev. B 76, 125112 (2007).
     *
     *   G. Roman-Perez and J. M. Soler, Phys. Rev. Lett. 103, 096102 (2009).
     *
     *
     * If you are using vdW-DF2, please also cite:
     *
     *   K. Lee, E. D. Murray, L. Kong, B. I. Lundqvist, and
     *   D. C. Langreth, Phys. Rev. B 82, 081101(R) (2010).
     *
     *
     * If you are calculating the stress with vdW-DF, please also cite:
     *
     *   R. Sabatini, E. Kucukbenli, B. Kolb, T. Thonhauser, and
     *   S. de Gironcoli, J. Phys.: Condens. Matter 24, 424209 (2012).
     *

     Carrying out vdW-DF run using the following parameters:

     Nqs =      20    Nr_points =    1024   r_max =   100.000
     q_mesh =
               0.00001000     0.04494208     0.09755937     0.15916263
               0.23128650     0.31572767     0.41458969     0.53033537
               0.66584808     0.82450364     1.01025438     1.22772762
               1.48234092     1.78043706     2.12944203     2.53805004
               3.01644009     3.57652955     4.23227104     5.00000000

     Gradients computed in reciprocal space

     Adding external electric field

     Computed dipole along edir(3) :
        Dipole                0.0000 Ry au,          0.0000 Debye
        Dipole field          0.0000 Ry au

        Potential amp.       -0.0000 Ry
        Total length         47.5737 bohr

     Starting wfc are  108 randomized atomic wfcs

     Self-consistent Calculation

     iteration #  1     ecut=    36.75 Ry     beta=0.30
     Davidson diagonalization with overlap
     ethr =  1.00E-02,  avg # of iterations =  5.0

[...]

     total energy              =   -2087.89921170 Ry
     Harris-Foulkes estimate   =   -2094.44889320 Ry
     estimated scf accuracy    <      14.49593087 Ry

[...]

     End of self-consistent calculation

          k = 0.0000 0.0000 0.0000 ( 28709 PWs)   bands (ev):

   -22.8941 -22.8900 -22.8900 -22.8635 -22.8412 -22.8412 -22.8224 -22.8191
   -22.8191 -22.8170 -22.7873 -22.7873 -22.7752 -22.7752 -22.7461 -22.6494
   -22.6485 -22.6365 -22.6365 -22.6340 -22.6339 -22.5961 -22.5920 -22.5742
   -22.5725 -22.5714 -22.5713 -22.5661 -22.5661 -22.5626 -22.5625 -22.5616
   -22.5615 -22.5473 -22.5473 -22.5458 -22.5446 -22.5446 -22.5386 -22.5247
   -22.5246 -22.5202 -22.5202 -22.5087 -22.5082 -14.2108 -14.2098 -14.1959
   -14.1959 -14.1943 -14.1943 -14.1809 -14.1809 -14.1802 -14.1802 -14.0550
   -14.0550 -14.0449 -14.0360 -14.0360 -11.8171 -10.9477 -10.2071  -9.7893
    -9.7893  -9.2912  -9.2911  -8.9892  -8.9892  -4.5030  -4.3463  -3.6083
    -3.5013  -3.1676  -3.1676  -2.7781  -2.4832  -2.4832  -2.2834  -2.1428
    -2.1427  -2.0607  -0.2917   0.6064   0.6064   0.6294   0.6294   1.5123
     1.6148   2.3307   2.4131   2.4132   2.6098   2.6098   2.6616   2.8504
     3.3566

[...]

          k =-0.0701 0.0405-0.0000 ( 28794 PWs)   bands (ev):

[...]

     the Fermi energy is     0.6636 ev

!    total energy              =   -2088.72676969 Ry
     Harris-Foulkes estimate   =   -2088.72676958 Ry
     estimated scf accuracy    <       0.00000173 Ry

     The total energy is the sum of the following terms:

     one-electron contribution =   -9546.20944377 Ry
     hartree contribution      =    4830.93673135 Ry
     xc contribution           =    -716.06330114 Ry
     ewald contribution        =    3342.65071532 Ry
     electric field correction =       0.00000013 Ry
     smearing contrib. (-TS)   =      -0.04147159 Ry

     convergence has been achieved in  11 iterations

 BEEF-vdW xc energy contributions
           1 :   -636.285489569296
           2 :    589.552246442039
           3 :   -507.865772061402
           4 :    410.113313112201
           5 :   -315.494341846603
           6 :    237.547116510812
           7 :   -181.149775723209
           8 :    143.205811926471
           9 :   -116.175300129401
          10 :    92.5129552588980
          11 :   -67.9735666335716
          12 :    42.5783671672285
          13 :   -19.3261563953395
          14 :    1.74997179430648
          15 :    8.26594520423578
          16 :   -11.4208393239454
          17 :    10.4829854399143
          18 :   -8.84538284819746
          19 :    8.99150397121718
          20 :   -11.5992222789221
          21 :    15.5960492055342
          22 :   -19.0076534525674
          23 :    20.1091167893599
          24 :   -18.3203453812525
          25 :    14.4591021462802
          26 :   -10.2886242149405
          27 :    7.61665193036947
          28 :   -7.39984023727322
          29 :    9.29372867542565
          30 :   -11.8719117623659
          31 :   -51.8050702569424
          32 :   -37.9386135703342

     Forces acting on atoms (Ry/au):

     negative rho (up, down):  3.948E-01 0.000E+00
     atom    1 type  1   force =     0.00403183   -0.00232136    0.00698709
     atom    2 type  2   force =    -0.00000159   -0.00000160   -0.00229357
     atom    3 type  1   force =    -0.00402782   -0.00233030    0.00698910
     atom    4 type  1   force =     0.00000742    0.00464479    0.00698095
     atom    5 type  1   force =     0.00005449   -0.00002907   -0.00026986
     atom    6 type  2   force =     0.00000354    0.00000002    0.00032504
     atom    7 type  1   force =    -0.00005497   -0.00001813   -0.00027494
     atom    8 type  1   force =    -0.00000820    0.00005204   -0.00027607
     atom    9 type  1   force =    -0.00409540    0.00235955   -0.00706049
     atom   10 type  2   force =     0.00000177    0.00000249    0.00302785
     atom   11 type  1   force =     0.00409420    0.00236269   -0.00706749
     atom   12 type  1   force =    -0.00000527   -0.00472112   -0.00706761

     Total force =     0.015030     Total SCF correction =     0.000838

     entering subroutine stress ...

     negative rho (up, down):  3.948E-01 0.000E+00
          total   stress  (Ry/bohr**3)                   (kbar)     P=   -6.23
  -0.00004374   0.00000000   0.00000000         -6.43      0.00      0.00
   0.00000000  -0.00004374   0.00000000          0.00     -6.43      0.00
   0.00000000   0.00000000  -0.00003958          0.00      0.00     -5.82

     BFGS Geometry Optimization

     number of scf cycles    =   1
     number of bfgs steps    =   0

     energy   new            =   -2088.7267696916 Ry

     new trust radius        =       0.0085026001 bohr
     new conv_thr            =       0.0000099958 Ry

ATOMIC_POSITIONS (crystal)
Bi1     -0.000000000   0.000000000   0.387290643    0   0   0
In1      0.000000000   0.500000000   0.387290643    0   0   0
Bi1      0.500000000   0.000000000   0.387290643    0   0   0
Bi1      0.500000000   0.500000000   0.387290643    0   0   0
Bi1      0.666666667   0.666666667   0.500000000    0   0   0
In1      0.666666667   0.166666667   0.500000000    0   0   0
Bi1      0.166666667   0.666666667   0.500000000    0   0   0
Bi1      0.166666667   0.166666667   0.500000000    0   0   0
Bi1      0.332928188   0.333535589   0.612564655
In1      0.333333358   0.833333547   0.612771411
Bi1      0.833535999   0.333535859   0.612564512
Bi1      0.833535285   0.832928649   0.612564509

     Writing output data file calc.save
     Check: negative starting charge=   -0.376569
     NEW-OLD atomic charge density approx. for the potential
     Check: negative starting charge=   -0.377449

[...]

     Total force =     0.013314     Total SCF correction =     0.006555
     SCF correction compared to forces is large: reduce conv_thr to get better values

[...]

     energy   old            =   -2088.7267696916 Ry
     energy   new            =   -2088.7388206535 Ry

     CASE: energy  _new < energy  _old

     WARNING: bfgs curvature condition failed, Theta= 0.905
     new trust radius        =       0.0127539001 bohr
     new conv_thr            =       0.0000001000 Ry

[...]

     WARNING: bfgs curvature condition failed, Theta= 0.793
     new trust radius        =       0.0286962753 bohr
     new conv_thr            =       0.0000001000 Ry

[...]

     Total force =     0.012850     Total SCF correction =     0.001521
     SCF correction compared to forces is large: reduce conv_thr to get better values

[...]

     iteration #  1     ecut=    36.75 Ry     beta=0.30
     Davidson diagonalization with overlap
     c_bands:  1 eigenvalues not converged
     ethr =  1.00E-06,  avg # of iterations = 10.1

[...]

     number of scf cycles    =   8
     number of bfgs steps    =   7

     energy   old            =   -2088.7448885866 Ry
     energy   new            =   -2088.7468499567 Ry

     CASE: energy  _new < energy  _old

     new trust radius        =       0.1452748939 bohr
     new conv_thr            =       0.0000001000 Ry

ATOMIC_POSITIONS (crystal)
Bi1     -0.000000000   0.000000000   0.387290643    0   0   0
In1      0.000000000   0.500000000   0.387290643    0   0   0
Bi1      0.500000000   0.000000000   0.387290643    0   0   0
Bi1      0.500000000   0.500000000   0.387290643    0   0   0
Bi1      0.666666667   0.666666667   0.500000000    0   0   0
In1      0.666666667   0.166666667   0.500000000    0   0   0
Bi1      0.166666667   0.666666667   0.500000000    0   0   0
Bi1      0.166666667   0.166666667   0.500000000    0   0   0
Bi1      0.309283200   0.345362691   0.606350678
In1      0.333350122   0.833322270   0.616041703
Bi1      0.845331439   0.345372536   0.606344446
Bi1      0.845339223   0.809301315   0.606338071

     Writing output data file calc.save
     Check: negative starting charge=   -0.375961
     NEW-OLD atomic charge density approx. for the potential
     Check: negative starting charge=   -0.376960

[...]

     Self-consistent Calculation

[...]

     total energy              =   -2088.74780852 Ry
     Harris-Foulkes estimate   =   -2088.74780897 Ry
     estimated scf accuracy    <       0.00000052 Ry

     iteration #  9     ecut=    36.75 Ry     beta=0.30
     Davidson diagonalization with overlap
     ethr =  2.98E-10,  avg # of iterations =  3.1

[...]

     negative rho (up, down):  3.949E-01 0.000E+00

     Adding external electric field

     Computed dipole along edir(3) :
        Dipole                0.0801 Ry au,          0.2035 Debye
        Dipole field          0.0001 Ry au

        Potential amp.       -0.0125 Ry
        Total length         47.5737 bohr

     End of self-consistent calculation

[...]

          k = 0.0468-0.0540 0.0000 ( 28891 PWs)   bands (ev):

[...]

          k =-0.0701-0.0405 0.0000 ( 28794 PWs)   bands (ev):

   -22.8415 -22.8174 -22.8054 -22.8025 -22.7990 -22.7958 -22.7914 -22.7805
   -22.7672 -22.7628 -22.7572 -22.7535 -22.7521 -22.7378 -22.7163 -22.6543
   -22.6329 -22.6168 -22.5916 -22.5665 -22.5638 -22.5619 -22.5576 -22.5572
   -22.5474 -22.5408 -22.5358 -22.5322 -22.5262 -22.5262 -22.5208 -22.5167
   -22.5124 -22.5078 -22.4984 -22.4974 -22.4935 -22.4883 -22.4855 -22.4840
   -22.4835 -22.4791 -22.4789 -22.4697 -22.4453 -14.2148 -14.2046 -14.2036
   -14.1945 -14.1924 -14.1529 -14.1394 -14.1387 -14.1224 -14.1204 -14.0541
   -14.0511 -14.0359 -14.0329 -14.0320 -11.4730 -10.9958 -10.2829 -10.0895
   -10.0300  -9.6262  -9.4792  -9.2885  -8.8573  -5.0013  -4.5037  -4.1681
    -2.4366  -2.0346  -1.9858  -1.7764  -1.7732  -1.7718  -1.3373  -1.0941
    -0.8613  -0.5255  -0.2798  -0.0859   0.0591   0.2920   0.3254   0.4758
     0.8379   1.0176   1.1399   1.6200   1.9547   1.9831   2.1550   2.3315
     2.6444

     the Fermi energy is     0.7293 ev

!    total energy              =   -2088.74780822 Ry
     Harris-Foulkes estimate   =   -2088.74780857 Ry
     estimated scf accuracy    <       0.00000007 Ry

     The total energy is the sum of the following terms:

     one-electron contribution =   -9695.00584695 Ry
     hartree contribution      =    4905.53394088 Ry
     xc contribution           =    -716.21665802 Ry
     ewald contribution        =    3416.97901653 Ry
     electric field correction =       0.00001050 Ry
     smearing contrib. (-TS)   =      -0.03827116 Ry

     convergence has been achieved in   9 iterations

 BEEF-vdW xc energy contributions
           1 :   -636.829120505862
           2 :    590.150782214253
           3 :   -508.535274363508
           4 :    410.810807031007
           5 :   -316.132156143543
           6 :    238.038705729167
           7 :   -181.461973286361
           8 :    143.385685401886
           9 :   -116.333851965994
          10 :    92.7726346404082
          11 :   -68.4067125419656
          12 :    43.1693443262121
          13 :   -19.9785042115343
          14 :    2.33591264283950
          15 :    7.83895060194811
          16 :   -11.1614394417105
          17 :    10.3109728006891
          18 :   -8.63323763044718
          19 :    8.63102696349256
          20 :   -11.0584616986662
          21 :    14.9366945840894
          22 :   -18.3537975746381
          23 :    19.5832495041680
          24 :   -17.9796583161393
          25 :    14.2655911578374
          26 :   -10.1289647006636
          27 :    7.36147545918948
          28 :   -6.97141692310356
          29 :    8.70670492739350
          30 :   -11.2257917599816
          31 :   -51.8388772788558
          32 :   -37.9853534259003

     Forces acting on atoms (Ry/au):

     negative rho (up, down):  3.949E-01 0.000E+00
     atom    1 type  1   force =     0.00350863   -0.00202564    0.00661790
     atom    2 type  2   force =     0.00000014   -0.00000009   -0.00425406
     atom    3 type  1   force =    -0.00350870   -0.00202477    0.00661472
     atom    4 type  1   force =    -0.00000027    0.00405081    0.00661202
     atom    5 type  1   force =    -0.00193088    0.00110997   -0.00488716
     atom    6 type  2   force =    -0.00000274    0.00000468   -0.00624974
     atom    7 type  1   force =     0.00193126    0.00110779   -0.00488235
     atom    8 type  1   force =     0.00000351   -0.00222383   -0.00487832
     atom    9 type  1   force =     0.00112134   -0.00065197    0.00138905
     atom   10 type  2   force =    -0.00000555    0.00000590    0.00110235
     atom   11 type  1   force =    -0.00112303   -0.00066071    0.00140113
     atom   12 type  1   force =     0.00000629    0.00130786    0.00141445

     Total force =     0.003493     Total SCF correction =     0.000238

     entering subroutine stress ...

     negative rho (up, down):  3.949E-01 0.000E+00
          total   stress  (Ry/bohr**3)                   (kbar)     P=   -2.90
  -0.00001926   0.00000000   0.00000000         -2.83      0.00      0.00
   0.00000000  -0.00001926   0.00000000          0.00     -2.83      0.00
   0.00000000   0.00000000  -0.00002060          0.00      0.00     -3.03

     bfgs converged in   9 scf cycles and   8 bfgs steps
     (criteria: energy <  1.0E+00, force <  1.9E-03)

     End of BFGS Geometry Optimization

     Final energy   =   -2088.7478082233 Ry
Begin final coordinates

ATOMIC_POSITIONS (crystal)
Bi1     -0.000000000   0.000000000   0.387290643    0   0   0
In1      0.000000000   0.500000000   0.387290643    0   0   0
Bi1      0.500000000   0.000000000   0.387290643    0   0   0
Bi1      0.500000000   0.500000000   0.387290643    0   0   0
Bi1      0.666666667   0.666666667   0.500000000    0   0   0
In1      0.666666667   0.166666667   0.500000000    0   0   0
Bi1      0.166666667   0.666666667   0.500000000    0   0   0
Bi1      0.166666667   0.166666667   0.500000000    0   0   0
Bi1      0.309283200   0.345362691   0.606350678
In1      0.333350122   0.833322270   0.616041703
Bi1      0.845331439   0.345372536   0.606344446
Bi1      0.845339223   0.809301315   0.606338071
End final coordinates

     Writing output data file calc.save

     General routines

     Parallel routines

   This run was terminated on:  18:52:15  23Feb2018

   JOB DONE.