     Program PWSCF v.5.1rc2 (svn rev. ) starts on 23Feb2018 at 18: 6:41

     Current dimensions of program PWSCF are:
     Max number of different atomic species (ntypx) = 10
     Max number of k-points (npk) =  40000
     Max angular momentum in pseudopotentials (lmaxx) =  3
     Presently stress not available with electric field

     IMPORTANT: XC functional enforced from input :
     Exchange-correlation      = BEEF-VDW ( 1  4 27 13 2)
     Any further DFT definition will be discarded
     Please, verify this is what you really want

     Subspace diagonalization in iterative solution of the eigenvalue problem:
     a serial algorithm will be used

     bravais-lattice index     =            0
     lattice parameter (alat)  =       1.8897  a.u.
     unit-cell volume          =    4796.8810 (a.u.)^3
     number of atoms/cell      =           12
     number of atomic types    =            2
     number of electrons       =       180.00
     number of Kohn-Sham states=          100
     kinetic-energy cutoff     =      36.7493  Ry
     charge density cutoff     =     367.4932  Ry
     convergence threshold     =      1.0E-05
     mixing beta               =       0.3000
     number of iterations used =           10  plain     mixing
     Exchange-correlation      = BEEF-VDW ( 1  4 27 13 2)
     nstep                     =           50

     celldm(1)=   1.889726  celldm(2)=   0.000000  celldm(3)=   0.000000
     celldm(4)=   0.000000  celldm(5)=   0.000000  celldm(6)=   0.000000

     crystal axes: (cart. coord. in units of alat)
               a(1) = (   5.763856   0.000000   0.000000 )
               a(2) = (   2.881928   4.991646   0.000000 )
               a(3) = (   0.000000   0.000000  24.706169 )

     reciprocal axes: (cart. coord. in units 2 pi/alat)
               b(1) = (  0.173495 -0.100167  0.000000 )
               b(2) = (  0.000000  0.200335  0.000000 )
               b(3) = (  0.000000  0.000000  0.040476 )

     PseudoPot. # 1 for Tc read from file:
     /home/mamunm/src/pseudo/gbrv1.5pbe/Tc.UPF
     MD5 check sum: 9eb49e5b028550b2339a02317eb7b844
     Pseudo is Ultrasoft + core correction, Zval = 15.0
     Generated by new atomic code, or converted to UPF format
     Using radial grid of  965 points,  6 beta functions with:
                l(1) =   0
                l(2) =   0
                l(3) =   1
                l(4) =   1
                l(5) =   2
                l(6) =   2
     Q(r) pseudized with  8 coefficients,  rinner =    1.300   1.300   1.300
                                                       1.300   1.300

     PseudoPot. # 2 for Bi read from file:
     /home/mamunm/src/pseudo/gbrv1.5pbe/Bi.UPF
     MD5 check sum: 81103212dc04adf40945787f699eab19
     Pseudo is Ultrasoft + core correction, Zval = 15.0
     Generated by new atomic code, or converted to UPF format
     Using radial grid of  899 points,  6 beta functions with:
                l(1) =   0
                l(2) =   0
                l(3) =   1
                l(4) =   1
                l(5) =   2
                l(6) =   2
     Q(r) pseudized with  6 coefficients,  rinner =    1.000   1.000   1.000
                                                       1.000   1.000

     vdW kernel table read from file vdW_kernel_table
     MD5 check sum: 095c7af220d748ca6e76c0b4c6cfb241

     atomic species   valence    mass     pseudopotential
        Tc1           15.00    97.90721     Tc( 1.00)
        Bi1           15.00   208.98040     Bi( 1.00)

     No symmetry found

   Cartesian axes

     site n.     atom                  positions (alat units)
         1           Tc1 tau(   1) = (   0.0000000   0.0000000  10.0000000  )
         2           Bi1 tau(   2) = (   1.4409641   2.4958230  10.0000000  )
         3           Tc1 tau(   3) = (   2.8819282   0.0000000  10.0000000  )
         4           Tc1 tau(   4) = (   4.3228923   2.4958230  10.0000000  )
         5           Tc1 tau(   5) = (   5.7638564   3.3277640  12.3530845  )
         6           Bi1 tau(   6) = (   4.3228923   0.8319410  12.3530845  )
         7           Tc1 tau(   7) = (   2.8819282   3.3277640  12.3530845  )
         8           Tc1 tau(   8) = (   1.4409641   0.8319410  12.3530845  )
         9           Tc1 tau(   9) = (   2.8819282   1.6638820  14.7061690  )
        10           Bi1 tau(  10) = (   4.3228923   4.1597050  14.7061690  )
        11           Tc1 tau(  11) = (   5.7638564   1.6638820  14.7061690  )
        12           Tc1 tau(  12) = (   7.2048205   4.1597050  14.7061690  )

     number of k points=    20  Fermi-Dirac smearing, width (Ry)=  0.0110
                       cart. coord. in units 2pi/alat
        k(    1) = (   0.0000000   0.0000000   0.0000000), wk =   0.0555556
        k(    2) = (   0.0000000   0.0333891   0.0000000), wk =   0.1111111
        k(    3) = (   0.0000000   0.0667782   0.0000000), wk =   0.1111111
        k(    4) = (   0.0000000  -0.1001674   0.0000000), wk =   0.0555556
        k(    5) = (   0.0289158  -0.0166946   0.0000000), wk =   0.1111111
        k(    6) = (   0.0289158   0.0166946   0.0000000), wk =   0.1111111
        k(    7) = (   0.0289158   0.0500837   0.0000000), wk =   0.1111111
        k(    8) = (   0.0289158  -0.1168619   0.0000000), wk =   0.1111111
        k(    9) = (   0.0289158  -0.0834728   0.0000000), wk =   0.1111111
        k(   10) = (   0.0289158  -0.0500837   0.0000000), wk =   0.1111111
        k(   11) = (   0.0578317  -0.0333891   0.0000000), wk =   0.1111111
        k(   12) = (   0.0578317   0.0000000   0.0000000), wk =   0.1111111
        k(   13) = (   0.0578317   0.0333891   0.0000000), wk =   0.1111111
        k(   14) = (   0.0578317  -0.1335565   0.0000000), wk =   0.1111111
        k(   15) = (   0.0578317  -0.1001674   0.0000000), wk =   0.1111111
        k(   16) = (   0.0578317  -0.0667782   0.0000000), wk =   0.1111111
        k(   17) = (  -0.0867475   0.0500837   0.0000000), wk =   0.0555556
        k(   18) = (  -0.0867475   0.0834728   0.0000000), wk =   0.1111111
        k(   19) = (  -0.0867475   0.1168619   0.0000000), wk =   0.1111111
        k(   20) = (  -0.0867475  -0.0500837   0.0000000), wk =   0.0555556

     Largest allocated arrays     est. size (Mb)     dimensions
     Largest temporary arrays     est. size (Mb)     dimensions

     Check: negative/imaginary core charge=   -0.000017    0.000000

     Initial potential from superposition of free atoms
     Check: negative starting charge=   -1.263604

     starting charge  167.99963, renormalised to  180.00000

     negative rho (up, down):  1.354E+00 0.000E+00

     *
     * You are using vdW-DF for exchange-correlation in this calculation.
     * Please cite the following three references that made this development
     * possible:
     *
     *   M. Dion, H. Rydberg, E. Schroder, D. C. Langreth, and
     *   B. I. Lundqvist, Phys. Rev. Lett. 92, 246401 (2004).
     *
     *   T. Thonhauser, V. R. Cooper, S. Li, A. Puzder, P. Hyldgaard, and
     *   D. C. Langreth, Phys. Rev. B 76, 125112 (2007).
     *
     *   G. Roman-Perez and J. M. Soler, Phys. Rev. Lett. 103, 096102 (2009).
     *
     *
     * If you are using vdW-DF2, please also cite:
     *
     *   K. Lee, E. D. Murray, L. Kong, B. I. Lundqvist, and
     *   D. C. Langreth, Phys. Rev. B 82, 081101(R) (2010).
     *
     *
     * If you are calculating the stress with vdW-DF, please also cite:
     *
     *   R. Sabatini, E. Kucukbenli, B. Kolb, T. Thonhauser, and
     *   S. de Gironcoli, J. Phys.: Condens. Matter 24, 424209 (2012).
     *

     Carrying out vdW-DF run using the following parameters:

     Nqs =      20    Nr_points =    1024   r_max =   100.000
     q_mesh =
               0.00001000     0.04494208     0.09755937     0.15916263
               0.23128650     0.31572767     0.41458969     0.53033537
               0.66584808     0.82450364     1.01025438     1.22772762
               1.48234092     1.78043706     2.12944203     2.53805004
               3.01644009     3.57652955     4.23227104     5.00000000

     Gradients computed in reciprocal space

     Adding external electric field

     Computed dipole along edir(3) :
        Dipole               -0.0000 Ry au,         -0.0000 Debye
        Dipole field         -0.0000 Ry au

        Potential amp.        0.0000 Ry
        Total length         45.5207 bohr

     Starting wfc are  144 randomized atomic wfcs

     Self-consistent Calculation

     iteration #  1     ecut=    36.75 Ry     beta=0.30
     Davidson diagonalization with overlap
     ethr =  1.00E-02,  avg # of iterations =  2.6

[...]

     total energy              =   -2136.32462561 Ry
     Harris-Foulkes estimate   =   -2142.94947200 Ry
     estimated scf accuracy    <      15.50796816 Ry

[...]

     End of self-consistent calculation

          k = 0.0000 0.0000 0.0000 ( 18067 PWs)   bands (ev):

   -64.6171 -64.5593 -64.5579 -64.4595 -64.4552 -64.4050 -64.4044 -64.4038
   -64.4033 -36.8913 -36.7943 -36.7801 -36.7792 -36.7478 -36.7163 -36.7155
   -36.6982 -36.5971 -36.5970 -36.5153 -36.5098 -36.5091 -36.4495 -36.3899
   -36.3895 -36.3584 -36.3576 -36.3442 -36.3297 -36.3234 -36.3229 -36.3228
   -36.2451 -36.2446 -36.2414 -36.2410 -21.2495 -21.2438 -21.2437 -21.2275
   -21.2274 -20.8866 -20.8787 -20.8674 -20.8674 -20.8632 -20.8631 -20.8525
   -20.8525 -20.8463 -20.8463 -10.2283  -9.2365  -9.2168  -2.5970  -2.3832
    -2.0296  -1.6638  -1.6637  -1.5424  -1.5423  -1.0738  -0.9585  -0.9583
    -0.9388  -0.9198  -0.9194  -0.3285  -0.3284  -0.1767   0.4071   0.5260
     0.5349   0.5350   0.5905   0.5906   0.6289   0.6291   0.9044   0.9045
     1.1268   1.3568   1.8023   2.1566   2.1574   2.3367   2.3370   2.4948
     2.4950   2.4991   2.6087   2.8425   2.8431   2.8451   2.9454   2.9457
     3.3239   3.3245   3.5695   3.6822

[...]

          k =-0.0867 0.0501 0.0000 ( 18028 PWs)   bands (ev):

[...]

     the Fermi energy is     2.4388 ev

!    total energy              =   -2138.53321063 Ry
     Harris-Foulkes estimate   =   -2138.54533879 Ry
     estimated scf accuracy    <       0.00000737 Ry

     The total energy is the sum of the following terms:

     one-electron contribution =  -16532.65013089 Ry
     hartree contribution      =    8281.27923382 Ry
     xc contribution           =    -497.93891460 Ry
     ewald contribution        =    6610.89458716 Ry
     electric field correction =       0.00000080 Ry
     smearing contrib. (-TS)   =      -0.11798692 Ry

     convergence has been achieved in  19 iterations

 BEEF-vdW xc energy contributions
           1 :   -439.126360291611
           2 :    405.619689757248
           3 :   -346.178807379580
           4 :    273.090382272936
           5 :   -199.422263833923
           6 :    135.264172154214
           7 :   -85.6103942724754
           8 :    50.3008653300294
           9 :   -25.7635591200249
          10 :    7.51183939671648
          11 :    7.66997104623817
          12 :   -20.6985774353456
          13 :    30.4757317567619
          14 :   -35.1239695459096
          15 :    33.4148512730477
          16 :   -25.7246841320740
          17 :    14.1212110212109
          18 :   -1.66098862646891
          19 :   -8.71553771340677
          20 :    15.1411253767337
          21 :   -17.2345806671365
          22 :    15.8537330994344
          23 :   -12.4069030762115
          24 :    8.10418214986748
          25 :   -3.52415169036959
          26 :   -1.34930273519331
          27 :    6.71881618896043
          28 :   -12.4880875497809
          29 :    17.9975676119612
          30 :   -22.1425993831844
          31 :   -38.9619481753658
          32 :   -28.6397587517646

     Forces acting on atoms (Ry/au):

     negative rho (up, down):  1.314E+00 0.000E+00
     atom    1 type  1   force =     0.02744421   -0.01583696    0.03105373
     atom    2 type  2   force =    -0.00039045    0.00001097   -0.05615071
     atom    3 type  1   force =    -0.02743954   -0.01583822    0.03096142
     atom    4 type  1   force =    -0.00001365    0.03163878    0.03099110
     atom    5 type  1   force =     0.00009674    0.00000443    0.00079791
     atom    6 type  2   force =    -0.00021732    0.00018408   -0.00245068
     atom    7 type  1   force =    -0.00001805    0.00002930    0.00077242
     atom    8 type  1   force =     0.00002088   -0.00002993    0.00071640
     atom    9 type  1   force =    -0.02746042    0.01582432   -0.03001570
     atom   10 type  2   force =     0.00041187   -0.00006574    0.05319833
     atom   11 type  1   force =     0.02750471    0.01578817   -0.02991353
     atom   12 type  1   force =     0.00006101   -0.03170919   -0.02996071

     Total force =     0.092409     Total SCF correction =     0.005565

     entering subroutine stress ...

     negative rho (up, down):  1.314E+00 0.000E+00
          total   stress  (Ry/bohr**3)                   (kbar)     P=  -28.70
  -0.00024903  -0.00000006  -0.00000010        -36.63     -0.01     -0.01
  -0.00000006  -0.00024899   0.00000005         -0.01    -36.63      0.01
  -0.00000010   0.00000005  -0.00008726         -0.01      0.01    -12.84

     BFGS Geometry Optimization

     number of scf cycles    =   1
     number of bfgs steps    =   0

     energy   new            =   -2138.5332106279 Ry

     new trust radius        =       0.0531999674 bohr
     new conv_thr            =       0.0000099958 Ry

ATOMIC_POSITIONS (crystal)
Tc1      0.000000000   0.000000000   0.404757208    0   0   0
Bi1      0.000000000   0.500000000   0.404757208    0   0   0
Tc1      0.500000000   0.000000000   0.404757208    0   0   0
Tc1      0.500000000   0.500000000   0.404757208    0   0   0
Tc1      0.666666667   0.666666667   0.500000000    0   0   0
Bi1      0.666666667   0.166666667   0.500000000    0   0   0
Tc1      0.166666667   0.666666667   0.500000000    0   0   0
Tc1      0.166666667   0.166666667   0.500000000    0   0   0
Tc1      0.329973416   0.335010910   0.594599891
Bi1      0.333374631   0.833326364   0.596382238
Tc1      0.835021657   0.335007077   0.594602079
Tc1      0.835019721   0.829971761   0.594601069

     Writing output data file calc.save
     Check: negative starting charge=   -1.263604
     NEW-OLD atomic charge density approx. for the potential

     Check: negative/imaginary core charge=   -0.000017    0.000000
     Check: negative starting charge=   -1.261504

[...]

     iteration #  1     ecut=    36.75 Ry     beta=0.30
     Davidson diagonalization with overlap
     c_bands:  1 eigenvalues not converged
     c_bands:  1 eigenvalues not converged
     c_bands:  1 eigenvalues not converged
     ethr =  1.00E-06,  avg # of iterations =  9.5

[...]

     energy   old            =   -2138.5332106279 Ry
     energy   new            =   -2138.5537434933 Ry

     CASE: energy  _new < energy  _old

     WARNING: bfgs curvature condition failed, Theta= 0.828
     new trust radius        =       0.0585199642 bohr
     new conv_thr            =       0.0000001000 Ry

[...]

     iteration #  1     ecut=    36.75 Ry     beta=0.30
     Davidson diagonalization with overlap
     c_bands:  1 eigenvalues not converged
     ethr =  1.00E-06,  avg # of iterations =  9.8

[...]

     WARNING: bfgs curvature condition failed, Theta= 0.972
     new trust radius        =       0.0255019335 bohr
     new conv_thr            =       0.0000001000 Ry

[...]

     Total force =     0.006248     Total SCF correction =     0.000959
     SCF correction compared to forces is large: reduce conv_thr to get better values

[...]

     number of scf cycles    =  14
     number of bfgs steps    =  13

     energy   old            =   -2138.6149673884 Ry
     energy   new            =   -2138.6150379720 Ry

     CASE: energy  _new < energy  _old

     new trust radius        =       0.0284592825 bohr
     new conv_thr            =       0.0000001000 Ry

ATOMIC_POSITIONS (crystal)
Tc1      0.000000000   0.000000000   0.404757208    0   0   0
Bi1      0.000000000   0.500000000   0.404757208    0   0   0
Tc1      0.500000000   0.000000000   0.404757208    0   0   0
Tc1      0.500000000   0.500000000   0.404757208    0   0   0
Tc1      0.666666667   0.666666667   0.500000000    0   0   0
Bi1      0.666666667   0.166666667   0.500000000    0   0   0
Tc1      0.166666667   0.666666667   0.500000000    0   0   0
Tc1      0.166666667   0.166666667   0.500000000    0   0   0
Tc1      0.294792810   0.352897763   0.585676654
Bi1      0.333727815   0.833466507   0.612402879
Tc1      0.852634716   0.352400664   0.585629125
Tc1      0.853001536   0.794823121   0.585663312

     Writing output data file calc.save
     Check: negative starting charge=   -1.262103
     NEW-OLD atomic charge density approx. for the potential

     Check: negative/imaginary core charge=   -0.000017    0.000000
     Check: negative starting charge=   -1.262809

[...]

     Self-consistent Calculation

[...]

     total energy              =   -2138.61514922 Ry
     Harris-Foulkes estimate   =   -2138.61514924 Ry
     estimated scf accuracy    <       0.00000012 Ry

     iteration # 16     ecut=    36.75 Ry     beta=0.30
     Davidson diagonalization with overlap
     ethr =  6.46E-11,  avg # of iterations =  1.9

[...]

     negative rho (up, down):  1.314E+00 0.000E+00

     Adding external electric field

     Computed dipole along edir(3) :
        Dipole                0.1694 Ry au,          0.4305 Debye
        Dipole field          0.0004 Ry au

        Potential amp.       -0.0404 Ry
        Total length         45.5207 bohr

     End of self-consistent calculation

[...]

          k = 0.0578-0.0668 0.0000 ( 18001 PWs)   bands (ev):

[...]

          k =-0.0867-0.0501 0.0000 ( 18028 PWs)   bands (ev):

   -64.5627 -64.5056 -64.4806 -64.4545 -64.3950 -64.3875 -64.2458 -64.2279
   -64.2098 -36.9901 -36.8802 -36.8329 -36.8184 -36.7633 -36.6781 -36.6043
   -36.5659 -36.5068 -36.4997 -36.4541 -36.4516 -36.3303 -36.3225 -36.3029
   -36.2888 -36.2832 -36.2742 -36.2467 -36.2260 -36.2040 -36.1962 -36.1635
   -36.1420 -36.1329 -36.1293 -36.0788 -21.0996 -21.0915 -21.0816 -21.0724
   -21.0703 -20.8719 -20.8381 -20.8360 -20.7787 -20.7732 -20.7267 -20.7017
   -20.7009 -20.6932 -20.6848  -9.5675  -8.8686  -8.6238  -3.5777  -2.8931
    -2.5503  -2.5311  -1.7689  -1.6965  -1.4189  -1.2766  -1.1857  -1.1358
    -0.8833  -0.6835  -0.3418  -0.2277  -0.2198  -0.0825  -0.0462  -0.0301
     0.2689   0.4490   0.5721   0.7298   0.8276   1.0610   1.0622   1.2653
     1.2700   1.4197   1.5821   1.6753   2.0410   2.0510   2.1001   2.1536
     2.3831   2.5270   2.5538   2.6573   2.6954   2.8208   2.8595   2.8914
     2.9386   3.4034   3.4840   3.6075

     the Fermi energy is     2.6178 ev

!    total energy              =   -2138.61514916 Ry
     Harris-Foulkes estimate   =   -2138.61514787 Ry
     estimated scf accuracy    <       0.00000007 Ry

     The total energy is the sum of the following terms:

     one-electron contribution =  -16691.00544922 Ry
     hartree contribution      =    8360.95631098 Ry
     xc contribution           =    -498.17003269 Ry
     ewald contribution        =    6689.71066072 Ry
     electric field correction =       0.00007515 Ry
     smearing contrib. (-TS)   =      -0.10671411 Ry

     convergence has been achieved in  16 iterations

 BEEF-vdW xc energy contributions
           1 :   -439.718905521644
           2 :    406.291045050519
           3 :   -346.950899769546
           4 :    273.898379899654
           5 :   -200.131047704931
           6 :    135.729863123402
           7 :   -85.7542434379528
           8 :    50.1550926945199
           9 :   -25.4672441142524
          10 :    7.26339576335249
          11 :    7.68631286585185
          12 :   -20.3870772050002
          13 :    29.8752932846725
          14 :   -34.4018317956900
          15 :    32.8018200299811
          16 :   -25.4118732169514
          17 :    14.1644990025857
          18 :   -1.94336076542953
          19 :   -8.43669531807359
          20 :    15.1173300104254
          21 :   -17.5982912102884
          22 :    16.5466834943805
          23 :   -13.2063841817838
          24 :    8.73712654145334
          25 :   -3.81154977206194
          26 :   -1.39353418749761
          27 :    6.88885671243742
          28 :   -12.4889667725766
          29 :    17.5985638921187
          30 :   -21.3005961986072
          31 :   -38.9971488954258
          32 :   -28.6883103570434

     Forces acting on atoms (Ry/au):

     negative rho (up, down):  1.314E+00 0.000E+00
     atom    1 type  1   force =     0.02495945   -0.01436082    0.01961020
     atom    2 type  2   force =     0.00003017   -0.00000191   -0.06078787
     atom    3 type  1   force =    -0.02493176   -0.01440999    0.01956218
     atom    4 type  1   force =     0.00005731    0.02880021    0.01959034
     atom    5 type  1   force =    -0.02213443    0.01273986    0.00792776
     atom    6 type  2   force =    -0.00022982   -0.00009393   -0.02611164
     atom    7 type  1   force =     0.02194305    0.01268585    0.00767073
     atom    8 type  1   force =    -0.00004467   -0.02548196    0.00785988
     atom    9 type  1   force =    -0.00164226    0.00111156    0.00099756
     atom   10 type  2   force =     0.00013141    0.00004536    0.00167921
     atom   11 type  1   force =     0.00166912    0.00090613    0.00100005
     atom   12 type  1   force =     0.00019241   -0.00194037    0.00100161

     Total force =     0.004145     Total SCF correction =     0.000264

     entering subroutine stress ...

     negative rho (up, down):  1.314E+00 0.000E+00
          total   stress  (Ry/bohr**3)                   (kbar)     P=  -15.38
  -0.00015135   0.00000027   0.00000030        -22.26      0.04      0.04
   0.00000027  -0.00015147   0.00000008          0.04    -22.28      0.01
   0.00000030   0.00000008  -0.00001084          0.04      0.01     -1.59

     bfgs converged in  15 scf cycles and  14 bfgs steps
     (criteria: energy <  1.0E+00, force <  1.9E-03)

     End of BFGS Geometry Optimization

     Final energy   =   -2138.6151491639 Ry
Begin final coordinates

ATOMIC_POSITIONS (crystal)
Tc1      0.000000000   0.000000000   0.404757208    0   0   0
Bi1      0.000000000   0.500000000   0.404757208    0   0   0
Tc1      0.500000000   0.000000000   0.404757208    0   0   0
Tc1      0.500000000   0.500000000   0.404757208    0   0   0
Tc1      0.666666667   0.666666667   0.500000000    0   0   0
Bi1      0.666666667   0.166666667   0.500000000    0   0   0
Tc1      0.166666667   0.666666667   0.500000000    0   0   0
Tc1      0.166666667   0.166666667   0.500000000    0   0   0
Tc1      0.294792810   0.352897763   0.585676654
Bi1      0.333727815   0.833466507   0.612402879
Tc1      0.852634716   0.352400664   0.585629125
Tc1      0.853001536   0.794823121   0.585663312
End final coordinates

     Writing output data file calc.save

     General routines

     Parallel routines

   This run was terminated on:  19:28:47  23Feb2018

   JOB DONE.