     Program PWSCF v.5.1rc2 (svn rev. ) starts on 23Feb2018 at 18:10:21

     Current dimensions of program PWSCF are:
     Max number of different atomic species (ntypx) = 10
     Max number of k-points (npk) =  40000
     Max angular momentum in pseudopotentials (lmaxx) =  3
     Presently stress not available with electric field

     IMPORTANT: XC functional enforced from input :
     Exchange-correlation      = BEEF-VDW ( 1  4 27 13 2)
     Any further DFT definition will be discarded
     Please, verify this is what you really want

     Subspace diagonalization in iterative solution of the eigenvalue problem:
     a serial algorithm will be used

     bravais-lattice index     =            0
     lattice parameter (alat)  =       1.8897  a.u.
     unit-cell volume          =    4635.7165 (a.u.)^3
     number of atoms/cell      =           12
     number of atomic types    =            2
     number of electrons       =       162.00
     number of Kohn-Sham states=           91
     kinetic-energy cutoff     =      36.7493  Ry
     charge density cutoff     =     367.4932  Ry
     convergence threshold     =      1.0E-05
     mixing beta               =       0.3000
     number of iterations used =           10  plain     mixing
     Exchange-correlation      = BEEF-VDW ( 1  4 27 13 2)
     nstep                     =           50

     celldm(1)=   1.889726  celldm(2)=   0.000000  celldm(3)=   0.000000
     celldm(4)=   0.000000  celldm(5)=   0.000000  celldm(6)=   0.000000

     crystal axes: (cart. coord. in units of alat)
               a(1) = (   5.674580   0.000000   0.000000 )
               a(2) = (   2.837290   4.914331   0.000000 )
               a(3) = (   0.000000   0.000000  24.633275 )

     reciprocal axes: (cart. coord. in units 2 pi/alat)
               b(1) = (  0.176224 -0.101743  0.000000 )
               b(2) = (  0.000000  0.203487  0.000000 )
               b(3) = (  0.000000  0.000000  0.040595 )

     PseudoPot. # 1 for V  read from file:
     /home/mamunm/src/pseudo/gbrv1.5pbe/V.UPF
     MD5 check sum: 22b79981416ebb76fdaf5b1b8640f6fb
     Pseudo is Ultrasoft + core correction, Zval = 13.0
     Generated by new atomic code, or converted to UPF format
     Using radial grid of  853 points,  6 beta functions with:
                l(1) =   0
                l(2) =   0
                l(3) =   1
                l(4) =   1
                l(5) =   2
                l(6) =   2
     Q(r) pseudized with  8 coefficients,  rinner =    1.100   1.100   1.100
                                                       1.100   1.100

     PseudoPot. # 2 for Bi read from file:
     /home/mamunm/src/pseudo/gbrv1.5pbe/Bi.UPF
     MD5 check sum: 81103212dc04adf40945787f699eab19
     Pseudo is Ultrasoft + core correction, Zval = 15.0
     Generated by new atomic code, or converted to UPF format
     Using radial grid of  899 points,  6 beta functions with:
                l(1) =   0
                l(2) =   0
                l(3) =   1
                l(4) =   1
                l(5) =   2
                l(6) =   2
     Q(r) pseudized with  6 coefficients,  rinner =    1.000   1.000   1.000
                                                       1.000   1.000

     vdW kernel table read from file vdW_kernel_table
     MD5 check sum: 095c7af220d748ca6e76c0b4c6cfb241

     atomic species   valence    mass     pseudopotential
        V1            13.00    50.94150     V ( 1.00)
        Bi1           15.00   208.98040     Bi( 1.00)

     No symmetry found

   Cartesian axes

     site n.     atom                  positions (alat units)
         1           V1  tau(   1) = (   0.0000000   0.0000000  10.0000000  )
         2           Bi1 tau(   2) = (   1.4186450   2.4571653  10.0000000  )
         3           V1  tau(   3) = (   2.8372901   0.0000000  10.0000000  )
         4           V1  tau(   4) = (   4.2559351   2.4571653  10.0000000  )
         5           V1  tau(   5) = (   5.6745802   3.2762204  12.3166377  )
         6           Bi1 tau(   6) = (   4.2559351   0.8190551  12.3166377  )
         7           V1  tau(   7) = (   2.8372901   3.2762204  12.3166377  )
         8           V1  tau(   8) = (   1.4186450   0.8190551  12.3166377  )
         9           V1  tau(   9) = (   2.8372901   1.6381102  14.6332753  )
        10           Bi1 tau(  10) = (   4.2559351   4.0952755  14.6332753  )
        11           V1  tau(  11) = (   5.6745802   1.6381102  14.6332753  )
        12           V1  tau(  12) = (   7.0932252   4.0952755  14.6332753  )

     number of k points=    20  Fermi-Dirac smearing, width (Ry)=  0.0110
                       cart. coord. in units 2pi/alat
        k(    1) = (   0.0000000   0.0000000   0.0000000), wk =   0.0555556
        k(    2) = (   0.0000000   0.0339144   0.0000000), wk =   0.1111111
        k(    3) = (   0.0000000   0.0678288   0.0000000), wk =   0.1111111
        k(    4) = (   0.0000000  -0.1017433   0.0000000), wk =   0.0555556
        k(    5) = (   0.0293707  -0.0169572   0.0000000), wk =   0.1111111
        k(    6) = (   0.0293707   0.0169572   0.0000000), wk =   0.1111111
        k(    7) = (   0.0293707   0.0508716   0.0000000), wk =   0.1111111
        k(    8) = (   0.0293707  -0.1187005   0.0000000), wk =   0.1111111
        k(    9) = (   0.0293707  -0.0847860   0.0000000), wk =   0.1111111
        k(   10) = (   0.0293707  -0.0508716   0.0000000), wk =   0.1111111
        k(   11) = (   0.0587415  -0.0339144   0.0000000), wk =   0.1111111
        k(   12) = (   0.0587415  -0.0000000   0.0000000), wk =   0.1111111
        k(   13) = (   0.0587415   0.0339144   0.0000000), wk =   0.1111111
        k(   14) = (   0.0587415  -0.1356577   0.0000000), wk =   0.1111111
        k(   15) = (   0.0587415  -0.1017433   0.0000000), wk =   0.1111111
        k(   16) = (   0.0587415  -0.0678288   0.0000000), wk =   0.1111111
        k(   17) = (  -0.0881122   0.0508716   0.0000000), wk =   0.0555556
        k(   18) = (  -0.0881122   0.0847860   0.0000000), wk =   0.1111111
        k(   19) = (  -0.0881122   0.1187005   0.0000000), wk =   0.1111111
        k(   20) = (  -0.0881122  -0.0508716   0.0000000), wk =   0.0555556

     Largest allocated arrays     est. size (Mb)     dimensions
     Largest temporary arrays     est. size (Mb)     dimensions

     Check: negative/imaginary core charge=   -0.000001    0.000000

     Initial potential from superposition of free atoms
     Check: negative starting charge=   -0.130849

     starting charge  158.98883, renormalised to  162.00000

     negative rho (up, down):  1.333E-01 0.000E+00

     *
     * You are using vdW-DF for exchange-correlation in this calculation.
     * Please cite the following three references that made this development
     * possible:
     *
     *   M. Dion, H. Rydberg, E. Schroder, D. C. Langreth, and
     *   B. I. Lundqvist, Phys. Rev. Lett. 92, 246401 (2004).
     *
     *   T. Thonhauser, V. R. Cooper, S. Li, A. Puzder, P. Hyldgaard, and
     *   D. C. Langreth, Phys. Rev. B 76, 125112 (2007).
     *
     *   G. Roman-Perez and J. M. Soler, Phys. Rev. Lett. 103, 096102 (2009).
     *
     *
     * If you are using vdW-DF2, please also cite:
     *
     *   K. Lee, E. D. Murray, L. Kong, B. I. Lundqvist, and
     *   D. C. Langreth, Phys. Rev. B 82, 081101(R) (2010).
     *
     *
     * If you are calculating the stress with vdW-DF, please also cite:
     *
     *   R. Sabatini, E. Kucukbenli, B. Kolb, T. Thonhauser, and
     *   S. de Gironcoli, J. Phys.: Condens. Matter 24, 424209 (2012).
     *

     Carrying out vdW-DF run using the following parameters:

     Nqs =      20    Nr_points =    1024   r_max =   100.000
     q_mesh =
               0.00001000     0.04494208     0.09755937     0.15916263
               0.23128650     0.31572767     0.41458969     0.53033537
               0.66584808     0.82450364     1.01025438     1.22772762
               1.48234092     1.78043706     2.12944203     2.53805004
               3.01644009     3.57652955     4.23227104     5.00000000

     Gradients computed in reciprocal space

     Adding external electric field

     Computed dipole along edir(3) :
        Dipole               -0.0000 Ry au,         -0.0000 Debye
        Dipole field         -0.0000 Ry au

        Potential amp.        0.0000 Ry
        Total length         45.3864 bohr

     Starting wfc are  117 randomized atomic wfcs

     Self-consistent Calculation

     iteration #  1     ecut=    36.75 Ry     beta=0.30
     Davidson diagonalization with overlap
     ethr =  1.00E-02,  avg # of iterations =  2.8

[...]

     total energy              =   -1872.07814079 Ry
     Harris-Foulkes estimate   =   -1873.53541823 Ry
     estimated scf accuracy    <       3.29673532 Ry

[...]

     iteration #  8     ecut=    36.75 Ry     beta=0.30
     Davidson diagonalization with overlap
     c_bands:  1 eigenvalues not converged
     ethr =  2.01E-05,  avg # of iterations =  7.8

[...]

     End of self-consistent calculation

          k = 0.0000 0.0000 0.0000 ( 17531 PWs)   bands (ev):

   -62.7332 -62.7195 -62.6875 -62.6808 -62.6801 -62.6764 -62.6756 -62.6529
   -62.6525 -36.7057 -36.7057 -36.6987 -36.6683 -36.6679 -36.6642 -36.6550
   -36.6445 -36.6439 -36.5915 -36.5844 -36.5837 -36.5554 -36.5550 -36.5346
   -36.5279 -36.4875 -36.4469 -36.4279 -36.4277 -36.3754 -36.2888 -36.2885
   -36.2370 -36.2363 -36.2320 -36.2313 -21.8641 -21.8641 -21.8585 -21.8364
   -21.8363 -21.4807 -21.4749 -21.4685 -21.4685 -21.4660 -21.4660 -21.4478
   -21.4478 -21.4435 -21.4435 -10.9390  -9.8854  -9.6148  -2.7171  -2.2422
    -2.1951  -2.1950  -1.7539  -1.7538  -1.5007  -0.9016  -0.3577  -0.3576
    -0.3284  -0.3282  -0.2190   0.0060   0.0061   0.1521   0.4144   0.4898
     0.4901   0.6967   0.6970   0.7734   1.1878   1.1881   1.2657   1.2658
     1.5993   1.6541   1.8067   2.3664   2.4670   2.4673   2.5115   2.5145
     2.5741   2.5748   2.6565

[...]

          k =-0.0881 0.0509 0.0000 ( 17428 PWs)   bands (ev):

[...]

     the Fermi energy is     1.6205 ev

!    total energy              =   -1873.02265889 Ry
     Harris-Foulkes estimate   =   -1873.02321417 Ry
     estimated scf accuracy    <       0.00000995 Ry

     The total energy is the sum of the following terms:

     one-electron contribution =  -14165.14292998 Ry
     hartree contribution      =    7089.31817927 Ry
     xc contribution           =    -383.57261755 Ry
     ewald contribution        =    5586.48129946 Ry
     electric field correction =       0.00000008 Ry
     smearing contrib. (-TS)   =      -0.10659018 Ry

     convergence has been achieved in  23 iterations

 BEEF-vdW xc energy contributions
           1 :   -336.510593893798
           2 :    308.002505887912
           3 :   -259.504170138597
           4 :    204.082478055687
           5 :   -153.878649893212
           6 :    115.932136859234
           7 :   -91.0518926897653
           8 :    75.5884715173591
           9 :   -64.5777700790114
          10 :    54.3980110059751
          11 :   -43.8365770172206
          12 :    33.5635498669369
          13 :   -24.8384699812431
          14 :    18.4108341057114
          15 :   -14.1682539343805
          16 :    11.4648563351938
          17 :   -9.66830494887353
          18 :    8.45736923625697
          19 :   -7.73479579455540
          20 :    7.36119604640015
          21 :   -7.02966542050405
          22 :    6.40869615922890
          23 :   -5.41082516309831
          24 :    4.31584237004353
          25 :   -3.60808962153209
          26 :    3.62768697394387
          27 :   -4.29745853996229
          28 :    5.13163787361628
          29 :   -5.53105783190966
          30 :    5.16502058479495
          31 :   -30.5360290365854
          32 :   -22.3148289058490

     Forces acting on atoms (Ry/au):

     negative rho (up, down):  1.475E-01 0.000E+00
     atom    1 type  1   force =     0.02109937   -0.01222975    0.03050786
     atom    2 type  2   force =    -0.00019035   -0.00009412   -0.07719479
     atom    3 type  1   force =    -0.02123675   -0.01221541    0.03047525
     atom    4 type  1   force =    -0.00007137    0.02443114    0.03051807
     atom    5 type  1   force =    -0.00007760    0.00001960    0.00008446
     atom    6 type  2   force =     0.00077062   -0.00003827   -0.00090191
     atom    7 type  1   force =    -0.00005438   -0.00002239    0.00020475
     atom    8 type  1   force =    -0.00001577    0.00001597    0.00016313
     atom    9 type  1   force =    -0.02126433    0.01225457   -0.03018193
     atom   10 type  2   force =     0.00001046    0.00010865    0.07665195
     atom   11 type  1   force =     0.02109001    0.01221397   -0.03014588
     atom   12 type  1   force =    -0.00005990   -0.02444395   -0.03018096

     Total force =     0.101980     Total SCF correction =     0.004462

     entering subroutine stress ...

     negative rho (up, down):  1.475E-01 0.000E+00
          total   stress  (Ry/bohr**3)                   (kbar)     P=  -15.24
  -0.00013485  -0.00000008   0.00000002        -19.84     -0.01      0.00
  -0.00000008  -0.00013510  -0.00000009         -0.01    -19.87     -0.01
   0.00000002  -0.00000009  -0.00004087          0.00     -0.01     -6.01

     BFGS Geometry Optimization

     number of scf cycles    =   1
     number of bfgs steps    =   0

     energy   new            =   -1873.0226588936 Ry

     new trust radius        =       0.0766520253 bohr
     new conv_thr            =       0.0000099958 Ry

ATOMIC_POSITIONS (crystal)
V1       0.000000000   0.000000000   0.405954948    0   0   0
Bi1      0.000000000   0.500000000   0.405954948    0   0   0
V1       0.500000000   0.000000000   0.405954948    0   0   0
V1       0.500000000   0.500000000   0.405954948    0   0   0
V1       0.666666667   0.666666667   0.500000000    0   0   0
Bi1      0.666666667   0.166666667   0.500000000    0   0   0
V1       0.166666667   0.666666667   0.500000000    0   0   0
V1       0.166666667   0.166666667   0.500000000    0   0   0
V1       0.330690562   0.334652910   0.593396677
Bi1      0.333328459   0.833345033   0.595691705
V1       0.834642458   0.334648539   0.593397452
V1       0.834643815   0.830701198   0.593396698

     Writing output data file calc.save
     Check: negative starting charge=   -0.130849
     NEW-OLD atomic charge density approx. for the potential

     Check: negative/imaginary core charge=   -0.000001    0.000000
     Check: negative starting charge=   -0.132318

[...]

     energy   old            =   -1873.0226588936 Ry
     energy   new            =   -1873.0377413158 Ry

     CASE: energy  _new < energy  _old

     WARNING: bfgs curvature condition failed, Theta= 0.862
     new trust radius        =       0.1149780380 bohr
     new conv_thr            =       0.0000001000 Ry

[...]

     iteration #  1     ecut=    36.75 Ry     beta=0.30
     Davidson diagonalization with overlap
     c_bands:  1 eigenvalues not converged
     ethr =  1.00E-06,  avg # of iterations = 15.5

[...]

     Total force =     0.006443     Total SCF correction =     0.000298

[...]

     Total force =     0.002917     Total SCF correction =     0.000911
     SCF correction compared to forces is large: reduce conv_thr to get better values

[...]

     number of scf cycles    =  11
     number of bfgs steps    =  10

     energy   old            =   -1873.1039005008 Ry
     energy   new            =   -1873.1041023791 Ry

     CASE: energy  _new < energy  _old

     new trust radius        =       0.0194264129 bohr
     new conv_thr            =       0.0000001000 Ry

ATOMIC_POSITIONS (crystal)
V1       0.000000000   0.000000000   0.405954948    0   0   0
Bi1      0.000000000   0.500000000   0.405954948    0   0   0
V1       0.500000000   0.000000000   0.405954948    0   0   0
V1       0.500000000   0.500000000   0.405954948    0   0   0
V1       0.666666667   0.666666667   0.500000000    0   0   0
Bi1      0.666666667   0.166666667   0.500000000    0   0   0
V1       0.166666667   0.666666667   0.500000000    0   0   0
V1       0.166666667   0.166666667   0.500000000    0   0   0
V1       0.285378073   0.357316976   0.586897206
Bi1      0.333307208   0.833347061   0.611099498
V1       0.857255679   0.357316125   0.586899619
V1       0.857258156   0.785433065   0.586900969

     Writing output data file calc.save
     Check: negative starting charge=   -0.131652
     NEW-OLD atomic charge density approx. for the potential

     Check: negative/imaginary core charge=   -0.000001    0.000000
     Check: negative starting charge=   -0.131766

[...]

     Self-consistent Calculation

[...]

     total energy              =   -1873.10414909 Ry
     Harris-Foulkes estimate   =   -1873.10414912 Ry
     estimated scf accuracy    <       0.00000024 Ry

     iteration # 18     ecut=    36.75 Ry     beta=0.30
     Davidson diagonalization with overlap
     ethr =  1.48E-10,  avg # of iterations =  1.2

[...]

     negative rho (up, down):  1.477E-01 0.000E+00

     Adding external electric field

     Computed dipole along edir(3) :
        Dipole                0.0532 Ry au,          0.1353 Debye
        Dipole field          0.0001 Ry au

        Potential amp.       -0.0131 Ry
        Total length         45.3864 bohr

     End of self-consistent calculation

[...]

          k = 0.0587-0.0678 0.0000 ( 17427 PWs)   bands (ev):

[...]

          k =-0.0881-0.0509 0.0000 ( 17428 PWs)   bands (ev):

   -62.6450 -62.6307 -62.6147 -62.5846 -62.5637 -62.5477 -62.4749 -62.3639
   -62.3602 -36.6370 -36.6157 -36.5963 -36.5687 -36.5674 -36.5415 -36.5286
   -36.5225 -36.4993 -36.4776 -36.4742 -36.4631 -36.4505 -36.4288 -36.3919
   -36.3783 -36.3081 -36.2986 -36.2775 -36.2482 -36.1873 -36.1662 -36.1485
   -36.1356 -36.0904 -35.9232 -35.8875 -21.7824 -21.7739 -21.7670 -21.7528
   -21.7524 -21.4194 -21.4141 -21.4022 -21.3980 -21.3892 -21.3870 -21.3816
   -21.3798 -21.3553 -21.3510 -10.2628  -9.6357  -9.2751  -3.9633  -3.2076
    -3.0133  -2.7004  -1.6031  -1.4682  -1.3438  -1.1119  -1.0513  -0.8089
    -0.2833   0.2953   0.3971   0.4644   0.5414   0.5428   0.7051   0.7284
     0.8567   0.9864   1.0104   1.0988   1.2211   1.3140   1.4224   1.5062
     1.6365   1.6968   1.7862   1.8652   2.0966   2.3175   2.3924   2.4993
     2.5518   2.6716   2.7124

     the Fermi energy is     1.6854 ev

!    total energy              =   -1873.10414907 Ry
     Harris-Foulkes estimate   =   -1873.10414895 Ry
     estimated scf accuracy    <       0.00000004 Ry

     The total energy is the sum of the following terms:

     one-electron contribution =  -14182.84033310 Ry
     hartree contribution      =    7098.86457112 Ry
     xc contribution           =    -383.71753093 Ry
     ewald contribution        =    5594.68716188 Ry
     electric field correction =       0.00000768 Ry
     smearing contrib. (-TS)   =      -0.09802572 Ry

     convergence has been achieved in  18 iterations

 BEEF-vdW xc energy contributions
           1 :   -336.800858349881
           2 :    308.299216386442
           3 :   -259.779071597925
           4 :    204.265685960958
           5 :   -153.896013712331
           6 :    115.767544216364
           7 :   -90.7818511603687
           8 :    75.3533020497179
           9 :   -64.5006076670390
          10 :    54.5021860962088
          11 :   -44.0174403057123
          12 :    33.6420792985558
          13 :   -24.6725880162173
          14 :    17.9970644338240
          15 :   -13.6628548550123
          16 :    11.0989143515162
          17 :   -9.60274950972325
          18 :    8.67299180925954
          19 :   -8.03694653957473
          20 :    7.50357271715791
          21 :   -6.87734691349192
          22 :    6.03015935758793
          23 :   -5.03478139786898
          24 :    4.18113199874801
          25 :   -3.80684322307837
          26 :    4.04649042890958
          27 :   -4.69479464066785
          28 :    5.29862881819321
          29 :   -5.42740715951152
          30 :    4.94008457292921
          31 :   -30.5525589353111
          32 :   -22.3230481828372

     Forces acting on atoms (Ry/au):

     negative rho (up, down):  1.477E-01 0.000E+00
     atom    1 type  1   force =     0.01885382   -0.01088583    0.02896871
     atom    2 type  2   force =     0.00001486   -0.00002169   -0.07903873
     atom    3 type  1   force =    -0.01885674   -0.01088670    0.02897129
     atom    4 type  1   force =    -0.00000143    0.02177393    0.02897237
     atom    5 type  1   force =    -0.01890891    0.01091744   -0.00094685
     atom    6 type  2   force =    -0.00000010    0.00000315   -0.00422578
     atom    7 type  1   force =     0.01889911    0.01092082   -0.00094723
     atom    8 type  1   force =    -0.00000706   -0.02182660   -0.00094904
     atom    9 type  1   force =     0.00031608   -0.00018941   -0.00001795
     atom   10 type  2   force =    -0.00001814    0.00002581   -0.00072414
     atom   11 type  1   force =    -0.00029596   -0.00018013   -0.00002848
     atom   12 type  1   force =     0.00000447    0.00034922   -0.00003418

     Total force =     0.000952     Total SCF correction =     0.000416
     SCF correction compared to forces is large: reduce conv_thr to get better values

     entering subroutine stress ...

     negative rho (up, down):  1.477E-01 0.000E+00
          total   stress  (Ry/bohr**3)                   (kbar)     P=  -11.17
  -0.00010445   0.00000000   0.00000001        -15.36      0.00      0.00
   0.00000000  -0.00010446  -0.00000001          0.00    -15.37     -0.00
   0.00000001  -0.00000001  -0.00001881          0.00     -0.00     -2.77

     bfgs converged in  12 scf cycles and  11 bfgs steps
     (criteria: energy <  1.0E+00, force <  1.9E-03)

     End of BFGS Geometry Optimization

     Final energy   =   -1873.1041490659 Ry
Begin final coordinates

ATOMIC_POSITIONS (crystal)
V1       0.000000000   0.000000000   0.405954948    0   0   0
Bi1      0.000000000   0.500000000   0.405954948    0   0   0
V1       0.500000000   0.000000000   0.405954948    0   0   0
V1       0.500000000   0.500000000   0.405954948    0   0   0
V1       0.666666667   0.666666667   0.500000000    0   0   0
Bi1      0.666666667   0.166666667   0.500000000    0   0   0
V1       0.166666667   0.666666667   0.500000000    0   0   0
V1       0.166666667   0.166666667   0.500000000    0   0   0
V1       0.285378073   0.357316976   0.586897206
Bi1      0.333307208   0.833347061   0.611099498
V1       0.857255679   0.357316125   0.586899619
V1       0.857258156   0.785433065   0.586900969
End final coordinates

     Writing output data file calc.save

     General routines

     Parallel routines

   This run was terminated on:  19:24:41  23Feb2018

   JOB DONE.