     Program PWSCF v.5.1rc2 (svn rev. ) starts on 23Feb2018 at 18:10:22

     Current dimensions of program PWSCF are:
     Max number of different atomic species (ntypx) = 10
     Max number of k-points (npk) =  40000
     Max angular momentum in pseudopotentials (lmaxx) =  3
     Presently stress not available with electric field

     IMPORTANT: XC functional enforced from input :
     Exchange-correlation      = BEEF-VDW ( 1  4 27 13 2)
     Any further DFT definition will be discarded
     Please, verify this is what you really want

     Subspace diagonalization in iterative solution of the eigenvalue problem:
     a serial algorithm will be used

     bravais-lattice index     =            0
     lattice parameter (alat)  =       1.8897  a.u.
     unit-cell volume          =    4870.1681 (a.u.)^3
     number of atoms/cell      =           12
     number of atomic types    =            2
     number of electrons       =       180.00
     number of Kohn-Sham states=          100
     kinetic-energy cutoff     =      36.7493  Ry
     charge density cutoff     =     367.4932  Ry
     convergence threshold     =      1.0E-05
     mixing beta               =       0.3000
     number of iterations used =           10  plain     mixing
     Exchange-correlation      = BEEF-VDW ( 1  4 27 13 2)
     nstep                     =           50

     celldm(1)=   1.889726  celldm(2)=   0.000000  celldm(3)=   0.000000
     celldm(4)=   0.000000  celldm(5)=   0.000000  celldm(6)=   0.000000

     crystal axes: (cart. coord. in units of alat)
               a(1) = (   5.803882   0.000000   0.000000 )
               a(2) = (   2.901941   5.026310   0.000000 )
               a(3) = (   0.000000   0.000000  24.738850 )

     reciprocal axes: (cart. coord. in units 2 pi/alat)
               b(1) = (  0.172298 -0.099477  0.000000 )
               b(2) = (  0.000000  0.198953 -0.000000 )
               b(3) = (  0.000000  0.000000  0.040422 )

     PseudoPot. # 1 for Re read from file:
     /home/mamunm/src/pseudo/gbrv1.5pbe/Re.UPF
     MD5 check sum: 85f993410f3e006da9d71c142b4ad953
     Pseudo is Ultrasoft + core correction, Zval = 15.0
     Generated by new atomic code, or converted to UPF format
     Using radial grid of  981 points,  8 beta functions with:
                l(1) =   0
                l(2) =   0
                l(3) =   1
                l(4) =   1
                l(5) =   2
                l(6) =   2
                l(7) =   3
                l(8) =   3
     Q(r) pseudized with  8 coefficients,  rinner =    1.150   1.150   1.150
                                                       1.150   1.150   1.150
                                                       1.150

     PseudoPot. # 2 for Bi read from file:
     /home/mamunm/src/pseudo/gbrv1.5pbe/Bi.UPF
     MD5 check sum: 81103212dc04adf40945787f699eab19
     Pseudo is Ultrasoft + core correction, Zval = 15.0
     Generated by new atomic code, or converted to UPF format
     Using radial grid of  899 points,  6 beta functions with:
                l(1) =   0
                l(2) =   0
                l(3) =   1
                l(4) =   1
                l(5) =   2
                l(6) =   2
     Q(r) pseudized with  6 coefficients,  rinner =    1.000   1.000   1.000
                                                       1.000   1.000

     vdW kernel table read from file vdW_kernel_table
     MD5 check sum: 095c7af220d748ca6e76c0b4c6cfb241

     atomic species   valence    mass     pseudopotential
        Re1           15.00   186.20700     Re( 1.00)
        Bi1           15.00   208.98040     Bi( 1.00)

     No symmetry found

   Cartesian axes

     site n.     atom                  positions (alat units)
         1           Re1 tau(   1) = (   0.0000000   0.0000000  10.0000000  )
         2           Bi1 tau(   2) = (   1.4509706   2.5131548  10.0000000  )
         3           Re1 tau(   3) = (   2.9019412   0.0000000  10.0000000  )
         4           Re1 tau(   4) = (   4.3529118   2.5131548  10.0000000  )
         5           Re1 tau(   5) = (   5.8038824   3.3508731  12.3694251  )
         6           Bi1 tau(   6) = (   4.3529118   0.8377183  12.3694251  )
         7           Re1 tau(   7) = (   2.9019412   3.3508731  12.3694251  )
         8           Re1 tau(   8) = (   1.4509706   0.8377183  12.3694251  )
         9           Re1 tau(   9) = (   2.9019412   1.6754365  14.7388502  )
        10           Bi1 tau(  10) = (   4.3529118   4.1885913  14.7388502  )
        11           Re1 tau(  11) = (   5.8038824   1.6754365  14.7388502  )
        12           Re1 tau(  12) = (   7.2548530   4.1885913  14.7388502  )

     number of k points=    20  Fermi-Dirac smearing, width (Ry)=  0.0110
                       cart. coord. in units 2pi/alat
        k(    1) = (   0.0000000   0.0000000   0.0000000), wk =   0.0555556
        k(    2) = (   0.0000000   0.0331589  -0.0000000), wk =   0.1111111
        k(    3) = (   0.0000000   0.0663177  -0.0000000), wk =   0.1111111
        k(    4) = (   0.0000000  -0.0994766   0.0000000), wk =   0.0555556
        k(    5) = (   0.0287164  -0.0165794   0.0000000), wk =   0.1111111
        k(    6) = (   0.0287164   0.0165794  -0.0000000), wk =   0.1111111
        k(    7) = (   0.0287164   0.0497383  -0.0000000), wk =   0.1111111
        k(    8) = (   0.0287164  -0.1160560   0.0000000), wk =   0.1111111
        k(    9) = (   0.0287164  -0.0828971   0.0000000), wk =   0.1111111
        k(   10) = (   0.0287164  -0.0497383   0.0000000), wk =   0.1111111
        k(   11) = (   0.0574328  -0.0331589   0.0000000), wk =   0.1111111
        k(   12) = (   0.0574328   0.0000000   0.0000000), wk =   0.1111111
        k(   13) = (   0.0574328   0.0331589  -0.0000000), wk =   0.1111111
        k(   14) = (   0.0574328  -0.1326354   0.0000000), wk =   0.1111111
        k(   15) = (   0.0574328  -0.0994766   0.0000000), wk =   0.1111111
        k(   16) = (   0.0574328  -0.0663177   0.0000000), wk =   0.1111111
        k(   17) = (  -0.0861492   0.0497383  -0.0000000), wk =   0.0555556
        k(   18) = (  -0.0861492   0.0828971  -0.0000000), wk =   0.1111111
        k(   19) = (  -0.0861492   0.1160560  -0.0000000), wk =   0.1111111
        k(   20) = (  -0.0861492  -0.0497383   0.0000000), wk =   0.0555556

     Largest allocated arrays     est. size (Mb)     dimensions
     Largest temporary arrays     est. size (Mb)     dimensions

     Initial potential from superposition of free atoms
     Check: negative starting charge=   -1.276406

     starting charge  172.49947, renormalised to  180.00000

     negative rho (up, down):  1.332E+00 0.000E+00

     *
     * You are using vdW-DF for exchange-correlation in this calculation.
     * Please cite the following three references that made this development
     * possible:
     *
     *   M. Dion, H. Rydberg, E. Schroder, D. C. Langreth, and
     *   B. I. Lundqvist, Phys. Rev. Lett. 92, 246401 (2004).
     *
     *   T. Thonhauser, V. R. Cooper, S. Li, A. Puzder, P. Hyldgaard, and
     *   D. C. Langreth, Phys. Rev. B 76, 125112 (2007).
     *
     *   G. Roman-Perez and J. M. Soler, Phys. Rev. Lett. 103, 096102 (2009).
     *
     *
     * If you are using vdW-DF2, please also cite:
     *
     *   K. Lee, E. D. Murray, L. Kong, B. I. Lundqvist, and
     *   D. C. Langreth, Phys. Rev. B 82, 081101(R) (2010).
     *
     *
     * If you are calculating the stress with vdW-DF, please also cite:
     *
     *   R. Sabatini, E. Kucukbenli, B. Kolb, T. Thonhauser, and
     *   S. de Gironcoli, J. Phys.: Condens. Matter 24, 424209 (2012).
     *

     Carrying out vdW-DF run using the following parameters:

     Nqs =      20    Nr_points =    1024   r_max =   100.000
     q_mesh =
               0.00001000     0.04494208     0.09755937     0.15916263
               0.23128650     0.31572767     0.41458969     0.53033537
               0.66584808     0.82450364     1.01025438     1.22772762
               1.48234092     1.78043706     2.12944203     2.53805004
               3.01644009     3.57652955     4.23227104     5.00000000

     Gradients computed in reciprocal space

     Adding external electric field

     Computed dipole along edir(3) :
        Dipole               -0.0000 Ry au,         -0.0000 Debye
        Dipole field         -0.0000 Ry au

        Potential amp.        0.0000 Ry
        Total length         45.5809 bohr

     Starting wfc are  144 randomized atomic wfcs

     Self-consistent Calculation

     iteration #  1     ecut=    36.75 Ry     beta=0.30
     Davidson diagonalization with overlap
     ethr =  1.00E-02,  avg # of iterations =  2.0

[...]

     total energy              =   -2289.94468769 Ry
     Harris-Foulkes estimate   =   -2291.07664704 Ry
     estimated scf accuracy    <       2.84867529 Ry

[...]

     End of self-consistent calculation

          k = 0.0000 0.0000 0.0000 ( 18331 PWs)   bands (ev):

   -77.8882 -77.8603 -77.8591 -77.7826 -77.7810 -77.7568 -77.7557 -77.7546
   -77.7541 -39.8407 -39.7658 -39.7433 -39.7425 -39.7146 -39.7014 -39.7004
   -39.6837 -39.5999 -39.5988 -39.5229 -39.5222 -39.4993 -39.4680 -39.4205
   -39.4190 -39.3705 -39.3610 -39.3602 -39.3453 -39.3412 -39.3247 -39.3241
   -39.2450 -39.2439 -39.2397 -39.2387 -21.1545 -21.1538 -21.1538 -21.1331
   -21.1331 -20.8032 -20.7949 -20.7800 -20.7800 -20.7752 -20.7751 -20.7646
   -20.7646 -20.7586 -20.7586 -10.6112  -9.4257  -9.3352  -3.4289  -3.3762
    -2.8222  -2.2726  -2.2724  -1.9908  -1.9906  -1.5397  -1.5396  -1.3488
    -1.2588  -1.0884  -1.0883  -0.5636  -0.5630  -0.2418   0.2420   0.3798
     0.3799   0.4374   0.5678   0.5684   0.6753   0.6753   0.9336   0.9342
     1.3196   1.4807   1.9992   2.5169   2.5172   2.6194   2.7022   2.7399
     2.7404   2.9183   2.9192   2.9366   3.2434   3.3092   3.3092   3.4001
     3.4854   3.4862   3.8319   4.0158

[...]

          k =-0.0861 0.0497-0.0000 ( 18280 PWs)   bands (ev):

[...]

     the Fermi energy is     2.7690 ev

!    total energy              =   -2289.99368609 Ry
     Harris-Foulkes estimate   =   -2289.99832975 Ry
     estimated scf accuracy    <       0.00000980 Ry

     The total energy is the sum of the following terms:

     one-electron contribution =  -16184.84263202 Ry
     hartree contribution      =    8095.58276557 Ry
     xc contribution           =    -686.68859967 Ry
     ewald contribution        =    6486.06079600 Ry
     electric field correction =       0.00000011 Ry
     smearing contrib. (-TS)   =      -0.10601609 Ry

     convergence has been achieved in  14 iterations

 BEEF-vdW xc energy contributions
           1 :   -611.045323733454
           2 :    568.090733059562
           3 :   -491.297699131816
           4 :    395.801505308369
           5 :   -298.120096464710
           6 :    211.716190496064
           7 :   -144.133133280431
           8 :    96.4210031278224
           9 :   -64.7220325214837
          10 :    43.0911780157091
          11 :   -26.2859200585660
          12 :    11.4693243040670
          13 :    1.59400017482005
          14 :   -11.5662981845992
          15 :    17.0430886905890
          16 :   -17.7434093062574
          17 :    14.8855159767741
          18 :   -10.7095836004880
          19 :    7.49924219601496
          20 :   -6.64004698831275
          21 :    8.16705182469104
          22 :   -10.9664454886679
          23 :    13.4618810973417
          24 :   -14.4124270353182
          25 :    13.4430101524364
          26 :   -11.1002312903886
          27 :    8.46768221050513
          28 :   -6.57829328614639
          29 :    5.92841177085597
          30 :   -6.31636571187130
          31 :   -50.1116301286324
          32 :   -37.0898865205972

     Forces acting on atoms (Ry/au):

     negative rho (up, down):  1.297E+00 0.000E+00
     atom    1 type  1   force =     0.04091162   -0.02347730    0.04241974
     atom    2 type  2   force =    -0.00024107    0.00037622   -0.07002726
     atom    3 type  1   force =    -0.04072135   -0.02339740    0.04206196
     atom    4 type  1   force =    -0.00008061    0.04698574    0.04275993
     atom    5 type  1   force =     0.00017372    0.00000073    0.00045269
     atom    6 type  2   force =    -0.00054687    0.00038328   -0.00078309
     atom    7 type  1   force =     0.00001365    0.00036785    0.00016728
     atom    8 type  1   force =    -0.00022156   -0.00019776    0.00012750
     atom    9 type  1   force =    -0.04088512    0.02346783   -0.04208701
     atom   10 type  2   force =     0.00042220   -0.00054893    0.06879866
     atom   11 type  1   force =     0.04100924    0.02327045   -0.04207935
     atom   12 type  1   force =     0.00016615   -0.04723070   -0.04181106

     Total force =     0.129229     Total SCF correction =     0.003465

     entering subroutine stress ...

     negative rho (up, down):  1.297E+00 0.000E+00
          total   stress  (Ry/bohr**3)                   (kbar)     P=  -38.82
  -0.00032667   0.00000001  -0.00000006        -48.05      0.00     -0.01
   0.00000001  -0.00032705  -0.00000003          0.00    -48.11     -0.00
  -0.00000006  -0.00000003  -0.00013793         -0.01     -0.00    -20.29

     BFGS Geometry Optimization

     number of scf cycles    =   1
     number of bfgs steps    =   0

     energy   new            =   -2289.9936860948 Ry

     new trust radius        =       0.0688021415 bohr
     new conv_thr            =       0.0000099958 Ry

ATOMIC_POSITIONS (crystal)
Re1      0.000000000  -0.000000000   0.404222506    0   0   0
Bi1     -0.000000000   0.500000000   0.404222506    0   0   0
Re1      0.500000000  -0.000000000   0.404222506    0   0   0
Re1      0.500000000   0.500000000   0.404222506    0   0   0
Re1      0.666666667   0.666666667   0.500000000    0   0   0
Bi1      0.666666667   0.166666667   0.500000000    0   0   0
Re1      0.166666667   0.666666667   0.500000000    0   0   0
Re1      0.166666667   0.166666667   0.500000000    0   0   0
Re1      0.328370211   0.335804061   0.594877230
Bi1      0.333400724   0.833275541   0.597249134
Re1      0.835847436   0.335783280   0.594877395
Re1      0.835834741   0.828360816   0.594883133

     Writing output data file calc.save
     Check: negative starting charge=   -1.276406
     NEW-OLD atomic charge density approx. for the potential
     Check: negative starting charge=   -1.281118

[...]

     energy   old            =   -2289.9936860948 Ry
     energy   new            =   -2290.0148754499 Ry

     CASE: energy  _new < energy  _old

     WARNING: bfgs curvature condition failed, Theta= 0.823
     new trust radius        =       0.0756823556 bohr
     new conv_thr            =       0.0000001000 Ry

[...]

     iteration #  1     ecut=    36.75 Ry     beta=0.30
     Davidson diagonalization with overlap
     c_bands:  1 eigenvalues not converged
     c_bands:  1 eigenvalues not converged
     ethr =  1.00E-06,  avg # of iterations = 13.9

[...]

     iteration #  1     ecut=    36.75 Ry     beta=0.30
     Davidson diagonalization with overlap
     c_bands:  1 eigenvalues not converged
     c_bands:  1 eigenvalues not converged
     c_bands:  1 eigenvalues not converged
     ethr =  1.00E-06,  avg # of iterations = 14.2

[...]

     number of scf cycles    =  15
     number of bfgs steps    =  14

     energy   old            =   -2290.1292966813 Ry
     energy   new            =   -2290.1312851323 Ry

     CASE: energy  _new < energy  _old

     new trust radius        =       0.0430153931 bohr
     new conv_thr            =       0.0000001000 Ry

ATOMIC_POSITIONS (crystal)
Re1      0.000000000  -0.000000000   0.404222506    0   0   0
Bi1     -0.000000000   0.500000000   0.404222506    0   0   0
Re1      0.500000000  -0.000000000   0.404222506    0   0   0
Re1      0.500000000   0.500000000   0.404222506    0   0   0
Re1      0.666666667   0.666666667   0.500000000    0   0   0
Bi1      0.666666667   0.166666667   0.500000000    0   0   0
Re1      0.166666667   0.666666667   0.500000000    0   0   0
Re1      0.166666667   0.166666667   0.500000000    0   0   0
Re1      0.290285840   0.354939349   0.585626071
Bi1      0.334558214   0.832850460   0.630569146
Re1      0.855793050   0.354182556   0.585543767
Re1      0.855859116   0.790023987   0.585539848

     Writing output data file calc.save
     Check: negative starting charge=   -1.280097
     NEW-OLD atomic charge density approx. for the potential
     Check: negative starting charge=   -1.282146

[...]

     Self-consistent Calculation

[...]

     total energy              =   -2290.13149828 Ry
     Harris-Foulkes estimate   =   -2290.13149833 Ry
     estimated scf accuracy    <       0.00000016 Ry

     iteration # 14     ecut=    36.75 Ry     beta=0.30
     Davidson diagonalization with overlap
     ethr =  9.16E-11,  avg # of iterations =  2.2

[...]

     negative rho (up, down):  1.309E+00 0.000E+00

     Adding external electric field

     Computed dipole along edir(3) :
        Dipole                0.2062 Ry au,          0.5240 Debye
        Dipole field          0.0005 Ry au

        Potential amp.       -0.0485 Ry
        Total length         45.5809 bohr

     End of self-consistent calculation

[...]

          k = 0.0574-0.0663 0.0000 ( 18303 PWs)   bands (ev):

[...]

          k =-0.0861-0.0497 0.0000 ( 18280 PWs)   bands (ev):

   -77.7830 -77.7145 -77.7048 -77.6926 -77.6796 -77.6735 -77.5498 -77.5412
   -77.5321 -40.0114 -39.8148 -39.7815 -39.7784 -39.6865 -39.6209 -39.5020
   -39.4810 -39.4347 -39.3976 -39.3890 -39.3841 -39.2841 -39.2656 -39.2610
   -39.2563 -39.2346 -39.2289 -39.1973 -39.1887 -39.1484 -39.1168 -39.1120
   -39.1051 -39.0877 -39.0665 -39.0419 -20.9722 -20.9633 -20.9445 -20.9357
   -20.9355 -20.5800 -20.5509 -20.5505 -20.5457 -20.5406 -20.5311 -20.5219
   -20.5202 -20.4536 -20.4519  -9.7378  -8.9341  -8.1124  -4.5856  -3.6228
    -3.1871  -3.1807  -2.3705  -1.6990  -1.6849  -1.5627  -1.3989  -1.1406
    -1.0824  -0.8447  -0.6030  -0.4143  -0.4101  -0.2095  -0.1225  -0.0271
    -0.0179   0.3973   0.5559   0.7280   0.8250   1.0409   1.1470   1.2042
     1.4254   1.4668   1.6472   1.8065   1.8983   2.3384   2.4137   2.4810
     2.7901   2.8144   2.9971   3.0027   3.0713   3.3644   3.3727   3.4922
     3.5159   3.5513   3.6745   3.7911

     the Fermi energy is     2.9973 ev

!    total energy              =   -2290.13149829 Ry
     Harris-Foulkes estimate   =   -2290.13149844 Ry
     estimated scf accuracy    <          5.7E-09 Ry

     The total energy is the sum of the following terms:

     one-electron contribution =  -16078.51933875 Ry
     hartree contribution      =    8043.31300974 Ry
     xc contribution           =    -686.85374786 Ry
     ewald contribution        =    6432.01606764 Ry
     electric field correction =       0.00010967 Ry
     smearing contrib. (-TS)   =      -0.08759873 Ry

     convergence has been achieved in  14 iterations

 BEEF-vdW xc energy contributions
           1 :   -611.347656831495
           2 :    568.398191149269
           3 :   -491.609939191166
           4 :    396.096684261999
           5 :   -298.341620211310
           6 :    211.781954472775
           7 :   -143.969992891612
           8 :    96.0095621366268
           9 :   -64.1287005141864
          10 :    42.4673258304696
          11 :   -25.8255921799937
          12 :    11.3338862323201
          13 :    1.35579638542572
          14 :   -11.0622721601908
          15 :    16.5130180842480
          16 :   -17.4629976359947
          17 :    15.0354722364037
          18 :   -11.2732818318539
          19 :    8.24806315999217
          20 :   -7.22630883167585
          21 :    8.28704842699563
          22 :   -10.5147699130080
          23 :    12.5962265319614
          24 :   -13.4890022281127
          25 :    12.8482040301742
          26 :   -11.0601209971605
          27 :    8.93301992562488
          28 :   -7.24664426230140
          29 :    6.39518586416500
          30 :   -6.27882879151616
          31 :   -50.1250199405468
          32 :   -37.0956502833006

     Forces acting on atoms (Ry/au):

     negative rho (up, down):  1.309E+00 0.000E+00
     atom    1 type  1   force =     0.03646839   -0.02103636    0.03129589
     atom    2 type  2   force =    -0.00004018    0.00001881   -0.07573268
     atom    3 type  1   force =    -0.03644509   -0.02116642    0.03113678
     atom    4 type  1   force =     0.00012945    0.04214198    0.03113178
     atom    5 type  1   force =    -0.03249189    0.01874615    0.00120372
     atom    6 type  2   force =    -0.00032004    0.00017686   -0.02393501
     atom    7 type  1   force =     0.03225073    0.01862059    0.00092021
     atom    8 type  1   force =    -0.00001954   -0.03725911    0.00097073
     atom    9 type  1   force =    -0.00080658    0.00047625    0.00133775
     atom   10 type  2   force =     0.00007572   -0.00006098   -0.00113344
     atom   11 type  1   force =     0.00108058    0.00049027    0.00136281
     atom   12 type  1   force =     0.00011845   -0.00114805    0.00144144

     Total force =     0.003261     Total SCF correction =     0.000259

     entering subroutine stress ...

     negative rho (up, down):  1.309E+00 0.000E+00
          total   stress  (Ry/bohr**3)                   (kbar)     P=  -24.46
  -0.00022839   0.00000005   0.00000028        -33.60      0.01      0.04
   0.00000005  -0.00022831  -0.00000014          0.01    -33.59     -0.02
   0.00000028  -0.00000014  -0.00004208          0.04     -0.02     -6.19

     bfgs converged in  16 scf cycles and  15 bfgs steps
     (criteria: energy <  1.0E+00, force <  1.9E-03)

     End of BFGS Geometry Optimization

     Final energy   =   -2290.1314982876 Ry
Begin final coordinates

ATOMIC_POSITIONS (crystal)
Re1      0.000000000  -0.000000000   0.404222506    0   0   0
Bi1     -0.000000000   0.500000000   0.404222506    0   0   0
Re1      0.500000000  -0.000000000   0.404222506    0   0   0
Re1      0.500000000   0.500000000   0.404222506    0   0   0
Re1      0.666666667   0.666666667   0.500000000    0   0   0
Bi1      0.666666667   0.166666667   0.500000000    0   0   0
Re1      0.166666667   0.666666667   0.500000000    0   0   0
Re1      0.166666667   0.166666667   0.500000000    0   0   0
Re1      0.290285840   0.354939349   0.585626071
Bi1      0.334558214   0.832850460   0.630569146
Re1      0.855793050   0.354182556   0.585543767
Re1      0.855859116   0.790023987   0.585539848
End final coordinates

     Writing output data file calc.save

     General routines

     Parallel routines

   This run was terminated on:  19:52:43  23Feb2018

   JOB DONE.