     Program PWSCF v.5.1rc2 starts on 14Nov2017 at  9:32:15

     Current dimensions of program PWSCF are:
     Max number of different atomic species (ntypx) = 10
     Max number of k-points (npk) =  40000
     Max angular momentum in pseudopotentials (lmaxx) =  3

     IMPORTANT: XC functional enforced from input :
     Exchange-correlation      = BEEF-VDW ( 1  4 27 13 2)
     Any further DFT definition will be discarded
     Please, verify this is what you really want

     Found symmetry operation: I + ( -0.5000 -0.5000  0.0000)
     This is a supercell, fractional translations are disabled

     bravais-lattice index     =            0
     lattice parameter (alat)  =       1.8897  a.u.
     unit-cell volume          =     422.5916 (a.u.)^3
     number of atoms/cell      =            4
     number of atomic types    =            2
     number of electrons       =        60.00
     number of Kohn-Sham states=           50
     kinetic-energy cutoff     =      58.7989  Ry
     charge density cutoff     =     587.9892  Ry
     convergence threshold     =      1.0E-06
     mixing beta               =       0.1000
     number of iterations used =           10  plain     mixing
     Exchange-correlation      = BEEF-VDW ( 1  4 27 13 2)

     celldm(1)=   1.889726  celldm(2)=   0.000000  celldm(3)=   0.000000
     celldm(4)=   0.000000  celldm(5)=   0.000000  celldm(6)=   0.000000

     crystal axes: (cart. coord. in units of alat)
               a(1) = (   3.881292   0.000000   0.000000 )
               a(2) = (   0.000000   3.881292   0.000000 )
               a(3) = (   0.000000   0.000000   4.156921 )

     reciprocal axes: (cart. coord. in units 2 pi/alat)
               b(1) = (  0.257646  0.000000  0.000000 )
               b(2) = (  0.000000  0.257646  0.000000 )
               b(3) = (  0.000000  0.000000  0.240563 )

     PseudoPot. # 1 for W  read from file:
     /home/users/vossj/suncat/psp/gbrv1.5pbe/W.UPF
     MD5 check sum: 9c083fa34c2a2ea0f02f1f893e16e1c8
     Pseudo is Ultrasoft + core correction, Zval = 14.0
     Generated by new atomic code, or converted to UPF format
     Using radial grid of  923 points,  8 beta functions with:
                l(1) =   0
                l(2) =   0
                l(3) =   0
                l(4) =   1
                l(5) =   1
                l(6) =   2
                l(7) =   2
                l(8) =   3
     Q(r) pseudized with  6 coefficients,  rinner =    1.350   1.350   1.350
                                                       1.350   1.350   1.350
                                                       1.350

     PseudoPot. # 2 for Pt read from file:
     /home/users/vossj/suncat/psp/gbrv1.5pbe/Pt.UPF
     MD5 check sum: f09d6de1a584b5a045c4fc126da2d0c4
     Pseudo is Ultrasoft + core correction, Zval = 16.0
     Generated by new atomic code, or converted to UPF format
     Using radial grid of  985 points,  6 beta functions with:
                l(1) =   0
                l(2) =   0
                l(3) =   1
                l(4) =   1
                l(5) =   2
                l(6) =   2
     Q(r) pseudized with  8 coefficients,  rinner =    1.300   1.300   1.300
                                                       1.300   1.300

     vdW kernel table read from file vdW_kernel_table
     MD5 check sum: 095c7af220d748ca6e76c0b4c6cfb241

     atomic species   valence    mass     pseudopotential
        W1            14.00   183.85000     W ( 1.00)
        Pt1           16.00   195.08000     Pt( 1.00)

     16 Sym. Ops., with inversion, found

   Cartesian axes

     site n.     atom                  positions (alat units)
         1           W1  tau(   1) = (   0.0000000   0.0000000   0.0000000  )
         2           W1  tau(   2) = (   1.9406458   1.9406458   0.0000000  )
         3           Pt1 tau(   3) = (   1.9406458   0.0000000   2.0784603  )
         4           Pt1 tau(   4) = (   0.0000000   1.9406458   2.0784603  )

     number of k points=    75  Fermi-Dirac smearing, width (Ry)=  0.0073
                       cart. coord. in units 2pi/alat
        k(    1) = (   0.0000000   0.0000000   0.0000000), wk =   0.0027435
        k(    2) = (   0.0000000   0.0000000   0.0267292), wk =   0.0054870
        k(    3) = (   0.0000000   0.0000000   0.0534584), wk =   0.0054870
        k(    4) = (   0.0000000   0.0000000   0.0801876), wk =   0.0054870
        k(    5) = (   0.0000000   0.0000000   0.1069168), wk =   0.0054870
        k(    6) = (   0.0000000   0.0286274   0.0000000), wk =   0.0109739
        k(    7) = (   0.0000000   0.0286274   0.0267292), wk =   0.0219479
        k(    8) = (   0.0000000   0.0286274   0.0534584), wk =   0.0219479
        k(    9) = (   0.0000000   0.0286274   0.0801876), wk =   0.0219479
        k(   10) = (   0.0000000   0.0286274   0.1069168), wk =   0.0219479
        k(   11) = (   0.0000000   0.0572547   0.0000000), wk =   0.0109739
        k(   12) = (   0.0000000   0.0572547   0.0267292), wk =   0.0219479
        k(   13) = (   0.0000000   0.0572547   0.0534584), wk =   0.0219479
        k(   14) = (   0.0000000   0.0572547   0.0801876), wk =   0.0219479
        k(   15) = (   0.0000000   0.0572547   0.1069168), wk =   0.0219479
        k(   16) = (   0.0000000   0.0858821   0.0000000), wk =   0.0109739
        k(   17) = (   0.0000000   0.0858821   0.0267292), wk =   0.0219479
        k(   18) = (   0.0000000   0.0858821   0.0534584), wk =   0.0219479
        k(   19) = (   0.0000000   0.0858821   0.0801876), wk =   0.0219479
        k(   20) = (   0.0000000   0.0858821   0.1069168), wk =   0.0219479
        k(   21) = (   0.0000000   0.1145094   0.0000000), wk =   0.0109739
        k(   22) = (   0.0000000   0.1145094   0.0267292), wk =   0.0219479
        k(   23) = (   0.0000000   0.1145094   0.0534584), wk =   0.0219479
        k(   24) = (   0.0000000   0.1145094   0.0801876), wk =   0.0219479
        k(   25) = (   0.0000000   0.1145094   0.1069168), wk =   0.0219479
        k(   26) = (   0.0286274   0.0286274   0.0000000), wk =   0.0109739
        k(   27) = (   0.0286274   0.0286274   0.0267292), wk =   0.0219479
        k(   28) = (   0.0286274   0.0286274   0.0534584), wk =   0.0219479
        k(   29) = (   0.0286274   0.0286274   0.0801876), wk =   0.0219479
        k(   30) = (   0.0286274   0.0286274   0.1069168), wk =   0.0219479
        k(   31) = (   0.0286274   0.0572547   0.0000000), wk =   0.0219479
        k(   32) = (   0.0286274   0.0572547   0.0267292), wk =   0.0438957
        k(   33) = (   0.0286274   0.0572547   0.0534584), wk =   0.0438957
        k(   34) = (   0.0286274   0.0572547   0.0801876), wk =   0.0438957
        k(   35) = (   0.0286274   0.0572547   0.1069168), wk =   0.0438957
        k(   36) = (   0.0286274   0.0858821   0.0000000), wk =   0.0219479
        k(   37) = (   0.0286274   0.0858821   0.0267292), wk =   0.0438957
        k(   38) = (   0.0286274   0.0858821   0.0534584), wk =   0.0438957
        k(   39) = (   0.0286274   0.0858821   0.0801876), wk =   0.0438957
        k(   40) = (   0.0286274   0.0858821   0.1069168), wk =   0.0438957
        k(   41) = (   0.0286274   0.1145094   0.0000000), wk =   0.0219479
        k(   42) = (   0.0286274   0.1145094   0.0267292), wk =   0.0438957
        k(   43) = (   0.0286274   0.1145094   0.0534584), wk =   0.0438957
        k(   44) = (   0.0286274   0.1145094   0.0801876), wk =   0.0438957
        k(   45) = (   0.0286274   0.1145094   0.1069168), wk =   0.0438957
        k(   46) = (   0.0572547   0.0572547   0.0000000), wk =   0.0109739
        k(   47) = (   0.0572547   0.0572547   0.0267292), wk =   0.0219479
        k(   48) = (   0.0572547   0.0572547   0.0534584), wk =   0.0219479
        k(   49) = (   0.0572547   0.0572547   0.0801876), wk =   0.0219479
        k(   50) = (   0.0572547   0.0572547   0.1069168), wk =   0.0219479
        k(   51) = (   0.0572547   0.0858821   0.0000000), wk =   0.0219479
        k(   52) = (   0.0572547   0.0858821   0.0267292), wk =   0.0438957
        k(   53) = (   0.0572547   0.0858821   0.0534584), wk =   0.0438957
        k(   54) = (   0.0572547   0.0858821   0.0801876), wk =   0.0438957
        k(   55) = (   0.0572547   0.0858821   0.1069168), wk =   0.0438957
        k(   56) = (   0.0572547   0.1145094   0.0000000), wk =   0.0219479
        k(   57) = (   0.0572547   0.1145094   0.0267292), wk =   0.0438957
        k(   58) = (   0.0572547   0.1145094   0.0534584), wk =   0.0438957
        k(   59) = (   0.0572547   0.1145094   0.0801876), wk =   0.0438957
        k(   60) = (   0.0572547   0.1145094   0.1069168), wk =   0.0438957
        k(   61) = (   0.0858821   0.0858821   0.0000000), wk =   0.0109739
        k(   62) = (   0.0858821   0.0858821   0.0267292), wk =   0.0219479
        k(   63) = (   0.0858821   0.0858821   0.0534584), wk =   0.0219479
        k(   64) = (   0.0858821   0.0858821   0.0801876), wk =   0.0219479
        k(   65) = (   0.0858821   0.0858821   0.1069168), wk =   0.0219479
        k(   66) = (   0.0858821   0.1145094   0.0000000), wk =   0.0219479
        k(   67) = (   0.0858821   0.1145094   0.0267292), wk =   0.0438957
        k(   68) = (   0.0858821   0.1145094   0.0534584), wk =   0.0438957
        k(   69) = (   0.0858821   0.1145094   0.0801876), wk =   0.0438957
        k(   70) = (   0.0858821   0.1145094   0.1069168), wk =   0.0438957
        k(   71) = (   0.1145094   0.1145094   0.0000000), wk =   0.0109739
        k(   72) = (   0.1145094   0.1145094   0.0267292), wk =   0.0219479
        k(   73) = (   0.1145094   0.1145094   0.0534584), wk =   0.0219479
        k(   74) = (   0.1145094   0.1145094   0.0801876), wk =   0.0219479
        k(   75) = (   0.1145094   0.1145094   0.1069168), wk =   0.0219479

     Largest allocated arrays     est. size (Mb)     dimensions
     Largest temporary arrays     est. size (Mb)     dimensions

     Initial potential from superposition of free atoms
     Check: negative starting charge=   -0.493203

     starting charge   58.79930, renormalised to   60.00000

     negative rho (up, down):  5.033E-01 0.000E+00

     *
     * You are using vdW-DF for exchange-correlation in this calculation.
     * Please cite the following three references that made this development
     * possible:
     *
     *   M. Dion, H. Rydberg, E. Schroder, D. C. Langreth, and
     *   B. I. Lundqvist, Phys. Rev. Lett. 92, 246401 (2004).
     *
     *   T. Thonhauser, V. R. Cooper, S. Li, A. Puzder, P. Hyldgaard, and
     *   D. C. Langreth, Phys. Rev. B 76, 125112 (2007).
     *
     *   G. Roman-Perez and J. M. Soler, Phys. Rev. Lett. 103, 096102 (2009).
     *
     *
     * If you are using vdW-DF2, please also cite:
     *
     *   K. Lee, E. D. Murray, L. Kong, B. I. Lundqvist, and
     *   D. C. Langreth, Phys. Rev. B 82, 081101(R) (2010).
     *
     *
     * If you are calculating the stress with vdW-DF, please also cite:
     *
     *   R. Sabatini, E. Kucukbenli, B. Kolb, T. Thonhauser, and
     *   S. de Gironcoli, J. Phys.: Condens. Matter 24, 424209 (2012).
     *

     Carrying out vdW-DF run using the following parameters:

     Nqs =      20    Nr_points =    1024   r_max =   100.000
     q_mesh =
               0.00001000     0.04494208     0.09755937     0.15916263
               0.23128650     0.31572767     0.41458969     0.53033537
               0.66584808     0.82450364     1.01025438     1.22772762
               1.48234092     1.78043706     2.12944203     2.53805004
               3.01644009     3.57652955     4.23227104     5.00000000

     Gradients computed in reciprocal space

     Starting wfc are   50 randomized atomic wfcs

     Self-consistent Calculation

     iteration #  1     ecut=    58.80 Ry     beta=0.10
     Davidson diagonalization with overlap
     ethr =  1.00E-02,  avg # of iterations =  4.6

[...]

     total energy              =    -745.67637612 Ry
     Harris-Foulkes estimate   =    -746.50457030 Ry
     estimated scf accuracy    <       4.90232756 Ry

[...]

     total energy              =    -745.77805364 Ry
     Harris-Foulkes estimate   =    -745.77805331 Ry
     estimated scf accuracy    <       0.00000499 Ry

     iteration # 11     ecut=    58.80 Ry     beta=0.10
     Davidson diagonalization with overlap
     ethr =  5.99E-09,  avg # of iterations =  1.1

     negative rho (up, down):  4.915E-01 0.000E+00

     End of self-consistent calculation

          k = 0.0000 0.0000 0.0000 (  3187 PWs)   bands (ev):

   -52.4921 -52.3815 -31.4715 -31.4715 -31.4221 -31.3665 -31.2291 -31.2291
   -16.8538 -16.8538 -16.6536 -16.4798 -16.1220 -16.1220  12.2367  15.1844
    15.2686  15.5576  15.8234  15.9067  15.9067  19.0265  19.0265  19.3721
    20.8335  21.3721  22.3181  22.4993  23.3585  24.3746  24.3746  24.6657
    24.6657  25.2201  25.4940  25.4940  26.2013  28.2735  31.5901  31.8776
    32.0030  33.6982  33.6982  33.9312  34.2045  34.2045  34.7734  35.6390
    39.4396  41.4215

[...]

          k = 0.1145 0.1145 0.1069 (  3231 PWs)   bands (ev):

   -52.4378 -52.4345 -31.4998 -31.4927 -31.3963 -31.3948 -31.2147 -31.2072
   -16.9541 -16.9332 -16.5741 -16.5684 -16.0740 -16.0506  15.1385  15.2329
    15.2936  15.3097  17.7779  17.8303  18.6602  18.8462  19.2121  19.3012
    19.8763  20.0554  21.0010  21.5131  21.6076  21.8327  22.7737  23.1409
    24.1565  24.5853  25.3281  25.3870  25.5102  25.6874  29.4748  29.7300
    31.3346  31.4859  35.0972  35.1463  35.4177  35.5595  39.8632  40.2128
    40.2979  40.5689

     the Fermi energy is    22.4124 ev

!    total energy              =    -745.77806222 Ry
     Harris-Foulkes estimate   =    -745.77805423 Ry
     estimated scf accuracy    <       0.00000005 Ry

     The total energy is the sum of the following terms:

     one-electron contribution =     -76.33428539 Ry
     hartree contribution      =      84.10256692 Ry
     xc contribution           =    -202.59954406 Ry
     ewald contribution        =    -550.93943949 Ry
     smearing contrib. (-TS)   =      -0.00736020 Ry

     convergence has been achieved in  11 iterations

     Forces acting on atoms (Ry/au):

     negative rho (up, down):  4.915E-01 0.000E+00
     atom    1 type  1   force =     0.00000000    0.00000000    0.00000000
     atom    2 type  1   force =     0.00000000    0.00000000    0.00000000
     atom    3 type  2   force =     0.00000000    0.00000000    0.00000000
     atom    4 type  2   force =     0.00000000    0.00000000    0.00000000

     Total force =     0.000000     Total SCF correction =     0.000000

     General routines

     Parallel routines

   This run was terminated on:   9:32:49  14Nov2017

   JOB DONE.