     Program PWSCF v.5.1rc2 (svn rev. ) starts on 14Nov2017 at 23:21:26

     Current dimensions of program PWSCF are:
     Max number of different atomic species (ntypx) = 10
     Max number of k-points (npk) =  40000
     Max angular momentum in pseudopotentials (lmaxx) =  3

     IMPORTANT: XC functional enforced from input :
     Exchange-correlation      = BEEF-VDW ( 1  4 27 13 2)
     Any further DFT definition will be discarded
     Please, verify this is what you really want

     Subspace diagonalization in iterative solution of the eigenvalue problem:
     a serial algorithm will be used

     Found symmetry operation: I + (  0.5000  0.5000  0.0000)
     This is a supercell, fractional translations are disabled

     bravais-lattice index     =            0
     lattice parameter (alat)  =       1.8897  a.u.
     unit-cell volume          =     413.3697 (a.u.)^3
     number of atoms/cell      =            4
     number of atomic types    =            2
     number of electrons       =        50.00
     number of Kohn-Sham states=           45
     kinetic-energy cutoff     =      58.7989  Ry
     charge density cutoff     =     587.9892  Ry
     convergence threshold     =      1.0E-06
     mixing beta               =       0.1000
     number of iterations used =           10  plain     mixing
     Exchange-correlation      = BEEF-VDW ( 1  4 27 13 2)

     celldm(1)=   1.889726  celldm(2)=   0.000000  celldm(3)=   0.000000
     celldm(4)=   0.000000  celldm(5)=   0.000000  celldm(6)=   0.000000

     crystal axes: (cart. coord. in units of alat)
               a(1) = (   3.702208   0.000000   0.000000 )
               a(2) = (   0.000000   3.702208   0.000000 )
               a(3) = (   0.000000   0.000000   4.469104 )

     reciprocal axes: (cart. coord. in units 2 pi/alat)
               b(1) = (  0.270109  0.000000  0.000000 )
               b(2) = (  0.000000  0.270109  0.000000 )
               b(3) = (  0.000000  0.000000  0.223759 )

     PseudoPot. # 1 for Ti read from file:
     /home/vossj/suncat/psp/gbrv1.5pbe/Ti.UPF
     MD5 check sum: 88a00a6731bd790ddea75d31a80cb452
     Pseudo is Ultrasoft + core correction, Zval = 12.0
     Generated by new atomic code, or converted to UPF format
     Using radial grid of  851 points,  6 beta functions with:
                l(1) =   0
                l(2) =   0
                l(3) =   1
                l(4) =   1
                l(5) =   2
                l(6) =   2
     Q(r) pseudized with  6 coefficients,  rinner =    1.000   1.000   1.000
                                                       1.000   1.000

     PseudoPot. # 2 for V  read from file:
     /home/vossj/suncat/psp/gbrv1.5pbe/V.UPF
     MD5 check sum: 22b79981416ebb76fdaf5b1b8640f6fb
     Pseudo is Ultrasoft + core correction, Zval = 13.0
     Generated by new atomic code, or converted to UPF format
     Using radial grid of  853 points,  6 beta functions with:
                l(1) =   0
                l(2) =   0
                l(3) =   1
                l(4) =   1
                l(5) =   2
                l(6) =   2
     Q(r) pseudized with  8 coefficients,  rinner =    1.100   1.100   1.100
                                                       1.100   1.100

     vdW kernel table read from file vdW_kernel_table
     MD5 check sum: 095c7af220d748ca6e76c0b4c6cfb241

     atomic species   valence    mass     pseudopotential
        Ti1           12.00    47.86700     Ti( 1.00)
        V1            13.00    50.94150     V ( 1.00)

     16 Sym. Ops., with inversion, found

   Cartesian axes

     site n.     atom                  positions (alat units)
         1           Ti1 tau(   1) = (   0.0000000   0.0000000   0.0000000  )
         2           Ti1 tau(   2) = (   1.8511039   1.8511039   0.0000000  )
         3           V1  tau(   3) = (   1.8511039   0.0000000   2.2345519  )
         4           V1  tau(   4) = (   0.0000000   1.8511039   2.2345519  )

     number of k points=    75  Fermi-Dirac smearing, width (Ry)=  0.0073
                       cart. coord. in units 2pi/alat
        k(    1) = (   0.0000000   0.0000000   0.0000000), wk =   0.0027435
        k(    2) = (   0.0000000   0.0000000   0.0248621), wk =   0.0054870
        k(    3) = (   0.0000000   0.0000000   0.0497241), wk =   0.0054870
        k(    4) = (   0.0000000   0.0000000   0.0745862), wk =   0.0054870
        k(    5) = (   0.0000000   0.0000000   0.0994482), wk =   0.0054870
        k(    6) = (   0.0000000   0.0300121   0.0000000), wk =   0.0109739
        k(    7) = (   0.0000000   0.0300121   0.0248621), wk =   0.0219479
        k(    8) = (   0.0000000   0.0300121   0.0497241), wk =   0.0219479
        k(    9) = (   0.0000000   0.0300121   0.0745862), wk =   0.0219479
        k(   10) = (   0.0000000   0.0300121   0.0994482), wk =   0.0219479
        k(   11) = (   0.0000000   0.0600242   0.0000000), wk =   0.0109739
        k(   12) = (   0.0000000   0.0600242   0.0248621), wk =   0.0219479
        k(   13) = (   0.0000000   0.0600242   0.0497241), wk =   0.0219479
        k(   14) = (   0.0000000   0.0600242   0.0745862), wk =   0.0219479
        k(   15) = (   0.0000000   0.0600242   0.0994482), wk =   0.0219479
        k(   16) = (   0.0000000   0.0900364   0.0000000), wk =   0.0109739
        k(   17) = (   0.0000000   0.0900364   0.0248621), wk =   0.0219479
        k(   18) = (   0.0000000   0.0900364   0.0497241), wk =   0.0219479
        k(   19) = (   0.0000000   0.0900364   0.0745862), wk =   0.0219479
        k(   20) = (   0.0000000   0.0900364   0.0994482), wk =   0.0219479
        k(   21) = (   0.0000000   0.1200485   0.0000000), wk =   0.0109739
        k(   22) = (   0.0000000   0.1200485   0.0248621), wk =   0.0219479
        k(   23) = (   0.0000000   0.1200485   0.0497241), wk =   0.0219479
        k(   24) = (   0.0000000   0.1200485   0.0745862), wk =   0.0219479
        k(   25) = (   0.0000000   0.1200485   0.0994482), wk =   0.0219479
        k(   26) = (   0.0300121   0.0300121   0.0000000), wk =   0.0109739
        k(   27) = (   0.0300121   0.0300121   0.0248621), wk =   0.0219479
        k(   28) = (   0.0300121   0.0300121   0.0497241), wk =   0.0219479
        k(   29) = (   0.0300121   0.0300121   0.0745862), wk =   0.0219479
        k(   30) = (   0.0300121   0.0300121   0.0994482), wk =   0.0219479
        k(   31) = (   0.0300121   0.0600242   0.0000000), wk =   0.0219479
        k(   32) = (   0.0300121   0.0600242   0.0248621), wk =   0.0438957
        k(   33) = (   0.0300121   0.0600242   0.0497241), wk =   0.0438957
        k(   34) = (   0.0300121   0.0600242   0.0745862), wk =   0.0438957
        k(   35) = (   0.0300121   0.0600242   0.0994482), wk =   0.0438957
        k(   36) = (   0.0300121   0.0900364   0.0000000), wk =   0.0219479
        k(   37) = (   0.0300121   0.0900364   0.0248621), wk =   0.0438957
        k(   38) = (   0.0300121   0.0900364   0.0497241), wk =   0.0438957
        k(   39) = (   0.0300121   0.0900364   0.0745862), wk =   0.0438957
        k(   40) = (   0.0300121   0.0900364   0.0994482), wk =   0.0438957
        k(   41) = (   0.0300121   0.1200485   0.0000000), wk =   0.0219479
        k(   42) = (   0.0300121   0.1200485   0.0248621), wk =   0.0438957
        k(   43) = (   0.0300121   0.1200485   0.0497241), wk =   0.0438957
        k(   44) = (   0.0300121   0.1200485   0.0745862), wk =   0.0438957
        k(   45) = (   0.0300121   0.1200485   0.0994482), wk =   0.0438957
        k(   46) = (   0.0600242   0.0600242   0.0000000), wk =   0.0109739
        k(   47) = (   0.0600242   0.0600242   0.0248621), wk =   0.0219479
        k(   48) = (   0.0600242   0.0600242   0.0497241), wk =   0.0219479
        k(   49) = (   0.0600242   0.0600242   0.0745862), wk =   0.0219479
        k(   50) = (   0.0600242   0.0600242   0.0994482), wk =   0.0219479
        k(   51) = (   0.0600242   0.0900364   0.0000000), wk =   0.0219479
        k(   52) = (   0.0600242   0.0900364   0.0248621), wk =   0.0438957
        k(   53) = (   0.0600242   0.0900364   0.0497241), wk =   0.0438957
        k(   54) = (   0.0600242   0.0900364   0.0745862), wk =   0.0438957
        k(   55) = (   0.0600242   0.0900364   0.0994482), wk =   0.0438957
        k(   56) = (   0.0600242   0.1200485   0.0000000), wk =   0.0219479
        k(   57) = (   0.0600242   0.1200485   0.0248621), wk =   0.0438957
        k(   58) = (   0.0600242   0.1200485   0.0497241), wk =   0.0438957
        k(   59) = (   0.0600242   0.1200485   0.0745862), wk =   0.0438957
        k(   60) = (   0.0600242   0.1200485   0.0994482), wk =   0.0438957
        k(   61) = (   0.0900364   0.0900364   0.0000000), wk =   0.0109739
        k(   62) = (   0.0900364   0.0900364   0.0248621), wk =   0.0219479
        k(   63) = (   0.0900364   0.0900364   0.0497241), wk =   0.0219479
        k(   64) = (   0.0900364   0.0900364   0.0745862), wk =   0.0219479
        k(   65) = (   0.0900364   0.0900364   0.0994482), wk =   0.0219479
        k(   66) = (   0.0900364   0.1200485   0.0000000), wk =   0.0219479
        k(   67) = (   0.0900364   0.1200485   0.0248621), wk =   0.0438957
        k(   68) = (   0.0900364   0.1200485   0.0497241), wk =   0.0438957
        k(   69) = (   0.0900364   0.1200485   0.0745862), wk =   0.0438957
        k(   70) = (   0.0900364   0.1200485   0.0994482), wk =   0.0438957
        k(   71) = (   0.1200485   0.1200485   0.0000000), wk =   0.0109739
        k(   72) = (   0.1200485   0.1200485   0.0248621), wk =   0.0219479
        k(   73) = (   0.1200485   0.1200485   0.0497241), wk =   0.0219479
        k(   74) = (   0.1200485   0.1200485   0.0745862), wk =   0.0219479
        k(   75) = (   0.1200485   0.1200485   0.0994482), wk =   0.0219479

     Largest allocated arrays     est. size (Mb)     dimensions
     Largest temporary arrays     est. size (Mb)     dimensions

     Check: negative/imaginary core charge=   -0.000003    0.000000

     Initial potential from superposition of free atoms
     Check: negative starting charge=   -0.003274

     starting charge   47.99746, renormalised to   50.00000

     negative rho (up, down):  3.410E-03 0.000E+00

     *
     * You are using vdW-DF for exchange-correlation in this calculation.
     * Please cite the following three references that made this development
     * possible:
     *
     *   M. Dion, H. Rydberg, E. Schroder, D. C. Langreth, and
     *   B. I. Lundqvist, Phys. Rev. Lett. 92, 246401 (2004).
     *
     *   T. Thonhauser, V. R. Cooper, S. Li, A. Puzder, P. Hyldgaard, and
     *   D. C. Langreth, Phys. Rev. B 76, 125112 (2007).
     *
     *   G. Roman-Perez and J. M. Soler, Phys. Rev. Lett. 103, 096102 (2009).
     *
     *
     * If you are using vdW-DF2, please also cite:
     *
     *   K. Lee, E. D. Murray, L. Kong, B. I. Lundqvist, and
     *   D. C. Langreth, Phys. Rev. B 82, 081101(R) (2010).
     *
     *
     * If you are calculating the stress with vdW-DF, please also cite:
     *
     *   R. Sabatini, E. Kucukbenli, B. Kolb, T. Thonhauser, and
     *   S. de Gironcoli, J. Phys.: Condens. Matter 24, 424209 (2012).
     *

     Carrying out vdW-DF run using the following parameters:

     Nqs =      20    Nr_points =    1024   r_max =   100.000
     q_mesh =
               0.00001000     0.04494208     0.09755937     0.15916263
               0.23128650     0.31572767     0.41458969     0.53033537
               0.66584808     0.82450364     1.01025438     1.22772762
               1.48234092     1.78043706     2.12944203     2.53805004
               3.01644009     3.57652955     4.23227104     5.00000000

     Gradients computed in reciprocal space

     Starting wfc are   40 randomized atomic wfcs +    5 random wfc

     Self-consistent Calculation

     iteration #  1     ecut=    58.80 Ry     beta=0.10
     Davidson diagonalization with overlap
     ethr =  1.00E-02,  avg # of iterations =  3.5

[...]

     total energy              =    -530.09735289 Ry
     Harris-Foulkes estimate   =    -533.51399000 Ry
     estimated scf accuracy    <      18.87162343 Ry

[...]

     total energy              =    -531.39206607 Ry
     Harris-Foulkes estimate   =    -531.39206679 Ry
     estimated scf accuracy    <       0.00000912 Ry

     iteration # 14     ecut=    58.80 Ry     beta=0.10
     Davidson diagonalization with overlap
     ethr =  1.82E-08,  avg # of iterations =  1.0

     negative rho (up, down):  2.999E-03 0.000E+00

     End of self-consistent calculation

          k = 0.0000 0.0000 0.0000 (  3133 PWs)   bands (ev):

   -49.5148 -49.3668 -42.1044 -41.8484 -23.4937 -23.4937 -23.3054 -23.1633
   -23.0130 -23.0130 -18.6145 -18.6145 -18.2580 -18.0635 -17.8692 -17.8692
     8.3171  11.5816  11.6441  11.7059  12.5964  12.5964  12.6611  14.2031
    15.7009  15.7193  15.7947  15.7947  17.3198  17.3244  17.5151  17.5151
    18.1420  18.2391  18.3027  18.3027  18.6057  19.3063  19.3063  19.6542
    23.6780  25.6003  26.6012  27.0527  27.1101

[...]

          k = 0.1200 0.1200 0.0994 (  3146 PWs)   bands (ev):

   -49.4415 -49.4371 -41.9777 -41.9699 -23.5705 -23.5565 -23.2354 -23.2316
   -22.9799 -22.9651 -18.7355 -18.7141 -18.1635 -18.1569 -17.8166 -17.7930
    11.6706  11.7565  11.8758  11.9302  14.0978  14.1866  14.5493  14.6703
    15.0233  15.2751  15.3509  15.5580  15.7156  15.9212  15.9477  15.9898
    17.5775  17.7458  17.8832  18.0036  18.1165  18.2064  18.5038  18.5650
    23.2879  23.4675  23.8735  24.1114  29.0462

     the Fermi energy is    14.5458 ev

!    total energy              =    -531.39206789 Ry
     Harris-Foulkes estimate   =    -531.39206660 Ry
     estimated scf accuracy    <       0.00000004 Ry

     The total energy is the sum of the following terms:

     one-electron contribution =    -178.84930945 Ry
     hartree contribution      =     110.31426887 Ry
     xc contribution           =     -78.43188698 Ry
     ewald contribution        =    -384.40771345 Ry
     smearing contrib. (-TS)   =      -0.01742688 Ry

     convergence has been achieved in  14 iterations

     Forces acting on atoms (Ry/au):

     negative rho (up, down):  2.999E-03 0.000E+00
     atom    1 type  1   force =     0.00000000    0.00000000    0.00000000
     atom    2 type  1   force =     0.00000000    0.00000000    0.00000000
     atom    3 type  2   force =     0.00000000    0.00000000    0.00000000
     atom    4 type  2   force =     0.00000000    0.00000000    0.00000000

     Total force =     0.000000     Total SCF correction =     0.000000

     General routines

     Parallel routines

   This run was terminated on:  23:22: 8  14Nov2017

   JOB DONE.