     Program PWSCF v.5.1rc2 starts on 15Nov2017 at  3:31:13

     Current dimensions of program PWSCF are:
     Max number of different atomic species (ntypx) = 10
     Max number of k-points (npk) =  40000
     Max angular momentum in pseudopotentials (lmaxx) =  3

     IMPORTANT: XC functional enforced from input :
     Exchange-correlation      = BEEF-VDW ( 1  4 27 13 2)
     Any further DFT definition will be discarded
     Please, verify this is what you really want

     Found symmetry operation: I + ( -0.5000 -0.5000  0.0000)
     This is a supercell, fractional translations are disabled

     bravais-lattice index     =            0
     lattice parameter (alat)  =       1.8897  a.u.
     unit-cell volume          =     595.1341 (a.u.)^3
     number of atoms/cell      =            4
     number of atomic types    =            2
     number of electrons       =        54.00
     number of Kohn-Sham states=           47
     kinetic-energy cutoff     =      58.7989  Ry
     charge density cutoff     =     587.9892  Ry
     convergence threshold     =      1.0E-06
     mixing beta               =       0.1000
     number of iterations used =           10  plain     mixing
     Exchange-correlation      = BEEF-VDW ( 1  4 27 13 2)

     celldm(1)=   1.889726  celldm(2)=   0.000000  celldm(3)=   0.000000
     celldm(4)=   0.000000  celldm(5)=   0.000000  celldm(6)=   0.000000

     crystal axes: (cart. coord. in units of alat)
               a(1) = (   4.999159   0.000000   0.000000 )
               a(2) = (   0.000000   4.999159   0.000000 )
               a(3) = (   0.000000   0.000000   3.528778 )

     reciprocal axes: (cart. coord. in units 2 pi/alat)
               b(1) = (  0.200034  0.000000  0.000000 )
               b(2) = (  0.000000  0.200034  0.000000 )
               b(3) = (  0.000000  0.000000  0.283384 )

     PseudoPot. # 1 for Pd read from file:
     /home/users/vossj/suncat/psp/gbrv1.5pbe/Pd.UPF
     MD5 check sum: 2d733d2bc2cbfd217af676df1668a4bc
     Pseudo is Ultrasoft + core correction, Zval = 16.0
     Generated by new atomic code, or converted to UPF format
     Using radial grid of  887 points,  6 beta functions with:
                l(1) =   0
                l(2) =   0
                l(3) =   1
                l(4) =   1
                l(5) =   2
                l(6) =   2
     Q(r) pseudized with  8 coefficients,  rinner =    1.130   1.130   1.130
                                                       1.130   1.130

     PseudoPot. # 2 for Y  read from file:
     /home/users/vossj/suncat/psp/gbrv1.5pbe/Y.UPF
     MD5 check sum: d034151ed7554c50b6e82763ed42c788
     Pseudo is Ultrasoft + core correction, Zval = 11.0
     Generated by new atomic code, or converted to UPF format
     Using radial grid of  885 points,  6 beta functions with:
                l(1) =   0
                l(2) =   0
                l(3) =   1
                l(4) =   1
                l(5) =   2
                l(6) =   2
     Q(r) pseudized with  8 coefficients,  rinner =    1.200   1.200   1.200
                                                       1.200   1.200

     vdW kernel table read from file vdW_kernel_table
     MD5 check sum: 095c7af220d748ca6e76c0b4c6cfb241

     atomic species   valence    mass     pseudopotential
        Pd1           16.00   106.42000     Pd( 1.00)
        Y1            11.00    88.90590     Y ( 1.00)

     16 Sym. Ops., with inversion, found

   Cartesian axes

     site n.     atom                  positions (alat units)
         1           Pd1 tau(   1) = (   0.0000000   0.0000000   0.0000000  )
         2           Pd1 tau(   2) = (   2.4995796   2.4995796   0.0000000  )
         3           Y1  tau(   3) = (   2.4995796   0.0000000   1.7643888  )
         4           Y1  tau(   4) = (   0.0000000   2.4995796   1.7643888  )

     number of k points=    75  Fermi-Dirac smearing, width (Ry)=  0.0073
                       cart. coord. in units 2pi/alat
        k(    1) = (   0.0000000   0.0000000   0.0000000), wk =   0.0027435
        k(    2) = (   0.0000000   0.0000000   0.0314871), wk =   0.0054870
        k(    3) = (   0.0000000   0.0000000   0.0629743), wk =   0.0054870
        k(    4) = (   0.0000000   0.0000000   0.0944614), wk =   0.0054870
        k(    5) = (   0.0000000   0.0000000   0.1259486), wk =   0.0054870
        k(    6) = (   0.0000000   0.0222260   0.0000000), wk =   0.0109739
        k(    7) = (   0.0000000   0.0222260   0.0314871), wk =   0.0219479
        k(    8) = (   0.0000000   0.0222260   0.0629743), wk =   0.0219479
        k(    9) = (   0.0000000   0.0222260   0.0944614), wk =   0.0219479
        k(   10) = (   0.0000000   0.0222260   0.1259486), wk =   0.0219479
        k(   11) = (   0.0000000   0.0444519   0.0000000), wk =   0.0109739
        k(   12) = (   0.0000000   0.0444519   0.0314871), wk =   0.0219479
        k(   13) = (   0.0000000   0.0444519   0.0629743), wk =   0.0219479
        k(   14) = (   0.0000000   0.0444519   0.0944614), wk =   0.0219479
        k(   15) = (   0.0000000   0.0444519   0.1259486), wk =   0.0219479
        k(   16) = (   0.0000000   0.0666779   0.0000000), wk =   0.0109739
        k(   17) = (   0.0000000   0.0666779   0.0314871), wk =   0.0219479
        k(   18) = (   0.0000000   0.0666779   0.0629743), wk =   0.0219479
        k(   19) = (   0.0000000   0.0666779   0.0944614), wk =   0.0219479
        k(   20) = (   0.0000000   0.0666779   0.1259486), wk =   0.0219479
        k(   21) = (   0.0000000   0.0889038   0.0000000), wk =   0.0109739
        k(   22) = (   0.0000000   0.0889038   0.0314871), wk =   0.0219479
        k(   23) = (   0.0000000   0.0889038   0.0629743), wk =   0.0219479
        k(   24) = (   0.0000000   0.0889038   0.0944614), wk =   0.0219479
        k(   25) = (   0.0000000   0.0889038   0.1259486), wk =   0.0219479
        k(   26) = (   0.0222260   0.0222260   0.0000000), wk =   0.0109739
        k(   27) = (   0.0222260   0.0222260   0.0314871), wk =   0.0219479
        k(   28) = (   0.0222260   0.0222260   0.0629743), wk =   0.0219479
        k(   29) = (   0.0222260   0.0222260   0.0944614), wk =   0.0219479
        k(   30) = (   0.0222260   0.0222260   0.1259486), wk =   0.0219479
        k(   31) = (   0.0222260   0.0444519   0.0000000), wk =   0.0219479
        k(   32) = (   0.0222260   0.0444519   0.0314871), wk =   0.0438957
        k(   33) = (   0.0222260   0.0444519   0.0629743), wk =   0.0438957
        k(   34) = (   0.0222260   0.0444519   0.0944614), wk =   0.0438957
        k(   35) = (   0.0222260   0.0444519   0.1259486), wk =   0.0438957
        k(   36) = (   0.0222260   0.0666779   0.0000000), wk =   0.0219479
        k(   37) = (   0.0222260   0.0666779   0.0314871), wk =   0.0438957
        k(   38) = (   0.0222260   0.0666779   0.0629743), wk =   0.0438957
        k(   39) = (   0.0222260   0.0666779   0.0944614), wk =   0.0438957
        k(   40) = (   0.0222260   0.0666779   0.1259486), wk =   0.0438957
        k(   41) = (   0.0222260   0.0889038   0.0000000), wk =   0.0219479
        k(   42) = (   0.0222260   0.0889038   0.0314871), wk =   0.0438957
        k(   43) = (   0.0222260   0.0889038   0.0629743), wk =   0.0438957
        k(   44) = (   0.0222260   0.0889038   0.0944614), wk =   0.0438957
        k(   45) = (   0.0222260   0.0889038   0.1259486), wk =   0.0438957
        k(   46) = (   0.0444519   0.0444519   0.0000000), wk =   0.0109739
        k(   47) = (   0.0444519   0.0444519   0.0314871), wk =   0.0219479
        k(   48) = (   0.0444519   0.0444519   0.0629743), wk =   0.0219479
        k(   49) = (   0.0444519   0.0444519   0.0944614), wk =   0.0219479
        k(   50) = (   0.0444519   0.0444519   0.1259486), wk =   0.0219479
        k(   51) = (   0.0444519   0.0666779   0.0000000), wk =   0.0219479
        k(   52) = (   0.0444519   0.0666779   0.0314871), wk =   0.0438957
        k(   53) = (   0.0444519   0.0666779   0.0629743), wk =   0.0438957
        k(   54) = (   0.0444519   0.0666779   0.0944614), wk =   0.0438957
        k(   55) = (   0.0444519   0.0666779   0.1259486), wk =   0.0438957
        k(   56) = (   0.0444519   0.0889038   0.0000000), wk =   0.0219479
        k(   57) = (   0.0444519   0.0889038   0.0314871), wk =   0.0438957
        k(   58) = (   0.0444519   0.0889038   0.0629743), wk =   0.0438957
        k(   59) = (   0.0444519   0.0889038   0.0944614), wk =   0.0438957
        k(   60) = (   0.0444519   0.0889038   0.1259486), wk =   0.0438957
        k(   61) = (   0.0666779   0.0666779   0.0000000), wk =   0.0109739
        k(   62) = (   0.0666779   0.0666779   0.0314871), wk =   0.0219479
        k(   63) = (   0.0666779   0.0666779   0.0629743), wk =   0.0219479
        k(   64) = (   0.0666779   0.0666779   0.0944614), wk =   0.0219479
        k(   65) = (   0.0666779   0.0666779   0.1259486), wk =   0.0219479
        k(   66) = (   0.0666779   0.0889038   0.0000000), wk =   0.0219479
        k(   67) = (   0.0666779   0.0889038   0.0314871), wk =   0.0438957
        k(   68) = (   0.0666779   0.0889038   0.0629743), wk =   0.0438957
        k(   69) = (   0.0666779   0.0889038   0.0944614), wk =   0.0438957
        k(   70) = (   0.0666779   0.0889038   0.1259486), wk =   0.0438957
        k(   71) = (   0.0889038   0.0889038   0.0000000), wk =   0.0109739
        k(   72) = (   0.0889038   0.0889038   0.0314871), wk =   0.0219479
        k(   73) = (   0.0889038   0.0889038   0.0629743), wk =   0.0219479
        k(   74) = (   0.0889038   0.0889038   0.0944614), wk =   0.0219479
        k(   75) = (   0.0889038   0.0889038   0.1259486), wk =   0.0219479

     Largest allocated arrays     est. size (Mb)     dimensions
     Largest temporary arrays     est. size (Mb)     dimensions

     Initial potential from superposition of free atoms
     Check: negative starting charge=   -0.151814

     starting charge   52.99105, renormalised to   54.00000

     negative rho (up, down):  1.547E-01 0.000E+00

     *
     * You are using vdW-DF for exchange-correlation in this calculation.
     * Please cite the following three references that made this development
     * possible:
     *
     *   M. Dion, H. Rydberg, E. Schroder, D. C. Langreth, and
     *   B. I. Lundqvist, Phys. Rev. Lett. 92, 246401 (2004).
     *
     *   T. Thonhauser, V. R. Cooper, S. Li, A. Puzder, P. Hyldgaard, and
     *   D. C. Langreth, Phys. Rev. B 76, 125112 (2007).
     *
     *   G. Roman-Perez and J. M. Soler, Phys. Rev. Lett. 103, 096102 (2009).
     *
     *
     * If you are using vdW-DF2, please also cite:
     *
     *   K. Lee, E. D. Murray, L. Kong, B. I. Lundqvist, and
     *   D. C. Langreth, Phys. Rev. B 82, 081101(R) (2010).
     *
     *
     * If you are calculating the stress with vdW-DF, please also cite:
     *
     *   R. Sabatini, E. Kucukbenli, B. Kolb, T. Thonhauser, and
     *   S. de Gironcoli, J. Phys.: Condens. Matter 24, 424209 (2012).
     *

     Carrying out vdW-DF run using the following parameters:

     Nqs =      20    Nr_points =    1024   r_max =   100.000
     q_mesh =
               0.00001000     0.04494208     0.09755937     0.15916263
               0.23128650     0.31572767     0.41458969     0.53033537
               0.66584808     0.82450364     1.01025438     1.22772762
               1.48234092     1.78043706     2.12944203     2.53805004
               3.01644009     3.57652955     4.23227104     5.00000000

     Gradients computed in reciprocal space

     Starting wfc are   50 randomized atomic wfcs

     Self-consistent Calculation

     iteration #  1     ecut=    58.80 Ry     beta=0.10
     Davidson diagonalization with overlap
     ethr =  1.00E-02,  avg # of iterations =  4.4

[...]

     total energy              =    -586.97310537 Ry
     Harris-Foulkes estimate   =    -588.03529623 Ry
     estimated scf accuracy    <       6.21416412 Ry

[...]

     total energy              =    -587.31531133 Ry
     Harris-Foulkes estimate   =    -587.31531873 Ry
     estimated scf accuracy    <       0.00006931 Ry

     iteration #  9     ecut=    58.80 Ry     beta=0.10
     Davidson diagonalization with overlap
     ethr =  1.28E-07,  avg # of iterations =  2.0

     negative rho (up, down):  1.597E-01 0.000E+00

     End of self-consistent calculation

          k = 0.0000 0.0000 0.0000 (  4517 PWs)   bands (ev):

   -36.8807 -36.8807 -36.8707 -36.8707 -36.8701 -36.8683 -29.5578 -29.5070
    -9.6342  -9.6342  -9.3378  -9.3378  -9.3374  -9.2782   7.7413   9.4607
     9.4990   9.5287   9.5306  10.3304  10.3304  10.9234  10.9294  10.9294
    11.5991  12.7299  14.7401  14.7401  14.8449  14.8574  15.3695  17.5900
    17.5900  18.2809  18.2842  18.2842  19.0735  20.4809  20.4809  20.5212
    22.1980  22.7253  24.5884  24.5884  24.6968  26.9412  27.5247

[...]

          k = 0.0889 0.0889 0.1259 (  4498 PWs)   bands (ev):

   -36.8807 -36.8804 -36.8801 -36.8800 -36.8692 -36.8689 -29.5079 -29.5065
    -9.6345  -9.6317  -9.6288  -9.6258  -9.2891  -9.2800   9.4902   9.5209
     9.5454   9.5468  10.3339  10.3394  10.3404  10.3692  11.5147  11.5576
    12.6255  12.6918  14.4276  14.4538  14.7133  14.7842  15.5041  15.5195
    17.4416  17.5948  17.6562  17.6901  19.0894  19.1073  22.2077  22.2245
    22.5060  22.8346  24.5770  24.7773  24.8528  24.8636  24.8963

     the Fermi energy is    13.6718 ev

!    total energy              =    -587.31537617 Ry
     Harris-Foulkes estimate   =    -587.31532137 Ry
     estimated scf accuracy    <       0.00000070 Ry

     The total energy is the sum of the following terms:

     one-electron contribution =    -182.68533048 Ry
     hartree contribution      =     122.15799793 Ry
     xc contribution           =    -121.77727059 Ry
     ewald contribution        =    -405.00456879 Ry
     smearing contrib. (-TS)   =      -0.00620423 Ry

     convergence has been achieved in   9 iterations

     Forces acting on atoms (Ry/au):

     negative rho (up, down):  1.597E-01 0.000E+00
     atom    1 type  1   force =     0.00000000    0.00000000    0.00000000
     atom    2 type  1   force =     0.00000000    0.00000000    0.00000000
     atom    3 type  2   force =     0.00000000    0.00000000    0.00000000
     atom    4 type  2   force =     0.00000000    0.00000000    0.00000000

     Total force =     0.000000     Total SCF correction =     0.000000

     General routines

     Parallel routines

   This run was terminated on:   3:31:50  15Nov2017

   JOB DONE.