     Program PWSCF v.5.1rc2 (svn rev. ) starts on 23Feb2018 at 18:13:39

     Current dimensions of program PWSCF are:
     Max number of different atomic species (ntypx) = 10
     Max number of k-points (npk) =  40000
     Max angular momentum in pseudopotentials (lmaxx) =  3
     Presently stress not available with electric field

     IMPORTANT: XC functional enforced from input :
     Exchange-correlation      = BEEF-VDW ( 1  4 27 13 2)
     Any further DFT definition will be discarded
     Please, verify this is what you really want

     Subspace diagonalization in iterative solution of the eigenvalue problem:
     a serial algorithm will be used

     bravais-lattice index     =            0
     lattice parameter (alat)  =       1.8897  a.u.
     unit-cell volume          =    6279.5273 (a.u.)^3
     number of atoms/cell      =           12
     number of atomic types    =            2
     number of electrons       =       216.00
     number of Kohn-Sham states=          118
     kinetic-energy cutoff     =      36.7493  Ry
     charge density cutoff     =     367.4932  Ry
     convergence threshold     =      1.0E-05
     mixing beta               =       0.3000
     number of iterations used =           10  plain     mixing
     Exchange-correlation      = BEEF-VDW ( 1  4 27 13 2)
     nstep                     =           50

     celldm(1)=   1.889726  celldm(2)=   0.000000  celldm(3)=   0.000000
     celldm(4)=   0.000000  celldm(5)=   0.000000  celldm(6)=   0.000000

     crystal axes: (cart. coord. in units of alat)
               a(1) = (   6.514431   0.000000   0.000000 )
               a(2) = (   3.257216   5.641663   0.000000 )
               a(3) = (   0.000000   0.000000  25.319011 )

     reciprocal axes: (cart. coord. in units 2 pi/alat)
               b(1) = (  0.153505 -0.088626  0.000000 )
               b(2) = (  0.000000  0.177253  0.000000 )
               b(3) = (  0.000000  0.000000  0.039496 )

     PseudoPot. # 1 for Ga read from file:
     /home/mamunm/src/pseudo/gbrv1.5pbe/Ga.UPF
     MD5 check sum: ccd671392a58a050fbb373893b4fcd66
     Pseudo is Ultrasoft + core correction, Zval = 19.0
     Generated by new atomic code, or converted to UPF format
     Using radial grid of  871 points,  6 beta functions with:
                l(1) =   0
                l(2) =   0
                l(3) =   1
                l(4) =   1
                l(5) =   2
                l(6) =   2
     Q(r) pseudized with  8 coefficients,  rinner =    1.250   1.250   1.250
                                                       1.250   1.250

     PseudoPot. # 2 for Bi read from file:
     /home/mamunm/src/pseudo/gbrv1.5pbe/Bi.UPF
     MD5 check sum: 81103212dc04adf40945787f699eab19
     Pseudo is Ultrasoft + core correction, Zval = 15.0
     Generated by new atomic code, or converted to UPF format
     Using radial grid of  899 points,  6 beta functions with:
                l(1) =   0
                l(2) =   0
                l(3) =   1
                l(4) =   1
                l(5) =   2
                l(6) =   2
     Q(r) pseudized with  6 coefficients,  rinner =    1.000   1.000   1.000
                                                       1.000   1.000

     vdW kernel table read from file vdW_kernel_table
     MD5 check sum: 095c7af220d748ca6e76c0b4c6cfb241

     atomic species   valence    mass     pseudopotential
        Ga1           19.00    69.72300     Ga( 1.00)
        Bi1           15.00   208.98040     Bi( 1.00)

     No symmetry found

   Cartesian axes

     site n.     atom                  positions (alat units)
         1           Ga1 tau(   1) = (   0.0000000   0.0000000  10.0000000  )
         2           Bi1 tau(   2) = (   1.6286078   2.8208314  10.0000000  )
         3           Ga1 tau(   3) = (   3.2572155   0.0000000  10.0000000  )
         4           Ga1 tau(   4) = (   4.8858233   2.8208314  10.0000000  )
         5           Ga1 tau(   5) = (   6.5144311   3.7611085  12.6595054  )
         6           Bi1 tau(   6) = (   4.8858233   0.9402771  12.6595054  )
         7           Ga1 tau(   7) = (   3.2572155   3.7611085  12.6595054  )
         8           Ga1 tau(   8) = (   1.6286078   0.9402771  12.6595054  )
         9           Ga1 tau(   9) = (   3.2572155   1.8805543  15.3190107  )
        10           Bi1 tau(  10) = (   4.8858233   4.7013857  15.3190107  )
        11           Ga1 tau(  11) = (   6.5144311   1.8805543  15.3190107  )
        12           Ga1 tau(  12) = (   8.1430389   4.7013857  15.3190107  )

     number of k points=    20  Fermi-Dirac smearing, width (Ry)=  0.0110
                       cart. coord. in units 2pi/alat
        k(    1) = (   0.0000000   0.0000000   0.0000000), wk =   0.0555556
        k(    2) = (   0.0000000   0.0295421   0.0000000), wk =   0.1111111
        k(    3) = (   0.0000000   0.0590842   0.0000000), wk =   0.1111111
        k(    4) = (   0.0000000  -0.0886264   0.0000000), wk =   0.0555556
        k(    5) = (   0.0255842  -0.0147711   0.0000000), wk =   0.1111111
        k(    6) = (   0.0255842   0.0147711   0.0000000), wk =   0.1111111
        k(    7) = (   0.0255842   0.0443132   0.0000000), wk =   0.1111111
        k(    8) = (   0.0255842  -0.1033974   0.0000000), wk =   0.1111111
        k(    9) = (   0.0255842  -0.0738553   0.0000000), wk =   0.1111111
        k(   10) = (   0.0255842  -0.0443132   0.0000000), wk =   0.1111111
        k(   11) = (   0.0511684  -0.0295421   0.0000000), wk =   0.1111111
        k(   12) = (   0.0511684   0.0000000   0.0000000), wk =   0.1111111
        k(   13) = (   0.0511684   0.0295421   0.0000000), wk =   0.1111111
        k(   14) = (   0.0511684  -0.1181685   0.0000000), wk =   0.1111111
        k(   15) = (   0.0511684  -0.0886264   0.0000000), wk =   0.1111111
        k(   16) = (   0.0511684  -0.0590842   0.0000000), wk =   0.1111111
        k(   17) = (  -0.0767527   0.0443132   0.0000000), wk =   0.0555556
        k(   18) = (  -0.0767527   0.0738553   0.0000000), wk =   0.1111111
        k(   19) = (  -0.0767527   0.1033974   0.0000000), wk =   0.1111111
        k(   20) = (  -0.0767527  -0.0443132   0.0000000), wk =   0.0555556

     Largest allocated arrays     est. size (Mb)     dimensions
     Largest temporary arrays     est. size (Mb)     dimensions

     Initial potential from superposition of free atoms
     Check: negative starting charge=   -0.128863

     starting charge  203.99987, renormalised to  216.00000

     negative rho (up, down):  1.364E-01 0.000E+00

     *
     * You are using vdW-DF for exchange-correlation in this calculation.
     * Please cite the following three references that made this development
     * possible:
     *
     *   M. Dion, H. Rydberg, E. Schroder, D. C. Langreth, and
     *   B. I. Lundqvist, Phys. Rev. Lett. 92, 246401 (2004).
     *
     *   T. Thonhauser, V. R. Cooper, S. Li, A. Puzder, P. Hyldgaard, and
     *   D. C. Langreth, Phys. Rev. B 76, 125112 (2007).
     *
     *   G. Roman-Perez and J. M. Soler, Phys. Rev. Lett. 103, 096102 (2009).
     *
     *
     * If you are using vdW-DF2, please also cite:
     *
     *   K. Lee, E. D. Murray, L. Kong, B. I. Lundqvist, and
     *   D. C. Langreth, Phys. Rev. B 82, 081101(R) (2010).
     *
     *
     * If you are calculating the stress with vdW-DF, please also cite:
     *
     *   R. Sabatini, E. Kucukbenli, B. Kolb, T. Thonhauser, and
     *   S. de Gironcoli, J. Phys.: Condens. Matter 24, 424209 (2012).
     *

     Carrying out vdW-DF run using the following parameters:

     Nqs =      20    Nr_points =    1024   r_max =   100.000
     q_mesh =
               0.00001000     0.04494208     0.09755937     0.15916263
               0.23128650     0.31572767     0.41458969     0.53033537
               0.66584808     0.82450364     1.01025438     1.22772762
               1.48234092     1.78043706     2.12944203     2.53805004
               3.01644009     3.57652955     4.23227104     5.00000000

     Gradients computed in reciprocal space

     Adding external electric field

     Computed dipole along edir(3) :
        Dipole               -0.0000 Ry au,         -0.0000 Debye
        Dipole field         -0.0000 Ry au

        Potential amp.        0.0000 Ry
        Total length         46.6498 bohr

     Starting wfc are  135 randomized atomic wfcs

     Self-consistent Calculation

     iteration #  1     ecut=    36.75 Ry     beta=0.30
     Davidson diagonalization with overlap
     ethr =  1.00E-02,  avg # of iterations =  6.0

[...]

     total energy              =   -4220.92405630 Ry
     Harris-Foulkes estimate   =   -4333.97660228 Ry
     estimated scf accuracy    <     234.50306832 Ry

[...]

     End of self-consistent calculation

          k = 0.0000 0.0000 0.0000 ( 23607 PWs)   bands (ev):

   -94.5940 -94.5940 -94.5938 -94.5928 -94.5928 -94.5927 -94.5737 -94.5730
   -94.5728 -94.5726 -94.5718 -94.5717 -94.5647 -94.5646 -94.5643 -94.5635
   -94.5635 -94.5631 -94.4611 -94.4605 -94.4599 -94.4597 -94.4582 -94.4573
   -94.4481 -94.4481 -94.4457 -22.8318 -22.8318 -22.8310 -22.8310 -22.8066
   -22.8066 -22.8040 -22.8040 -22.8022 -22.8014 -22.8009 -22.8009 -22.7898
   -22.7898 -22.7872 -14.9674 -14.9649 -14.9525 -14.9479 -14.9477 -14.9424
   -14.9424 -14.9423 -14.9365 -14.9293 -14.9189 -14.9188 -14.9110 -14.9109
   -14.8937 -14.8930 -14.8928 -14.8819 -14.8815 -14.8814 -14.8801 -14.8801
   -14.8789 -14.8788 -14.8563 -14.8559 -14.8515 -14.8495 -14.8491 -14.8293
   -14.8285 -14.8119 -14.8107 -14.8045 -14.7969 -14.7744 -14.7739 -14.7675
   -14.7662 -14.7481 -14.7472 -14.7470 -14.7259 -14.7248 -14.7092 -11.2843
   -10.5757 -10.0643  -6.3712  -6.1747  -5.5392  -4.8257  -4.8256  -4.5815
    -4.5814  -3.5767  -3.5767  -3.0617  -3.0617  -2.8321  -2.0993  -1.6199
    -1.6198  -1.5483  -1.5482  -1.4813  -1.0954   0.1891   1.6672   1.7408
     2.5560   2.5560   2.6515   2.6515   2.8595   3.6407

[...]

          k =-0.0768 0.0443 0.0000 ( 23624 PWs)   bands (ev):

[...]

     the Fermi energy is     0.2179 ev

!    total energy              =   -4310.73707568 Ry
     Harris-Foulkes estimate   =   -4310.73707945 Ry
     estimated scf accuracy    <       0.00000626 Ry

     The total energy is the sum of the following terms:

     one-electron contribution =  -20816.18007428 Ry
     hartree contribution      =   10423.84971964 Ry
     xc contribution           =    -646.76235039 Ry
     ewald contribution        =    6728.38950634 Ry
     electric field correction =       0.00000068 Ry
     smearing contrib. (-TS)   =      -0.03387767 Ry

     convergence has been achieved in  13 iterations

 BEEF-vdW xc energy contributions
           1 :   -577.602465907493
           2 :    528.046303488385
           3 :   -443.866000820918
           4 :    347.969562641247
           5 :   -261.468602685596
           6 :    196.122442585380
           7 :   -152.291046547205
           8 :    122.487139877749
           9 :   -97.7311389434594
          10 :    72.8290603911232
          11 :   -47.9640991108774
          12 :    26.5858679740955
          13 :   -11.7873082048386
          14 :    3.83037675029095
          15 :  -0.202412027673745
          16 :   -2.37316930762472
          17 :    5.76196531935364
          18 :   -9.65965919580208
          19 :    12.5399212366503
          20 :   -13.3161653608097
          21 :    12.3449518311991
          22 :   -11.0885879035225
          23 :    10.8661057549558
          24 :   -11.7941089631622
          25 :    12.7741418460419
          26 :   -12.4930777450447
          27 :    10.5879453195662
          28 :   -8.02493816493154
          29 :    6.38837370745159
          30 :   -6.64480364787391
          31 :   -43.5693294709217
          32 :   -30.3061426094332

     Forces acting on atoms (Ry/au):

     negative rho (up, down):  1.352E-01 0.000E+00
     atom    1 type  1   force =     0.00001372   -0.00001015    0.00390204
     atom    2 type  2   force =     0.00004396   -0.00002122   -0.00132503
     atom    3 type  1   force =    -0.00002370    0.00005141    0.00383718
     atom    4 type  1   force =    -0.00007068   -0.00003194    0.00383748
     atom    5 type  1   force =    -0.00020722    0.00013175    0.00070677
     atom    6 type  2   force =     0.00000134    0.00000538    0.00019014
     atom    7 type  1   force =     0.00019426    0.00011157    0.00071830
     atom    8 type  1   force =     0.00000311   -0.00025227    0.00072687
     atom    9 type  1   force =     0.00011721   -0.00003505   -0.00413243
     atom   10 type  2   force =    -0.00003200    0.00003576   -0.00032565
     atom   11 type  1   force =    -0.00009580   -0.00011651   -0.00407833
     atom   12 type  1   force =     0.00005580    0.00013128   -0.00405735

     Total force =     0.007095     Total SCF correction =     0.012069
     SCF correction compared to forces is large: reduce conv_thr to get better values

     entering subroutine stress ...

     negative rho (up, down):  1.352E-01 0.000E+00
          total   stress  (Ry/bohr**3)                   (kbar)     P=    0.39
  -0.00000076   0.00000006  -0.00000000         -0.11      0.01     -0.00
   0.00000006  -0.00000068  -0.00000000          0.01     -0.10     -0.00
  -0.00000000  -0.00000000   0.00000938         -0.00     -0.00      1.38

     BFGS Geometry Optimization

     number of scf cycles    =   1
     number of bfgs steps    =   0

     energy   new            =   -4310.7370756794 Ry

     new trust radius        =       0.0041342408 bohr
     new conv_thr            =       0.0000099958 Ry

ATOMIC_POSITIONS (crystal)
Ga1      0.000000000   0.000000000   0.394960139    0   0   0
Bi1      0.000000000   0.500000000   0.394960139    0   0   0
Ga1      0.500000000   0.000000000   0.394960139    0   0   0
Ga1      0.500000000   0.500000000   0.394960139    0   0   0
Ga1      0.666666667   0.666666667   0.500000000    0   0   0
Bi1      0.666666667   0.166666667   0.500000000    0   0   0
Ga1      0.166666667   0.666666667   0.500000000    0   0   0
Ga1      0.166666667   0.166666667   0.500000000    0   0   0
Ga1      0.333344499   0.333330045   0.604953491
Bi1      0.333329057   0.833336688   0.605033055
Ga1      0.833331015   0.333322405   0.604954622
Ga1      0.833331709   0.833345647   0.604955060

     Writing output data file calc.save
     Check: negative starting charge=   -0.128863
     NEW-OLD atomic charge density approx. for the potential
     Check: negative starting charge=   -0.128864

[...]

     energy   old            =   -4310.7370756794 Ry
     energy   new            =   -4310.7451613471 Ry

     CASE: energy  _new < energy  _old

     WARNING: bfgs curvature condition failed, Theta= 0.554
     uphill step: resetting bfgs history

[...]

     WARNING: bfgs curvature condition failed, Theta= 0.994
     new trust radius        =       0.0102322461 bohr
     new conv_thr            =       0.0000001000 Ry

[...]

     Total force =     0.006679     Total SCF correction =     0.000318

[...]

     Total force =     0.006411     Total SCF correction =     0.000542

[...]

     WARNING: bfgs curvature condition failed, Theta= 0.919
     new trust radius        =       0.0345338306 bohr
     new conv_thr            =       0.0000001000 Ry

[...]

     number of scf cycles    =   8
     number of bfgs steps    =   7

     energy   old            =   -4310.7458511649 Ry
     energy   new            =   -4310.7461938882 Ry

     CASE: energy  _new < energy  _old

     new trust radius        =       0.0518007459 bohr
     new conv_thr            =       0.0000001000 Ry

ATOMIC_POSITIONS (crystal)
Ga1      0.000000000   0.000000000   0.394960139    0   0   0
Bi1      0.000000000   0.500000000   0.394960139    0   0   0
Ga1      0.500000000   0.000000000   0.394960139    0   0   0
Ga1      0.500000000   0.500000000   0.394960139    0   0   0
Ga1      0.666666667   0.666666667   0.500000000    0   0   0
Bi1      0.666666667   0.166666667   0.500000000    0   0   0
Ga1      0.166666667   0.666666667   0.500000000    0   0   0
Ga1      0.166666667   0.166666667   0.500000000    0   0   0
Ga1      0.332037602   0.333981295   0.601910102
Bi1      0.333313101   0.833345923   0.604952215
Ga1      0.834010604   0.334007157   0.601924204
Ga1      0.834013455   0.831981638   0.601925915

     Writing output data file calc.save
     Check: negative starting charge=   -0.128881
     NEW-OLD atomic charge density approx. for the potential
     Check: negative starting charge=   -0.128894

[...]

     Self-consistent Calculation

[...]

     total energy              =   -4310.74663721 Ry
     Harris-Foulkes estimate   =   -4310.74663720 Ry
     estimated scf accuracy    <       0.00000023 Ry

     iteration #  8     ecut=    36.75 Ry     beta=0.30
     Davidson diagonalization with overlap
     ethr =  1.05E-10,  avg # of iterations =  4.0

[...]

     negative rho (up, down):  1.352E-01 0.000E+00

     Adding external electric field

     Computed dipole along edir(3) :
        Dipole               -0.0171 Ry au,         -0.0434 Debye
        Dipole field         -0.0000 Ry au

        Potential amp.        0.0032 Ry
        Total length         46.6498 bohr

     End of self-consistent calculation

[...]

          k = 0.0512-0.0591 0.0000 ( 23646 PWs)   bands (ev):

[...]

          k =-0.0768-0.0443 0.0000 ( 23624 PWs)   bands (ev):

   -94.6089 -94.6089 -94.6089 -94.5888 -94.5886 -94.5883 -94.5796 -94.5795
   -94.5794 -94.5769 -94.5769 -94.5767 -94.5604 -94.5602 -94.5598 -94.5509
   -94.5509 -94.5506 -94.4749 -94.4747 -94.4746 -94.4746 -94.4745 -94.4743
   -94.4618 -94.4618 -94.4617 -22.8527 -22.8524 -22.8418 -22.8415 -22.8288
   -22.8284 -22.8269 -22.8267 -22.8240 -22.8189 -22.8179 -22.8161 -22.8146
   -22.8143 -22.8129 -14.9669 -14.9467 -14.9401 -14.9338 -14.9296 -14.9244
   -14.9238 -14.9228 -14.9197 -14.9194 -14.9183 -14.9176 -14.9075 -14.9040
   -14.9032 -14.9026 -14.9000 -14.8969 -14.8942 -14.8940 -14.8925 -14.8912
   -14.8898 -14.8816 -14.8807 -14.8734 -14.8714 -14.8553 -14.8542 -14.8436
   -14.8304 -14.8216 -14.8034 -14.8024 -14.7959 -14.7905 -14.7872 -14.7867
   -14.7833 -14.7779 -14.7757 -14.7734 -14.7732 -14.7604 -14.7351 -10.8735
   -10.5504 -10.3725  -7.3928  -6.6986  -6.2828  -5.8940  -5.1586  -4.7535
    -4.6990  -4.5624  -3.0964  -1.4230  -1.3797  -1.3759  -0.9752  -0.7263
    -0.6012  -0.3404  -0.0587   0.2843   0.6786   0.9140   0.9150   1.1041
     1.5768   1.9457   1.9993   2.0986   2.4488   2.6450

     the Fermi energy is     0.2103 ev

!    total energy              =   -4310.74663715 Ry
     Harris-Foulkes estimate   =   -4310.74663722 Ry
     estimated scf accuracy    <       0.00000005 Ry

     The total energy is the sum of the following terms:

     one-electron contribution =  -20976.82305524 Ry
     hartree contribution      =   10504.00924036 Ry
     xc contribution           =    -646.79895695 Ry
     ewald contribution        =    6808.89974109 Ry
     electric field correction =       0.00000058 Ry
     smearing contrib. (-TS)   =      -0.03360699 Ry

     convergence has been achieved in   8 iterations

 BEEF-vdW xc energy contributions
           1 :   -577.872035260063
           2 :    528.338320706192
           3 :   -444.187435068879
           4 :    348.306353772280
           5 :   -261.794177752406
           6 :    196.413862354579
           7 :   -152.541801376542
           8 :    122.709283204349
           9 :   -97.9464292008799
          10 :    73.0554833725105
          11 :   -48.2072243615121
          12 :    26.8395713183779
          13 :   -12.0413674963863
          14 :    4.07817680895664
          15 :  -0.443284553215335
          16 :   -2.13658703969975
          17 :    5.52780841037895
          18 :   -9.42839869985664
          19 :    12.3123088010195
          20 :   -13.0902253226939
          21 :    12.1155647816740
          22 :   -10.8510002825249
          23 :    10.6206493349961
          24 :   -11.5475618007201
          25 :    12.5356670141105
          26 :   -12.2672077619951
          27 :    10.3699464718545
          28 :   -7.80265612799099
          29 :    6.14987548265572
          30 :   -6.38674722388851
          31 :   -43.5845191280134
          32 :   -30.3275117508640

     Forces acting on atoms (Ry/au):

     negative rho (up, down):  1.352E-01 0.000E+00
     atom    1 type  1   force =     0.00059466   -0.00034328    0.00412645
     atom    2 type  2   force =    -0.00003291    0.00001910    0.00065507
     atom    3 type  1   force =    -0.00065974   -0.00034281    0.00412620
     atom    4 type  1   force =    -0.00003303    0.00074276    0.00412943
     atom    5 type  1   force =    -0.00028380    0.00016411   -0.00091680
     atom    6 type  2   force =    -0.00002964    0.00001646   -0.00470013
     atom    7 type  1   force =     0.00021521    0.00016474   -0.00090321
     atom    8 type  1   force =    -0.00003501   -0.00026892   -0.00090433
     atom    9 type  1   force =    -0.00091598    0.00052941   -0.00186213
     atom   10 type  2   force =    -0.00002910    0.00001615    0.00006225
     atom   11 type  1   force =     0.00113850    0.00057462   -0.00190050
     atom   12 type  1   force =     0.00007084   -0.00127235   -0.00191230

     Total force =     0.003887     Total SCF correction =     0.001170
     SCF correction compared to forces is large: reduce conv_thr to get better values

     entering subroutine stress ...

     negative rho (up, down):  1.352E-01 0.000E+00
          total   stress  (Ry/bohr**3)                   (kbar)     P=   -4.92
  -0.00003815   0.00000006  -0.00000000         -5.61      0.01     -0.00
   0.00000006  -0.00003808   0.00000000          0.01     -5.60      0.00
  -0.00000000   0.00000000  -0.00002416         -0.00      0.00     -3.55

     bfgs converged in   9 scf cycles and   8 bfgs steps
     (criteria: energy <  1.0E+00, force <  1.9E-03)

     End of BFGS Geometry Optimization

     Final energy   =   -4310.7466371487 Ry
Begin final coordinates

ATOMIC_POSITIONS (crystal)
Ga1      0.000000000   0.000000000   0.394960139    0   0   0
Bi1      0.000000000   0.500000000   0.394960139    0   0   0
Ga1      0.500000000   0.000000000   0.394960139    0   0   0
Ga1      0.500000000   0.500000000   0.394960139    0   0   0
Ga1      0.666666667   0.666666667   0.500000000    0   0   0
Bi1      0.666666667   0.166666667   0.500000000    0   0   0
Ga1      0.166666667   0.666666667   0.500000000    0   0   0
Ga1      0.166666667   0.166666667   0.500000000    0   0   0
Ga1      0.332037602   0.333981295   0.601910102
Bi1      0.333313101   0.833345923   0.604952215
Ga1      0.834010604   0.334007157   0.601924204
Ga1      0.834013455   0.831981638   0.601925915
End final coordinates

     Writing output data file calc.save

     General routines

     Parallel routines

   This run was terminated on:  18:49:20  23Feb2018

   JOB DONE.