     Program PWSCF v.5.1rc2 (svn rev. ) starts on 23Feb2018 at 18:22:33

     Current dimensions of program PWSCF are:
     Max number of different atomic species (ntypx) = 10
     Max number of k-points (npk) =  40000
     Max angular momentum in pseudopotentials (lmaxx) =  3
     Presently stress not available with electric field

     IMPORTANT: XC functional enforced from input :
     Exchange-correlation      = BEEF-VDW ( 1  4 27 13 2)
     Any further DFT definition will be discarded
     Please, verify this is what you really want

     Subspace diagonalization in iterative solution of the eigenvalue problem:
     a serial algorithm will be used

     bravais-lattice index     =            0
     lattice parameter (alat)  =       1.8897  a.u.
     unit-cell volume          =    7844.0573 (a.u.)^3
     number of atoms/cell      =           12
     number of atomic types    =            2
     number of electrons       =       171.00
     number of Kohn-Sham states=           95
     kinetic-energy cutoff     =      36.7493  Ry
     charge density cutoff     =     367.4932  Ry
     convergence threshold     =      1.0E-05
     mixing beta               =       0.3000
     number of iterations used =           10  plain     mixing
     Exchange-correlation      = BEEF-VDW ( 1  4 27 13 2)
     nstep                     =           50

     celldm(1)=   1.889726  celldm(2)=   0.000000  celldm(3)=   0.000000
     celldm(4)=   0.000000  celldm(5)=   0.000000  celldm(6)=   0.000000

     crystal axes: (cart. coord. in units of alat)
               a(1) = (   7.201525   0.000000   0.000000 )
               a(2) = (   3.600762   6.236703   0.000000 )
               a(3) = (   0.000000   0.000000  25.880020 )

     reciprocal axes: (cart. coord. in units 2 pi/alat)
               b(1) = (  0.138859 -0.080171  0.000000 )
               b(2) = (  0.000000  0.160341  0.000000 )
               b(3) = (  0.000000  0.000000  0.038640 )

     PseudoPot. # 1 for Pb read from file:
     /home/mamunm/src/pseudo/gbrv1.5pbe/Pb.UPF
     MD5 check sum: 3d1c1779aa92214d1e8f3a7db79003e2
     Pseudo is Ultrasoft + core correction, Zval = 14.0
     Generated by new atomic code, or converted to UPF format
     Using radial grid of  899 points,  6 beta functions with:
                l(1) =   0
                l(2) =   0
                l(3) =   1
                l(4) =   1
                l(5) =   2
                l(6) =   2
     Q(r) pseudized with  6 coefficients,  rinner =    1.000   1.000   1.000
                                                       1.000   1.000

     PseudoPot. # 2 for Bi read from file:
     /home/mamunm/src/pseudo/gbrv1.5pbe/Bi.UPF
     MD5 check sum: 81103212dc04adf40945787f699eab19
     Pseudo is Ultrasoft + core correction, Zval = 15.0
     Generated by new atomic code, or converted to UPF format
     Using radial grid of  899 points,  6 beta functions with:
                l(1) =   0
                l(2) =   0
                l(3) =   1
                l(4) =   1
                l(5) =   2
                l(6) =   2
     Q(r) pseudized with  6 coefficients,  rinner =    1.000   1.000   1.000
                                                       1.000   1.000

     vdW kernel table read from file vdW_kernel_table
     MD5 check sum: 095c7af220d748ca6e76c0b4c6cfb241

     atomic species   valence    mass     pseudopotential
        Pb1           14.00   207.20000     Pb( 1.00)
        Bi1           15.00   208.98040     Bi( 1.00)

     No symmetry found

   Cartesian axes

     site n.     atom                  positions (alat units)
         1           Pb1 tau(   1) = (   0.0000000   0.0000000  10.0000000  )
         2           Bi1 tau(   2) = (   1.8003812   3.1183517  10.0000000  )
         3           Pb1 tau(   3) = (   3.6007624   0.0000000  10.0000000  )
         4           Pb1 tau(   4) = (   5.4011435   3.1183517  10.0000000  )
         5           Pb1 tau(   5) = (   7.2015247   4.1578022  12.9400102  )
         6           Bi1 tau(   6) = (   5.4011435   1.0394506  12.9400102  )
         7           Pb1 tau(   7) = (   3.6007624   4.1578022  12.9400102  )
         8           Pb1 tau(   8) = (   1.8003812   1.0394506  12.9400102  )
         9           Pb1 tau(   9) = (   3.6007624   2.0789011  15.8800203  )
        10           Bi1 tau(  10) = (   5.4011435   5.1972528  15.8800203  )
        11           Pb1 tau(  11) = (   7.2015247   2.0789011  15.8800203  )
        12           Pb1 tau(  12) = (   9.0019059   5.1972528  15.8800203  )

     number of k points=    20  Fermi-Dirac smearing, width (Ry)=  0.0110
                       cart. coord. in units 2pi/alat
        k(    1) = (   0.0000000   0.0000000   0.0000000), wk =   0.0555556
        k(    2) = (   0.0000000   0.0267235   0.0000000), wk =   0.1111111
        k(    3) = (   0.0000000   0.0534470   0.0000000), wk =   0.1111111
        k(    4) = (   0.0000000  -0.0801706   0.0000000), wk =   0.0555556
        k(    5) = (   0.0231432  -0.0133618   0.0000000), wk =   0.1111111
        k(    6) = (   0.0231432   0.0133618   0.0000000), wk =   0.1111111
        k(    7) = (   0.0231432   0.0400853   0.0000000), wk =   0.1111111
        k(    8) = (   0.0231432  -0.0935323   0.0000000), wk =   0.1111111
        k(    9) = (   0.0231432  -0.0668088   0.0000000), wk =   0.1111111
        k(   10) = (   0.0231432  -0.0400853   0.0000000), wk =   0.1111111
        k(   11) = (   0.0462865  -0.0267235   0.0000000), wk =   0.1111111
        k(   12) = (   0.0462865  -0.0000000   0.0000000), wk =   0.1111111
        k(   13) = (   0.0462865   0.0267235   0.0000000), wk =   0.1111111
        k(   14) = (   0.0462865  -0.1068941   0.0000000), wk =   0.1111111
        k(   15) = (   0.0462865  -0.0801706   0.0000000), wk =   0.1111111
        k(   16) = (   0.0462865  -0.0534470   0.0000000), wk =   0.1111111
        k(   17) = (  -0.0694297   0.0400853   0.0000000), wk =   0.0555556
        k(   18) = (  -0.0694297   0.0668088   0.0000000), wk =   0.1111111
        k(   19) = (  -0.0694297   0.0935323   0.0000000), wk =   0.1111111
        k(   20) = (  -0.0694297  -0.0400853   0.0000000), wk =   0.0555556

     Largest allocated arrays     est. size (Mb)     dimensions
     Largest temporary arrays     est. size (Mb)     dimensions

     Check: negative/imaginary core charge=   -0.000001    0.000000

     Initial potential from superposition of free atoms
     Check: negative starting charge=   -0.272512

     starting charge  167.97871, renormalised to  171.00000

     negative rho (up, down):  2.774E-01 0.000E+00

     *
     * You are using vdW-DF for exchange-correlation in this calculation.
     * Please cite the following three references that made this development
     * possible:
     *
     *   M. Dion, H. Rydberg, E. Schroder, D. C. Langreth, and
     *   B. I. Lundqvist, Phys. Rev. Lett. 92, 246401 (2004).
     *
     *   T. Thonhauser, V. R. Cooper, S. Li, A. Puzder, P. Hyldgaard, and
     *   D. C. Langreth, Phys. Rev. B 76, 125112 (2007).
     *
     *   G. Roman-Perez and J. M. Soler, Phys. Rev. Lett. 103, 096102 (2009).
     *
     *
     * If you are using vdW-DF2, please also cite:
     *
     *   K. Lee, E. D. Murray, L. Kong, B. I. Lundqvist, and
     *   D. C. Langreth, Phys. Rev. B 82, 081101(R) (2010).
     *
     *
     * If you are calculating the stress with vdW-DF, please also cite:
     *
     *   R. Sabatini, E. Kucukbenli, B. Kolb, T. Thonhauser, and
     *   S. de Gironcoli, J. Phys.: Condens. Matter 24, 424209 (2012).
     *

     Carrying out vdW-DF run using the following parameters:

     Nqs =      20    Nr_points =    1024   r_max =   100.000
     q_mesh =
               0.00001000     0.04494208     0.09755937     0.15916263
               0.23128650     0.31572767     0.41458969     0.53033537
               0.66584808     0.82450364     1.01025438     1.22772762
               1.48234092     1.78043706     2.12944203     2.53805004
               3.01644009     3.57652955     4.23227104     5.00000000

     Gradients computed in reciprocal space

     Adding external electric field

     Computed dipole along edir(3) :
        Dipole               -0.0000 Ry au,         -0.0000 Debye
        Dipole field         -0.0000 Ry au

        Potential amp.        0.0000 Ry
        Total length         47.6835 bohr

     Starting wfc are  108 randomized atomic wfcs

     Self-consistent Calculation

     iteration #  1     ecut=    36.75 Ry     beta=0.30
     Davidson diagonalization with overlap
     ethr =  1.00E-02,  avg # of iterations =  2.0

     Threshold (ethr) on eigenvalues was too large:
     Diagonalizing with lowered threshold

     Davidson diagonalization with overlap
     ethr =  7.89E-04,  avg # of iterations =  1.5

[...]

     total energy              =   -2055.46274531 Ry
     Harris-Foulkes estimate   =   -2056.05539234 Ry
     estimated scf accuracy    <       1.37560961 Ry

[...]

     End of self-consistent calculation

          k = 0.0000 0.0000 0.0000 ( 29489 PWs)   bands (ev):

   -22.5245 -22.5197 -22.5197 -22.5184 -22.5184 -22.2706 -22.2706 -22.2704
   -22.2704 -22.2458 -22.2458 -22.2455 -22.2454 -22.2415 -22.2412 -16.8291
   -16.8232 -16.8171 -16.8171 -16.8071 -16.8071 -16.7828 -16.7694 -16.7613
   -16.7609 -16.7609 -16.7483 -16.7373 -16.7373 -16.7296 -16.7260 -16.7260
   -16.7195 -16.6987 -16.6987 -16.6979 -16.6936 -16.6936 -16.6921 -16.6920
   -16.6759 -16.6759 -16.6503 -16.6503 -16.6386 -16.6339 -16.6338 -16.6142
   -16.5960 -16.5921 -16.5907 -16.5906 -16.5720 -16.5720 -16.5517 -16.5517
   -16.5505 -16.5133 -16.5132 -16.4871 -10.8926 -10.0942  -9.6601  -8.1123
    -7.9770  -7.7750  -7.2893  -7.2893  -6.9360  -6.9360  -6.4314  -6.4314
    -2.8989  -2.8989  -2.7155  -2.3002  -2.0216  -2.0216  -1.9272  -1.9272
    -1.9097  -1.6833  -0.0771   1.0852   1.1311   1.6644   1.6644   1.7348
     1.7348   2.5510   2.5510   2.6874   3.0274   3.0303   3.4792

[...]

          k =-0.0694 0.0401 0.0000 ( 29548 PWs)   bands (ev):

[...]

     the Fermi energy is     0.7279 ev

!    total energy              =   -2055.65429487 Ry
     Harris-Foulkes estimate   =   -2055.65431148 Ry
     estimated scf accuracy    <       0.00000486 Ry

     The total energy is the sum of the following terms:

     one-electron contribution =   -8924.37871649 Ry
     hartree contribution      =    4525.04336851 Ry
     xc contribution           =    -787.03543277 Ry
     ewald contribution        =    3130.75543490 Ry
     electric field correction =       0.00000020 Ry
     smearing contrib. (-TS)   =      -0.03894922 Ry

     convergence has been achieved in  10 iterations

 BEEF-vdW xc energy contributions
           1 :   -701.529851973561
           2 :    651.479188257625
           3 :   -563.452648343763
           4 :    456.937405694319
           5 :   -351.990886151767
           6 :    263.152097290876
           7 :   -196.272303953307
           8 :    149.025163748015
           9 :   -114.335749045194
          10 :    84.8452965499758
          11 :   -56.3321565875051
          12 :    28.7746694388484
          13 :   -5.05147850899994
          14 :   -11.6019229933970
          15 :    19.8431352813056
          16 :   -21.0626815619196
          17 :    18.6022016864424
          18 :   -16.0146797772234
          19 :    15.4272949324612
          20 :   -16.8638958606527
          21 :    18.7580029222690
          22 :   -19.2252447577180
          23 :    17.3044458287421
          24 :   -13.4929020063696
          25 :    9.37018408216704
          26 :   -6.63402458585119
          27 :    6.15522040715382
          28 :   -7.57766143181482
          29 :    9.62846340497344
          30 :   -10.8953396492864
          31 :   -55.9677591682523
          32 :   -40.9788252440084

     Forces acting on atoms (Ry/au):

     negative rho (up, down):  2.851E-01 0.000E+00
     atom    1 type  1   force =    -0.00135987    0.00078513    0.00473044
     atom    2 type  2   force =    -0.00000946   -0.00000256    0.00662196
     atom    3 type  1   force =     0.00137536    0.00079132    0.00476886
     atom    4 type  1   force =    -0.00000597   -0.00159883    0.00477334
     atom    5 type  1   force =     0.00006418   -0.00003226    0.00005407
     atom    6 type  2   force =    -0.00000911    0.00001334    0.00091263
     atom    7 type  1   force =    -0.00003701   -0.00001512    0.00002081
     atom    8 type  1   force =    -0.00001613    0.00003585    0.00002670
     atom    9 type  1   force =     0.00135552   -0.00078953   -0.00509303
     atom   10 type  2   force =     0.00000282    0.00001085   -0.00658376
     atom   11 type  1   force =    -0.00135379   -0.00077837   -0.00512291
     atom   12 type  1   force =    -0.00000654    0.00158018   -0.00510911

     Total force =     0.011359     Total SCF correction =     0.004508
     SCF correction compared to forces is large: reduce conv_thr to get better values

     entering subroutine stress ...

     negative rho (up, down):  2.851E-01 0.000E+00
          total   stress  (Ry/bohr**3)                   (kbar)     P=   -6.62
  -0.00004610  -0.00000000  -0.00000000         -6.78     -0.00     -0.00
  -0.00000000  -0.00004611   0.00000000         -0.00     -6.78      0.00
  -0.00000000   0.00000000  -0.00004290         -0.00      0.00     -6.31

     BFGS Geometry Optimization

     number of scf cycles    =   1
     number of bfgs steps    =   0

     energy   new            =   -2055.6542948689 Ry

     new trust radius        =       0.0065837691 bohr
     new conv_thr            =       0.0000099958 Ry

ATOMIC_POSITIONS (crystal)
Pb1      0.000000000   0.000000000   0.386398460    0   0   0
Bi1     -0.000000000   0.500000000   0.386398460    0   0   0
Pb1      0.500000000   0.000000000   0.386398460    0   0   0
Pb1      0.500000000   0.500000000   0.386398460    0   0   0
Pb1      0.666666667   0.666666667   0.500000000    0   0   0
Bi1      0.666666667   0.166666667   0.500000000    0   0   0
Pb1      0.166666667   0.666666667   0.500000000    0   0   0
Pb1      0.166666667   0.166666667   0.500000000    0   0   0
Pb1      0.333466434   0.333266343   0.613497401
Bi1      0.333333080   0.833334254   0.613466919
Pb1      0.833266877   0.333267290   0.613496790
Pb1      0.833265814   0.833467410   0.613497072

     Writing output data file calc.save
     Check: negative starting charge=   -0.272512
     NEW-OLD atomic charge density approx. for the potential

     Check: negative/imaginary core charge=   -0.000001    0.000000
     Check: negative starting charge=   -0.272659

[...]

     energy   old            =   -2055.6542948689 Ry
     energy   new            =   -2055.6590214931 Ry

     CASE: energy  _new < energy  _old

     WARNING: bfgs curvature condition failed, Theta= 0.757
     new trust radius        =       0.0072421460 bohr
     new conv_thr            =       0.0000001000 Ry

[...]

     Total force =     0.011186     Total SCF correction =     0.000681

[...]

     CASE: energy  _new > energy  _old

[...]

     CASE: energy  _new > energy  _old

[...]

     WARNING: info= 32 for Hessian

     WARNING: bfgs curvature condition failed, Theta= 0.047
     uphill step: resetting bfgs history

[...]

     WARNING: bfgs curvature condition failed, Theta= 0.819
     new trust radius        =       0.0039505211 bohr
     new conv_thr            =       0.0000001000 Ry

[...]

     Threshold (ethr) on eigenvalues was too large:
     Diagonalizing with lowered threshold

     Davidson diagonalization with overlap
     ethr =  5.99E-08,  avg # of iterations =  3.2

[...]

     Total force =     0.003741     Total SCF correction =     0.000116

[...]

     number of scf cycles    =  25
     number of bfgs steps    =  20

     energy   old            =   -2055.6614790517 Ry
     energy   new            =   -2055.6615278476 Ry

     CASE: energy  _new < energy  _old

     new trust radius        =       0.0199995130 bohr
     new conv_thr            =       0.0000001000 Ry

ATOMIC_POSITIONS (crystal)
Pb1      0.000000000   0.000000000   0.386398460    0   0   0
Bi1     -0.000000000   0.500000000   0.386398460    0   0   0
Pb1      0.500000000   0.000000000   0.386398460    0   0   0
Pb1      0.500000000   0.500000000   0.386398460    0   0   0
Pb1      0.666666667   0.666666667   0.500000000    0   0   0
Bi1      0.666666667   0.166666667   0.500000000    0   0   0
Pb1      0.166666667   0.666666667   0.500000000    0   0   0
Pb1      0.166666667   0.166666667   0.500000000    0   0   0
Pb1      0.337907812   0.330998370   0.609242559
Bi1      0.333251157   0.833466753   0.608955390
Pb1      0.831058115   0.331061793   0.609190301
Pb1      0.830904201   0.838088739   0.609205100

     Writing output data file calc.save
     Check: negative starting charge=   -0.273321
     NEW-OLD atomic charge density approx. for the potential

     Check: negative/imaginary core charge=   -0.000001    0.000000
     Check: negative starting charge=   -0.274336

[...]

     Self-consistent Calculation

[...]

     total energy              =   -2055.66158132 Ry
     Harris-Foulkes estimate   =   -2055.66158149 Ry
     estimated scf accuracy    <       0.00000010 Ry

     iteration #  7     ecut=    36.75 Ry     beta=0.30
     Davidson diagonalization with overlap
     ethr =  5.98E-11,  avg # of iterations =  5.3

[...]

     negative rho (up, down):  2.878E-01 0.000E+00

     Adding external electric field

     Computed dipole along edir(3) :
        Dipole                0.0047 Ry au,          0.0120 Debye
        Dipole field          0.0000 Ry au

        Potential amp.       -0.0007 Ry
        Total length         47.6835 bohr

     End of self-consistent calculation

[...]

          k = 0.0463-0.0534 0.0000 ( 29516 PWs)   bands (ev):

[...]

          k =-0.0694-0.0401 0.0000 ( 29548 PWs)   bands (ev):

   -22.5472 -22.5412 -22.5412 -22.5369 -22.5365 -22.2986 -22.2982 -22.2742
   -22.2738 -22.2718 -22.2717 -22.2651 -22.2472 -22.2471 -22.2417 -16.8227
   -16.8160 -16.7795 -16.7717 -16.7613 -16.7585 -16.7522 -16.7515 -16.7505
   -16.7490 -16.7481 -16.7404 -16.7376 -16.7310 -16.7301 -16.7285 -16.7273
   -16.7273 -16.7252 -16.7207 -16.7194 -16.7182 -16.7161 -16.7095 -16.7010
   -16.6898 -16.6856 -16.6833 -16.6818 -16.6416 -16.6350 -16.6319 -16.6116
   -16.6093 -16.6076 -16.5909 -16.5894 -16.5827 -16.5764 -16.5735 -16.5691
   -16.5578 -16.5521 -16.5388 -16.4991 -10.4677 -10.0851  -9.8048  -8.7536
    -8.3785  -7.9940  -7.6751  -7.4669  -7.1419  -7.0311  -7.0036  -6.3122
    -1.6318  -1.6178  -1.5558  -1.4778  -1.3327  -1.1943  -0.9104  -0.5900
    -0.4579  -0.1696   0.1016   0.1115   0.5406   0.6703   1.1651   1.2867
     1.2868   1.5347   1.5677   1.6094   1.7634   1.9641   2.3554

     the Fermi energy is     0.7272 ev

!    total energy              =   -2055.66158119 Ry
     Harris-Foulkes estimate   =   -2055.66158137 Ry
     estimated scf accuracy    <       0.00000002 Ry

     The total energy is the sum of the following terms:

     one-electron contribution =   -9070.68699881 Ry
     hartree contribution      =    4598.19385264 Ry
     xc contribution           =    -787.13037754 Ry
     ewald contribution        =    3204.00000415 Ry
     electric field correction =       0.00000004 Ry
     smearing contrib. (-TS)   =      -0.03806166 Ry

     convergence has been achieved in   7 iterations

 BEEF-vdW xc energy contributions
           1 :   -701.761301849264
           2 :    651.760026209176
           3 :   -563.791661145584
           4 :    457.288655809140
           5 :   -352.277366464885
           6 :    263.314306830277
           7 :   -196.310616038181
           8 :    149.006807600144
           9 :   -114.360081885021
          10 :    84.9872123080006
          11 :   -56.5983294810410
          12 :    29.0994119729942
          13 :   -5.33512358801840
          14 :   -11.4342637127609
          15 :    19.7978085792844
          16 :   -21.0750165462903
          17 :    18.5761466904227
          18 :   -15.8804336946555
          19 :    15.1820571609662
          20 :   -16.5719037145971
          21 :    18.5108070144279
          22 :   -19.0864915018039
          23 :    17.2726093300171
          24 :   -13.5041037581424
          25 :    9.33819960795358
          26 :   -6.50231741733910
          27 :    5.92920789713014
          28 :   -7.31877096930054
          29 :    9.41489499481054
          30 :   -10.7742057434021
          31 :   -55.9835301599135
          32 :   -41.0067791137608

     Forces acting on atoms (Ry/au):

     negative rho (up, down):  2.878E-01 0.000E+00
     atom    1 type  1   force =    -0.00051203    0.00028931    0.00417825
     atom    2 type  2   force =     0.00000296    0.00000744    0.00582634
     atom    3 type  1   force =     0.00051858    0.00029379    0.00418360
     atom    4 type  1   force =    -0.00000291   -0.00058538    0.00418083
     atom    5 type  1   force =    -0.00036153    0.00021936   -0.00485553
     atom    6 type  2   force =    -0.00002437    0.00000861   -0.00332971
     atom    7 type  1   force =     0.00035339    0.00019588   -0.00482233
     atom    8 type  1   force =     0.00001663   -0.00040684   -0.00484280
     atom    9 type  1   force =    -0.00048488    0.00030253    0.00028125
     atom   10 type  2   force =     0.00000188   -0.00000781   -0.00163476
     atom   11 type  1   force =     0.00047642    0.00028434    0.00043914
     atom   12 type  1   force =     0.00001587   -0.00060123    0.00039572

     Total force =     0.002024     Total SCF correction =     0.000629
     SCF correction compared to forces is large: reduce conv_thr to get better values

     entering subroutine stress ...

     negative rho (up, down):  2.878E-01 0.000E+00
          total   stress  (Ry/bohr**3)                   (kbar)     P=   -3.47
  -0.00002659   0.00000000   0.00000001         -3.91      0.00      0.00
   0.00000000  -0.00002656  -0.00000002          0.00     -3.91     -0.00
   0.00000001  -0.00000002  -0.00001770          0.00     -0.00     -2.60

     bfgs converged in  26 scf cycles and  21 bfgs steps
     (criteria: energy <  1.0E+00, force <  1.9E-03)

     End of BFGS Geometry Optimization

     Final energy   =   -2055.6615811857 Ry
Begin final coordinates

ATOMIC_POSITIONS (crystal)
Pb1      0.000000000   0.000000000   0.386398460    0   0   0
Bi1     -0.000000000   0.500000000   0.386398460    0   0   0
Pb1      0.500000000   0.000000000   0.386398460    0   0   0
Pb1      0.500000000   0.500000000   0.386398460    0   0   0
Pb1      0.666666667   0.666666667   0.500000000    0   0   0
Bi1      0.666666667   0.166666667   0.500000000    0   0   0
Pb1      0.166666667   0.666666667   0.500000000    0   0   0
Pb1      0.166666667   0.166666667   0.500000000    0   0   0
Pb1      0.337907812   0.330998370   0.609242559
Bi1      0.333251157   0.833466753   0.608955390
Pb1      0.831058115   0.331061793   0.609190301
Pb1      0.830904201   0.838088739   0.609205100
End final coordinates

     Writing output data file calc.save

     General routines

     Parallel routines

   This run was terminated on:  20:14:30  23Feb2018

   JOB DONE.