     Program PWSCF v.5.1rc2 (svn rev. ) starts on 23Feb2018 at 18:27:42

     Current dimensions of program PWSCF are:
     Max number of different atomic species (ntypx) = 10
     Max number of k-points (npk) =  40000
     Max angular momentum in pseudopotentials (lmaxx) =  3
     Presently stress not available with electric field

     IMPORTANT: XC functional enforced from input :
     Exchange-correlation      = BEEF-VDW ( 1  4 27 13 2)
     Any further DFT definition will be discarded
     Please, verify this is what you really want

     Subspace diagonalization in iterative solution of the eigenvalue problem:
     a serial algorithm will be used

     bravais-lattice index     =            0
     lattice parameter (alat)  =       1.8897  a.u.
     unit-cell volume          =    7735.6565 (a.u.)^3
     number of atoms/cell      =           12
     number of atomic types    =            2
     number of electrons       =       168.00
     number of Kohn-Sham states=           94
     kinetic-energy cutoff     =      36.7493  Ry
     charge density cutoff     =     367.4932  Ry
     convergence threshold     =      1.0E-05
     mixing beta               =       0.3000
     number of iterations used =           10  plain     mixing
     Exchange-correlation      = BEEF-VDW ( 1  4 27 13 2)
     nstep                     =           50

     celldm(1)=   1.889726  celldm(2)=   0.000000  celldm(3)=   0.000000
     celldm(4)=   0.000000  celldm(5)=   0.000000  celldm(6)=   0.000000

     crystal axes: (cart. coord. in units of alat)
               a(1) = (   7.156658   0.000000   0.000000 )
               a(2) = (   3.578329   6.197848   0.000000 )
               a(3) = (   0.000000   0.000000  25.843387 )

     reciprocal axes: (cart. coord. in units 2 pi/alat)
               b(1) = (  0.139730 -0.080673  0.000000 )
               b(2) = (  0.000000  0.161346  0.000000 )
               b(3) = (  0.000000  0.000000  0.038695 )

     PseudoPot. # 1 for Bi read from file:
     /home/mamunm/src/pseudo/gbrv1.5pbe/Bi.UPF
     MD5 check sum: 81103212dc04adf40945787f699eab19
     Pseudo is Ultrasoft + core correction, Zval = 15.0
     Generated by new atomic code, or converted to UPF format
     Using radial grid of  899 points,  6 beta functions with:
                l(1) =   0
                l(2) =   0
                l(3) =   1
                l(4) =   1
                l(5) =   2
                l(6) =   2
     Q(r) pseudized with  6 coefficients,  rinner =    1.000   1.000   1.000
                                                       1.000   1.000

     PseudoPot. # 2 for La read from file:
     /home/mamunm/src/pseudo/gbrv1.5pbe/La.UPF
     MD5 check sum: 5937b0c7494ba0601a847275249473aa
     Pseudo is Ultrasoft + core correction, Zval = 11.0
     Generated by new atomic code, or converted to UPF format
     Using radial grid of  995 points,  8 beta functions with:
                l(1) =   0
                l(2) =   0
                l(3) =   1
                l(4) =   1
                l(5) =   2
                l(6) =   2
                l(7) =   3
                l(8) =   3
     Q(r) pseudized with  8 coefficients,  rinner =    1.700   1.700   1.700
                                                       1.700   1.700   1.700
                                                       1.700

     vdW kernel table read from file vdW_kernel_table
     MD5 check sum: 095c7af220d748ca6e76c0b4c6cfb241

     atomic species   valence    mass     pseudopotential
        Bi1           15.00   208.98040     Bi( 1.00)
        La1           11.00   138.90547     La( 1.00)

     No symmetry found

   Cartesian axes

     site n.     atom                  positions (alat units)
         1           Bi1 tau(   1) = (   0.0000000   0.0000000  10.0000000  )
         2           La1 tau(   2) = (   1.7891645   3.0989238  10.0000000  )
         3           Bi1 tau(   3) = (   3.5783290   0.0000000  10.0000000  )
         4           Bi1 tau(   4) = (   5.3674934   3.0989238  10.0000000  )
         5           Bi1 tau(   5) = (   7.1566579   4.1318984  12.9216934  )
         6           La1 tau(   6) = (   5.3674934   1.0329746  12.9216934  )
         7           Bi1 tau(   7) = (   3.5783290   4.1318984  12.9216934  )
         8           Bi1 tau(   8) = (   1.7891645   1.0329746  12.9216934  )
         9           Bi1 tau(   9) = (   3.5783290   2.0659492  15.8433867  )
        10           La1 tau(  10) = (   5.3674934   5.1648730  15.8433867  )
        11           Bi1 tau(  11) = (   7.1566579   2.0659492  15.8433867  )
        12           Bi1 tau(  12) = (   8.9458224   5.1648730  15.8433867  )

     number of k points=    20  Fermi-Dirac smearing, width (Ry)=  0.0110
                       cart. coord. in units 2pi/alat
        k(    1) = (   0.0000000   0.0000000   0.0000000), wk =   0.0555556
        k(    2) = (   0.0000000   0.0268911   0.0000000), wk =   0.1111111
        k(    3) = (   0.0000000   0.0537821   0.0000000), wk =   0.1111111
        k(    4) = (   0.0000000  -0.0806732   0.0000000), wk =   0.0555556
        k(    5) = (   0.0232883  -0.0134455   0.0000000), wk =   0.1111111
        k(    6) = (   0.0232883   0.0134455   0.0000000), wk =   0.1111111
        k(    7) = (   0.0232883   0.0403366   0.0000000), wk =   0.1111111
        k(    8) = (   0.0232883  -0.0941187   0.0000000), wk =   0.1111111
        k(    9) = (   0.0232883  -0.0672276   0.0000000), wk =   0.1111111
        k(   10) = (   0.0232883  -0.0403366   0.0000000), wk =   0.1111111
        k(   11) = (   0.0465767  -0.0268911   0.0000000), wk =   0.1111111
        k(   12) = (   0.0465767   0.0000000   0.0000000), wk =   0.1111111
        k(   13) = (   0.0465767   0.0268911   0.0000000), wk =   0.1111111
        k(   14) = (   0.0465767  -0.1075642   0.0000000), wk =   0.1111111
        k(   15) = (   0.0465767  -0.0806732   0.0000000), wk =   0.1111111
        k(   16) = (   0.0465767  -0.0537821   0.0000000), wk =   0.1111111
        k(   17) = (  -0.0698650   0.0403366   0.0000000), wk =   0.0555556
        k(   18) = (  -0.0698650   0.0672276   0.0000000), wk =   0.1111111
        k(   19) = (  -0.0698650   0.0941187   0.0000000), wk =   0.1111111
        k(   20) = (  -0.0698650  -0.0403366   0.0000000), wk =   0.0555556

     Largest allocated arrays     est. size (Mb)     dimensions
     Largest temporary arrays     est. size (Mb)     dimensions

     Initial potential from superposition of free atoms
     Check: negative starting charge=   -0.591132

     starting charge  158.90342, renormalised to  168.00000

     negative rho (up, down):  6.250E-01 0.000E+00

     *
     * You are using vdW-DF for exchange-correlation in this calculation.
     * Please cite the following three references that made this development
     * possible:
     *
     *   M. Dion, H. Rydberg, E. Schroder, D. C. Langreth, and
     *   B. I. Lundqvist, Phys. Rev. Lett. 92, 246401 (2004).
     *
     *   T. Thonhauser, V. R. Cooper, S. Li, A. Puzder, P. Hyldgaard, and
     *   D. C. Langreth, Phys. Rev. B 76, 125112 (2007).
     *
     *   G. Roman-Perez and J. M. Soler, Phys. Rev. Lett. 103, 096102 (2009).
     *
     *
     * If you are using vdW-DF2, please also cite:
     *
     *   K. Lee, E. D. Murray, L. Kong, B. I. Lundqvist, and
     *   D. C. Langreth, Phys. Rev. B 82, 081101(R) (2010).
     *
     *
     * If you are calculating the stress with vdW-DF, please also cite:
     *
     *   R. Sabatini, E. Kucukbenli, B. Kolb, T. Thonhauser, and
     *   S. de Gironcoli, J. Phys.: Condens. Matter 24, 424209 (2012).
     *

     Carrying out vdW-DF run using the following parameters:

     Nqs =      20    Nr_points =    1024   r_max =   100.000
     q_mesh =
               0.00001000     0.04494208     0.09755937     0.15916263
               0.23128650     0.31572767     0.41458969     0.53033537
               0.66584808     0.82450364     1.01025438     1.22772762
               1.48234092     1.78043706     2.12944203     2.53805004
               3.01644009     3.57652955     4.23227104     5.00000000

     Gradients computed in reciprocal space

     Adding external electric field

     Computed dipole along edir(3) :
        Dipole               -0.0000 Ry au,         -0.0000 Debye
        Dipole field         -0.0000 Ry au

        Potential amp.        0.0000 Ry
        Total length         47.6160 bohr

     Starting wfc are  141 randomized atomic wfcs

     Self-consistent Calculation

     iteration #  1     ecut=    36.75 Ry     beta=0.30
     Davidson diagonalization with overlap
     ethr =  1.00E-02,  avg # of iterations =  2.1

[...]

     total energy              =   -1996.93232435 Ry
     Harris-Foulkes estimate   =   -1998.75599587 Ry
     estimated scf accuracy    <       4.12257629 Ry

[...]

     iteration #  5     ecut=    36.75 Ry     beta=0.30
     Davidson diagonalization with overlap
     c_bands:  1 eigenvalues not converged
     ethr =  1.11E-04,  avg # of iterations = 15.8

[...]

     End of self-consistent calculation

          k = 0.0000 0.0000 0.0000 ( 29093 PWs)   bands (ev):

   -32.4925 -32.4903 -31.9427 -21.9340 -21.9093 -21.9090 -21.9065 -21.8871
   -21.8868 -21.8326 -21.8281 -21.8280 -21.8199 -21.7910 -21.7909 -21.7745
   -21.7744 -21.7254 -21.5834 -21.5829 -21.5431 -21.5430 -21.5406 -21.5406
   -21.5359 -21.5312 -21.5026 -21.5026 -21.5012 -21.5012 -21.4658 -21.4658
   -21.4631 -21.4631 -21.4467 -21.4444 -21.4317 -21.4278 -21.4230 -21.4230
   -21.4217 -21.4217 -21.4198 -21.4198 -21.4166 -21.4166 -21.3872 -21.3861
   -16.1611 -16.1580 -16.0048 -16.0048 -16.0028 -16.0028 -15.5833 -15.5832
   -15.5154 -10.7998  -9.9080  -9.3547  -9.0147  -9.0145  -8.3896  -8.3895
    -8.1463  -8.1463  -3.0256  -2.2786  -2.1401  -1.6560  -1.6559  -1.5187
    -1.2220  -1.2220  -0.7647  -0.7647  -0.3762   0.6057   0.6057   0.7115
     0.7115   1.5596   1.6091   2.1366   2.3515   2.3515   2.5188   2.5189
     2.5308   2.5359   2.6345   2.6351   2.6396   2.6447

[...]

          k =-0.0699 0.0403 0.0000 ( 29108 PWs)   bands (ev):

[...]

     the Fermi energy is     1.4790 ev

!    total energy              =   -1996.95101038 Ry
     Harris-Foulkes estimate   =   -1996.95101030 Ry
     estimated scf accuracy    <       0.00000283 Ry

     The total energy is the sum of the following terms:

     one-electron contribution =   -8724.96153934 Ry
     hartree contribution      =    4406.92484079 Ry
     xc contribution           =    -751.45734620 Ry
     ewald contribution        =    3072.58981695 Ry
     electric field correction =       0.00000001 Ry
     smearing contrib. (-TS)   =      -0.04678258 Ry

     convergence has been achieved in  12 iterations

 BEEF-vdW xc energy contributions
           1 :   -668.919976829548
           2 :    620.446042374585
           3 :   -534.842745531725
           4 :    430.581540502853
           5 :   -327.116444877513
           6 :    239.351568705648
           7 :   -174.464237642510
           8 :    131.709884089413
           9 :   -104.815133867598
          10 :    85.7023450127645
          11 :   -67.9379199366892
          12 :    48.6390434201496
          13 :   -28.4500509480042
          14 :    10.0617279853229
          15 :    3.76578272408017
          16 :   -11.7298431391799
          17 :    14.4938334558691
          18 :   -14.1612911503997
          19 :    13.1508265127912
          20 :   -13.1011254124810
          21 :    14.3177033445476
          22 :   -15.9555224556900
          23 :    16.7523991054234
          24 :   -15.8781929664990
          25 :    13.4477283035551
          26 :   -10.4600786173817
          27 :    8.23724358813786
          28 :   -7.69443053297425
          29 :    8.84562135652311
          30 :   -10.8083265934829
          31 :   -53.9681008638197
          32 :   -39.4727064890781

     Forces acting on atoms (Ry/au):

     negative rho (up, down):  5.161E-01 0.000E+00
     atom    1 type  1   force =    -0.00442296    0.00256310   -0.00547060
     atom    2 type  2   force =    -0.00000537    0.00000450    0.04017105
     atom    3 type  1   force =     0.00441715    0.00258376   -0.00549189
     atom    4 type  1   force =    -0.00001941   -0.00511998   -0.00549176
     atom    5 type  1   force =     0.00009916   -0.00005848   -0.00041763
     atom    6 type  2   force =     0.00000039   -0.00000186    0.00016650
     atom    7 type  1   force =    -0.00009994   -0.00007190   -0.00040321
     atom    8 type  1   force =     0.00000239    0.00012271   -0.00040064
     atom    9 type  1   force =     0.00447026   -0.00258873    0.00578024
     atom   10 type  2   force =     0.00000471   -0.00000236   -0.04006991
     atom   11 type  1   force =    -0.00447046   -0.00261515    0.00580691
     atom   12 type  1   force =     0.00002408    0.00518437    0.00582096

     Total force =     0.042273     Total SCF correction =     0.001532

     entering subroutine stress ...

     negative rho (up, down):  5.161E-01 0.000E+00
          total   stress  (Ry/bohr**3)                   (kbar)     P=   -9.10
  -0.00006873  -0.00000000   0.00000000        -10.11     -0.00      0.00
  -0.00000000  -0.00006873  -0.00000000         -0.00    -10.11     -0.00
   0.00000000  -0.00000000  -0.00004817          0.00     -0.00     -7.09

     BFGS Geometry Optimization

     number of scf cycles    =   1
     number of bfgs steps    =   0

     energy   new            =   -1996.9510103765 Ry

     new trust radius        =       0.0400699093 bohr
     new conv_thr            =       0.0000099958 Ry

ATOMIC_POSITIONS (crystal)
Bi1      0.000000000   0.000000000   0.386946189    0   0   0
La1     -0.000000000   0.500000000   0.386946189    0   0   0
Bi1      0.500000000   0.000000000   0.386946189    0   0   0
Bi1      0.500000000   0.500000000   0.386946189    0   0   0
Bi1      0.666666667   0.666666667   0.500000000    0   0   0
La1      0.666666667   0.166666667   0.500000000    0   0   0
Bi1      0.166666667   0.666666667   0.500000000    0   0   0
Bi1      0.166666667   0.166666667   0.500000000    0   0   0
Bi1      0.333774387   0.333112306   0.613172169
La1      0.333333782   0.833333132   0.612233327
Bi1      0.833114421   0.333110050   0.613172715
Bi1      0.833113791   0.833775979   0.613173003

     Writing output data file calc.save
     Check: negative starting charge=   -0.591132
     NEW-OLD atomic charge density approx. for the potential
     Check: negative starting charge=   -0.590515

[...]

     energy   old            =   -1996.9510103765 Ry
     energy   new            =   -1996.9663385879 Ry

     CASE: energy  _new < energy  _old

     WARNING: bfgs curvature condition failed, Theta= 0.782
     new trust radius        =       0.0440769002 bohr
     new conv_thr            =       0.0000001000 Ry

[...]

     Total force =     0.019591     Total SCF correction =     0.000185

[...]

     number of scf cycles    =   6
     number of bfgs steps    =   5

     energy   old            =   -1996.9739925039 Ry
     energy   new            =   -1996.9777967171 Ry

     CASE: energy  _new < energy  _old

     new trust radius        =       0.2231393075 bohr
     new conv_thr            =       0.0000001000 Ry

ATOMIC_POSITIONS (crystal)
Bi1      0.000000000   0.000000000   0.386946189    0   0   0
La1     -0.000000000   0.500000000   0.386946189    0   0   0
Bi1      0.500000000   0.000000000   0.386946189    0   0   0
Bi1      0.500000000   0.500000000   0.386946189    0   0   0
Bi1      0.666666667   0.666666667   0.500000000    0   0   0
La1      0.666666667   0.166666667   0.500000000    0   0   0
Bi1      0.166666667   0.666666667   0.500000000    0   0   0
Bi1      0.166666667   0.166666667   0.500000000    0   0   0
Bi1      0.339195598   0.330386884   0.614538563
La1      0.333347052   0.833325455   0.600331183
Bi1      0.830443158   0.330333794   0.614552892
Bi1      0.830424002   0.839237820   0.614558941

     Writing output data file calc.save
     Check: negative starting charge=   -0.590854
     NEW-OLD atomic charge density approx. for the potential
     Check: negative starting charge=   -0.590928

[...]

     Self-consistent Calculation

     iteration #  1     ecut=    36.75 Ry     beta=0.30
     Davidson diagonalization with overlap
     c_bands:  2 eigenvalues not converged
     c_bands:  1 eigenvalues not converged
     c_bands:  1 eigenvalues not converged
     c_bands:  1 eigenvalues not converged
     c_bands:  1 eigenvalues not converged
     c_bands:  1 eigenvalues not converged
     c_bands:  1 eigenvalues not converged
     c_bands:  1 eigenvalues not converged
     c_bands:  1 eigenvalues not converged
     c_bands:  1 eigenvalues not converged
     c_bands:  1 eigenvalues not converged
     c_bands:  1 eigenvalues not converged
     ethr =  1.00E-06,  avg # of iterations = 18.1

[...]

     total energy              =   -1996.98022649 Ry
     Harris-Foulkes estimate   =   -1996.98022651 Ry
     estimated scf accuracy    <       0.00000019 Ry

     iteration # 12     ecut=    36.75 Ry     beta=0.30
     Davidson diagonalization with overlap
     ethr =  1.11E-10,  avg # of iterations =  5.8

[...]

     negative rho (up, down):  5.191E-01 0.000E+00

     Adding external electric field

     Computed dipole along edir(3) :
        Dipole               -0.1160 Ry au,         -0.2949 Debye
        Dipole field         -0.0002 Ry au

        Potential amp.        0.0179 Ry
        Total length         47.6160 bohr

     End of self-consistent calculation

[...]

          k = 0.0466-0.0538 0.0000 ( 29134 PWs)   bands (ev):

[...]

          k =-0.0699-0.0403 0.0000 ( 29108 PWs)   bands (ev):

   -32.5874 -32.2798 -32.0240 -21.9840 -21.9684 -21.9646 -21.9521 -21.9346
   -21.9341 -21.9229 -21.9187 -21.8889 -21.8791 -21.8638 -21.8505 -21.8495
   -21.8350 -21.8089 -21.6564 -21.6478 -21.6215 -21.6148 -21.6109 -21.6098
   -21.6047 -21.5999 -21.5947 -21.5923 -21.5917 -21.5887 -21.5869 -21.5740
   -21.5728 -21.5702 -21.5427 -21.5373 -21.5347 -21.5270 -21.5268 -21.5197
   -21.5183 -21.5172 -21.5130 -21.5097 -21.5086 -21.5021 -21.4982 -21.4888
   -16.2542 -16.1020 -16.0985 -15.9849 -15.8566 -15.8513 -15.6626 -15.6587
   -15.5867 -10.1834  -9.9797  -9.3872  -9.1740  -9.0540  -9.0158  -8.7430
    -8.4473  -8.1771  -2.6538  -2.3132  -1.9731  -1.2842  -1.1004  -1.0075
    -0.8828  -0.8144  -0.7757  -0.2919  -0.2474  -0.1627   0.1973   0.3058
     0.5120   0.6231   0.6533   0.7864   0.9101   0.9563   1.9203   2.0451
     2.2194   2.4156   2.5701   2.5704   2.6056   2.6386

     the Fermi energy is     1.3877 ev

!    total energy              =   -1996.98022652 Ry
     Harris-Foulkes estimate   =   -1996.98022637 Ry
     estimated scf accuracy    <       0.00000002 Ry

     The total energy is the sum of the following terms:

     one-electron contribution =   -8763.47144073 Ry
     hartree contribution      =    4425.79862290 Ry
     xc contribution           =    -751.51151667 Ry
     ewald contribution        =    3092.24815187 Ry
     electric field correction =       0.00002186 Ry
     smearing contrib. (-TS)   =      -0.04406575 Ry

     convergence has been achieved in  12 iterations

 BEEF-vdW xc energy contributions
           1 :   -669.366921521863
           2 :    620.918735992223
           3 :   -535.347615858822
           4 :    431.097389890095
           5 :   -327.606982319407
           6 :    239.788169125081
           7 :   -174.839645232865
           8 :    132.038940739531
           9 :   -105.126740734986
          10 :    86.0271330265286
          11 :   -68.2975184911223
          12 :    49.0421759746266
          13 :   -28.8939619091127
          14 :    10.5344902936679
          15 :    3.28357713593925
          16 :   -11.2619433054834
          17 :    14.0613383497168
          18 :   -13.7731130508073
          19 :    12.7971978585423
          20 :   -12.7552683792123
          21 :    13.9476243719976
          22 :   -15.5411833852992
          23 :    16.2983120317219
          24 :   -15.4129159102590
          25 :    13.0087845032436
          26 :   -10.0722701833001
          27 :    7.89706419669642
          28 :   -7.37021396074363
          29 :    8.49383662722221
          30 :   -10.3970061995763
          31 :   -53.9950746109548
          32 :   -39.5055205158525

     Forces acting on atoms (Ry/au):

     negative rho (up, down):  5.191E-01 0.000E+00
     atom    1 type  1   force =    -0.00477472    0.00275732   -0.00579277
     atom    2 type  2   force =    -0.00000055    0.00000016    0.04405972
     atom    3 type  1   force =     0.00477455    0.00275917   -0.00579694
     atom    4 type  1   force =    -0.00000190   -0.00551464   -0.00579640
     atom    5 type  1   force =     0.00719395   -0.00415364   -0.00889272
     atom    6 type  2   force =     0.00000146   -0.00000202    0.00139385
     atom    7 type  1   force =    -0.00718112   -0.00414403   -0.00889008
     atom    8 type  1   force =    -0.00000225    0.00828676   -0.00888795
     atom    9 type  1   force =     0.00050517   -0.00028037   -0.00030914
     atom   10 type  2   force =     0.00000922   -0.00001083   -0.00040541
     atom   11 type  1   force =    -0.00050307   -0.00025770   -0.00033587
     atom   12 type  1   force =    -0.00002074    0.00055983   -0.00034629

     Total force =     0.001208     Total SCF correction =     0.000255
     SCF correction compared to forces is large: reduce conv_thr to get better values

     entering subroutine stress ...

     negative rho (up, down):  5.191E-01 0.000E+00
          total   stress  (Ry/bohr**3)                   (kbar)     P=   -7.49
  -0.00006073   0.00000000  -0.00000001         -8.93      0.00     -0.00
   0.00000000  -0.00006073   0.00000001          0.00     -8.93      0.00
  -0.00000001   0.00000001  -0.00003128         -0.00      0.00     -4.60

     bfgs converged in   7 scf cycles and   6 bfgs steps
     (criteria: energy <  1.0E+00, force <  1.9E-03)

     End of BFGS Geometry Optimization

     Final energy   =   -1996.9802265166 Ry
Begin final coordinates

ATOMIC_POSITIONS (crystal)
Bi1      0.000000000   0.000000000   0.386946189    0   0   0
La1     -0.000000000   0.500000000   0.386946189    0   0   0
Bi1      0.500000000   0.000000000   0.386946189    0   0   0
Bi1      0.500000000   0.500000000   0.386946189    0   0   0
Bi1      0.666666667   0.666666667   0.500000000    0   0   0
La1      0.666666667   0.166666667   0.500000000    0   0   0
Bi1      0.166666667   0.666666667   0.500000000    0   0   0
Bi1      0.166666667   0.166666667   0.500000000    0   0   0
Bi1      0.339195598   0.330386884   0.614538563
La1      0.333347052   0.833325455   0.600331183
Bi1      0.830443158   0.330333794   0.614552892
Bi1      0.830424002   0.839237820   0.614558941
End final coordinates

     Writing output data file calc.save

     General routines

     Parallel routines

   This run was terminated on:  19:19:23  23Feb2018

   JOB DONE.