     Program PWSCF v.5.1rc2 (svn rev. ) starts on 23Feb2018 at 18:32:37

     Current dimensions of program PWSCF are:
     Max number of different atomic species (ntypx) = 10
     Max number of k-points (npk) =  40000
     Max angular momentum in pseudopotentials (lmaxx) =  3
     Presently stress not available with electric field

     IMPORTANT: XC functional enforced from input :
     Exchange-correlation      = BEEF-VDW ( 1  4 27 13 2)
     Any further DFT definition will be discarded
     Please, verify this is what you really want

     Subspace diagonalization in iterative solution of the eigenvalue problem:
     a serial algorithm will be used

     bravais-lattice index     =            0
     lattice parameter (alat)  =       1.8897  a.u.
     unit-cell volume          =    4786.7701 (a.u.)^3
     number of atoms/cell      =           12
     number of atomic types    =            2
     number of electrons       =       189.00
     number of Kohn-Sham states=          104
     kinetic-energy cutoff     =      36.7493  Ry
     charge density cutoff     =     367.4932  Ry
     convergence threshold     =      1.0E-05
     mixing beta               =       0.3000
     number of iterations used =           10  plain     mixing
     Exchange-correlation      = BEEF-VDW ( 1  4 27 13 2)
     nstep                     =           50

     celldm(1)=   1.889726  celldm(2)=   0.000000  celldm(3)=   0.000000
     celldm(4)=   0.000000  celldm(5)=   0.000000  celldm(6)=   0.000000

     crystal axes: (cart. coord. in units of alat)
               a(1) = (   5.758307   0.000000   0.000000 )
               a(2) = (   2.879153   4.986840   0.000000 )
               a(3) = (   0.000000   0.000000  24.701638 )

     reciprocal axes: (cart. coord. in units 2 pi/alat)
               b(1) = (  0.173662 -0.100264  0.000000 )
               b(2) = (  0.000000  0.200528  0.000000 )
               b(3) = (  0.000000  0.000000  0.040483 )

     PseudoPot. # 1 for Os read from file:
     /home/mamunm/src/pseudo/gbrv1.5pbe/Os.UPF
     MD5 check sum: a3fb40a04f0c37c25c34bbc47164c9a8
     Pseudo is Ultrasoft + core correction, Zval = 16.0
     Generated by new atomic code, or converted to UPF format
     Using radial grid of  983 points,  8 beta functions with:
                l(1) =   0
                l(2) =   0
                l(3) =   1
                l(4) =   1
                l(5) =   2
                l(6) =   2
                l(7) =   3
                l(8) =   3
     Q(r) pseudized with  8 coefficients,  rinner =    1.150   1.150   1.150
                                                       1.150   1.150   1.150
                                                       1.150

     PseudoPot. # 2 for Bi read from file:
     /home/mamunm/src/pseudo/gbrv1.5pbe/Bi.UPF
     MD5 check sum: 81103212dc04adf40945787f699eab19
     Pseudo is Ultrasoft + core correction, Zval = 15.0
     Generated by new atomic code, or converted to UPF format
     Using radial grid of  899 points,  6 beta functions with:
                l(1) =   0
                l(2) =   0
                l(3) =   1
                l(4) =   1
                l(5) =   2
                l(6) =   2
     Q(r) pseudized with  6 coefficients,  rinner =    1.000   1.000   1.000
                                                       1.000   1.000

     vdW kernel table read from file vdW_kernel_table
     MD5 check sum: 095c7af220d748ca6e76c0b4c6cfb241

     atomic species   valence    mass     pseudopotential
        Os1           16.00   190.23000     Os( 1.00)
        Bi1           15.00   208.98040     Bi( 1.00)

     No symmetry found

   Cartesian axes

     site n.     atom                  positions (alat units)
         1           Os1 tau(   1) = (   0.0000000   0.0000000  10.0000000  )
         2           Bi1 tau(   2) = (   1.4395767   2.4934200  10.0000000  )
         3           Os1 tau(   3) = (   2.8791534   0.0000000  10.0000000  )
         4           Os1 tau(   4) = (   4.3187300   2.4934200  10.0000000  )
         5           Os1 tau(   5) = (   5.7583067   3.3245599  12.3508189  )
         6           Bi1 tau(   6) = (   4.3187300   0.8311400  12.3508189  )
         7           Os1 tau(   7) = (   2.8791534   3.3245599  12.3508189  )
         8           Os1 tau(   8) = (   1.4395767   0.8311400  12.3508189  )
         9           Os1 tau(   9) = (   2.8791534   1.6622800  14.7016378  )
        10           Bi1 tau(  10) = (   4.3187300   4.1556999  14.7016378  )
        11           Os1 tau(  11) = (   5.7583067   1.6622800  14.7016378  )
        12           Os1 tau(  12) = (   7.1978834   4.1556999  14.7016378  )

     number of k points=    20  Fermi-Dirac smearing, width (Ry)=  0.0110
                       cart. coord. in units 2pi/alat
        k(    1) = (   0.0000000   0.0000000   0.0000000), wk =   0.0555556
        k(    2) = (   0.0000000   0.0334213   0.0000000), wk =   0.1111111
        k(    3) = (   0.0000000   0.0668426   0.0000000), wk =   0.1111111
        k(    4) = (   0.0000000  -0.1002639   0.0000000), wk =   0.0555556
        k(    5) = (   0.0289437  -0.0167106   0.0000000), wk =   0.1111111
        k(    6) = (   0.0289437   0.0167106   0.0000000), wk =   0.1111111
        k(    7) = (   0.0289437   0.0501319   0.0000000), wk =   0.1111111
        k(    8) = (   0.0289437  -0.1169745   0.0000000), wk =   0.1111111
        k(    9) = (   0.0289437  -0.0835532   0.0000000), wk =   0.1111111
        k(   10) = (   0.0289437  -0.0501319   0.0000000), wk =   0.1111111
        k(   11) = (   0.0578874  -0.0334213   0.0000000), wk =   0.1111111
        k(   12) = (   0.0578874   0.0000000   0.0000000), wk =   0.1111111
        k(   13) = (   0.0578874   0.0334213   0.0000000), wk =   0.1111111
        k(   14) = (   0.0578874  -0.1336852   0.0000000), wk =   0.1111111
        k(   15) = (   0.0578874  -0.1002639   0.0000000), wk =   0.1111111
        k(   16) = (   0.0578874  -0.0668426   0.0000000), wk =   0.1111111
        k(   17) = (  -0.0868311   0.0501319   0.0000000), wk =   0.0555556
        k(   18) = (  -0.0868311   0.0835532   0.0000000), wk =   0.1111111
        k(   19) = (  -0.0868311   0.1169745   0.0000000), wk =   0.1111111
        k(   20) = (  -0.0868311  -0.0501319   0.0000000), wk =   0.0555556

     Largest allocated arrays     est. size (Mb)     dimensions
     Largest temporary arrays     est. size (Mb)     dimensions

     Initial potential from superposition of free atoms
     Check: negative starting charge=   -1.243776

     starting charge  181.49955, renormalised to  189.00000

     negative rho (up, down):  1.295E+00 0.000E+00

     *
     * You are using vdW-DF for exchange-correlation in this calculation.
     * Please cite the following three references that made this development
     * possible:
     *
     *   M. Dion, H. Rydberg, E. Schroder, D. C. Langreth, and
     *   B. I. Lundqvist, Phys. Rev. Lett. 92, 246401 (2004).
     *
     *   T. Thonhauser, V. R. Cooper, S. Li, A. Puzder, P. Hyldgaard, and
     *   D. C. Langreth, Phys. Rev. B 76, 125112 (2007).
     *
     *   G. Roman-Perez and J. M. Soler, Phys. Rev. Lett. 103, 096102 (2009).
     *
     *
     * If you are using vdW-DF2, please also cite:
     *
     *   K. Lee, E. D. Murray, L. Kong, B. I. Lundqvist, and
     *   D. C. Langreth, Phys. Rev. B 82, 081101(R) (2010).
     *
     *
     * If you are calculating the stress with vdW-DF, please also cite:
     *
     *   R. Sabatini, E. Kucukbenli, B. Kolb, T. Thonhauser, and
     *   S. de Gironcoli, J. Phys.: Condens. Matter 24, 424209 (2012).
     *

     Carrying out vdW-DF run using the following parameters:

     Nqs =      20    Nr_points =    1024   r_max =   100.000
     q_mesh =
               0.00001000     0.04494208     0.09755937     0.15916263
               0.23128650     0.31572767     0.41458969     0.53033537
               0.66584808     0.82450364     1.01025438     1.22772762
               1.48234092     1.78043706     2.12944203     2.53805004
               3.01644009     3.57652955     4.23227104     5.00000000

     Gradients computed in reciprocal space

     Adding external electric field

     Computed dipole along edir(3) :
        Dipole               -0.0000 Ry au,         -0.0000 Debye
        Dipole field         -0.0000 Ry au

        Potential amp.        0.0000 Ry
        Total length         45.5123 bohr

     Starting wfc are  144 randomized atomic wfcs

     Self-consistent Calculation

     iteration #  1     ecut=    36.75 Ry     beta=0.30
     Davidson diagonalization with overlap
     ethr =  1.00E-02,  avg # of iterations =  2.0

[...]

     total energy              =   -2358.60946869 Ry
     Harris-Foulkes estimate   =   -2359.67692688 Ry
     estimated scf accuracy    <       2.62243110 Ry

[...]

     End of self-consistent calculation

          k = 0.0000 0.0000 0.0000 ( 18043 PWs)   bands (ev):

   -83.6069 -83.5866 -83.5853 -83.3625 -83.3616 -83.3423 -83.3419 -83.3418
   -83.3406 -43.1266 -43.0144 -43.0139 -43.0022 -42.9459 -42.9452 -42.9271
   -42.8907 -42.8058 -42.7260 -42.7260 -42.7132 -42.7124 -42.6877 -42.6875
   -42.6542 -42.6185 -42.6182 -42.6017 -42.5904 -42.5901 -42.5094 -42.5093
   -42.5052 -42.5045 -42.5042 -42.4978 -20.8977 -20.8977 -20.8846 -20.8692
   -20.8691 -20.6152 -20.6071 -20.5820 -20.5820 -20.5719 -20.5719 -20.5620
   -20.5620 -20.5609 -20.5609 -10.3974  -9.1985  -9.0680  -3.4384  -3.3689
    -2.8996  -2.2988  -2.2988  -1.8762  -1.8760  -1.6599  -1.6597  -1.5485
    -1.3577  -1.3355  -1.3353  -0.7053  -0.7051  -0.4401   0.0184   0.2941
     0.2942   0.5059   0.5060   0.5164   0.5164   0.5392   0.7292   0.7294
     0.8754   1.1307   1.7387   1.9563   1.9569   2.2662   2.2665   2.4103
     2.4348   2.4351   2.4544   2.4690   2.7958   2.7962   2.8890   2.8891
     3.2505   3.2784   3.2788   3.3025   3.8606   3.8608   3.8647   3.8649

[...]

          k =-0.0868 0.0501 0.0000 ( 17964 PWs)   bands (ev):

[...]

     the Fermi energy is     2.7423 ev

!    total energy              =   -2358.69521334 Ry
     Harris-Foulkes estimate   =   -2358.70299670 Ry
     estimated scf accuracy    <       0.00000474 Ry

     The total energy is the sum of the following terms:

     one-electron contribution =  -18242.83087034 Ry
     hartree contribution      =    9125.31092307 Ry
     xc contribution           =    -548.28310798 Ry
     ewald contribution        =    7307.21557341 Ry
     electric field correction =       0.00000001 Ry
     smearing contrib. (-TS)   =      -0.10773150 Ry

     convergence has been achieved in  14 iterations

 BEEF-vdW xc energy contributions
           1 :   -483.310097687243
           2 :    448.357985362765
           3 :   -386.622225745199
           4 :    311.524015749170
           5 :   -237.441681209084
           6 :    175.640401806352
           7 :   -131.711550975241
           8 :    105.153025806168
           9 :   -90.9793927370118
          10 :    82.5111443695098
          11 :   -74.1541288186298
          12 :    63.1300146904027
          13 :   -49.7090781986880
          14 :    36.1633383968419
          15 :   -25.1407211179443
          16 :    18.2522508889401
          17 :   -15.4321139372231
          18 :    15.1937409392058
          19 :   -15.5061806923418
          20 :    14.7814810284517
          21 :   -12.4956183896954
          22 :    9.20278116666827
          23 :   -6.03238473071144
          24 :    3.98915615573014
          25 :   -3.42769313778228
          26 :    3.93312368338979
          27 :   -4.61585038703572
          28 :    4.62121737717484
          29 :   -3.57356018224823
          30 :    1.73271079485960
          31 :   -43.0675902026002
          32 :   -32.4674849475005

     Forces acting on atoms (Ry/au):

     negative rho (up, down):  1.213E+00 0.000E+00
     atom    1 type  1   force =     0.02782043   -0.01607625    0.04800909
     atom    2 type  2   force =    -0.00016743    0.00012647   -0.05337263
     atom    3 type  1   force =    -0.02784714   -0.01598860    0.04790967
     atom    4 type  1   force =    -0.00009223    0.03202497    0.04789382
     atom    5 type  1   force =     0.00003177    0.00014619   -0.00047023
     atom    6 type  2   force =     0.00001293    0.00042345    0.00116203
     atom    7 type  1   force =    -0.00004017    0.00013614   -0.00046845
     atom    8 type  1   force =    -0.00000255   -0.00025569   -0.00066650
     atom    9 type  1   force =    -0.02795351    0.01601619   -0.04763761
     atom   10 type  2   force =     0.00018865   -0.00030921    0.05282169
     atom   11 type  1   force =     0.02795306    0.01592923   -0.04772384
     atom   12 type  1   force =     0.00009618   -0.03217289   -0.04745705

     Total force =     0.112683     Total SCF correction =     0.004762

     entering subroutine stress ...

     negative rho (up, down):  1.213E+00 0.000E+00
          total   stress  (Ry/bohr**3)                   (kbar)     P=  -32.50
  -0.00023620  -0.00000006   0.00000001        -34.75     -0.01      0.00
  -0.00000006  -0.00023623   0.00000002         -0.01    -34.75      0.00
   0.00000001   0.00000002  -0.00019044          0.00      0.00    -28.01

     BFGS Geometry Optimization

     number of scf cycles    =   1
     number of bfgs steps    =   0

     energy   new            =   -2358.6952133360 Ry

     new trust radius        =       0.0575558781 bohr
     new conv_thr            =       0.0000099958 Ry

ATOMIC_POSITIONS (crystal)
Os1      0.000000000   0.000000000   0.404831457    0   0   0
Bi1      0.000000000   0.500000000   0.404831457    0   0   0
Os1      0.500000000   0.000000000   0.404831457    0   0   0
Os1      0.500000000   0.500000000   0.404831457    0   0   0
Os1      0.666666667   0.666666667   0.500000000    0   0   0
Bi1      0.666666667   0.166666667   0.500000000    0   0   0
Os1      0.166666667   0.666666667   0.500000000    0   0   0
Os1      0.166666667   0.166666667   0.500000000    0   0   0
Os1      0.329914683   0.335032887   0.594148014
Bi1      0.333367076   0.833300522   0.596300129
Os1      0.835057003   0.335023659   0.594146167
Os1      0.835049181   0.829919316   0.594151882

     Writing output data file calc.save
     Check: negative starting charge=   -1.243776
     NEW-OLD atomic charge density approx. for the potential
     Check: negative starting charge=   -1.247289

[...]

     Total force =     0.102271     Total SCF correction =     0.016785
     SCF correction compared to forces is large: reduce conv_thr to get better values

[...]

     energy   old            =   -2358.6952133360 Ry
     energy   new            =   -2358.7153366816 Ry

     CASE: energy  _new < energy  _old

     WARNING: bfgs curvature condition failed, Theta= 0.883
     new trust radius        =       0.0863338171 bohr
     new conv_thr            =       0.0000001000 Ry

[...]

     iteration #  1     ecut=    36.75 Ry     beta=0.30
     Davidson diagonalization with overlap
     c_bands:  1 eigenvalues not converged
     c_bands:  1 eigenvalues not converged
     c_bands:  1 eigenvalues not converged
     ethr =  1.00E-06,  avg # of iterations =  9.8

[...]

     WARNING: bfgs curvature condition failed, Theta= 0.974
     new trust radius        =       0.0367389417 bohr
     new conv_thr            =       0.0000001000 Ry

[...]

     Total force =     0.005048     Total SCF correction =     0.000361

[...]

     number of scf cycles    =  13
     number of bfgs steps    =  12

     energy   old            =   -2358.7717559407 Ry
     energy   new            =   -2358.7719287638 Ry

     CASE: energy  _new < energy  _old

     new trust radius        =       0.0209097652 bohr
     new conv_thr            =       0.0000001000 Ry

ATOMIC_POSITIONS (crystal)
Os1      0.000000000   0.000000000   0.404831457    0   0   0
Bi1      0.000000000   0.500000000   0.404831457    0   0   0
Os1      0.500000000   0.000000000   0.404831457    0   0   0
Os1      0.500000000   0.500000000   0.404831457    0   0   0
Os1      0.666666667   0.666666667   0.500000000    0   0   0
Bi1      0.666666667   0.166666667   0.500000000    0   0   0
Os1      0.166666667   0.666666667   0.500000000    0   0   0
Os1      0.166666667   0.166666667   0.500000000    0   0   0
Os1      0.306013611   0.346996008   0.586018535
Bi1      0.333348693   0.833331853   0.613425685
Os1      0.846967545   0.346964977   0.586016233
Os1      0.846983625   0.806041498   0.586015574

     Writing output data file calc.save
     Check: negative starting charge=   -1.244633
     NEW-OLD atomic charge density approx. for the potential
     Check: negative starting charge=   -1.243725

[...]

     Self-consistent Calculation

[...]

     total energy              =   -2358.77197623 Ry
     Harris-Foulkes estimate   =   -2358.77197630 Ry
     estimated scf accuracy    <       0.00000035 Ry

     iteration # 11     ecut=    36.75 Ry     beta=0.30
     Davidson diagonalization with overlap
     ethr =  1.87E-10,  avg # of iterations =  2.6

[...]

     negative rho (up, down):  1.217E+00 0.000E+00

     Adding external electric field

     Computed dipole along edir(3) :
        Dipole                0.1898 Ry au,          0.4825 Debye
        Dipole field          0.0005 Ry au

        Potential amp.       -0.0454 Ry
        Total length         45.5123 bohr

     End of self-consistent calculation

[...]

          k = 0.0579-0.0668 0.0000 ( 17967 PWs)   bands (ev):

[...]

          k =-0.0868-0.0501 0.0000 ( 17964 PWs)   bands (ev):

   -83.4762 -83.4682 -83.4607 -83.3310 -83.3030 -83.3001 -83.0679 -83.0610
   -83.0542 -43.0831 -42.9984 -42.9495 -42.8883 -42.8687 -42.8251 -42.7834
   -42.7645 -42.7215 -42.6534 -42.6134 -42.5964 -42.5565 -42.5390 -42.5203
   -42.5105 -42.4854 -42.4726 -42.4290 -42.4261 -42.3542 -42.3454 -42.3240
   -42.3135 -42.3102 -42.3017 -42.2295 -20.7440 -20.7332 -20.7125 -20.7093
   -20.7060 -20.6633 -20.6233 -20.6209 -20.5356 -20.5303 -20.3656 -20.3360
   -20.3353 -20.3091 -20.2983  -9.5291  -8.7058  -8.4194  -4.5361  -3.5565
    -3.3845  -3.1681  -2.3623  -1.8372  -1.6861  -1.5877  -1.5302  -1.5201
    -1.2267  -1.0883  -0.6865  -0.6205  -0.4780  -0.4381  -0.3849  -0.3483
    -0.1569   0.2746   0.3322   0.4837   0.5768   0.8707   0.9208   1.0077
     1.1096   1.1361   1.3237   1.5081   1.8068   1.8999   2.0135   2.0480
     2.2990   2.4356   2.4506   2.5060   2.5417   2.7810   2.7877   2.8612
     2.9103   3.2086   3.3583   3.4605   3.7657   3.8410   4.1651   4.1828

     the Fermi energy is     2.9915 ev

!    total energy              =   -2358.77197623 Ry
     Harris-Foulkes estimate   =   -2358.77197617 Ry
     estimated scf accuracy    <       0.00000005 Ry

     The total energy is the sum of the following terms:

     one-electron contribution =  -18393.45394949 Ry
     hartree contribution      =    9201.52639659 Ry
     xc contribution           =    -548.45693874 Ry
     ewald contribution        =    7381.71440970 Ry
     electric field correction =       0.00009461 Ry
     smearing contrib. (-TS)   =      -0.10198890 Ry

     convergence has been achieved in  11 iterations

 BEEF-vdW xc energy contributions
           1 :   -483.718139722447
           2 :    448.833962523358
           3 :   -387.190761487116
           4 :    312.143044574970
           5 :   -238.011494519560
           6 :    176.044468780907
           7 :   -131.870553006932
           8 :    105.066976240132
           9 :   -90.7378412428715
          10 :    82.2650234254688
          11 :   -74.0595679746314
          12 :    63.2864230543491
          13 :   -50.1171132678541
          14 :    36.7222091721667
          15 :   -25.6896053767299
          16 :    18.6409835792272
          17 :   -15.5910590026978
          18 :    15.1711745852709
          19 :   -15.4528557586406
          20 :    14.8846449002345
          21 :   -12.8904902438359
          22 :    9.90352271814425
          23 :   -6.91783268127699
          24 :    4.85324298350497
          25 :   -4.07314722024614
          26 :    4.26513774786667
          27 :   -4.69025489534624
          28 :    4.62187597745049
          29 :   -3.72737241715834
          30 :    2.20140477076961
          31 :   -43.0922266917781
          32 :   -32.5053666370457

     Forces acting on atoms (Ry/au):

     negative rho (up, down):  1.217E+00 0.000E+00
     atom    1 type  1   force =     0.02424774   -0.01399815    0.04297320
     atom    2 type  2   force =     0.00004044   -0.00002926   -0.05893873
     atom    3 type  1   force =    -0.02422838   -0.01401944    0.04300042
     atom    4 type  1   force =     0.00002574    0.02799201    0.04298949
     atom    5 type  1   force =    -0.02926000    0.01689437   -0.01093223
     atom    6 type  2   force =    -0.00007764    0.00004370   -0.03705943
     atom    7 type  1   force =     0.02928755    0.01693535   -0.01096648
     atom    8 type  1   force =    -0.00001849   -0.03383439   -0.01095363
     atom    9 type  1   force =    -0.00033400    0.00019432    0.00003191
     atom   10 type  2   force =     0.00000013    0.00000614   -0.00023679
     atom   11 type  1   force =     0.00031632    0.00018240    0.00004640
     atom   12 type  1   force =     0.00000058   -0.00036706    0.00004586

     Total force =     0.000692     Total SCF correction =     0.000250
     SCF correction compared to forces is large: reduce conv_thr to get better values

     entering subroutine stress ...

     negative rho (up, down):  1.217E+00 0.000E+00
          total   stress  (Ry/bohr**3)                   (kbar)     P=  -20.02
  -0.00016380   0.00000000   0.00000001        -24.10      0.00      0.00
   0.00000000  -0.00016379   0.00000000          0.00    -24.09      0.00
   0.00000001   0.00000000  -0.00008078          0.00      0.00    -11.88

     bfgs converged in  14 scf cycles and  13 bfgs steps
     (criteria: energy <  1.0E+00, force <  1.9E-03)

     End of BFGS Geometry Optimization

     Final energy   =   -2358.7719762280 Ry
Begin final coordinates

ATOMIC_POSITIONS (crystal)
Os1      0.000000000   0.000000000   0.404831457    0   0   0
Bi1      0.000000000   0.500000000   0.404831457    0   0   0
Os1      0.500000000   0.000000000   0.404831457    0   0   0
Os1      0.500000000   0.500000000   0.404831457    0   0   0
Os1      0.666666667   0.666666667   0.500000000    0   0   0
Bi1      0.666666667   0.166666667   0.500000000    0   0   0
Os1      0.166666667   0.666666667   0.500000000    0   0   0
Os1      0.166666667   0.166666667   0.500000000    0   0   0
Os1      0.306013611   0.346996008   0.586018535
Bi1      0.333348693   0.833331853   0.613425685
Os1      0.846967545   0.346964977   0.586016233
Os1      0.846983625   0.806041498   0.586015574
End final coordinates

     Writing output data file calc.save

     General routines

     Parallel routines

   This run was terminated on:  19:53:43  23Feb2018

   JOB DONE.