     Program PWSCF v.5.1rc2 (svn rev. ) starts on 23Feb2018 at 18:52:42

     Current dimensions of program PWSCF are:
     Max number of different atomic species (ntypx) = 10
     Max number of k-points (npk) =  40000
     Max angular momentum in pseudopotentials (lmaxx) =  3
     Presently stress not available with electric field

     IMPORTANT: XC functional enforced from input :
     Exchange-correlation      = BEEF-VDW ( 1  4 27 13 2)
     Any further DFT definition will be discarded
     Please, verify this is what you really want

     Subspace diagonalization in iterative solution of the eigenvalue problem:
     a serial algorithm will be used

     bravais-lattice index     =            0
     lattice parameter (alat)  =       1.8897  a.u.
     unit-cell volume          =    7922.3372 (a.u.)^3
     number of atoms/cell      =           12
     number of atomic types    =            2
     number of electrons       =       144.00
     number of Kohn-Sham states=           82
     kinetic-energy cutoff     =      36.7493  Ry
     charge density cutoff     =     367.4932  Ry
     convergence threshold     =      1.0E-05
     mixing beta               =       0.3000
     number of iterations used =           10  plain     mixing
     Exchange-correlation      = BEEF-VDW ( 1  4 27 13 2)
     nstep                     =           50

     celldm(1)=   1.889726  celldm(2)=   0.000000  celldm(3)=   0.000000
     celldm(4)=   0.000000  celldm(5)=   0.000000  celldm(6)=   0.000000

     crystal axes: (cart. coord. in units of alat)
               a(1) = (   7.233699   0.000000   0.000000 )
               a(2) = (   3.616849   6.264567  -0.000000 )
               a(3) = (   0.000000   0.000000  25.906290 )

     reciprocal axes: (cart. coord. in units 2 pi/alat)
               b(1) = (  0.138242 -0.079814  0.000000 )
               b(2) = (  0.000000  0.159628 -0.000000 )
               b(3) = (  0.000000  0.000000  0.038601 )

     PseudoPot. # 1 for La read from file:
     /home/mamunm/src/pseudo/gbrv1.5pbe/La.UPF
     MD5 check sum: 5937b0c7494ba0601a847275249473aa
     Pseudo is Ultrasoft + core correction, Zval = 11.0
     Generated by new atomic code, or converted to UPF format
     Using radial grid of  995 points,  8 beta functions with:
                l(1) =   0
                l(2) =   0
                l(3) =   1
                l(4) =   1
                l(5) =   2
                l(6) =   2
                l(7) =   3
                l(8) =   3
     Q(r) pseudized with  8 coefficients,  rinner =    1.700   1.700   1.700
                                                       1.700   1.700   1.700
                                                       1.700

     PseudoPot. # 2 for Bi read from file:
     /home/mamunm/src/pseudo/gbrv1.5pbe/Bi.UPF
     MD5 check sum: 81103212dc04adf40945787f699eab19
     Pseudo is Ultrasoft + core correction, Zval = 15.0
     Generated by new atomic code, or converted to UPF format
     Using radial grid of  899 points,  6 beta functions with:
                l(1) =   0
                l(2) =   0
                l(3) =   1
                l(4) =   1
                l(5) =   2
                l(6) =   2
     Q(r) pseudized with  6 coefficients,  rinner =    1.000   1.000   1.000
                                                       1.000   1.000

     vdW kernel table read from file vdW_kernel_table
     MD5 check sum: 095c7af220d748ca6e76c0b4c6cfb241

     atomic species   valence    mass     pseudopotential
        La1           11.00   138.90547     La( 1.00)
        Bi1           15.00   208.98040     Bi( 1.00)

     No symmetry found

   Cartesian axes

     site n.     atom                  positions (alat units)
         1           La1 tau(   1) = (   0.0000000   0.0000000  10.0000000  )
         2           Bi1 tau(   2) = (   1.8084247   3.1322835  10.0000000  )
         3           La1 tau(   3) = (   3.6168495   0.0000000  10.0000000  )
         4           La1 tau(   4) = (   5.4252742   3.1322835  10.0000000  )
         5           La1 tau(   5) = (   7.2336989   4.1763780  12.9531452  )
         6           Bi1 tau(   6) = (   5.4252742   1.0440945  12.9531452  )
         7           La1 tau(   7) = (   3.6168495   4.1763780  12.9531452  )
         8           La1 tau(   8) = (   1.8084247   1.0440945  12.9531452  )
         9           La1 tau(   9) = (   3.6168495   2.0881890  15.9062904  )
        10           Bi1 tau(  10) = (   5.4252742   5.2204725  15.9062904  )
        11           La1 tau(  11) = (   7.2336989   2.0881890  15.9062904  )
        12           La1 tau(  12) = (   9.0421237   5.2204725  15.9062904  )

     number of k points=    20  Fermi-Dirac smearing, width (Ry)=  0.0110
                       cart. coord. in units 2pi/alat
        k(    1) = (   0.0000000   0.0000000   0.0000000), wk =   0.0555556
        k(    2) = (   0.0000000   0.0266047  -0.0000000), wk =   0.1111111
        k(    3) = (   0.0000000   0.0532093  -0.0000000), wk =   0.1111111
        k(    4) = (   0.0000000  -0.0798140   0.0000000), wk =   0.0555556
        k(    5) = (   0.0230403  -0.0133023   0.0000000), wk =   0.1111111
        k(    6) = (   0.0230403   0.0133023  -0.0000000), wk =   0.1111111
        k(    7) = (   0.0230403   0.0399070  -0.0000000), wk =   0.1111111
        k(    8) = (   0.0230403  -0.0931163   0.0000000), wk =   0.1111111
        k(    9) = (   0.0230403  -0.0665116   0.0000000), wk =   0.1111111
        k(   10) = (   0.0230403  -0.0399070   0.0000000), wk =   0.1111111
        k(   11) = (   0.0460806  -0.0266047   0.0000000), wk =   0.1111111
        k(   12) = (   0.0460806   0.0000000   0.0000000), wk =   0.1111111
        k(   13) = (   0.0460806   0.0266047  -0.0000000), wk =   0.1111111
        k(   14) = (   0.0460806  -0.1064186   0.0000000), wk =   0.1111111
        k(   15) = (   0.0460806  -0.0798140   0.0000000), wk =   0.1111111
        k(   16) = (   0.0460806  -0.0532093   0.0000000), wk =   0.1111111
        k(   17) = (  -0.0691209   0.0399070  -0.0000000), wk =   0.0555556
        k(   18) = (  -0.0691209   0.0665116  -0.0000000), wk =   0.1111111
        k(   19) = (  -0.0691209   0.0931163  -0.0000000), wk =   0.1111111
        k(   20) = (  -0.0691209  -0.0399070   0.0000000), wk =   0.0555556

     Largest allocated arrays     est. size (Mb)     dimensions
     Largest temporary arrays     est. size (Mb)     dimensions

     Initial potential from superposition of free atoms
     Check: negative starting charge=   -0.753557

     starting charge  140.71126, renormalised to  144.00000

     negative rho (up, down):  7.712E-01 0.000E+00

     *
     * You are using vdW-DF for exchange-correlation in this calculation.
     * Please cite the following three references that made this development
     * possible:
     *
     *   M. Dion, H. Rydberg, E. Schroder, D. C. Langreth, and
     *   B. I. Lundqvist, Phys. Rev. Lett. 92, 246401 (2004).
     *
     *   T. Thonhauser, V. R. Cooper, S. Li, A. Puzder, P. Hyldgaard, and
     *   D. C. Langreth, Phys. Rev. B 76, 125112 (2007).
     *
     *   G. Roman-Perez and J. M. Soler, Phys. Rev. Lett. 103, 096102 (2009).
     *
     *
     * If you are using vdW-DF2, please also cite:
     *
     *   K. Lee, E. D. Murray, L. Kong, B. I. Lundqvist, and
     *   D. C. Langreth, Phys. Rev. B 82, 081101(R) (2010).
     *
     *
     * If you are calculating the stress with vdW-DF, please also cite:
     *
     *   R. Sabatini, E. Kucukbenli, B. Kolb, T. Thonhauser, and
     *   S. de Gironcoli, J. Phys.: Condens. Matter 24, 424209 (2012).
     *

     Carrying out vdW-DF run using the following parameters:

     Nqs =      20    Nr_points =    1024   r_max =   100.000
     q_mesh =
               0.00001000     0.04494208     0.09755937     0.15916263
               0.23128650     0.31572767     0.41458969     0.53033537
               0.66584808     0.82450364     1.01025438     1.22772762
               1.48234092     1.78043706     2.12944203     2.53805004
               3.01644009     3.57652955     4.23227104     5.00000000

     Gradients computed in reciprocal space

     Adding external electric field

     Computed dipole along edir(3) :
        Dipole               -0.0000 Ry au,         -0.0000 Debye
        Dipole field         -0.0000 Ry au

        Potential amp.        0.0000 Ry
        Total length         47.7319 bohr

     Starting wfc are  207 randomized atomic wfcs

     Self-consistent Calculation

     iteration #  1     ecut=    36.75 Ry     beta=0.30
     Davidson diagonalization with overlap
     ethr =  1.00E-02,  avg # of iterations =  2.0

[...]

     total energy              =   -1496.58980722 Ry
     Harris-Foulkes estimate   =   -1498.59332813 Ry
     estimated scf accuracy    <       4.32005432 Ry

[...]

     iteration #  9     ecut=    36.75 Ry     beta=0.30
     Davidson diagonalization with overlap
     c_bands:  1 eigenvalues not converged
     c_bands:  1 eigenvalues not converged
     c_bands:  1 eigenvalues not converged
     ethr =  2.37E-06,  avg # of iterations = 12.3

[...]

     End of self-consistent calculation

          k = 0.0000 0.0000 0.0000 ( 29729 PWs)   bands (ev):

   -31.3654 -31.3561 -31.2215 -31.2208 -31.2193 -31.2187 -30.9224 -30.7894
   -30.7887 -20.8334 -20.8258 -20.8258 -20.8169 -20.8169 -20.4903 -20.4892
   -20.4808 -20.4808 -20.4793 -20.4793 -20.4726 -20.4726 -20.4726 -20.4725
   -15.5931 -15.5344 -15.3426 -15.2772 -15.2767 -15.1850 -15.1846 -15.1615
   -15.1609 -15.1439 -15.0683 -14.8825 -14.8818 -14.6422 -14.6419 -14.6089
   -14.5635 -14.3152 -14.3147 -14.3125 -14.3000 -14.2996 -14.2560 -14.2555
   -14.1522 -13.9529 -13.9524  -8.5718  -8.2652  -8.1371  -0.6589  -0.2409
    -0.0812   0.2291   0.2293   0.3620   0.3622   0.6589   0.8513   0.9964
     0.9965   1.0707   1.2057   1.2060   1.3930   1.3934   1.6117   1.7064
     1.7066   1.8085   1.8087   2.1320   2.2092   2.6985   2.6988   2.7802
     2.9320   2.9321

[...]

          k =-0.0691 0.0399-0.0000 ( 29820 PWs)   bands (ev):

[...]

     the Fermi energy is     2.1391 ev

!    total energy              =   -1498.01775657 Ry
     Harris-Foulkes estimate   =   -1498.01775780 Ry
     estimated scf accuracy    <       0.00000258 Ry

     The total energy is the sum of the following terms:

     one-electron contribution =   -6096.50966749 Ry
     hartree contribution      =    3073.00574988 Ry
     xc contribution           =    -656.67881038 Ry
     ewald contribution        =    2182.26979510 Ry
     electric field correction =       0.00000001 Ry
     smearing contrib. (-TS)   =      -0.10482370 Ry

     convergence has been achieved in  14 iterations

 BEEF-vdW xc energy contributions
           1 :   -583.042220169959
           2 :    538.354923028338
           3 :   -459.171593371173
           4 :    362.215260750845
           5 :   -265.362633996918
           6 :    182.793041487803
           7 :   -122.183070464483
           8 :    84.3250076046775
           9 :   -64.7177425813331
          10 :    56.2258128473094
          11 :   -51.7929895958389
          12 :    46.3590328419227
          13 :   -37.5925862024628
          14 :    25.5836870901767
          15 :   -11.9731274092692
          16 :   -1.01849388171252
          17 :    11.3882852648642
          18 :   -17.8757113223724
          19 :    20.1874820682012
          20 :   -18.9447460652538
          21 :    15.4159540539471
          22 :   -11.1312160280715
          23 :    7.47332290108375
          24 :   -5.34495914510342
          25 :    5.00134759235357
          26 :   -6.09549276854818
          27 :    7.89754321898363
          28 :   -9.58884568994449
          29 :    10.5251947763268
          30 :   -10.4056511153876
          31 :   -48.5115499044487
          32 :   -35.1106141977216

     Forces acting on atoms (Ry/au):

     negative rho (up, down):  5.387E-01 0.000E+00
     atom    1 type  1   force =    -0.01134075    0.00660439    0.00174696
     atom    2 type  2   force =     0.00015153    0.00016028    0.00052875
     atom    3 type  1   force =     0.01132827    0.00656563    0.00181475
     atom    4 type  1   force =     0.00002358   -0.01313554    0.00173435
     atom    5 type  1   force =     0.00000148   -0.00001484   -0.00001814
     atom    6 type  2   force =    -0.00007412    0.00003195    0.00003387
     atom    7 type  1   force =     0.00000904    0.00001640   -0.00003705
     atom    8 type  1   force =    -0.00001958    0.00000153   -0.00002710
     atom    9 type  1   force =     0.01133588   -0.00660902   -0.00162478
     atom   10 type  2   force =    -0.00006506   -0.00018912   -0.00080372
     atom   11 type  1   force =    -0.01132361   -0.00656686   -0.00171119
     atom   12 type  1   force =    -0.00002666    0.01313521   -0.00163670

     Total force =     0.022913     Total SCF correction =     0.004596
     SCF correction compared to forces is large: reduce conv_thr to get better values

     entering subroutine stress ...

     negative rho (up, down):  5.387E-01 0.000E+00
          total   stress  (Ry/bohr**3)                   (kbar)     P=   -4.82
  -0.00004208  -0.00000005   0.00000000         -6.19     -0.01      0.00
  -0.00000005  -0.00004205  -0.00000001         -0.01     -6.19     -0.00
   0.00000000  -0.00000001  -0.00001407          0.00     -0.00     -2.07

     BFGS Geometry Optimization

     number of scf cycles    =   1
     number of bfgs steps    =   0

     energy   new            =   -1498.0177565740 Ry

     new trust radius        =       0.0132368130 bohr
     new conv_thr            =       0.0000099958 Ry

ATOMIC_POSITIONS (crystal)
La1     -0.000000000   0.000000000   0.386006635    0   0   0
Bi1      0.000000000   0.500000000   0.386006635    0   0   0
La1      0.500000000   0.000000000   0.386006635    0   0   0
La1      0.500000000   0.500000000   0.386006635    0   0   0
La1      0.666666667   0.666666667   0.500000000    0   0   0
Bi1      0.666666667   0.166666667   0.500000000    0   0   0
La1      0.166666667   0.666666667   0.500000000    0   0   0
La1      0.166666667   0.166666667   0.500000000    0   0   0
La1      0.334441740   0.332775059   0.613960176
Bi1      0.333336562   0.833317358   0.613976948
La1      0.832782317   0.332778621   0.613958411
La1      0.832776608   0.834442884   0.613959933

     Writing output data file calc.save
     Check: negative starting charge=   -0.753557
     NEW-OLD atomic charge density approx. for the potential
     Check: negative starting charge=   -0.753741

[...]

     energy   old            =   -1498.0177565741 Ry
     energy   new            =   -1498.0228910926 Ry

     CASE: energy  _new < energy  _old

     WARNING: bfgs curvature condition failed, Theta= 0.866
     new trust radius        =       0.0198552195 bohr
     new conv_thr            =       0.0000001000 Ry

[...]

     Total force =     0.017868     Total SCF correction =     0.000669

[...]

     iteration #  2     ecut=    36.75 Ry     beta=0.30
     Davidson diagonalization with overlap
     c_bands:  1 eigenvalues not converged
     ethr =  3.49E-06,  avg # of iterations = 14.5

[...]

     Total force =     0.003530     Total SCF correction =     0.000222

[...]

     number of scf cycles    =   6
     number of bfgs steps    =   5

     energy   old            =   -1498.0251121993 Ry
     energy   new            =   -1498.0253576755 Ry

     CASE: energy  _new < energy  _old

     new trust radius        =       0.0024572385 bohr
     new conv_thr            =       0.0000001000 Ry

ATOMIC_POSITIONS (crystal)
La1     -0.000000000   0.000000000   0.386006635    0   0   0
Bi1      0.000000000   0.500000000   0.386006635    0   0   0
La1      0.500000000   0.000000000   0.386006635    0   0   0
La1      0.500000000   0.500000000   0.386006635    0   0   0
La1      0.666666667   0.666666667   0.500000000    0   0   0
Bi1      0.666666667   0.166666667   0.500000000    0   0   0
La1      0.166666667   0.666666667   0.500000000    0   0   0
La1      0.166666667   0.166666667   0.500000000    0   0   0
La1      0.345874234   0.327046164   0.613377226
Bi1      0.333344227   0.833296125   0.614030054
La1      0.827073033   0.327056677   0.613371158
La1      0.827054171   0.845876689   0.613376366

     Writing output data file calc.save
     Check: negative starting charge=   -0.753315
     NEW-OLD atomic charge density approx. for the potential
     Check: negative starting charge=   -0.753326

[...]

     Self-consistent Calculation

[...]

     Threshold (ethr) on eigenvalues was too large:
     Diagonalizing with lowered threshold

     Davidson diagonalization with overlap
     ethr =  8.45E-09,  avg # of iterations =  5.4

[...]

     total energy              =   -1498.02537032 Ry
     Harris-Foulkes estimate   =   -1498.02537038 Ry
     estimated scf accuracy    <       0.00000041 Ry

     iteration #  7     ecut=    36.75 Ry     beta=0.30
     Davidson diagonalization with overlap
     ethr =  2.26E-10,  avg # of iterations =  4.0

[...]

     negative rho (up, down):  5.390E-01 0.000E+00

     Adding external electric field

     Computed dipole along edir(3) :
        Dipole               -0.0015 Ry au,         -0.0038 Debye
        Dipole field         -0.0000 Ry au

        Potential amp.        0.0002 Ry
        Total length         47.7319 bohr

     End of self-consistent calculation

[...]

          k = 0.0461-0.0532 0.0000 ( 29800 PWs)   bands (ev):

[...]

          k =-0.0691-0.0399 0.0000 ( 29820 PWs)   bands (ev):

   -31.3189 -31.3159 -31.2712 -31.2449 -31.2231 -31.2042 -30.8835 -30.8407
   -30.7948 -20.8461 -20.8405 -20.8398 -20.8311 -20.8302 -20.4975 -20.4917
   -20.4871 -20.4867 -20.4817 -20.4814 -20.4811 -20.4802 -20.4757 -20.4743
   -15.3932 -15.3479 -15.2490 -15.1674 -15.1402 -15.0598 -15.0455 -15.0117
   -14.9777 -14.9715 -14.9435 -14.9247 -14.8708 -14.8346 -14.8289 -14.7765
   -14.7537 -14.5231 -14.4859 -14.4743 -14.4131 -14.3567 -14.2986 -14.2632
   -14.2301 -14.2153 -13.9942  -8.4110  -8.0610  -8.0139  -1.1692  -0.7668
    -0.7417  -0.3733  -0.2702   0.1804   0.1992   0.2509   0.3905   0.9549
     1.1021   1.5211   1.6767   1.7291   2.0606   2.1230   2.2199   2.2849
     2.3433   2.4702   2.4971   2.5544   2.6009   2.7323   2.8288   2.8551
     3.0160   3.0295

     the Fermi energy is     2.1369 ev

!    total energy              =   -1498.02537074 Ry
     Harris-Foulkes estimate   =   -1498.02537034 Ry
     estimated scf accuracy    <       0.00000007 Ry

     The total energy is the sum of the following terms:

     one-electron contribution =   -6107.13110601 Ry
     hartree contribution      =    3078.33888357 Ry
     xc contribution           =    -656.70133677 Ry
     ewald contribution        =    2187.57265308 Ry
     electric field correction =       0.00000000 Ry
     smearing contrib. (-TS)   =      -0.10446461 Ry

     convergence has been achieved in   7 iterations

 BEEF-vdW xc energy contributions
           1 :   -583.198318802197
           2 :    538.519439424800
           3 :   -459.347291988382
           4 :    362.395866189528
           5 :   -265.535794917859
           6 :    182.949438933504
           7 :   -122.323679904718
           8 :    84.4589526003588
           9 :   -64.8532046870987
          10 :    56.3637437420406
          11 :   -51.9292371581317
          12 :    46.4909621839915
          13 :   -37.7229300582858
          14 :    25.7189158882584
          15 :   -12.1184480248294
          16 :  -0.863989047967607
          17 :    11.2330958643074
          18 :   -17.7318436293979
          19 :    20.0621974685282
          20 :   -18.8342274497215
          21 :    15.3070772019756
          22 :   -11.0111369005593
          23 :    7.33938111299790
          24 :   -5.20696251538789
          25 :    4.87468508533573
          26 :   -5.98995109029192
          27 :    7.80926522954098
          28 :   -9.50103583004602
          29 :    10.4180206965327
          30 :   -10.2695871860573
          31 :   -48.5205292887010
          32 :   -35.1218863702010

     Forces acting on atoms (Ry/au):

     negative rho (up, down):  5.390E-01 0.000E+00
     atom    1 type  1   force =    -0.01143316    0.00660129    0.00113506
     atom    2 type  2   force =    -0.00000260   -0.00000157    0.00025329
     atom    3 type  1   force =     0.01143457    0.00660211    0.00113628
     atom    4 type  1   force =    -0.00000032   -0.01320273    0.00113528
     atom    5 type  1   force =    -0.00061655    0.00035697    0.00100719
     atom    6 type  2   force =    -0.00000230   -0.00000148   -0.00130353
     atom    7 type  1   force =     0.00061257    0.00035391    0.00101216
     atom    8 type  1   force =     0.00000064   -0.00071938    0.00101190
     atom    9 type  1   force =    -0.00035956    0.00020856   -0.00188720
     atom   10 type  2   force =     0.00000778    0.00002256    0.00026185
     atom   11 type  1   force =     0.00035664    0.00020391   -0.00187662
     atom   12 type  1   force =     0.00000228   -0.00042413   -0.00188565

     Total force =     0.003351     Total SCF correction =     0.000757
     SCF correction compared to forces is large: reduce conv_thr to get better values

     entering subroutine stress ...

     negative rho (up, down):  5.390E-01 0.000E+00
          total   stress  (Ry/bohr**3)                   (kbar)     P=   -4.39
  -0.00003946   0.00000000   0.00000000         -5.81      0.00      0.00
   0.00000000  -0.00003947   0.00000001          0.00     -5.81      0.00
   0.00000000   0.00000001  -0.00001058          0.00      0.00     -1.56

     bfgs converged in   7 scf cycles and   6 bfgs steps
     (criteria: energy <  1.0E+00, force <  1.9E-03)

     End of BFGS Geometry Optimization

     Final energy   =   -1498.0253707382 Ry
Begin final coordinates

ATOMIC_POSITIONS (crystal)
La1     -0.000000000   0.000000000   0.386006635    0   0   0
Bi1      0.000000000   0.500000000   0.386006635    0   0   0
La1      0.500000000   0.000000000   0.386006635    0   0   0
La1      0.500000000   0.500000000   0.386006635    0   0   0
La1      0.666666667   0.666666667   0.500000000    0   0   0
Bi1      0.666666667   0.166666667   0.500000000    0   0   0
La1      0.166666667   0.666666667   0.500000000    0   0   0
La1      0.166666667   0.166666667   0.500000000    0   0   0
La1      0.345874234   0.327046164   0.613377226
Bi1      0.333344227   0.833296125   0.614030054
La1      0.827073033   0.327056677   0.613371158
La1      0.827054171   0.845876689   0.613376366
End final coordinates

     Writing output data file calc.save

     General routines

     Parallel routines

   This run was terminated on:  19:48:58  23Feb2018

   JOB DONE.