     Program PWSCF v.5.1rc2 (svn rev. ) starts on 23Feb2018 at 18:52:46

     Current dimensions of program PWSCF are:
     Max number of different atomic species (ntypx) = 10
     Max number of k-points (npk) =  40000
     Max angular momentum in pseudopotentials (lmaxx) =  3
     Presently stress not available with electric field

     IMPORTANT: XC functional enforced from input :
     Exchange-correlation      = BEEF-VDW ( 1  4 27 13 2)
     Any further DFT definition will be discarded
     Please, verify this is what you really want

     Subspace diagonalization in iterative solution of the eigenvalue problem:
     a serial algorithm will be used

     bravais-lattice index     =            0
     lattice parameter (alat)  =       1.8897  a.u.
     unit-cell volume          =    5057.2165 (a.u.)^3
     number of atoms/cell      =           12
     number of atomic types    =            2
     number of electrons       =       171.00
     number of Kohn-Sham states=           95
     kinetic-energy cutoff     =      36.7493  Ry
     charge density cutoff     =     367.4932  Ry
     convergence threshold     =      1.0E-05
     mixing beta               =       0.3000
     number of iterations used =           10  plain     mixing
     Exchange-correlation      = BEEF-VDW ( 1  4 27 13 2)
     nstep                     =           50

     celldm(1)=   1.889726  celldm(2)=   0.000000  celldm(3)=   0.000000
     celldm(4)=   0.000000  celldm(5)=   0.000000  celldm(6)=   0.000000

     crystal axes: (cart. coord. in units of alat)
               a(1) = (   5.904492   0.000000   0.000000 )
               a(2) = (   2.952246   5.113440   0.000000 )
               a(3) = (   0.000000   0.000000  24.820998 )

     reciprocal axes: (cart. coord. in units 2 pi/alat)
               b(1) = (  0.169363 -0.097782  0.000000 )
               b(2) = (  0.000000  0.195563  0.000000 )
               b(3) = (  0.000000  0.000000  0.040288 )

     PseudoPot. # 1 for W  read from file:
     /home/mamunm/src/pseudo/gbrv1.5pbe/W.UPF
     MD5 check sum: 9c083fa34c2a2ea0f02f1f893e16e1c8
     Pseudo is Ultrasoft + core correction, Zval = 14.0
     Generated by new atomic code, or converted to UPF format
     Using radial grid of  923 points,  8 beta functions with:
                l(1) =   0
                l(2) =   0
                l(3) =   0
                l(4) =   1
                l(5) =   1
                l(6) =   2
                l(7) =   2
                l(8) =   3
     Q(r) pseudized with  6 coefficients,  rinner =    1.350   1.350   1.350
                                                       1.350   1.350   1.350
                                                       1.350

     PseudoPot. # 2 for Bi read from file:
     /home/mamunm/src/pseudo/gbrv1.5pbe/Bi.UPF
     MD5 check sum: 81103212dc04adf40945787f699eab19
     Pseudo is Ultrasoft + core correction, Zval = 15.0
     Generated by new atomic code, or converted to UPF format
     Using radial grid of  899 points,  6 beta functions with:
                l(1) =   0
                l(2) =   0
                l(3) =   1
                l(4) =   1
                l(5) =   2
                l(6) =   2
     Q(r) pseudized with  6 coefficients,  rinner =    1.000   1.000   1.000
                                                       1.000   1.000

     vdW kernel table read from file vdW_kernel_table
     MD5 check sum: 095c7af220d748ca6e76c0b4c6cfb241

     atomic species   valence    mass     pseudopotential
        W1            14.00   183.84000     W ( 1.00)
        Bi1           15.00   208.98040     Bi( 1.00)

     No symmetry found

   Cartesian axes

     site n.     atom                  positions (alat units)
         1           W1  tau(   1) = (   0.0000000   0.0000000  10.0000000  )
         2           Bi1 tau(   2) = (   1.4761230   2.5567201  10.0000000  )
         3           W1  tau(   3) = (   2.9522460   0.0000000  10.0000000  )
         4           W1  tau(   4) = (   4.4283690   2.5567201  10.0000000  )
         5           W1  tau(   5) = (   5.9044920   3.4089601  12.4104988  )
         6           Bi1 tau(   6) = (   4.4283690   0.8522400  12.4104988  )
         7           W1  tau(   7) = (   2.9522460   3.4089601  12.4104988  )
         8           W1  tau(   8) = (   1.4761230   0.8522400  12.4104988  )
         9           W1  tau(   9) = (   2.9522460   1.7044800  14.8209976  )
        10           Bi1 tau(  10) = (   4.4283690   4.2612001  14.8209976  )
        11           W1  tau(  11) = (   5.9044920   1.7044800  14.8209976  )
        12           W1  tau(  12) = (   7.3806150   4.2612001  14.8209976  )

     number of k points=    20  Fermi-Dirac smearing, width (Ry)=  0.0110
                       cart. coord. in units 2pi/alat
        k(    1) = (   0.0000000   0.0000000   0.0000000), wk =   0.0555556
        k(    2) = (   0.0000000   0.0325938   0.0000000), wk =   0.1111111
        k(    3) = (   0.0000000   0.0651877   0.0000000), wk =   0.1111111
        k(    4) = (   0.0000000  -0.0977815   0.0000000), wk =   0.0555556
        k(    5) = (   0.0282271  -0.0162969   0.0000000), wk =   0.1111111
        k(    6) = (   0.0282271   0.0162969   0.0000000), wk =   0.1111111
        k(    7) = (   0.0282271   0.0488908   0.0000000), wk =   0.1111111
        k(    8) = (   0.0282271  -0.1140785   0.0000000), wk =   0.1111111
        k(    9) = (   0.0282271  -0.0814846   0.0000000), wk =   0.1111111
        k(   10) = (   0.0282271  -0.0488908   0.0000000), wk =   0.1111111
        k(   11) = (   0.0564542  -0.0325938   0.0000000), wk =   0.1111111
        k(   12) = (   0.0564542   0.0000000   0.0000000), wk =   0.1111111
        k(   13) = (   0.0564542   0.0325938   0.0000000), wk =   0.1111111
        k(   14) = (   0.0564542  -0.1303754   0.0000000), wk =   0.1111111
        k(   15) = (   0.0564542  -0.0977815   0.0000000), wk =   0.1111111
        k(   16) = (   0.0564542  -0.0651877   0.0000000), wk =   0.1111111
        k(   17) = (  -0.0846813   0.0488908   0.0000000), wk =   0.0555556
        k(   18) = (  -0.0846813   0.0814846   0.0000000), wk =   0.1111111
        k(   19) = (  -0.0846813   0.1140785   0.0000000), wk =   0.1111111
        k(   20) = (  -0.0846813  -0.0488908   0.0000000), wk =   0.0555556

     Largest allocated arrays     est. size (Mb)     dimensions
     Largest temporary arrays     est. size (Mb)     dimensions

     Initial potential from superposition of free atoms
     Check: negative starting charge=   -0.706207

     starting charge  167.09682, renormalised to  171.00000

     negative rho (up, down):  7.227E-01 0.000E+00

     *
     * You are using vdW-DF for exchange-correlation in this calculation.
     * Please cite the following three references that made this development
     * possible:
     *
     *   M. Dion, H. Rydberg, E. Schroder, D. C. Langreth, and
     *   B. I. Lundqvist, Phys. Rev. Lett. 92, 246401 (2004).
     *
     *   T. Thonhauser, V. R. Cooper, S. Li, A. Puzder, P. Hyldgaard, and
     *   D. C. Langreth, Phys. Rev. B 76, 125112 (2007).
     *
     *   G. Roman-Perez and J. M. Soler, Phys. Rev. Lett. 103, 096102 (2009).
     *
     *
     * If you are using vdW-DF2, please also cite:
     *
     *   K. Lee, E. D. Murray, L. Kong, B. I. Lundqvist, and
     *   D. C. Langreth, Phys. Rev. B 82, 081101(R) (2010).
     *
     *
     * If you are calculating the stress with vdW-DF, please also cite:
     *
     *   R. Sabatini, E. Kucukbenli, B. Kolb, T. Thonhauser, and
     *   S. de Gironcoli, J. Phys.: Condens. Matter 24, 424209 (2012).
     *

     Carrying out vdW-DF run using the following parameters:

     Nqs =      20    Nr_points =    1024   r_max =   100.000
     q_mesh =
               0.00001000     0.04494208     0.09755937     0.15916263
               0.23128650     0.31572767     0.41458969     0.53033537
               0.66584808     0.82450364     1.01025438     1.22772762
               1.48234092     1.78043706     2.12944203     2.53805004
               3.01644009     3.57652955     4.23227104     5.00000000

     Gradients computed in reciprocal space

     Adding external electric field

     Computed dipole along edir(3) :
        Dipole               -0.0000 Ry au,         -0.0000 Debye
        Dipole field         -0.0000 Ry au

        Potential amp.        0.0000 Ry
        Total length         45.7323 bohr

     Starting wfc are  144 randomized atomic wfcs

     Self-consistent Calculation

     iteration #  1     ecut=    36.75 Ry     beta=0.30
     Davidson diagonalization with overlap
     ethr =  1.00E-02,  avg # of iterations =  2.0

     Threshold (ethr) on eigenvalues was too large:
     Diagonalizing with lowered threshold

     Davidson diagonalization with overlap
     ethr =  6.89E-04,  avg # of iterations =  1.8

[...]

     total energy              =   -2004.56520098 Ry
     Harris-Foulkes estimate   =   -2004.97759232 Ry
     estimated scf accuracy    <       1.21340973 Ry

[...]

     End of self-consistent calculation

          k = 0.0000 0.0000 0.0000 ( 19075 PWs)   bands (ev):

   -72.2565 -72.2234 -72.2224 -72.1128 -72.1111 -72.0812 -72.0811 -72.0807
   -72.0803 -36.6232 -36.5570 -36.5563 -36.4678 -36.4401 -36.4399 -36.3588
   -36.3576 -36.3574 -36.3563 -36.2813 -36.2452 -36.2449 -36.2047 -36.1614
   -36.1612 -36.1119 -36.0932 -36.0930 -36.0881 -36.0292 -36.0212 -36.0205
   -35.8270 -35.8266 -35.8221 -35.8216 -21.4812 -21.4812 -21.4593 -21.4406
   -21.4405 -21.0477 -21.0400 -21.0320 -21.0320 -21.0287 -21.0286 -21.0112
   -21.0112 -21.0040 -21.0040 -10.7410  -9.5857  -9.5483  -3.3541  -3.3196
    -2.6527  -2.2324  -2.2323  -2.0937  -2.0934  -1.3680  -1.3679  -1.1207
    -1.0648  -0.8350  -0.8349  -0.3939  -0.3939  -0.0574   0.2470   0.2541
     0.2542   0.5797   0.6494   0.6496   1.0552   1.0553   1.1914   1.1915
     1.7296   1.7699   2.1625   2.7778   2.8067   2.9465   2.9470   3.1672
     3.2179   3.2181   3.4001   3.4336   3.4337   3.4587   3.5945

[...]

          k =-0.0847 0.0489 0.0000 ( 19028 PWs)   bands (ev):

[...]

     the Fermi energy is     2.5818 ev

!    total energy              =   -2004.53861314 Ry
     Harris-Foulkes estimate   =   -2004.55018942 Ry
     estimated scf accuracy    <       0.00000923 Ry

     The total energy is the sum of the following terms:

     one-electron contribution =  -14007.42907813 Ry
     hartree contribution      =    7004.50601644 Ry
     xc contribution           =    -582.63808494 Ry
     ewald contribution        =    5581.08535113 Ry
     electric field correction =       0.00000002 Ry
     smearing contrib. (-TS)   =      -0.06281766 Ry

     convergence has been achieved in  12 iterations

 BEEF-vdW xc energy contributions
           1 :   -514.805244678368
           2 :    477.322651859359
           3 :   -411.150301215628
           4 :    330.617149874607
           5 :   -250.775025417856
           6 :    182.996014093456
           7 :   -132.476220183710
           8 :    98.2775314478708
           9 :   -75.4928860926045
          10 :    58.3105675805025
          11 :   -42.5752770813374
          12 :    26.9070493242234
          13 :   -12.2586494202958
          14 :   0.511224470119146
          15 :    6.99233675167784
          16 :   -10.2643620787544
          17 :    10.5976783613081
          18 :   -9.83593373403573
          19 :    9.48413861569145
          20 :   -10.1319569607931
          21 :    11.4217974435444
          22 :   -12.4875166814920
          23 :    12.5647620999780
          24 :   -11.4378685812333
          25 :    9.52405511248389
          26 :   -7.60855757894728
          27 :    6.41348701356594
          28 :   -6.24089744207390
          29 :    6.86216550460188
          30 :   -7.68372484595443
          31 :   -44.6149616824860
          32 :   -33.2945439444602

     Forces acting on atoms (Ry/au):

     negative rho (up, down):  7.451E-01 0.000E+00
     atom    1 type  1   force =     0.04462424   -0.02572376    0.04074514
     atom    2 type  2   force =     0.00012750    0.00009289   -0.07959190
     atom    3 type  1   force =    -0.04465546   -0.02573331    0.04078674
     atom    4 type  1   force =    -0.00003378    0.05156776    0.04084757
     atom    5 type  1   force =    -0.00010198    0.00000984   -0.00024352
     atom    6 type  2   force =     0.00024063   -0.00035358    0.00056963
     atom    7 type  1   force =     0.00006894   -0.00015064   -0.00014832
     atom    8 type  1   force =     0.00007922    0.00011424   -0.00009831
     atom    9 type  1   force =    -0.04463510    0.02579035   -0.04099425
     atom   10 type  2   force =    -0.00023768    0.00007529    0.08009753
     atom   11 type  1   force =     0.04460118    0.02583781   -0.04100984
     atom   12 type  1   force =    -0.00007770   -0.05152690   -0.04096045

     Total force =     0.139374     Total SCF correction =     0.011260

     entering subroutine stress ...

     negative rho (up, down):  7.451E-01 0.000E+00
          total   stress  (Ry/bohr**3)                   (kbar)     P=  -42.15
  -0.00036189  -0.00000019  -0.00000009        -53.24     -0.03     -0.01
  -0.00000019  -0.00036172  -0.00000003         -0.03    -53.21     -0.00
  -0.00000009  -0.00000003  -0.00013600         -0.01     -0.00    -20.01

     BFGS Geometry Optimization

     number of scf cycles    =   1
     number of bfgs steps    =   0

     energy   new            =   -2004.5386131398 Ry

     new trust radius        =       0.0800979178 bohr
     new conv_thr            =       0.0000099958 Ry

ATOMIC_POSITIONS (crystal)
W1       0.000000000   0.000000000   0.402884694    0   0   0
Bi1     -0.000000000   0.500000000   0.402884694    0   0   0
W1       0.500000000   0.000000000   0.402884694    0   0   0
W1       0.500000000   0.500000000   0.402884694    0   0   0
W1       0.666666667   0.666666667   0.500000000    0   0   0
Bi1      0.666666667   0.166666667   0.500000000    0   0   0
W1       0.166666667   0.666666667   0.500000000    0   0   0
W1       0.166666667   0.166666667   0.500000000    0   0   0
W1       0.327998520   0.336002313   0.596241319
Bi1      0.333308136   0.833341125   0.598822965
W1       0.835993671   0.336007224   0.596240987
W1       0.835992565   0.828000943   0.596242040

     Writing output data file calc.save
     Check: negative starting charge=   -0.706207
     NEW-OLD atomic charge density approx. for the potential
     Check: negative starting charge=   -0.703155

[...]

     iteration #  1     ecut=    36.75 Ry     beta=0.30
     Davidson diagonalization with overlap
     c_bands:  1 eigenvalues not converged
     c_bands:  1 eigenvalues not converged
     c_bands:  1 eigenvalues not converged
     c_bands:  1 eigenvalues not converged
     c_bands:  1 eigenvalues not converged
     c_bands:  1 eigenvalues not converged
     c_bands:  1 eigenvalues not converged
     c_bands:  1 eigenvalues not converged
     c_bands:  1 eigenvalues not converged
     ethr =  1.00E-06,  avg # of iterations = 14.8

[...]

     energy   old            =   -2004.5386131398 Ry
     energy   new            =   -2004.5688588547 Ry

     CASE: energy  _new < energy  _old

     WARNING: bfgs curvature condition failed, Theta= 0.844
     new trust radius        =       0.0881077095 bohr
     new conv_thr            =       0.0000001000 Ry

[...]

     iteration #  1     ecut=    36.75 Ry     beta=0.30
     Davidson diagonalization with overlap
     c_bands:  1 eigenvalues not converged
     c_bands:  1 eigenvalues not converged
     c_bands:  1 eigenvalues not converged
     c_bands:  1 eigenvalues not converged
     c_bands:  1 eigenvalues not converged
     c_bands:  1 eigenvalues not converged
     ethr =  1.00E-06,  avg # of iterations = 11.9

[...]

     number of scf cycles    =  13
     number of bfgs steps    =  12

     energy   old            =   -2004.6610789923 Ry
     energy   new            =   -2004.6614091832 Ry

     CASE: energy  _new < energy  _old

     new trust radius        =       0.0663127530 bohr
     new conv_thr            =       0.0000001000 Ry

ATOMIC_POSITIONS (crystal)
W1       0.000000000   0.000000000   0.402884694    0   0   0
Bi1     -0.000000000   0.500000000   0.402884694    0   0   0
W1       0.500000000   0.000000000   0.402884694    0   0   0
W1       0.500000000   0.500000000   0.402884694    0   0   0
W1       0.666666667   0.666666667   0.500000000    0   0   0
Bi1      0.666666667   0.166666667   0.500000000    0   0   0
W1       0.166666667   0.666666667   0.500000000    0   0   0
W1       0.166666667   0.166666667   0.500000000    0   0   0
W1       0.291973079   0.354020902   0.588969940
Bi1      0.333350637   0.833324325   0.620464535
W1       0.854035968   0.354016680   0.588966594
W1       0.854034440   0.791963391   0.588967759

     Writing output data file calc.save
     Check: negative starting charge=   -0.703309
     NEW-OLD atomic charge density approx. for the potential
     Check: negative starting charge=   -0.702986

[...]

     Self-consistent Calculation

[...]

     total energy              =   -2004.66173569 Ry
     Harris-Foulkes estimate   =   -2004.66173571 Ry
     estimated scf accuracy    <       0.00000021 Ry

     iteration # 13     ecut=    36.75 Ry     beta=0.30
     Davidson diagonalization with overlap
     ethr =  5.87E-11,  avg # of iterations =  4.2

[...]

     negative rho (up, down):  7.394E-01 0.000E+00

     Adding external electric field

     Computed dipole along edir(3) :
        Dipole                0.1888 Ry au,          0.4798 Debye
        Dipole field          0.0005 Ry au

        Potential amp.       -0.0429 Ry
        Total length         45.7323 bohr

     End of self-consistent calculation

[...]

          k = 0.0565-0.0652 0.0000 ( 19032 PWs)   bands (ev):

[...]

          k =-0.0847-0.0489 0.0000 ( 19028 PWs)   bands (ev):

   -72.0254 -72.0137 -72.0018 -71.9155 -71.9053 -71.8950 -71.7054 -71.6247
   -71.6220 -36.4180 -36.3581 -36.3001 -36.2643 -36.2536 -36.2250 -36.2001
   -36.1976 -36.1372 -36.1079 -36.0643 -36.0338 -36.0225 -35.9890 -35.9661
   -35.9516 -35.9245 -35.8306 -35.8092 -35.8061 -35.6495 -35.6434 -35.6316
   -35.6219 -35.5706 -35.4011 -35.3363 -21.2560 -21.2443 -21.2127 -21.2110
   -21.2081 -20.8737 -20.8530 -20.8478 -20.8403 -20.8374 -20.8264 -20.7906
   -20.7883 -20.7202 -20.7161  -9.8713  -9.1700  -8.5745  -4.5134  -3.5642
    -3.1775  -3.1616  -1.9709  -1.6632  -1.6594  -1.4351  -1.2960  -1.1504
    -0.8157  -0.4074  -0.1525   0.0339   0.0535   0.0802   0.2263   0.3938
     0.4156   0.8350   0.8597   1.0822   1.2175   1.3598   1.4935   1.6736
     1.7624   1.9116   2.0463   2.1502   2.4301   2.7418   2.8212   2.9775
     3.1187   3.2548   3.4297   3.5110   3.5774   3.7470   3.8464

     the Fermi energy is     2.7499 ev

!    total energy              =   -2004.66173566 Ry
     Harris-Foulkes estimate   =   -2004.66173600 Ry
     estimated scf accuracy    <          9.7E-09 Ry

     The total energy is the sum of the following terms:

     one-electron contribution =  -13985.53374734 Ry
     hartree contribution      =    6994.93580448 Ry
     xc contribution           =    -582.92219666 Ry
     ewald contribution        =    5568.91555722 Ry
     electric field correction =       0.00008854 Ry
     smearing contrib. (-TS)   =      -0.05724191 Ry

     convergence has been achieved in  13 iterations

 BEEF-vdW xc energy contributions
           1 :   -515.422388568981
           2 :    477.964990581871
           3 :   -411.815194701628
           4 :    331.252397506571
           5 :   -251.283718519947
           6 :    183.275945899679
           7 :   -132.474953287853
           8 :    98.0317372607931
           9 :   -75.1279328246237
          10 :    57.9963868984829
          11 :   -42.4564790227895
          12 :    27.0382784464908
          13 :   -12.5765143488650
          14 :   0.860171816221282
          15 :    6.78656824700670
          16 :   -10.3054106413794
          17 :    10.8585760797471
          18 :   -10.1629844141542
          19 :    9.66776048772715
          20 :   -10.0126158967055
          21 :    10.9767580316551
          22 :   -11.8489371677563
          23 :    11.9553256691056
          24 :   -11.0564321712463
          25 :    9.44276591050084
          26 :   -7.73754019765238
          27 :    6.55189876568443
          28 :   -6.18580070555618
          29 :    6.51545659730891
          30 :   -7.09969045966841
          31 :   -44.6494956237177
          32 :   -33.3257614531506

     Forces acting on atoms (Ry/au):

     negative rho (up, down):  7.394E-01 0.000E+00
     atom    1 type  1   force =     0.04315306   -0.02491046    0.03520612
     atom    2 type  2   force =    -0.00000906    0.00000833   -0.08104855
     atom    3 type  1   force =    -0.04315569   -0.02490961    0.03520452
     atom    4 type  1   force =    -0.00000207    0.04983220    0.03520604
     atom    5 type  1   force =    -0.02500337    0.01443228   -0.00534219
     atom    6 type  2   force =     0.00001423   -0.00002204   -0.01377052
     atom    7 type  1   force =     0.02500183    0.01442148   -0.00533711
     atom    8 type  1   force =     0.00000764   -0.02885493   -0.00533070
     atom    9 type  1   force =     0.00061546   -0.00036093    0.00174565
     atom   10 type  2   force =     0.00000547    0.00001068   -0.00007774
     atom   11 type  1   force =    -0.00062362   -0.00035807    0.00177756
     atom   12 type  1   force =    -0.00000389    0.00071105    0.00176694

     Total force =     0.003297     Total SCF correction =     0.000084

     entering subroutine stress ...

     negative rho (up, down):  7.394E-01 0.000E+00
          total   stress  (Ry/bohr**3)                   (kbar)     P=  -28.40
  -0.00024989  -0.00000000  -0.00000001        -36.76     -0.00     -0.00
  -0.00000000  -0.00024990   0.00000001         -0.00    -36.76      0.00
  -0.00000001   0.00000001  -0.00007929         -0.00      0.00    -11.66

     bfgs converged in  14 scf cycles and  13 bfgs steps
     (criteria: energy <  1.0E+00, force <  1.9E-03)

     End of BFGS Geometry Optimization

     Final energy   =   -2004.6617356634 Ry
Begin final coordinates

ATOMIC_POSITIONS (crystal)
W1       0.000000000   0.000000000   0.402884694    0   0   0
Bi1     -0.000000000   0.500000000   0.402884694    0   0   0
W1       0.500000000   0.000000000   0.402884694    0   0   0
W1       0.500000000   0.500000000   0.402884694    0   0   0
W1       0.666666667   0.666666667   0.500000000    0   0   0
Bi1      0.666666667   0.166666667   0.500000000    0   0   0
W1       0.166666667   0.666666667   0.500000000    0   0   0
W1       0.166666667   0.166666667   0.500000000    0   0   0
W1       0.291973079   0.354020902   0.588969940
Bi1      0.333350637   0.833324325   0.620464535
W1       0.854035968   0.354016680   0.588966594
W1       0.854034440   0.791963391   0.588967759
End final coordinates

     Writing output data file calc.save

     General routines

     Parallel routines

   This run was terminated on:  20: 3:23  23Feb2018

   JOB DONE.