     Program PWSCF v.5.1rc2 (svn rev. ) starts on 23Feb2018 at 18:57:31

     Current dimensions of program PWSCF are:
     Max number of different atomic species (ntypx) = 10
     Max number of k-points (npk) =  40000
     Max angular momentum in pseudopotentials (lmaxx) =  3
     Presently stress not available with electric field

     IMPORTANT: XC functional enforced from input :
     Exchange-correlation      = BEEF-VDW ( 1  4 27 13 2)
     Any further DFT definition will be discarded
     Please, verify this is what you really want

     Subspace diagonalization in iterative solution of the eigenvalue problem:
     a serial algorithm will be used

     bravais-lattice index     =            0
     lattice parameter (alat)  =       1.8897  a.u.
     unit-cell volume          =    7637.3518 (a.u.)^3
     number of atoms/cell      =           12
     number of atomic types    =            2
     number of electrons       =       177.00
     number of Kohn-Sham states=           98
     kinetic-energy cutoff     =      36.7493  Ry
     charge density cutoff     =     367.4932  Ry
     convergence threshold     =      1.0E-05
     mixing beta               =       0.3000
     number of iterations used =           10  plain     mixing
     Exchange-correlation      = BEEF-VDW ( 1  4 27 13 2)
     nstep                     =           50

     celldm(1)=   1.889726  celldm(2)=   0.000000  celldm(3)=   0.000000
     celldm(4)=   0.000000  celldm(5)=   0.000000  celldm(6)=   0.000000

     crystal axes: (cart. coord. in units of alat)
               a(1) = (   7.115650   0.000000   0.000000 )
               a(2) = (   3.557825   6.162334   0.000000 )
               a(3) = (   0.000000   0.000000  25.809904 )

     reciprocal axes: (cart. coord. in units 2 pi/alat)
               b(1) = (  0.140535 -0.081138  0.000000 )
               b(2) = (  0.000000  0.162276  0.000000 )
               b(3) = (  0.000000  0.000000  0.038745 )

     PseudoPot. # 1 for Bi read from file:
     /home/mamunm/src/pseudo/gbrv1.5pbe/Bi.UPF
     MD5 check sum: 81103212dc04adf40945787f699eab19
     Pseudo is Ultrasoft + core correction, Zval = 15.0
     Generated by new atomic code, or converted to UPF format
     Using radial grid of  899 points,  6 beta functions with:
                l(1) =   0
                l(2) =   0
                l(3) =   1
                l(4) =   1
                l(5) =   2
                l(6) =   2
     Q(r) pseudized with  6 coefficients,  rinner =    1.000   1.000   1.000
                                                       1.000   1.000

     PseudoPot. # 2 for Sn read from file:
     /home/mamunm/src/pseudo/gbrv1.5pbe/Sn.UPF
     MD5 check sum: 469debedee59599fedebd795477fea03
     Pseudo is Ultrasoft + core correction, Zval = 14.0
     Generated by new atomic code, or converted to UPF format
     Using radial grid of  891 points,  6 beta functions with:
                l(1) =   0
                l(2) =   0
                l(3) =   1
                l(4) =   1
                l(5) =   2
                l(6) =   2
     Q(r) pseudized with  8 coefficients,  rinner =    1.350   1.350   1.350
                                                       1.350   1.350

     vdW kernel table read from file vdW_kernel_table
     MD5 check sum: 095c7af220d748ca6e76c0b4c6cfb241

     atomic species   valence    mass     pseudopotential
        Bi1           15.00   208.98040     Bi( 1.00)
        Sn1           14.00   118.71000     Sn( 1.00)

     No symmetry found

   Cartesian axes

     site n.     atom                  positions (alat units)
         1           Bi1 tau(   1) = (   0.0000000   0.0000000  10.0000000  )
         2           Sn1 tau(   2) = (   1.7789125   3.0811669  10.0000000  )
         3           Bi1 tau(   3) = (   3.5578251   0.0000000  10.0000000  )
         4           Bi1 tau(   4) = (   5.3367376   3.0811669  10.0000000  )
         5           Bi1 tau(   5) = (   7.1156502   4.1082225  12.9049520  )
         6           Sn1 tau(   6) = (   5.3367376   1.0270556  12.9049520  )
         7           Bi1 tau(   7) = (   3.5578251   4.1082225  12.9049520  )
         8           Bi1 tau(   8) = (   1.7789125   1.0270556  12.9049520  )
         9           Bi1 tau(   9) = (   3.5578251   2.0541113  15.8099040  )
        10           Sn1 tau(  10) = (   5.3367376   5.1352782  15.8099040  )
        11           Bi1 tau(  11) = (   7.1156502   2.0541113  15.8099040  )
        12           Bi1 tau(  12) = (   8.8945627   5.1352782  15.8099040  )

     number of k points=    20  Fermi-Dirac smearing, width (Ry)=  0.0110
                       cart. coord. in units 2pi/alat
        k(    1) = (   0.0000000   0.0000000   0.0000000), wk =   0.0555556
        k(    2) = (   0.0000000   0.0270460   0.0000000), wk =   0.1111111
        k(    3) = (   0.0000000   0.0540921   0.0000000), wk =   0.1111111
        k(    4) = (   0.0000000  -0.0811381   0.0000000), wk =   0.0555556
        k(    5) = (   0.0234225  -0.0135230   0.0000000), wk =   0.1111111
        k(    6) = (   0.0234225   0.0135230   0.0000000), wk =   0.1111111
        k(    7) = (   0.0234225   0.0405690   0.0000000), wk =   0.1111111
        k(    8) = (   0.0234225  -0.0946611   0.0000000), wk =   0.1111111
        k(    9) = (   0.0234225  -0.0676151   0.0000000), wk =   0.1111111
        k(   10) = (   0.0234225  -0.0405690   0.0000000), wk =   0.1111111
        k(   11) = (   0.0468451  -0.0270460   0.0000000), wk =   0.1111111
        k(   12) = (   0.0468451   0.0000000   0.0000000), wk =   0.1111111
        k(   13) = (   0.0468451   0.0270460   0.0000000), wk =   0.1111111
        k(   14) = (   0.0468451  -0.1081841   0.0000000), wk =   0.1111111
        k(   15) = (   0.0468451  -0.0811381   0.0000000), wk =   0.1111111
        k(   16) = (   0.0468451  -0.0540921   0.0000000), wk =   0.1111111
        k(   17) = (  -0.0702676   0.0405690   0.0000000), wk =   0.0555556
        k(   18) = (  -0.0702676   0.0676151   0.0000000), wk =   0.1111111
        k(   19) = (  -0.0702676   0.0946611   0.0000000), wk =   0.1111111
        k(   20) = (  -0.0702676  -0.0405690   0.0000000), wk =   0.0555556

     Largest allocated arrays     est. size (Mb)     dimensions
     Largest temporary arrays     est. size (Mb)     dimensions

     Check: negative/imaginary core charge=   -0.000001    0.000000

     Initial potential from superposition of free atoms
     Check: negative starting charge=   -0.378770

     starting charge  164.99949, renormalised to  177.00000

     negative rho (up, down):  4.063E-01 0.000E+00

     *
     * You are using vdW-DF for exchange-correlation in this calculation.
     * Please cite the following three references that made this development
     * possible:
     *
     *   M. Dion, H. Rydberg, E. Schroder, D. C. Langreth, and
     *   B. I. Lundqvist, Phys. Rev. Lett. 92, 246401 (2004).
     *
     *   T. Thonhauser, V. R. Cooper, S. Li, A. Puzder, P. Hyldgaard, and
     *   D. C. Langreth, Phys. Rev. B 76, 125112 (2007).
     *
     *   G. Roman-Perez and J. M. Soler, Phys. Rev. Lett. 103, 096102 (2009).
     *
     *
     * If you are using vdW-DF2, please also cite:
     *
     *   K. Lee, E. D. Murray, L. Kong, B. I. Lundqvist, and
     *   D. C. Langreth, Phys. Rev. B 82, 081101(R) (2010).
     *
     *
     * If you are calculating the stress with vdW-DF, please also cite:
     *
     *   R. Sabatini, E. Kucukbenli, B. Kolb, T. Thonhauser, and
     *   S. de Gironcoli, J. Phys.: Condens. Matter 24, 424209 (2012).
     *

     Carrying out vdW-DF run using the following parameters:

     Nqs =      20    Nr_points =    1024   r_max =   100.000
     q_mesh =
               0.00001000     0.04494208     0.09755937     0.15916263
               0.23128650     0.31572767     0.41458969     0.53033537
               0.66584808     0.82450364     1.01025438     1.22772762
               1.48234092     1.78043706     2.12944203     2.53805004
               3.01644009     3.57652955     4.23227104     5.00000000

     Gradients computed in reciprocal space

     Adding external electric field

     Computed dipole along edir(3) :
        Dipole                0.0000 Ry au,          0.0000 Debye
        Dipole field          0.0000 Ry au

        Potential amp.       -0.0000 Ry
        Total length         47.5543 bohr

     Starting wfc are  108 randomized atomic wfcs

     Self-consistent Calculation

     iteration #  1     ecut=    36.75 Ry     beta=0.30
     Davidson diagonalization with overlap
     ethr =  1.00E-02,  avg # of iterations =  4.0

[...]

     total energy              =   -2166.11110177 Ry
     Harris-Foulkes estimate   =   -2170.59934119 Ry
     estimated scf accuracy    <       9.80855654 Ry

[...]

     End of self-consistent calculation

          k = 0.0000 0.0000 0.0000 ( 28625 PWs)   bands (ev):

   -22.8036 -22.7943 -22.7942 -22.7608 -22.7354 -22.7353 -22.7222 -22.7160
   -22.7160 -22.7072 -22.6882 -22.6880 -22.6809 -22.6808 -22.6516 -22.5019
   -22.5011 -22.4855 -22.4854 -22.4826 -22.4825 -22.4573 -22.4537 -22.4291
   -22.4291 -22.4274 -22.4266 -22.4253 -22.4253 -22.4107 -22.4107 -22.4082
   -22.4081 -22.4006 -22.3998 -22.3997 -22.3992 -22.3991 -22.3938 -22.3812
   -22.3811 -22.3773 -22.3772 -22.3509 -22.3504 -21.3553 -21.3542 -21.3534
   -21.3534 -21.3478 -21.3478 -21.3463 -21.3463 -21.3321 -21.3321 -21.3293
   -21.3241 -21.3241 -21.3231 -21.3231 -11.8333 -10.8936 -10.1316  -9.7208
    -9.7208  -9.1708  -9.1707  -8.8729  -8.8729  -6.1759  -6.0131  -5.4884
    -3.6491  -3.4179  -3.4179  -2.9179  -2.6476  -2.6476  -2.6261  -2.5157
    -2.3652  -2.3651  -0.5186   0.6486   0.6487   0.6677   0.6678   1.0954
     1.3323   1.7020   2.0360   2.0360   2.3674   2.6166   2.6166   2.7951
     3.0809   3.0809

[...]

          k =-0.0703 0.0406 0.0000 ( 28750 PWs)   bands (ev):

[...]

     the Fermi energy is     0.9124 ev

!    total energy              =   -2166.44595748 Ry
     Harris-Foulkes estimate   =   -2166.44595191 Ry
     estimated scf accuracy    <       0.00000643 Ry

     The total energy is the sum of the following terms:

     one-electron contribution =   -9935.72127484 Ry
     hartree contribution      =    5021.90575929 Ry
     xc contribution           =    -732.17635558 Ry
     ewald contribution        =    3479.59603361 Ry
     electric field correction =       0.00000000 Ry
     smearing contrib. (-TS)   =      -0.05011996 Ry

     convergence has been achieved in  10 iterations

 BEEF-vdW xc energy contributions
           1 :   -651.166941881599
           2 :    603.425587330377
           3 :   -519.927498207628
           4 :    419.973148919635
           5 :   -323.341532482497
           6 :    244.167811625784
           7 :   -187.718226142415
           8 :    150.887413232381
           9 :   -125.714791745993
          10 :    104.023801210283
          11 :   -81.0436587761234
          12 :    56.6160143190951
          13 :   -33.9219431773685
          14 :    16.8273643054648
          15 :   -7.41663161772658
          16 :    4.90491341512552
          17 :   -6.23614959099348
          18 :    7.77786921266545
          19 :   -7.07735747561708
          20 :    3.77437714937616
          21 :   0.663912802439086
          22 :   -4.07799446130525
          23 :    4.91542156412561
          24 :   -3.01538952442070
          25 :  -0.440273950610163
          26 :    3.65876571501519
          27 :   -5.18584453786536
          28 :    4.57237013502515
          29 :   -2.47347842699230
          30 :   0.205151196067277
          31 :   -52.7542833452114
          32 :   -38.6732937615124

     Forces acting on atoms (Ry/au):

     negative rho (up, down):  3.969E-01 0.000E+00
     atom    1 type  1   force =    -0.00205964    0.00117743    0.00400397
     atom    2 type  2   force =    -0.00000209    0.00001676    0.00299575
     atom    3 type  1   force =     0.00205049    0.00114697    0.00402312
     atom    4 type  1   force =     0.00003029   -0.00234584    0.00403579
     atom    5 type  1   force =    -0.00015889    0.00011263    0.00040125
     atom    6 type  2   force =    -0.00004831    0.00000087    0.00050269
     atom    7 type  1   force =     0.00016346    0.00007210    0.00044926
     atom    8 type  1   force =     0.00003298   -0.00018435    0.00044956
     atom    9 type  1   force =     0.00208870   -0.00120244   -0.00410593
     atom   10 type  2   force =     0.00002920   -0.00002103   -0.00450807
     atom   11 type  1   force =    -0.00209176   -0.00116206   -0.00411295
     atom   12 type  1   force =    -0.00003444    0.00238895   -0.00413444

     Total force =     0.009404     Total SCF correction =     0.002531
     SCF correction compared to forces is large: reduce conv_thr to get better values

     entering subroutine stress ...

     negative rho (up, down):  3.969E-01 0.000E+00
          total   stress  (Ry/bohr**3)                   (kbar)     P=   -5.65
  -0.00004165   0.00000000  -0.00000000         -6.13      0.00     -0.00
   0.00000000  -0.00004165   0.00000000          0.00     -6.13      0.00
  -0.00000000   0.00000000  -0.00003198         -0.00      0.00     -4.70

     BFGS Geometry Optimization

     number of scf cycles    =   1
     number of bfgs steps    =   0

     energy   new            =   -2166.4459574799 Ry

     new trust radius        =       0.0047751308 bohr
     new conv_thr            =       0.0000099958 Ry

ATOMIC_POSITIONS (crystal)
Bi1      0.000000000   0.000000000   0.387448167    0   0   0
Sn1     -0.000000000   0.500000000   0.387448167    0   0   0
Bi1      0.500000000   0.000000000   0.387448167    0   0   0
Bi1      0.500000000   0.500000000   0.387448167    0   0   0
Bi1      0.666666667   0.666666667   0.500000000    0   0   0
Sn1      0.666666667   0.166666667   0.500000000    0   0   0
Bi1      0.166666667   0.666666667   0.500000000    0   0   0
Bi1      0.166666667   0.166666667   0.500000000    0   0   0
Bi1      0.333540295   0.333230076   0.612467650
Sn1      0.333336408   0.833331527   0.612459405
Bi1      0.833227668   0.333233544   0.612467506
Bi1      0.833228199   0.833538480   0.612467065

     Writing output data file calc.save
     Check: negative starting charge=   -0.378770
     NEW-OLD atomic charge density approx. for the potential

     Check: negative/imaginary core charge=   -0.000001    0.000000
     Check: negative starting charge=   -0.379205

[...]

     energy   old            =   -2166.4459574799 Ry
     energy   new            =   -2166.4460547065 Ry

     CASE: energy  _new < energy  _old

     WARNING: bfgs curvature condition failed, Theta= 0.767
     new trust radius        =       0.0071626962 bohr
     new conv_thr            =       0.0000001000 Ry

[...]

     Total force =     0.010061     Total SCF correction =     0.000201

[...]

     WARNING: bfgs curvature condition failed, Theta= 0.639
     uphill step: resetting bfgs history

[...]

     WARNING: bfgs curvature condition failed, Theta= 0.772
     new trust radius        =       0.0078326239 bohr
     new conv_thr            =       0.0000001000 Ry

[...]

     Total force =     0.007013     Total SCF correction =     0.000682

[...]

     number of scf cycles    =  10
     number of bfgs steps    =   9

     energy   old            =   -2166.4478968631 Ry
     energy   new            =   -2166.4484138547 Ry

     CASE: energy  _new < energy  _old

     new trust radius        =       0.0610797765 bohr
     new conv_thr            =       0.0000001000 Ry

ATOMIC_POSITIONS (crystal)
Bi1      0.000000000   0.000000000   0.387448167    0   0   0
Sn1     -0.000000000   0.500000000   0.387448167    0   0   0
Bi1      0.500000000  -0.000000000   0.387448167    0   0   0
Bi1      0.500000000   0.500000000   0.387448167    0   0   0
Bi1      0.666666667   0.666666667   0.500000000    0   0   0
Sn1      0.666666667   0.166666667   0.500000000    0   0   0
Bi1      0.166666667   0.666666667   0.500000000    0   0   0
Bi1      0.166666667   0.166666667   0.500000000    0   0   0
Bi1      0.342851096   0.328568960   0.608341013
Sn1      0.333357575   0.833321485   0.607664546
Bi1      0.828566563   0.328586680   0.608342437
Bi1      0.828567307   0.842845564   0.608341089

     Writing output data file calc.save
     Check: negative starting charge=   -0.379143
     NEW-OLD atomic charge density approx. for the potential

     Check: negative/imaginary core charge=   -0.000001    0.000000
     Check: negative starting charge=   -0.377392

[...]

     Self-consistent Calculation

[...]

     total energy              =   -2166.44859491 Ry
     Harris-Foulkes estimate   =   -2166.44859495 Ry
     estimated scf accuracy    <       0.00000022 Ry

     iteration #  9     ecut=    36.75 Ry     beta=0.30
     Davidson diagonalization with overlap
     ethr =  1.22E-10,  avg # of iterations =  3.0

[...]

     negative rho (up, down):  3.950E-01 0.000E+00

     Adding external electric field

     Computed dipole along edir(3) :
        Dipole                0.0196 Ry au,          0.0498 Debye
        Dipole field          0.0000 Ry au

        Potential amp.       -0.0031 Ry
        Total length         47.5543 bohr

     End of self-consistent calculation

[...]

          k = 0.0468-0.0541 0.0000 ( 28759 PWs)   bands (ev):

[...]

          k =-0.0703-0.0406 0.0000 ( 28750 PWs)   bands (ev):

   -22.8071 -22.7749 -22.7605 -22.7585 -22.7563 -22.7464 -22.7417 -22.7388
   -22.7235 -22.7216 -22.7172 -22.7149 -22.7144 -22.7006 -22.6816 -22.4952
   -22.4757 -22.4648 -22.4517 -22.4475 -22.4385 -22.4370 -22.4312 -22.4270
   -22.4268 -22.4252 -22.4231 -22.4182 -22.4156 -22.4141 -22.4137 -22.4128
   -22.4110 -22.4099 -22.4063 -22.4039 -22.4034 -22.4013 -22.4004 -22.3989
   -22.3939 -22.3922 -22.3868 -22.3704 -22.3575 -21.3597 -21.3512 -21.3510
   -21.3418 -21.3374 -21.3371 -21.3288 -21.3275 -21.3247 -21.3234 -21.3171
   -21.3160 -21.2959 -21.2957 -21.2944 -11.2415 -11.0226 -10.3490  -9.9654
    -9.9462  -9.7259  -9.3927  -9.2081  -8.8191  -6.5751  -6.1658  -5.9242
    -2.3953  -2.1858  -2.1495  -2.1123  -2.0317  -2.0105  -1.4400  -1.2547
    -1.0887  -0.7451  -0.6910  -0.6235   0.2191   0.2821   0.2843   0.5077
     0.5562   0.6747   0.9401   1.0034   1.2315   1.2433   1.6182   1.8587
     1.9182   2.1948

     the Fermi energy is     0.9158 ev

!    total energy              =   -2166.44859480 Ry
     Harris-Foulkes estimate   =   -2166.44859493 Ry
     estimated scf accuracy    <       0.00000003 Ry

     The total energy is the sum of the following terms:

     one-electron contribution =  -10093.78999470 Ry
     hartree contribution      =    5100.92977678 Ry
     xc contribution           =    -732.26805494 Ry
     ewald contribution        =    3558.72774569 Ry
     electric field correction =       0.00000063 Ry
     smearing contrib. (-TS)   =      -0.04806827 Ry

     convergence has been achieved in   9 iterations

 BEEF-vdW xc energy contributions
           1 :   -651.262822698162
           2 :    603.573253623407
           3 :   -520.141956265299
           4 :    420.217543367577
           5 :   -323.543509873918
           6 :    244.259555870508
           7 :   -187.677081742382
           8 :    150.752137028493
           9 :   -125.567534841668
          10 :    103.947524958285
          11 :   -81.0787091629759
          12 :    56.7403565280343
          13 :   -34.0655451555688
          14 :    16.9120719515698
          15 :   -7.39897782941057
          16 :    4.79830661051687
          17 :   -6.10160845900668
          18 :    7.68939108299901
          19 :   -7.08150444681792
          20 :    3.86662998968848
          21 :   0.534482776880168
          22 :   -3.98005777158414
          23 :    4.89880770821821
          24 :   -3.08591725352153
          25 :  -0.321954388013978
          26 :    3.55466573420972
          27 :   -5.14801936032666
          28 :    4.61763743700396
          29 :   -2.57686196525583
          30 :   0.313985665205905
          31 :   -52.7630315840474
          32 :   -38.6955471597470

     Forces acting on atoms (Ry/au):

     negative rho (up, down):  3.950E-01 0.000E+00
     atom    1 type  1   force =    -0.00159369    0.00092034    0.00337462
     atom    2 type  2   force =     0.00000001   -0.00000046    0.00490661
     atom    3 type  1   force =     0.00159307    0.00091966    0.00337440
     atom    4 type  1   force =     0.00000028   -0.00183969    0.00337363
     atom    5 type  1   force =    -0.00018132    0.00010378   -0.00501380
     atom    6 type  2   force =     0.00000120    0.00000041   -0.00251673
     atom    7 type  1   force =     0.00017898    0.00010353   -0.00501795
     atom    8 type  1   force =    -0.00000019   -0.00020721   -0.00501702
     atom    9 type  1   force =     0.00051994   -0.00030080    0.00119062
     atom   10 type  2   force =     0.00000352   -0.00000129   -0.00103687
     atom   11 type  1   force =    -0.00052287   -0.00030181    0.00119043
     atom   12 type  1   force =     0.00000107    0.00060355    0.00119205

     Total force =     0.002534     Total SCF correction =     0.000898
     SCF correction compared to forces is large: reduce conv_thr to get better values

     entering subroutine stress ...

     negative rho (up, down):  3.950E-01 0.000E+00
          total   stress  (Ry/bohr**3)                   (kbar)     P=   -4.84
  -0.00003707  -0.00000000   0.00000000         -5.45     -0.00      0.00
  -0.00000000  -0.00003707  -0.00000000         -0.00     -5.45     -0.00
   0.00000000  -0.00000000  -0.00002448          0.00     -0.00     -3.60

     bfgs converged in  11 scf cycles and  10 bfgs steps
     (criteria: energy <  1.0E+00, force <  1.9E-03)

     End of BFGS Geometry Optimization

     Final energy   =   -2166.4485948012 Ry
Begin final coordinates

ATOMIC_POSITIONS (crystal)
Bi1      0.000000000   0.000000000   0.387448167    0   0   0
Sn1     -0.000000000   0.500000000   0.387448167    0   0   0
Bi1      0.500000000  -0.000000000   0.387448167    0   0   0
Bi1      0.500000000   0.500000000   0.387448167    0   0   0
Bi1      0.666666667   0.666666667   0.500000000    0   0   0
Sn1      0.666666667   0.166666667   0.500000000    0   0   0
Bi1      0.166666667   0.666666667   0.500000000    0   0   0
Bi1      0.166666667   0.166666667   0.500000000    0   0   0
Bi1      0.342851096   0.328568960   0.608341013
Sn1      0.333357575   0.833321485   0.607664546
Bi1      0.828566563   0.328586680   0.608342437
Bi1      0.828567307   0.842845564   0.608341089
End final coordinates

     Writing output data file calc.save

     General routines

     Parallel routines

   This run was terminated on:  19:50:54  23Feb2018

   JOB DONE.