     Program PWSCF v.5.1rc2 (svn rev. ) starts on 23Feb2018 at 19: 7:47

     Current dimensions of program PWSCF are:
     Max number of different atomic species (ntypx) = 10
     Max number of k-points (npk) =  40000
     Max angular momentum in pseudopotentials (lmaxx) =  3
     Presently stress not available with electric field

     IMPORTANT: XC functional enforced from input :
     Exchange-correlation      = BEEF-VDW ( 1  4 27 13 2)
     Any further DFT definition will be discarded
     Please, verify this is what you really want

     Subspace diagonalization in iterative solution of the eigenvalue problem:
     a serial algorithm will be used

     bravais-lattice index     =            0
     lattice parameter (alat)  =       1.8897  a.u.
     unit-cell volume          =    6894.8534 (a.u.)^3
     number of atoms/cell      =           12
     number of atomic types    =            2
     number of electrons       =       183.00
     number of Kohn-Sham states=          101
     kinetic-energy cutoff     =      36.7493  Ry
     charge density cutoff     =     367.4932  Ry
     convergence threshold     =      1.0E-05
     mixing beta               =       0.3000
     number of iterations used =           10  plain     mixing
     Exchange-correlation      = BEEF-VDW ( 1  4 27 13 2)
     nstep                     =           50

     celldm(1)=   1.889726  celldm(2)=   0.000000  celldm(3)=   0.000000
     celldm(4)=   0.000000  celldm(5)=   0.000000  celldm(6)=   0.000000

     crystal axes: (cart. coord. in units of alat)
               a(1) = (   6.795426   0.000000   0.000000 )
               a(2) = (   3.397713   5.885012   0.000000 )
               a(3) = (   0.000000   0.000000  25.548442 )

     reciprocal axes: (cart. coord. in units 2 pi/alat)
               b(1) = (  0.147158 -0.084962  0.000000 )
               b(2) = (  0.000000  0.169923  0.000000 )
               b(3) = (  0.000000  0.000000  0.039141 )

     PseudoPot. # 1 for Bi read from file:
     /home/mamunm/src/pseudo/gbrv1.5pbe/Bi.UPF
     MD5 check sum: 81103212dc04adf40945787f699eab19
     Pseudo is Ultrasoft + core correction, Zval = 15.0
     Generated by new atomic code, or converted to UPF format
     Using radial grid of  899 points,  6 beta functions with:
                l(1) =   0
                l(2) =   0
                l(3) =   1
                l(4) =   1
                l(5) =   2
                l(6) =   2
     Q(r) pseudized with  6 coefficients,  rinner =    1.000   1.000   1.000
                                                       1.000   1.000

     PseudoPot. # 2 for Pt read from file:
     /home/mamunm/src/pseudo/gbrv1.5pbe/Pt.UPF
     MD5 check sum: f09d6de1a584b5a045c4fc126da2d0c4
     Pseudo is Ultrasoft + core correction, Zval = 16.0
     Generated by new atomic code, or converted to UPF format
     Using radial grid of  985 points,  6 beta functions with:
                l(1) =   0
                l(2) =   0
                l(3) =   1
                l(4) =   1
                l(5) =   2
                l(6) =   2
     Q(r) pseudized with  8 coefficients,  rinner =    1.300   1.300   1.300
                                                       1.300   1.300

     vdW kernel table read from file vdW_kernel_table
     MD5 check sum: 095c7af220d748ca6e76c0b4c6cfb241

     atomic species   valence    mass     pseudopotential
        Bi1           15.00   208.98040     Bi( 1.00)
        Pt1           16.00   195.08400     Pt( 1.00)

     No symmetry found

   Cartesian axes

     site n.     atom                  positions (alat units)
         1           Bi1 tau(   1) = (   0.0000000   0.0000000  10.0000000  )
         2           Pt1 tau(   2) = (   1.6988565   2.9425058  10.0000000  )
         3           Bi1 tau(   3) = (   3.3977130   0.0000000  10.0000000  )
         4           Bi1 tau(   4) = (   5.0965695   2.9425058  10.0000000  )
         5           Bi1 tau(   5) = (   6.7954260   3.9233410  12.7742211  )
         6           Pt1 tau(   6) = (   5.0965695   0.9808353  12.7742211  )
         7           Bi1 tau(   7) = (   3.3977130   3.9233410  12.7742211  )
         8           Bi1 tau(   8) = (   1.6988565   0.9808353  12.7742211  )
         9           Bi1 tau(   9) = (   3.3977130   1.9616705  15.5484421  )
        10           Pt1 tau(  10) = (   5.0965695   4.9041763  15.5484421  )
        11           Bi1 tau(  11) = (   6.7954260   1.9616705  15.5484421  )
        12           Bi1 tau(  12) = (   8.4942825   4.9041763  15.5484421  )

     number of k points=    20  Fermi-Dirac smearing, width (Ry)=  0.0110
                       cart. coord. in units 2pi/alat
        k(    1) = (   0.0000000   0.0000000   0.0000000), wk =   0.0555556
        k(    2) = (   0.0000000   0.0283205   0.0000000), wk =   0.1111111
        k(    3) = (   0.0000000   0.0566411   0.0000000), wk =   0.1111111
        k(    4) = (   0.0000000  -0.0849616   0.0000000), wk =   0.0555556
        k(    5) = (   0.0245263  -0.0141603   0.0000000), wk =   0.1111111
        k(    6) = (   0.0245263   0.0141603   0.0000000), wk =   0.1111111
        k(    7) = (   0.0245263   0.0424808   0.0000000), wk =   0.1111111
        k(    8) = (   0.0245263  -0.0991219   0.0000000), wk =   0.1111111
        k(    9) = (   0.0245263  -0.0708013   0.0000000), wk =   0.1111111
        k(   10) = (   0.0245263  -0.0424808   0.0000000), wk =   0.1111111
        k(   11) = (   0.0490526  -0.0283205   0.0000000), wk =   0.1111111
        k(   12) = (   0.0490526   0.0000000   0.0000000), wk =   0.1111111
        k(   13) = (   0.0490526   0.0283205   0.0000000), wk =   0.1111111
        k(   14) = (   0.0490526  -0.1132821   0.0000000), wk =   0.1111111
        k(   15) = (   0.0490526  -0.0849616   0.0000000), wk =   0.1111111
        k(   16) = (   0.0490526  -0.0566411   0.0000000), wk =   0.1111111
        k(   17) = (  -0.0735789   0.0424808   0.0000000), wk =   0.0555556
        k(   18) = (  -0.0735789   0.0708013   0.0000000), wk =   0.1111111
        k(   19) = (  -0.0735789   0.0991219   0.0000000), wk =   0.1111111
        k(   20) = (  -0.0735789  -0.0424808   0.0000000), wk =   0.0555556

     Largest allocated arrays     est. size (Mb)     dimensions
     Largest temporary arrays     est. size (Mb)     dimensions

     Check: negative/imaginary core charge=   -0.000001    0.000000

     Initial potential from superposition of free atoms
     Check: negative starting charge=   -0.930242

     starting charge  172.49959, renormalised to  183.00000

     negative rho (up, down):  9.869E-01 0.000E+00

     *
     * You are using vdW-DF for exchange-correlation in this calculation.
     * Please cite the following three references that made this development
     * possible:
     *
     *   M. Dion, H. Rydberg, E. Schroder, D. C. Langreth, and
     *   B. I. Lundqvist, Phys. Rev. Lett. 92, 246401 (2004).
     *
     *   T. Thonhauser, V. R. Cooper, S. Li, A. Puzder, P. Hyldgaard, and
     *   D. C. Langreth, Phys. Rev. B 76, 125112 (2007).
     *
     *   G. Roman-Perez and J. M. Soler, Phys. Rev. Lett. 103, 096102 (2009).
     *
     *
     * If you are using vdW-DF2, please also cite:
     *
     *   K. Lee, E. D. Murray, L. Kong, B. I. Lundqvist, and
     *   D. C. Langreth, Phys. Rev. B 82, 081101(R) (2010).
     *
     *
     * If you are calculating the stress with vdW-DF, please also cite:
     *
     *   R. Sabatini, E. Kucukbenli, B. Kolb, T. Thonhauser, and
     *   S. de Gironcoli, J. Phys.: Condens. Matter 24, 424209 (2012).
     *

     Carrying out vdW-DF run using the following parameters:

     Nqs =      20    Nr_points =    1024   r_max =   100.000
     q_mesh =
               0.00001000     0.04494208     0.09755937     0.15916263
               0.23128650     0.31572767     0.41458969     0.53033537
               0.66584808     0.82450364     1.01025438     1.22772762
               1.48234092     1.78043706     2.12944203     2.53805004
               3.01644009     3.57652955     4.23227104     5.00000000

     Gradients computed in reciprocal space

     Adding external electric field

     Computed dipole along edir(3) :
        Dipole               -0.0000 Ry au,         -0.0000 Debye
        Dipole field         -0.0000 Ry au

        Potential amp.        0.0000 Ry
        Total length         47.0726 bohr

     Starting wfc are  117 randomized atomic wfcs

     Self-consistent Calculation

     iteration #  1     ecut=    36.75 Ry     beta=0.30
     Davidson diagonalization with overlap
     ethr =  1.00E-02,  avg # of iterations =  3.6

[...]

     total energy              =   -2301.39414445 Ry
     Harris-Foulkes estimate   =   -2327.70419816 Ry
     estimated scf accuracy    <      55.87710256 Ry

[...]

     End of self-consistent calculation

          k = 0.0000 0.0000 0.0000 ( 26049 PWs)   bands (ev):

   -50.9821 -50.9058 -50.9058 -50.4191 -50.4191 -50.4191 -50.4191 -50.2846
   -50.2844 -22.6296 -22.6235 -22.6235 -22.5645 -22.5561 -22.5561 -22.5428
   -22.5233 -22.5100 -22.5100 -22.4831 -22.4830 -22.4517 -22.4517 -22.4144
   -22.3790 -22.3765 -22.3587 -22.3587 -22.3536 -22.3536 -22.3073 -22.2991
   -22.2753 -22.2753 -22.2668 -22.2610 -22.2587 -22.2587 -22.2380 -22.2357
   -22.2357 -22.2326 -22.2326 -22.2226 -22.2226 -22.2225 -22.2147 -22.2147
   -22.1929 -22.1929 -22.1857 -22.1857 -22.1506 -22.1491 -11.9724 -10.9597
   -10.0386  -9.4869  -9.4869  -8.8543  -8.8543  -8.4225  -8.4225  -4.0760
    -3.4888  -3.1125  -2.6838  -2.6838  -2.5401  -1.9948  -1.9948  -1.7233
    -1.7233  -1.4332  -0.9808  -0.9808  -0.9036  -0.8212  -0.8212  -0.6231
    -0.6231  -0.4315  -0.4315  -0.4216  -0.4216  -0.3455  -0.3455  -0.3078
    -0.3011   0.2432   0.3896   1.3470   1.7210   1.7210   1.7934   1.7934
     2.5552   3.0786   3.6095   3.6095   4.1953

[...]

          k =-0.0736 0.0425 0.0000 ( 25918 PWs)   bands (ev):

[...]

     the Fermi energy is     1.1058 ev

!    total energy              =   -2321.37909974 Ry
     Harris-Foulkes estimate   =   -2321.37909976 Ry
     estimated scf accuracy    <       0.00000008 Ry

     The total energy is the sum of the following terms:

     one-electron contribution =  -11734.20015220 Ry
     hartree contribution      =    5915.96726146 Ry
     xc contribution           =    -774.75362230 Ry
     ewald contribution        =    4271.64859783 Ry
     electric field correction =       0.00000000 Ry
     smearing contrib. (-TS)   =      -0.04118452 Ry

     convergence has been achieved in  17 iterations

 BEEF-vdW xc energy contributions
           1 :   -690.584043568617
           2 :    641.720987284173
           3 :   -555.357972598308
           4 :    450.011260008562
           5 :   -345.171888433839
           6 :    255.628826484746
           7 :   -188.192299317018
           8 :    141.627244344293
           9 :   -109.395213904003
          10 :    83.7374448659264
          11 :   -59.2593271151521
          12 :    34.6090659916106
          13 :   -11.8934893670435
          14 :   -5.46842615177138
          15 :    15.1448994576378
          16 :   -17.3369343194133
          17 :    14.6968364630109
          18 :   -10.9752104268555
          19 :    9.23272262170394
          20 :   -10.5736041757041
          21 :    13.9866123126753
          22 :   -17.2584113351738
          23 :    18.3723360587333
          24 :   -16.6230514398328
          25 :    12.8999870253976
          26 :   -9.08189396195758
          27 :    6.94844412184102
          28 :   -7.23214876272664
          29 :    9.30263621244944
          30 :   -11.6058761436517
          31 :   -55.3383263002007
          32 :   -40.6619274877288

     Forces acting on atoms (Ry/au):

     negative rho (up, down):  9.227E-01 0.000E+00
     atom    1 type  1   force =    -0.01397873    0.00806985    0.00413731
     atom    2 type  2   force =    -0.00000020   -0.00000021    0.04209041
     atom    3 type  1   force =     0.01397788    0.00806966    0.00413679
     atom    4 type  1   force =     0.00000025   -0.01614055    0.00413538
     atom    5 type  1   force =     0.00000757   -0.00000486    0.00002001
     atom    6 type  2   force =    -0.00000003    0.00000020   -0.00003207
     atom    7 type  1   force =    -0.00000775   -0.00000416    0.00001916
     atom    8 type  1   force =    -0.00000039    0.00000802    0.00002047
     atom    9 type  1   force =     0.01396388   -0.00806237   -0.00414316
     atom   10 type  2   force =     0.00000035    0.00000076   -0.04209597
     atom   11 type  1   force =    -0.01396264   -0.00806015   -0.00414468
     atom   12 type  1   force =    -0.00000020    0.01612380   -0.00414365

     Total force =     0.051024     Total SCF correction =     0.000110

     entering subroutine stress ...

     negative rho (up, down):  9.227E-01 0.000E+00
          total   stress  (Ry/bohr**3)                   (kbar)     P=  -14.14
  -0.00009594   0.00000000   0.00000000        -14.11      0.00      0.00
   0.00000000  -0.00009594  -0.00000000          0.00    -14.11     -0.00
   0.00000000  -0.00000000  -0.00009644          0.00     -0.00    -14.19

     BFGS Geometry Optimization

     number of scf cycles    =   1
     number of bfgs steps    =   0

     energy   new            =   -2321.3790997356 Ry

     new trust radius        =       0.0420959662 bohr
     new conv_thr            =       0.0000099958 Ry

ATOMIC_POSITIONS (crystal)
Bi1      0.000000000   0.000000000   0.391413298    0   0   0
Pt1      0.000000000   0.500000000   0.391413298    0   0   0
Bi1      0.500000000   0.000000000   0.391413298    0   0   0
Bi1      0.500000000   0.500000000   0.391413298    0   0   0
Bi1      0.666666667   0.666666667   0.500000000    0   0   0
Pt1      0.666666667   0.166666667   0.500000000    0   0   0
Bi1      0.166666667   0.666666667   0.500000000    0   0   0
Bi1      0.166666667   0.166666667   0.500000000    0   0   0
Bi1      0.334783218   0.332608369   0.608500885
Pt1      0.333333326   0.833333402   0.607714780
Bi1      0.832608409   0.332608569   0.608500854
Bi1      0.832608396   0.834783177   0.608500875

     Writing output data file calc.save
     Check: negative starting charge=   -0.930242
     NEW-OLD atomic charge density approx. for the potential

     Check: negative/imaginary core charge=   -0.000001    0.000000
     Check: negative starting charge=   -0.930890

[...]

     energy   old            =   -2321.3790997356 Ry
     energy   new            =   -2321.3816619544 Ry

     CASE: energy  _new < energy  _old

     WARNING: bfgs curvature condition failed, Theta= 0.779
     new trust radius        =       0.0463055629 bohr
     new conv_thr            =       0.0000001000 Ry

[...]

     iteration #  1     ecut=    36.75 Ry     beta=0.30
     Davidson diagonalization with overlap
     c_bands:  1 eigenvalues not converged
     c_bands:  1 eigenvalues not converged
     c_bands:  1 eigenvalues not converged
     c_bands:  1 eigenvalues not converged
     c_bands:  1 eigenvalues not converged
     c_bands:  1 eigenvalues not converged
     c_bands:  1 eigenvalues not converged
     c_bands:  1 eigenvalues not converged
     c_bands:  1 eigenvalues not converged
     ethr =  1.00E-06,  avg # of iterations = 14.1

[...]

     Total force =     0.015150     Total SCF correction =     0.000702

[...]

     Total force =     0.004514     Total SCF correction =     0.001226
     SCF correction compared to forces is large: reduce conv_thr to get better values

[...]

     WARNING: bfgs curvature condition failed, Theta= 0.863
     new trust radius        =       0.0091100883 bohr
     new conv_thr            =       0.0000001000 Ry

[...]

     number of scf cycles    =  17
     number of bfgs steps    =  16

     energy   old            =   -2321.4272666417 Ry
     energy   new            =   -2321.4273043012 Ry

     CASE: energy  _new < energy  _old

     new trust radius        =       0.0112672183 bohr
     new conv_thr            =       0.0000001000 Ry

ATOMIC_POSITIONS (crystal)
Bi1      0.000000000   0.000000000   0.391413298    0   0   0
Pt1      0.000000000   0.500000000   0.391413298    0   0   0
Bi1      0.500000000   0.000000000   0.391413298    0   0   0
Bi1      0.500000000   0.500000000   0.391413298    0   0   0
Bi1      0.666666667   0.666666667   0.500000000    0   0   0
Pt1      0.666666667   0.166666667   0.500000000    0   0   0
Bi1      0.166666667   0.666666667   0.500000000    0   0   0
Bi1      0.166666667   0.166666667   0.500000000    0   0   0
Bi1      0.353715662   0.323141018   0.603019422
Pt1      0.333336052   0.833331637   0.581269880
Bi1      0.823135841   0.323147236   0.603019673
Bi1      0.823142232   0.853721226   0.603019186

     Writing output data file calc.save
     Check: negative starting charge=   -0.929306
     NEW-OLD atomic charge density approx. for the potential

     Check: negative/imaginary core charge=   -0.000001    0.000000
     Check: negative starting charge=   -0.929063

[...]

     Self-consistent Calculation

[...]

     total energy              =   -2321.42732777 Ry
     Harris-Foulkes estimate   =   -2321.42732775 Ry
     estimated scf accuracy    <       0.00000036 Ry

     iteration #  8     ecut=    36.75 Ry     beta=0.30
     Davidson diagonalization with overlap
     ethr =  1.97E-10,  avg # of iterations =  2.0

[...]

     negative rho (up, down):  9.229E-01 0.000E+00

     Adding external electric field

     Computed dipole along edir(3) :
        Dipole                0.1106 Ry au,          0.2812 Debye
        Dipole field          0.0002 Ry au

        Potential amp.       -0.0190 Ry
        Total length         47.0726 bohr

     End of self-consistent calculation

[...]

          k = 0.0491-0.0566 0.0000 ( 25930 PWs)   bands (ev):

[...]

          k =-0.0736-0.0425 0.0000 ( 25918 PWs)   bands (ev):

   -51.0215 -50.9959 -50.9672 -50.9672 -50.8906 -50.8906 -50.1676 -50.1676
   -50.0070 -22.4832 -22.4218 -22.4148 -22.4120 -22.4004 -22.3957 -22.3886
   -22.3820 -22.3808 -22.3754 -22.3634 -22.3527 -22.3485 -22.3279 -22.3211
   -22.2964 -22.2867 -22.2713 -22.2346 -22.2051 -22.1974 -22.1934 -22.1931
   -22.1882 -22.1747 -22.1711 -22.1629 -22.1596 -22.1482 -22.1400 -22.1275
   -22.1247 -22.1085 -22.1047 -22.1034 -22.1022 -22.0928 -22.0896 -22.0871
   -22.0832 -22.0786 -22.0729 -22.0657 -22.0522 -22.0125 -11.2658 -11.0647
   -10.3203  -9.7104  -9.6711  -9.4907  -8.9466  -8.7842  -8.2341  -3.9799
    -3.3835  -2.8114  -2.3217  -2.2610  -2.0787  -1.8994  -1.7851  -1.7703
    -1.5946  -1.4255  -1.3655  -1.1775  -1.0514  -0.9193  -0.8422  -0.7024
    -0.5215  -0.3528  -0.3184  -0.1675  -0.1158  -0.0278   0.0430   0.4526
     0.4879   0.6995   0.7107   0.9355   1.1811   1.5464   2.0003   2.2857
     2.3207   2.4974   2.8816   3.1377   3.3810

     the Fermi energy is     1.2720 ev

!    total energy              =   -2321.42732771 Ry
     Harris-Foulkes estimate   =   -2321.42732813 Ry
     estimated scf accuracy    <       0.00000010 Ry

     The total energy is the sum of the following terms:

     one-electron contribution =  -12210.36989519 Ry
     hartree contribution      =    6154.42880826 Ry
     xc contribution           =    -775.06287278 Ry
     ewald contribution        =    4509.61208839 Ry
     electric field correction =       0.00002231 Ry
     smearing contrib. (-TS)   =      -0.03547869 Ry

     convergence has been achieved in   8 iterations

 BEEF-vdW xc energy contributions
           1 :   -690.914765200505
           2 :    642.224323073524
           3 :   -556.077050594928
           4 :    450.807184892635
           5 :   -345.784753181993
           6 :    255.819996027708
           7 :   -187.888139420486
           8 :    140.980694245471
           9 :   -108.727254385511
          10 :    83.3844398082551
          11 :   -59.4048057851570
          12 :    35.1894086264130
          13 :   -12.6291878157189
          14 :   -4.93092236331711
          15 :    15.0530215387563
          16 :   -17.7068894910386
          17 :    15.3090018481122
          18 :   -11.4924243590732
          19 :    9.37838280110395
          20 :   -10.2753366561179
          21 :    13.4093037842987
          22 :   -16.7108958435549
          23 :    18.1401290648936
          24 :   -16.8174034010575
          25 :    13.4032161045637
          26 :   -9.61597793573446
          27 :    7.22738366952092
          28 :   -7.11493128472330
          29 :    8.86479983819891
          30 :   -11.0930299933513
          31 :   -55.3652272721479
          32 :   -40.7297075408711

     Forces acting on atoms (Ry/au):

     negative rho (up, down):  9.229E-01 0.000E+00
     atom    1 type  1   force =    -0.01546765    0.00893021    0.00600901
     atom    2 type  2   force =     0.00000005    0.00000000    0.02844537
     atom    3 type  1   force =     0.01546736    0.00893061    0.00600908
     atom    4 type  1   force =     0.00000015   -0.01786067    0.00600912
     atom    5 type  1   force =     0.00527717   -0.00304626   -0.01697794
     atom    6 type  2   force =     0.00000004    0.00000015    0.00419284
     atom    7 type  1   force =    -0.00527599   -0.00304615   -0.01697690
     atom    8 type  1   force =    -0.00000082    0.00609191   -0.01697572
     atom    9 type  1   force =    -0.00001551    0.00000850   -0.00015353
     atom   10 type  2   force =    -0.00000033   -0.00000029    0.00072723
     atom   11 type  1   force =     0.00001523    0.00000958   -0.00015438
     atom   12 type  1   force =     0.00000031   -0.00001759   -0.00015417

     Total force =     0.000775     Total SCF correction =     0.001187
     SCF correction compared to forces is large: reduce conv_thr to get better values

     entering subroutine stress ...

     negative rho (up, down):  9.229E-01 0.000E+00
          total   stress  (Ry/bohr**3)                   (kbar)     P=   -6.26
  -0.00003797  -0.00000000  -0.00000000         -5.59     -0.00     -0.00
  -0.00000000  -0.00003797   0.00000000         -0.00     -5.59      0.00
  -0.00000000   0.00000000  -0.00005167         -0.00      0.00     -7.60

     bfgs converged in  18 scf cycles and  17 bfgs steps
     (criteria: energy <  1.0E+00, force <  1.9E-03)

     End of BFGS Geometry Optimization

     Final energy   =   -2321.4273277104 Ry
Begin final coordinates

ATOMIC_POSITIONS (crystal)
Bi1      0.000000000   0.000000000   0.391413298    0   0   0
Pt1      0.000000000   0.500000000   0.391413298    0   0   0
Bi1      0.500000000   0.000000000   0.391413298    0   0   0
Bi1      0.500000000   0.500000000   0.391413298    0   0   0
Bi1      0.666666667   0.666666667   0.500000000    0   0   0
Pt1      0.666666667   0.166666667   0.500000000    0   0   0
Bi1      0.166666667   0.666666667   0.500000000    0   0   0
Bi1      0.166666667   0.166666667   0.500000000    0   0   0
Bi1      0.353715662   0.323141018   0.603019422
Pt1      0.333336052   0.833331637   0.581269880
Bi1      0.823135841   0.323147236   0.603019673
Bi1      0.823142232   0.853721226   0.603019186
End final coordinates

     Writing output data file calc.save

     General routines

     Parallel routines

   This run was terminated on:  20:36:47  23Feb2018

   JOB DONE.