     Program PWSCF v.5.1rc2 (svn rev. ) starts on 23Feb2018 at 19:12:44

     Current dimensions of program PWSCF are:
     Max number of different atomic species (ntypx) = 10
     Max number of k-points (npk) =  40000
     Max angular momentum in pseudopotentials (lmaxx) =  3
     Presently stress not available with electric field

     IMPORTANT: XC functional enforced from input :
     Exchange-correlation      = BEEF-VDW ( 1  4 27 13 2)
     Any further DFT definition will be discarded
     Please, verify this is what you really want

     Subspace diagonalization in iterative solution of the eigenvalue problem:
     a serial algorithm will be used

     bravais-lattice index     =            0
     lattice parameter (alat)  =       1.8897  a.u.
     unit-cell volume          =    7267.8225 (a.u.)^3
     number of atoms/cell      =           12
     number of atomic types    =            2
     number of electrons       =       168.00
     number of Kohn-Sham states=           94
     kinetic-energy cutoff     =      36.7493  Ry
     charge density cutoff     =     367.4932  Ry
     convergence threshold     =      1.0E-05
     mixing beta               =       0.3000
     number of iterations used =           10  plain     mixing
     Exchange-correlation      = BEEF-VDW ( 1  4 27 13 2)
     nstep                     =           50

     celldm(1)=   1.889726  celldm(2)=   0.000000  celldm(3)=   0.000000
     celldm(4)=   0.000000  celldm(5)=   0.000000  celldm(6)=   0.000000

     crystal axes: (cart. coord. in units of alat)
               a(1) = (   6.958672   0.000000   0.000000 )
               a(2) = (   3.479336   6.026387   0.000000 )
               a(3) = (   0.000000   0.000000  25.681732 )

     reciprocal axes: (cart. coord. in units 2 pi/alat)
               b(1) = (  0.143706 -0.082968  0.000000 )
               b(2) = (  0.000000  0.165937 -0.000000 )
               b(3) = (  0.000000  0.000000  0.038938 )

     PseudoPot. # 1 for Bi read from file:
     /home/mamunm/src/pseudo/gbrv1.5pbe/Bi.UPF
     MD5 check sum: 81103212dc04adf40945787f699eab19
     Pseudo is Ultrasoft + core correction, Zval = 15.0
     Generated by new atomic code, or converted to UPF format
     Using radial grid of  899 points,  6 beta functions with:
                l(1) =   0
                l(2) =   0
                l(3) =   1
                l(4) =   1
                l(5) =   2
                l(6) =   2
     Q(r) pseudized with  6 coefficients,  rinner =    1.000   1.000   1.000
                                                       1.000   1.000

     PseudoPot. # 2 for Sc read from file:
     /home/mamunm/src/pseudo/gbrv1.5pbe/Sc.UPF
     MD5 check sum: db30a2753ba66ef00f23801d899b7e7f
     Pseudo is Ultrasoft + core correction, Zval = 11.0
     Generated by new atomic code, or converted to UPF format
     Using radial grid of  849 points,  6 beta functions with:
                l(1) =   0
                l(2) =   0
                l(3) =   1
                l(4) =   1
                l(5) =   2
                l(6) =   2
     Q(r) pseudized with  6 coefficients,  rinner =    1.200   1.200   1.200
                                                       1.200   1.200

     vdW kernel table read from file vdW_kernel_table
     MD5 check sum: 095c7af220d748ca6e76c0b4c6cfb241

     atomic species   valence    mass     pseudopotential
        Bi1           15.00   208.98040     Bi( 1.00)
        Sc1           11.00    44.95591     Sc( 1.00)

     No symmetry found

   Cartesian axes

     site n.     atom                  positions (alat units)
         1           Bi1 tau(   1) = (   0.0000000   0.0000000  10.0000000  )
         2           Sc1 tau(   2) = (   1.7396681   3.0131935  10.0000000  )
         3           Bi1 tau(   3) = (   3.4793361   0.0000000  10.0000000  )
         4           Bi1 tau(   4) = (   5.2190042   3.0131935  10.0000000  )
         5           Bi1 tau(   5) = (   6.9586723   4.0175913  12.8408661  )
         6           Sc1 tau(   6) = (   5.2190042   1.0043978  12.8408661  )
         7           Bi1 tau(   7) = (   3.4793361   4.0175913  12.8408661  )
         8           Bi1 tau(   8) = (   1.7396681   1.0043978  12.8408661  )
         9           Bi1 tau(   9) = (   3.4793361   2.0087957  15.6817321  )
        10           Sc1 tau(  10) = (   5.2190042   5.0219891  15.6817321  )
        11           Bi1 tau(  11) = (   6.9586723   2.0087957  15.6817321  )
        12           Bi1 tau(  12) = (   8.6983403   5.0219891  15.6817321  )

     number of k points=    20  Fermi-Dirac smearing, width (Ry)=  0.0110
                       cart. coord. in units 2pi/alat
        k(    1) = (   0.0000000   0.0000000   0.0000000), wk =   0.0555556
        k(    2) = (   0.0000000   0.0276562  -0.0000000), wk =   0.1111111
        k(    3) = (   0.0000000   0.0553123  -0.0000000), wk =   0.1111111
        k(    4) = (   0.0000000  -0.0829685   0.0000000), wk =   0.0555556
        k(    5) = (   0.0239509  -0.0138281   0.0000000), wk =   0.1111111
        k(    6) = (   0.0239509   0.0138281  -0.0000000), wk =   0.1111111
        k(    7) = (   0.0239509   0.0414842  -0.0000000), wk =   0.1111111
        k(    8) = (   0.0239509  -0.0967965   0.0000000), wk =   0.1111111
        k(    9) = (   0.0239509  -0.0691404   0.0000000), wk =   0.1111111
        k(   10) = (   0.0239509  -0.0414842   0.0000000), wk =   0.1111111
        k(   11) = (   0.0479019  -0.0276562   0.0000000), wk =   0.1111111
        k(   12) = (   0.0479019   0.0000000  -0.0000000), wk =   0.1111111
        k(   13) = (   0.0479019   0.0276562  -0.0000000), wk =   0.1111111
        k(   14) = (   0.0479019  -0.1106246   0.0000000), wk =   0.1111111
        k(   15) = (   0.0479019  -0.0829685   0.0000000), wk =   0.1111111
        k(   16) = (   0.0479019  -0.0553123   0.0000000), wk =   0.1111111
        k(   17) = (  -0.0718528   0.0414842  -0.0000000), wk =   0.0555556
        k(   18) = (  -0.0718528   0.0691404  -0.0000000), wk =   0.1111111
        k(   19) = (  -0.0718528   0.0967965  -0.0000000), wk =   0.1111111
        k(   20) = (  -0.0718528  -0.0414842   0.0000000), wk =   0.0555556

     Largest allocated arrays     est. size (Mb)     dimensions
     Largest temporary arrays     est. size (Mb)     dimensions

     Check: negative/imaginary core charge=   -0.000001    0.000000

     Initial potential from superposition of free atoms
     Check: negative starting charge=   -0.375820

     starting charge  158.99242, renormalised to  168.00000

     negative rho (up, down):  3.971E-01 0.000E+00

     *
     * You are using vdW-DF for exchange-correlation in this calculation.
     * Please cite the following three references that made this development
     * possible:
     *
     *   M. Dion, H. Rydberg, E. Schroder, D. C. Langreth, and
     *   B. I. Lundqvist, Phys. Rev. Lett. 92, 246401 (2004).
     *
     *   T. Thonhauser, V. R. Cooper, S. Li, A. Puzder, P. Hyldgaard, and
     *   D. C. Langreth, Phys. Rev. B 76, 125112 (2007).
     *
     *   G. Roman-Perez and J. M. Soler, Phys. Rev. Lett. 103, 096102 (2009).
     *
     *
     * If you are using vdW-DF2, please also cite:
     *
     *   K. Lee, E. D. Murray, L. Kong, B. I. Lundqvist, and
     *   D. C. Langreth, Phys. Rev. B 82, 081101(R) (2010).
     *
     *
     * If you are calculating the stress with vdW-DF, please also cite:
     *
     *   R. Sabatini, E. Kucukbenli, B. Kolb, T. Thonhauser, and
     *   S. de Gironcoli, J. Phys.: Condens. Matter 24, 424209 (2012).
     *

     Carrying out vdW-DF run using the following parameters:

     Nqs =      20    Nr_points =    1024   r_max =   100.000
     q_mesh =
               0.00001000     0.04494208     0.09755937     0.15916263
               0.23128650     0.31572767     0.41458969     0.53033537
               0.66584808     0.82450364     1.01025438     1.22772762
               1.48234092     1.78043706     2.12944203     2.53805004
               3.01644009     3.57652955     4.23227104     5.00000000

     Gradients computed in reciprocal space

     Adding external electric field

     Computed dipole along edir(3) :
        Dipole               -0.0000 Ry au,         -0.0000 Debye
        Dipole field         -0.0000 Ry au

        Potential amp.        0.0000 Ry
        Total length         47.3182 bohr

     Starting wfc are  120 randomized atomic wfcs

     Self-consistent Calculation

     iteration #  1     ecut=    36.75 Ry     beta=0.30
     Davidson diagonalization with overlap
     ethr =  1.00E-02,  avg # of iterations =  3.0

[...]

     total energy              =   -1968.72080268 Ry
     Harris-Foulkes estimate   =   -1971.29962073 Ry
     estimated scf accuracy    <       5.79337850 Ry

[...]

     End of self-consistent calculation

          k = 0.0000 0.0000 0.0000 ( 27393 PWs)   bands (ev):

   -50.0931 -50.0929 -49.7238 -28.7663 -28.7658 -28.5975 -28.5974 -28.5973
   -28.5973 -28.3251 -28.3251 -28.2110 -22.4693 -22.4497 -22.4496 -22.4367
   -22.3981 -22.3979 -22.3509 -22.3508 -22.3487 -22.3487 -22.3170 -22.3169
   -22.2994 -22.2993 -22.2451 -22.1619 -22.1608 -22.1272 -22.1272 -22.1222
   -22.1222 -22.0989 -22.0931 -22.0562 -22.0562 -22.0529 -22.0528 -22.0261
   -22.0249 -22.0208 -22.0208 -22.0161 -22.0161 -21.9988 -21.9988 -21.9987
   -21.9950 -21.9950 -21.9896 -21.9883 -21.9882 -21.9839 -21.9839 -21.9480
   -21.9475 -11.6851 -10.7153  -9.9330  -9.4798  -9.4796  -8.8478  -8.8478
    -8.4982  -8.4982  -3.8424  -3.0566  -2.9854  -2.7623  -2.7623  -2.4406
    -2.0661  -2.0661  -1.6471  -1.6471  -1.0306   0.4333   0.4333   0.4489
     0.4490   0.8702   1.4411   1.6486   1.6575   1.6575   1.6730   1.7566
     1.7566   1.8013   1.8014   1.8343   2.0868   2.0868

[...]

          k =-0.0719 0.0415-0.0000 ( 27314 PWs)   bands (ev):

[...]

     the Fermi energy is     1.0946 ev

!    total energy              =   -1969.01493054 Ry
     Harris-Foulkes estimate   =   -1969.01493431 Ry
     estimated scf accuracy    <       0.00000464 Ry

     The total energy is the sum of the following terms:

     one-electron contribution =   -9418.09139717 Ry
     hartree contribution      =    4744.04457747 Ry
     xc contribution           =    -640.63044376 Ry
     ewald contribution        =    3345.72141643 Ry
     electric field correction =       0.00000001 Ry
     smearing contrib. (-TS)   =      -0.05908352 Ry

     convergence has been achieved in  15 iterations

 BEEF-vdW xc energy contributions
           1 :   -569.316550748591
           2 :    527.375112298142
           3 :   -454.325069516567
           4 :    367.182642828379
           5 :   -282.742755294394
           6 :    212.562160643759
           7 :   -160.997331117290
           8 :    126.128808346941
           9 :   -102.366703059588
          10 :    83.4212752536030
          11 :   -64.7137144700897
          12 :    44.6741964190248
          13 :   -24.6856216808873
          14 :    7.79692488400644
          15 :    3.20180262371582
          16 :   -7.42916280309009
          17 :    6.45663953694350
          18 :   -3.49378084902298
          19 :    1.72563976885215
          20 :   -2.79274049598439
          21 :    6.25184605066295
          22 :   -10.1982365119654
          23 :    12.5371779372148
          24 :   -12.1313499179435
          25 :    9.27618033563328
          26 :   -5.40875700727679
          27 :    2.31751023098229
          28 :   -1.27088022477199
          29 :    2.45042756854173
          30 :   -4.92407723604140
          31 :   -46.6839445949651
          32 :   -34.2494156332264

     Forces acting on atoms (Ry/au):

     negative rho (up, down):  3.964E-01 0.000E+00
     atom    1 type  1   force =    -0.01386536    0.00801022   -0.00410199
     atom    2 type  2   force =    -0.00001144    0.00000263    0.04152582
     atom    3 type  1   force =     0.01386903    0.00797515   -0.00408713
     atom    4 type  1   force =     0.00002724   -0.01599851   -0.00409018
     atom    5 type  1   force =     0.00010770   -0.00005668    0.00013559
     atom    6 type  2   force =    -0.00000165   -0.00000174   -0.00012880
     atom    7 type  1   force =    -0.00010704   -0.00006259    0.00013468
     atom    8 type  1   force =     0.00000471    0.00012383    0.00012899
     atom    9 type  1   force =     0.01372075   -0.00792269    0.00409946
     atom   10 type  2   force =     0.00000869   -0.00000614   -0.04179790
     atom   11 type  1   force =    -0.01372297   -0.00789128    0.00408770
     atom   12 type  1   force =    -0.00002965    0.01582782    0.00409376

     Total force =     0.050492     Total SCF correction =     0.003274

     entering subroutine stress ...

     negative rho (up, down):  3.964E-01 0.000E+00
          total   stress  (Ry/bohr**3)                   (kbar)     P=   -9.88
  -0.00007303  -0.00000001   0.00000000        -10.74     -0.00      0.00
  -0.00000001  -0.00007304   0.00000000         -0.00    -10.74      0.00
   0.00000000   0.00000000  -0.00005536          0.00      0.00     -8.14

     BFGS Geometry Optimization

     number of scf cycles    =   1
     number of bfgs steps    =   0

     energy   new            =   -1969.0149305354 Ry

     new trust radius        =       0.0417978994 bohr
     new conv_thr            =       0.0000099958 Ry

ATOMIC_POSITIONS (crystal)
Bi1      0.000000000  -0.000000000   0.389381836    0   0   0
Sc1     -0.000000000   0.500000000   0.389381836    0   0   0
Bi1      0.500000000  -0.000000000   0.389381836    0   0   0
Bi1      0.500000000   0.500000000   0.389381836    0   0   0
Bi1      0.666666667   0.666666667   0.500000000    0   0   0
Sc1      0.666666667   0.166666667   0.500000000    0   0   0
Bi1      0.166666667   0.666666667   0.500000000    0   0   0
Bi1      0.166666667   0.166666667   0.500000000    0   0   0
Bi1      0.334724583   0.332637642   0.610702634
Sc1      0.333334264   0.833332794   0.609756910
Bi1      0.832636227   0.332640400   0.610702392
Bi1      0.832636158   0.834723174   0.610702517

     Writing output data file calc.save
     Check: negative starting charge=   -0.375820
     NEW-OLD atomic charge density approx. for the potential

     Check: negative/imaginary core charge=   -0.000001    0.000000
     Check: negative starting charge=   -0.375796

[...]

     energy   old            =   -1969.0149305354 Ry
     energy   new            =   -1969.0227174592 Ry

     CASE: energy  _new < energy  _old

     WARNING: bfgs curvature condition failed, Theta= 0.814
     new trust radius        =       0.0459776894 bohr
     new conv_thr            =       0.0000001000 Ry

[...]

     iteration #  1     ecut=    36.75 Ry     beta=0.30
     Davidson diagonalization with overlap
     c_bands:  1 eigenvalues not converged
     c_bands:  1 eigenvalues not converged
     c_bands:  1 eigenvalues not converged
     c_bands:  1 eigenvalues not converged
     c_bands:  1 eigenvalues not converged
     c_bands:  1 eigenvalues not converged
     ethr =  1.00E-06,  avg # of iterations = 13.0

[...]

     iteration #  1     ecut=    36.75 Ry     beta=0.30
     Davidson diagonalization with overlap
     c_bands:  1 eigenvalues not converged
     c_bands:  1 eigenvalues not converged
     c_bands:  1 eigenvalues not converged
     c_bands:  1 eigenvalues not converged
     c_bands:  1 eigenvalues not converged
     c_bands:  1 eigenvalues not converged
     ethr =  1.00E-06,  avg # of iterations = 14.2

[...]

     Total force =     0.003961     Total SCF correction =     0.000544
     SCF correction compared to forces is large: reduce conv_thr to get better values

[...]

     Total force =     0.003562     Total SCF correction =     0.000356
     SCF correction compared to forces is large: reduce conv_thr to get better values

[...]

     number of scf cycles    =  16
     number of bfgs steps    =  15

     energy   old            =   -1969.0546833706 Ry
     energy   new            =   -1969.0547371485 Ry

     CASE: energy  _new < energy  _old

     new trust radius        =       0.0180928058 bohr
     new conv_thr            =       0.0000001000 Ry

ATOMIC_POSITIONS (crystal)
Bi1      0.000000000  -0.000000000   0.389381836    0   0   0
Sc1     -0.000000000   0.500000000   0.389381836    0   0   0
Bi1      0.500000000  -0.000000000   0.389381836    0   0   0
Bi1      0.500000000   0.500000000   0.389381836    0   0   0
Bi1      0.666666667   0.666666667   0.500000000    0   0   0
Sc1      0.666666667   0.166666667   0.500000000    0   0   0
Bi1      0.166666667   0.666666667   0.500000000    0   0   0
Bi1      0.166666667   0.166666667   0.500000000    0   0   0
Bi1      0.348518770   0.325739585   0.610133013
Sc1      0.333364322   0.833317439   0.588469453
Bi1      0.825709220   0.325760541   0.610132489
Bi1      0.825709237   0.848527018   0.610132640

     Writing output data file calc.save
     Check: negative starting charge=   -0.376515
     NEW-OLD atomic charge density approx. for the potential

     Check: negative/imaginary core charge=   -0.000001    0.000000
     Check: negative starting charge=   -0.376071

[...]

     Self-consistent Calculation

[...]

     total energy              =   -1969.05479374 Ry
     Harris-Foulkes estimate   =   -1969.05479377 Ry
     estimated scf accuracy    <       0.00000011 Ry

     iteration # 10     ecut=    36.75 Ry     beta=0.30
     Davidson diagonalization with overlap
     ethr =  6.47E-11,  avg # of iterations =  5.0

[...]

     negative rho (up, down):  3.974E-01 0.000E+00

     Adding external electric field

     Computed dipole along edir(3) :
        Dipole               -0.0560 Ry au,         -0.1424 Debye
        Dipole field         -0.0001 Ry au

        Potential amp.        0.0092 Ry
        Total length         47.3182 bohr

     End of self-consistent calculation

[...]

          k = 0.0479-0.0553 0.0000 ( 27332 PWs)   bands (ev):

[...]

          k =-0.0719-0.0415 0.0000 ( 27314 PWs)   bands (ev):

   -50.2258 -49.7292 -49.7198 -28.9165 -28.7158 -28.7154 -28.3503 -28.3403
   -28.3400 -28.2918 -28.2915 -28.2053 -22.4791 -22.4552 -22.4407 -22.4263
   -22.4241 -22.4206 -22.4081 -22.3953 -22.3594 -22.3546 -22.3473 -22.3420
   -22.3289 -22.3246 -22.2907 -22.2154 -22.1812 -22.1785 -22.1559 -22.1493
   -22.1303 -22.1285 -22.1215 -22.1175 -22.1143 -22.1099 -22.1000 -22.0972
   -22.0961 -22.0898 -22.0855 -22.0853 -22.0728 -22.0711 -22.0664 -22.0626
   -22.0558 -22.0521 -22.0487 -22.0461 -22.0445 -22.0367 -22.0328 -22.0308
   -22.0122 -11.0981 -10.8202 -10.2220  -9.7226  -9.6847  -9.5564  -9.1531
    -8.9049  -8.4909  -3.5145  -3.0662  -2.5554  -1.8397  -1.6004  -1.5173
    -1.4822  -1.4531  -1.3272  -0.9030  -0.7308  -0.3547  -0.2669  -0.1476
     0.1536   0.2204   0.3359   0.4248   0.5347   0.6191   1.6086   1.6789
     1.7070   1.7522   1.7886   1.8482   1.9811   2.0779

     the Fermi energy is     1.0345 ev

!    total energy              =   -1969.05479376 Ry
     Harris-Foulkes estimate   =   -1969.05479366 Ry
     estimated scf accuracy    <       0.00000002 Ry

     The total energy is the sum of the following terms:

     one-electron contribution =   -9574.33366743 Ry
     hartree contribution      =    4822.02136919 Ry
     xc contribution           =    -640.78529433 Ry
     ewald contribution        =    3424.09484526 Ry
     electric field correction =       0.00000542 Ry
     smearing contrib. (-TS)   =      -0.05205189 Ry

     convergence has been achieved in  10 iterations

 BEEF-vdW xc energy contributions
           1 :   -569.623347097607
           2 :    527.729383182363
           3 :   -454.729141366737
           4 :    367.579975852183
           5 :   -283.055082626014
           6 :    212.746763116797
           7 :   -161.070041427198
           8 :    126.140271846930
           9 :   -102.367061972620
          10 :    83.4485920352164
          11 :   -64.8035475795150
          12 :    44.8611621751171
          13 :   -24.9808866602609
          14 :    8.15980918992238
          15 :    2.86379485117982
          16 :   -7.21558582838236
          17 :    6.40715121353458
          18 :   -3.54910240387198
          19 :    1.75486555031296
          20 :   -2.67655235515576
          21 :    5.96247182875663
          22 :   -9.81533744059129
          23 :    12.1900213794479
          24 :   -11.9151140040212
          25 :    9.20390083076882
          26 :   -5.42316600674258
          27 :    2.33794421883999
          28 :   -1.23424985866950
          29 :    2.32620453594598
          30 :   -4.71219981058221
          31 :   -46.7055225020069
          32 :   -34.2799143128425

     Forces acting on atoms (Ry/au):

     negative rho (up, down):  3.974E-01 0.000E+00
     atom    1 type  1   force =    -0.01373841    0.00793181   -0.00437680
     atom    2 type  2   force =     0.00000067   -0.00000033    0.04545334
     atom    3 type  1   force =     0.01373784    0.00793355   -0.00438910
     atom    4 type  1   force =    -0.00000170   -0.01586407   -0.00438916
     atom    5 type  1   force =     0.00787119   -0.00454441   -0.01127024
     atom    6 type  2   force =    -0.00000320    0.00000180    0.00144613
     atom    7 type  1   force =    -0.00787082   -0.00454244   -0.01125862
     atom    8 type  1   force =    -0.00000151    0.00908703   -0.01125860
     atom    9 type  1   force =    -0.00045235    0.00026118   -0.00033358
     atom   10 type  2   force =     0.00000199   -0.00000101    0.00104399
     atom   11 type  1   force =     0.00045117    0.00025459   -0.00033355
     atom   12 type  1   force =     0.00000514   -0.00051770   -0.00033381

     Total force =     0.001494     Total SCF correction =     0.000103

     entering subroutine stress ...

     negative rho (up, down):  3.974E-01 0.000E+00
          total   stress  (Ry/bohr**3)                   (kbar)     P=   -7.58
  -0.00005901  -0.00000001  -0.00000000         -8.68     -0.00     -0.00
  -0.00000001  -0.00005902   0.00000000         -0.00     -8.68      0.00
  -0.00000000   0.00000000  -0.00003652         -0.00      0.00     -5.37

     bfgs converged in  17 scf cycles and  16 bfgs steps
     (criteria: energy <  1.0E+00, force <  1.9E-03)

     End of BFGS Geometry Optimization

     Final energy   =   -1969.0547937630 Ry
Begin final coordinates

ATOMIC_POSITIONS (crystal)
Bi1      0.000000000  -0.000000000   0.389381836    0   0   0
Sc1     -0.000000000   0.500000000   0.389381836    0   0   0
Bi1      0.500000000  -0.000000000   0.389381836    0   0   0
Bi1      0.500000000   0.500000000   0.389381836    0   0   0
Bi1      0.666666667   0.666666667   0.500000000    0   0   0
Sc1      0.666666667   0.166666667   0.500000000    0   0   0
Bi1      0.166666667   0.666666667   0.500000000    0   0   0
Bi1      0.166666667   0.166666667   0.500000000    0   0   0
Bi1      0.348518770   0.325739585   0.610133013
Sc1      0.333364322   0.833317439   0.588469453
Bi1      0.825709220   0.325760541   0.610132489
Bi1      0.825709237   0.848527018   0.610132640
End final coordinates

     Writing output data file calc.save

     General routines

     Parallel routines

   This run was terminated on:  20:47:18  23Feb2018

   JOB DONE.