     Program PWSCF v.5.1rc2 starts on 26Feb2018 at 12: 6:25

     Current dimensions of program PWSCF are:
     Max number of different atomic species (ntypx) = 10
     Max number of k-points (npk) =  40000
     Max angular momentum in pseudopotentials (lmaxx) =  3
     Presently stress not available with electric field

     IMPORTANT: XC functional enforced from input :
     Exchange-correlation      = BEEF-VDW ( 1  4 27 13 2)
     Any further DFT definition will be discarded
     Please, verify this is what you really want

     bravais-lattice index     =            0
     lattice parameter (alat)  =       1.8897  a.u.
     unit-cell volume          =    7822.7319 (a.u.)^3
     number of atoms/cell      =           12
     number of atomic types    =            2
     number of electrons       =       174.00
     number of Kohn-Sham states=           97
     kinetic-energy cutoff     =      36.7493  Ry
     charge density cutoff     =     367.4932  Ry
     convergence threshold     =      1.0E-05
     mixing beta               =       0.3000
     number of iterations used =           10  plain     mixing
     Exchange-correlation      = BEEF-VDW ( 1  4 27 13 2)
     nstep                     =           50

     celldm(1)=   1.889726  celldm(2)=   0.000000  celldm(3)=   0.000000
     celldm(4)=   0.000000  celldm(5)=   0.000000  celldm(6)=   0.000000

     crystal axes: (cart. coord. in units of alat)
               a(1) = (   7.192727   0.000000   0.000000 )
               a(2) = (   3.596364   6.229084   0.000000 )
               a(3) = (   0.000000   0.000000  25.872837 )

     reciprocal axes: (cart. coord. in units 2 pi/alat)
               b(1) = (  0.139029 -0.080269  0.000000 )
               b(2) = (  0.000000  0.160537  0.000000 )
               b(3) = (  0.000000  0.000000  0.038651 )

     PseudoPot. # 1 for Bi read from file:
     /home/users/mamunm/src/pseudo/gbrv1.5pbe/Bi.UPF
     MD5 check sum: 81103212dc04adf40945787f699eab19
     Pseudo is Ultrasoft + core correction, Zval = 15.0
     Generated by new atomic code, or converted to UPF format
     Using radial grid of  899 points,  6 beta functions with:
                l(1) =   0
                l(2) =   0
                l(3) =   1
                l(4) =   1
                l(5) =   2
                l(6) =   2
     Q(r) pseudized with  6 coefficients,  rinner =    1.000   1.000   1.000
                                                       1.000   1.000

     PseudoPot. # 2 for Tl read from file:
     /home/users/mamunm/src/pseudo/gbrv1.5pbe/Tl.UPF
     MD5 check sum: b76cf1f7e72655a2b2c53cf6385d7059
     Pseudo is Ultrasoft + core correction, Zval = 13.0
     Generated by new atomic code, or converted to UPF format
     Using radial grid of  899 points,  6 beta functions with:
                l(1) =   0
                l(2) =   0
                l(3) =   1
                l(4) =   1
                l(5) =   2
                l(6) =   2
     Q(r) pseudized with  6 coefficients,  rinner =    1.100   1.100   1.100
                                                       1.100   1.100

     vdW kernel table read from file vdW_kernel_table
     MD5 check sum: 095c7af220d748ca6e76c0b4c6cfb241

     atomic species   valence    mass     pseudopotential
        Bi1           15.00   208.98040     Bi( 1.00)
        Tl1           13.00   204.38000     Tl( 1.00)

     No symmetry found

   Cartesian axes

     site n.     atom                  positions (alat units)
         1           Bi1 tau(   1) = (   0.0000000   0.0000000  10.0000000  )
         2           Tl1 tau(   2) = (   1.7981818   3.1145422  10.0000000  )
         3           Bi1 tau(   3) = (   3.5963635   0.0000000  10.0000000  )
         4           Bi1 tau(   4) = (   5.3945453   3.1145422  10.0000000  )
         5           Bi1 tau(   5) = (   7.1927271   4.1527229  12.9364185  )
         6           Tl1 tau(   6) = (   5.3945453   1.0381807  12.9364185  )
         7           Bi1 tau(   7) = (   3.5963635   4.1527229  12.9364185  )
         8           Bi1 tau(   8) = (   1.7981818   1.0381807  12.9364185  )
         9           Bi1 tau(   9) = (   3.5963635   2.0763614  15.8728370  )
        10           Tl1 tau(  10) = (   5.3945453   5.1909036  15.8728370  )
        11           Bi1 tau(  11) = (   7.1927271   2.0763614  15.8728370  )
        12           Bi1 tau(  12) = (   8.9909088   5.1909036  15.8728370  )

     number of k points=    20  Fermi-Dirac smearing, width (Ry)=  0.0110
                       cart. coord. in units 2pi/alat
        k(    1) = (   0.0000000   0.0000000   0.0000000), wk =   0.0555556
        k(    2) = (   0.0000000   0.0267562   0.0000000), wk =   0.1111111
        k(    3) = (   0.0000000   0.0535124   0.0000000), wk =   0.1111111
        k(    4) = (   0.0000000  -0.0802686   0.0000000), wk =   0.0555556
        k(    5) = (   0.0231716  -0.0133781   0.0000000), wk =   0.1111111
        k(    6) = (   0.0231716   0.0133781   0.0000000), wk =   0.1111111
        k(    7) = (   0.0231716   0.0401343   0.0000000), wk =   0.1111111
        k(    8) = (   0.0231716  -0.0936467   0.0000000), wk =   0.1111111
        k(    9) = (   0.0231716  -0.0668905   0.0000000), wk =   0.1111111
        k(   10) = (   0.0231716  -0.0401343   0.0000000), wk =   0.1111111
        k(   11) = (   0.0463431  -0.0267562   0.0000000), wk =   0.1111111
        k(   12) = (   0.0463431  -0.0000000   0.0000000), wk =   0.1111111
        k(   13) = (   0.0463431   0.0267562   0.0000000), wk =   0.1111111
        k(   14) = (   0.0463431  -0.1070248   0.0000000), wk =   0.1111111
        k(   15) = (   0.0463431  -0.0802686   0.0000000), wk =   0.1111111
        k(   16) = (   0.0463431  -0.0535124   0.0000000), wk =   0.1111111
        k(   17) = (  -0.0695147   0.0401343   0.0000000), wk =   0.0555556
        k(   18) = (  -0.0695147   0.0668905   0.0000000), wk =   0.1111111
        k(   19) = (  -0.0695147   0.0936467   0.0000000), wk =   0.1111111
        k(   20) = (  -0.0695147  -0.0401343   0.0000000), wk =   0.0555556

     Largest allocated arrays     est. size (Mb)     dimensions
     Largest temporary arrays     est. size (Mb)     dimensions

     Check: negative/imaginary core charge=   -0.000001    0.000000

     Initial potential from superposition of free atoms
     Check: negative starting charge=   -0.531521

     starting charge  164.98503, renormalised to  174.00000

     negative rho (up, down):  5.606E-01 0.000E+00

     *
     * You are using vdW-DF for exchange-correlation in this calculation.
     * Please cite the following three references that made this development
     * possible:
     *
     *   M. Dion, H. Rydberg, E. Schroder, D. C. Langreth, and
     *   B. I. Lundqvist, Phys. Rev. Lett. 92, 246401 (2004).
     *
     *   T. Thonhauser, V. R. Cooper, S. Li, A. Puzder, P. Hyldgaard, and
     *   D. C. Langreth, Phys. Rev. B 76, 125112 (2007).
     *
     *   G. Roman-Perez and J. M. Soler, Phys. Rev. Lett. 103, 096102 (2009).
     *
     *
     * If you are using vdW-DF2, please also cite:
     *
     *   K. Lee, E. D. Murray, L. Kong, B. I. Lundqvist, and
     *   D. C. Langreth, Phys. Rev. B 82, 081101(R) (2010).
     *
     *
     * If you are calculating the stress with vdW-DF, please also cite:
     *
     *   R. Sabatini, E. Kucukbenli, B. Kolb, T. Thonhauser, and
     *   S. de Gironcoli, J. Phys.: Condens. Matter 24, 424209 (2012).
     *

     Carrying out vdW-DF run using the following parameters:

     Nqs =      20    Nr_points =    1024   r_max =   100.000
     q_mesh =
               0.00001000     0.04494208     0.09755937     0.15916263
               0.23128650     0.31572767     0.41458969     0.53033537
               0.66584808     0.82450364     1.01025438     1.22772762
               1.48234092     1.78043706     2.12944203     2.53805004
               3.01644009     3.57652955     4.23227104     5.00000000

     Gradients computed in reciprocal space

     Adding external electric field

     Computed dipole along edir(3) :
        Dipole               -0.0000 Ry au,         -0.0000 Debye
        Dipole field         -0.0000 Ry au

        Potential amp.        0.0000 Ry
        Total length         47.6703 bohr

     Starting wfc are  108 randomized atomic wfcs

     Self-consistent Calculation

     iteration #  1     ecut=    36.75 Ry     beta=0.30
     Davidson diagonalization with overlap
     ethr =  1.00E-02,  avg # of iterations =  3.0

[...]

     total energy              =   -2124.74436299 Ry
     Harris-Foulkes estimate   =   -2126.80369124 Ry
     estimated scf accuracy    <       4.63178865 Ry

[...]

     End of self-consistent calculation

          k = 0.0000 0.0000 0.0000 ( 29369 PWs)   bands (ev):

   -22.8379 -22.8356 -22.8354 -22.8111 -22.7934 -22.7932 -22.7754 -22.7726
   -22.7724 -22.7709 -22.7431 -22.7428 -22.7285 -22.7283 -22.7046 -22.5833
   -22.5828 -22.5700 -22.5700 -22.5681 -22.5681 -22.5350 -22.5319 -22.5117
   -22.5105 -22.5103 -22.5103 -22.5067 -22.5067 -22.5023 -22.5023 -22.5017
   -22.5016 -22.4892 -22.4892 -22.4867 -22.4867 -22.4854 -22.4798 -22.4687
   -22.4687 -22.4651 -22.4651 -22.4532 -22.4531 -11.6813 -11.1070 -11.0659
   -11.0199 -11.0199 -10.9806 -10.9806 -10.9674 -10.9674 -10.9536 -10.9536
   -10.8653 -10.8653 -10.8504 -10.8138 -10.8138 -10.6831  -9.9636  -9.6022
    -9.6022  -9.1895  -9.1894  -8.9131  -8.9131  -5.2220  -5.2096  -4.6183
    -3.5146  -2.9735  -2.9735  -2.6124  -2.3941  -2.3287  -2.3287  -2.2821
    -1.9769  -1.9769  -0.3495   0.6929   0.6929   0.7067   0.7068   1.5335
     1.6122   2.4442   2.4443   2.5013   2.6281   2.6501   2.6502   2.9673
     3.3812

[...]

          k =-0.0695 0.0401 0.0000 ( 29464 PWs)   bands (ev):

[...]

     the Fermi energy is     0.6868 ev

!    total energy              =   -2124.80930325 Ry
     Harris-Foulkes estimate   =   -2124.81849875 Ry
     estimated scf accuracy    <       0.00000448 Ry

     The total energy is the sum of the following terms:

     one-electron contribution =   -9289.30650767 Ry
     hartree contribution      =    4703.01981565 Ry
     xc contribution           =    -790.72242267 Ry
     ewald contribution        =    3252.24050232 Ry
     electric field correction =       0.00000035 Ry
     smearing contrib. (-TS)   =      -0.04069122 Ry

     convergence has been achieved in  10 iterations

 BEEF-vdW xc energy contributions
           1 :   -704.419877680908
           2 :    654.221878865865
           3 :   -565.871021603283
           4 :    458.842387734745
           5 :   -353.326420883537
           6 :    264.189800947612
           7 :   -197.711525095787
           8 :    151.856313712866
           9 :   -119.469660069723
          10 :    92.6665574236488
          11 :   -66.4231556955192
          12 :    39.9894444219630
          13 :   -15.9494605049358
          14 :   -2.15888022061540
          15 :    12.2376027875565
          16 :   -14.8705903907594
          17 :    12.9882790185729
          18 :   -10.3635316430834
          19 :    9.84216340058879
          20 :   -12.2265326592162
          21 :    16.2869279783788
          22 :   -19.7670658242002
          23 :    20.7625244292783
          24 :   -18.7398025633993
          25 :    14.7218223153363
          26 :   -10.6418983717738
          27 :    8.27964644694248
          28 :   -8.36394792195586
          29 :    10.2852514656176
          30 :   -12.5179392458632
          31 :   -56.1958870777544
          32 :   -41.1815389717342

     Forces acting on atoms (Ry/au):

     negative rho (up, down):  5.525E-01 0.000E+00
     atom    1 type  1   force =     0.00489536   -0.00284828    0.00972677
     atom    2 type  2   force =     0.00001677    0.00000043   -0.00959146
     atom    3 type  1   force =    -0.00489898   -0.00283513    0.00971445
     atom    4 type  1   force =    -0.00000969    0.00566870    0.00973003
     atom    5 type  1   force =     0.00010552   -0.00004028   -0.00016860
     atom    6 type  2   force =    -0.00000397    0.00000194    0.00001910
     atom    7 type  1   force =    -0.00010692   -0.00006030   -0.00016984
     atom    8 type  1   force =     0.00000633    0.00011251   -0.00016712
     atom    9 type  1   force =    -0.00457168    0.00267318   -0.00980523
     atom   10 type  2   force =    -0.00003112   -0.00001711    0.01029730
     atom   11 type  1   force =     0.00456965    0.00264058   -0.00977895
     atom   12 type  1   force =     0.00002874   -0.00529623   -0.00980646

     Total force =     0.021861     Total SCF correction =     0.005469
     SCF correction compared to forces is large: reduce conv_thr to get better values

     entering subroutine stress ...

     negative rho (up, down):  5.525E-01 0.000E+00
          total   stress  (Ry/bohr**3)                   (kbar)     P=   -7.26
  -0.00004886   0.00000000  -0.00000000         -7.19      0.00     -0.00
   0.00000000  -0.00004886  -0.00000000          0.00     -7.19     -0.00
  -0.00000000  -0.00000000  -0.00005031         -0.00     -0.00     -7.40

     BFGS Geometry Optimization

     number of scf cycles    =   1
     number of bfgs steps    =   0

     energy   new            =   -2124.8093032451 Ry

     new trust radius        =       0.0111452894 bohr
     new conv_thr            =       0.0000099958 Ry

ATOMIC_POSITIONS (crystal)
Bi1      0.000000000   0.000000000   0.386505739    0   0   0
Tl1     -0.000000000   0.500000000   0.386505739    0   0   0
Bi1      0.500000000   0.000000000   0.386505739    0   0   0
Bi1      0.500000000   0.500000000   0.386505739    0   0   0
Bi1      0.666666667   0.666666667   0.500000000    0   0   0
Tl1      0.666666667   0.166666667   0.500000000    0   0   0
Bi1      0.166666667   0.666666667   0.500000000    0   0   0
Bi1      0.166666667   0.166666667   0.500000000    0   0   0
Bi1      0.332883442   0.333560427   0.613293715
Tl1      0.333331771   0.833331880   0.613704872
Bi1      0.833557365   0.333557658   0.613294252
Bi1      0.833560412   0.832883404   0.613293690

     Writing output data file calc.save
     Check: negative starting charge=   -0.531521
     NEW-OLD atomic charge density approx. for the potential

     Check: negative/imaginary core charge=   -0.000001    0.000000
     Check: negative starting charge=   -0.531501

[...]

     Total force =     0.022598     Total SCF correction =     0.001325

[...]

     energy   old            =   -2124.8093032451 Ry
     energy   new            =   -2124.8281632875 Ry

     CASE: energy  _new < energy  _old

     WARNING: bfgs curvature condition failed, Theta= 0.792
     new trust radius        =       0.0167179341 bohr
     new conv_thr            =       0.0000001000 Ry

[...]

     WARNING: bfgs curvature condition failed, Theta= 0.059
     new trust radius        =       0.0250769012 bohr
     new conv_thr            =       0.0000001000 Ry

[...]

     iteration #  1     ecut=    36.75 Ry     beta=0.30
     Davidson diagonalization with overlap
     c_bands:  1 eigenvalues not converged
     c_bands:  1 eigenvalues not converged
     c_bands:  1 eigenvalues not converged
     ethr =  1.00E-06,  avg # of iterations =  7.8

[...]

     iteration #  5     ecut=    36.75 Ry     beta=0.30
     Davidson diagonalization with overlap
     c_bands:  1 eigenvalues not converged
     c_bands:  1 eigenvalues not converged
     ethr =  3.29E-06,  avg # of iterations =  8.3

[...]

     Total force =     0.004447     Total SCF correction =     0.000293

[...]

     number of scf cycles    =  14
     number of bfgs steps    =  13

     energy   old            =   -2124.8445960550 Ry
     energy   new            =   -2124.8451158737 Ry

     CASE: energy  _new < energy  _old

     new trust radius        =       0.0368036784 bohr
     new conv_thr            =       0.0000001000 Ry

ATOMIC_POSITIONS (crystal)
Bi1      0.000000000   0.000000000   0.386505739    0   0   0
Tl1     -0.000000000   0.500000000   0.386505739    0   0   0
Bi1      0.500000000   0.000000000   0.386505739    0   0   0
Bi1      0.500000000   0.500000000   0.386505739    0   0   0
Bi1      0.666666667   0.666666667   0.500000000    0   0   0
Tl1      0.666666667   0.166666667   0.500000000    0   0   0
Bi1      0.166666667   0.666666667   0.500000000    0   0   0
Bi1      0.166666667   0.166666667   0.500000000    0   0   0
Bi1      0.301399895   0.349245748   0.607294333
Tl1      0.333354981   0.833370698   0.624396406
Bi1      0.849313389   0.349325747   0.607270210
Bi1      0.849243760   0.801396723   0.607295422

     Writing output data file calc.save
     Check: negative starting charge=   -0.532798
     NEW-OLD atomic charge density approx. for the potential

     Check: negative/imaginary core charge=   -0.000001    0.000000
     Check: negative starting charge=   -0.532031

[...]

     Self-consistent Calculation

[...]

     total energy              =   -2124.84523850 Ry
     Harris-Foulkes estimate   =   -2124.84523856 Ry
     estimated scf accuracy    <       0.00000011 Ry

     iteration #  8     ecut=    36.75 Ry     beta=0.30
     Davidson diagonalization with overlap
     ethr =  6.26E-11,  avg # of iterations =  4.0

[...]

     negative rho (up, down):  5.536E-01 0.000E+00

     Adding external electric field

     Computed dipole along edir(3) :
        Dipole                0.1379 Ry au,          0.3504 Debye
        Dipole field          0.0002 Ry au

        Potential amp.       -0.0211 Ry
        Total length         47.6703 bohr

     End of self-consistent calculation

[...]

          k = 0.0463-0.0535 0.0000 ( 29462 PWs)   bands (ev):

[...]

          k =-0.0695-0.0401 0.0000 ( 29464 PWs)   bands (ev):

   -22.7311 -22.7131 -22.7029 -22.6986 -22.6943 -22.6920 -22.6880 -22.6738
   -22.6633 -22.6590 -22.6534 -22.6499 -22.6486 -22.6354 -22.6151 -22.5892
   -22.5671 -22.5542 -22.5167 -22.4814 -22.4788 -22.4764 -22.4736 -22.4657
   -22.4534 -22.4496 -22.4413 -22.4386 -22.4337 -22.4285 -22.4100 -22.4095
   -22.3966 -22.3905 -22.3903 -22.3795 -22.3776 -22.3686 -22.3672 -22.3657
   -22.3629 -22.3603 -22.3586 -22.3514 -22.3313 -11.4435 -11.1230 -11.0968
   -11.0949 -11.0778 -11.0445 -11.0088 -10.8749 -10.8457 -10.8449 -10.8398
   -10.8321 -10.8221 -10.8216 -10.8051 -10.7996 -10.6305 -10.1383  -9.9114
    -9.8698  -9.4439  -9.3014  -9.1510  -8.7796  -5.6652  -5.2994  -5.0431
    -2.3414  -2.0871  -1.8055  -1.6385  -1.5864  -1.5505  -1.3214  -0.8774
    -0.7014  -0.4606  -0.3435  -0.1253   0.0895   0.3326   0.5473   0.6344
     0.7772   1.1077   1.2671   1.6806   1.8677   2.0140   2.3252   2.4300
     2.8132

     the Fermi energy is     0.8065 ev

!    total energy              =   -2124.84523833 Ry
     Harris-Foulkes estimate   =   -2124.84523858 Ry
     estimated scf accuracy    <       0.00000003 Ry

     The total energy is the sum of the following terms:

     one-electron contribution =   -9373.67721848 Ry
     hartree contribution      =    4745.59229466 Ry
     xc contribution           =    -790.87249507 Ry
     ewald contribution        =    3294.14890667 Ry
     electric field correction =       0.00003054 Ry
     smearing contrib. (-TS)   =      -0.03675664 Ry

     convergence has been achieved in   8 iterations

 BEEF-vdW xc energy contributions
           1 :   -705.097436087050
           2 :    654.935982249575
           3 :   -566.643089143632
           4 :    459.656252029901
           5 :   -354.118218529563
           6 :    264.869773222597
           7 :   -198.214387870969
           8 :    152.189941114951
           9 :   -119.728489791958
          10 :    92.9945591738805
          11 :   -66.9408765942869
          12 :    40.7245580756037
          13 :   -16.8136963172676
          14 :   -1.32731106902179
          15 :    11.5856195840211
          16 :   -14.4462380900054
          17 :    12.7113351045574
          18 :   -10.0693310510828
          19 :    9.37398243858024
          20 :   -11.5235154168297
          21 :    15.4182970342297
          22 :   -18.8942203219362
          23 :    20.0503637730003
          24 :   -18.2673011856427
          25 :    14.4413203015298
          26 :   -10.4079762416989
          27 :    7.92926269518534
          28 :   -7.80269257191753
          29 :    9.53371906980749
          30 :   -11.6958812943124
          31 :   -56.2362130424023
          32 :   -41.2308177688211

     Forces acting on atoms (Ry/au):

     negative rho (up, down):  5.536E-01 0.000E+00
     atom    1 type  1   force =     0.00569154   -0.00328995    0.00922515
     atom    2 type  2   force =    -0.00000068   -0.00000033   -0.00957731
     atom    3 type  1   force =    -0.00569473   -0.00328772    0.00921512
     atom    4 type  1   force =    -0.00000267    0.00657462    0.00922605
     atom    5 type  1   force =    -0.00465046    0.00270365   -0.00383123
     atom    6 type  2   force =    -0.00001018   -0.00000711   -0.00475771
     atom    7 type  1   force =     0.00465719    0.00268923   -0.00381538
     atom    8 type  1   force =     0.00001551   -0.00537976   -0.00383102
     atom    9 type  1   force =    -0.00007349    0.00008860   -0.00053524
     atom   10 type  2   force =    -0.00003140   -0.00001866   -0.00031103
     atom   11 type  1   force =     0.00005957    0.00003368   -0.00047141
     atom   12 type  1   force =     0.00003980   -0.00010626   -0.00053599

     Total force =     0.000962     Total SCF correction =     0.000873
     SCF correction compared to forces is large: reduce conv_thr to get better values

     entering subroutine stress ...

     negative rho (up, down):  5.536E-01 0.000E+00
          total   stress  (Ry/bohr**3)                   (kbar)     P=   -4.41
  -0.00002702   0.00000001  -0.00000000         -3.98      0.00     -0.00
   0.00000001  -0.00002703  -0.00000000          0.00     -3.98     -0.00
  -0.00000000  -0.00000000  -0.00003593         -0.00     -0.00     -5.29

     bfgs converged in  15 scf cycles and  14 bfgs steps
     (criteria: energy <  1.0E+00, force <  1.9E-03)

     End of BFGS Geometry Optimization

     Final energy   =   -2124.8452383342 Ry
Begin final coordinates

ATOMIC_POSITIONS (crystal)
Bi1      0.000000000   0.000000000   0.386505739    0   0   0
Tl1     -0.000000000   0.500000000   0.386505739    0   0   0
Bi1      0.500000000   0.000000000   0.386505739    0   0   0
Bi1      0.500000000   0.500000000   0.386505739    0   0   0
Bi1      0.666666667   0.666666667   0.500000000    0   0   0
Tl1      0.666666667   0.166666667   0.500000000    0   0   0
Bi1      0.166666667   0.666666667   0.500000000    0   0   0
Bi1      0.166666667   0.166666667   0.500000000    0   0   0
Bi1      0.301399895   0.349245748   0.607294333
Tl1      0.333354981   0.833370698   0.624396406
Bi1      0.849313389   0.349325747   0.607270210
Bi1      0.849243760   0.801396723   0.607295422
End final coordinates

     Writing output data file calc.save

     General routines

     Parallel routines

   This run was terminated on:  13:12:54  26Feb2018

   JOB DONE.