     Program PWSCF v.5.1rc2 (svn rev. ) starts on 23Feb2018 at 19:22: 9

     Current dimensions of program PWSCF are:
     Max number of different atomic species (ntypx) = 10
     Max number of k-points (npk) =  40000
     Max angular momentum in pseudopotentials (lmaxx) =  3
     Presently stress not available with electric field

     IMPORTANT: XC functional enforced from input :
     Exchange-correlation      = BEEF-VDW ( 1  4 27 13 2)
     Any further DFT definition will be discarded
     Please, verify this is what you really want

     Subspace diagonalization in iterative solution of the eigenvalue problem:
     a serial algorithm will be used

     bravais-lattice index     =            0
     lattice parameter (alat)  =       1.8897  a.u.
     unit-cell volume          =    7071.0384 (a.u.)^3
     number of atoms/cell      =           12
     number of atomic types    =            2
     number of electrons       =       171.00
     number of Kohn-Sham states=           95
     kinetic-energy cutoff     =      36.7493  Ry
     charge density cutoff     =     367.4932  Ry
     convergence threshold     =      1.0E-05
     mixing beta               =       0.3000
     number of iterations used =           10  plain     mixing
     Exchange-correlation      = BEEF-VDW ( 1  4 27 13 2)
     nstep                     =           50

     celldm(1)=   1.889726  celldm(2)=   0.000000  celldm(3)=   0.000000
     celldm(4)=   0.000000  celldm(5)=   0.000000  celldm(6)=   0.000000

     crystal axes: (cart. coord. in units of alat)
               a(1) = (   6.873168   0.000000   0.000000 )
               a(2) = (   3.436584   5.952338   0.000000 )
               a(3) = (   0.000000   0.000000  25.611918 )

     reciprocal axes: (cart. coord. in units 2 pi/alat)
               b(1) = (  0.145493 -0.084001  0.000000 )
               b(2) = (  0.000000  0.168001 -0.000000 )
               b(3) = (  0.000000  0.000000  0.039044 )

     PseudoPot. # 1 for Bi read from file:
     /home/mamunm/src/pseudo/gbrv1.5pbe/Bi.UPF
     MD5 check sum: 81103212dc04adf40945787f699eab19
     Pseudo is Ultrasoft + core correction, Zval = 15.0
     Generated by new atomic code, or converted to UPF format
     Using radial grid of  899 points,  6 beta functions with:
                l(1) =   0
                l(2) =   0
                l(3) =   1
                l(4) =   1
                l(5) =   2
                l(6) =   2
     Q(r) pseudized with  6 coefficients,  rinner =    1.000   1.000   1.000
                                                       1.000   1.000

     PseudoPot. # 2 for Ti read from file:
     /home/mamunm/src/pseudo/gbrv1.5pbe/Ti.UPF
     MD5 check sum: 88a00a6731bd790ddea75d31a80cb452
     Pseudo is Ultrasoft + core correction, Zval = 12.0
     Generated by new atomic code, or converted to UPF format
     Using radial grid of  851 points,  6 beta functions with:
                l(1) =   0
                l(2) =   0
                l(3) =   1
                l(4) =   1
                l(5) =   2
                l(6) =   2
     Q(r) pseudized with  6 coefficients,  rinner =    1.000   1.000   1.000
                                                       1.000   1.000

     vdW kernel table read from file vdW_kernel_table
     MD5 check sum: 095c7af220d748ca6e76c0b4c6cfb241

     atomic species   valence    mass     pseudopotential
        Bi1           15.00   208.98040     Bi( 1.00)
        Ti1           12.00    47.86700     Ti( 1.00)

     No symmetry found

   Cartesian axes

     site n.     atom                  positions (alat units)
         1           Bi1 tau(   1) = (   0.0000000   0.0000000  10.0000000  )
         2           Ti1 tau(   2) = (   1.7182919   2.9761689  10.0000000  )
         3           Bi1 tau(   3) = (   3.4365838   0.0000000  10.0000000  )
         4           Bi1 tau(   4) = (   5.1548757   2.9761689  10.0000000  )
         5           Bi1 tau(   5) = (   6.8731676   3.9682251  12.8059589  )
         6           Ti1 tau(   6) = (   5.1548757   0.9920563  12.8059589  )
         7           Bi1 tau(   7) = (   3.4365838   3.9682251  12.8059589  )
         8           Bi1 tau(   8) = (   1.7182919   0.9920563  12.8059589  )
         9           Bi1 tau(   9) = (   3.4365838   1.9841126  15.6119178  )
        10           Ti1 tau(  10) = (   5.1548757   4.9602814  15.6119178  )
        11           Bi1 tau(  11) = (   6.8731676   1.9841126  15.6119178  )
        12           Bi1 tau(  12) = (   8.5914594   4.9602814  15.6119178  )

     number of k points=    20  Fermi-Dirac smearing, width (Ry)=  0.0110
                       cart. coord. in units 2pi/alat
        k(    1) = (   0.0000000   0.0000000   0.0000000), wk =   0.0555556
        k(    2) = (   0.0000000   0.0280002  -0.0000000), wk =   0.1111111
        k(    3) = (   0.0000000   0.0560004  -0.0000000), wk =   0.1111111
        k(    4) = (   0.0000000  -0.0840006   0.0000000), wk =   0.0555556
        k(    5) = (   0.0242489  -0.0140001   0.0000000), wk =   0.1111111
        k(    6) = (   0.0242489   0.0140001  -0.0000000), wk =   0.1111111
        k(    7) = (   0.0242489   0.0420003  -0.0000000), wk =   0.1111111
        k(    8) = (   0.0242489  -0.0980007   0.0000000), wk =   0.1111111
        k(    9) = (   0.0242489  -0.0700005   0.0000000), wk =   0.1111111
        k(   10) = (   0.0242489  -0.0420003   0.0000000), wk =   0.1111111
        k(   11) = (   0.0484978  -0.0280002   0.0000000), wk =   0.1111111
        k(   12) = (   0.0484978   0.0000000   0.0000000), wk =   0.1111111
        k(   13) = (   0.0484978   0.0280002  -0.0000000), wk =   0.1111111
        k(   14) = (   0.0484978  -0.1120008   0.0000000), wk =   0.1111111
        k(   15) = (   0.0484978  -0.0840006   0.0000000), wk =   0.1111111
        k(   16) = (   0.0484978  -0.0560004   0.0000000), wk =   0.1111111
        k(   17) = (  -0.0727467   0.0420003  -0.0000000), wk =   0.0555556
        k(   18) = (  -0.0727467   0.0700005  -0.0000000), wk =   0.1111111
        k(   19) = (  -0.0727467   0.0980007  -0.0000000), wk =   0.1111111
        k(   20) = (  -0.0727467  -0.0420003   0.0000000), wk =   0.0555556

     Largest allocated arrays     est. size (Mb)     dimensions
     Largest temporary arrays     est. size (Mb)     dimensions

     Check: negative/imaginary core charge=   -0.000002    0.000000

     Initial potential from superposition of free atoms
     Check: negative starting charge=   -0.381247

     starting charge  158.99949, renormalised to  171.00000

     negative rho (up, down):  4.100E-01 0.000E+00

     *
     * You are using vdW-DF for exchange-correlation in this calculation.
     * Please cite the following three references that made this development
     * possible:
     *
     *   M. Dion, H. Rydberg, E. Schroder, D. C. Langreth, and
     *   B. I. Lundqvist, Phys. Rev. Lett. 92, 246401 (2004).
     *
     *   T. Thonhauser, V. R. Cooper, S. Li, A. Puzder, P. Hyldgaard, and
     *   D. C. Langreth, Phys. Rev. B 76, 125112 (2007).
     *
     *   G. Roman-Perez and J. M. Soler, Phys. Rev. Lett. 103, 096102 (2009).
     *
     *
     * If you are using vdW-DF2, please also cite:
     *
     *   K. Lee, E. D. Murray, L. Kong, B. I. Lundqvist, and
     *   D. C. Langreth, Phys. Rev. B 82, 081101(R) (2010).
     *
     *
     * If you are calculating the stress with vdW-DF, please also cite:
     *
     *   R. Sabatini, E. Kucukbenli, B. Kolb, T. Thonhauser, and
     *   S. de Gironcoli, J. Phys.: Condens. Matter 24, 424209 (2012).
     *

     Carrying out vdW-DF run using the following parameters:

     Nqs =      20    Nr_points =    1024   r_max =   100.000
     q_mesh =
               0.00001000     0.04494208     0.09755937     0.15916263
               0.23128650     0.31572767     0.41458969     0.53033537
               0.66584808     0.82450364     1.01025438     1.22772762
               1.48234092     1.78043706     2.12944203     2.53805004
               3.01644009     3.57652955     4.23227104     5.00000000

     Gradients computed in reciprocal space

     Adding external electric field

     Computed dipole along edir(3) :
        Dipole               -0.0000 Ry au,         -0.0000 Debye
        Dipole field         -0.0000 Ry au

        Potential amp.        0.0000 Ry
        Total length         47.1895 bohr

     Starting wfc are  111 randomized atomic wfcs

     Self-consistent Calculation

     iteration #  1     ecut=    36.75 Ry     beta=0.30
     Davidson diagonalization with overlap
     ethr =  1.00E-02,  avg # of iterations =  3.0

[...]

     total energy              =   -2042.82920573 Ry
     Harris-Foulkes estimate   =   -2047.48379795 Ry
     estimated scf accuracy    <       9.97682254 Ry

[...]

     End of self-consistent calculation

          k = 0.0000 0.0000 0.0000 ( 26673 PWs)   bands (ev):

   -56.8242 -56.8241 -56.7022 -33.1199 -33.1197 -33.0175 -33.0175 -33.0175
   -33.0174 -32.9548 -32.9548 -32.8501 -22.4991 -22.4794 -22.4794 -22.4616
   -22.4149 -22.4149 -22.3720 -22.3701 -22.3701 -22.3701 -22.3349 -22.3349
   -22.3162 -22.3162 -22.2585 -22.2146 -22.2134 -22.1800 -22.1800 -22.1731
   -22.1731 -22.1452 -22.1367 -22.0968 -22.0968 -22.0913 -22.0913 -22.0714
   -22.0695 -22.0608 -22.0608 -22.0543 -22.0543 -22.0410 -22.0391 -22.0391
   -22.0354 -22.0354 -22.0288 -22.0280 -22.0279 -22.0215 -22.0215 -21.9822
   -21.9819 -11.8397 -10.8419  -9.9802  -9.4760  -9.4760  -8.8390  -8.8390
    -8.4436  -8.4436  -3.9886  -3.2012  -3.0708  -2.8279  -2.8279  -2.5385
    -2.1127  -2.1127  -1.6772  -1.6772  -1.0880   0.3663   0.3663   0.3913
     0.3913   0.8374   1.2393   1.2651   1.2651   1.2758   1.3369   1.3589
     1.3589   1.4032   1.4032   1.4740   1.5413   1.5413   2.0812

[...]

          k =-0.0727 0.0420-0.0000 ( 26566 PWs)   bands (ev):

[...]

     the Fermi energy is     1.1012 ev

!    total energy              =   -2043.90984560 Ry
     Harris-Foulkes estimate   =   -2043.90984730 Ry
     estimated scf accuracy    <       0.00000209 Ry

     The total energy is the sum of the following terms:

     one-electron contribution =  -10051.23182143 Ry
     hartree contribution      =    5061.23446451 Ry
     xc contribution           =    -655.11597851 Ry
     ewald contribution        =    3601.31042610 Ry
     electric field correction =       0.00000000 Ry
     smearing contrib. (-TS)   =      -0.10693627 Ry

     convergence has been achieved in  18 iterations

 BEEF-vdW xc energy contributions
           1 :   -582.390120626082
           2 :    539.433991760871
           3 :   -464.444148655321
           4 :    374.722841300320
           5 :   -287.552969851643
           6 :    214.932973404607
           7 :   -161.332951930545
           8 :    124.601024585048
           9 :   -98.8643639627336
          10 :    77.8182255212100
          11 :   -57.1737006358616
          12 :    35.6948375631100
          13 :   -14.8551485520934
          14 :   -2.50091214388033
          15 :    13.8733215065137
          16 :   -18.4966630667706
          17 :    17.8078578826821
          18 :   -14.7923914126086
          19 :    12.5475527954046
          20 :   -12.8330899543984
          21 :    15.3915600582349
          22 :   -18.3854641405352
          23 :    19.6420796093495
          24 :   -17.9527340461312
          25 :    13.6977570420826
          26 :   -8.53157327054498
          27 :    4.41747144693909
          28 :   -2.61731904826399
          29 :    3.16124846469927
          30 :   -4.98592576006115
          31 :   -47.6442863932413
          32 :   -34.8961106197801

     Forces acting on atoms (Ry/au):

     negative rho (up, down):  3.976E-01 0.000E+00
     atom    1 type  1   force =    -0.01908234    0.01101072   -0.00257225
     atom    2 type  2   force =    -0.00000036   -0.00000041    0.04452164
     atom    3 type  1   force =     0.01908170    0.01102283   -0.00256265
     atom    4 type  1   force =     0.00000156   -0.02203715   -0.00257364
     atom    5 type  1   force =    -0.00006645    0.00004436    0.00003156
     atom    6 type  2   force =    -0.00000104   -0.00000161   -0.00006841
     atom    7 type  1   force =     0.00006874    0.00004447    0.00003751
     atom    8 type  1   force =     0.00000298   -0.00008501    0.00003402
     atom    9 type  1   force =     0.01905322   -0.01099827    0.00258062
     atom   10 type  2   force =     0.00000028   -0.00000114   -0.04459684
     atom   11 type  1   force =    -0.01906052   -0.01100391    0.00258495
     atom   12 type  1   force =     0.00000223    0.02200512    0.00258349

     Total force =     0.058834     Total SCF correction =     0.000441

     entering subroutine stress ...

     negative rho (up, down):  3.976E-01 0.000E+00
          total   stress  (Ry/bohr**3)                   (kbar)     P=  -10.97
  -0.00007955  -0.00000000  -0.00000000        -11.70     -0.00     -0.00
  -0.00000000  -0.00007955  -0.00000000         -0.00    -11.70     -0.00
  -0.00000000  -0.00000000  -0.00006467         -0.00     -0.00     -9.51

     BFGS Geometry Optimization

     number of scf cycles    =   1
     number of bfgs steps    =   0

     energy   new            =   -2043.9098456020 Ry

     new trust radius        =       0.0445968386 bohr
     new conv_thr            =       0.0000099958 Ry

ATOMIC_POSITIONS (crystal)
Bi1     -0.000000000   0.000000000   0.390443233    0   0   0
Ti1      0.000000000   0.500000000   0.390443233    0   0   0
Bi1      0.500000000   0.000000000   0.390443233    0   0   0
Bi1      0.500000000   0.500000000   0.390443233    0   0   0
Bi1      0.666666667   0.666666667   0.500000000    0   0   0
Ti1      0.666666667   0.166666667   0.500000000    0   0   0
Bi1      0.166666667   0.666666667   0.500000000    0   0   0
Bi1      0.166666667   0.166666667   0.500000000    0   0   0
Bi1      0.335289161   0.332355561   0.609610086
Ti1      0.333333406   0.833333232   0.608635335
Bi1      0.832354968   0.332355059   0.609610175
Bi1      0.832355351   0.835289642   0.609610145

     Writing output data file calc.save
     Check: negative starting charge=   -0.381247
     NEW-OLD atomic charge density approx. for the potential

     Check: negative/imaginary core charge=   -0.000002    0.000000
     Check: negative starting charge=   -0.381339

[...]

     Total force =     0.056518     Total SCF correction =     0.005723
     SCF correction compared to forces is large: reduce conv_thr to get better values

[...]

     energy   old            =   -2043.9098456020 Ry
     energy   new            =   -2043.9132263822 Ry

     CASE: energy  _new < energy  _old

     WARNING: bfgs curvature condition failed, Theta= 0.835
     new trust radius        =       0.0668952579 bohr
     new conv_thr            =       0.0000001000 Ry

[...]

     Total force =     0.004127     Total SCF correction =     0.000241

[...]

     number of scf cycles    =  15
     number of bfgs steps    =  14

     energy   old            =   -2043.9607407201 Ry
     energy   new            =   -2043.9608540385 Ry

     CASE: energy  _new < energy  _old

     new trust radius        =       0.0298554339 bohr
     new conv_thr            =       0.0000001000 Ry

ATOMIC_POSITIONS (crystal)
Bi1     -0.000000000   0.000000000   0.390443233    0   0   0
Ti1     -0.000000000   0.500000000   0.390443233    0   0   0
Bi1      0.500000000   0.000000000   0.390443233    0   0   0
Bi1      0.500000000   0.500000000   0.390443233    0   0   0
Bi1      0.666666667   0.666666667   0.500000000    0   0   0
Ti1      0.666666667   0.166666667   0.500000000    0   0   0
Bi1      0.166666667   0.666666667   0.500000000    0   0   0
Bi1      0.166666667   0.166666667   0.500000000    0   0   0
Bi1      0.350430557   0.324784582   0.607811054
Ti1      0.333335115   0.833330239   0.582907359
Bi1      0.824781296   0.324787917   0.607810791
Bi1      0.824780910   0.850433070   0.607810880

     Writing output data file calc.save
     Check: negative starting charge=   -0.379794
     NEW-OLD atomic charge density approx. for the potential

     Check: negative/imaginary core charge=   -0.000002    0.000000
     Check: negative starting charge=   -0.378698

[...]

     Self-consistent Calculation

[...]

     total energy              =   -2043.96095474 Ry
     Harris-Foulkes estimate   =   -2043.96095479 Ry
     estimated scf accuracy    <       0.00000079 Ry

     iteration # 13     ecut=    36.75 Ry     beta=0.30
     Davidson diagonalization with overlap
     ethr =  4.63E-10,  avg # of iterations =  3.3

[...]

     negative rho (up, down):  3.966E-01 0.000E+00

     Adding external electric field

     Computed dipole along edir(3) :
        Dipole               -0.0151 Ry au,         -0.0384 Debye
        Dipole field         -0.0000 Ry au

        Potential amp.        0.0025 Ry
        Total length         47.1895 bohr

     End of self-consistent calculation

[...]

          k = 0.0485-0.0560 0.0000 ( 26577 PWs)   bands (ev):

[...]

          k =-0.0727-0.0420 0.0000 ( 26566 PWs)   bands (ev):

   -56.9167 -56.7022 -56.6707 -33.2444 -33.0921 -33.0920 -32.9649 -32.9648
   -32.9299 -32.9097 -32.9097 -32.8341 -22.4879 -22.4561 -22.4381 -22.4312
   -22.4234 -22.4200 -22.4110 -22.3933 -22.3540 -22.3525 -22.3502 -22.3368
   -22.3294 -22.3163 -22.2842 -22.2638 -22.2300 -22.2046 -22.1956 -22.1842
   -22.1611 -22.1446 -22.1411 -22.1393 -22.1278 -22.1261 -22.1259 -22.1212
   -22.1101 -22.1098 -22.1069 -22.1055 -22.1013 -22.0999 -22.0974 -22.0915
   -22.0873 -22.0624 -22.0618 -22.0582 -22.0542 -22.0538 -22.0485 -22.0396
   -22.0165 -11.2302 -10.9596 -10.3192  -9.7666  -9.7191  -9.5727  -9.1204
    -8.8878  -8.4127  -3.6422  -3.1839  -2.6278  -1.8867  -1.6452  -1.5641
    -1.5195  -1.5075  -1.3496  -0.9603  -0.7684  -0.3814  -0.2900  -0.1806
     0.1515   0.1904   0.2950   0.4177   0.5154   0.6350   1.2300   1.3218
     1.3432   1.3759   1.4325   1.4834   1.5620   1.6352   1.8651

     the Fermi energy is     1.0736 ev

!    total energy              =   -2043.96095471 Ry
     Harris-Foulkes estimate   =   -2043.96095460 Ry
     estimated scf accuracy    <       0.00000010 Ry

     The total energy is the sum of the following terms:

     one-electron contribution =  -10297.23243167 Ry
     hartree contribution      =    5184.13828329 Ry
     xc contribution           =    -655.32127564 Ry
     ewald contribution        =    3724.54829693 Ry
     electric field correction =       0.00000041 Ry
     smearing contrib. (-TS)   =      -0.09382801 Ry

     convergence has been achieved in  13 iterations

 BEEF-vdW xc energy contributions
           1 :   -582.598990134197
           2 :    539.719304163634
           3 :   -464.817319284417
           4 :    375.105126292771
           5 :   -287.818930869268
           6 :    214.995187148943
           7 :   -161.198711105654
           8 :    124.360511532800
           9 :   -98.6304876990650
          10 :    77.6705525065366
          11 :   -57.1412002924714
          12 :    35.7704991762653
          13 :   -15.0122579148422
          14 :   -2.30742467644222
          15 :    13.7094678923946
          16 :   -18.4345108960380
          17 :    17.8873389097405
          18 :   -14.9815911787086
          19 :    12.7388048712398
          20 :   -12.8949857426180
          21 :    15.2544342967367
          22 :   -18.1017217319943
          23 :    19.3676833720060
          24 :   -17.8509006922861
          25 :    13.8305427505987
          26 :   -8.82072848243092
          27 :    4.70267575161824
          28 :   -2.76241316124981
          29 :    3.12842865358698
          30 :   -4.83560516406669
          31 :   -47.6622359843186
          32 :   -34.9299418267268

     Forces acting on atoms (Ry/au):

     negative rho (up, down):  3.966E-01 0.000E+00
     atom    1 type  1   force =    -0.01777576    0.01026287   -0.00338933
     atom    2 type  2   force =     0.00000006   -0.00000008    0.04338452
     atom    3 type  1   force =     0.01777578    0.01026277   -0.00338930
     atom    4 type  1   force =     0.00000006   -0.02052558   -0.00338940
     atom    5 type  1   force =     0.00798022   -0.00460705   -0.01337074
     atom    6 type  2   force =    -0.00000009    0.00000027    0.00679658
     atom    7 type  1   force =    -0.00798052   -0.00460722   -0.01337007
     atom    8 type  1   force =    -0.00000012    0.00921373   -0.01336866
     atom    9 type  1   force =     0.00096482   -0.00055632    0.00001535
     atom   10 type  2   force =     0.00000077   -0.00000030    0.00005045
     atom   11 type  1   force =    -0.00096614   -0.00055805    0.00001563
     atom   12 type  1   force =     0.00000092    0.00111495    0.00001496

     Total force =     0.001932     Total SCF correction =     0.000702
     SCF correction compared to forces is large: reduce conv_thr to get better values

     entering subroutine stress ...

     negative rho (up, down):  3.966E-01 0.000E+00
          total   stress  (Ry/bohr**3)                   (kbar)     P=   -7.26
  -0.00005557  -0.00000000   0.00000000         -8.17     -0.00      0.00
  -0.00000000  -0.00005557   0.00000000         -0.00     -8.17      0.00
   0.00000000   0.00000000  -0.00003694          0.00      0.00     -5.43

     bfgs converged in  16 scf cycles and  15 bfgs steps
     (criteria: energy <  1.0E+00, force <  1.9E-03)

     End of BFGS Geometry Optimization

     Final energy   =   -2043.9609547069 Ry
Begin final coordinates

ATOMIC_POSITIONS (crystal)
Bi1     -0.000000000   0.000000000   0.390443233    0   0   0
Ti1     -0.000000000   0.500000000   0.390443233    0   0   0
Bi1      0.500000000   0.000000000   0.390443233    0   0   0
Bi1      0.500000000   0.500000000   0.390443233    0   0   0
Bi1      0.666666667   0.666666667   0.500000000    0   0   0
Ti1      0.666666667   0.166666667   0.500000000    0   0   0
Bi1      0.166666667   0.666666667   0.500000000    0   0   0
Bi1      0.166666667   0.166666667   0.500000000    0   0   0
Bi1      0.350430557   0.324784582   0.607811054
Ti1      0.333335115   0.833330239   0.582907359
Bi1      0.824781296   0.324787917   0.607810791
Bi1      0.824780910   0.850433070   0.607810880
End final coordinates

     Writing output data file calc.save

     General routines

     Parallel routines

   This run was terminated on:  21:12:47  23Feb2018

   JOB DONE.