     Program PWSCF v.5.1rc2 (svn rev. ) starts on 23Feb2018 at 19:24:30

     Current dimensions of program PWSCF are:
     Max number of different atomic species (ntypx) = 10
     Max number of k-points (npk) =  40000
     Max angular momentum in pseudopotentials (lmaxx) =  3
     Presently stress not available with electric field

     IMPORTANT: XC functional enforced from input :
     Exchange-correlation      = BEEF-VDW ( 1  4 27 13 2)
     Any further DFT definition will be discarded
     Please, verify this is what you really want

     Subspace diagonalization in iterative solution of the eigenvalue problem:
     a serial algorithm will be used

     bravais-lattice index     =            0
     lattice parameter (alat)  =       1.8897  a.u.
     unit-cell volume          =    5970.9206 (a.u.)^3
     number of atoms/cell      =           12
     number of atomic types    =            2
     number of electrons       =       153.00
     number of Kohn-Sham states=           86
     kinetic-energy cutoff     =      36.7493  Ry
     charge density cutoff     =     367.4932  Ry
     convergence threshold     =      1.0E-05
     mixing beta               =       0.3000
     number of iterations used =           10  plain     mixing
     Exchange-correlation      = BEEF-VDW ( 1  4 27 13 2)
     nstep                     =           50

     celldm(1)=   1.889726  celldm(2)=   0.000000  celldm(3)=   0.000000
     celldm(4)=   0.000000  celldm(5)=   0.000000  celldm(6)=   0.000000

     crystal axes: (cart. coord. in units of alat)
               a(1) = (   6.367448   0.000000   0.000000 )
               a(2) = (   3.183724   5.514371  -0.000000 )
               a(3) = (   0.000000   0.000000  25.198999 )

     reciprocal axes: (cart. coord. in units 2 pi/alat)
               b(1) = (  0.157049 -0.090672  0.000000 )
               b(2) = (  0.000000  0.181344 -0.000000 )
               b(3) = (  0.000000  0.000000  0.039684 )

     PseudoPot. # 1 for Hf read from file:
     /home/mamunm/src/pseudo/gbrv1.5pbe/Hf.UPF
     MD5 check sum: 8ee9378dfe14276e333edf04c5e4aa26
     Pseudo is Ultrasoft + core correction, Zval = 12.0
     Generated by new atomic code, or converted to UPF format
     Using radial grid of  921 points,  8 beta functions with:
                l(1) =   0
                l(2) =   0
                l(3) =   0
                l(4) =   1
                l(5) =   1
                l(6) =   2
                l(7) =   2
                l(8) =   3
     Q(r) pseudized with  6 coefficients,  rinner =    1.200   1.200   1.200
                                                       1.200   1.200   1.200
                                                       1.200

     PseudoPot. # 2 for Bi read from file:
     /home/mamunm/src/pseudo/gbrv1.5pbe/Bi.UPF
     MD5 check sum: 81103212dc04adf40945787f699eab19
     Pseudo is Ultrasoft + core correction, Zval = 15.0
     Generated by new atomic code, or converted to UPF format
     Using radial grid of  899 points,  6 beta functions with:
                l(1) =   0
                l(2) =   0
                l(3) =   1
                l(4) =   1
                l(5) =   2
                l(6) =   2
     Q(r) pseudized with  6 coefficients,  rinner =    1.000   1.000   1.000
                                                       1.000   1.000

     vdW kernel table read from file vdW_kernel_table
     MD5 check sum: 095c7af220d748ca6e76c0b4c6cfb241

     atomic species   valence    mass     pseudopotential
        Hf1           12.00   178.49000     Hf( 1.00)
        Bi1           15.00   208.98040     Bi( 1.00)

     No symmetry found

   Cartesian axes

     site n.     atom                  positions (alat units)
         1           Hf1 tau(   1) = (   0.0000000   0.0000000  10.0000000  )
         2           Bi1 tau(   2) = (   1.5918619   2.7571857  10.0000000  )
         3           Hf1 tau(   3) = (   3.1837238   0.0000000  10.0000000  )
         4           Hf1 tau(   4) = (   4.7755858   2.7571857  10.0000000  )
         5           Hf1 tau(   5) = (   6.3674477   3.6762476  12.5994996  )
         6           Bi1 tau(   6) = (   4.7755858   0.9190619  12.5994996  )
         7           Hf1 tau(   7) = (   3.1837238   3.6762476  12.5994996  )
         8           Hf1 tau(   8) = (   1.5918619   0.9190619  12.5994996  )
         9           Hf1 tau(   9) = (   3.1837238   1.8381238  15.1989993  )
        10           Bi1 tau(  10) = (   4.7755858   4.5953095  15.1989993  )
        11           Hf1 tau(  11) = (   6.3674477   1.8381238  15.1989993  )
        12           Hf1 tau(  12) = (   7.9593096   4.5953095  15.1989993  )

     number of k points=    20  Fermi-Dirac smearing, width (Ry)=  0.0110
                       cart. coord. in units 2pi/alat
        k(    1) = (   0.0000000   0.0000000   0.0000000), wk =   0.0555556
        k(    2) = (   0.0000000   0.0302241  -0.0000000), wk =   0.1111111
        k(    3) = (   0.0000000   0.0604481  -0.0000000), wk =   0.1111111
        k(    4) = (   0.0000000  -0.0906722   0.0000000), wk =   0.0555556
        k(    5) = (   0.0261748  -0.0151120   0.0000000), wk =   0.1111111
        k(    6) = (   0.0261748   0.0151120  -0.0000000), wk =   0.1111111
        k(    7) = (   0.0261748   0.0453361  -0.0000000), wk =   0.1111111
        k(    8) = (   0.0261748  -0.1057842   0.0000000), wk =   0.1111111
        k(    9) = (   0.0261748  -0.0755601   0.0000000), wk =   0.1111111
        k(   10) = (   0.0261748  -0.0453361   0.0000000), wk =   0.1111111
        k(   11) = (   0.0523496  -0.0302241   0.0000000), wk =   0.1111111
        k(   12) = (   0.0523496  -0.0000000   0.0000000), wk =   0.1111111
        k(   13) = (   0.0523496   0.0302241  -0.0000000), wk =   0.1111111
        k(   14) = (   0.0523496  -0.1208962   0.0000000), wk =   0.1111111
        k(   15) = (   0.0523496  -0.0906722   0.0000000), wk =   0.1111111
        k(   16) = (   0.0523496  -0.0604481   0.0000000), wk =   0.1111111
        k(   17) = (  -0.0785244   0.0453361  -0.0000000), wk =   0.0555556
        k(   18) = (  -0.0785244   0.0755601  -0.0000000), wk =   0.1111111
        k(   19) = (  -0.0785244   0.1057842  -0.0000000), wk =   0.1111111
        k(   20) = (  -0.0785244  -0.0453361   0.0000000), wk =   0.0555556

     Largest allocated arrays     est. size (Mb)     dimensions
     Largest temporary arrays     est. size (Mb)     dimensions

     Check: negative/imaginary core charge=   -0.000003    0.000000

     Initial potential from superposition of free atoms
     Check: negative starting charge=   -1.100612

     starting charge  131.99986, renormalised to  153.00000

     negative rho (up, down):  1.276E+00 0.000E+00

     *
     * You are using vdW-DF for exchange-correlation in this calculation.
     * Please cite the following three references that made this development
     * possible:
     *
     *   M. Dion, H. Rydberg, E. Schroder, D. C. Langreth, and
     *   B. I. Lundqvist, Phys. Rev. Lett. 92, 246401 (2004).
     *
     *   T. Thonhauser, V. R. Cooper, S. Li, A. Puzder, P. Hyldgaard, and
     *   D. C. Langreth, Phys. Rev. B 76, 125112 (2007).
     *
     *   G. Roman-Perez and J. M. Soler, Phys. Rev. Lett. 103, 096102 (2009).
     *
     *
     * If you are using vdW-DF2, please also cite:
     *
     *   K. Lee, E. D. Murray, L. Kong, B. I. Lundqvist, and
     *   D. C. Langreth, Phys. Rev. B 82, 081101(R) (2010).
     *
     *
     * If you are calculating the stress with vdW-DF, please also cite:
     *
     *   R. Sabatini, E. Kucukbenli, B. Kolb, T. Thonhauser, and
     *   S. de Gironcoli, J. Phys.: Condens. Matter 24, 424209 (2012).
     *

     Carrying out vdW-DF run using the following parameters:

     Nqs =      20    Nr_points =    1024   r_max =   100.000
     q_mesh =
               0.00001000     0.04494208     0.09755937     0.15916263
               0.23128650     0.31572767     0.41458969     0.53033537
               0.66584808     0.82450364     1.01025438     1.22772762
               1.48234092     1.78043706     2.12944203     2.53805004
               3.01644009     3.57652955     4.23227104     5.00000000

     Gradients computed in reciprocal space

     Adding external electric field

     Computed dipole along edir(3) :
        Dipole               -0.0000 Ry au,         -0.0000 Debye
        Dipole field         -0.0000 Ry au

        Potential amp.        0.0000 Ry
        Total length         46.4287 bohr

     Starting wfc are  144 randomized atomic wfcs

     Self-consistent Calculation

     iteration #  1     ecut=    36.75 Ry     beta=0.30
     Davidson diagonalization with overlap
     ethr =  1.00E-02,  avg # of iterations =  8.9

[...]

     total energy              =   -1956.13528673 Ry
     Harris-Foulkes estimate   =   -2021.18889971 Ry
     estimated scf accuracy    <     135.98750709 Ry

[...]

     End of self-consistent calculation

          k = 0.0000 0.0000 0.0000 ( 22489 PWs)   bands (ev):

   -60.9216 -60.9212 -60.8949 -60.8948 -60.8946 -60.8944 -60.4694 -60.4424
   -60.4421 -29.6334 -29.6249 -29.5917 -29.5915 -29.5737 -29.5735 -29.5366
   -29.5364 -29.5277 -29.4948 -29.4946 -29.4759 -29.3524 -29.3438 -29.3014
   -29.1974 -29.1972 -29.0675 -29.0673 -29.0622 -29.0621 -28.9691 -28.9689
   -28.9627 -28.8702 -28.6646 -28.6643 -21.5332 -21.5318 -21.5318 -21.5143
   -21.5143 -21.1662 -21.1624 -21.1450 -21.1450 -21.1397 -21.1397 -21.1348
   -21.1348 -21.1345 -21.1345 -10.0760  -9.2998  -9.2739  -2.8272  -2.5246
    -1.9441  -1.6488  -1.6487  -1.4789  -1.4788  -0.6901  -0.4224  -0.4224
    -0.1981  -0.1980  -0.0977   0.3533   0.4303   0.4303   0.7977   0.7978
     0.9945   1.1967   1.1968   1.4156   1.8626   2.0326   2.0328   2.3835
     2.4414   2.4415   2.5376   2.8506   3.1721   3.2050

[...]

          k =-0.0785 0.0453-0.0000 ( 22480 PWs)   bands (ev):

[...]

     the Fermi energy is     1.9150 ev

!    total energy              =   -2006.50605987 Ry
     Harris-Foulkes estimate   =   -2006.51719801 Ry
     estimated scf accuracy    <       0.00000036 Ry

     The total energy is the sum of the following terms:

     one-electron contribution =   -9438.27746049 Ry
     hartree contribution      =    4722.39664878 Ry
     xc contribution           =    -896.05060781 Ry
     ewald contribution        =    3605.51008357 Ry
     electric field correction =       0.00000001 Ry
     smearing contrib. (-TS)   =      -0.08472393 Ry

     convergence has been achieved in  18 iterations

 BEEF-vdW xc energy contributions
           1 :   -807.681689459806
           2 :    751.157418802225
           3 :   -650.848939114520
           4 :    527.411066647120
           5 :   -402.480386992026
           6 :    292.580560213603
           7 :   -206.180530663591
           8 :    144.218467700488
           9 :   -102.869515577547
          10 :    76.6328166787507
          11 :   -60.3887318559791
          12 :    50.0724374865570
          13 :   -42.5168707641302
          14 :    35.1955665120022
          15 :   -26.3118800912184
          16 :    15.1430446313599
          17 :   -2.28012978550021
          18 :   -10.5675000511009
          19 :    21.2148046817897
          20 :   -27.8302060597241
          21 :    29.5679425612915
          22 :   -26.7715883034448
          23 :    20.7461926152131
          24 :   -13.3088677741459
          25 :    6.33975284196435
          26 :   -1.45075079106653
          27 :  -0.256741433832985
          28 :   -1.60005841206350
          29 :    6.52306407272317
          30 :   -13.1340252902354
          31 :   -59.3370941119364
          32 :   -42.9943947925148

     Forces acting on atoms (Ry/au):

     negative rho (up, down):  1.164E+00 0.000E+00
     atom    1 type  1   force =     0.00746986   -0.00429228    0.02599513
     atom    2 type  2   force =    -0.00003240    0.00008536   -0.04148491
     atom    3 type  1   force =    -0.00745354   -0.00426188    0.02596825
     atom    4 type  1   force =    -0.00001708    0.00857055    0.02593597
     atom    5 type  1   force =     0.00001176   -0.00000345    0.00021913
     atom    6 type  2   force =    -0.00003553    0.00002259   -0.00032840
     atom    7 type  1   force =    -0.00000114    0.00002246    0.00019778
     atom    8 type  1   force =    -0.00002096   -0.00001136    0.00019549
     atom    9 type  1   force =    -0.00749423    0.00430241   -0.02603627
     atom   10 type  2   force =     0.00004660   -0.00008999    0.04139970
     atom   11 type  1   force =     0.00749524    0.00426647   -0.02604453
     atom   12 type  1   force =     0.00003142   -0.00861089   -0.02601734

     Total force =     0.063010     Total SCF correction =     0.001286

     entering subroutine stress ...

     negative rho (up, down):  1.164E+00 0.000E+00
          total   stress  (Ry/bohr**3)                   (kbar)     P=  -16.01
  -0.00012097  -0.00000003   0.00000001        -17.80     -0.00      0.00
  -0.00000003  -0.00012097  -0.00000000         -0.00    -17.80     -0.00
   0.00000001  -0.00000000  -0.00008462          0.00     -0.00    -12.45

     BFGS Geometry Optimization

     number of scf cycles    =   1
     number of bfgs steps    =   0

     energy   new            =   -2006.5060598652 Ry

     new trust radius        =       0.0413998220 bohr
     new conv_thr            =       0.0000099958 Ry

ATOMIC_POSITIONS (crystal)
Hf1      0.000000000   0.000000000   0.396841156    0   0   0
Bi1     -0.000000000   0.500000000   0.396841156    0   0   0
Hf1      0.500000000   0.000000000   0.396841156    0   0   0
Hf1      0.500000000   0.500000000   0.396841156    0   0   0
Hf1      0.666666667   0.666666667   0.500000000    0   0   0
Bi1      0.666666667   0.166666667   0.500000000    0   0   0
Hf1      0.166666667   0.666666667   0.500000000    0   0   0
Hf1      0.166666667   0.166666667   0.500000000    0   0   0
Hf1      0.332504076   0.333746207   0.602612084
Bi1      0.333341524   0.833324698   0.604028235
Hf1      0.833751526   0.333742757   0.602611911
Hf1      0.833749109   0.832507004   0.602612482

     Writing output data file calc.save
     Check: negative starting charge=   -1.100612
     NEW-OLD atomic charge density approx. for the potential

     Check: negative/imaginary core charge=   -0.000003    0.000000
     Check: negative starting charge=   -1.100447

[...]

     iteration #  1     ecut=    36.75 Ry     beta=0.30
     Davidson diagonalization with overlap
     c_bands:  1 eigenvalues not converged
     ethr =  1.00E-06,  avg # of iterations = 10.3

[...]

     Total force =     0.059486     Total SCF correction =     0.006109
     SCF correction compared to forces is large: reduce conv_thr to get better values

[...]

     energy   old            =   -2006.5060598652 Ry
     energy   new            =   -2006.5209690393 Ry

     CASE: energy  _new < energy  _old

     WARNING: bfgs curvature condition failed, Theta= 0.848
     new trust radius        =       0.0620997331 bohr
     new conv_thr            =       0.0000001000 Ry

[...]

     iteration #  1     ecut=    36.75 Ry     beta=0.30
     Davidson diagonalization with overlap
     c_bands:  1 eigenvalues not converged
     ethr =  1.00E-06,  avg # of iterations = 15.7

[...]

     WARNING: bfgs curvature condition failed, Theta= 0.919
     new trust radius        =       0.0092620661 bohr
     new conv_thr            =       0.0000001000 Ry

[...]

     Total force =     0.007974     Total SCF correction =     0.000285

[...]

     number of scf cycles    =   9
     number of bfgs steps    =   8

     energy   old            =   -2006.5407676728 Ry
     energy   new            =   -2006.5409339698 Ry

     CASE: energy  _new < energy  _old

     new trust radius        =       0.0208396487 bohr
     new conv_thr            =       0.0000001000 Ry

ATOMIC_POSITIONS (crystal)
Hf1      0.000000000   0.000000000   0.396841156    0   0   0
Bi1     -0.000000000   0.500000000   0.396841156    0   0   0
Hf1      0.500000000   0.000000000   0.396841156    0   0   0
Hf1      0.500000000   0.500000000   0.396841156    0   0   0
Hf1      0.666666667   0.666666667   0.500000000    0   0   0
Bi1      0.666666667   0.166666667   0.500000000    0   0   0
Hf1      0.166666667   0.666666667   0.500000000    0   0   0
Hf1      0.166666667   0.166666667   0.500000000    0   0   0
Hf1      0.330005278   0.334990107   0.596869807
Bi1      0.333370710   0.833305107   0.614338663
Hf1      0.835131021   0.334991787   0.596867806
Hf1      0.835126479   0.829871671   0.596868044

     Writing output data file calc.save
     Check: negative starting charge=   -1.100805
     NEW-OLD atomic charge density approx. for the potential

     Check: negative/imaginary core charge=   -0.000003    0.000000
     Check: negative starting charge=   -1.101179

[...]

     Self-consistent Calculation

[...]

     total energy              =   -2006.54100749 Ry
     Harris-Foulkes estimate   =   -2006.54100761 Ry
     estimated scf accuracy    <       0.00000098 Ry

     iteration #  9     ecut=    36.75 Ry     beta=0.30
     Davidson diagonalization with overlap
     ethr =  6.43E-10,  avg # of iterations =  3.6

[...]

     negative rho (up, down):  1.164E+00 0.000E+00

     Adding external electric field

     Computed dipole along edir(3) :
        Dipole               -0.0100 Ry au,         -0.0254 Debye
        Dipole field         -0.0000 Ry au

        Potential amp.        0.0020 Ry
        Total length         46.4287 bohr

     End of self-consistent calculation

[...]

          k = 0.0523-0.0604 0.0000 ( 22442 PWs)   bands (ev):

[...]

          k =-0.0785-0.0453 0.0000 ( 22480 PWs)   bands (ev):

   -60.9576 -60.9488 -60.9398 -60.7791 -60.7692 -60.7603 -60.4027 -60.3934
   -60.3847 -29.6412 -29.5985 -29.5936 -29.5641 -29.5236 -29.4967 -29.4783
   -29.4530 -29.4503 -29.4209 -29.4063 -29.3734 -29.3140 -29.3013 -29.2834
   -29.1875 -29.1411 -29.1364 -29.0413 -29.0232 -29.0170 -29.0035 -28.9600
   -28.8927 -28.7510 -28.7135 -28.6286 -21.5851 -21.5787 -21.5772 -21.5671
   -21.5658 -21.1877 -21.1708 -21.1689 -21.1681 -21.1567 -21.1513 -21.1388
   -21.1384 -21.1104 -21.1059  -9.7878  -9.1777  -8.9448  -3.8852  -3.1271
    -2.9075  -2.7408  -1.4790  -1.4664  -1.1975  -0.9875  -0.9061  -0.5288
    -0.1949   0.5025   0.7170   0.8439   0.8545   1.0653   1.2315   1.2639
     1.4326   1.4906   1.5610   1.5657   1.9002   1.9653   2.2260   2.3000
     2.4718   2.6434   2.8068   2.9517   3.1677   3.1946

     the Fermi energy is     1.8861 ev

!    total energy              =   -2006.54100758 Ry
     Harris-Foulkes estimate   =   -2006.54100757 Ry
     estimated scf accuracy    <       0.00000004 Ry

     The total energy is the sum of the following terms:

     one-electron contribution =   -9471.84695495 Ry
     hartree contribution      =    4739.27461783 Ry
     xc contribution           =    -896.16382512 Ry
     ewald contribution        =    3622.27397856 Ry
     electric field correction =       0.00000021 Ry
     smearing contrib. (-TS)   =      -0.07882410 Ry

     convergence has been achieved in   9 iterations

 BEEF-vdW xc energy contributions
           1 :   -808.113839274814
           2 :    751.612292473855
           3 :   -651.321439860153
           4 :    527.864656673183
           5 :   -402.872040007931
           6 :    292.898282081458
           7 :   -206.458049766530
           8 :    144.512224568522
           9 :   -103.216135362581
          10 :    77.0215117122102
          11 :   -60.7698181798345
          12 :    50.3941475962476
          13 :   -42.7622983999163
          14 :    35.3955241658991
          15 :   -26.5263130451387
          16 :    15.4225523850641
          17 :   -2.63119827131686
          18 :   -10.1906617232394
          19 :    20.8837388493303
          20 :   -27.5954719563948
          21 :    29.4229249397282
          22 :   -26.6518976723670
          23 :    20.5681690155283
          24 :   -13.0224379846361
          25 :    5.96002184957933
          26 :   -1.04719070748592
          27 :  -0.605736635566473
          28 :   -1.34414523055182
          29 :    6.33868043214829
          30 :   -12.9596602557127
          31 :   -59.3597610388993
          32 :   -43.0191749306334

     Forces acting on atoms (Ry/au):

     negative rho (up, down):  1.164E+00 0.000E+00
     atom    1 type  1   force =     0.00676573   -0.00390618    0.02311335
     atom    2 type  2   force =    -0.00001666    0.00000815   -0.04223579
     atom    3 type  1   force =    -0.00674531   -0.00389719    0.02312533
     atom    4 type  1   force =     0.00000217    0.00779183    0.02312621
     atom    5 type  1   force =    -0.00887500    0.00512423   -0.00190252
     atom    6 type  2   force =    -0.00001676    0.00000802   -0.02687241
     atom    7 type  1   force =     0.00887584    0.00512977   -0.00192275
     atom    8 type  1   force =    -0.00000444   -0.01025613   -0.00192548
     atom    9 type  1   force =     0.00009193   -0.00005005    0.00122013
     atom   10 type  2   force =     0.00001404   -0.00000217    0.00186047
     atom   11 type  1   force =    -0.00006633   -0.00000649    0.00120841
     atom   12 type  1   force =    -0.00002520    0.00005622    0.00120504

     Total force =     0.002807     Total SCF correction =     0.000422
     SCF correction compared to forces is large: reduce conv_thr to get better values

     entering subroutine stress ...

     negative rho (up, down):  1.164E+00 0.000E+00
          total   stress  (Ry/bohr**3)                   (kbar)     P=  -13.91
  -0.00012068  -0.00000007  -0.00000003        -17.75     -0.01     -0.00
  -0.00000007  -0.00012077   0.00000002         -0.01    -17.77      0.00
  -0.00000003   0.00000002  -0.00004218         -0.00      0.00     -6.20

     bfgs converged in  10 scf cycles and   9 bfgs steps
     (criteria: energy <  1.0E+00, force <  1.9E-03)

     End of BFGS Geometry Optimization

     Final energy   =   -2006.5410075779 Ry
Begin final coordinates

ATOMIC_POSITIONS (crystal)
Hf1      0.000000000   0.000000000   0.396841156    0   0   0
Bi1     -0.000000000   0.500000000   0.396841156    0   0   0
Hf1      0.500000000   0.000000000   0.396841156    0   0   0
Hf1      0.500000000   0.500000000   0.396841156    0   0   0
Hf1      0.666666667   0.666666667   0.500000000    0   0   0
Bi1      0.666666667   0.166666667   0.500000000    0   0   0
Hf1      0.166666667   0.666666667   0.500000000    0   0   0
Hf1      0.166666667   0.166666667   0.500000000    0   0   0
Hf1      0.330005278   0.334990107   0.596869807
Bi1      0.333370710   0.833305107   0.614338663
Hf1      0.835131021   0.334991787   0.596867806
Hf1      0.835126479   0.829871671   0.596868044
End final coordinates

     Writing output data file calc.save

     General routines

     Parallel routines

   This run was terminated on:  20:30:36  23Feb2018

   JOB DONE.