     Program PWSCF v.5.1rc2 (svn rev. ) starts on 23Feb2018 at 19:29: 1

     Current dimensions of program PWSCF are:
     Max number of different atomic species (ntypx) = 10
     Max number of k-points (npk) =  40000
     Max angular momentum in pseudopotentials (lmaxx) =  3
     Presently stress not available with electric field

     IMPORTANT: XC functional enforced from input :
     Exchange-correlation      = BEEF-VDW ( 1  4 27 13 2)
     Any further DFT definition will be discarded
     Please, verify this is what you really want

     Subspace diagonalization in iterative solution of the eigenvalue problem:
     a serial algorithm will be used

     bravais-lattice index     =            0
     lattice parameter (alat)  =       1.8897  a.u.
     unit-cell volume          =    6728.9907 (a.u.)^3
     number of atoms/cell      =           12
     number of atomic types    =            2
     number of electrons       =       180.00
     number of Kohn-Sham states=          100
     kinetic-energy cutoff     =      36.7493  Ry
     charge density cutoff     =     367.4932  Ry
     convergence threshold     =      1.0E-05
     mixing beta               =       0.3000
     number of iterations used =           10  plain     mixing
     Exchange-correlation      = BEEF-VDW ( 1  4 27 13 2)
     nstep                     =           50

     celldm(1)=   1.889726  celldm(2)=   0.000000  celldm(3)=   0.000000
     celldm(4)=   0.000000  celldm(5)=   0.000000  celldm(6)=   0.000000

     crystal axes: (cart. coord. in units of alat)
               a(1) = (   6.721173   0.000000   0.000000 )
               a(2) = (   3.360586   5.820706   0.000000 )
               a(3) = (   0.000000   0.000000  25.487814 )

     reciprocal axes: (cart. coord. in units 2 pi/alat)
               b(1) = (  0.148784 -0.085900  0.000000 )
               b(2) = (  0.000000  0.171800  0.000000 )
               b(3) = (  0.000000  0.000000  0.039234 )

     PseudoPot. # 1 for Bi read from file:
     /home/mamunm/src/pseudo/gbrv1.5pbe/Bi.UPF
     MD5 check sum: 81103212dc04adf40945787f699eab19
     Pseudo is Ultrasoft + core correction, Zval = 15.0
     Generated by new atomic code, or converted to UPF format
     Using radial grid of  899 points,  6 beta functions with:
                l(1) =   0
                l(2) =   0
                l(3) =   1
                l(4) =   1
                l(5) =   2
                l(6) =   2
     Q(r) pseudized with  6 coefficients,  rinner =    1.000   1.000   1.000
                                                       1.000   1.000

     PseudoPot. # 2 for Tc read from file:
     /home/mamunm/src/pseudo/gbrv1.5pbe/Tc.UPF
     MD5 check sum: 9eb49e5b028550b2339a02317eb7b844
     Pseudo is Ultrasoft + core correction, Zval = 15.0
     Generated by new atomic code, or converted to UPF format
     Using radial grid of  965 points,  6 beta functions with:
                l(1) =   0
                l(2) =   0
                l(3) =   1
                l(4) =   1
                l(5) =   2
                l(6) =   2
     Q(r) pseudized with  8 coefficients,  rinner =    1.300   1.300   1.300
                                                       1.300   1.300

     vdW kernel table read from file vdW_kernel_table
     MD5 check sum: 095c7af220d748ca6e76c0b4c6cfb241

     atomic species   valence    mass     pseudopotential
        Bi1           15.00   208.98040     Bi( 1.00)
        Tc1           15.00    97.90721     Tc( 1.00)

     No symmetry found

   Cartesian axes

     site n.     atom                  positions (alat units)
         1           Bi1 tau(   1) = (   0.0000000   0.0000000  10.0000000  )
         2           Tc1 tau(   2) = (   1.6802931   2.9103531  10.0000000  )
         3           Bi1 tau(   3) = (   3.3605863   0.0000000  10.0000000  )
         4           Bi1 tau(   4) = (   5.0408794   2.9103531  10.0000000  )
         5           Bi1 tau(   5) = (   6.7211726   3.8804708  12.7439072  )
         6           Tc1 tau(   6) = (   5.0408794   0.9701177  12.7439072  )
         7           Bi1 tau(   7) = (   3.3605863   3.8804708  12.7439072  )
         8           Bi1 tau(   8) = (   1.6802931   0.9701177  12.7439072  )
         9           Bi1 tau(   9) = (   3.3605863   1.9402354  15.4878144  )
        10           Tc1 tau(  10) = (   5.0408794   4.8505885  15.4878144  )
        11           Bi1 tau(  11) = (   6.7211726   1.9402354  15.4878144  )
        12           Bi1 tau(  12) = (   8.4014657   4.8505885  15.4878144  )

     number of k points=    20  Fermi-Dirac smearing, width (Ry)=  0.0110
                       cart. coord. in units 2pi/alat
        k(    1) = (   0.0000000   0.0000000   0.0000000), wk =   0.0555556
        k(    2) = (   0.0000000   0.0286334   0.0000000), wk =   0.1111111
        k(    3) = (   0.0000000   0.0572668   0.0000000), wk =   0.1111111
        k(    4) = (   0.0000000  -0.0859002   0.0000000), wk =   0.0555556
        k(    5) = (   0.0247973  -0.0143167   0.0000000), wk =   0.1111111
        k(    6) = (   0.0247973   0.0143167   0.0000000), wk =   0.1111111
        k(    7) = (   0.0247973   0.0429501   0.0000000), wk =   0.1111111
        k(    8) = (   0.0247973  -0.1002169   0.0000000), wk =   0.1111111
        k(    9) = (   0.0247973  -0.0715835   0.0000000), wk =   0.1111111
        k(   10) = (   0.0247973  -0.0429501   0.0000000), wk =   0.1111111
        k(   11) = (   0.0495945  -0.0286334   0.0000000), wk =   0.1111111
        k(   12) = (   0.0495945  -0.0000000   0.0000000), wk =   0.1111111
        k(   13) = (   0.0495945   0.0286334   0.0000000), wk =   0.1111111
        k(   14) = (   0.0495945  -0.1145336   0.0000000), wk =   0.1111111
        k(   15) = (   0.0495945  -0.0859002   0.0000000), wk =   0.1111111
        k(   16) = (   0.0495945  -0.0572668   0.0000000), wk =   0.1111111
        k(   17) = (  -0.0743918   0.0429501   0.0000000), wk =   0.0555556
        k(   18) = (  -0.0743918   0.0715835   0.0000000), wk =   0.1111111
        k(   19) = (  -0.0743918   0.1002169   0.0000000), wk =   0.1111111
        k(   20) = (  -0.0743918  -0.0429501   0.0000000), wk =   0.0555556

     Largest allocated arrays     est. size (Mb)     dimensions
     Largest temporary arrays     est. size (Mb)     dimensions

     Check: negative/imaginary core charge=   -0.000007    0.000000

     Initial potential from superposition of free atoms
     Check: negative starting charge=   -0.754511

     starting charge  167.99954, renormalised to  180.00000

     negative rho (up, down):  8.084E-01 0.000E+00

     *
     * You are using vdW-DF for exchange-correlation in this calculation.
     * Please cite the following three references that made this development
     * possible:
     *
     *   M. Dion, H. Rydberg, E. Schroder, D. C. Langreth, and
     *   B. I. Lundqvist, Phys. Rev. Lett. 92, 246401 (2004).
     *
     *   T. Thonhauser, V. R. Cooper, S. Li, A. Puzder, P. Hyldgaard, and
     *   D. C. Langreth, Phys. Rev. B 76, 125112 (2007).
     *
     *   G. Roman-Perez and J. M. Soler, Phys. Rev. Lett. 103, 096102 (2009).
     *
     *
     * If you are using vdW-DF2, please also cite:
     *
     *   K. Lee, E. D. Murray, L. Kong, B. I. Lundqvist, and
     *   D. C. Langreth, Phys. Rev. B 82, 081101(R) (2010).
     *
     *
     * If you are calculating the stress with vdW-DF, please also cite:
     *
     *   R. Sabatini, E. Kucukbenli, B. Kolb, T. Thonhauser, and
     *   S. de Gironcoli, J. Phys.: Condens. Matter 24, 424209 (2012).
     *

     Carrying out vdW-DF run using the following parameters:

     Nqs =      20    Nr_points =    1024   r_max =   100.000
     q_mesh =
               0.00001000     0.04494208     0.09755937     0.15916263
               0.23128650     0.31572767     0.41458969     0.53033537
               0.66584808     0.82450364     1.01025438     1.22772762
               1.48234092     1.78043706     2.12944203     2.53805004
               3.01644009     3.57652955     4.23227104     5.00000000

     Gradients computed in reciprocal space

     Adding external electric field

     Computed dipole along edir(3) :
        Dipole                0.0000 Ry au,          0.0000 Debye
        Dipole field          0.0000 Ry au

        Potential amp.       -0.0000 Ry
        Total length         46.9609 bohr

     Starting wfc are  120 randomized atomic wfcs

     Self-consistent Calculation

     iteration #  1     ecut=    36.75 Ry     beta=0.30
     Davidson diagonalization with overlap
     ethr =  1.00E-02,  avg # of iterations =  4.0

[...]

     total energy              =   -2206.90592708 Ry
     Harris-Foulkes estimate   =   -2213.72506929 Ry
     estimated scf accuracy    <      15.09976294 Ry

[...]

     End of self-consistent calculation

          k = 0.0000 0.0000 0.0000 ( 25365 PWs)   bands (ev):

   -65.0548 -64.9330 -64.9314 -37.1096 -37.0652 -37.0652 -36.9926 -36.9926
   -36.9913 -36.9913 -36.9464 -36.9450 -22.2497 -22.2275 -22.2275 -22.2009
   -22.1416 -22.1416 -22.1003 -22.1003 -22.0972 -22.0916 -22.0609 -22.0569
   -22.0543 -22.0543 -22.0265 -22.0265 -22.0187 -22.0187 -21.9995 -21.9995
   -21.9779 -21.9620 -21.9589 -21.9180 -21.9180 -21.9025 -21.9025 -21.8877
   -21.8831 -21.8730 -21.8730 -21.8574 -21.8574 -21.8555 -21.8449 -21.8449
   -21.8400 -21.8400 -21.8382 -21.8382 -21.8302 -21.8258 -21.8258 -21.7766
   -21.7755 -11.8319 -10.8085  -9.7973  -9.1918  -9.1918  -8.5604  -8.5604
    -8.0657  -8.0657  -3.9778  -3.2003  -2.8795  -2.5142  -2.5142  -2.3660
    -1.8118  -1.8118  -1.3551  -1.3551  -0.8636   0.2226   0.2226   0.3516
     0.3516   0.8998   0.8998   0.9204   1.0797   1.0797   1.0868   1.1037
     1.1037   1.2033   1.2033   1.2684   1.3843   1.8454   2.4277   2.4277
     2.5498   2.5498   2.7807   2.8744

[...]

          k =-0.0744 0.0430 0.0000 ( 25350 PWs)   bands (ev):

[...]

     the Fermi energy is     1.3227 ev

!    total energy              =   -2209.72361850 Ry
     Harris-Foulkes estimate   =   -2209.72362448 Ry
     estimated scf accuracy    <       0.00000733 Ry

     The total energy is the sum of the following terms:

     one-electron contribution =  -11643.04796816 Ry
     hartree contribution      =    5861.82888329 Ry
     xc contribution           =    -698.24134168 Ry
     ewald contribution        =    4269.84004231 Ry
     electric field correction =       0.00000019 Ry
     smearing contrib. (-TS)   =      -0.10323447 Ry

     convergence has been achieved in  15 iterations

 BEEF-vdW xc energy contributions
           1 :   -621.066335777158
           2 :    576.106534378021
           3 :   -496.816882954760
           4 :    400.430385453822
           5 :   -305.006165637353
           6 :    224.050218986591
           7 :   -163.525100484507
           8 :    121.935842642176
           9 :   -93.0491375800259
          10 :    69.7381452318906
          11 :   -47.2592934345062
          12 :    24.6799374678661
          13 :   -4.22349875455461
          14 :   -10.7857420494424
          15 :    18.1431089739465
          16 :   -18.0781167951409
          17 :    13.1625518064500
          18 :   -7.07378477087991
          19 :    2.95329344291861
          20 :   -2.21163198494287
          21 :    4.28430515424486
          22 :   -7.34139507009104
          23 :    9.47510653561312
          24 :   -9.72976306635769
          25 :    8.47946662895447
          26 :   -7.05197753095035
          27 :    6.87319577483379
          28 :   -8.62607682314558
          29 :    11.8556696652911
          30 :   -15.1987140519039
          31 :   -50.7840296902847
          32 :   -37.2724340326213

     Forces acting on atoms (Ry/au):

     negative rho (up, down):  7.737E-01 0.000E+00
     atom    1 type  1   force =    -0.02750828    0.01588348    0.00077197
     atom    2 type  2   force =    -0.00000143   -0.00000086    0.04853255
     atom    3 type  1   force =     0.02750936    0.01588480    0.00077151
     atom    4 type  1   force =     0.00000058   -0.03176469    0.00077088
     atom    5 type  1   force =    -0.00050041    0.00029315    0.00058872
     atom    6 type  2   force =     0.00000044   -0.00000100   -0.00063894
     atom    7 type  1   force =     0.00049671    0.00028601    0.00059218
     atom    8 type  1   force =     0.00000770   -0.00057065    0.00059542
     atom    9 type  1   force =     0.02761395   -0.01594972   -0.00075966
     atom   10 type  2   force =     0.00000087   -0.00000064   -0.04969711
     atom   11 type  1   force =    -0.02762217   -0.01594757   -0.00076246
     atom   12 type  1   force =     0.00000268    0.03188769   -0.00076507

     Total force =     0.074314     Total SCF correction =     0.002717

     entering subroutine stress ...

     negative rho (up, down):  7.737E-01 0.000E+00
          total   stress  (Ry/bohr**3)                   (kbar)     P=  -14.40
  -0.00009943   0.00000000   0.00000000        -14.63      0.00      0.00
   0.00000000  -0.00009943   0.00000000          0.00    -14.63      0.00
   0.00000000   0.00000000  -0.00009488          0.00      0.00    -13.96

     BFGS Geometry Optimization

     number of scf cycles    =   1
     number of bfgs steps    =   0

     energy   new            =   -2209.7236185048 Ry

     new trust radius        =       0.0496971059 bohr
     new conv_thr            =       0.0000099958 Ry

ATOMIC_POSITIONS (crystal)
Bi1      0.000000000   0.000000000   0.392344350    0   0   0
Tc1     -0.000000000   0.500000000   0.392344350    0   0   0
Bi1      0.500000000   0.000000000   0.392344350    0   0   0
Bi1      0.500000000   0.500000000   0.392344350    0   0   0
Bi1      0.666666667   0.666666667   0.500000000    0   0   0
Tc1      0.666666667   0.166666667   0.500000000    0   0   0
Bi1      0.166666667   0.666666667   0.500000000    0   0   0
Bi1      0.166666667   0.166666667   0.500000000    0   0   0
Bi1      0.336232476   0.331883298   0.607639878
Tc1      0.333333431   0.833333275   0.606623840
Bi1      0.831883480   0.331883494   0.607639819
Bi1      0.831884044   0.836232335   0.607639765

     Writing output data file calc.save
     Check: negative starting charge=   -0.754511
     NEW-OLD atomic charge density approx. for the potential

     Check: negative/imaginary core charge=   -0.000007    0.000000
     Check: negative starting charge=   -0.755774

[...]

     energy   old            =   -2209.7236185048 Ry
     energy   new            =   -2209.7289527418 Ry

     CASE: energy  _new < energy  _old

     WARNING: bfgs curvature condition failed, Theta= 0.852
     new trust radius        =       0.0745456588 bohr
     new conv_thr            =       0.0000001000 Ry

[...]

     Total force =     0.005594     Total SCF correction =     0.000082

[...]

     number of scf cycles    =  14
     number of bfgs steps    =  13

     energy   old            =   -2209.7825781958 Ry
     energy   new            =   -2209.7827166475 Ry

     CASE: energy  _new < energy  _old

     new trust radius        =       0.0289495698 bohr
     new conv_thr            =       0.0000001000 Ry

ATOMIC_POSITIONS (crystal)
Bi1      0.000000000   0.000000000   0.392344350    0   0   0
Tc1     -0.000000000   0.500000000   0.392344350    0   0   0
Bi1      0.500000000   0.000000000   0.392344350    0   0   0
Bi1      0.500000000   0.500000000   0.392344350    0   0   0
Bi1      0.666666667   0.666666667   0.500000000    0   0   0
Tc1      0.666666667   0.166666667   0.500000000    0   0   0
Bi1      0.166666667   0.666666667   0.500000000    0   0   0
Bi1      0.166666667   0.166666667   0.500000000    0   0   0
Bi1      0.353914992   0.323034677   0.603632147
Tc1      0.333334635   0.833336353   0.581151644
Bi1      0.823038467   0.323042987   0.603631748
Bi1      0.823044611   0.853912741   0.603632173

     Writing output data file calc.save
     Check: negative starting charge=   -0.754355
     NEW-OLD atomic charge density approx. for the potential

     Check: negative/imaginary core charge=   -0.000007    0.000000
     Check: negative starting charge=   -0.753664

[...]

     Self-consistent Calculation

[...]

     total energy              =   -2209.78285722 Ry
     Harris-Foulkes estimate   =   -2209.78285735 Ry
     estimated scf accuracy    <       0.00000136 Ry

     iteration # 11     ecut=    36.75 Ry     beta=0.30
     Davidson diagonalization with overlap
     ethr =  7.57E-10,  avg # of iterations =  2.5

[...]

     negative rho (up, down):  7.751E-01 0.000E+00

     Adding external electric field

     Computed dipole along edir(3) :
        Dipole                0.0638 Ry au,          0.1621 Debye
        Dipole field          0.0001 Ry au

        Potential amp.       -0.0112 Ry
        Total length         46.9609 bohr

     End of self-consistent calculation

[...]

          k = 0.0496-0.0573 0.0000 ( 25320 PWs)   bands (ev):

[...]

          k =-0.0744-0.0430 0.0000 ( 25350 PWs)   bands (ev):

   -65.0003 -64.9022 -64.8986 -37.0551 -37.0161 -37.0158 -37.0134 -36.9538
   -36.9538 -36.9537 -36.9536 -36.9327 -22.1702 -22.1167 -22.1028 -22.1001
   -22.0941 -22.0816 -22.0712 -22.0582 -22.0545 -22.0075 -22.0058 -22.0008
   -21.9905 -21.9896 -21.9753 -21.9744 -21.9538 -21.9473 -21.9381 -21.9305
   -21.9039 -21.8863 -21.8862 -21.8845 -21.8755 -21.8708 -21.8667 -21.8600
   -21.8525 -21.8494 -21.8473 -21.8429 -21.8392 -21.8361 -21.8301 -21.8291
   -21.8197 -21.8011 -21.7993 -21.7917 -21.7901 -21.7844 -21.7799 -21.7721
   -21.7433 -11.1048 -10.8919 -10.1902  -9.5668  -9.4235  -9.2655  -8.7331
    -8.5546  -7.9395  -3.4537  -3.0638  -2.4637  -1.6690  -1.5204  -1.4040
    -1.2751  -1.2393  -1.1526  -0.7194  -0.6944  -0.4767  -0.0739  -0.0267
     0.1339   0.3791   0.5248   0.6918   0.8310   0.9267   0.9438   1.0323
     1.1236   1.1825   1.2789   1.2846   1.5477   1.7691   1.9030   2.2142
     2.4007   2.7791   2.8758   3.1144

     the Fermi energy is     1.3714 ev

!    total energy              =   -2209.78285724 Ry
     Harris-Foulkes estimate   =   -2209.78285797 Ry
     estimated scf accuracy    <       0.00000006 Ry

     The total energy is the sum of the following terms:

     one-electron contribution =  -12044.35043896 Ry
     hartree contribution      =    6062.78992302 Ry
     xc contribution           =    -698.54718326 Ry
     ewald contribution        =    4470.42486623 Ry
     electric field correction =       0.00000760 Ry
     smearing contrib. (-TS)   =      -0.10003186 Ry

     convergence has been achieved in  11 iterations

 BEEF-vdW xc energy contributions
           1 :   -621.385152137476
           2 :    576.570032909115
           3 :   -497.465720713641
           4 :    401.156013981070
           5 :   -305.595032261427
           6 :    224.302288541695
           7 :   -163.374319445497
           8 :    121.498521480961
           9 :   -92.5704296893671
          10 :    69.4680573032424
          11 :   -47.3270199530291
          12 :    25.0335879379229
          13 :   -4.66454134385890
          14 :   -10.4940918004949
          15 :    18.1503336894336
          16 :   -18.3706942409478
          17 :    13.5775370057916
          18 :   -7.39161088165099
          19 :    3.01693672601073
          20 :   -2.00596836962700
          21 :    3.93611491504612
          22 :   -7.04405042724534
          23 :    9.38259683092883
          24 :   -9.87879324587038
          25 :    8.77895577476647
          26 :   -7.34043787824055
          27 :    7.00745523879027
          28 :   -8.55246004402284
          29 :    11.6288119695398
          30 :   -14.9442295150618
          31 :   -50.8098396400410
          32 :   -37.3321918856766

     Forces acting on atoms (Ry/au):

     negative rho (up, down):  7.751E-01 0.000E+00
     atom    1 type  1   force =    -0.02413143    0.01393194   -0.00196823
     atom    2 type  2   force =     0.00000035    0.00000043    0.03693404
     atom    3 type  1   force =     0.02413108    0.01393230   -0.00196853
     atom    4 type  1   force =     0.00000004   -0.02786438   -0.00196810
     atom    5 type  1   force =     0.00734600   -0.00424114   -0.01522737
     atom    6 type  2   force =    -0.00000024   -0.00000025    0.01547768
     atom    7 type  1   force =    -0.00734478   -0.00424168   -0.01522462
     atom    8 type  1   force =    -0.00000101    0.00848251   -0.01522820
     atom    9 type  1   force =     0.00138837   -0.00080340   -0.00016946
     atom   10 type  2   force =     0.00000174    0.00000198   -0.00031888
     atom   11 type  1   force =    -0.00139021   -0.00080217   -0.00016947
     atom   12 type  1   force =     0.00000009    0.00160387   -0.00016886

     Total force =     0.002812     Total SCF correction =     0.000531
     SCF correction compared to forces is large: reduce conv_thr to get better values

     entering subroutine stress ...

     negative rho (up, down):  7.751E-01 0.000E+00
          total   stress  (Ry/bohr**3)                   (kbar)     P=   -6.01
  -0.00004099  -0.00000000  -0.00000000         -6.03     -0.00     -0.00
  -0.00000000  -0.00004099  -0.00000000         -0.00     -6.03     -0.00
  -0.00000000  -0.00000000  -0.00004058         -0.00     -0.00     -5.97

     bfgs converged in  15 scf cycles and  14 bfgs steps
     (criteria: energy <  1.0E+00, force <  1.9E-03)

     End of BFGS Geometry Optimization

     Final energy   =   -2209.7828572353 Ry
Begin final coordinates

ATOMIC_POSITIONS (crystal)
Bi1      0.000000000   0.000000000   0.392344350    0   0   0
Tc1     -0.000000000   0.500000000   0.392344350    0   0   0
Bi1      0.500000000   0.000000000   0.392344350    0   0   0
Bi1      0.500000000   0.500000000   0.392344350    0   0   0
Bi1      0.666666667   0.666666667   0.500000000    0   0   0
Tc1      0.666666667   0.166666667   0.500000000    0   0   0
Bi1      0.166666667   0.666666667   0.500000000    0   0   0
Bi1      0.166666667   0.166666667   0.500000000    0   0   0
Bi1      0.353914992   0.323034677   0.603632147
Tc1      0.333334635   0.833336353   0.581151644
Bi1      0.823038467   0.323042987   0.603631748
Bi1      0.823044611   0.853912741   0.603632173
End final coordinates

     Writing output data file calc.save

     General routines

     Parallel routines

   This run was terminated on:  21: 0: 2  23Feb2018

   JOB DONE.