     Program PWSCF v.5.1rc2 starts on 23Feb2018 at 19:37:28

     Current dimensions of program PWSCF are:
     Max number of different atomic species (ntypx) = 10
     Max number of k-points (npk) =  40000
     Max angular momentum in pseudopotentials (lmaxx) =  3
     Presently stress not available with electric field

     IMPORTANT: XC functional enforced from input :
     Exchange-correlation      = BEEF-VDW ( 1  4 27 13 2)
     Any further DFT definition will be discarded
     Please, verify this is what you really want

     bravais-lattice index     =            0
     lattice parameter (alat)  =       1.8897  a.u.
     unit-cell volume          =    6963.4954 (a.u.)^3
     number of atoms/cell      =           12
     number of atomic types    =            2
     number of electrons       =       174.00
     number of Kohn-Sham states=           97
     kinetic-energy cutoff     =      36.7493  Ry
     charge density cutoff     =     367.4932  Ry
     convergence threshold     =      1.0E-05
     mixing beta               =       0.3000
     number of iterations used =           10  plain     mixing
     Exchange-correlation      = BEEF-VDW ( 1  4 27 13 2)
     nstep                     =           50

     celldm(1)=   1.889726  celldm(2)=   0.000000  celldm(3)=   0.000000
     celldm(4)=   0.000000  celldm(5)=   0.000000  celldm(6)=   0.000000

     crystal axes: (cart. coord. in units of alat)
               a(1) = (   6.825851   0.000000   0.000000 )
               a(2) = (   3.412925   5.911360   0.000000 )
               a(3) = (   0.000000   0.000000  25.573284 )

     reciprocal axes: (cart. coord. in units 2 pi/alat)
               b(1) = (  0.146502 -0.084583  0.000000 )
               b(2) = (  0.000000  0.169166  0.000000 )
               b(3) = (  0.000000  0.000000  0.039103 )

     PseudoPot. # 1 for Bi read from file:
     /home/users/mamunm/src/pseudo/gbrv1.5pbe/Bi.UPF
     MD5 check sum: 81103212dc04adf40945787f699eab19
     Pseudo is Ultrasoft + core correction, Zval = 15.0
     Generated by new atomic code, or converted to UPF format
     Using radial grid of  899 points,  6 beta functions with:
                l(1) =   0
                l(2) =   0
                l(3) =   1
                l(4) =   1
                l(5) =   2
                l(6) =   2
     Q(r) pseudized with  6 coefficients,  rinner =    1.000   1.000   1.000
                                                       1.000   1.000

     PseudoPot. # 2 for Ta read from file:
     /home/users/mamunm/src/pseudo/gbrv1.5pbe/Ta.UPF
     MD5 check sum: f8bbe9446314a3b8ea5d9f3e3836c939
     Pseudo is Ultrasoft + core correction, Zval = 13.0
     Generated by new atomic code, or converted to UPF format
     Using radial grid of  921 points,  7 beta functions with:
                l(1) =   0
                l(2) =   0
                l(3) =   1
                l(4) =   1
                l(5) =   2
                l(6) =   2
                l(7) =   3
     Q(r) pseudized with  6 coefficients,  rinner =    1.300   1.300   1.300
                                                       1.300   1.300   1.300
                                                       1.300

     vdW kernel table read from file vdW_kernel_table
     MD5 check sum: 095c7af220d748ca6e76c0b4c6cfb241

     atomic species   valence    mass     pseudopotential
        Bi1           15.00   208.98040     Bi( 1.00)
        Ta1           13.00   180.94788     Ta( 1.00)

     No symmetry found

   Cartesian axes

     site n.     atom                  positions (alat units)
         1           Bi1 tau(   1) = (   0.0000000   0.0000000  10.0000000  )
         2           Ta1 tau(   2) = (   1.7064627   2.9556800  10.0000000  )
         3           Bi1 tau(   3) = (   3.4129253   0.0000000  10.0000000  )
         4           Bi1 tau(   4) = (   5.1193880   2.9556800  10.0000000  )
         5           Bi1 tau(   5) = (   6.8258506   3.9409067  12.7866419  )
         6           Ta1 tau(   6) = (   5.1193880   0.9852267  12.7866419  )
         7           Bi1 tau(   7) = (   3.4129253   3.9409067  12.7866419  )
         8           Bi1 tau(   8) = (   1.7064627   0.9852267  12.7866419  )
         9           Bi1 tau(   9) = (   3.4129253   1.9704534  15.5732837  )
        10           Ta1 tau(  10) = (   5.1193880   4.9261334  15.5732837  )
        11           Bi1 tau(  11) = (   6.8258506   1.9704534  15.5732837  )
        12           Bi1 tau(  12) = (   8.5323133   4.9261334  15.5732837  )

     number of k points=    20  Fermi-Dirac smearing, width (Ry)=  0.0110
                       cart. coord. in units 2pi/alat
        k(    1) = (   0.0000000   0.0000000   0.0000000), wk =   0.0555556
        k(    2) = (   0.0000000   0.0281943   0.0000000), wk =   0.1111111
        k(    3) = (   0.0000000   0.0563886   0.0000000), wk =   0.1111111
        k(    4) = (   0.0000000  -0.0845829   0.0000000), wk =   0.0555556
        k(    5) = (   0.0244170  -0.0140972   0.0000000), wk =   0.1111111
        k(    6) = (   0.0244170   0.0140972   0.0000000), wk =   0.1111111
        k(    7) = (   0.0244170   0.0422915   0.0000000), wk =   0.1111111
        k(    8) = (   0.0244170  -0.0986801   0.0000000), wk =   0.1111111
        k(    9) = (   0.0244170  -0.0704858   0.0000000), wk =   0.1111111
        k(   10) = (   0.0244170  -0.0422915   0.0000000), wk =   0.1111111
        k(   11) = (   0.0488340  -0.0281943   0.0000000), wk =   0.1111111
        k(   12) = (   0.0488340   0.0000000   0.0000000), wk =   0.1111111
        k(   13) = (   0.0488340   0.0281943   0.0000000), wk =   0.1111111
        k(   14) = (   0.0488340  -0.1127772   0.0000000), wk =   0.1111111
        k(   15) = (   0.0488340  -0.0845829   0.0000000), wk =   0.1111111
        k(   16) = (   0.0488340  -0.0563886   0.0000000), wk =   0.1111111
        k(   17) = (  -0.0732509   0.0422915   0.0000000), wk =   0.0555556
        k(   18) = (  -0.0732509   0.0704858   0.0000000), wk =   0.1111111
        k(   19) = (  -0.0732509   0.0986801   0.0000000), wk =   0.1111111
        k(   20) = (  -0.0732509  -0.0422915   0.0000000), wk =   0.0555556

     Largest allocated arrays     est. size (Mb)     dimensions
     Largest temporary arrays     est. size (Mb)     dimensions

     Initial potential from superposition of free atoms
     Check: negative starting charge=   -0.663225

     starting charge  164.99629, renormalised to  174.00000

     negative rho (up, down):  6.994E-01 0.000E+00

     *
     * You are using vdW-DF for exchange-correlation in this calculation.
     * Please cite the following three references that made this development
     * possible:
     *
     *   M. Dion, H. Rydberg, E. Schroder, D. C. Langreth, and
     *   B. I. Lundqvist, Phys. Rev. Lett. 92, 246401 (2004).
     *
     *   T. Thonhauser, V. R. Cooper, S. Li, A. Puzder, P. Hyldgaard, and
     *   D. C. Langreth, Phys. Rev. B 76, 125112 (2007).
     *
     *   G. Roman-Perez and J. M. Soler, Phys. Rev. Lett. 103, 096102 (2009).
     *
     *
     * If you are using vdW-DF2, please also cite:
     *
     *   K. Lee, E. D. Murray, L. Kong, B. I. Lundqvist, and
     *   D. C. Langreth, Phys. Rev. B 82, 081101(R) (2010).
     *
     *
     * If you are calculating the stress with vdW-DF, please also cite:
     *
     *   R. Sabatini, E. Kucukbenli, B. Kolb, T. Thonhauser, and
     *   S. de Gironcoli, J. Phys.: Condens. Matter 24, 424209 (2012).
     *

     Carrying out vdW-DF run using the following parameters:

     Nqs =      20    Nr_points =    1024   r_max =   100.000
     q_mesh =
               0.00001000     0.04494208     0.09755937     0.15916263
               0.23128650     0.31572767     0.41458969     0.53033537
               0.66584808     0.82450364     1.01025438     1.22772762
               1.48234092     1.78043706     2.12944203     2.53805004
               3.01644009     3.57652955     4.23227104     5.00000000

     Gradients computed in reciprocal space

     Adding external electric field

     Computed dipole along edir(3) :
        Dipole               -0.0000 Ry au,         -0.0000 Debye
        Dipole field         -0.0000 Ry au

        Potential amp.        0.0000 Ry
        Total length         47.1183 bohr

     Starting wfc are  120 randomized atomic wfcs

     Self-consistent Calculation

     iteration #  1     ecut=    36.75 Ry     beta=0.30
     Davidson diagonalization with overlap
     ethr =  1.00E-02,  avg # of iterations =  3.0

[...]

     total energy              =   -2112.67960516 Ry
     Harris-Foulkes estimate   =   -2115.79532359 Ry
     estimated scf accuracy    <       7.01402997 Ry

[...]

     End of self-consistent calculation

          k = 0.0000 0.0000 0.0000 ( 26229 PWs)   bands (ev):

   -68.2347 -68.2338 -68.0321 -34.5113 -34.5105 -34.4794 -34.4794 -34.4785
   -34.4785 -34.3209 -34.3209 -34.2345 -22.2472 -22.2274 -22.2274 -22.2076
   -22.1562 -22.1562 -22.1115 -22.1102 -22.1102 -22.1076 -22.0728 -22.0728
   -22.0486 -22.0486 -22.0017 -22.0000 -21.9900 -21.9651 -21.9651 -21.9552
   -21.9552 -21.9285 -21.9176 -21.8763 -21.8763 -21.8689 -21.8688 -21.8482
   -21.8459 -21.8366 -21.8366 -21.8278 -21.8278 -21.8169 -21.8121 -21.8121
   -21.8074 -21.8074 -21.8024 -21.8024 -21.8014 -21.7950 -21.7950 -21.7521
   -21.7516 -11.7626 -10.7330  -9.8084  -9.2780  -9.2780  -8.6348  -8.6348
    -8.2085  -8.2085  -3.9194  -3.2675  -3.0519  -2.7158  -2.7158  -2.3925
    -1.9396  -1.9396  -1.5604  -1.5604  -1.2139   0.2856   0.2856   0.3200
     0.3200   0.4232   0.4342   1.0737   1.3403   1.3403   1.4672   1.5181
     1.5687   1.5688   1.5785   1.5785   1.8458   1.8458   2.4880   2.5470
     2.5470

[...]

          k =-0.0733 0.0423 0.0000 ( 26166 PWs)   bands (ev):

[...]

     the Fermi energy is     1.3296 ev

!    total energy              =   -2113.48594509 Ry
     Harris-Foulkes estimate   =   -2113.48594778 Ry
     estimated scf accuracy    <       0.00000326 Ry

     The total energy is the sum of the following terms:

     one-electron contribution =  -10455.45307178 Ry
     hartree contribution      =    5262.12287361 Ry
     xc contribution           =    -729.31029195 Ry
     ewald contribution        =    3809.24640274 Ry
     electric field correction =       0.00000014 Ry
     smearing contrib. (-TS)   =      -0.09185784 Ry

     convergence has been achieved in  15 iterations

 BEEF-vdW xc energy contributions
           1 :   -648.905898578445
           2 :    602.347004459112
           3 :   -520.355306247028
           4 :    420.989521423720
           5 :   -323.061573310502
           6 :    240.527719456463
           7 :   -179.388526722584
           8 :    137.873609883833
           9 :   -109.352158252860
          10 :    86.3645872850591
          11 :   -63.9366227689836
          12 :    40.9401468012945
          13 :   -19.3543105267988
          14 :    2.24223335906026
          15 :    8.32453452307016
          16 :   -12.4078687300075
          17 :    12.0640702507094
          18 :   -10.2453283224620
          19 :    9.43528829905745
          20 :   -10.7015980560172
          21 :    13.5329160920140
          22 :   -16.4155946965399
          23 :    17.7781791719681
          24 :   -16.8259902913394
          25 :    13.9024192295725
          26 :   -10.2692826302135
          27 :    7.45881368069536
          28 :   -6.52668421385033
          29 :    7.56076276556564
          30 :   -9.67314453221161
          31 :   -52.7718715259280
          32 :   -38.8648348514179

     Forces acting on atoms (Ry/au):

     negative rho (up, down):  6.901E-01 0.000E+00
     atom    1 type  1   force =    -0.02522008    0.01455995   -0.00344163
     atom    2 type  2   force =     0.00000115    0.00000091    0.05285275
     atom    3 type  1   force =     0.02522309    0.01455031   -0.00343223
     atom    4 type  1   force =     0.00000795   -0.02911506   -0.00343222
     atom    5 type  1   force =    -0.00015584    0.00008584    0.00046954
     atom    6 type  2   force =    -0.00000144    0.00000072   -0.00056563
     atom    7 type  1   force =     0.00014695    0.00008598    0.00045264
     atom    8 type  1   force =    -0.00000104   -0.00016937    0.00045028
     atom    9 type  1   force =     0.02527166   -0.01459143    0.00350216
     atom   10 type  2   force =    -0.00000063    0.00000013   -0.05386205
     atom   11 type  1   force =    -0.02526973   -0.01458652    0.00350128
     atom   12 type  1   force =    -0.00000203    0.02917856    0.00350512

     Total force =     0.074109     Total SCF correction =     0.001090

     entering subroutine stress ...

     negative rho (up, down):  6.901E-01 0.000E+00
          total   stress  (Ry/bohr**3)                   (kbar)     P=  -13.99
  -0.00009860   0.00000000   0.00000000        -14.51      0.00      0.00
   0.00000000  -0.00009860  -0.00000000          0.00    -14.50     -0.00
   0.00000000  -0.00000000  -0.00008801          0.00     -0.00    -12.95

     BFGS Geometry Optimization

     number of scf cycles    =   1
     number of bfgs steps    =   0

     energy   new            =   -2113.4859450862 Ry

     new trust radius        =       0.0538620510 bohr
     new conv_thr            =       0.0000099958 Ry

ATOMIC_POSITIONS (crystal)
Bi1      0.000000000   0.000000000   0.391033084    0   0   0
Ta1      0.000000000   0.500000000   0.391033084    0   0   0
Bi1      0.500000000   0.000000000   0.391033084    0   0   0
Bi1      0.500000000   0.500000000   0.391033084    0   0   0
Bi1      0.666666667   0.666666667   0.500000000    0   0   0
Ta1      0.666666667   0.166666667   0.500000000    0   0   0
Bi1      0.166666667   0.666666667   0.500000000    0   0   0
Bi1      0.166666667   0.166666667   0.500000000    0   0   0
Bi1      0.335945633   0.332027127   0.609039385
Ta1      0.333333279   0.833333345   0.607852371
Bi1      0.832027169   0.332027567   0.609039366
Bi1      0.832027163   0.835945360   0.609039446

     Writing output data file calc.save
     Check: negative starting charge=   -0.663225
     NEW-OLD atomic charge density approx. for the potential
     Check: negative starting charge=   -0.664568

[...]

     energy   old            =   -2113.4859450862 Ry
     energy   new            =   -2113.4912419836 Ry

     CASE: energy  _new < energy  _old

     WARNING: bfgs curvature condition failed, Theta= 0.826
     new trust radius        =       0.0592482561 bohr
     new conv_thr            =       0.0000001000 Ry

[...]

     Total force =     0.004594     Total SCF correction =     0.000274

[...]

     Total force =     0.004639     Total SCF correction =     0.000921
     SCF correction compared to forces is large: reduce conv_thr to get better values

[...]

     number of scf cycles    =  14
     number of bfgs steps    =  13

     energy   old            =   -2113.5443660212 Ry
     energy   new            =   -2113.5443959268 Ry

     CASE: energy  _new < energy  _old

     new trust radius        =       0.0102950298 bohr
     new conv_thr            =       0.0000001000 Ry

ATOMIC_POSITIONS (crystal)
Bi1      0.000000000   0.000000000   0.391033084    0   0   0
Ta1      0.000000000   0.500000000   0.391033084    0   0   0
Bi1      0.500000000   0.000000000   0.391033084    0   0   0
Bi1      0.500000000   0.500000000   0.391033084    0   0   0
Bi1      0.666666667   0.666666667   0.500000000    0   0   0
Ta1      0.666666667   0.166666667   0.500000000    0   0   0
Bi1      0.166666667   0.666666667   0.500000000    0   0   0
Bi1      0.166666667   0.166666667   0.500000000    0   0   0
Bi1      0.351421518   0.324288531   0.608414432
Ta1      0.333333126   0.833333806   0.584510376
Bi1      0.824288831   0.324289703   0.608414322
Bi1      0.824289499   0.851420646   0.608414807

     Writing output data file calc.save
     Check: negative starting charge=   -0.663599
     NEW-OLD atomic charge density approx. for the potential
     Check: negative starting charge=   -0.663894

[...]

     Self-consistent Calculation

[...]

     total energy              =   -2113.54443932 Ry
     Harris-Foulkes estimate   =   -2113.54443941 Ry
     estimated scf accuracy    <       0.00000043 Ry

     iteration # 10     ecut=    36.75 Ry     beta=0.30
     Davidson diagonalization with overlap
     ethr =  2.43E-10,  avg # of iterations =  2.0

[...]

     negative rho (up, down):  6.926E-01 0.000E+00

     Adding external electric field

     Computed dipole along edir(3) :
        Dipole                0.0479 Ry au,          0.1219 Debye
        Dipole field          0.0001 Ry au

        Potential amp.       -0.0082 Ry
        Total length         47.1183 bohr

     End of self-consistent calculation

[...]

          k = 0.0488-0.0564 0.0000 ( 26175 PWs)   bands (ev):

[...]

          k =-0.0733-0.0423 0.0000 ( 26166 PWs)   bands (ev):

   -68.2916 -67.9575 -67.9461 -34.5995 -34.5162 -34.5162 -34.2826 -34.2563
   -34.2562 -34.2391 -34.2390 -34.1566 -22.2037 -22.1662 -22.1467 -22.1410
   -22.1371 -22.1268 -22.1194 -22.1061 -22.0623 -22.0603 -22.0540 -22.0405
   -22.0352 -22.0178 -22.0007 -21.9882 -21.9673 -21.9417 -21.9400 -21.9142
   -21.8878 -21.8809 -21.8710 -21.8705 -21.8676 -21.8629 -21.8537 -21.8501
   -21.8466 -21.8420 -21.8396 -21.8379 -21.8358 -21.8276 -21.8234 -21.8222
   -21.8124 -21.7998 -21.7964 -21.7912 -21.7905 -21.7852 -21.7827 -21.7747
   -21.7502 -11.0585 -10.7837 -10.1320  -9.5767  -9.4674  -9.3785  -8.8806
    -8.6271  -8.1357  -3.8934  -3.3367  -2.7015  -1.9465  -1.6778  -1.5523
    -1.5031  -1.4425  -1.3474  -0.9360  -0.8697  -0.5328  -0.2211  -0.1757
     0.1005   0.3007   0.3955   0.5615   0.6224   0.8388   1.2632   1.3893
     1.5061   1.5634   1.7463   1.7803   1.8915   1.9692   2.3980   2.6128
     2.6997

     the Fermi energy is     1.3689 ev

!    total energy              =   -2113.54443933 Ry
     Harris-Foulkes estimate   =   -2113.54443943 Ry
     estimated scf accuracy    <       0.00000003 Ry

     The total energy is the sum of the following terms:

     one-electron contribution =  -10673.26356187 Ry
     hartree contribution      =    5371.21940700 Ry
     xc contribution           =    -729.55891203 Ry
     ewald contribution        =    3918.13916872 Ry
     electric field correction =       0.00000415 Ry
     smearing contrib. (-TS)   =      -0.08054529 Ry

     convergence has been achieved in  10 iterations

 BEEF-vdW xc energy contributions
           1 :   -649.156747163296
           2 :    602.685779773452
           3 :   -520.812419365276
           4 :    421.504568524506
           5 :   -323.501755021266
           6 :    240.757028650114
           7 :   -179.347356882853
           8 :    137.619366390206
           9 :   -109.034592242102
          10 :    86.1489924667477
          11 :   -63.9192443711120
          12 :    41.1039350847396
          13 :   -19.5881956964843
          14 :    2.40993994983478
          15 :    8.30810985916241
          16 :   -12.5363699605357
          17 :    12.2547606505279
          18 :   -10.3945346794106
          19 :    9.47701468476635
          20 :   -10.6353525934826
          21 :    13.4106853567938
          22 :   -16.3040415785015
          23 :    17.7231817711491
          24 :   -16.8384382553301
          25 :    13.9662791259494
          26 :   -10.3578044397141
          27 :    7.54457341037846
          28 :   -6.58315239395233
          29 :    7.56360167728769
          30 :   -9.60923386269326
          31 :   -52.7917240758148
          32 :   -38.9054968680672

     Forces acting on atoms (Ry/au):

     negative rho (up, down):  6.926E-01 0.000E+00
     atom    1 type  1   force =    -0.02217836    0.01280532   -0.00351313
     atom    2 type  2   force =     0.00000008   -0.00000003    0.05057207
     atom    3 type  1   force =     0.02217870    0.01280510   -0.00351313
     atom    4 type  1   force =     0.00000013   -0.02561002   -0.00351285
     atom    5 type  1   force =     0.01486641   -0.00858296   -0.01549715
     atom    6 type  2   force =    -0.00000008   -0.00000026    0.01137277
     atom    7 type  1   force =    -0.01486651   -0.00858313   -0.01549676
     atom    8 type  1   force =    -0.00000004    0.01716643   -0.01549764
     atom    9 type  1   force =     0.00162833   -0.00094055   -0.00163114
     atom   10 type  2   force =     0.00000017    0.00000007   -0.00002127
     atom   11 type  1   force =    -0.00162888   -0.00094051   -0.00163074
     atom   12 type  1   force =     0.00000005    0.00188056   -0.00163104

     Total force =     0.004312     Total SCF correction =     0.000525
     SCF correction compared to forces is large: reduce conv_thr to get better values

     entering subroutine stress ...

     negative rho (up, down):  6.926E-01 0.000E+00
          total   stress  (Ry/bohr**3)                   (kbar)     P=   -8.99
  -0.00006388  -0.00000000  -0.00000000         -9.40     -0.00     -0.00
  -0.00000000  -0.00006387  -0.00000000         -0.00     -9.40     -0.00
  -0.00000000  -0.00000000  -0.00005555         -0.00     -0.00     -8.17

     bfgs converged in  15 scf cycles and  14 bfgs steps
     (criteria: energy <  1.0E+00, force <  1.9E-03)

     End of BFGS Geometry Optimization

     Final energy   =   -2113.5444393250 Ry
Begin final coordinates

ATOMIC_POSITIONS (crystal)
Bi1      0.000000000   0.000000000   0.391033084    0   0   0
Ta1      0.000000000   0.500000000   0.391033084    0   0   0
Bi1      0.500000000   0.000000000   0.391033084    0   0   0
Bi1      0.500000000   0.500000000   0.391033084    0   0   0
Bi1      0.666666667   0.666666667   0.500000000    0   0   0
Ta1      0.666666667   0.166666667   0.500000000    0   0   0
Bi1      0.166666667   0.666666667   0.500000000    0   0   0
Bi1      0.166666667   0.166666667   0.500000000    0   0   0
Bi1      0.351421518   0.324288531   0.608414432
Ta1      0.333333126   0.833333806   0.584510376
Bi1      0.824288831   0.324289703   0.608414322
Bi1      0.824289499   0.851420646   0.608414807
End final coordinates

     Writing output data file calc.save

     General routines

     Parallel routines

   This run was terminated on:  20:43: 6  23Feb2018

   JOB DONE.