     Program PWSCF v.5.1rc2 starts on 14Nov2017 at  9:47:47

     Current dimensions of program PWSCF are:
     Max number of different atomic species (ntypx) = 10
     Max number of k-points (npk) =  40000
     Max angular momentum in pseudopotentials (lmaxx) =  3

     IMPORTANT: XC functional enforced from input :
     Exchange-correlation      = BEEF-VDW ( 1  4 27 13 2)
     Any further DFT definition will be discarded
     Please, verify this is what you really want

     Found symmetry operation: I + ( -0.5000 -0.5000  0.0000)
     This is a supercell, fractional translations are disabled

     bravais-lattice index     =            0
     lattice parameter (alat)  =       1.8897  a.u.
     unit-cell volume          =     571.1314 (a.u.)^3
     number of atoms/cell      =            4
     number of atomic types    =            2
     number of electrons       =        56.00
     number of Kohn-Sham states=           48
     kinetic-energy cutoff     =      58.7989  Ry
     charge density cutoff     =     587.9892  Ry
     convergence threshold     =      1.0E-06
     mixing beta               =       0.1000
     number of iterations used =           10  plain     mixing
     Exchange-correlation      = BEEF-VDW ( 1  4 27 13 2)

     celldm(1)=   1.889726  celldm(2)=   0.000000  celldm(3)=   0.000000
     celldm(4)=   0.000000  celldm(5)=   0.000000  celldm(6)=   0.000000

     crystal axes: (cart. coord. in units of alat)
               a(1) = (   4.274605   0.000000   0.000000 )
               a(2) = (   0.000000   4.274605   0.000000 )
               a(3) = (   0.000000   0.000000   4.631776 )

     reciprocal axes: (cart. coord. in units 2 pi/alat)
               b(1) = (  0.233940  0.000000  0.000000 )
               b(2) = (  0.000000  0.233940  0.000000 )
               b(3) = (  0.000000  0.000000  0.215900 )

     PseudoPot. # 1 for W  read from file:
     /home/users/vossj/suncat/psp/gbrv1.5pbe/W.UPF
     MD5 check sum: 9c083fa34c2a2ea0f02f1f893e16e1c8
     Pseudo is Ultrasoft + core correction, Zval = 14.0
     Generated by new atomic code, or converted to UPF format
     Using radial grid of  923 points,  8 beta functions with:
                l(1) =   0
                l(2) =   0
                l(3) =   0
                l(4) =   1
                l(5) =   1
                l(6) =   2
                l(7) =   2
                l(8) =   3
     Q(r) pseudized with  6 coefficients,  rinner =    1.350   1.350   1.350
                                                       1.350   1.350   1.350
                                                       1.350

     PseudoPot. # 2 for Pb read from file:
     /home/users/vossj/suncat/psp/gbrv1.5pbe/Pb.UPF
     MD5 check sum: 3d1c1779aa92214d1e8f3a7db79003e2
     Pseudo is Ultrasoft + core correction, Zval = 14.0
     Generated by new atomic code, or converted to UPF format
     Using radial grid of  899 points,  6 beta functions with:
                l(1) =   0
                l(2) =   0
                l(3) =   1
                l(4) =   1
                l(5) =   2
                l(6) =   2
     Q(r) pseudized with  6 coefficients,  rinner =    1.000   1.000   1.000
                                                       1.000   1.000

     vdW kernel table read from file vdW_kernel_table
     MD5 check sum: 095c7af220d748ca6e76c0b4c6cfb241

     atomic species   valence    mass     pseudopotential
        W1            14.00   183.85000     W ( 1.00)
        Pb1           14.00   207.20000     Pb( 1.00)

     16 Sym. Ops., with inversion, found

   Cartesian axes

     site n.     atom                  positions (alat units)
         1           W1  tau(   1) = (   0.0000000   0.0000000   0.0000000  )
         2           W1  tau(   2) = (   2.1373024   2.1373024   0.0000000  )
         3           Pb1 tau(   3) = (   2.1373024   0.0000000   2.3158878  )
         4           Pb1 tau(   4) = (   0.0000000   2.1373024   2.3158878  )

     number of k points=    75  Fermi-Dirac smearing, width (Ry)=  0.0073
                       cart. coord. in units 2pi/alat
        k(    1) = (   0.0000000   0.0000000   0.0000000), wk =   0.0027435
        k(    2) = (   0.0000000   0.0000000   0.0239889), wk =   0.0054870
        k(    3) = (   0.0000000   0.0000000   0.0479778), wk =   0.0054870
        k(    4) = (   0.0000000   0.0000000   0.0719666), wk =   0.0054870
        k(    5) = (   0.0000000   0.0000000   0.0959555), wk =   0.0054870
        k(    6) = (   0.0000000   0.0259933   0.0000000), wk =   0.0109739
        k(    7) = (   0.0000000   0.0259933   0.0239889), wk =   0.0219479
        k(    8) = (   0.0000000   0.0259933   0.0479778), wk =   0.0219479
        k(    9) = (   0.0000000   0.0259933   0.0719666), wk =   0.0219479
        k(   10) = (   0.0000000   0.0259933   0.0959555), wk =   0.0219479
        k(   11) = (   0.0000000   0.0519866   0.0000000), wk =   0.0109739
        k(   12) = (   0.0000000   0.0519866   0.0239889), wk =   0.0219479
        k(   13) = (   0.0000000   0.0519866   0.0479778), wk =   0.0219479
        k(   14) = (   0.0000000   0.0519866   0.0719666), wk =   0.0219479
        k(   15) = (   0.0000000   0.0519866   0.0959555), wk =   0.0219479
        k(   16) = (   0.0000000   0.0779799   0.0000000), wk =   0.0109739
        k(   17) = (   0.0000000   0.0779799   0.0239889), wk =   0.0219479
        k(   18) = (   0.0000000   0.0779799   0.0479778), wk =   0.0219479
        k(   19) = (   0.0000000   0.0779799   0.0719666), wk =   0.0219479
        k(   20) = (   0.0000000   0.0779799   0.0959555), wk =   0.0219479
        k(   21) = (   0.0000000   0.1039732   0.0000000), wk =   0.0109739
        k(   22) = (   0.0000000   0.1039732   0.0239889), wk =   0.0219479
        k(   23) = (   0.0000000   0.1039732   0.0479778), wk =   0.0219479
        k(   24) = (   0.0000000   0.1039732   0.0719666), wk =   0.0219479
        k(   25) = (   0.0000000   0.1039732   0.0959555), wk =   0.0219479
        k(   26) = (   0.0259933   0.0259933   0.0000000), wk =   0.0109739
        k(   27) = (   0.0259933   0.0259933   0.0239889), wk =   0.0219479
        k(   28) = (   0.0259933   0.0259933   0.0479778), wk =   0.0219479
        k(   29) = (   0.0259933   0.0259933   0.0719666), wk =   0.0219479
        k(   30) = (   0.0259933   0.0259933   0.0959555), wk =   0.0219479
        k(   31) = (   0.0259933   0.0519866   0.0000000), wk =   0.0219479
        k(   32) = (   0.0259933   0.0519866   0.0239889), wk =   0.0438957
        k(   33) = (   0.0259933   0.0519866   0.0479778), wk =   0.0438957
        k(   34) = (   0.0259933   0.0519866   0.0719666), wk =   0.0438957
        k(   35) = (   0.0259933   0.0519866   0.0959555), wk =   0.0438957
        k(   36) = (   0.0259933   0.0779799   0.0000000), wk =   0.0219479
        k(   37) = (   0.0259933   0.0779799   0.0239889), wk =   0.0438957
        k(   38) = (   0.0259933   0.0779799   0.0479778), wk =   0.0438957
        k(   39) = (   0.0259933   0.0779799   0.0719666), wk =   0.0438957
        k(   40) = (   0.0259933   0.0779799   0.0959555), wk =   0.0438957
        k(   41) = (   0.0259933   0.1039732   0.0000000), wk =   0.0219479
        k(   42) = (   0.0259933   0.1039732   0.0239889), wk =   0.0438957
        k(   43) = (   0.0259933   0.1039732   0.0479778), wk =   0.0438957
        k(   44) = (   0.0259933   0.1039732   0.0719666), wk =   0.0438957
        k(   45) = (   0.0259933   0.1039732   0.0959555), wk =   0.0438957
        k(   46) = (   0.0519866   0.0519866   0.0000000), wk =   0.0109739
        k(   47) = (   0.0519866   0.0519866   0.0239889), wk =   0.0219479
        k(   48) = (   0.0519866   0.0519866   0.0479778), wk =   0.0219479
        k(   49) = (   0.0519866   0.0519866   0.0719666), wk =   0.0219479
        k(   50) = (   0.0519866   0.0519866   0.0959555), wk =   0.0219479
        k(   51) = (   0.0519866   0.0779799   0.0000000), wk =   0.0219479
        k(   52) = (   0.0519866   0.0779799   0.0239889), wk =   0.0438957
        k(   53) = (   0.0519866   0.0779799   0.0479778), wk =   0.0438957
        k(   54) = (   0.0519866   0.0779799   0.0719666), wk =   0.0438957
        k(   55) = (   0.0519866   0.0779799   0.0959555), wk =   0.0438957
        k(   56) = (   0.0519866   0.1039732   0.0000000), wk =   0.0219479
        k(   57) = (   0.0519866   0.1039732   0.0239889), wk =   0.0438957
        k(   58) = (   0.0519866   0.1039732   0.0479778), wk =   0.0438957
        k(   59) = (   0.0519866   0.1039732   0.0719666), wk =   0.0438957
        k(   60) = (   0.0519866   0.1039732   0.0959555), wk =   0.0438957
        k(   61) = (   0.0779799   0.0779799   0.0000000), wk =   0.0109739
        k(   62) = (   0.0779799   0.0779799   0.0239889), wk =   0.0219479
        k(   63) = (   0.0779799   0.0779799   0.0479778), wk =   0.0219479
        k(   64) = (   0.0779799   0.0779799   0.0719666), wk =   0.0219479
        k(   65) = (   0.0779799   0.0779799   0.0959555), wk =   0.0219479
        k(   66) = (   0.0779799   0.1039732   0.0000000), wk =   0.0219479
        k(   67) = (   0.0779799   0.1039732   0.0239889), wk =   0.0438957
        k(   68) = (   0.0779799   0.1039732   0.0479778), wk =   0.0438957
        k(   69) = (   0.0779799   0.1039732   0.0719666), wk =   0.0438957
        k(   70) = (   0.0779799   0.1039732   0.0959555), wk =   0.0438957
        k(   71) = (   0.1039732   0.1039732   0.0000000), wk =   0.0109739
        k(   72) = (   0.1039732   0.1039732   0.0239889), wk =   0.0219479
        k(   73) = (   0.1039732   0.1039732   0.0479778), wk =   0.0219479
        k(   74) = (   0.1039732   0.1039732   0.0719666), wk =   0.0219479
        k(   75) = (   0.1039732   0.1039732   0.0959555), wk =   0.0219479

     Largest allocated arrays     est. size (Mb)     dimensions
     Largest temporary arrays     est. size (Mb)     dimensions

     Initial potential from superposition of free atoms
     Check: negative starting charge=   -0.155555

     starting charge   55.79462, renormalised to   56.00000

     negative rho (up, down):  1.561E-01 0.000E+00

     *
     * You are using vdW-DF for exchange-correlation in this calculation.
     * Please cite the following three references that made this development
     * possible:
     *
     *   M. Dion, H. Rydberg, E. Schroder, D. C. Langreth, and
     *   B. I. Lundqvist, Phys. Rev. Lett. 92, 246401 (2004).
     *
     *   T. Thonhauser, V. R. Cooper, S. Li, A. Puzder, P. Hyldgaard, and
     *   D. C. Langreth, Phys. Rev. B 76, 125112 (2007).
     *
     *   G. Roman-Perez and J. M. Soler, Phys. Rev. Lett. 103, 096102 (2009).
     *
     *
     * If you are using vdW-DF2, please also cite:
     *
     *   K. Lee, E. D. Murray, L. Kong, B. I. Lundqvist, and
     *   D. C. Langreth, Phys. Rev. B 82, 081101(R) (2010).
     *
     *
     * If you are calculating the stress with vdW-DF, please also cite:
     *
     *   R. Sabatini, E. Kucukbenli, B. Kolb, T. Thonhauser, and
     *   S. de Gironcoli, J. Phys.: Condens. Matter 24, 424209 (2012).
     *

     Carrying out vdW-DF run using the following parameters:

     Nqs =      20    Nr_points =    1024   r_max =   100.000
     q_mesh =
               0.00001000     0.04494208     0.09755937     0.15916263
               0.23128650     0.31572767     0.41458969     0.53033537
               0.66584808     0.82450364     1.01025438     1.22772762
               1.48234092     1.78043706     2.12944203     2.53805004
               3.01644009     3.57652955     4.23227104     5.00000000

     Gradients computed in reciprocal space

     Starting wfc are   44 randomized atomic wfcs +    4 random wfc

     Self-consistent Calculation

     iteration #  1     ecut=    58.80 Ry     beta=0.10
     Davidson diagonalization with overlap
     ethr =  1.00E-02,  avg # of iterations =  4.4

     Threshold (ethr) on eigenvalues was too large:
     Diagonalizing with lowered threshold

     Davidson diagonalization with overlap
     ethr =  2.33E-04,  avg # of iterations =  1.2

[...]

     total energy              =    -652.59420316 Ry
     Harris-Foulkes estimate   =    -652.61188426 Ry
     estimated scf accuracy    <       0.13086059 Ry

[...]

     total energy              =    -652.58972435 Ry
     Harris-Foulkes estimate   =    -652.58962334 Ry
     estimated scf accuracy    <       0.00000155 Ry

     iteration # 11     ecut=    58.80 Ry     beta=0.10
     Davidson diagonalization with overlap
     ethr =  2.76E-09,  avg # of iterations =  2.0

     negative rho (up, down):  1.725E-01 0.000E+00

     End of self-consistent calculation

          k = 0.0000 0.0000 0.0000 (  4353 PWs)   bands (ev):

   -57.8242 -57.7933 -22.0236 -22.0236 -21.9126 -21.8445 -21.7316 -21.7316
    -1.3784  -1.1183  -0.9307  -0.8187  -0.8187  -0.5000  -0.5000  -0.4299
    -0.4286  -0.1295   4.2805  10.5122  12.8879  14.0380  14.1100  14.4200
    14.4200  15.4943  15.4943  15.8210  16.0426  17.9417  17.9417  19.0121
    19.2696  19.9957  20.7752  22.4388  22.4388  23.2113  23.4566  23.4566
    24.6338  27.2900  27.3465  27.7058  28.7379  29.0057  29.3869  30.1847

[...]

          k = 0.1040 0.1040 0.0960 (  4360 PWs)   bands (ev):

   -57.8091 -57.8082 -22.0598 -22.0512 -21.8809 -21.8788 -21.7137 -21.7047
    -1.0978  -1.0679  -0.8809  -0.8726  -0.7143  -0.6938  -0.4771  -0.4676
    -0.3938  -0.3726   7.7028   7.9394  12.0320  12.2330  13.2676  13.7633
    14.0980  14.4309  16.5688  16.5747  17.2635  17.3041  17.5951  17.6641
    18.1347  18.1500  21.7311  21.7885  25.6513  25.9256  25.9815  26.2289
    27.0585  27.1770  27.3256  27.3331  28.3169  28.5008  28.9604  29.2630

     the Fermi energy is    16.9131 ev

!    total energy              =    -652.59015519 Ry
     Harris-Foulkes estimate   =    -652.58972459 Ry
     estimated scf accuracy    <       0.00000007 Ry

     The total energy is the sum of the following terms:

     one-electron contribution =     -85.38517294 Ry
     hartree contribution      =      81.92090023 Ry
     xc contribution           =    -215.93872566 Ry
     ewald contribution        =    -433.17573909 Ry
     smearing contrib. (-TS)   =      -0.01141772 Ry

     convergence has been achieved in  11 iterations

     Forces acting on atoms (Ry/au):

     negative rho (up, down):  1.725E-01 0.000E+00
     atom    1 type  1   force =     0.00000000    0.00000000    0.00000000
     atom    2 type  1   force =     0.00000000    0.00000000    0.00000000
     atom    3 type  2   force =     0.00000000    0.00000000    0.00000000
     atom    4 type  2   force =     0.00000000    0.00000000    0.00000000

     Total force =     0.000000     Total SCF correction =     0.000000

     General routines

     Parallel routines

   This run was terminated on:   9:48:38  14Nov2017

   JOB DONE.