     Program PWSCF v.5.1rc2 starts on 14Nov2017 at 15:41:38

     Current dimensions of program PWSCF are:
     Max number of different atomic species (ntypx) = 10
     Max number of k-points (npk) =  40000
     Max angular momentum in pseudopotentials (lmaxx) =  3

     IMPORTANT: XC functional enforced from input :
     Exchange-correlation      = BEEF-VDW ( 1  4 27 13 2)
     Any further DFT definition will be discarded
     Please, verify this is what you really want

     Found symmetry operation: I + (  0.5000  0.5000  0.0000)
     This is a supercell, fractional translations are disabled

     bravais-lattice index     =            0
     lattice parameter (alat)  =       1.8897  a.u.
     unit-cell volume          =     441.8055 (a.u.)^3
     number of atoms/cell      =            4
     number of atomic types    =            2
     number of electrons       =        56.00
     number of Kohn-Sham states=           48
     kinetic-energy cutoff     =      58.7989  Ry
     charge density cutoff     =     587.9892  Ry
     convergence threshold     =      1.0E-06
     mixing beta               =       0.1000
     number of iterations used =           10  plain     mixing
     Exchange-correlation      = BEEF-VDW ( 1  4 27 13 2)

     celldm(1)=   1.889726  celldm(2)=   0.000000  celldm(3)=   0.000000
     celldm(4)=   0.000000  celldm(5)=   0.000000  celldm(6)=   0.000000

     crystal axes: (cart. coord. in units of alat)
               a(1) = (   3.770631   0.000000   0.000000 )
               a(2) = (   0.000000   3.770631   0.000000 )
               a(3) = (   0.000000   0.000000   4.604755 )

     reciprocal axes: (cart. coord. in units 2 pi/alat)
               b(1) = (  0.265208  0.000000  0.000000 )
               b(2) = (  0.000000  0.265208  0.000000 )
               b(3) = (  0.000000  0.000000  0.217167 )

     PseudoPot. # 1 for Mo read from file:
     /home/users/vossj/suncat/psp/gbrv1.5pbe/Mo.UPF
     MD5 check sum: 30c4dcd161f5d35cd49bb5239c51a633
     Pseudo is Ultrasoft + core correction, Zval = 14.0
     Generated by new atomic code, or converted to UPF format
     Using radial grid of  889 points,  6 beta functions with:
                l(1) =   0
                l(2) =   0
                l(3) =   1
                l(4) =   1
                l(5) =   2
                l(6) =   2
     Q(r) pseudized with  6 coefficients,  rinner =    1.000   1.000   1.000
                                                       1.000   1.000

     PseudoPot. # 2 for W  read from file:
     /home/users/vossj/suncat/psp/gbrv1.5pbe/W.UPF
     MD5 check sum: 9c083fa34c2a2ea0f02f1f893e16e1c8
     Pseudo is Ultrasoft + core correction, Zval = 14.0
     Generated by new atomic code, or converted to UPF format
     Using radial grid of  923 points,  8 beta functions with:
                l(1) =   0
                l(2) =   0
                l(3) =   0
                l(4) =   1
                l(5) =   1
                l(6) =   2
                l(7) =   2
                l(8) =   3
     Q(r) pseudized with  6 coefficients,  rinner =    1.350   1.350   1.350
                                                       1.350   1.350   1.350
                                                       1.350

     vdW kernel table read from file vdW_kernel_table
     MD5 check sum: 095c7af220d748ca6e76c0b4c6cfb241

     atomic species   valence    mass     pseudopotential
        Mo1           14.00    95.94000     Mo( 1.00)
        W1            14.00   183.85000     W ( 1.00)

     16 Sym. Ops., with inversion, found

   Cartesian axes

     site n.     atom                  positions (alat units)
         1           Mo1 tau(   1) = (   0.0000000   0.0000000   0.0000000  )
         2           Mo1 tau(   2) = (   1.8853155   1.8853155   0.0000000  )
         3           W1  tau(   3) = (   1.8853155   0.0000000   2.3023773  )
         4           W1  tau(   4) = (   0.0000000   1.8853155   2.3023773  )

     number of k points=    75  Fermi-Dirac smearing, width (Ry)=  0.0073
                       cart. coord. in units 2pi/alat
        k(    1) = (   0.0000000   0.0000000   0.0000000), wk =   0.0027435
        k(    2) = (   0.0000000   0.0000000   0.0241296), wk =   0.0054870
        k(    3) = (   0.0000000   0.0000000   0.0482593), wk =   0.0054870
        k(    4) = (   0.0000000   0.0000000   0.0723889), wk =   0.0054870
        k(    5) = (   0.0000000   0.0000000   0.0965186), wk =   0.0054870
        k(    6) = (   0.0000000   0.0294675   0.0000000), wk =   0.0109739
        k(    7) = (   0.0000000   0.0294675   0.0241296), wk =   0.0219479
        k(    8) = (   0.0000000   0.0294675   0.0482593), wk =   0.0219479
        k(    9) = (   0.0000000   0.0294675   0.0723889), wk =   0.0219479
        k(   10) = (   0.0000000   0.0294675   0.0965186), wk =   0.0219479
        k(   11) = (   0.0000000   0.0589350   0.0000000), wk =   0.0109739
        k(   12) = (   0.0000000   0.0589350   0.0241296), wk =   0.0219479
        k(   13) = (   0.0000000   0.0589350   0.0482593), wk =   0.0219479
        k(   14) = (   0.0000000   0.0589350   0.0723889), wk =   0.0219479
        k(   15) = (   0.0000000   0.0589350   0.0965186), wk =   0.0219479
        k(   16) = (   0.0000000   0.0884025   0.0000000), wk =   0.0109739
        k(   17) = (   0.0000000   0.0884025   0.0241296), wk =   0.0219479
        k(   18) = (   0.0000000   0.0884025   0.0482593), wk =   0.0219479
        k(   19) = (   0.0000000   0.0884025   0.0723889), wk =   0.0219479
        k(   20) = (   0.0000000   0.0884025   0.0965186), wk =   0.0219479
        k(   21) = (   0.0000000   0.1178700   0.0000000), wk =   0.0109739
        k(   22) = (   0.0000000   0.1178700   0.0241296), wk =   0.0219479
        k(   23) = (   0.0000000   0.1178700   0.0482593), wk =   0.0219479
        k(   24) = (   0.0000000   0.1178700   0.0723889), wk =   0.0219479
        k(   25) = (   0.0000000   0.1178700   0.0965186), wk =   0.0219479
        k(   26) = (   0.0294675   0.0294675   0.0000000), wk =   0.0109739
        k(   27) = (   0.0294675   0.0294675   0.0241296), wk =   0.0219479
        k(   28) = (   0.0294675   0.0294675   0.0482593), wk =   0.0219479
        k(   29) = (   0.0294675   0.0294675   0.0723889), wk =   0.0219479
        k(   30) = (   0.0294675   0.0294675   0.0965186), wk =   0.0219479
        k(   31) = (   0.0294675   0.0589350   0.0000000), wk =   0.0219479
        k(   32) = (   0.0294675   0.0589350   0.0241296), wk =   0.0438957
        k(   33) = (   0.0294675   0.0589350   0.0482593), wk =   0.0438957
        k(   34) = (   0.0294675   0.0589350   0.0723889), wk =   0.0438957
        k(   35) = (   0.0294675   0.0589350   0.0965186), wk =   0.0438957
        k(   36) = (   0.0294675   0.0884025   0.0000000), wk =   0.0219479
        k(   37) = (   0.0294675   0.0884025   0.0241296), wk =   0.0438957
        k(   38) = (   0.0294675   0.0884025   0.0482593), wk =   0.0438957
        k(   39) = (   0.0294675   0.0884025   0.0723889), wk =   0.0438957
        k(   40) = (   0.0294675   0.0884025   0.0965186), wk =   0.0438957
        k(   41) = (   0.0294675   0.1178700   0.0000000), wk =   0.0219479
        k(   42) = (   0.0294675   0.1178700   0.0241296), wk =   0.0438957
        k(   43) = (   0.0294675   0.1178700   0.0482593), wk =   0.0438957
        k(   44) = (   0.0294675   0.1178700   0.0723889), wk =   0.0438957
        k(   45) = (   0.0294675   0.1178700   0.0965186), wk =   0.0438957
        k(   46) = (   0.0589350   0.0589350   0.0000000), wk =   0.0109739
        k(   47) = (   0.0589350   0.0589350   0.0241296), wk =   0.0219479
        k(   48) = (   0.0589350   0.0589350   0.0482593), wk =   0.0219479
        k(   49) = (   0.0589350   0.0589350   0.0723889), wk =   0.0219479
        k(   50) = (   0.0589350   0.0589350   0.0965186), wk =   0.0219479
        k(   51) = (   0.0589350   0.0884025   0.0000000), wk =   0.0219479
        k(   52) = (   0.0589350   0.0884025   0.0241296), wk =   0.0438957
        k(   53) = (   0.0589350   0.0884025   0.0482593), wk =   0.0438957
        k(   54) = (   0.0589350   0.0884025   0.0723889), wk =   0.0438957
        k(   55) = (   0.0589350   0.0884025   0.0965186), wk =   0.0438957
        k(   56) = (   0.0589350   0.1178700   0.0000000), wk =   0.0219479
        k(   57) = (   0.0589350   0.1178700   0.0241296), wk =   0.0438957
        k(   58) = (   0.0589350   0.1178700   0.0482593), wk =   0.0438957
        k(   59) = (   0.0589350   0.1178700   0.0723889), wk =   0.0438957
        k(   60) = (   0.0589350   0.1178700   0.0965186), wk =   0.0438957
        k(   61) = (   0.0884025   0.0884025   0.0000000), wk =   0.0109739
        k(   62) = (   0.0884025   0.0884025   0.0241296), wk =   0.0219479
        k(   63) = (   0.0884025   0.0884025   0.0482593), wk =   0.0219479
        k(   64) = (   0.0884025   0.0884025   0.0723889), wk =   0.0219479
        k(   65) = (   0.0884025   0.0884025   0.0965186), wk =   0.0219479
        k(   66) = (   0.0884025   0.1178700   0.0000000), wk =   0.0219479
        k(   67) = (   0.0884025   0.1178700   0.0241296), wk =   0.0438957
        k(   68) = (   0.0884025   0.1178700   0.0482593), wk =   0.0438957
        k(   69) = (   0.0884025   0.1178700   0.0723889), wk =   0.0438957
        k(   70) = (   0.0884025   0.1178700   0.0965186), wk =   0.0438957
        k(   71) = (   0.1178700   0.1178700   0.0000000), wk =   0.0109739
        k(   72) = (   0.1178700   0.1178700   0.0241296), wk =   0.0219479
        k(   73) = (   0.1178700   0.1178700   0.0482593), wk =   0.0219479
        k(   74) = (   0.1178700   0.1178700   0.0723889), wk =   0.0219479
        k(   75) = (   0.1178700   0.1178700   0.0965186), wk =   0.0219479

     Largest allocated arrays     est. size (Mb)     dimensions
     Largest temporary arrays     est. size (Mb)     dimensions

     Initial potential from superposition of free atoms
     Check: negative starting charge=   -0.124053

     starting charge   55.79719, renormalised to   56.00000

     negative rho (up, down):  1.245E-01 0.000E+00

     *
     * You are using vdW-DF for exchange-correlation in this calculation.
     * Please cite the following three references that made this development
     * possible:
     *
     *   M. Dion, H. Rydberg, E. Schroder, D. C. Langreth, and
     *   B. I. Lundqvist, Phys. Rev. Lett. 92, 246401 (2004).
     *
     *   T. Thonhauser, V. R. Cooper, S. Li, A. Puzder, P. Hyldgaard, and
     *   D. C. Langreth, Phys. Rev. B 76, 125112 (2007).
     *
     *   G. Roman-Perez and J. M. Soler, Phys. Rev. Lett. 103, 096102 (2009).
     *
     *
     * If you are using vdW-DF2, please also cite:
     *
     *   K. Lee, E. D. Murray, L. Kong, B. I. Lundqvist, and
     *   D. C. Langreth, Phys. Rev. B 82, 081101(R) (2010).
     *
     *
     * If you are calculating the stress with vdW-DF, please also cite:
     *
     *   R. Sabatini, E. Kucukbenli, B. Kolb, T. Thonhauser, and
     *   S. de Gironcoli, J. Phys.: Condens. Matter 24, 424209 (2012).
     *

     Carrying out vdW-DF run using the following parameters:

     Nqs =      20    Nr_points =    1024   r_max =   100.000
     q_mesh =
               0.00001000     0.04494208     0.09755937     0.15916263
               0.23128650     0.31572767     0.41458969     0.53033537
               0.66584808     0.82450364     1.01025438     1.22772762
               1.48234092     1.78043706     2.12944203     2.53805004
               3.01644009     3.57652955     4.23227104     5.00000000

     Gradients computed in reciprocal space

     Starting wfc are   52 randomized atomic wfcs

     Self-consistent Calculation

     iteration #  1     ecut=    58.80 Ry     beta=0.10
     Davidson diagonalization with overlap
     ethr =  1.00E-02,  avg # of iterations =  4.3

     Threshold (ethr) on eigenvalues was too large:
     Diagonalizing with lowered threshold

     Davidson diagonalization with overlap
     ethr =  3.53E-04,  avg # of iterations =  1.6

[...]

     total energy              =    -600.92815823 Ry
     Harris-Foulkes estimate   =    -600.95284689 Ry
     estimated scf accuracy    <       0.19770614 Ry

[...]

     total energy              =    -600.91440007 Ry
     Harris-Foulkes estimate   =    -600.91439975 Ry
     estimated scf accuracy    <       0.00000135 Ry

     iteration #  9     ecut=    58.80 Ry     beta=0.10
     Davidson diagonalization with overlap
     ethr =  2.41E-09,  avg # of iterations =  1.5

     negative rho (up, down):  1.372E-01 0.000E+00

     End of self-consistent calculation

          k = 0.0000 0.0000 0.0000 (  3365 PWs)   bands (ev):

   -53.7569 -53.5981 -40.7125 -40.4305 -18.2570 -18.2570 -17.9619 -17.6607
   -17.3019 -17.3019 -15.0758 -15.0758 -14.6675 -14.4678 -14.1064 -14.1064
    12.4114  15.1300  15.2616  15.3405  16.1485  16.1959  16.1959  18.0807
    20.3038  20.8357  20.8357  21.4671  23.5734  23.5734  23.6514  23.9274
    24.1973  25.1183  25.1183  25.2035  25.2035  25.4803  25.9853  27.7710
    30.2963  30.4703  30.8392  33.2077  33.2077  33.8863  34.5886  34.5888

[...]

          k = 0.1179 0.1179 0.0965 (  3369 PWs)   bands (ev):

   -53.6789 -53.6741 -40.5738 -40.5652 -18.4083 -18.3818 -17.8154 -17.8084
   -17.2349 -17.2042 -15.2026 -15.1754 -14.5775 -14.5696 -14.0407 -14.0093
    15.0954  15.1765  15.6962  15.7249  18.2659  18.3818  18.4476  18.4984
    20.3543  20.4399  20.8337  21.0190  21.0447  21.3079  21.3816  21.6137
    23.9036  24.1883  24.4736  24.6048  24.6529  24.7816  25.1333  25.2115
    30.8762  30.8881  31.8285  31.9583  32.6538  32.8448  32.8670  32.9270

     the Fermi energy is    20.7192 ev

!    total energy              =    -600.91440213 Ry
     Harris-Foulkes estimate   =    -600.91440015 Ry
     estimated scf accuracy    <       0.00000066 Ry

     The total energy is the sum of the following terms:

     one-electron contribution =     -74.95110623 Ry
     hartree contribution      =      70.65160668 Ry
     xc contribution           =    -125.38350838 Ry
     ewald contribution        =    -471.22321783 Ry
     smearing contrib. (-TS)   =      -0.00817637 Ry

     convergence has been achieved in   9 iterations

     Forces acting on atoms (Ry/au):

     negative rho (up, down):  1.372E-01 0.000E+00
     atom    1 type  1   force =     0.00000000    0.00000000    0.00000000
     atom    2 type  1   force =     0.00000000    0.00000000    0.00000000
     atom    3 type  2   force =     0.00000000    0.00000000    0.00000000
     atom    4 type  2   force =     0.00000000    0.00000000    0.00000000

     Total force =     0.000000     Total SCF correction =     0.000000

     General routines

     Parallel routines

   This run was terminated on:  15:42:10  14Nov2017

   JOB DONE.