     Program PWSCF v.5.1rc2 starts on 15Nov2017 at  6:26: 2

     Current dimensions of program PWSCF are:
     Max number of different atomic species (ntypx) = 10
     Max number of k-points (npk) =  40000
     Max angular momentum in pseudopotentials (lmaxx) =  3

     IMPORTANT: XC functional enforced from input :
     Exchange-correlation      = BEEF-VDW ( 1  4 27 13 2)
     Any further DFT definition will be discarded
     Please, verify this is what you really want

     Found symmetry operation: I + (  0.5000  0.5000  0.0000)
     This is a supercell, fractional translations are disabled

     bravais-lattice index     =            0
     lattice parameter (alat)  =       1.8897  a.u.
     unit-cell volume          =     323.8675 (a.u.)^3
     number of atoms/cell      =            4
     number of atomic types    =            2
     number of electrons       =        62.00
     number of Kohn-Sham states=           51
     kinetic-energy cutoff     =      58.7989  Ry
     charge density cutoff     =     587.9892  Ry
     convergence threshold     =      1.0E-06
     mixing beta               =       0.1000
     number of iterations used =           10  plain     mixing
     Exchange-correlation      = BEEF-VDW ( 1  4 27 13 2)

     celldm(1)=   1.889726  celldm(2)=   0.000000  celldm(3)=   0.000000
     celldm(4)=   0.000000  celldm(5)=   0.000000  celldm(6)=   0.000000

     crystal axes: (cart. coord. in units of alat)
               a(1) = (   3.579278   0.000000   0.000000 )
               a(2) = (   0.000000   3.579278   0.000000 )
               a(3) = (   0.000000   0.000000   3.746104 )

     reciprocal axes: (cart. coord. in units 2 pi/alat)
               b(1) = (  0.279386  0.000000  0.000000 )
               b(2) = (  0.000000  0.279386  0.000000 )
               b(3) = (  0.000000  0.000000  0.266944 )

     PseudoPot. # 1 for V  read from file:
     /home/users/vossj/suncat/psp/gbrv1.5pbe/V.UPF
     MD5 check sum: 22b79981416ebb76fdaf5b1b8640f6fb
     Pseudo is Ultrasoft + core correction, Zval = 13.0
     Generated by new atomic code, or converted to UPF format
     Using radial grid of  853 points,  6 beta functions with:
                l(1) =   0
                l(2) =   0
                l(3) =   1
                l(4) =   1
                l(5) =   2
                l(6) =   2
     Q(r) pseudized with  8 coefficients,  rinner =    1.100   1.100   1.100
                                                       1.100   1.100

     PseudoPot. # 2 for Ni read from file:
     /home/users/vossj/suncat/psp/gbrv1.5pbe/Ni.UPF
     MD5 check sum: 1ee80287db30b12d2bc1f57a5b5d6409
     Pseudo is Ultrasoft + core correction, Zval = 18.0
     Generated by new atomic code, or converted to UPF format
     Using radial grid of  865 points,  6 beta functions with:
                l(1) =   0
                l(2) =   0
                l(3) =   1
                l(4) =   1
                l(5) =   2
                l(6) =   2
     Q(r) pseudized with 10 coefficients,  rinner =    0.980   0.980   0.980
                                                       0.980   0.980

     vdW kernel table read from file vdW_kernel_table
     MD5 check sum: 095c7af220d748ca6e76c0b4c6cfb241

     atomic species   valence    mass     pseudopotential
        V1            13.00    50.94150     V ( 1.00)
        Ni1           18.00    58.69340     Ni( 1.00)

     16 Sym. Ops., with inversion, found

   Cartesian axes

     site n.     atom                  positions (alat units)
         1           V1  tau(   1) = (   0.0000000   0.0000000   0.0000000  )
         2           V1  tau(   2) = (   1.7896391   1.7896391   0.0000000  )
         3           Ni1 tau(   3) = (   1.7896391   0.0000000   1.8730520  )
         4           Ni1 tau(   4) = (   0.0000000   1.7896391   1.8730520  )

     number of k points=    75  Fermi-Dirac smearing, width (Ry)=  0.0073
                       cart. coord. in units 2pi/alat
        k(    1) = (   0.0000000   0.0000000   0.0000000), wk =   0.0027435
        k(    2) = (   0.0000000   0.0000000   0.0296604), wk =   0.0054870
        k(    3) = (   0.0000000   0.0000000   0.0593209), wk =   0.0054870
        k(    4) = (   0.0000000   0.0000000   0.0889813), wk =   0.0054870
        k(    5) = (   0.0000000   0.0000000   0.1186418), wk =   0.0054870
        k(    6) = (   0.0000000   0.0310429   0.0000000), wk =   0.0109739
        k(    7) = (   0.0000000   0.0310429   0.0296604), wk =   0.0219479
        k(    8) = (   0.0000000   0.0310429   0.0593209), wk =   0.0219479
        k(    9) = (   0.0000000   0.0310429   0.0889813), wk =   0.0219479
        k(   10) = (   0.0000000   0.0310429   0.1186418), wk =   0.0219479
        k(   11) = (   0.0000000   0.0620858   0.0000000), wk =   0.0109739
        k(   12) = (   0.0000000   0.0620858   0.0296604), wk =   0.0219479
        k(   13) = (   0.0000000   0.0620858   0.0593209), wk =   0.0219479
        k(   14) = (   0.0000000   0.0620858   0.0889813), wk =   0.0219479
        k(   15) = (   0.0000000   0.0620858   0.1186418), wk =   0.0219479
        k(   16) = (   0.0000000   0.0931286   0.0000000), wk =   0.0109739
        k(   17) = (   0.0000000   0.0931286   0.0296604), wk =   0.0219479
        k(   18) = (   0.0000000   0.0931286   0.0593209), wk =   0.0219479
        k(   19) = (   0.0000000   0.0931286   0.0889813), wk =   0.0219479
        k(   20) = (   0.0000000   0.0931286   0.1186418), wk =   0.0219479
        k(   21) = (   0.0000000   0.1241715   0.0000000), wk =   0.0109739
        k(   22) = (   0.0000000   0.1241715   0.0296604), wk =   0.0219479
        k(   23) = (   0.0000000   0.1241715   0.0593209), wk =   0.0219479
        k(   24) = (   0.0000000   0.1241715   0.0889813), wk =   0.0219479
        k(   25) = (   0.0000000   0.1241715   0.1186418), wk =   0.0219479
        k(   26) = (   0.0310429   0.0310429   0.0000000), wk =   0.0109739
        k(   27) = (   0.0310429   0.0310429   0.0296604), wk =   0.0219479
        k(   28) = (   0.0310429   0.0310429   0.0593209), wk =   0.0219479
        k(   29) = (   0.0310429   0.0310429   0.0889813), wk =   0.0219479
        k(   30) = (   0.0310429   0.0310429   0.1186418), wk =   0.0219479
        k(   31) = (   0.0310429   0.0620858   0.0000000), wk =   0.0219479
        k(   32) = (   0.0310429   0.0620858   0.0296604), wk =   0.0438957
        k(   33) = (   0.0310429   0.0620858   0.0593209), wk =   0.0438957
        k(   34) = (   0.0310429   0.0620858   0.0889813), wk =   0.0438957
        k(   35) = (   0.0310429   0.0620858   0.1186418), wk =   0.0438957
        k(   36) = (   0.0310429   0.0931286   0.0000000), wk =   0.0219479
        k(   37) = (   0.0310429   0.0931286   0.0296604), wk =   0.0438957
        k(   38) = (   0.0310429   0.0931286   0.0593209), wk =   0.0438957
        k(   39) = (   0.0310429   0.0931286   0.0889813), wk =   0.0438957
        k(   40) = (   0.0310429   0.0931286   0.1186418), wk =   0.0438957
        k(   41) = (   0.0310429   0.1241715   0.0000000), wk =   0.0219479
        k(   42) = (   0.0310429   0.1241715   0.0296604), wk =   0.0438957
        k(   43) = (   0.0310429   0.1241715   0.0593209), wk =   0.0438957
        k(   44) = (   0.0310429   0.1241715   0.0889813), wk =   0.0438957
        k(   45) = (   0.0310429   0.1241715   0.1186418), wk =   0.0438957
        k(   46) = (   0.0620858   0.0620858   0.0000000), wk =   0.0109739
        k(   47) = (   0.0620858   0.0620858   0.0296604), wk =   0.0219479
        k(   48) = (   0.0620858   0.0620858   0.0593209), wk =   0.0219479
        k(   49) = (   0.0620858   0.0620858   0.0889813), wk =   0.0219479
        k(   50) = (   0.0620858   0.0620858   0.1186418), wk =   0.0219479
        k(   51) = (   0.0620858   0.0931286   0.0000000), wk =   0.0219479
        k(   52) = (   0.0620858   0.0931286   0.0296604), wk =   0.0438957
        k(   53) = (   0.0620858   0.0931286   0.0593209), wk =   0.0438957
        k(   54) = (   0.0620858   0.0931286   0.0889813), wk =   0.0438957
        k(   55) = (   0.0620858   0.0931286   0.1186418), wk =   0.0438957
        k(   56) = (   0.0620858   0.1241715   0.0000000), wk =   0.0219479
        k(   57) = (   0.0620858   0.1241715   0.0296604), wk =   0.0438957
        k(   58) = (   0.0620858   0.1241715   0.0593209), wk =   0.0438957
        k(   59) = (   0.0620858   0.1241715   0.0889813), wk =   0.0438957
        k(   60) = (   0.0620858   0.1241715   0.1186418), wk =   0.0438957
        k(   61) = (   0.0931286   0.0931286   0.0000000), wk =   0.0109739
        k(   62) = (   0.0931286   0.0931286   0.0296604), wk =   0.0219479
        k(   63) = (   0.0931286   0.0931286   0.0593209), wk =   0.0219479
        k(   64) = (   0.0931286   0.0931286   0.0889813), wk =   0.0219479
        k(   65) = (   0.0931286   0.0931286   0.1186418), wk =   0.0219479
        k(   66) = (   0.0931286   0.1241715   0.0000000), wk =   0.0219479
        k(   67) = (   0.0931286   0.1241715   0.0296604), wk =   0.0438957
        k(   68) = (   0.0931286   0.1241715   0.0593209), wk =   0.0438957
        k(   69) = (   0.0931286   0.1241715   0.0889813), wk =   0.0438957
        k(   70) = (   0.0931286   0.1241715   0.1186418), wk =   0.0438957
        k(   71) = (   0.1241715   0.1241715   0.0000000), wk =   0.0109739
        k(   72) = (   0.1241715   0.1241715   0.0296604), wk =   0.0219479
        k(   73) = (   0.1241715   0.1241715   0.0593209), wk =   0.0219479
        k(   74) = (   0.1241715   0.1241715   0.0889813), wk =   0.0219479
        k(   75) = (   0.1241715   0.1241715   0.1186418), wk =   0.0219479

     Largest allocated arrays     est. size (Mb)     dimensions
     Largest temporary arrays     est. size (Mb)     dimensions

     Check: negative/imaginary core charge=   -0.000008    0.000000

     Initial potential from superposition of free atoms
     Check: negative starting charge=   -0.000833

     starting charge   57.99755, renormalised to   62.00000

     negative rho (up, down):  8.903E-04 0.000E+00

     *
     * You are using vdW-DF for exchange-correlation in this calculation.
     * Please cite the following three references that made this development
     * possible:
     *
     *   M. Dion, H. Rydberg, E. Schroder, D. C. Langreth, and
     *   B. I. Lundqvist, Phys. Rev. Lett. 92, 246401 (2004).
     *
     *   T. Thonhauser, V. R. Cooper, S. Li, A. Puzder, P. Hyldgaard, and
     *   D. C. Langreth, Phys. Rev. B 76, 125112 (2007).
     *
     *   G. Roman-Perez and J. M. Soler, Phys. Rev. Lett. 103, 096102 (2009).
     *
     *
     * If you are using vdW-DF2, please also cite:
     *
     *   K. Lee, E. D. Murray, L. Kong, B. I. Lundqvist, and
     *   D. C. Langreth, Phys. Rev. B 82, 081101(R) (2010).
     *
     *
     * If you are calculating the stress with vdW-DF, please also cite:
     *
     *   R. Sabatini, E. Kucukbenli, B. Kolb, T. Thonhauser, and
     *   S. de Gironcoli, J. Phys.: Condens. Matter 24, 424209 (2012).
     *

     Carrying out vdW-DF run using the following parameters:

     Nqs =      20    Nr_points =    1024   r_max =   100.000
     q_mesh =
               0.00001000     0.04494208     0.09755937     0.15916263
               0.23128650     0.31572767     0.41458969     0.53033537
               0.66584808     0.82450364     1.01025438     1.22772762
               1.48234092     1.78043706     2.12944203     2.53805004
               3.01644009     3.57652955     4.23227104     5.00000000

     Gradients computed in reciprocal space

     Starting wfc are   46 randomized atomic wfcs +    5 random wfc

     Self-consistent Calculation

     iteration #  1     ecut=    58.80 Ry     beta=0.10
     Davidson diagonalization with overlap
     ethr =  1.00E-02,  avg # of iterations =  4.3

[...]

     total energy              =    -977.07183680 Ry
     Harris-Foulkes estimate   =    -988.59900602 Ry
     estimated scf accuracy    <      65.27532544 Ry

[...]

     total energy              =    -980.55976230 Ry
     Harris-Foulkes estimate   =    -980.55981959 Ry
     estimated scf accuracy    <       0.00051199 Ry

     iteration # 16     ecut=    58.80 Ry     beta=0.10
     Davidson diagonalization with overlap
     ethr =  8.26E-07,  avg # of iterations =  1.0

     negative rho (up, down):  1.415E-03 0.000E+00

     End of self-consistent calculation

          k = 0.0000 0.0000 0.0000 (  2469 PWs)   bands (ev):

   -86.2269 -86.2094 -46.9793 -46.7642 -46.6467 -46.6283 -46.6094 -46.6094
   -46.5240 -46.5240 -20.9586 -20.9586 -20.8559 -20.6827 -20.3145 -20.3145
     9.3837  12.9793  13.1073  13.2262  13.7120  13.7120  13.7906  15.6362
    15.6362  16.1604  16.4590  17.0401  17.2711  17.4421  18.8052  18.8052
    19.4951  19.6534  19.6534  19.7501  20.3029  20.7303  20.7303  21.2886
    27.7214  28.0580  28.8331  29.4291  32.1192  32.1192  32.4488  32.4488
    33.6897  37.1355  37.1355

[...]

          k = 0.1242 0.1242 0.1186 (  2444 PWs)   bands (ev):

   -86.2183 -86.2178 -46.8744 -46.8664 -46.6378 -46.6367 -46.6183 -46.6157
   -46.5191 -46.5165 -21.0614 -21.0427 -20.7819 -20.7764 -20.2692 -20.2490
    12.8239  12.8957  13.4349  13.4671  15.0688  15.0980  15.4566  15.5690
    15.7143  15.7569  16.5623  16.6848  16.6992  17.2301  17.3076  17.6591
    17.7785  18.1920  19.0610  19.5310  19.6767  19.7126  19.8787  20.0259
    24.5561  24.7489  26.3336  26.6180  35.9601  36.0149  36.7724  36.8214
    38.8948  39.3863  39.8317

     the Fermi energy is    17.3732 ev

!    total energy              =    -980.55979180 Ry
     Harris-Foulkes estimate   =    -980.55978900 Ry
     estimated scf accuracy    <       0.00000068 Ry

     The total energy is the sum of the following terms:

     one-electron contribution =    -506.93802631 Ry
     hartree contribution      =     290.28914401 Ry
     xc contribution           =    -114.46035765 Ry
     ewald contribution        =    -649.44029157 Ry
     smearing contrib. (-TS)   =      -0.01026028 Ry

     convergence has been achieved in  16 iterations

     Forces acting on atoms (Ry/au):

     negative rho (up, down):  1.415E-03 0.000E+00
     atom    1 type  1   force =     0.00000000    0.00000000    0.00000000
     atom    2 type  1   force =     0.00000000    0.00000000    0.00000000
     atom    3 type  2   force =     0.00000000    0.00000000    0.00000000
     atom    4 type  2   force =     0.00000000    0.00000000    0.00000000

     Total force =     0.000000     Total SCF correction =     0.000000

     General routines

     Parallel routines

   This run was terminated on:   6:26:43  15Nov2017

   JOB DONE.