     Program PWSCF v.5.1rc2 starts on 15Nov2017 at  6:26:11

     Current dimensions of program PWSCF are:
     Max number of different atomic species (ntypx) = 10
     Max number of k-points (npk) =  40000
     Max angular momentum in pseudopotentials (lmaxx) =  3

     IMPORTANT: XC functional enforced from input :
     Exchange-correlation      = BEEF-VDW ( 1  4 27 13 2)
     Any further DFT definition will be discarded
     Please, verify this is what you really want

     Found symmetry operation: I + ( -0.5000 -0.5000  0.0000)
     This is a supercell, fractional translations are disabled

     bravais-lattice index     =            0
     lattice parameter (alat)  =       1.8897  a.u.
     unit-cell volume          =     428.7043 (a.u.)^3
     number of atoms/cell      =            4
     number of atomic types    =            2
     number of electrons       =        52.00
     number of Kohn-Sham states=           46
     kinetic-energy cutoff     =      58.7989  Ry
     charge density cutoff     =     587.9892  Ry
     convergence threshold     =      1.0E-06
     mixing beta               =       0.1000
     number of iterations used =           10  plain     mixing
     Exchange-correlation      = BEEF-VDW ( 1  4 27 13 2)

     celldm(1)=   1.889726  celldm(2)=   0.000000  celldm(3)=   0.000000
     celldm(4)=   0.000000  celldm(5)=   0.000000  celldm(6)=   0.000000

     crystal axes: (cart. coord. in units of alat)
               a(1) = (   4.488482   0.000000   0.000000 )
               a(2) = (   0.000000   4.488482   0.000000 )
               a(3) = (   0.000000   0.000000   3.153279 )

     reciprocal axes: (cart. coord. in units 2 pi/alat)
               b(1) = (  0.222792  0.000000  0.000000 )
               b(2) = (  0.000000  0.222792  0.000000 )
               b(3) = (  0.000000  0.000000  0.317130 )

     PseudoPot. # 1 for V  read from file:
     /home/users/vossj/suncat/psp/gbrv1.5pbe/V.UPF
     MD5 check sum: 22b79981416ebb76fdaf5b1b8640f6fb
     Pseudo is Ultrasoft + core correction, Zval = 13.0
     Generated by new atomic code, or converted to UPF format
     Using radial grid of  853 points,  6 beta functions with:
                l(1) =   0
                l(2) =   0
                l(3) =   1
                l(4) =   1
                l(5) =   2
                l(6) =   2
     Q(r) pseudized with  8 coefficients,  rinner =    1.100   1.100   1.100
                                                       1.100   1.100

     PseudoPot. # 2 for Ta read from file:
     /home/users/vossj/suncat/psp/gbrv1.5pbe/Ta.UPF
     MD5 check sum: f8bbe9446314a3b8ea5d9f3e3836c939
     Pseudo is Ultrasoft + core correction, Zval = 13.0
     Generated by new atomic code, or converted to UPF format
     Using radial grid of  921 points,  7 beta functions with:
                l(1) =   0
                l(2) =   0
                l(3) =   1
                l(4) =   1
                l(5) =   2
                l(6) =   2
                l(7) =   3
     Q(r) pseudized with  6 coefficients,  rinner =    1.300   1.300   1.300
                                                       1.300   1.300   1.300
                                                       1.300

     vdW kernel table read from file vdW_kernel_table
     MD5 check sum: 095c7af220d748ca6e76c0b4c6cfb241

     atomic species   valence    mass     pseudopotential
        V1            13.00    50.94150     V ( 1.00)
        Ta1           13.00   180.94790     Ta( 1.00)

     16 Sym. Ops., with inversion, found

   Cartesian axes

     site n.     atom                  positions (alat units)
         1           V1  tau(   1) = (   0.0000000   0.0000000   0.0000000  )
         2           V1  tau(   2) = (   2.2442408   2.2442408   0.0000000  )
         3           Ta1 tau(   3) = (   2.2442408   0.0000000   1.5766394  )
         4           Ta1 tau(   4) = (   0.0000000   2.2442408   1.5766394  )

     number of k points=    75  Fermi-Dirac smearing, width (Ry)=  0.0073
                       cart. coord. in units 2pi/alat
        k(    1) = (   0.0000000   0.0000000   0.0000000), wk =   0.0027435
        k(    2) = (   0.0000000   0.0000000   0.0352367), wk =   0.0054870
        k(    3) = (   0.0000000   0.0000000   0.0704734), wk =   0.0054870
        k(    4) = (   0.0000000   0.0000000   0.1057101), wk =   0.0054870
        k(    5) = (   0.0000000   0.0000000   0.1409468), wk =   0.0054870
        k(    6) = (   0.0000000   0.0247547   0.0000000), wk =   0.0109739
        k(    7) = (   0.0000000   0.0247547   0.0352367), wk =   0.0219479
        k(    8) = (   0.0000000   0.0247547   0.0704734), wk =   0.0219479
        k(    9) = (   0.0000000   0.0247547   0.1057101), wk =   0.0219479
        k(   10) = (   0.0000000   0.0247547   0.1409468), wk =   0.0219479
        k(   11) = (   0.0000000   0.0495094   0.0000000), wk =   0.0109739
        k(   12) = (   0.0000000   0.0495094   0.0352367), wk =   0.0219479
        k(   13) = (   0.0000000   0.0495094   0.0704734), wk =   0.0219479
        k(   14) = (   0.0000000   0.0495094   0.1057101), wk =   0.0219479
        k(   15) = (   0.0000000   0.0495094   0.1409468), wk =   0.0219479
        k(   16) = (   0.0000000   0.0742642   0.0000000), wk =   0.0109739
        k(   17) = (   0.0000000   0.0742642   0.0352367), wk =   0.0219479
        k(   18) = (   0.0000000   0.0742642   0.0704734), wk =   0.0219479
        k(   19) = (   0.0000000   0.0742642   0.1057101), wk =   0.0219479
        k(   20) = (   0.0000000   0.0742642   0.1409468), wk =   0.0219479
        k(   21) = (   0.0000000   0.0990189   0.0000000), wk =   0.0109739
        k(   22) = (   0.0000000   0.0990189   0.0352367), wk =   0.0219479
        k(   23) = (   0.0000000   0.0990189   0.0704734), wk =   0.0219479
        k(   24) = (   0.0000000   0.0990189   0.1057101), wk =   0.0219479
        k(   25) = (   0.0000000   0.0990189   0.1409468), wk =   0.0219479
        k(   26) = (   0.0247547   0.0247547   0.0000000), wk =   0.0109739
        k(   27) = (   0.0247547   0.0247547   0.0352367), wk =   0.0219479
        k(   28) = (   0.0247547   0.0247547   0.0704734), wk =   0.0219479
        k(   29) = (   0.0247547   0.0247547   0.1057101), wk =   0.0219479
        k(   30) = (   0.0247547   0.0247547   0.1409468), wk =   0.0219479
        k(   31) = (   0.0247547   0.0495094   0.0000000), wk =   0.0219479
        k(   32) = (   0.0247547   0.0495094   0.0352367), wk =   0.0438957
        k(   33) = (   0.0247547   0.0495094   0.0704734), wk =   0.0438957
        k(   34) = (   0.0247547   0.0495094   0.1057101), wk =   0.0438957
        k(   35) = (   0.0247547   0.0495094   0.1409468), wk =   0.0438957
        k(   36) = (   0.0247547   0.0742642   0.0000000), wk =   0.0219479
        k(   37) = (   0.0247547   0.0742642   0.0352367), wk =   0.0438957
        k(   38) = (   0.0247547   0.0742642   0.0704734), wk =   0.0438957
        k(   39) = (   0.0247547   0.0742642   0.1057101), wk =   0.0438957
        k(   40) = (   0.0247547   0.0742642   0.1409468), wk =   0.0438957
        k(   41) = (   0.0247547   0.0990189   0.0000000), wk =   0.0219479
        k(   42) = (   0.0247547   0.0990189   0.0352367), wk =   0.0438957
        k(   43) = (   0.0247547   0.0990189   0.0704734), wk =   0.0438957
        k(   44) = (   0.0247547   0.0990189   0.1057101), wk =   0.0438957
        k(   45) = (   0.0247547   0.0990189   0.1409468), wk =   0.0438957
        k(   46) = (   0.0495094   0.0495094   0.0000000), wk =   0.0109739
        k(   47) = (   0.0495094   0.0495094   0.0352367), wk =   0.0219479
        k(   48) = (   0.0495094   0.0495094   0.0704734), wk =   0.0219479
        k(   49) = (   0.0495094   0.0495094   0.1057101), wk =   0.0219479
        k(   50) = (   0.0495094   0.0495094   0.1409468), wk =   0.0219479
        k(   51) = (   0.0495094   0.0742642   0.0000000), wk =   0.0219479
        k(   52) = (   0.0495094   0.0742642   0.0352367), wk =   0.0438957
        k(   53) = (   0.0495094   0.0742642   0.0704734), wk =   0.0438957
        k(   54) = (   0.0495094   0.0742642   0.1057101), wk =   0.0438957
        k(   55) = (   0.0495094   0.0742642   0.1409468), wk =   0.0438957
        k(   56) = (   0.0495094   0.0990189   0.0000000), wk =   0.0219479
        k(   57) = (   0.0495094   0.0990189   0.0352367), wk =   0.0438957
        k(   58) = (   0.0495094   0.0990189   0.0704734), wk =   0.0438957
        k(   59) = (   0.0495094   0.0990189   0.1057101), wk =   0.0438957
        k(   60) = (   0.0495094   0.0990189   0.1409468), wk =   0.0438957
        k(   61) = (   0.0742642   0.0742642   0.0000000), wk =   0.0109739
        k(   62) = (   0.0742642   0.0742642   0.0352367), wk =   0.0219479
        k(   63) = (   0.0742642   0.0742642   0.0704734), wk =   0.0219479
        k(   64) = (   0.0742642   0.0742642   0.1057101), wk =   0.0219479
        k(   65) = (   0.0742642   0.0742642   0.1409468), wk =   0.0219479
        k(   66) = (   0.0742642   0.0990189   0.0000000), wk =   0.0219479
        k(   67) = (   0.0742642   0.0990189   0.0352367), wk =   0.0438957
        k(   68) = (   0.0742642   0.0990189   0.0704734), wk =   0.0438957
        k(   69) = (   0.0742642   0.0990189   0.1057101), wk =   0.0438957
        k(   70) = (   0.0742642   0.0990189   0.1409468), wk =   0.0438957
        k(   71) = (   0.0990189   0.0990189   0.0000000), wk =   0.0109739
        k(   72) = (   0.0990189   0.0990189   0.0352367), wk =   0.0219479
        k(   73) = (   0.0990189   0.0990189   0.0704734), wk =   0.0219479
        k(   74) = (   0.0990189   0.0990189   0.1057101), wk =   0.0219479
        k(   75) = (   0.0990189   0.0990189   0.1409468), wk =   0.0219479

     Largest allocated arrays     est. size (Mb)     dimensions
     Largest temporary arrays     est. size (Mb)     dimensions

     Initial potential from superposition of free atoms
     Check: negative starting charge=   -0.187243

     starting charge   51.99532, renormalised to   52.00000

     negative rho (up, down):  1.873E-01 0.000E+00

     *
     * You are using vdW-DF for exchange-correlation in this calculation.
     * Please cite the following three references that made this development
     * possible:
     *
     *   M. Dion, H. Rydberg, E. Schroder, D. C. Langreth, and
     *   B. I. Lundqvist, Phys. Rev. Lett. 92, 246401 (2004).
     *
     *   T. Thonhauser, V. R. Cooper, S. Li, A. Puzder, P. Hyldgaard, and
     *   D. C. Langreth, Phys. Rev. B 76, 125112 (2007).
     *
     *   G. Roman-Perez and J. M. Soler, Phys. Rev. Lett. 103, 096102 (2009).
     *
     *
     * If you are using vdW-DF2, please also cite:
     *
     *   K. Lee, E. D. Murray, L. Kong, B. I. Lundqvist, and
     *   D. C. Langreth, Phys. Rev. B 82, 081101(R) (2010).
     *
     *
     * If you are calculating the stress with vdW-DF, please also cite:
     *
     *   R. Sabatini, E. Kucukbenli, B. Kolb, T. Thonhauser, and
     *   S. de Gironcoli, J. Phys.: Condens. Matter 24, 424209 (2012).
     *

     Carrying out vdW-DF run using the following parameters:

     Nqs =      20    Nr_points =    1024   r_max =   100.000
     q_mesh =
               0.00001000     0.04494208     0.09755937     0.15916263
               0.23128650     0.31572767     0.41458969     0.53033537
               0.66584808     0.82450364     1.01025438     1.22772762
               1.48234092     1.78043706     2.12944203     2.53805004
               3.01644009     3.57652955     4.23227104     5.00000000

     Gradients computed in reciprocal space

     Starting wfc are   46 randomized atomic wfcs

     Self-consistent Calculation

     iteration #  1     ecut=    58.80 Ry     beta=0.10
     Davidson diagonalization with overlap
     ethr =  1.00E-02,  avg # of iterations =  3.8

     Threshold (ethr) on eigenvalues was too large:
     Diagonalizing with lowered threshold

     Davidson diagonalization with overlap
     ethr =  3.47E-04,  avg # of iterations =  1.1

[...]

     total energy              =    -578.13531892 Ry
     Harris-Foulkes estimate   =    -578.16099511 Ry
     estimated scf accuracy    <       0.18094768 Ry

[...]

     total energy              =    -578.12669660 Ry
     Harris-Foulkes estimate   =    -578.12671372 Ry
     estimated scf accuracy    <       0.00000226 Ry

     iteration #  9     ecut=    58.80 Ry     beta=0.10
     Davidson diagonalization with overlap
     ethr =  4.34E-09,  avg # of iterations =  1.0

     negative rho (up, down):  2.022E-01 0.000E+00

     End of self-consistent calculation

          k = 0.0000 0.0000 0.0000 (  3267 PWs)   bands (ev):

   -50.2447 -50.2160 -46.4008 -46.3902 -20.3193 -20.3193 -20.2073 -20.2073
   -20.2027 -20.1627 -16.6882 -16.6882 -16.4579 -16.4579 -16.4492 -16.4291
    10.0109  13.5397  13.6226  13.9480  13.9648  16.1243  16.1243  17.7753
    17.8325  17.8325  18.8291  18.8291  19.6876  19.7286  20.1808  20.2559
    20.5454  22.6598  22.6598  22.6620  22.7737  22.7737  22.8239  26.3957
    26.3957  26.5826  26.6783  30.5533  30.7913  30.7913

[...]

          k = 0.0990 0.0990 0.1409 (  3271 PWs)   bands (ev):

   -50.2157 -50.2149 -46.3900 -46.3895 -20.3164 -20.3150 -20.3150 -20.3116
   -20.1688 -20.1662 -16.6952 -16.6926 -16.6911 -16.6826 -16.4465 -16.4384
    13.5683  13.6149  13.6910  13.7241  16.0748  16.0749  16.0987  16.1660
    18.3995  18.5224  18.5411  18.5863  19.7415  19.7821  19.9295  20.0096
    20.4967  20.5934  22.5522  22.7170  22.7639  22.8552  23.0227  23.0967
    26.8424  26.9426  30.4402  30.5424  30.8837  30.9641

     the Fermi energy is    17.3425 ev

!    total energy              =    -578.12671770 Ry
     Harris-Foulkes estimate   =    -578.12669671 Ry
     estimated scf accuracy    <       0.00000040 Ry

     The total energy is the sum of the following terms:

     one-electron contribution =    -129.63949802 Ry
     hartree contribution      =      90.85814933 Ry
     xc contribution           =    -128.26116861 Ry
     ewald contribution        =    -411.06797017 Ry
     smearing contrib. (-TS)   =      -0.01623024 Ry

     convergence has been achieved in   9 iterations

     Forces acting on atoms (Ry/au):

     negative rho (up, down):  2.022E-01 0.000E+00
     atom    1 type  1   force =     0.00000000    0.00000000    0.00000000
     atom    2 type  1   force =     0.00000000    0.00000000    0.00000000
     atom    3 type  2   force =     0.00000000    0.00000000    0.00000000
     atom    4 type  2   force =     0.00000000    0.00000000    0.00000000

     Total force =     0.000000     Total SCF correction =     0.000000

     General routines

     Parallel routines

   This run was terminated on:   6:26:39  15Nov2017

   JOB DONE.