     Program PWSCF v.5.1rc2 starts on 26Feb2018 at 12:27:32

     Current dimensions of program PWSCF are:
     Max number of different atomic species (ntypx) = 10
     Max number of k-points (npk) =  40000
     Max angular momentum in pseudopotentials (lmaxx) =  3
     Presently stress not available with electric field

     IMPORTANT: XC functional enforced from input :
     Exchange-correlation      = BEEF-VDW ( 1  4 27 13 2)
     Any further DFT definition will be discarded
     Please, verify this is what you really want

     bravais-lattice index     =            0
     lattice parameter (alat)  =       1.8897  a.u.
     unit-cell volume          =    7144.1302 (a.u.)^3
     number of atoms/cell      =           12
     number of atomic types    =            2
     number of electrons       =       171.00
     number of Kohn-Sham states=           95
     kinetic-energy cutoff     =      36.7493  Ry
     charge density cutoff     =     367.4932  Ry
     convergence threshold     =      1.0E-05
     mixing beta               =       0.3000
     number of iterations used =           10  plain     mixing
     Exchange-correlation      = BEEF-VDW ( 1  4 27 13 2)
     nstep                     =           50

     celldm(1)=   1.889726  celldm(2)=   0.000000  celldm(3)=   0.000000
     celldm(4)=   0.000000  celldm(5)=   0.000000  celldm(6)=   0.000000

     crystal axes: (cart. coord. in units of alat)
               a(1) = (   6.905087   0.000000   0.000000 )
               a(2) = (   3.452544   5.979981   0.000000 )
               a(3) = (   0.000000   0.000000  25.637980 )

     reciprocal axes: (cart. coord. in units 2 pi/alat)
               b(1) = (  0.144821 -0.083612  0.000000 )
               b(2) = (  0.000000  0.167225  0.000000 )
               b(3) = (  0.000000  0.000000  0.039005 )

     PseudoPot. # 1 for Bi read from file:
     /home/users/mamunm/src/pseudo/gbrv1.5pbe/Bi.UPF
     MD5 check sum: 81103212dc04adf40945787f699eab19
     Pseudo is Ultrasoft + core correction, Zval = 15.0
     Generated by new atomic code, or converted to UPF format
     Using radial grid of  899 points,  6 beta functions with:
                l(1) =   0
                l(2) =   0
                l(3) =   1
                l(4) =   1
                l(5) =   2
                l(6) =   2
     Q(r) pseudized with  6 coefficients,  rinner =    1.000   1.000   1.000
                                                       1.000   1.000

     PseudoPot. # 2 for Hf read from file:
     /home/users/mamunm/src/pseudo/gbrv1.5pbe/Hf.UPF
     MD5 check sum: 8ee9378dfe14276e333edf04c5e4aa26
     Pseudo is Ultrasoft + core correction, Zval = 12.0
     Generated by new atomic code, or converted to UPF format
     Using radial grid of  921 points,  8 beta functions with:
                l(1) =   0
                l(2) =   0
                l(3) =   0
                l(4) =   1
                l(5) =   1
                l(6) =   2
                l(7) =   2
                l(8) =   3
     Q(r) pseudized with  6 coefficients,  rinner =    1.200   1.200   1.200
                                                       1.200   1.200   1.200
                                                       1.200

     vdW kernel table read from file vdW_kernel_table
     MD5 check sum: 095c7af220d748ca6e76c0b4c6cfb241

     atomic species   valence    mass     pseudopotential
        Bi1           15.00   208.98040     Bi( 1.00)
        Hf1           12.00   178.49000     Hf( 1.00)

     No symmetry found

   Cartesian axes

     site n.     atom                  positions (alat units)
         1           Bi1 tau(   1) = (   0.0000000   0.0000000  10.0000000  )
         2           Hf1 tau(   2) = (   1.7262718   2.9899904  10.0000000  )
         3           Bi1 tau(   3) = (   3.4525435   0.0000000  10.0000000  )
         4           Bi1 tau(   4) = (   5.1788153   2.9899904  10.0000000  )
         5           Bi1 tau(   5) = (   6.9050871   3.9866539  12.8189900  )
         6           Hf1 tau(   6) = (   5.1788153   0.9966635  12.8189900  )
         7           Bi1 tau(   7) = (   3.4525435   3.9866539  12.8189900  )
         8           Bi1 tau(   8) = (   1.7262718   0.9966635  12.8189900  )
         9           Bi1 tau(   9) = (   3.4525435   1.9933269  15.6379800  )
        10           Hf1 tau(  10) = (   5.1788153   4.9833174  15.6379800  )
        11           Bi1 tau(  11) = (   6.9050871   1.9933269  15.6379800  )
        12           Bi1 tau(  12) = (   8.6313589   4.9833174  15.6379800  )

     number of k points=    20  Fermi-Dirac smearing, width (Ry)=  0.0110
                       cart. coord. in units 2pi/alat
        k(    1) = (   0.0000000   0.0000000   0.0000000), wk =   0.0555556
        k(    2) = (   0.0000000   0.0278708   0.0000000), wk =   0.1111111
        k(    3) = (   0.0000000   0.0557415   0.0000000), wk =   0.1111111
        k(    4) = (   0.0000000  -0.0836123   0.0000000), wk =   0.0555556
        k(    5) = (   0.0241368  -0.0139354   0.0000000), wk =   0.1111111
        k(    6) = (   0.0241368   0.0139354   0.0000000), wk =   0.1111111
        k(    7) = (   0.0241368   0.0418062   0.0000000), wk =   0.1111111
        k(    8) = (   0.0241368  -0.0975477   0.0000000), wk =   0.1111111
        k(    9) = (   0.0241368  -0.0696769   0.0000000), wk =   0.1111111
        k(   10) = (   0.0241368  -0.0418062   0.0000000), wk =   0.1111111
        k(   11) = (   0.0482736  -0.0278708   0.0000000), wk =   0.1111111
        k(   12) = (   0.0482736  -0.0000000   0.0000000), wk =   0.1111111
        k(   13) = (   0.0482736   0.0278708   0.0000000), wk =   0.1111111
        k(   14) = (   0.0482736  -0.1114831   0.0000000), wk =   0.1111111
        k(   15) = (   0.0482736  -0.0836123   0.0000000), wk =   0.1111111
        k(   16) = (   0.0482736  -0.0557415   0.0000000), wk =   0.1111111
        k(   17) = (  -0.0724104   0.0418062   0.0000000), wk =   0.0555556
        k(   18) = (  -0.0724104   0.0696769   0.0000000), wk =   0.1111111
        k(   19) = (  -0.0724104   0.0975477   0.0000000), wk =   0.1111111
        k(   20) = (  -0.0724104  -0.0418062   0.0000000), wk =   0.0555556

     Largest allocated arrays     est. size (Mb)     dimensions
     Largest temporary arrays     est. size (Mb)     dimensions

     Check: negative/imaginary core charge=   -0.000002    0.000000

     Initial potential from superposition of free atoms
     Check: negative starting charge=   -0.701181

     starting charge  155.99962, renormalised to  171.00000

     negative rho (up, down):  7.686E-01 0.000E+00

     *
     * You are using vdW-DF for exchange-correlation in this calculation.
     * Please cite the following three references that made this development
     * possible:
     *
     *   M. Dion, H. Rydberg, E. Schroder, D. C. Langreth, and
     *   B. I. Lundqvist, Phys. Rev. Lett. 92, 246401 (2004).
     *
     *   T. Thonhauser, V. R. Cooper, S. Li, A. Puzder, P. Hyldgaard, and
     *   D. C. Langreth, Phys. Rev. B 76, 125112 (2007).
     *
     *   G. Roman-Perez and J. M. Soler, Phys. Rev. Lett. 103, 096102 (2009).
     *
     *
     * If you are using vdW-DF2, please also cite:
     *
     *   K. Lee, E. D. Murray, L. Kong, B. I. Lundqvist, and
     *   D. C. Langreth, Phys. Rev. B 82, 081101(R) (2010).
     *
     *
     * If you are calculating the stress with vdW-DF, please also cite:
     *
     *   R. Sabatini, E. Kucukbenli, B. Kolb, T. Thonhauser, and
     *   S. de Gironcoli, J. Phys.: Condens. Matter 24, 424209 (2012).
     *

     Carrying out vdW-DF run using the following parameters:

     Nqs =      20    Nr_points =    1024   r_max =   100.000
     q_mesh =
               0.00001000     0.04494208     0.09755937     0.15916263
               0.23128650     0.31572767     0.41458969     0.53033537
               0.66584808     0.82450364     1.01025438     1.22772762
               1.48234092     1.78043706     2.12944203     2.53805004
               3.01644009     3.57652955     4.23227104     5.00000000

     Gradients computed in reciprocal space

     Adding external electric field

     Computed dipole along edir(3) :
        Dipole               -0.0000 Ry au,         -0.0000 Debye
        Dipole field         -0.0000 Ry au

        Potential amp.        0.0000 Ry
        Total length         47.2375 bohr

     Starting wfc are  120 randomized atomic wfcs

     Self-consistent Calculation

     iteration #  1     ecut=    36.75 Ry     beta=0.30
     Davidson diagonalization with overlap
     ethr =  1.00E-02,  avg # of iterations =  4.3

[...]

     total energy              =   -2164.25433408 Ry
     Harris-Foulkes estimate   =   -2172.65549458 Ry
     estimated scf accuracy    <      18.92871683 Ry

[...]

     End of self-consistent calculation

          k = 0.0000 0.0000 0.0000 ( 27009 PWs)   bands (ev):

   -62.9923 -62.9919 -62.5909 -31.4644 -31.4638 -31.3742 -31.3742 -31.3740
   -31.3739 -31.0663 -31.0663 -30.9514 -22.2832 -22.2645 -22.2645 -22.2488
   -22.2050 -22.2050 -22.1594 -22.1586 -22.1574 -22.1574 -22.1230 -22.1230
   -22.1031 -22.1031 -22.0469 -21.9872 -21.9859 -21.9519 -21.9519 -21.9457
   -21.9457 -21.9207 -21.9137 -21.8743 -21.8743 -21.8700 -21.8700 -21.8456
   -21.8442 -21.8371 -21.8371 -21.8312 -21.8312 -21.8160 -21.8141 -21.8141
   -21.8103 -21.8103 -21.8053 -21.8038 -21.8038 -21.7986 -21.7986 -21.7591
   -21.7583 -11.6779 -10.6571  -9.8152  -9.3410  -9.3410  -8.6861  -8.6861
    -8.3109  -8.3109  -3.8503  -3.1714  -3.0326  -2.7363  -2.7363  -2.3590
    -1.9712  -1.9712  -1.5908  -1.5908  -1.2009   0.3576   0.3576   0.3675
     0.3675   0.4068   0.4399   1.2587   1.6876   1.6877   1.7474   1.8386
     1.9218   1.9219   1.9626   1.9626   2.2467   2.3266   2.3267

[...]

          k =-0.0724 0.0418 0.0000 ( 26846 PWs)   bands (ev):

[...]

     the Fermi energy is     1.2929 ev

!    total energy              =   -2165.94770816 Ry
     Harris-Foulkes estimate   =   -2165.94770941 Ry
     estimated scf accuracy    <       0.00000241 Ry

     The total energy is the sum of the following terms:

     one-electron contribution =   -9843.27875809 Ry
     hartree contribution      =    4956.37741779 Ry
     xc contribution           =    -830.71315802 Ry
     ewald contribution        =    3551.72674861 Ry
     electric field correction =       0.00000012 Ry
     smearing contrib. (-TS)   =      -0.05995858 Ry

     convergence has been achieved in  15 iterations

 BEEF-vdW xc energy contributions
           1 :   -743.761330437237
           2 :    691.347493914767
           3 :   -598.727343563396
           4 :    485.727277943977
           5 :   -373.101584660960
           6 :    276.484394061061
           7 :   -203.158766903197
           8 :    152.286279555456
           9 :   -117.826166801651
          10 :    92.4088204650398
          11 :   -70.4541657025375
          12 :    49.5281349835686
          13 :   -29.9561104465638
          14 :    13.4016428565856
          15 :   -1.33430547934995
          16 :   -5.95397046051494
          17 :    9.51955623227468
          18 :   -11.2421690115382
          19 :    12.9330876910099
          20 :   -15.5149241774855
          21 :    18.6522250422831
          22 :   -21.0327143796555
          23 :    21.1809478140599
          24 :   -18.4080555864311
          25 :    13.3800292749088
          26 :   -7.96218734800527
          27 :    4.37340500429900
          28 :   -4.08524852039341
          29 :    7.05844902366687
          30 :   -11.7431445744103
          31 :   -57.5693724561622
          32 :   -42.1066954357285

     Forces acting on atoms (Ry/au):

     negative rho (up, down):  7.385E-01 0.000E+00
     atom    1 type  1   force =    -0.01985403    0.01146559   -0.00518829
     atom    2 type  2   force =    -0.00000191    0.00000264    0.05151704
     atom    3 type  1   force =     0.01984621    0.01146957   -0.00518453
     atom    4 type  1   force =    -0.00000969   -0.02292205   -0.00519037
     atom    5 type  1   force =     0.00022797   -0.00012721    0.00042708
     atom    6 type  2   force =     0.00000148    0.00000109   -0.00085998
     atom    7 type  1   force =    -0.00022622   -0.00013129    0.00042615
     atom    8 type  1   force =     0.00000296    0.00025051    0.00041982
     atom    9 type  1   force =     0.01984041   -0.01145413    0.00547971
     atom   10 type  2   force =     0.00000036   -0.00000397   -0.05280687
     atom   11 type  1   force =    -0.01983564   -0.01146527    0.00547860
     atom   12 type  1   force =     0.00000810    0.02291453    0.00548164

     Total force =     0.066734     Total SCF correction =     0.001591

     entering subroutine stress ...

     negative rho (up, down):  7.385E-01 0.000E+00
          total   stress  (Ry/bohr**3)                   (kbar)     P=  -11.18
  -0.00007858  -0.00000000  -0.00000000        -11.56     -0.00     -0.00
  -0.00000000  -0.00007859   0.00000000         -0.00    -11.56      0.00
  -0.00000000   0.00000000  -0.00007085         -0.00      0.00    -10.42

     BFGS Geometry Optimization

     number of scf cycles    =   1
     number of bfgs steps    =   0

     energy   new            =   -2165.9477081648 Ry

     new trust radius        =       0.0528068740 bohr
     new conv_thr            =       0.0000099958 Ry

ATOMIC_POSITIONS (crystal)
Bi1      0.000000000   0.000000000   0.390046330    0   0   0
Hf1     -0.000000000   0.500000000   0.390046330    0   0   0
Bi1      0.500000000   0.000000000   0.390046330    0   0   0
Bi1      0.500000000   0.500000000   0.390046330    0   0   0
Bi1      0.666666667   0.666666667   0.500000000    0   0   0
Hf1      0.666666667   0.166666667   0.500000000    0   0   0
Bi1      0.166666667   0.666666667   0.500000000    0   0   0
Bi1      0.166666667   0.166666667   0.500000000    0   0   0
Bi1      0.335360616   0.332319741   0.610066774
Hf1      0.333333536   0.833332982   0.608863717
Bi1      0.832320501   0.332318755   0.610066751
Bi1      0.832320084   0.835361073   0.610066813

     Writing output data file calc.save
     Check: negative starting charge=   -0.701181
     NEW-OLD atomic charge density approx. for the potential

     Check: negative/imaginary core charge=   -0.000002    0.000000
     Check: negative starting charge=   -0.699969

[...]

     energy   old            =   -2165.9477081648 Ry
     energy   new            =   -2165.9520275973 Ry

     CASE: energy  _new < energy  _old

     WARNING: bfgs curvature condition failed, Theta= 0.851
     new trust radius        =       0.0792103111 bohr
     new conv_thr            =       0.0000001000 Ry

[...]

     iteration #  1     ecut=    36.75 Ry     beta=0.30
     Davidson diagonalization with overlap
     c_bands:  1 eigenvalues not converged
     c_bands:  1 eigenvalues not converged
     c_bands:  1 eigenvalues not converged
     c_bands:  1 eigenvalues not converged
     c_bands:  1 eigenvalues not converged
     c_bands:  1 eigenvalues not converged
     ethr =  1.00E-06,  avg # of iterations = 16.4

[...]

     Total force =     0.010018     Total SCF correction =     0.000314

[...]

     number of scf cycles    =  10
     number of bfgs steps    =   9

     energy   old            =   -2165.9920873773 Ry
     energy   new            =   -2165.9932793406 Ry

     CASE: energy  _new < energy  _old

     new trust radius        =       0.0589491296 bohr
     new conv_thr            =       0.0000001000 Ry

ATOMIC_POSITIONS (crystal)
Bi1      0.000000000   0.000000000   0.390046330    0   0   0
Hf1     -0.000000000   0.500000000   0.390046330    0   0   0
Bi1      0.500000000   0.000000000   0.390046330    0   0   0
Bi1      0.500000000   0.500000000   0.390046330    0   0   0
Bi1      0.666666667   0.666666667   0.500000000    0   0   0
Hf1      0.666666667   0.166666667   0.500000000    0   0   0
Bi1      0.166666667   0.666666667   0.500000000    0   0   0
Bi1      0.166666667   0.166666667   0.500000000    0   0   0
Bi1      0.349989057   0.325007760   0.611003954
Hf1      0.333333547   0.833332246   0.588099988
Bi1      0.825009661   0.325003874   0.611004167
Bi1      0.825008364   0.849988368   0.611004371

     Writing output data file calc.save
     Check: negative starting charge=   -0.698851
     NEW-OLD atomic charge density approx. for the potential

     Check: negative/imaginary core charge=   -0.000002    0.000000
     Check: negative starting charge=   -0.696998

[...]

     Self-consistent Calculation

[...]

     total energy              =   -2165.99367631 Ry
     Harris-Foulkes estimate   =   -2165.99367630 Ry
     estimated scf accuracy    <       0.00000021 Ry

     iteration # 11     ecut=    36.75 Ry     beta=0.30
     Davidson diagonalization with overlap
     ethr =  1.23E-10,  avg # of iterations =  4.5

[...]

     negative rho (up, down):  7.355E-01 0.000E+00

     Adding external electric field

     Computed dipole along edir(3) :
        Dipole                0.0040 Ry au,          0.0102 Debye
        Dipole field          0.0000 Ry au

        Potential amp.       -0.0007 Ry
        Total length         47.2375 bohr

     End of self-consistent calculation

[...]

          k = 0.0483-0.0557 0.0000 ( 26863 PWs)   bands (ev):

[...]

          k =-0.0724-0.0418 0.0000 ( 26846 PWs)   bands (ev):

   -63.1095 -62.5763 -62.5584 -31.5972 -31.4737 -31.4735 -31.0711 -31.0433
   -31.0432 -31.0358 -31.0354 -30.9112 -22.2561 -22.2266 -22.2101 -22.1984
   -22.1945 -22.1920 -22.1788 -22.1673 -22.1285 -22.1257 -22.1203 -22.1128
   -22.1008 -22.0932 -22.0586 -22.0002 -21.9660 -21.9631 -21.9409 -21.9250
   -21.9114 -21.9016 -21.9005 -21.8984 -21.8854 -21.8838 -21.8784 -21.8769
   -21.8754 -21.8647 -21.8642 -21.8625 -21.8490 -21.8485 -21.8408 -21.8395
   -21.8322 -21.8303 -21.8270 -21.8261 -21.8246 -21.8168 -21.8103 -21.8039
   -21.7872 -10.9960 -10.7049 -10.0918  -9.5756  -9.4982  -9.4191  -8.9651
    -8.6876  -8.2647  -3.8513  -3.2829  -2.6951  -1.9246  -1.6627  -1.5290
    -1.5030  -1.4647  -1.3741  -0.9420  -0.8242  -0.4762  -0.2517  -0.1529
     0.1501   0.3243   0.3269   0.4510   0.5931   0.7812   1.5119   1.6590
     1.7853   1.9020   1.9777   2.0556   2.1522   2.3035   2.5149

     the Fermi energy is     1.2915 ev

!    total energy              =   -2165.99367630 Ry
     Harris-Foulkes estimate   =   -2165.99367634 Ry
     estimated scf accuracy    <       0.00000006 Ry

     The total energy is the sum of the following terms:

     one-electron contribution =   -9972.21012421 Ry
     hartree contribution      =    5020.94179296 Ry
     xc contribution           =    -830.89981568 Ry
     ewald contribution        =    3616.22792179 Ry
     electric field correction =       0.00000003 Ry
     smearing contrib. (-TS)   =      -0.05345118 Ry

     convergence has been achieved in  11 iterations

 BEEF-vdW xc energy contributions
           1 :   -743.947032094077
           2 :    691.587608245891
           3 :   -599.037862667727
           4 :    486.062255664011
           5 :   -373.365687809511
           6 :    276.585762877872
           7 :   -203.067638699464
           8 :    152.058032914977
           9 :   -117.572154077690
          10 :    92.2363696788300
          11 :   -70.4156027828082
          12 :    49.6077283076783
          13 :   -30.0957002668546
          14 :    13.5405169113321
          15 :   -1.43446736354201
          16 :   -5.90659896444924
          17 :    9.52649094218589
          18 :   -11.2979273897671
          19 :    13.0190373453057
          20 :   -15.5934506587297
          21 :    18.6785460059799
          22 :   -20.9838756949237
          23 :    21.0810636767819
          24 :   -18.3241431630087
          25 :    13.3825417032417
          26 :   -8.07431500715359
          27 :    4.54658265089699
          28 :   -4.22240414271096
          29 :    7.07307683328509
          30 :   -11.6157470838438
          31 :   -57.5841833552330
          32 :   -42.1329320804067

     Forces acting on atoms (Ry/au):

     negative rho (up, down):  7.355E-01 0.000E+00
     atom    1 type  1   force =    -0.01861770    0.01074827   -0.00469075
     atom    2 type  2   force =    -0.00000028   -0.00000023    0.05282537
     atom    3 type  1   force =     0.01861775    0.01074906   -0.00469009
     atom    4 type  1   force =    -0.00000048   -0.02149765   -0.00469059
     atom    5 type  1   force =     0.01301142   -0.00751105   -0.01227442
     atom    6 type  2   force =     0.00000051    0.00000013    0.00434956
     atom    7 type  1   force =    -0.01301099   -0.00751193   -0.01227508
     atom    8 type  1   force =     0.00000116    0.01502293   -0.01227454
     atom    9 type  1   force =     0.00026149   -0.00015097   -0.00180183
     atom   10 type  2   force =    -0.00000051    0.00000025   -0.00087357
     atom   11 type  1   force =    -0.00026112   -0.00014949   -0.00180154
     atom   12 type  1   force =    -0.00000123    0.00030068   -0.00180252

     Total force =     0.003283     Total SCF correction =     0.000343
     SCF correction compared to forces is large: reduce conv_thr to get better values

     entering subroutine stress ...

     negative rho (up, down):  7.355E-01 0.000E+00
          total   stress  (Ry/bohr**3)                   (kbar)     P=   -8.76
  -0.00006307   0.00000000  -0.00000000         -9.28      0.00     -0.00
   0.00000000  -0.00006307   0.00000000          0.00     -9.28      0.00
  -0.00000000   0.00000000  -0.00005247         -0.00      0.00     -7.72

     bfgs converged in  11 scf cycles and  10 bfgs steps
     (criteria: energy <  1.0E+00, force <  1.9E-03)

     End of BFGS Geometry Optimization

     Final energy   =   -2165.9936762966 Ry
Begin final coordinates

ATOMIC_POSITIONS (crystal)
Bi1      0.000000000   0.000000000   0.390046330    0   0   0
Hf1     -0.000000000   0.500000000   0.390046330    0   0   0
Bi1      0.500000000   0.000000000   0.390046330    0   0   0
Bi1      0.500000000   0.500000000   0.390046330    0   0   0
Bi1      0.666666667   0.666666667   0.500000000    0   0   0
Hf1      0.666666667   0.166666667   0.500000000    0   0   0
Bi1      0.166666667   0.666666667   0.500000000    0   0   0
Bi1      0.166666667   0.166666667   0.500000000    0   0   0
Bi1      0.349989057   0.325007760   0.611003954
Hf1      0.333333547   0.833332246   0.588099988
Bi1      0.825009661   0.325003874   0.611004167
Bi1      0.825008364   0.849988368   0.611004371
End final coordinates

     Writing output data file calc.save

     General routines

     Parallel routines

   This run was terminated on:  13:25:46  26Feb2018

   JOB DONE.