     Program PWSCF v.5.1rc2 (svn rev. ) starts on 23Feb2018 at 19:53:56

     Current dimensions of program PWSCF are:
     Max number of different atomic species (ntypx) = 10
     Max number of k-points (npk) =  40000
     Max angular momentum in pseudopotentials (lmaxx) =  3
     Presently stress not available with electric field

     IMPORTANT: XC functional enforced from input :
     Exchange-correlation      = BEEF-VDW ( 1  4 27 13 2)
     Any further DFT definition will be discarded
     Please, verify this is what you really want

     Subspace diagonalization in iterative solution of the eigenvalue problem:
     a serial algorithm will be used

     bravais-lattice index     =            0
     lattice parameter (alat)  =       1.8897  a.u.
     unit-cell volume          =    6678.6053 (a.u.)^3
     number of atoms/cell      =           12
     number of atomic types    =            2
     number of electrons       =       153.00
     number of Kohn-Sham states=           86
     kinetic-energy cutoff     =      36.7493  Ry
     charge density cutoff     =     367.4932  Ry
     convergence threshold     =      1.0E-05
     mixing beta               =       0.3000
     number of iterations used =           10  plain     mixing
     Exchange-correlation      = BEEF-VDW ( 1  4 27 13 2)
     nstep                     =           50

     celldm(1)=   1.889726  celldm(2)=   0.000000  celldm(3)=   0.000000
     celldm(4)=   0.000000  celldm(5)=   0.000000  celldm(6)=   0.000000

     crystal axes: (cart. coord. in units of alat)
               a(1) = (   6.698405   0.000000   0.000000 )
               a(2) = (   3.349203   5.800989   0.000000 )
               a(3) = (   0.000000   0.000000  25.469225 )

     reciprocal axes: (cart. coord. in units 2 pi/alat)
               b(1) = (  0.149289 -0.086192  0.000000 )
               b(2) = (  0.000000  0.172384 -0.000000 )
               b(3) = (  0.000000  0.000000  0.039263 )

     PseudoPot. # 1 for Cd read from file:
     /home/mamunm/src/pseudo/gbrv1.5pbe/Cd.UPF
     MD5 check sum: 17164a7926edb8e0dc231208abae86a6
     Pseudo is Ultrasoft + core correction, Zval = 12.0
     Generated by new atomic code, or converted to UPF format
     Using radial grid of  889 points,  6 beta functions with:
                l(1) =   0
                l(2) =   0
                l(3) =   1
                l(4) =   1
                l(5) =   2
                l(6) =   2
     Q(r) pseudized with  6 coefficients,  rinner =    1.000   1.000   1.000
                                                       1.000   1.000

     PseudoPot. # 2 for Bi read from file:
     /home/mamunm/src/pseudo/gbrv1.5pbe/Bi.UPF
     MD5 check sum: 81103212dc04adf40945787f699eab19
     Pseudo is Ultrasoft + core correction, Zval = 15.0
     Generated by new atomic code, or converted to UPF format
     Using radial grid of  899 points,  6 beta functions with:
                l(1) =   0
                l(2) =   0
                l(3) =   1
                l(4) =   1
                l(5) =   2
                l(6) =   2
     Q(r) pseudized with  6 coefficients,  rinner =    1.000   1.000   1.000
                                                       1.000   1.000

     vdW kernel table read from file vdW_kernel_table
     MD5 check sum: 095c7af220d748ca6e76c0b4c6cfb241

     atomic species   valence    mass     pseudopotential
        Cd1           12.00   112.41400     Cd( 1.00)
        Bi1           15.00   208.98040     Bi( 1.00)

     No symmetry found

   Cartesian axes

     site n.     atom                  positions (alat units)
         1           Cd1 tau(   1) = (   0.0000000   0.0000000  10.0000000  )
         2           Bi1 tau(   2) = (   1.6746013   2.9004945  10.0000000  )
         3           Cd1 tau(   3) = (   3.3492026   0.0000000  10.0000000  )
         4           Cd1 tau(   4) = (   5.0238038   2.9004945  10.0000000  )
         5           Cd1 tau(   5) = (   6.6984051   3.8673260  12.7346124  )
         6           Bi1 tau(   6) = (   5.0238038   0.9668315  12.7346124  )
         7           Cd1 tau(   7) = (   3.3492026   3.8673260  12.7346124  )
         8           Cd1 tau(   8) = (   1.6746013   0.9668315  12.7346124  )
         9           Cd1 tau(   9) = (   3.3492026   1.9336630  15.4692249  )
        10           Bi1 tau(  10) = (   5.0238038   4.8341575  15.4692249  )
        11           Cd1 tau(  11) = (   6.6984051   1.9336630  15.4692249  )
        12           Cd1 tau(  12) = (   8.3730064   4.8341575  15.4692249  )

     number of k points=    20  Fermi-Dirac smearing, width (Ry)=  0.0110
                       cart. coord. in units 2pi/alat
        k(    1) = (   0.0000000   0.0000000   0.0000000), wk =   0.0555556
        k(    2) = (   0.0000000   0.0287307  -0.0000000), wk =   0.1111111
        k(    3) = (   0.0000000   0.0574615  -0.0000000), wk =   0.1111111
        k(    4) = (   0.0000000  -0.0861922   0.0000000), wk =   0.0555556
        k(    5) = (   0.0248815  -0.0143654   0.0000000), wk =   0.1111111
        k(    6) = (   0.0248815   0.0143654  -0.0000000), wk =   0.1111111
        k(    7) = (   0.0248815   0.0430961  -0.0000000), wk =   0.1111111
        k(    8) = (   0.0248815  -0.1005576   0.0000000), wk =   0.1111111
        k(    9) = (   0.0248815  -0.0718268   0.0000000), wk =   0.1111111
        k(   10) = (   0.0248815  -0.0430961   0.0000000), wk =   0.1111111
        k(   11) = (   0.0497631  -0.0287307   0.0000000), wk =   0.1111111
        k(   12) = (   0.0497631   0.0000000   0.0000000), wk =   0.1111111
        k(   13) = (   0.0497631   0.0287307  -0.0000000), wk =   0.1111111
        k(   14) = (   0.0497631  -0.1149229   0.0000000), wk =   0.1111111
        k(   15) = (   0.0497631  -0.0861922   0.0000000), wk =   0.1111111
        k(   16) = (   0.0497631  -0.0574615   0.0000000), wk =   0.1111111
        k(   17) = (  -0.0746446   0.0430961  -0.0000000), wk =   0.0555556
        k(   18) = (  -0.0746446   0.0718268  -0.0000000), wk =   0.1111111
        k(   19) = (  -0.0746446   0.1005576  -0.0000000), wk =   0.1111111
        k(   20) = (  -0.0746446  -0.0430961   0.0000000), wk =   0.0555556

     Largest allocated arrays     est. size (Mb)     dimensions
     Largest temporary arrays     est. size (Mb)     dimensions

     Initial potential from superposition of free atoms
     Check: negative starting charge=   -0.323842

     starting charge  145.49950, renormalised to  153.00000

     negative rho (up, down):  3.405E-01 0.000E+00

     *
     * You are using vdW-DF for exchange-correlation in this calculation.
     * Please cite the following three references that made this development
     * possible:
     *
     *   M. Dion, H. Rydberg, E. Schroder, D. C. Langreth, and
     *   B. I. Lundqvist, Phys. Rev. Lett. 92, 246401 (2004).
     *
     *   T. Thonhauser, V. R. Cooper, S. Li, A. Puzder, P. Hyldgaard, and
     *   D. C. Langreth, Phys. Rev. B 76, 125112 (2007).
     *
     *   G. Roman-Perez and J. M. Soler, Phys. Rev. Lett. 103, 096102 (2009).
     *
     *
     * If you are using vdW-DF2, please also cite:
     *
     *   K. Lee, E. D. Murray, L. Kong, B. I. Lundqvist, and
     *   D. C. Langreth, Phys. Rev. B 82, 081101(R) (2010).
     *
     *
     * If you are calculating the stress with vdW-DF, please also cite:
     *
     *   R. Sabatini, E. Kucukbenli, B. Kolb, T. Thonhauser, and
     *   S. de Gironcoli, J. Phys.: Condens. Matter 24, 424209 (2012).
     *

     Carrying out vdW-DF run using the following parameters:

     Nqs =      20    Nr_points =    1024   r_max =   100.000
     q_mesh =
               0.00001000     0.04494208     0.09755937     0.15916263
               0.23128650     0.31572767     0.41458969     0.53033537
               0.66584808     0.82450364     1.01025438     1.22772762
               1.48234092     1.78043706     2.12944203     2.53805004
               3.01644009     3.57652955     4.23227104     5.00000000

     Gradients computed in reciprocal space

     Adding external electric field

     Computed dipole along edir(3) :
        Dipole                0.0000 Ry au,          0.0000 Debye
        Dipole field          0.0000 Ry au

        Potential amp.       -0.0000 Ry
        Total length         46.9266 bohr

     Starting wfc are  108 randomized atomic wfcs

     Self-consistent Calculation

     iteration #  1     ecut=    36.75 Ry     beta=0.30
     Davidson diagonalization with overlap
     ethr =  1.00E-02,  avg # of iterations =  2.9

[...]

     total energy              =   -1605.99796661 Ry
     Harris-Foulkes estimate   =   -1607.16611576 Ry
     estimated scf accuracy    <       2.60609581 Ry

[...]

     End of self-consistent calculation

          k = 0.0000 0.0000 0.0000 ( 25113 PWs)   bands (ev):

   -22.9116 -22.9116 -22.9101 -22.9101 -22.8857 -22.8857 -22.8840 -22.8840
   -22.8803 -22.8788 -22.8772 -22.8772 -22.8729 -22.8729 -22.8723 -10.9759
   -10.6148 -10.5892  -8.9066  -8.8617  -8.8617  -8.8023  -8.7396  -8.7372
    -8.7117  -8.7117  -8.6987  -8.6987  -8.6574  -8.6574  -8.6013  -8.5979
    -8.5979  -8.5836  -8.4802  -8.4801  -8.4750  -8.4626  -8.4626  -8.4428
    -8.4110  -8.4110  -8.3419  -8.3418  -8.3172  -8.3171  -8.3118  -8.2911
    -8.2698  -8.2698  -8.2594  -8.2594  -8.2119  -8.2119  -8.2031  -8.2031
    -8.1961  -8.1620  -8.1093  -8.1093  -8.0418  -8.0335  -8.0294  -4.3821
    -4.3354  -2.9751  -2.9021  -2.9021  -2.5498  -2.5498  -2.0087  -1.9271
    -1.9271  -0.9073  -0.8654  -0.8654  -0.2282   0.2452   0.4107   0.4107
     0.8217   0.8217   1.2845   2.5709   2.5894   3.4974

[...]

          k =-0.0746 0.0431-0.0000 ( 25190 PWs)   bands (ev):

[...]

     the Fermi energy is     0.3643 ev

!    total energy              =   -1606.22132324 Ry
     Harris-Foulkes estimate   =   -1606.22132275 Ry
     estimated scf accuracy    <       0.00000652 Ry

     The total energy is the sum of the following terms:

     one-electron contribution =   -8464.48287316 Ry
     hartree contribution      =    4313.85034265 Ry
     xc contribution           =    -566.63614631 Ry
     ewald contribution        =    3111.08104588 Ry
     electric field correction =       0.00000009 Ry
     smearing contrib. (-TS)   =      -0.03369239 Ry

     convergence has been achieved in   9 iterations

 BEEF-vdW xc energy contributions
           1 :   -499.585460926587
           2 :    459.308688048513
           3 :   -390.581681769319
           4 :    311.733124661947
           5 :   -240.084076800812
           6 :    185.988988097985
           7 :   -150.856440202132
           8 :    129.348435382850
           9 :   -113.915847858507
          10 :    99.0000587177276
          11 :   -82.9443399961955
          12 :    67.2760507859671
          13 :   -54.5022052237907
          14 :    46.0735484593441
          15 :   -41.6223273793573
          16 :    39.5216488313538
          17 :   -38.0237478639216
          18 :    36.1164032432789
          19 :   -33.6876390560873
          20 :    31.1519712630355
          21 :   -28.9723674432488
          22 :    27.4036884467198
          23 :   -26.4907526412825
          24 :    26.1525941477185
          25 :   -26.2096787385261
          26 :    26.3654253506337
          27 :   -26.2529302303138
          28 :    25.5994824413627
          29 :   -24.4190945533817
          30 :    23.0645432350486
          31 :   -43.0829560691683
          32 :   -31.4425938515406

     Forces acting on atoms (Ry/au):

     negative rho (up, down):  3.349E-01 0.000E+00
     atom    1 type  1   force =     0.00364192   -0.00209538   -0.00476411
     atom    2 type  2   force =    -0.00000299   -0.00000628   -0.00728692
     atom    3 type  1   force =    -0.00365067   -0.00211891   -0.00476995
     atom    4 type  1   force =     0.00000699    0.00421447   -0.00478965
     atom    5 type  1   force =    -0.00007474    0.00004999    0.00030354
     atom    6 type  2   force =     0.00000419   -0.00001864    0.00029495
     atom    7 type  1   force =     0.00007669    0.00003261    0.00030603
     atom    8 type  1   force =    -0.00000559   -0.00009319    0.00030202
     atom    9 type  1   force =    -0.00381221    0.00220870    0.00442734
     atom   10 type  2   force =     0.00000652    0.00000319    0.00714795
     atom   11 type  1   force =     0.00380648    0.00221230    0.00440395
     atom   12 type  1   force =     0.00000342   -0.00438886    0.00442486

     Total force =     0.012951     Total SCF correction =     0.011190
     SCF correction compared to forces is large: reduce conv_thr to get better values

     entering subroutine stress ...

     negative rho (up, down):  3.349E-01 0.000E+00
          total   stress  (Ry/bohr**3)                   (kbar)     P=   -3.93
  -0.00004900   0.00000000  -0.00000000         -7.21      0.00     -0.00
   0.00000000  -0.00004900  -0.00000000          0.00     -7.21     -0.00
  -0.00000000  -0.00000000   0.00001788         -0.00     -0.00      2.63

     BFGS Geometry Optimization

     number of scf cycles    =   1
     number of bfgs steps    =   0

     energy   new            =   -1606.2213232358 Ry

     new trust radius        =       0.0071479497 bohr
     new conv_thr            =       0.0000099958 Ry

ATOMIC_POSITIONS (crystal)
Cd1      0.000000000   0.000000000   0.392630716    0   0   0
Bi1     -0.000000000   0.500000000   0.392630716    0   0   0
Cd1      0.500000000   0.000000000   0.392630716    0   0   0
Cd1      0.500000000   0.500000000   0.392630716    0   0   0
Cd1      0.666666667   0.666666667   0.500000000    0   0   0
Bi1      0.666666667   0.166666667   0.500000000    0   0   0
Cd1      0.166666667   0.666666667   0.500000000    0   0   0
Cd1      0.166666667   0.166666667   0.500000000    0   0   0
Cd1      0.332931426   0.333534815   0.607461271
Bi1      0.333333703   0.833333625   0.607517798
Cd1      0.833533142   0.333535143   0.607460785
Cd1      0.833533784   0.832932973   0.607461220

     Writing output data file calc.save
     Check: negative starting charge=   -0.323842
     NEW-OLD atomic charge density approx. for the potential
     Check: negative starting charge=   -0.323574

[...]

     energy   old            =   -1606.2213232358 Ry
     energy   new            =   -1606.2214561404 Ry

     CASE: energy  _new < energy  _old

[...]

     Total force =     0.009103     Total SCF correction =     0.000301

[...]

     WARNING: bfgs curvature condition failed, Theta= 0.670
     uphill step: resetting bfgs history

[...]

     WARNING: bfgs curvature condition failed, Theta= 0.828
     new trust radius        =       0.0073155712 bohr
     new conv_thr            =       0.0000001000 Ry

[...]

     Total force =     0.007461     Total SCF correction =     0.000359

[...]

     number of scf cycles    =   8
     number of bfgs steps    =   7

     energy   old            =   -1606.2221715508 Ry
     energy   new            =   -1606.2224241506 Ry

     CASE: energy  _new < energy  _old

     new trust radius        =       0.0370350792 bohr
     new conv_thr            =       0.0000001000 Ry

ATOMIC_POSITIONS (crystal)
Cd1      0.000000000  -0.000000000   0.392630716    0   0   0
Bi1     -0.000000000   0.500000000   0.392630716    0   0   0
Cd1      0.500000000  -0.000000000   0.392630716    0   0   0
Cd1      0.500000000   0.500000000   0.392630716    0   0   0
Cd1      0.666666667   0.666666667   0.500000000    0   0   0
Bi1      0.666666667   0.166666667   0.500000000    0   0   0
Cd1      0.166666667   0.666666667   0.500000000    0   0   0
Cd1      0.166666667   0.166666667   0.500000000    0   0   0
Cd1      0.326348572   0.336826155   0.608785900
Bi1      0.333333626   0.833333458   0.609846354
Cd1      0.836825677   0.336826564   0.608785949
Cd1      0.836825357   0.826349517   0.608786012

     Writing output data file calc.save
     Check: negative starting charge=   -0.320626
     NEW-OLD atomic charge density approx. for the potential
     Check: negative starting charge=   -0.319815

[...]

     Self-consistent Calculation

[...]

     total energy              =   -1606.22266631 Ry
     Harris-Foulkes estimate   =   -1606.22266629 Ry
     estimated scf accuracy    <       0.00000018 Ry

     iteration #  8     ecut=    36.75 Ry     beta=0.30
     Davidson diagonalization with overlap
     ethr =  1.17E-10,  avg # of iterations =  4.0

[...]

     negative rho (up, down):  3.307E-01 0.000E+00

     Adding external electric field

     Computed dipole along edir(3) :
        Dipole                0.0020 Ry au,          0.0050 Debye
        Dipole field          0.0000 Ry au

        Potential amp.       -0.0003 Ry
        Total length         46.9266 bohr

     End of self-consistent calculation

[...]

          k = 0.0498-0.0575 0.0000 ( 25137 PWs)   bands (ev):

[...]

          k =-0.0746-0.0431 0.0000 ( 25190 PWs)   bands (ev):

   -22.9055 -22.9051 -22.8901 -22.8898 -22.8773 -22.8768 -22.8747 -22.8741
   -22.8708 -22.8694 -22.8693 -22.8680 -22.8609 -22.8607 -22.8552 -10.6944
   -10.5049 -10.4290  -8.8338  -8.7588  -8.7425  -8.7213  -8.6863  -8.6777
    -8.6663  -8.6535  -8.6360  -8.6351  -8.6255  -8.5989  -8.5608  -8.5524
    -8.5165  -8.5058  -8.4786  -8.4678  -8.4441  -8.4219  -8.4183  -8.4165
    -8.4084  -8.4011  -8.3937  -8.3903  -8.3819  -8.3645  -8.3637  -8.3557
    -8.3540  -8.3388  -8.3338  -8.3204  -8.3164  -8.2894  -8.2805  -8.2744
    -8.2714  -8.2475  -8.2339  -8.2195  -8.1951  -8.1215  -8.0935  -5.3661
    -4.5994  -4.1769  -3.7695  -2.8226  -2.5924  -2.4154  -2.3655  -1.0574
    -0.4385  -0.3242   0.3954   0.8365   0.8784   0.9577   1.1018   1.6141
     1.6299   2.0086   2.1566   2.2396   2.8061   3.0522

     the Fermi energy is     0.3646 ev

!    total energy              =   -1606.22266652 Ry
     Harris-Foulkes estimate   =   -1606.22266636 Ry
     estimated scf accuracy    <       0.00000005 Ry

     The total energy is the sum of the following terms:

     one-electron contribution =   -8411.81746422 Ry
     hartree contribution      =    4287.49562265 Ry
     xc contribution           =    -566.61108279 Ry
     ewald contribution        =    3084.74371943 Ry
     electric field correction =       0.00000001 Ry
     smearing contrib. (-TS)   =      -0.03346160 Ry

     convergence has been achieved in   8 iterations

 BEEF-vdW xc energy contributions
           1 :   -499.557945647036
           2 :    459.261935107124
           3 :   -390.513531939095
           4 :    311.662217867838
           5 :   -240.037570397524
           6 :    185.983622864651
           7 :   -150.886705887759
           8 :    129.390111794101
           9 :   -113.941720478759
          10 :    98.9963024866825
          11 :   -82.9167172462600
          12 :    67.2430049851712
          13 :   -54.4813762832091
          14 :    46.0717912784462
          15 :   -41.6348706202076
          16 :    39.5388297432399
          17 :   -38.0383544310399
          18 :    36.1259275655129
          19 :   -33.6915639499125
          20 :    31.1485435535276
          21 :   -28.9592561027424
          22 :    27.3824176722609
          23 :   -26.4698289099596
          24 :    26.1444133704018
          25 :   -26.2218884077477
          26 :    26.3931723120656
          27 :   -26.2794117827247
          28 :    25.6061033983680
          29 :   -24.3986063658689
          30 :    23.0277148771398
          31 :   -43.0803500803676
          32 :   -31.4353501381447

     Forces acting on atoms (Ry/au):

     negative rho (up, down):  3.307E-01 0.000E+00
     atom    1 type  1   force =     0.00345579   -0.00199523   -0.00326179
     atom    2 type  2   force =     0.00000010   -0.00000003   -0.00649893
     atom    3 type  1   force =    -0.00345581   -0.00199522   -0.00326178
     atom    4 type  1   force =    -0.00000000    0.00399043   -0.00326175
     atom    5 type  1   force =    -0.00083309    0.00048102    0.00176349
     atom    6 type  2   force =    -0.00000003   -0.00000006    0.00539431
     atom    7 type  1   force =     0.00083305    0.00048101    0.00176351
     atom    8 type  1   force =    -0.00000002   -0.00096208    0.00176372
     atom    9 type  1   force =    -0.00022329    0.00012888    0.00135878
     atom   10 type  2   force =     0.00000010    0.00000018    0.00152345
     atom   11 type  1   force =     0.00022303    0.00012860    0.00135872
     atom   12 type  1   force =     0.00000017   -0.00025750    0.00135827

     Total force =     0.002839     Total SCF correction =     0.000947
     SCF correction compared to forces is large: reduce conv_thr to get better values

     entering subroutine stress ...

     negative rho (up, down):  3.307E-01 0.000E+00
          total   stress  (Ry/bohr**3)                   (kbar)     P=   -7.12
  -0.00006966   0.00000000  -0.00000000        -10.25      0.00     -0.00
   0.00000000  -0.00006966  -0.00000000          0.00    -10.25     -0.00
  -0.00000000  -0.00000000  -0.00000585         -0.00     -0.00     -0.86

     bfgs converged in   9 scf cycles and   8 bfgs steps
     (criteria: energy <  1.0E+00, force <  1.9E-03)

     End of BFGS Geometry Optimization

     Final energy   =   -1606.2226665154 Ry
Begin final coordinates

ATOMIC_POSITIONS (crystal)
Cd1      0.000000000  -0.000000000   0.392630716    0   0   0
Bi1     -0.000000000   0.500000000   0.392630716    0   0   0
Cd1      0.500000000  -0.000000000   0.392630716    0   0   0
Cd1      0.500000000   0.500000000   0.392630716    0   0   0
Cd1      0.666666667   0.666666667   0.500000000    0   0   0
Bi1      0.666666667   0.166666667   0.500000000    0   0   0
Cd1      0.166666667   0.666666667   0.500000000    0   0   0
Cd1      0.166666667   0.166666667   0.500000000    0   0   0
Cd1      0.326348572   0.336826155   0.608785900
Bi1      0.333333626   0.833333458   0.609846354
Cd1      0.836825677   0.336826564   0.608785949
Cd1      0.836825357   0.826349517   0.608786012
End final coordinates

     Writing output data file calc.save

     General routines

     Parallel routines

   This run was terminated on:  20:23:19  23Feb2018

   JOB DONE.