     Program PWSCF v.5.1rc2 (svn rev. ) starts on 23Feb2018 at 20: 3:51

     Current dimensions of program PWSCF are:
     Max number of different atomic species (ntypx) = 10
     Max number of k-points (npk) =  40000
     Max angular momentum in pseudopotentials (lmaxx) =  3
     Presently stress not available with electric field

     IMPORTANT: XC functional enforced from input :
     Exchange-correlation      = BEEF-VDW ( 1  4 27 13 2)
     Any further DFT definition will be discarded
     Please, verify this is what you really want

     Subspace diagonalization in iterative solution of the eigenvalue problem:
     a serial algorithm will be used

     bravais-lattice index     =            0
     lattice parameter (alat)  =       1.8897  a.u.
     unit-cell volume          =    6802.2076 (a.u.)^3
     number of atoms/cell      =           12
     number of atomic types    =            2
     number of electrons       =       177.00
     number of Kohn-Sham states=           98
     kinetic-energy cutoff     =      36.7493  Ry
     charge density cutoff     =     367.4932  Ry
     convergence threshold     =      1.0E-05
     mixing beta               =       0.3000
     number of iterations used =           10  plain     mixing
     Exchange-correlation      = BEEF-VDW ( 1  4 27 13 2)
     nstep                     =           50

     celldm(1)=   1.889726  celldm(2)=   0.000000  celldm(3)=   0.000000
     celldm(4)=   0.000000  celldm(5)=   0.000000  celldm(6)=   0.000000

     crystal axes: (cart. coord. in units of alat)
               a(1) = (   6.754080   0.000000   0.000000 )
               a(2) = (   3.377040   5.849205   0.000000 )
               a(3) = (   0.000000   0.000000  25.514684 )

     reciprocal axes: (cart. coord. in units 2 pi/alat)
               b(1) = (  0.148059 -0.085482  0.000000 )
               b(2) = (  0.000000  0.170963  0.000000 )
               b(3) = (  0.000000  0.000000  0.039193 )

     PseudoPot. # 1 for Bi read from file:
     /home/mamunm/src/pseudo/gbrv1.5pbe/Bi.UPF
     MD5 check sum: 81103212dc04adf40945787f699eab19
     Pseudo is Ultrasoft + core correction, Zval = 15.0
     Generated by new atomic code, or converted to UPF format
     Using radial grid of  899 points,  6 beta functions with:
                l(1) =   0
                l(2) =   0
                l(3) =   1
                l(4) =   1
                l(5) =   2
                l(6) =   2
     Q(r) pseudized with  6 coefficients,  rinner =    1.000   1.000   1.000
                                                       1.000   1.000

     PseudoPot. # 2 for W  read from file:
     /home/mamunm/src/pseudo/gbrv1.5pbe/W.UPF
     MD5 check sum: 9c083fa34c2a2ea0f02f1f893e16e1c8
     Pseudo is Ultrasoft + core correction, Zval = 14.0
     Generated by new atomic code, or converted to UPF format
     Using radial grid of  923 points,  8 beta functions with:
                l(1) =   0
                l(2) =   0
                l(3) =   0
                l(4) =   1
                l(5) =   1
                l(6) =   2
                l(7) =   2
                l(8) =   3
     Q(r) pseudized with  6 coefficients,  rinner =    1.350   1.350   1.350
                                                       1.350   1.350   1.350
                                                       1.350

     vdW kernel table read from file vdW_kernel_table
     MD5 check sum: 095c7af220d748ca6e76c0b4c6cfb241

     atomic species   valence    mass     pseudopotential
        Bi1           15.00   208.98040     Bi( 1.00)
        W1            14.00   183.84000     W ( 1.00)

     No symmetry found

   Cartesian axes

     site n.     atom                  positions (alat units)
         1           Bi1 tau(   1) = (   0.0000000   0.0000000  10.0000000  )
         2           W1  tau(   2) = (   1.6885201   2.9246026  10.0000000  )
         3           Bi1 tau(   3) = (   3.3770402   0.0000000  10.0000000  )
         4           Bi1 tau(   4) = (   5.0655604   2.9246026  10.0000000  )
         5           Bi1 tau(   5) = (   6.7540805   3.8994702  12.7573418  )
         6           W1  tau(   6) = (   5.0655604   0.9748675  12.7573418  )
         7           Bi1 tau(   7) = (   3.3770402   3.8994702  12.7573418  )
         8           Bi1 tau(   8) = (   1.6885201   0.9748675  12.7573418  )
         9           Bi1 tau(   9) = (   3.3770402   1.9497351  15.5146836  )
        10           W1  tau(  10) = (   5.0655604   4.8743377  15.5146836  )
        11           Bi1 tau(  11) = (   6.7540805   1.9497351  15.5146836  )
        12           Bi1 tau(  12) = (   8.4426006   4.8743377  15.5146836  )

     number of k points=    20  Fermi-Dirac smearing, width (Ry)=  0.0110
                       cart. coord. in units 2pi/alat
        k(    1) = (   0.0000000   0.0000000   0.0000000), wk =   0.0555556
        k(    2) = (   0.0000000   0.0284939   0.0000000), wk =   0.1111111
        k(    3) = (   0.0000000   0.0569878   0.0000000), wk =   0.1111111
        k(    4) = (   0.0000000  -0.0854817   0.0000000), wk =   0.0555556
        k(    5) = (   0.0246764  -0.0142469   0.0000000), wk =   0.1111111
        k(    6) = (   0.0246764   0.0142469   0.0000000), wk =   0.1111111
        k(    7) = (   0.0246764   0.0427408   0.0000000), wk =   0.1111111
        k(    8) = (   0.0246764  -0.0997286   0.0000000), wk =   0.1111111
        k(    9) = (   0.0246764  -0.0712347   0.0000000), wk =   0.1111111
        k(   10) = (   0.0246764  -0.0427408   0.0000000), wk =   0.1111111
        k(   11) = (   0.0493529  -0.0284939   0.0000000), wk =   0.1111111
        k(   12) = (   0.0493529   0.0000000   0.0000000), wk =   0.1111111
        k(   13) = (   0.0493529   0.0284939   0.0000000), wk =   0.1111111
        k(   14) = (   0.0493529  -0.1139756   0.0000000), wk =   0.1111111
        k(   15) = (   0.0493529  -0.0854817   0.0000000), wk =   0.1111111
        k(   16) = (   0.0493529  -0.0569878   0.0000000), wk =   0.1111111
        k(   17) = (  -0.0740293   0.0427408   0.0000000), wk =   0.0555556
        k(   18) = (  -0.0740293   0.0712347   0.0000000), wk =   0.1111111
        k(   19) = (  -0.0740293   0.0997286   0.0000000), wk =   0.1111111
        k(   20) = (  -0.0740293  -0.0427408   0.0000000), wk =   0.0555556

     Largest allocated arrays     est. size (Mb)     dimensions
     Largest temporary arrays     est. size (Mb)     dimensions

     Initial potential from superposition of free atoms
     Check: negative starting charge=   -0.570088

     starting charge  167.69860, renormalised to  177.00000

     negative rho (up, down):  6.017E-01 0.000E+00

     *
     * You are using vdW-DF for exchange-correlation in this calculation.
     * Please cite the following three references that made this development
     * possible:
     *
     *   M. Dion, H. Rydberg, E. Schroder, D. C. Langreth, and
     *   B. I. Lundqvist, Phys. Rev. Lett. 92, 246401 (2004).
     *
     *   T. Thonhauser, V. R. Cooper, S. Li, A. Puzder, P. Hyldgaard, and
     *   D. C. Langreth, Phys. Rev. B 76, 125112 (2007).
     *
     *   G. Roman-Perez and J. M. Soler, Phys. Rev. Lett. 103, 096102 (2009).
     *
     *
     * If you are using vdW-DF2, please also cite:
     *
     *   K. Lee, E. D. Murray, L. Kong, B. I. Lundqvist, and
     *   D. C. Langreth, Phys. Rev. B 82, 081101(R) (2010).
     *
     *
     * If you are calculating the stress with vdW-DF, please also cite:
     *
     *   R. Sabatini, E. Kucukbenli, B. Kolb, T. Thonhauser, and
     *   S. de Gironcoli, J. Phys.: Condens. Matter 24, 424209 (2012).
     *

     Carrying out vdW-DF run using the following parameters:

     Nqs =      20    Nr_points =    1024   r_max =   100.000
     q_mesh =
               0.00001000     0.04494208     0.09755937     0.15916263
               0.23128650     0.31572767     0.41458969     0.53033537
               0.66584808     0.82450364     1.01025438     1.22772762
               1.48234092     1.78043706     2.12944203     2.53805004
               3.01644009     3.57652955     4.23227104     5.00000000

     Gradients computed in reciprocal space

     Adding external electric field

     Computed dipole along edir(3) :
        Dipole               -0.0000 Ry au,         -0.0000 Debye
        Dipole field         -0.0000 Ry au

        Potential amp.        0.0000 Ry
        Total length         47.0104 bohr

     Starting wfc are  120 randomized atomic wfcs

     Self-consistent Calculation

     iteration #  1     ecut=    36.75 Ry     beta=0.30
     Davidson diagonalization with overlap
     ethr =  1.00E-02,  avg # of iterations =  2.6

[...]

     total energy              =   -2163.39912721 Ry
     Harris-Foulkes estimate   =   -2167.25353713 Ry
     estimated scf accuracy    <       8.59998437 Ry

[...]

     End of self-consistent calculation

          k = 0.0000 0.0000 0.0000 ( 25641 PWs)   bands (ev):

   -73.3025 -73.3017 -73.2488 -37.3499 -37.3499 -37.3490 -37.3490 -37.3400
   -37.3393 -37.2959 -37.2959 -37.2670 -22.1947 -22.1741 -22.1741 -22.1505
   -22.0929 -22.0929 -22.0488 -22.0488 -22.0485 -22.0409 -22.0072 -22.0072
   -22.0054 -22.0021 -21.9769 -21.9769 -21.9662 -21.9662 -21.9483 -21.9483
   -21.9251 -21.9152 -21.9080 -21.8675 -21.8675 -21.8545 -21.8545 -21.8389
   -21.8348 -21.8247 -21.8247 -21.8107 -21.8107 -21.8062 -21.7981 -21.7981
   -21.7924 -21.7924 -21.7896 -21.7896 -21.7832 -21.7784 -21.7784 -21.7329
   -21.7326 -11.8200 -10.7854  -9.7834  -9.1995  -9.1995  -8.5690  -8.5690
    -8.0914  -8.0914  -3.9632  -3.3182  -3.0254  -2.6448  -2.6448  -2.3942
    -1.8746  -1.8746  -1.4827  -1.4827  -1.1733   0.2551   0.2551   0.3404
     0.3404   0.5218   0.5452   0.9775   1.1542   1.1542   1.3297   1.3711
     1.3711   1.3804   1.3877   1.3877   1.5816   1.5816   2.5134   2.5837
     2.5838   2.9194

[...]

          k =-0.0740 0.0427 0.0000 ( 25598 PWs)   bands (ev):

[...]

     the Fermi energy is     1.3611 ev

!    total energy              =   -2164.85592980 Ry
     Harris-Foulkes estimate   =   -2164.85593288 Ry
     estimated scf accuracy    <       0.00000392 Ry

     The total energy is the sum of the following terms:

     one-electron contribution =  -11085.46080671 Ry
     hartree contribution      =    5577.90883687 Ry
     xc contribution           =    -726.21238794 Ry
     ewald contribution        =    4069.01561654 Ry
     electric field correction =       0.00000043 Ry
     smearing contrib. (-TS)   =      -0.10718899 Ry

     convergence has been achieved in  15 iterations

 BEEF-vdW xc energy contributions
           1 :   -646.083521804706
           2 :    599.890300252427
           3 :   -518.422423467254
           4 :    419.469133341188
           5 :   -321.702682539304
           6 :    239.165696490755
           7 :   -178.093127086151
           8 :    136.899867252700
           9 :   -108.923330022982
          10 :    86.4490688051417
          11 :   -64.1951910273735
          12 :    40.9018405032020
          13 :   -18.7127337711531
          14 :    1.06908069930728
          15 :    9.60561559553832
          16 :   -13.2826140549432
          17 :    12.2554144538146
          18 :   -9.88940104140113
          19 :    8.98535992331449
          20 :   -10.6213854538599
          21 :    13.9853165813644
          22 :   -17.1582375306120
          23 :    18.3354203426682
          24 :   -16.8186025675910
          25 :    13.3101086634799
          26 :   -9.44826766327469
          27 :    6.90518530067720
          28 :   -6.54777466222765
          29 :    8.07585442707341
          30 :   -10.2748443858832
          31 :   -52.6575389391555
          32 :   -38.8254769889604

     Forces acting on atoms (Ry/au):

     negative rho (up, down):  5.929E-01 0.000E+00
     atom    1 type  1   force =    -0.02879381    0.01662453   -0.00206326
     atom    2 type  2   force =    -0.00000178    0.00000148    0.05105734
     atom    3 type  1   force =     0.02879457    0.01662469   -0.00206535
     atom    4 type  1   force =     0.00000118   -0.03324667   -0.00206295
     atom    5 type  1   force =    -0.00028339    0.00016319    0.00093863
     atom    6 type  2   force =    -0.00000002    0.00000059   -0.00109929
     atom    7 type  1   force =     0.00028351    0.00016401    0.00093887
     atom    8 type  1   force =     0.00000074   -0.00032935    0.00093915
     atom    9 type  1   force =     0.02872890   -0.01658817    0.00216954
     atom   10 type  2   force =     0.00000095   -0.00000033   -0.05310116
     atom   11 type  1   force =    -0.02873131   -0.01659066    0.00217256
     atom   12 type  1   force =     0.00000047    0.03317668    0.00217592

     Total force =     0.078332     Total SCF correction =     0.003888

     entering subroutine stress ...

     negative rho (up, down):  5.929E-01 0.000E+00
          total   stress  (Ry/bohr**3)                   (kbar)     P=  -14.73
  -0.00010212   0.00000000   0.00000000        -15.02      0.00      0.00
   0.00000000  -0.00010212   0.00000000          0.00    -15.02      0.00
   0.00000000   0.00000000  -0.00009614          0.00      0.00    -14.14

     BFGS Geometry Optimization

     number of scf cycles    =   1
     number of bfgs steps    =   0

     energy   new            =   -2164.8559298031 Ry

     new trust radius        =       0.0531011593 bohr
     new conv_thr            =       0.0000099958 Ry

ATOMIC_POSITIONS (crystal)
Bi1      0.000000000   0.000000000   0.391931178    0   0   0
W1      -0.000000000   0.500000000   0.391931178    0   0   0
Bi1      0.500000000   0.000000000   0.391931178    0   0   0
Bi1      0.500000000   0.500000000   0.391931178    0   0   0
Bi1      0.666666667   0.666666667   0.500000000    0   0   0
W1       0.666666667   0.166666667   0.500000000    0   0   0
Bi1      0.166666667   0.666666667   0.500000000    0   0   0
Bi1      0.166666667   0.166666667   0.500000000    0   0   0
Bi1      0.336334587   0.331832603   0.608113819
W1       0.333333423   0.833333304   0.606967499
Bi1      0.831832734   0.331832377   0.608113881
Bi1      0.831832624   0.836334825   0.608113951

     Writing output data file calc.save
     Check: negative starting charge=   -0.570088
     NEW-OLD atomic charge density approx. for the potential
     Check: negative starting charge=   -0.570338

[...]

     energy   old            =   -2164.8559298031 Ry
     energy   new            =   -2164.8618211657 Ry

     CASE: energy  _new < energy  _old

     WARNING: bfgs curvature condition failed, Theta= 0.843
     new trust radius        =       0.0584112753 bohr
     new conv_thr            =       0.0000001000 Ry

[...]

     iteration #  1     ecut=    36.75 Ry     beta=0.30
     Davidson diagonalization with overlap
     c_bands:  1 eigenvalues not converged
     c_bands:  1 eigenvalues not converged
     c_bands:  1 eigenvalues not converged
     ethr =  1.00E-06,  avg # of iterations =  8.4

[...]

     iteration #  1     ecut=    36.75 Ry     beta=0.30
     Davidson diagonalization with overlap
     c_bands:  1 eigenvalues not converged
     c_bands:  1 eigenvalues not converged
     c_bands:  1 eigenvalues not converged
     ethr =  1.00E-06,  avg # of iterations = 11.4

[...]

     Total force =     0.006359     Total SCF correction =     0.000647
     SCF correction compared to forces is large: reduce conv_thr to get better values

[...]

     number of scf cycles    =  15
     number of bfgs steps    =  14

     energy   old            =   -2164.9179437043 Ry
     energy   new            =   -2164.9180767838 Ry

     CASE: energy  _new < energy  _old

     new trust radius        =       0.0182772292 bohr
     new conv_thr            =       0.0000001000 Ry

ATOMIC_POSITIONS (crystal)
Bi1      0.000000000   0.000000000   0.391931178    0   0   0
W1      -0.000000000   0.500000000   0.391931178    0   0   0
Bi1      0.500000000   0.000000000   0.391931178    0   0   0
Bi1      0.500000000   0.500000000   0.391931178    0   0   0
Bi1      0.666666667   0.666666667   0.500000000    0   0   0
W1       0.666666667   0.166666667   0.500000000    0   0   0
Bi1      0.166666667   0.666666667   0.500000000    0   0   0
Bi1      0.166666667   0.166666667   0.500000000    0   0   0
Bi1      0.353053147   0.323472240   0.605385070
W1       0.333333953   0.833334950   0.582706606
Bi1      0.823473860   0.323472405   0.605385018
Bi1      0.823473143   0.853050906   0.605385291

     Writing output data file calc.save
     Check: negative starting charge=   -0.568519
     NEW-OLD atomic charge density approx. for the potential
     Check: negative starting charge=   -0.570135

[...]

     Self-consistent Calculation

[...]

     total energy              =   -2164.91815528 Ry
     Harris-Foulkes estimate   =   -2164.91815530 Ry
     estimated scf accuracy    <       0.00000055 Ry

     iteration # 10     ecut=    36.75 Ry     beta=0.30
     Davidson diagonalization with overlap
     ethr =  3.10E-10,  avg # of iterations =  1.8

[...]

     negative rho (up, down):  5.960E-01 0.000E+00

     Adding external electric field

     Computed dipole along edir(3) :
        Dipole                0.0793 Ry au,          0.2016 Debye
        Dipole field          0.0001 Ry au

        Potential amp.       -0.0138 Ry
        Total length         47.0104 bohr

     End of self-consistent calculation

[...]

          k = 0.0494-0.0570 0.0000 ( 25586 PWs)   bands (ev):

[...]

          k =-0.0740-0.0427 0.0000 ( 25598 PWs)   bands (ev):

   -73.2977 -73.1495 -73.1056 -37.3692 -37.3294 -37.3292 -37.2313 -37.2051
   -37.2051 -37.1812 -37.1810 -37.1686 -22.1278 -22.0808 -22.0613 -22.0610
   -22.0554 -22.0404 -22.0353 -22.0213 -21.9968 -21.9712 -21.9628 -21.9575
   -21.9470 -21.9451 -21.9392 -21.9222 -21.9149 -21.9028 -21.8926 -21.8811
   -21.8506 -21.8377 -21.8325 -21.8317 -21.8228 -21.8177 -21.8171 -21.8095
   -21.8007 -21.7986 -21.7958 -21.7943 -21.7918 -21.7805 -21.7798 -21.7780
   -21.7688 -21.7538 -21.7517 -21.7438 -21.7427 -21.7380 -21.7337 -21.7257
   -21.6987 -11.0895 -10.8518 -10.1501  -9.5578  -9.4167  -9.3037  -8.7581
    -8.5499  -7.9766  -3.8592  -3.3234  -2.6455  -1.8888  -1.6446  -1.5179
    -1.4348  -1.3694  -1.2712  -0.8797  -0.8727  -0.5311  -0.1495  -0.1407
     0.0989   0.3642   0.4902   0.6847   0.7268   0.9182   1.1211   1.2705
     1.3288   1.3977   1.5825   1.6288   1.6936   1.9808   2.2790   2.6051
     2.6603   2.7428

     the Fermi energy is     1.4326 ev

!    total energy              =   -2164.91815488 Ry
     Harris-Foulkes estimate   =   -2164.91815514 Ry
     estimated scf accuracy    <       0.00000006 Ry

     The total energy is the sum of the following terms:

     one-electron contribution =  -11404.96861595 Ry
     hartree contribution      =    5737.98298339 Ry
     xc contribution           =    -726.52346470 Ry
     ewald contribution        =    4228.68751025 Ry
     electric field correction =       0.00001162 Ry
     smearing contrib. (-TS)   =      -0.09657949 Ry

     convergence has been achieved in  10 iterations

 BEEF-vdW xc energy contributions
           1 :   -646.400969619998
           2 :    600.333260483383
           3 :   -519.034348991407
           4 :    420.168121245206
           5 :   -322.309792493934
           6 :    239.497165065499
           7 :   -178.064334298739
           8 :    136.579588789129
           9 :   -108.505851209117
          10 :    86.1578236467832
          11 :   -64.1706365780758
          12 :    41.1345036432141
          13 :   -19.0563499856534
          14 :    1.32513864597615
          15 :    9.57916108921779
          16 :   -13.4976300060511
          17 :    12.5932266147170
          18 :   -10.1703561113651
          19 :    9.06731731645004
          20 :   -10.4731470352101
          21 :    13.6969874165341
          22 :   -16.8860904923706
          23 :    18.2149685316234
          24 :   -16.8949936954780
          25 :    13.5218374310080
          26 :   -9.66837076443596
          27 :    7.01263498276296
          28 :   -6.48894496512742
          29 :    7.88539412292232
          30 :   -10.0494957745206
          31 :   -52.6825452534684
          32 :   -38.8810292961934

     Forces acting on atoms (Ry/au):

     negative rho (up, down):  5.960E-01 0.000E+00
     atom    1 type  1   force =    -0.02444788    0.01411505   -0.00241364
     atom    2 type  2   force =     0.00000016    0.00000015    0.04489509
     atom    3 type  1   force =     0.02444782    0.01411499   -0.00241387
     atom    4 type  1   force =     0.00000003   -0.02823014   -0.00241354
     atom    5 type  1   force =     0.01410412   -0.00814307   -0.01773647
     atom    6 type  2   force =    -0.00000032   -0.00000021    0.01622200
     atom    7 type  1   force =    -0.01410356   -0.00814245   -0.01773495
     atom    8 type  1   force =    -0.00000015    0.01628625   -0.01773678
     atom    9 type  1   force =     0.00136322   -0.00078772   -0.00017310
     atom   10 type  2   force =     0.00000054    0.00000068   -0.00014797
     atom   11 type  1   force =    -0.00136371   -0.00078844   -0.00017341
     atom   12 type  1   force =    -0.00000027    0.00157490   -0.00017336

     Total force =     0.002748     Total SCF correction =     0.000137

     entering subroutine stress ...

     negative rho (up, down):  5.960E-01 0.000E+00
          total   stress  (Ry/bohr**3)                   (kbar)     P=   -8.27
  -0.00005621  -0.00000000  -0.00000000         -8.27     -0.00     -0.00
  -0.00000000  -0.00005621  -0.00000000         -0.00     -8.27     -0.00
  -0.00000000  -0.00000000  -0.00005624         -0.00     -0.00     -8.27

     bfgs converged in  16 scf cycles and  15 bfgs steps
     (criteria: energy <  1.0E+00, force <  1.9E-03)

     End of BFGS Geometry Optimization

     Final energy   =   -2164.9181548801 Ry
Begin final coordinates

ATOMIC_POSITIONS (crystal)
Bi1      0.000000000   0.000000000   0.391931178    0   0   0
W1      -0.000000000   0.500000000   0.391931178    0   0   0
Bi1      0.500000000   0.000000000   0.391931178    0   0   0
Bi1      0.500000000   0.500000000   0.391931178    0   0   0
Bi1      0.666666667   0.666666667   0.500000000    0   0   0
W1       0.666666667   0.166666667   0.500000000    0   0   0
Bi1      0.166666667   0.666666667   0.500000000    0   0   0
Bi1      0.166666667   0.166666667   0.500000000    0   0   0
Bi1      0.353053147   0.323472240   0.605385070
W1       0.333333953   0.833334950   0.582706606
Bi1      0.823473860   0.323472405   0.605385018
Bi1      0.823473143   0.853050906   0.605385291
End final coordinates

     Writing output data file calc.save

     General routines

     Parallel routines

   This run was terminated on:  21:36:28  23Feb2018

   JOB DONE.