     Program PWSCF v.5.1rc2 (svn rev. ) starts on 23Feb2018 at 20: 9:30

     Current dimensions of program PWSCF are:
     Max number of different atomic species (ntypx) = 10
     Max number of k-points (npk) =  40000
     Max angular momentum in pseudopotentials (lmaxx) =  3
     Presently stress not available with electric field

     IMPORTANT: XC functional enforced from input :
     Exchange-correlation      = BEEF-VDW ( 1  4 27 13 2)
     Any further DFT definition will be discarded
     Please, verify this is what you really want

     Subspace diagonalization in iterative solution of the eigenvalue problem:
     a serial algorithm will be used

     bravais-lattice index     =            0
     lattice parameter (alat)  =       1.8897  a.u.
     unit-cell volume          =    4724.5399 (a.u.)^3
     number of atoms/cell      =           12
     number of atomic types    =            2
     number of electrons       =       216.00
     number of Kohn-Sham states=          118
     kinetic-energy cutoff     =      36.7493  Ry
     charge density cutoff     =     367.4932  Ry
     convergence threshold     =      1.0E-05
     mixing beta               =       0.3000
     number of iterations used =           10  plain     mixing
     Exchange-correlation      = BEEF-VDW ( 1  4 27 13 2)
     nstep                     =           50

     celldm(1)=   1.889726  celldm(2)=   0.000000  celldm(3)=   0.000000
     celldm(4)=   0.000000  celldm(5)=   0.000000  celldm(6)=   0.000000

     crystal axes: (cart. coord. in units of alat)
               a(1) = (   5.724000   0.000000   0.000000 )
               a(2) = (   2.862000   4.957130   0.000000 )
               a(3) = (   0.000000   0.000000  24.673627 )

     reciprocal axes: (cart. coord. in units 2 pi/alat)
               b(1) = (  0.174703 -0.100865  0.000000 )
               b(2) = (  0.000000  0.201730 -0.000000 )
               b(3) = (  0.000000  0.000000  0.040529 )

     PseudoPot. # 1 for Cu read from file:
     /home/mamunm/src/pseudo/gbrv1.5pbe/Cu.UPF
     MD5 check sum: 6e991ff952a84172a2a52a1c1e996048
     Pseudo is Ultrasoft + core correction, Zval = 19.0
     Generated by new atomic code, or converted to UPF format
     Using radial grid of  867 points,  6 beta functions with:
                l(1) =   0
                l(2) =   0
                l(3) =   1
                l(4) =   1
                l(5) =   2
                l(6) =   2
     Q(r) pseudized with  8 coefficients,  rinner =    1.150   1.150   1.150
                                                       1.150   1.150

     PseudoPot. # 2 for Bi read from file:
     /home/mamunm/src/pseudo/gbrv1.5pbe/Bi.UPF
     MD5 check sum: 81103212dc04adf40945787f699eab19
     Pseudo is Ultrasoft + core correction, Zval = 15.0
     Generated by new atomic code, or converted to UPF format
     Using radial grid of  899 points,  6 beta functions with:
                l(1) =   0
                l(2) =   0
                l(3) =   1
                l(4) =   1
                l(5) =   2
                l(6) =   2
     Q(r) pseudized with  6 coefficients,  rinner =    1.000   1.000   1.000
                                                       1.000   1.000

     vdW kernel table read from file vdW_kernel_table
     MD5 check sum: 095c7af220d748ca6e76c0b4c6cfb241

     atomic species   valence    mass     pseudopotential
        Cu1           19.00    63.54600     Cu( 1.00)
        Bi1           15.00   208.98040     Bi( 1.00)

     No symmetry found

   Cartesian axes

     site n.     atom                  positions (alat units)
         1           Cu1 tau(   1) = (   0.0000000   0.0000000  10.0000000  )
         2           Bi1 tau(   2) = (   1.4310001   2.4785649  10.0000000  )
         3           Cu1 tau(   3) = (   2.8620002   0.0000000  10.0000000  )
         4           Cu1 tau(   4) = (   4.2930003   2.4785649  10.0000000  )
         5           Cu1 tau(   5) = (   5.7240003   3.3047531  12.3368134  )
         6           Bi1 tau(   6) = (   4.2930003   0.8261883  12.3368134  )
         7           Cu1 tau(   7) = (   2.8620002   3.3047531  12.3368134  )
         8           Cu1 tau(   8) = (   1.4310001   0.8261883  12.3368134  )
         9           Cu1 tau(   9) = (   2.8620002   1.6523766  14.6736267  )
        10           Bi1 tau(  10) = (   4.2930003   4.1309414  14.6736267  )
        11           Cu1 tau(  11) = (   5.7240003   1.6523766  14.6736267  )
        12           Cu1 tau(  12) = (   7.1550004   4.1309414  14.6736267  )

     number of k points=    20  Fermi-Dirac smearing, width (Ry)=  0.0110
                       cart. coord. in units 2pi/alat
        k(    1) = (   0.0000000   0.0000000   0.0000000), wk =   0.0555556
        k(    2) = (   0.0000000   0.0336216  -0.0000000), wk =   0.1111111
        k(    3) = (   0.0000000   0.0672432  -0.0000000), wk =   0.1111111
        k(    4) = (   0.0000000  -0.1008648   0.0000000), wk =   0.0555556
        k(    5) = (   0.0291172  -0.0168108   0.0000000), wk =   0.1111111
        k(    6) = (   0.0291172   0.0168108  -0.0000000), wk =   0.1111111
        k(    7) = (   0.0291172   0.0504324  -0.0000000), wk =   0.1111111
        k(    8) = (   0.0291172  -0.1176756   0.0000000), wk =   0.1111111
        k(    9) = (   0.0291172  -0.0840540   0.0000000), wk =   0.1111111
        k(   10) = (   0.0291172  -0.0504324   0.0000000), wk =   0.1111111
        k(   11) = (   0.0582343  -0.0336216   0.0000000), wk =   0.1111111
        k(   12) = (   0.0582343   0.0000000   0.0000000), wk =   0.1111111
        k(   13) = (   0.0582343   0.0336216  -0.0000000), wk =   0.1111111
        k(   14) = (   0.0582343  -0.1344864   0.0000000), wk =   0.1111111
        k(   15) = (   0.0582343  -0.1008648   0.0000000), wk =   0.1111111
        k(   16) = (   0.0582343  -0.0672432   0.0000000), wk =   0.1111111
        k(   17) = (  -0.0873515   0.0504324  -0.0000000), wk =   0.0555556
        k(   18) = (  -0.0873515   0.0840540  -0.0000000), wk =   0.1111111
        k(   19) = (  -0.0873515   0.1176756  -0.0000000), wk =   0.1111111
        k(   20) = (  -0.0873515  -0.0504324   0.0000000), wk =   0.0555556

     Largest allocated arrays     est. size (Mb)     dimensions
     Largest temporary arrays     est. size (Mb)     dimensions

     Initial potential from superposition of free atoms
     Check: negative starting charge=   -0.127344

     starting charge  203.99986, renormalised to  216.00000

     negative rho (up, down):  1.348E-01 0.000E+00

     *
     * You are using vdW-DF for exchange-correlation in this calculation.
     * Please cite the following three references that made this development
     * possible:
     *
     *   M. Dion, H. Rydberg, E. Schroder, D. C. Langreth, and
     *   B. I. Lundqvist, Phys. Rev. Lett. 92, 246401 (2004).
     *
     *   T. Thonhauser, V. R. Cooper, S. Li, A. Puzder, P. Hyldgaard, and
     *   D. C. Langreth, Phys. Rev. B 76, 125112 (2007).
     *
     *   G. Roman-Perez and J. M. Soler, Phys. Rev. Lett. 103, 096102 (2009).
     *
     *
     * If you are using vdW-DF2, please also cite:
     *
     *   K. Lee, E. D. Murray, L. Kong, B. I. Lundqvist, and
     *   D. C. Langreth, Phys. Rev. B 82, 081101(R) (2010).
     *
     *
     * If you are calculating the stress with vdW-DF, please also cite:
     *
     *   R. Sabatini, E. Kucukbenli, B. Kolb, T. Thonhauser, and
     *   S. de Gironcoli, J. Phys.: Condens. Matter 24, 424209 (2012).
     *

     Carrying out vdW-DF run using the following parameters:

     Nqs =      20    Nr_points =    1024   r_max =   100.000
     q_mesh =
               0.00001000     0.04494208     0.09755937     0.15916263
               0.23128650     0.31572767     0.41458969     0.53033537
               0.66584808     0.82450364     1.01025438     1.22772762
               1.48234092     1.78043706     2.12944203     2.53805004
               3.01644009     3.57652955     4.23227104     5.00000000

     Gradients computed in reciprocal space

     Adding external electric field

     Computed dipole along edir(3) :
        Dipole               -0.0000 Ry au,         -0.0000 Debye
        Dipole field         -0.0000 Ry au

        Potential amp.        0.0000 Ry
        Total length         45.4607 bohr

     Starting wfc are  144 randomized atomic wfcs

     Self-consistent Calculation

     iteration #  1     ecut=    36.75 Ry     beta=0.30
     Davidson diagonalization with overlap
     ethr =  1.00E-02,  avg # of iterations =  7.3

[...]

     total energy              =   -4138.99037529 Ry
     Harris-Foulkes estimate   =   -4218.55062286 Ry
     estimated scf accuracy    <     166.09767775 Ry

[...]

     End of self-consistent calculation

          k = 0.0000 0.0000 0.0000 ( 17837 PWs)   bands (ev):

  -111.9142-111.9130-111.9129-111.5163-111.5152-111.5150-111.5140-111.5139
  -111.5126 -69.3601 -69.3601 -69.3538 -69.3528 -69.3453 -69.3453 -69.2588
   -69.2489 -69.2488 -68.9700 -68.9691 -68.9690 -68.9679 -68.9625 -68.9614
   -68.9346 -68.9334 -68.9223 -68.9213 -68.9212 -68.9200 -68.8866 -68.8855
   -68.8818 -68.8808 -68.8808 -68.8796 -22.5586 -22.5586 -22.5580 -22.5514
   -22.5514 -22.4008 -22.3998 -22.3856 -22.3856 -22.3849 -22.3849 -22.3770
   -22.3770 -22.3755 -22.3755 -11.5294 -10.4909  -9.9389  -3.9936  -3.8995
    -3.3048  -3.3048  -3.2935  -3.2934  -3.2863  -2.7676  -2.7676  -2.6112
    -2.6111  -2.5808  -2.4619  -2.3763  -2.2703  -2.2697  -2.1058  -2.1055
    -2.0497  -2.0043  -1.9952  -1.9950  -1.8535  -1.8533  -1.8263  -1.8104
    -1.8104  -1.5814  -1.5811  -1.5623  -1.5622  -1.5281  -1.5028  -1.4846
    -1.4839  -1.4798  -1.4795  -1.4757  -1.3963  -1.3330  -1.3324  -1.3135
    -1.3128  -1.2593  -1.2239  -1.1599  -1.1582  -1.1575  -1.0056  -0.9992
    -0.7431  -0.7431  -0.4757  -0.4754  -0.1986   0.5108   1.6200   2.1231
     2.1861   2.1862   3.4847   3.4848   3.5915   4.0764

[...]

          k =-0.0874 0.0504-0.0000 ( 17764 PWs)   bands (ev):

[...]

     the Fermi energy is     0.7857 ev

!    total energy              =   -4205.76041084 Ry
     Harris-Foulkes estimate   =   -4205.74640275 Ry
     estimated scf accuracy    <       0.00000366 Ry

     The total energy is the sum of the following terms:

     one-electron contribution =  -26728.69866669 Ry
     hartree contribution      =   13390.23552996 Ry
     xc contribution           =    -559.99181591 Ry
     ewald contribution        =    9692.72121925 Ry
     electric field correction =       0.00000002 Ry
     smearing contrib. (-TS)   =      -0.02667749 Ry

     convergence has been achieved in  19 iterations

 BEEF-vdW xc energy contributions
           1 :   -497.342595479927
           2 :    454.912466784197
           3 :   -382.275805762278
           4 :    298.299530052799
           5 :   -220.646417924853
           6 :    159.691757380015
           7 :   -116.803170257052
           8 :    86.9959904622684
           9 :   -63.7313751111296
          10 :    42.8861430345534
          11 :   -23.9897642047937
          12 :    8.79831056465173
          13 :    1.15140896919502
          14 :   -6.13264143777997
          15 :    8.08388134108986
          16 :   -9.22646732540068
          17 :    10.7031993294162
          18 :   -12.2375769627445
          19 :    12.8859890306402
          20 :   -12.1408428796119
          21 :    10.4865876393976
          22 :   -9.04208549157306
          23 :    8.66149231621478
          24 :   -9.25862783777143
          25 :    9.89177642140021
          26 :   -9.52533439280171
          27 :    7.86230960942737
          28 :   -5.60957849140402
          29 :    3.98096782185360
          30 :   -3.81341904319720
          31 :   -39.5317014298046
          32 :   -27.7335200110307

     Forces acting on atoms (Ry/au):

     negative rho (up, down):  1.359E-01 0.000E+00
     atom    1 type  1   force =     0.01040992   -0.00602138    0.00736469
     atom    2 type  2   force =     0.00001125    0.00000497   -0.02546970
     atom    3 type  1   force =    -0.01042838   -0.00602299    0.00738548
     atom    4 type  1   force =    -0.00000585    0.01204151    0.00735306
     atom    5 type  1   force =     0.00001656   -0.00001282    0.00019249
     atom    6 type  2   force =    -0.00001090    0.00000912    0.00000542
     atom    7 type  1   force =    -0.00001342   -0.00003392    0.00021165
     atom    8 type  1   force =     0.00001985    0.00003225    0.00021478
     atom    9 type  1   force =    -0.01043913    0.00604503   -0.00740142
     atom   10 type  2   force =    -0.00001285   -0.00000203    0.02495582
     atom   11 type  1   force =     0.01042902    0.00601238   -0.00740550
     atom   12 type  1   force =     0.00002395   -0.01205213   -0.00740676

     Total force =     0.034971     Total SCF correction =     0.001576

     entering subroutine stress ...

     negative rho (up, down):  1.359E-01 0.000E+00
          total   stress  (Ry/bohr**3)                   (kbar)     P=  -22.29
  -0.00018429   0.00000002  -0.00000001        -27.11      0.00     -0.00
   0.00000002  -0.00018429   0.00000000          0.00    -27.11      0.00
  -0.00000001   0.00000000  -0.00008595         -0.00      0.00    -12.64

     BFGS Geometry Optimization

     number of scf cycles    =   1
     number of bfgs steps    =   0

     energy   new            =   -4205.7604108431 Ry

     new trust radius        =       0.0249558193 bohr
     new conv_thr            =       0.0000099958 Ry

ATOMIC_POSITIONS (crystal)
Cu1     -0.000000000   0.000000000   0.405291047    0   0   0
Bi1     -0.000000000   0.500000000   0.405291047    0   0   0
Cu1      0.500000000   0.000000000   0.405291047    0   0   0
Cu1      0.500000000   0.500000000   0.405291047    0   0   0
Cu1      0.666666667   0.666666667   0.500000000    0   0   0
Bi1      0.666666667   0.166666667   0.500000000    0   0   0
Cu1      0.166666667   0.666666667   0.500000000    0   0   0
Cu1      0.166666667   0.166666667   0.500000000    0   0   0
Cu1      0.332045592   0.333978645   0.594550214
Bi1      0.333332253   0.833333117   0.595244182
Cu1      0.833976571   0.333975159   0.594550127
Cu1      0.833978834   0.832046760   0.594550100

     Writing output data file calc.save
     Check: negative starting charge=   -0.127344
     NEW-OLD atomic charge density approx. for the potential
     Check: negative starting charge=   -0.128420

[...]

     Total force =     0.021481     Total SCF correction =     0.035588
     SCF correction compared to forces is large: reduce conv_thr to get better values

[...]

     energy   old            =   -4205.7604108431 Ry
     energy   new            =   -4205.7661030942 Ry

     CASE: energy  _new < energy  _old

[...]

     WARNING: bfgs curvature condition failed, Theta= 0.643
     new trust radius        =       0.0445104012 bohr
     new conv_thr            =       0.0000001000 Ry

[...]

     WARNING: info= 34 for Hessian
     new trust radius        =       0.0667656019 bohr
     new conv_thr            =       0.0000001000 Ry

[...]

     WARNING: info= 35 for Hessian
     uphill step: resetting bfgs history

[...]

     iteration #  1     ecut=    36.75 Ry     beta=0.30
     Davidson diagonalization with overlap
     c_bands:  1 eigenvalues not converged
     c_bands:  1 eigenvalues not converged
     c_bands:  1 eigenvalues not converged
     ethr =  1.00E-06,  avg # of iterations = 10.1

[...]

     iteration #  1     ecut=    36.75 Ry     beta=0.30
     Davidson diagonalization with overlap
     c_bands:  1 eigenvalues not converged
     c_bands:  1 eigenvalues not converged
     c_bands:  1 eigenvalues not converged
     ethr =  1.00E-06,  avg # of iterations =  8.6

[...]

     CASE: energy  _new > energy  _old

[...]

     Total force =     0.003491     Total SCF correction =     0.000298

[...]

     Threshold (ethr) on eigenvalues was too large:
     Diagonalizing with lowered threshold

     Davidson diagonalization with overlap
     ethr =  1.60E-08,  avg # of iterations =  1.1

[...]

     CASE: energy  _new > energy  _old

     new trust radius        =       0.0000497282 bohr

     trust_radius < trust_radius_min

     resetting bfgs history

     new conv_thr            =       0.0000001000 Ry

[...]

     new trust radius        =       0.0080006962 bohr
     new conv_thr            =       0.0000001000 Ry

[...]

     number of scf cycles    =  26
     number of bfgs steps    =  20

     energy   old            =   -4205.7837043768 Ry
     energy   new            =   -4205.7837274877 Ry

     CASE: energy  _new < energy  _old

     WARNING: bfgs curvature condition failed, Theta= 0.990
     new trust radius        =       0.0120010443 bohr
     new conv_thr            =       0.0000001000 Ry

ATOMIC_POSITIONS (crystal)
Cu1     -0.000000000   0.000000000   0.405291047    0   0   0
Bi1     -0.000000000   0.500000000   0.405291047    0   0   0
Cu1      0.500000000   0.000000000   0.405291047    0   0   0
Cu1      0.500000000   0.500000000   0.405291047    0   0   0
Cu1      0.666666667   0.666666667   0.500000000    0   0   0
Bi1      0.666666667   0.166666667   0.500000000    0   0   0
Cu1      0.166666667   0.666666667   0.500000000    0   0   0
Cu1      0.166666667   0.166666667   0.500000000    0   0   0
Cu1      0.297172945   0.351336370   0.586962985
Bi1      0.333161804   0.833344336   0.605730785
Cu1      0.851078713   0.351268603   0.587070474
Cu1      0.851120138   0.797408988   0.587017515

     Writing output data file calc.save
     Check: negative starting charge=   -0.128567
     NEW-OLD atomic charge density approx. for the potential
     Check: negative starting charge=   -0.128522

[...]

     Self-consistent Calculation

[...]

     Threshold (ethr) on eigenvalues was too large:
     Diagonalizing with lowered threshold

     Davidson diagonalization with overlap
     ethr =  8.42E-08,  avg # of iterations =  1.0

[...]

     total energy              =   -4205.78375587 Ry
     Harris-Foulkes estimate   =   -4205.78375586 Ry
     estimated scf accuracy    <       0.00000016 Ry

     iteration #  7     ecut=    36.75 Ry     beta=0.30
     Davidson diagonalization with overlap
     ethr =  7.43E-11,  avg # of iterations =  2.7

[...]

     negative rho (up, down):  1.369E-01 0.000E+00

     Adding external electric field

     Computed dipole along edir(3) :
        Dipole                0.0411 Ry au,          0.1045 Debye
        Dipole field          0.0001 Ry au

        Potential amp.       -0.0099 Ry
        Total length         45.4607 bohr

     End of self-consistent calculation

[...]

          k = 0.0582-0.0672 0.0000 ( 17752 PWs)   bands (ev):

[...]

          k =-0.0874-0.0504 0.0000 ( 17764 PWs)   bands (ev):

  -111.8643-111.8642-111.8631-111.6138-111.6105-111.6099-111.4951-111.4945
  -111.4942 -69.3113 -69.3095 -69.3068 -69.2798 -69.2781 -69.2752 -69.2237
   -69.2208 -69.2163 -69.0521 -69.0496 -69.0487 -69.0333 -69.0213 -69.0204
   -68.9884 -68.9810 -68.9806 -68.9490 -68.9465 -68.9446 -68.9082 -68.9039
   -68.8999 -68.8657 -68.8640 -68.8624 -22.5142 -22.5122 -22.4998 -22.4997
   -22.4982 -22.3848 -22.3796 -22.3643 -22.3642 -22.3637 -22.3622 -22.3472
   -22.3446 -22.3335 -22.3318 -10.8757 -10.3084 -10.0454  -5.5449  -4.5167
    -4.3950  -4.3582  -3.1116  -3.1114  -3.0005  -2.8778  -2.8434  -2.8145
    -2.5832  -2.5478  -2.4366  -2.4274  -2.3715  -2.3583  -2.2536  -2.2299
    -2.2104  -2.1518  -2.1394  -2.0326  -1.9397  -1.9051  -1.8861  -1.8051
    -1.7971  -1.7885  -1.7391  -1.7229  -1.7201  -1.6751  -1.6729  -1.6071
    -1.5662  -1.5646  -1.5434  -1.5411  -1.4766  -1.4756  -1.4306  -1.4297
    -1.3944  -1.3242  -1.2853  -1.1686  -1.1401  -1.0340  -0.6596  -0.6506
    -0.3355  -0.1985  -0.0309   0.8383   1.2157   1.6059   2.6188   3.3389
     3.6284   4.0797   4.0910   4.2046   4.4806   5.0360

     the Fermi energy is     0.8045 ev

!    total energy              =   -4205.78375586 Ry
     Harris-Foulkes estimate   =   -4205.78375590 Ry
     estimated scf accuracy    <       0.00000005 Ry

     The total energy is the sum of the following terms:

     one-electron contribution =  -27058.29142662 Ry
     hartree contribution      =   13555.07169202 Ry
     xc contribution           =    -559.99491571 Ry
     ewald contribution        =    9857.45853345 Ry
     electric field correction =       0.00000450 Ry
     smearing contrib. (-TS)   =      -0.02764350 Ry

     convergence has been achieved in   7 iterations

 BEEF-vdW xc energy contributions
           1 :   -497.484811769472
           2 :    455.086280217238
           3 :   -382.473645452328
           4 :    298.474363318576
           5 :   -220.754442656992
           6 :    159.739707367922
           7 :   -116.855533936414
           8 :    87.1291037319520
           9 :   -63.9690574229509
          10 :    43.1703806594931
          11 :   -24.2157050976422
          12 :    8.89189708274432
          13 :    1.17210693363336
          14 :   -6.16095220083957
          15 :    7.99468336758821
          16 :   -8.96514991703327
          17 :    10.3281498751882
          18 :   -11.8838035088118
          19 :    12.6738518036193
          20 :   -12.0929722431389
          21 :    10.5120848680662
          22 :   -9.00106382604497
          23 :    8.46503874060761
          24 :   -8.93192832490627
          25 :    9.55457729717102
          26 :   -9.30532495911768
          27 :    7.80558800725055
          28 :   -5.65229485764269
          29 :    3.99921679702254
          30 :   -3.71291414865459
          31 :   -39.5406745663007
          32 :   -27.7471320418489

     Forces acting on atoms (Ry/au):

     negative rho (up, down):  1.369E-01 0.000E+00
     atom    1 type  1   force =     0.01034809   -0.00597497    0.00845944
     atom    2 type  2   force =    -0.00001184    0.00000528   -0.02802664
     atom    3 type  1   force =    -0.01032485   -0.00599393    0.00846744
     atom    4 type  1   force =     0.00002710    0.01194045    0.00846651
     atom    5 type  1   force =    -0.00887197    0.00508649    0.00229899
     atom    6 type  2   force =     0.00003120   -0.00000099   -0.00280093
     atom    7 type  1   force =     0.00887745    0.00514624    0.00227245
     atom    8 type  1   force =    -0.00004896   -0.01024320    0.00228946
     atom    9 type  1   force =    -0.00002592    0.00002089    0.00018089
     atom   10 type  2   force =     0.00001831   -0.00001192   -0.00177613
     atom   11 type  1   force =     0.00003929    0.00009626    0.00006557
     atom   12 type  1   force =    -0.00005790   -0.00007058    0.00010295

     Total force =     0.001795     Total SCF correction =     0.001632
     SCF correction compared to forces is large: reduce conv_thr to get better values

     entering subroutine stress ...

     negative rho (up, down):  1.369E-01 0.000E+00
          total   stress  (Ry/bohr**3)                   (kbar)     P=  -17.06
  -0.00014362  -0.00000001   0.00000004        -21.13     -0.00      0.01
  -0.00000001  -0.00014361  -0.00000000         -0.00    -21.13     -0.00
   0.00000004  -0.00000000  -0.00006074          0.01     -0.00     -8.94

     bfgs converged in  27 scf cycles and  21 bfgs steps
     (criteria: energy <  1.0E+00, force <  1.9E-03)

     End of BFGS Geometry Optimization

     Final energy   =   -4205.7837558581 Ry
Begin final coordinates

ATOMIC_POSITIONS (crystal)
Cu1     -0.000000000   0.000000000   0.405291047    0   0   0
Bi1     -0.000000000   0.500000000   0.405291047    0   0   0
Cu1      0.500000000   0.000000000   0.405291047    0   0   0
Cu1      0.500000000   0.500000000   0.405291047    0   0   0
Cu1      0.666666667   0.666666667   0.500000000    0   0   0
Bi1      0.666666667   0.166666667   0.500000000    0   0   0
Cu1      0.166666667   0.666666667   0.500000000    0   0   0
Cu1      0.166666667   0.166666667   0.500000000    0   0   0
Cu1      0.297172945   0.351336370   0.586962985
Bi1      0.333161804   0.833344336   0.605730785
Cu1      0.851078713   0.351268603   0.587070474
Cu1      0.851120138   0.797408988   0.587017515
End final coordinates

     Writing output data file calc.save

     General routines

     Parallel routines

   This run was terminated on:  22:19:38  23Feb2018

   JOB DONE.