     Program PWSCF v.5.1rc2 starts on 26Feb2018 at 12:31:31

     Current dimensions of program PWSCF are:
     Max number of different atomic species (ntypx) = 10
     Max number of k-points (npk) =  40000
     Max angular momentum in pseudopotentials (lmaxx) =  3
     Presently stress not available with electric field

     IMPORTANT: XC functional enforced from input :
     Exchange-correlation      = BEEF-VDW ( 1  4 27 13 2)
     Any further DFT definition will be discarded
     Please, verify this is what you really want

     bravais-lattice index     =            0
     lattice parameter (alat)  =       1.8897  a.u.
     unit-cell volume          =    5741.1709 (a.u.)^3
     number of atoms/cell      =           12
     number of atomic types    =            2
     number of electrons       =       144.00
     number of Kohn-Sham states=           82
     kinetic-energy cutoff     =      36.7493  Ry
     charge density cutoff     =     367.4932  Ry
     convergence threshold     =      1.0E-05
     mixing beta               =       0.3000
     number of iterations used =           10  plain     mixing
     Exchange-correlation      = BEEF-VDW ( 1  4 27 13 2)
     nstep                     =           50

     celldm(1)=   1.889726  celldm(2)=   0.000000  celldm(3)=   0.000000
     celldm(4)=   0.000000  celldm(5)=   0.000000  celldm(6)=   0.000000

     crystal axes: (cart. coord. in units of alat)
               a(1) = (   6.255134   0.000000   0.000000 )
               a(2) = (   3.127567   5.417105   0.000000 )
               a(3) = (   0.000000   0.000000  25.107296 )

     reciprocal axes: (cart. coord. in units 2 pi/alat)
               b(1) = (  0.159869 -0.092300  0.000000 )
               b(2) = (  0.000000  0.184600  0.000000 )
               b(3) = (  0.000000  0.000000  0.039829 )

     PseudoPot. # 1 for Au read from file:
     /home/users/mamunm/src/pseudo/gbrv1.5pbe/Au.UPF
     MD5 check sum: 9d7f43293ad2c663164586bc4b293ffc
     Pseudo is Ultrasoft + core correction, Zval = 11.0
     Generated by new atomic code, or converted to UPF format
     Using radial grid of  985 points,  7 beta functions with:
                l(1) =   0
                l(2) =   0
                l(3) =   1
                l(4) =   1
                l(5) =   2
                l(6) =   2
                l(7) =   3
     Q(r) pseudized with  6 coefficients,  rinner =    1.900   1.900   1.900
                                                       1.900   1.900   1.900
                                                       1.900

     PseudoPot. # 2 for Bi read from file:
     /home/users/mamunm/src/pseudo/gbrv1.5pbe/Bi.UPF
     MD5 check sum: 81103212dc04adf40945787f699eab19
     Pseudo is Ultrasoft + core correction, Zval = 15.0
     Generated by new atomic code, or converted to UPF format
     Using radial grid of  899 points,  6 beta functions with:
                l(1) =   0
                l(2) =   0
                l(3) =   1
                l(4) =   1
                l(5) =   2
                l(6) =   2
     Q(r) pseudized with  6 coefficients,  rinner =    1.000   1.000   1.000
                                                       1.000   1.000

     vdW kernel table read from file vdW_kernel_table
     MD5 check sum: 095c7af220d748ca6e76c0b4c6cfb241

     atomic species   valence    mass     pseudopotential
        Au1           11.00   196.96657     Au( 1.00)
        Bi1           15.00   208.98040     Bi( 1.00)

     No symmetry found

   Cartesian axes

     site n.     atom                  positions (alat units)
         1           Au1 tau(   1) = (   0.0000000   0.0000000  10.0000000  )
         2           Bi1 tau(   2) = (   1.5637836   2.7085527  10.0000000  )
         3           Au1 tau(   3) = (   3.1275672   0.0000000  10.0000000  )
         4           Au1 tau(   4) = (   4.6913508   2.7085527  10.0000000  )
         5           Au1 tau(   5) = (   6.2551345   3.6114036  12.5536480  )
         6           Bi1 tau(   6) = (   4.6913508   0.9028509  12.5536480  )
         7           Au1 tau(   7) = (   3.1275672   3.6114036  12.5536480  )
         8           Au1 tau(   8) = (   1.5637836   0.9028509  12.5536480  )
         9           Au1 tau(   9) = (   3.1275672   1.8057018  15.1072959  )
        10           Bi1 tau(  10) = (   4.6913508   4.5142545  15.1072959  )
        11           Au1 tau(  11) = (   6.2551345   1.8057018  15.1072959  )
        12           Au1 tau(  12) = (   7.8189181   4.5142545  15.1072959  )

     number of k points=    20  Fermi-Dirac smearing, width (Ry)=  0.0110
                       cart. coord. in units 2pi/alat
        k(    1) = (   0.0000000   0.0000000   0.0000000), wk =   0.0555556
        k(    2) = (   0.0000000   0.0307667   0.0000000), wk =   0.1111111
        k(    3) = (   0.0000000   0.0615335   0.0000000), wk =   0.1111111
        k(    4) = (   0.0000000  -0.0923002   0.0000000), wk =   0.0555556
        k(    5) = (   0.0266448  -0.0153834   0.0000000), wk =   0.1111111
        k(    6) = (   0.0266448   0.0153834   0.0000000), wk =   0.1111111
        k(    7) = (   0.0266448   0.0461501   0.0000000), wk =   0.1111111
        k(    8) = (   0.0266448  -0.1076836   0.0000000), wk =   0.1111111
        k(    9) = (   0.0266448  -0.0769168   0.0000000), wk =   0.1111111
        k(   10) = (   0.0266448  -0.0461501   0.0000000), wk =   0.1111111
        k(   11) = (   0.0532896  -0.0307667   0.0000000), wk =   0.1111111
        k(   12) = (   0.0532896   0.0000000   0.0000000), wk =   0.1111111
        k(   13) = (   0.0532896   0.0307667   0.0000000), wk =   0.1111111
        k(   14) = (   0.0532896  -0.1230670   0.0000000), wk =   0.1111111
        k(   15) = (   0.0532896  -0.0923002   0.0000000), wk =   0.1111111
        k(   16) = (   0.0532896  -0.0615335   0.0000000), wk =   0.1111111
        k(   17) = (  -0.0799343   0.0461501   0.0000000), wk =   0.0555556
        k(   18) = (  -0.0799343   0.0769168   0.0000000), wk =   0.1111111
        k(   19) = (  -0.0799343   0.1076836   0.0000000), wk =   0.1111111
        k(   20) = (  -0.0799343  -0.0461501   0.0000000), wk =   0.0555556

     Largest allocated arrays     est. size (Mb)     dimensions
     Largest temporary arrays     est. size (Mb)     dimensions

     Check: negative/imaginary core charge=   -0.000002    0.000000

     Initial potential from superposition of free atoms
     Check: negative starting charge=   -0.127619

     starting charge  140.99877, renormalised to  144.00000

     negative rho (up, down):  1.303E-01 0.000E+00

     *
     * You are using vdW-DF for exchange-correlation in this calculation.
     * Please cite the following three references that made this development
     * possible:
     *
     *   M. Dion, H. Rydberg, E. Schroder, D. C. Langreth, and
     *   B. I. Lundqvist, Phys. Rev. Lett. 92, 246401 (2004).
     *
     *   T. Thonhauser, V. R. Cooper, S. Li, A. Puzder, P. Hyldgaard, and
     *   D. C. Langreth, Phys. Rev. B 76, 125112 (2007).
     *
     *   G. Roman-Perez and J. M. Soler, Phys. Rev. Lett. 103, 096102 (2009).
     *
     *
     * If you are using vdW-DF2, please also cite:
     *
     *   K. Lee, E. D. Murray, L. Kong, B. I. Lundqvist, and
     *   D. C. Langreth, Phys. Rev. B 82, 081101(R) (2010).
     *
     *
     * If you are calculating the stress with vdW-DF, please also cite:
     *
     *   R. Sabatini, E. Kucukbenli, B. Kolb, T. Thonhauser, and
     *   S. de Gironcoli, J. Phys.: Condens. Matter 24, 424209 (2012).
     *

     Carrying out vdW-DF run using the following parameters:

     Nqs =      20    Nr_points =    1024   r_max =   100.000
     q_mesh =
               0.00001000     0.04494208     0.09755937     0.15916263
               0.23128650     0.31572767     0.41458969     0.53033537
               0.66584808     0.82450364     1.01025438     1.22772762
               1.48234092     1.78043706     2.12944203     2.53805004
               3.01644009     3.57652955     4.23227104     5.00000000

     Gradients computed in reciprocal space

     Adding external electric field

     Computed dipole along edir(3) :
        Dipole                0.0000 Ry au,          0.0000 Debye
        Dipole field          0.0000 Ry au

        Potential amp.       -0.0000 Ry
        Total length         46.2598 bohr

     Starting wfc are  108 randomized atomic wfcs

     Self-consistent Calculation

     iteration #  1     ecut=    36.75 Ry     beta=0.30
     Davidson diagonalization with overlap
     ethr =  1.00E-02,  avg # of iterations =  2.2

[...]

     total energy              =   -1611.49887450 Ry
     Harris-Foulkes estimate   =   -1612.27953043 Ry
     estimated scf accuracy    <       1.78515876 Ry

[...]

     End of self-consistent calculation

          k = 0.0000 0.0000 0.0000 ( 21655 PWs)   bands (ev):

   -23.1250 -23.1181 -23.1181 -23.1078 -23.1078 -22.8816 -22.8802 -22.8715
   -22.8715 -22.8700 -22.8699 -22.8589 -22.8589 -22.8584 -22.8584 -11.3430
   -10.5826 -10.4787  -5.2958  -5.0494  -4.8825  -4.6365  -4.6363  -4.3451
    -4.3449  -4.3072  -4.3020  -4.3019  -4.0826  -4.0826  -3.8908  -3.7435
    -3.6330  -3.6329  -3.5844  -3.5844  -3.3943  -3.2227  -3.1733  -3.1730
    -3.0638  -3.0471  -3.0471  -2.9133  -2.9130  -2.7151  -2.6436  -2.6435
    -2.5781  -2.5781  -2.5270  -2.3702  -2.3450  -2.2974  -2.2973  -2.2852
    -2.2852  -2.1925  -2.1924  -2.0737  -1.8791  -1.8079  -1.8078  -1.6533
    -1.6533  -1.5582  -1.5337  -1.4080  -1.0483  -0.7468  -0.7467  -0.6018
    -0.6017   0.6087   1.3810   1.6063   1.6063   2.0650   2.3859   2.3859
     2.9696   2.9698

[...]

          k =-0.0799 0.0462 0.0000 ( 21584 PWs)   bands (ev):

[...]

     the Fermi energy is     0.5906 ev

!    total energy              =   -1611.83715016 Ry
     Harris-Foulkes estimate   =   -1611.83114990 Ry
     estimated scf accuracy    <       0.00000168 Ry

     The total energy is the sum of the following terms:

     one-electron contribution =   -8555.26658626 Ry
     hartree contribution      =    4363.12265815 Ry
     xc contribution           =    -775.73693846 Ry
     ewald contribution        =    3356.07376341 Ry
     electric field correction =       0.00000002 Ry
     smearing contrib. (-TS)   =      -0.03004702 Ry

     convergence has been achieved in  10 iterations

 BEEF-vdW xc energy contributions
           1 :   -693.054107310746
           2 :    644.131675369988
           3 :   -557.005547311777
           4 :    449.206686238163
           5 :   -339.470976565461
           6 :    242.640671035709
           7 :   -166.713346538537
           8 :    112.602829246157
           9 :   -76.2074807530422
          10 :    51.5610652118414
          11 :   -33.6327485161640
          12 :    19.7255747505169
          13 :   -9.27464913530343
          14 :    2.60602109936542
          15 :   0.393605335547818
          16 :  -0.933564506289940
          17 :    1.03939726170984
          18 :   -2.63489078663133
          19 :    6.58392197893568
          20 :   -12.2650103192751
          21 :    17.9099517424083
          22 :   -21.5200639210067
          23 :    21.8638555696202
          24 :   -19.0477368186714
          25 :    14.3961498611250
          26 :   -9.75667353332460
          27 :    6.62112950743472
          28 :   -5.51887871314216
          29 :    5.95488262952244
          30 :   -6.86387098581395
          31 :   -54.7947270312600
          32 :   -39.9840446186574

     Forces acting on atoms (Ry/au):

     negative rho (up, down):  1.320E-01 0.000E+00
     atom    1 type  1   force =     0.00485556   -0.00279923   -0.00022371
     atom    2 type  2   force =     0.00007325   -0.00004541    0.00476387
     atom    3 type  1   force =    -0.00485775   -0.00278866   -0.00022937
     atom    4 type  1   force =    -0.00001757    0.00560373   -0.00022688
     atom    5 type  1   force =     0.00005308   -0.00003314    0.00032169
     atom    6 type  2   force =    -0.00000203   -0.00000731    0.00016708
     atom    7 type  1   force =    -0.00004432   -0.00002723    0.00030364
     atom    8 type  1   force =     0.00000534    0.00004993    0.00030404
     atom    9 type  1   force =    -0.00480296    0.00277880    0.00009082
     atom   10 type  2   force =    -0.00007310    0.00005142   -0.00546289
     atom   11 type  1   force =     0.00480045    0.00275889    0.00009141
     atom   12 type  1   force =     0.00001004   -0.00554179    0.00010031

     Total force =     0.011047     Total SCF correction =     0.003342
     SCF correction compared to forces is large: reduce conv_thr to get better values

     entering subroutine stress ...

     negative rho (up, down):  1.320E-01 0.000E+00
          total   stress  (Ry/bohr**3)                   (kbar)     P=   -8.96
  -0.00008542  -0.00000000   0.00000000        -12.57     -0.00      0.00
  -0.00000000  -0.00008542  -0.00000000         -0.00    -12.57     -0.00
   0.00000000  -0.00000000  -0.00001182          0.00     -0.00     -1.74

     BFGS Geometry Optimization

     number of scf cycles    =   1
     number of bfgs steps    =   0

     energy   new            =   -1611.8371501614 Ry

     new trust radius        =       0.0055496250 bohr
     new conv_thr            =       0.0000099958 Ry

ATOMIC_POSITIONS (crystal)
Au1      0.000000000   0.000000000   0.398290602    0   0   0
Bi1     -0.000000000   0.500000000   0.398290602    0   0   0
Au1      0.500000000   0.000000000   0.398290602    0   0   0
Au1      0.500000000   0.500000000   0.398290602    0   0   0
Au1      0.666666667   0.666666667   0.500000000    0   0   0
Bi1      0.666666667   0.166666667   0.500000000    0   0   0
Au1      0.166666667   0.666666667   0.500000000    0   0   0
Au1      0.166666667   0.166666667   0.500000000    0   0   0
Au1      0.332791284   0.333604784   0.601711312
Bi1      0.333324638   0.833338357   0.601594259
Au1      0.833604693   0.333602839   0.601711325
Au1      0.833604861   0.832791976   0.601711512

     Writing output data file calc.save
     Check: negative starting charge=   -0.127619
     NEW-OLD atomic charge density approx. for the potential

     Check: negative/imaginary core charge=   -0.000002    0.000000
     Check: negative starting charge=   -0.127614

[...]

     energy   old            =   -1611.8371501614 Ry
     energy   new            =   -1611.8372610985 Ry

     CASE: energy  _new < energy  _old

[...]

     Total force =     0.009944     Total SCF correction =     0.000937

[...]

     WARNING: bfgs curvature condition failed, Theta= 0.620
     new trust radius        =       0.0091568813 bohr
     new conv_thr            =       0.0000001000 Ry

[...]

     Threshold (ethr) on eigenvalues was too large:
     Diagonalizing with lowered threshold

     Davidson diagonalization with overlap
     ethr =  1.06E-09,  avg # of iterations =  3.1

[...]

     WARNING: info= 30 for Hessian
     new trust radius        =       0.0137353220 bohr
     new conv_thr            =       0.0000001000 Ry

[...]

     WARNING: info= 30 for Hessian
     new trust radius        =       0.0122759463 bohr
     new conv_thr            =       0.0000001000 Ry

[...]

     CASE: energy  _new > energy  _old

[...]

     WARNING: info= 30 for Hessian
     uphill step: resetting bfgs history

[...]

     Threshold (ethr) on eigenvalues was too large:
     Diagonalizing with lowered threshold

     Davidson diagonalization with overlap
     ethr =  7.71E-08,  avg # of iterations =  1.6

[...]

     WARNING: bfgs curvature condition failed, Theta= 0.816
     new trust radius        =       0.0085042436 bohr
     new conv_thr            =       0.0000001000 Ry

[...]

     Total force =     0.003551     Total SCF correction =     0.000347

[...]

     number of scf cycles    =  13
     number of bfgs steps    =  11

     energy   old            =   -1611.8380876575 Ry
     energy   new            =   -1611.8381719769 Ry

     CASE: energy  _new < energy  _old

     new trust radius        =       0.0287018222 bohr
     new conv_thr            =       0.0000001000 Ry

ATOMIC_POSITIONS (crystal)
Au1      0.000000000   0.000000000   0.398290602    0   0   0
Bi1     -0.000000000   0.500000000   0.398290602    0   0   0
Au1      0.500000000   0.000000000   0.398290602    0   0   0
Au1      0.500000000   0.500000000   0.398290602    0   0   0
Au1      0.666666667   0.666666667   0.500000000    0   0   0
Bi1      0.666666667   0.166666667   0.500000000    0   0   0
Au1      0.166666667   0.666666667   0.500000000    0   0   0
Au1      0.166666667   0.166666667   0.500000000    0   0   0
Au1      0.323932968   0.338034761   0.601644323
Bi1      0.333215406   0.833393901   0.600045348
Au1      0.837943250   0.338128097   0.601647291
Au1      0.837942879   0.823932370   0.601646715

     Writing output data file calc.save
     Check: negative starting charge=   -0.127577
     NEW-OLD atomic charge density approx. for the potential

     Check: negative/imaginary core charge=   -0.000002    0.000000
     Check: negative starting charge=   -0.126861

[...]

     Self-consistent Calculation

[...]

     total energy              =   -1611.83825564 Ry
     Harris-Foulkes estimate   =   -1611.83825575 Ry
     estimated scf accuracy    <       0.00000063 Ry

     iteration #  7     ecut=    36.75 Ry     beta=0.30
     Davidson diagonalization with overlap
     ethr =  4.38E-10,  avg # of iterations =  2.4

[...]

     negative rho (up, down):  1.313E-01 0.000E+00

     Adding external electric field

     Computed dipole along edir(3) :
        Dipole               -0.0117 Ry au,         -0.0296 Debye
        Dipole field         -0.0000 Ry au

        Potential amp.        0.0024 Ry
        Total length         46.2598 bohr

     End of self-consistent calculation

[...]

          k = 0.0533-0.0615 0.0000 ( 21574 PWs)   bands (ev):

[...]

          k =-0.0799-0.0462 0.0000 ( 21584 PWs)   bands (ev):

   -23.1228 -23.1187 -23.1186 -23.1115 -23.1099 -22.8858 -22.8824 -22.8791
   -22.8788 -22.8738 -22.8737 -22.8698 -22.8679 -22.8619 -22.8600 -10.9228
   -10.5348 -10.3982  -5.8873  -5.2383  -5.2121  -4.9703  -4.4472  -4.4272
    -4.2576  -4.2560  -4.1807  -4.0953  -4.0340  -4.0033  -3.9198  -3.8066
    -3.7889  -3.7593  -3.7184  -3.5576  -3.4389  -3.4095  -3.3574  -3.2793
    -3.1704  -3.1012  -3.0460  -3.0302  -3.0174  -2.9739  -2.9542  -2.9260
    -2.8890  -2.8278  -2.8119  -2.7609  -2.6935  -2.6892  -2.6676  -2.6379
    -2.5774  -2.5669  -2.4866  -2.4710  -2.3778  -2.2229  -2.1451  -1.9085
    -1.7672  -1.6961  -1.4197  -0.8701  -0.7589  -0.5021  -0.3876   0.8637
     1.0056   1.3137   2.3749   2.7975   3.0889   3.1401   3.1857   3.5732
     4.0311   4.1383

     the Fermi energy is     0.5795 ev

!    total energy              =   -1611.83825567 Ry
     Harris-Foulkes estimate   =   -1611.83825567 Ry
     estimated scf accuracy    <       0.00000007 Ry

     The total energy is the sum of the following terms:

     one-electron contribution =   -8572.51506044 Ry
     hartree contribution      =    4371.66316769 Ry
     xc contribution           =    -775.75222996 Ry
     ewald contribution        =    3364.79561817 Ry
     electric field correction =       0.00000030 Ry
     smearing contrib. (-TS)   =      -0.02975144 Ry

     convergence has been achieved in   7 iterations

 BEEF-vdW xc energy contributions
           1 :   -693.070945155987
           2 :    644.158900102670
           3 :   -557.045938100398
           4 :    449.251764904641
           5 :   -339.504886921971
           6 :    242.649655994270
           7 :   -166.695013225971
           8 :    112.569064870732
           9 :   -76.1786891790974
          10 :    51.5548303919420
          11 :   -33.6538223501231
          12 :    19.7633167721814
          13 :   -9.30906164262308
          14 :    2.61927130496895
          15 :   0.407011143060458
          16 :  -0.963668643821052
          17 :    1.06668102572382
          18 :   -2.64200222017291
          19 :    6.56585850600845
          20 :   -12.2318169877830
          21 :    17.8806214690217
          22 :   -21.5114247101893
          23 :    21.8806306492282
          24 :   -19.0799348759846
          25 :    14.4252825023880
          26 :   -9.76661861252308
          27 :    6.60751272012828
          28 :   -5.49158661301021
          29 :    5.93201471411624
          30 :   -6.86080228265325
          31 :   -54.7960514616797
          32 :   -39.9878552567106

     Forces acting on atoms (Ry/au):

     negative rho (up, down):  1.313E-01 0.000E+00
     atom    1 type  1   force =     0.00461740   -0.00266586    0.00058213
     atom    2 type  2   force =    -0.00000320    0.00000177    0.00608184
     atom    3 type  1   force =    -0.00460523   -0.00266550    0.00059124
     atom    4 type  1   force =     0.00000585    0.00532103    0.00059105
     atom    5 type  1   force =     0.00037698   -0.00021787   -0.00278261
     atom    6 type  2   force =     0.00000257   -0.00000100    0.00419991
     atom    7 type  1   force =    -0.00037514   -0.00022143   -0.00276844
     atom    8 type  1   force =     0.00000386    0.00043562   -0.00276814
     atom    9 type  1   force =    -0.00009201    0.00005331   -0.00077056
     atom   10 type  2   force =    -0.00001412    0.00000812   -0.00140070
     atom   11 type  1   force =     0.00010274    0.00008184   -0.00077829
     atom   12 type  1   force =    -0.00001969   -0.00013003   -0.00077743

     Total force =     0.001952     Total SCF correction =     0.000751
     SCF correction compared to forces is large: reduce conv_thr to get better values

     entering subroutine stress ...

     negative rho (up, down):  1.313E-01 0.000E+00
          total   stress  (Ry/bohr**3)                   (kbar)     P=   -9.53
  -0.00008884   0.00000001   0.00000000        -13.07      0.00      0.00
   0.00000001  -0.00008883  -0.00000000          0.00    -13.07     -0.00
   0.00000000  -0.00000000  -0.00001672          0.00     -0.00     -2.46

     bfgs converged in  14 scf cycles and  12 bfgs steps
     (criteria: energy <  1.0E+00, force <  1.9E-03)

     End of BFGS Geometry Optimization

     Final energy   =   -1611.8382556744 Ry
Begin final coordinates

ATOMIC_POSITIONS (crystal)
Au1      0.000000000   0.000000000   0.398290602    0   0   0
Bi1     -0.000000000   0.500000000   0.398290602    0   0   0
Au1      0.500000000   0.000000000   0.398290602    0   0   0
Au1      0.500000000   0.500000000   0.398290602    0   0   0
Au1      0.666666667   0.666666667   0.500000000    0   0   0
Bi1      0.666666667   0.166666667   0.500000000    0   0   0
Au1      0.166666667   0.666666667   0.500000000    0   0   0
Au1      0.166666667   0.166666667   0.500000000    0   0   0
Au1      0.323932968   0.338034761   0.601644323
Bi1      0.333215406   0.833393901   0.600045348
Au1      0.837943250   0.338128097   0.601647291
Au1      0.837942879   0.823932370   0.601646715
End final coordinates

     Writing output data file calc.save

     General routines

     Parallel routines

   This run was terminated on:  13: 4:43  26Feb2018

   JOB DONE.