     Program PWSCF v.5.1rc2 (svn rev. ) starts on 23Feb2018 at 20:23:46

     Current dimensions of program PWSCF are:
     Max number of different atomic species (ntypx) = 10
     Max number of k-points (npk) =  40000
     Max angular momentum in pseudopotentials (lmaxx) =  3
     Presently stress not available with electric field

     IMPORTANT: XC functional enforced from input :
     Exchange-correlation      = BEEF-VDW ( 1  4 27 13 2)
     Any further DFT definition will be discarded
     Please, verify this is what you really want

     Subspace diagonalization in iterative solution of the eigenvalue problem:
     a serial algorithm will be used

     Found symmetry operation: I + (  0.5000 -0.5000  0.0000)
     This is a supercell, fractional translations are disabled

     bravais-lattice index     =            0
     lattice parameter (alat)  =       1.8897  a.u.
     unit-cell volume          =    7304.6713 (a.u.)^3
     number of atoms/cell      =           12
     number of atomic types    =            2
     number of electrons       =       156.00
     number of Kohn-Sham states=           88
     kinetic-energy cutoff     =      36.7493  Ry
     charge density cutoff     =     367.4932  Ry
     convergence threshold     =      1.0E-05
     mixing beta               =       0.3000
     number of iterations used =           10  plain     mixing
     Exchange-correlation      = BEEF-VDW ( 1  4 27 13 2)
     nstep                     =           50

     celldm(1)=   1.889726  celldm(2)=   0.000000  celldm(3)=   0.000000
     celldm(4)=   0.000000  celldm(5)=   0.000000  celldm(6)=   0.000000

     crystal axes: (cart. coord. in units of alat)
               a(1) = (   6.682385   0.000000   0.000000 )
               a(2) = (   1.952736   6.390703   0.000000 )
               a(3) = (  -0.000000   0.000000  25.346847 )

     reciprocal axes: (cart. coord. in units 2 pi/alat)
               b(1) = (  0.149647 -0.045726  0.000000 )
               b(2) = (  0.000000  0.156477 -0.000000 )
               b(3) = (  0.000000  0.000000  0.039453 )

     PseudoPot. # 1 for Y  read from file:
     /home/mamunm/src/pseudo/gbrv1.5pbe/Y.UPF
     MD5 check sum: d034151ed7554c50b6e82763ed42c788
     Pseudo is Ultrasoft + core correction, Zval = 11.0
     Generated by new atomic code, or converted to UPF format
     Using radial grid of  885 points,  6 beta functions with:
                l(1) =   0
                l(2) =   0
                l(3) =   1
                l(4) =   1
                l(5) =   2
                l(6) =   2
     Q(r) pseudized with  8 coefficients,  rinner =    1.200   1.200   1.200
                                                       1.200   1.200

     PseudoPot. # 2 for Bi read from file:
     /home/mamunm/src/pseudo/gbrv1.5pbe/Bi.UPF
     MD5 check sum: 81103212dc04adf40945787f699eab19
     Pseudo is Ultrasoft + core correction, Zval = 15.0
     Generated by new atomic code, or converted to UPF format
     Using radial grid of  899 points,  6 beta functions with:
                l(1) =   0
                l(2) =   0
                l(3) =   1
                l(4) =   1
                l(5) =   2
                l(6) =   2
     Q(r) pseudized with  6 coefficients,  rinner =    1.000   1.000   1.000
                                                       1.000   1.000

     vdW kernel table read from file vdW_kernel_table
     MD5 check sum: 095c7af220d748ca6e76c0b4c6cfb241

     atomic species   valence    mass     pseudopotential
        Y1            11.00    88.90584     Y ( 1.00)
        Bi1           15.00   208.98040     Bi( 1.00)

     No symmetry found

   Cartesian axes

     site n.     atom                  positions (alat units)
         1           Y1  tau(   1) = (  -0.0000000   0.0000000  10.0000000  )
         2           Bi1 tau(   2) = (   0.9763681   3.1953516  10.0000000  )
         3           Bi1 tau(   3) = (   3.3411924   0.0000000  10.0000000  )
         4           Y1  tau(   4) = (   4.3175605   3.1953516  10.0000000  )
         5           Y1  tau(   5) = (   6.6823848   4.9455171  12.6734235  )
         6           Bi1 tau(   6) = (   5.7060167   1.7501654  12.6734235  )
         7           Bi1 tau(   7) = (   3.3411924   4.9455171  12.6734235  )
         8           Y1  tau(   8) = (   2.3648243   1.7501654  12.6734235  )
         9           Y1  tau(   9) = (   4.7296486   3.5003308  15.3468469  )
        10           Bi1 tau(  10) = (   3.7532805   0.3049792  15.3468469  )
        11           Bi1 tau(  11) = (   1.3884562   3.5003308  15.3468469  )
        12           Y1  tau(  12) = (   0.4120880   0.3049792  15.3468469  )

     number of k points=    20  Fermi-Dirac smearing, width (Ry)=  0.0110
                       cart. coord. in units 2pi/alat
        k(    1) = (   0.0000000   0.0000000   0.0000000), wk =   0.0555556
        k(    2) = (   0.0000000   0.0260796  -0.0000000), wk =   0.1111111
        k(    3) = (   0.0000000   0.0521591  -0.0000000), wk =   0.1111111
        k(    4) = (   0.0000000  -0.0782387   0.0000000), wk =   0.0555556
        k(    5) = (   0.0249412  -0.0076210   0.0000000), wk =   0.1111111
        k(    6) = (   0.0249412   0.0184585   0.0000000), wk =   0.1111111
        k(    7) = (   0.0249412   0.0445381   0.0000000), wk =   0.1111111
        k(    8) = (   0.0249412  -0.0858597   0.0000000), wk =   0.1111111
        k(    9) = (   0.0249412  -0.0597801   0.0000000), wk =   0.1111111
        k(   10) = (   0.0249412  -0.0337006   0.0000000), wk =   0.1111111
        k(   11) = (   0.0498824  -0.0152420   0.0000000), wk =   0.1111111
        k(   12) = (   0.0498824   0.0108375   0.0000000), wk =   0.1111111
        k(   13) = (   0.0498824   0.0369171   0.0000000), wk =   0.1111111
        k(   14) = (   0.0498824  -0.0934807   0.0000000), wk =   0.1111111
        k(   15) = (   0.0498824  -0.0674011   0.0000000), wk =   0.1111111
        k(   16) = (   0.0498824  -0.0413216   0.0000000), wk =   0.1111111
        k(   17) = (  -0.0748236   0.0228630  -0.0000000), wk =   0.0555556
        k(   18) = (  -0.0748236   0.0489426  -0.0000000), wk =   0.1111111
        k(   19) = (  -0.0748236   0.0750221  -0.0000000), wk =   0.1111111
        k(   20) = (  -0.0748236  -0.0553756  -0.0000000), wk =   0.0555556

     Largest allocated arrays     est. size (Mb)     dimensions
     Largest temporary arrays     est. size (Mb)     dimensions

     Initial potential from superposition of free atoms
     Check: negative starting charge=   -0.247715

     starting charge  149.97293, renormalised to  156.00000

     negative rho (up, down):  2.577E-01 0.000E+00

     *
     * You are using vdW-DF for exchange-correlation in this calculation.
     * Please cite the following three references that made this development
     * possible:
     *
     *   M. Dion, H. Rydberg, E. Schroder, D. C. Langreth, and
     *   B. I. Lundqvist, Phys. Rev. Lett. 92, 246401 (2004).
     *
     *   T. Thonhauser, V. R. Cooper, S. Li, A. Puzder, P. Hyldgaard, and
     *   D. C. Langreth, Phys. Rev. B 76, 125112 (2007).
     *
     *   G. Roman-Perez and J. M. Soler, Phys. Rev. Lett. 103, 096102 (2009).
     *
     *
     * If you are using vdW-DF2, please also cite:
     *
     *   K. Lee, E. D. Murray, L. Kong, B. I. Lundqvist, and
     *   D. C. Langreth, Phys. Rev. B 82, 081101(R) (2010).
     *
     *
     * If you are calculating the stress with vdW-DF, please also cite:
     *
     *   R. Sabatini, E. Kucukbenli, B. Kolb, T. Thonhauser, and
     *   S. de Gironcoli, J. Phys.: Condens. Matter 24, 424209 (2012).
     *

     Carrying out vdW-DF run using the following parameters:

     Nqs =      20    Nr_points =    1024   r_max =   100.000
     q_mesh =
               0.00001000     0.04494208     0.09755937     0.15916263
               0.23128650     0.31572767     0.41458969     0.53033537
               0.66584808     0.82450364     1.01025438     1.22772762
               1.48234092     1.78043706     2.12944203     2.53805004
               3.01644009     3.57652955     4.23227104     5.00000000

     Gradients computed in reciprocal space

     Adding external electric field

     Computed dipole along edir(3) :
        Dipole               -0.0000 Ry au,         -0.0000 Debye
        Dipole field         -0.0000 Ry au

        Potential amp.        0.0000 Ry
        Total length         46.7011 bohr

     Starting wfc are  132 randomized atomic wfcs

     Self-consistent Calculation

     iteration #  1     ecut=    36.75 Ry     beta=0.30
     Davidson diagonalization with overlap
     ethr =  1.00E-02,  avg # of iterations =  2.0

[...]

     total energy              =   -1685.65671992 Ry
     Harris-Foulkes estimate   =   -1686.47423012 Ry
     estimated scf accuracy    <       1.99107641 Ry

[...]

     End of self-consistent calculation

          k = 0.0000 0.0000 0.0000 ( 27533 PWs)   bands (ev):

   -42.5387 -42.5384 -42.5328 -42.5326 -41.8080 -41.8024 -22.5625 -22.5598
   -22.5557 -22.5494 -22.4533 -22.4441 -22.4168 -22.4116 -22.4091 -22.4021
   -22.3504 -22.3413 -21.8628 -21.8047 -21.7961 -21.7519 -21.7289 -21.7222
   -21.3499 -21.3475 -21.3469 -21.3448 -21.3407 -21.3359 -21.3029 -21.3003
   -21.2989 -21.2703 -21.1543 -21.1504 -21.1490 -21.1437 -21.1433 -21.1366
   -21.1349 -21.1333 -21.1256 -21.1222 -21.1189 -21.1125 -21.1119 -21.1104
   -21.1100 -21.1010 -21.0996 -21.0949 -21.0844 -21.0835 -10.0899  -9.2440
    -9.0889  -8.7767  -8.6410  -8.5764  -2.0944  -1.7119  -1.5484  -1.5289
    -1.2488  -1.1236  -1.0165  -0.9701  -0.3408  -0.1015   0.0464   0.1637
     0.7610   0.9853   1.0361   1.1390   1.2289   1.5584   1.6440   1.7176
     1.7748   1.8242   2.2051   2.3826   2.6287   2.6509   2.7173   2.7970

[...]

          k =-0.0748 0.0229-0.0000 ( 27438 PWs)   bands (ev):

[...]

     the Fermi energy is     1.4755 ev

!    total energy              =   -1685.68618751 Ry
     Harris-Foulkes estimate   =   -1685.68618651 Ry
     estimated scf accuracy    <       0.00000457 Ry

     The total energy is the sum of the following terms:

     one-electron contribution =   -8101.79545910 Ry
     hartree contribution      =    4076.32054256 Ry
     xc contribution           =    -569.46255317 Ry
     ewald contribution        =    2909.31347952 Ry
     electric field correction =       0.00000000 Ry
     smearing contrib. (-TS)   =      -0.06219732 Ry

     convergence has been achieved in  10 iterations

 BEEF-vdW xc energy contributions
           1 :   -504.668534817593
           2 :    464.728821512979
           3 :   -394.700086568776
           4 :    310.202972067257
           5 :   -226.990216306629
           6 :    156.478113699198
           7 :   -103.890190720192
           8 :    68.8777457724869
           9 :   -47.5977360772584
          10 :    35.0797728182666
          11 :   -27.0287993470197
          12 :    20.6836548060620
          13 :   -14.8368535706896
          14 :    9.37960421914420
          15 :   -4.71279168680121
          16 :    1.19959627394746
          17 :    1.22435043053065
          18 :   -3.14759546023197
          19 :    5.40479384801506
          20 :   -8.54866675201663
          21 :    12.3909070761515
          22 :   -15.9407000444435
          23 :    17.8423906188633
          24 :   -17.1044799475278
          25 :    13.7086440741784
          26 :   -8.73490747804328
          27 :    3.90984093866587
          28 :  -0.822524691770468
          29 :   0.231216469820765
          30 :   -1.80732587451257
          31 :   -42.5354809485489
          32 :   -30.6034432717197

     Forces acting on atoms (Ry/au):

     negative rho (up, down):  2.711E-01 0.000E+00
     atom    1 type  1   force =     0.00108968    0.00080664    0.00891975
     atom    2 type  2   force =     0.00324344    0.00265042   -0.02173673
     atom    3 type  2   force =     0.00347818    0.00232950   -0.02173111
     atom    4 type  1   force =     0.00097641    0.00071543    0.00933645
     atom    5 type  1   force =    -0.00030573   -0.00022476   -0.00024422
     atom    6 type  2   force =     0.00071527   -0.00095079    0.00042805
     atom    7 type  2   force =    -0.00069503    0.00095749    0.00043161
     atom    8 type  1   force =     0.00031163    0.00023285   -0.00040531
     atom    9 type  1   force =    -0.00109828   -0.00081990   -0.00941962
     atom   10 type  2   force =    -0.00324117   -0.00263412    0.02176035
     atom   11 type  2   force =    -0.00347687   -0.00232903    0.02176506
     atom   12 type  1   force =    -0.00099754   -0.00073373   -0.00910428

     Total force =     0.034018     Total SCF correction =     0.001685

     entering subroutine stress ...

     negative rho (up, down):  2.711E-01 0.000E+00
          total   stress  (Ry/bohr**3)                   (kbar)     P=   -5.03
  -0.00007409  -0.00003644  -0.00001245        -10.90     -5.36     -1.83
  -0.00003644  -0.00005182  -0.00000921         -5.36     -7.62     -1.36
  -0.00001245  -0.00000921   0.00002328         -1.83     -1.36      3.42

     BFGS Geometry Optimization

     number of scf cycles    =   1
     number of bfgs steps    =   0

     energy   new            =   -1685.6861875131 Ry

     new trust radius        =       0.0221637307 bohr
     new conv_thr            =       0.0000099958 Ry

ATOMIC_POSITIONS (crystal)
Y1      -0.000000000   0.000000000   0.394526389    0   0   0
Bi1     -0.000000000   0.500000000   0.394526389    0   0   0
Bi1      0.500000000   0.000000000   0.394526389    0   0   0
Y1       0.500000000   0.500000000   0.394526389    0   0   0
Y1       0.773861162   0.773861162   0.500000000    0   0   0
Bi1      0.773861162   0.273861162   0.500000000    0   0   0
Bi1      0.273861162   0.773861162   0.500000000    0   0   0
Y1       0.273861162   0.273861162   0.500000000    0   0   0
Y1       0.547655190   0.547654432   0.605276954
Bi1      0.547529394   0.047504207   0.605927911
Bi1      0.047503346   0.547529470   0.605928010
Y1       0.047661083   0.047661567   0.605283537

     Writing output data file calc.save
     Check: negative starting charge=   -0.247715
     NEW-OLD atomic charge density approx. for the potential
     Check: negative starting charge=   -0.247427

[...]

     iteration #  1     ecut=    36.75 Ry     beta=0.30
     Davidson diagonalization with overlap
     c_bands:  1 eigenvalues not converged
     c_bands:  1 eigenvalues not converged
     ethr =  1.00E-06,  avg # of iterations =  7.5

[...]

     Total force =     0.027691     Total SCF correction =     0.008487
     SCF correction compared to forces is large: reduce conv_thr to get better values

[...]

     energy   old            =   -1685.6861875131 Ry
     energy   new            =   -1685.6872640382 Ry

     CASE: energy  _new < energy  _old

     WARNING: bfgs curvature condition failed, Theta= 0.985
     new trust radius        =       0.0243801037 bohr
     new conv_thr            =       0.0000001000 Ry

[...]

     WARNING: bfgs curvature condition failed, Theta= 0.671
     uphill step: resetting bfgs history

[...]

     WARNING: bfgs curvature condition failed, Theta= 0.851
     new trust radius        =       0.0211307234 bohr
     new conv_thr            =       0.0000001000 Ry

[...]

     Writing output data file calc.save
     Check: negative starting charge=   -0.248609
     NEW-OLD atomic charge density approx. for the potential
     Check: negative starting charge=   -0.250395

[...]

     Writing output data file calc.save
     Check: negative starting charge=   -0.250395
     NEW-OLD atomic charge density approx. for the potential

     Check: negative/imaginary core charge=   -0.000001    0.000000
     Check: negative starting charge=   -0.249407

[...]

     iteration #  1     ecut=    36.75 Ry     beta=0.30
     Davidson diagonalization with overlap
     c_bands:  1 eigenvalues not converged
     c_bands:  1 eigenvalues not converged
     c_bands:  1 eigenvalues not converged
     c_bands:  1 eigenvalues not converged
     ethr =  1.00E-06,  avg # of iterations = 15.9

[...]

     Total force =     0.005859     Total SCF correction =     0.000383

[...]

     number of scf cycles    =  23
     number of bfgs steps    =  22

     energy   old            =   -1685.6994488612 Ry
     energy   new            =   -1685.6995318558 Ry

     CASE: energy  _new < energy  _old

     new trust radius        =       0.0227860320 bohr
     new conv_thr            =       0.0000001000 Ry

ATOMIC_POSITIONS (crystal)
Y1       0.000000000   0.000000000   0.394526389    0   0   0
Bi1     -0.000000000   0.500000000   0.394526389    0   0   0
Bi1      0.500000000   0.000000000   0.394526389    0   0   0
Y1       0.500000000   0.500000000   0.394526389    0   0   0
Y1       0.773861162   0.773861162   0.500000000    0   0   0
Bi1      0.773861162   0.273861162   0.500000000    0   0   0
Bi1      0.273861162   0.773861162   0.500000000    0   0   0
Y1       0.273861162   0.273861162   0.500000000    0   0   0
Y1       0.530082004   0.530082706   0.603887564
Bi1      0.528404601   0.028310451   0.617013054
Bi1      0.028311110   0.528403514   0.617013122
Y1       0.030164960   0.030164116   0.603887637

     Writing output data file calc.save
     Check: negative starting charge=   -0.248176
     NEW-OLD atomic charge density approx. for the potential

     Check: negative/imaginary core charge=   -0.000001    0.000000
     Check: negative starting charge=   -0.247611

[...]

     Self-consistent Calculation

[...]

     Threshold (ethr) on eigenvalues was too large:
     Diagonalizing with lowered threshold

     Davidson diagonalization with overlap
     ethr =  6.80E-08,  avg # of iterations =  2.1

[...]

     total energy              =   -1685.69959632 Ry
     Harris-Foulkes estimate   =   -1685.69959634 Ry
     estimated scf accuracy    <       0.00000016 Ry

     iteration #  6     ecut=    36.75 Ry     beta=0.30
     Davidson diagonalization with overlap
     ethr =  1.06E-10,  avg # of iterations =  4.2

[...]

     negative rho (up, down):  2.704E-01 0.000E+00

     Adding external electric field

     Computed dipole along edir(3) :
        Dipole               -0.1451 Ry au,         -0.3687 Debye
        Dipole field         -0.0002 Ry au

        Potential amp.        0.0233 Ry
        Total length         46.7011 bohr

     End of self-consistent calculation

[...]

          k = 0.0499-0.0413 0.0000 ( 27434 PWs)   bands (ev):

[...]

          k =-0.0748-0.0554-0.0000 ( 27514 PWs)   bands (ev):

   -42.6661 -42.6611 -42.6366 -42.6315 -42.0694 -42.0639 -22.6938 -22.6875
   -22.6432 -22.6361 -22.5908 -22.5773 -22.5652 -22.5635 -22.5225 -22.5219
   -22.4879 -22.4746 -22.1318 -22.0983 -22.0782 -22.0269 -21.9654 -21.9643
   -21.4032 -21.3958 -21.3892 -21.3843 -21.3836 -21.3834 -21.3766 -21.3633
   -21.3497 -21.3302 -21.2459 -21.2444 -21.2388 -21.2348 -21.2276 -21.2252
   -21.2221 -21.2181 -21.2072 -21.2063 -21.2061 -21.2040 -21.2004 -21.1953
   -21.1952 -21.1947 -21.1934 -21.1853 -21.1809 -21.1706  -9.5588  -9.2778
    -9.1579  -9.0177  -8.6075  -8.2542  -3.2208  -3.1037  -2.8324  -2.0989
    -1.9315  -1.8834  -1.8504  -1.5055  -0.8694  -0.4639   0.0846   0.1978
     0.5160   0.5231   0.6977   0.9175   1.2744   1.3603   1.5154   1.5913
     1.6180   1.9140   2.3041   2.3514   2.4817   2.4978   2.9081   3.0608

     the Fermi energy is     1.3423 ev

!    total energy              =   -1685.69959631 Ry
     Harris-Foulkes estimate   =   -1685.69959660 Ry
     estimated scf accuracy    <       0.00000008 Ry

     The total energy is the sum of the following terms:

     one-electron contribution =   -7926.57818143 Ry
     hartree contribution      =    3988.05387418 Ry
     xc contribution           =    -569.34416951 Ry
     ewald contribution        =    2822.22957224 Ry
     electric field correction =       0.00003620 Ry
     smearing contrib. (-TS)   =      -0.06072799 Ry

     convergence has been achieved in   6 iterations

 BEEF-vdW xc energy contributions
           1 :   -504.546744524224
           2 :    464.544576743270
           3 :   -394.447117978951
           4 :    309.939207703046
           5 :   -226.798403340242
           6 :    156.410078805823
           7 :   -103.932014795015
           8 :    68.9619255165810
           9 :   -47.6538743920071
          10 :    35.0813548270824
          11 :   -26.9978755505530
          12 :    20.6568136937666
          13 :   -14.8310549214505
          14 :    9.38880379855937
          15 :   -4.72933599946111
          16 :    1.23029723656191
          17 :    1.16682697599822
          18 :   -3.06778344052327
          19 :    5.33478253804901
          20 :   -8.53003300834257
          21 :    12.4395679455458
          22 :   -16.0246119479716
          23 :    17.8955524240833
          24 :   -17.0717542840566
          25 :    13.5878485768139
          26 :   -8.58147044529483
          27 :    3.79906600082893
          28 :  -0.798094223672933
          29 :   0.277802155530708
          30 :   -1.86568306633899
          31 :   -42.5250464528669
          32 :   -30.5779058453822

     Forces acting on atoms (Ry/au):

     negative rho (up, down):  2.704E-01 0.000E+00
     atom    1 type  1   force =     0.00147906    0.00109479    0.00812321
     atom    2 type  2   force =     0.00589619    0.00446497   -0.02312255
     atom    3 type  2   force =     0.00599268    0.00433425   -0.02312273
     atom    4 type  1   force =     0.00142986    0.00105805    0.00815606
     atom    5 type  1   force =    -0.00199131   -0.00147367    0.01147724
     atom    6 type  2   force =    -0.00517095   -0.00391970    0.00466053
     atom    7 type  2   force =    -0.00525978   -0.00379905    0.00466030
     atom    8 type  1   force =    -0.00194409   -0.00143890    0.01145618
     atom    9 type  1   force =    -0.00174825   -0.00129483   -0.00049302
     atom   10 type  2   force =     0.00154889    0.00108001   -0.00065711
     atom   11 type  2   force =     0.00148522    0.00116530   -0.00065685
     atom   12 type  1   force =    -0.00171751   -0.00127123   -0.00048125

     Total force =     0.004215     Total SCF correction =     0.000560
     SCF correction compared to forces is large: reduce conv_thr to get better values

     entering subroutine stress ...

     negative rho (up, down):  2.704E-01 0.000E+00
          total   stress  (Ry/bohr**3)                   (kbar)     P=   -7.53
  -0.00009174  -0.00003035  -0.00001032        -13.50     -4.46     -1.52
  -0.00003035  -0.00007320  -0.00000764         -4.46    -10.77     -1.12
  -0.00001032  -0.00000764   0.00001137         -1.52     -1.12      1.67

     bfgs converged in  24 scf cycles and  23 bfgs steps
     (criteria: energy <  1.0E+00, force <  1.9E-03)

     End of BFGS Geometry Optimization

     Final energy   =   -1685.6995963064 Ry
Begin final coordinates

ATOMIC_POSITIONS (crystal)
Y1       0.000000000   0.000000000   0.394526389    0   0   0
Bi1     -0.000000000   0.500000000   0.394526389    0   0   0
Bi1      0.500000000   0.000000000   0.394526389    0   0   0
Y1       0.500000000   0.500000000   0.394526389    0   0   0
Y1       0.773861162   0.773861162   0.500000000    0   0   0
Bi1      0.773861162   0.273861162   0.500000000    0   0   0
Bi1      0.273861162   0.773861162   0.500000000    0   0   0
Y1       0.273861162   0.273861162   0.500000000    0   0   0
Y1       0.530082004   0.530082706   0.603887564
Bi1      0.528404601   0.028310451   0.617013054
Bi1      0.028311110   0.528403514   0.617013122
Y1       0.030164960   0.030164116   0.603887637
End final coordinates

     Writing output data file calc.save

     General routines

     Parallel routines

   This run was terminated on:  22:10: 4  23Feb2018

   JOB DONE.