     Program PWSCF v.5.1rc2 (svn rev. ) starts on 23Feb2018 at 20:27:25

     Current dimensions of program PWSCF are:
     Max number of different atomic species (ntypx) = 10
     Max number of k-points (npk) =  40000
     Max angular momentum in pseudopotentials (lmaxx) =  3
     Presently stress not available with electric field

     IMPORTANT: XC functional enforced from input :
     Exchange-correlation      = BEEF-VDW ( 1  4 27 13 2)
     Any further DFT definition will be discarded
     Please, verify this is what you really want

     Subspace diagonalization in iterative solution of the eigenvalue problem:
     a serial algorithm will be used

     Found symmetry operation: I + (  0.5000  0.5000  0.0000)
     This is a supercell, fractional translations are disabled

     bravais-lattice index     =            0
     lattice parameter (alat)  =       1.8897  a.u.
     unit-cell volume          =    5985.6215 (a.u.)^3
     number of atoms/cell      =           12
     number of atomic types    =            2
     number of electrons       =       186.00
     number of Kohn-Sham states=          103
     kinetic-energy cutoff     =      36.7493  Ry
     charge density cutoff     =     367.4932  Ry
     convergence threshold     =      1.0E-05
     mixing beta               =       0.3000
     number of iterations used =           10  plain     mixing
     Exchange-correlation      = BEEF-VDW ( 1  4 27 13 2)
     nstep                     =           50

     celldm(1)=   1.889726  celldm(2)=   0.000000  celldm(3)=   0.000000
     celldm(4)=   0.000000  celldm(5)=   0.000000  celldm(6)=   0.000000

     crystal axes: (cart. coord. in units of alat)
               a(1) = (   6.137920   0.000000   0.000000 )
               a(2) = (   2.078038   5.775450   0.000000 )
               a(3) = (   0.000000  -0.000000  25.021055 )

     reciprocal axes: (cart. coord. in units 2 pi/alat)
               b(1) = (  0.162922 -0.058620 -0.000000 )
               b(2) = (  0.000000  0.173147  0.000000 )
               b(3) = (  0.000000  0.000000  0.039966 )

     PseudoPot. # 1 for Pd read from file:
     /home/mamunm/src/pseudo/gbrv1.5pbe/Pd.UPF
     MD5 check sum: 2d733d2bc2cbfd217af676df1668a4bc
     Pseudo is Ultrasoft + core correction, Zval = 16.0
     Generated by new atomic code, or converted to UPF format
     Using radial grid of  887 points,  6 beta functions with:
                l(1) =   0
                l(2) =   0
                l(3) =   1
                l(4) =   1
                l(5) =   2
                l(6) =   2
     Q(r) pseudized with  8 coefficients,  rinner =    1.130   1.130   1.130
                                                       1.130   1.130

     PseudoPot. # 2 for Bi read from file:
     /home/mamunm/src/pseudo/gbrv1.5pbe/Bi.UPF
     MD5 check sum: 81103212dc04adf40945787f699eab19
     Pseudo is Ultrasoft + core correction, Zval = 15.0
     Generated by new atomic code, or converted to UPF format
     Using radial grid of  899 points,  6 beta functions with:
                l(1) =   0
                l(2) =   0
                l(3) =   1
                l(4) =   1
                l(5) =   2
                l(6) =   2
     Q(r) pseudized with  6 coefficients,  rinner =    1.000   1.000   1.000
                                                       1.000   1.000

     vdW kernel table read from file vdW_kernel_table
     MD5 check sum: 095c7af220d748ca6e76c0b4c6cfb241

     atomic species   valence    mass     pseudopotential
        Pd1           16.00   106.42000     Pd( 1.00)
        Bi1           15.00   208.98040     Bi( 1.00)

     No symmetry found

   Cartesian axes

     site n.     atom                  positions (alat units)
         1           Pd1 tau(   1) = (   0.0000000  -0.0000000  10.0000000  )
         2           Bi1 tau(   2) = (   1.0390189   2.8877249  10.0000000  )
         3           Bi1 tau(   3) = (   3.0689600  -0.0000000  10.0000000  )
         4           Pd1 tau(   4) = (   4.1079789   2.8877249  10.0000000  )
         5           Pd1 tau(   5) = (   6.1379200   4.3146824  12.5105273  )
         6           Bi1 tau(   6) = (   5.0989011   1.4269575  12.5105273  )
         7           Bi1 tau(   7) = (   3.0689600   4.3146824  12.5105273  )
         8           Pd1 tau(   8) = (   2.0299411   1.4269575  12.5105273  )
         9           Pd1 tau(   9) = (   4.0598822   2.8539151  15.0210546  )
        10           Bi1 tau(  10) = (   5.0989011   5.7416400  15.0210546  )
        11           Bi1 tau(  11) = (   7.1288422   2.8539151  15.0210546  )
        12           Pd1 tau(  12) = (   8.1678611   5.7416400  15.0210546  )

     number of k points=    20  Fermi-Dirac smearing, width (Ry)=  0.0110
                       cart. coord. in units 2pi/alat
        k(    1) = (   0.0000000   0.0000000   0.0000000), wk =   0.0555556
        k(    2) = (   0.0000000   0.0288578   0.0000000), wk =   0.1111111
        k(    3) = (   0.0000000   0.0577156   0.0000000), wk =   0.1111111
        k(    4) = (   0.0000000  -0.0865733  -0.0000000), wk =   0.0555556
        k(    5) = (   0.0271536  -0.0097700  -0.0000000), wk =   0.1111111
        k(    6) = (   0.0271536   0.0190878   0.0000000), wk =   0.1111111
        k(    7) = (   0.0271536   0.0479455   0.0000000), wk =   0.1111111
        k(    8) = (   0.0271536  -0.0963434  -0.0000000), wk =   0.1111111
        k(    9) = (   0.0271536  -0.0674856  -0.0000000), wk =   0.1111111
        k(   10) = (   0.0271536  -0.0386278  -0.0000000), wk =   0.1111111
        k(   11) = (   0.0543072  -0.0195400  -0.0000000), wk =   0.1111111
        k(   12) = (   0.0543072   0.0093178  -0.0000000), wk =   0.1111111
        k(   13) = (   0.0543072   0.0381755   0.0000000), wk =   0.1111111
        k(   14) = (   0.0543072  -0.1061134  -0.0000000), wk =   0.1111111
        k(   15) = (   0.0543072  -0.0772556  -0.0000000), wk =   0.1111111
        k(   16) = (   0.0543072  -0.0483978  -0.0000000), wk =   0.1111111
        k(   17) = (  -0.0814608   0.0293100   0.0000000), wk =   0.0555556
        k(   18) = (  -0.0814608   0.0581678   0.0000000), wk =   0.1111111
        k(   19) = (  -0.0814608   0.0870256   0.0000000), wk =   0.1111111
        k(   20) = (  -0.0814608  -0.0572633  -0.0000000), wk =   0.0555556

     Largest allocated arrays     est. size (Mb)     dimensions
     Largest temporary arrays     est. size (Mb)     dimensions

     Initial potential from superposition of free atoms
     Check: negative starting charge=   -0.698796

     starting charge  176.99971, renormalised to  186.00000

     negative rho (up, down):  7.343E-01 0.000E+00

     *
     * You are using vdW-DF for exchange-correlation in this calculation.
     * Please cite the following three references that made this development
     * possible:
     *
     *   M. Dion, H. Rydberg, E. Schroder, D. C. Langreth, and
     *   B. I. Lundqvist, Phys. Rev. Lett. 92, 246401 (2004).
     *
     *   T. Thonhauser, V. R. Cooper, S. Li, A. Puzder, P. Hyldgaard, and
     *   D. C. Langreth, Phys. Rev. B 76, 125112 (2007).
     *
     *   G. Roman-Perez and J. M. Soler, Phys. Rev. Lett. 103, 096102 (2009).
     *
     *
     * If you are using vdW-DF2, please also cite:
     *
     *   K. Lee, E. D. Murray, L. Kong, B. I. Lundqvist, and
     *   D. C. Langreth, Phys. Rev. B 82, 081101(R) (2010).
     *
     *
     * If you are calculating the stress with vdW-DF, please also cite:
     *
     *   R. Sabatini, E. Kucukbenli, B. Kolb, T. Thonhauser, and
     *   S. de Gironcoli, J. Phys.: Condens. Matter 24, 424209 (2012).
     *

     Carrying out vdW-DF run using the following parameters:

     Nqs =      20    Nr_points =    1024   r_max =   100.000
     q_mesh =
               0.00001000     0.04494208     0.09755937     0.15916263
               0.23128650     0.31572767     0.41458969     0.53033537
               0.66584808     0.82450364     1.01025438     1.22772762
               1.48234092     1.78043706     2.12944203     2.53805004
               3.01644009     3.57652955     4.23227104     5.00000000

     Gradients computed in reciprocal space

     Adding external electric field

     Computed dipole along edir(3) :
        Dipole               -0.0000 Ry au,         -0.0000 Debye
        Dipole field         -0.0000 Ry au

        Potential amp.        0.0000 Ry
        Total length         46.1009 bohr

     Starting wfc are  126 randomized atomic wfcs

     Self-consistent Calculation

     iteration #  1     ecut=    36.75 Ry     beta=0.30
     Davidson diagonalization with overlap
     ethr =  1.00E-02,  avg # of iterations =  5.4

[...]

     total energy              =   -2298.98801762 Ry
     Harris-Foulkes estimate   =   -2328.95420805 Ry
     estimated scf accuracy    <      64.18622903 Ry

[...]

     End of self-consistent calculation

          k = 0.0000 0.0000 0.0000 ( 22549 PWs)   bands (ev):

   -48.9680 -48.9671 -48.9587 -48.9477 -48.9200 -48.9192 -48.4753 -48.4750
   -48.4744 -48.4741 -48.4115 -48.4113 -48.4005 -48.4003 -48.3301 -48.3299
   -48.3291 -48.3290 -22.3421 -22.3061 -22.2942 -22.2819 -22.2813 -22.2810
   -22.2755 -22.2638 -22.2414 -22.2155 -22.0890 -22.0878 -22.0469 -22.0453
   -22.0270 -22.0260 -22.0081 -22.0073 -22.0054 -22.0048 -22.0036 -22.0014
   -22.0003 -21.9999 -21.9940 -21.9880 -21.9856 -21.9852 -21.9536 -21.9495
   -11.2304 -10.1737  -9.4428  -9.3283  -8.9343  -8.9027  -3.0813  -2.9379
    -2.3942  -2.3376  -2.3112  -2.1961  -2.0705  -1.9952  -1.9727  -1.6399
    -1.5932  -1.4627  -1.3735  -1.3479  -1.3227  -1.2490  -1.1837  -1.1368
    -0.8168  -0.8124  -0.7982  -0.7415  -0.7133  -0.7031  -0.6805  -0.6286
    -0.6231  -0.6086  -0.5904  -0.5546  -0.5536  -0.5462  -0.5064  -0.5060
    -0.2825  -0.2384   0.0933   0.1771   0.3056   0.3589   0.8794   1.6500
     2.6145   2.6215   2.7010   3.0957   3.4068   3.5849   3.6932

[...]

          k =-0.0815 0.0293 0.0000 ( 22540 PWs)   bands (ev):

[...]

     the Fermi energy is     1.1472 ev

!    total energy              =   -2321.91048214 Ry
     Harris-Foulkes estimate   =   -2321.91048243 Ry
     estimated scf accuracy    <       0.00000102 Ry

     The total energy is the sum of the following terms:

     one-electron contribution =  -14286.70650709 Ry
     hartree contribution      =    7195.10533967 Ry
     xc contribution           =    -594.86854732 Ry
     ewald contribution        =    5364.59102209 Ry
     electric field correction =       0.00000000 Ry
     smearing contrib. (-TS)   =      -0.03178949 Ry

     convergence has been achieved in  14 iterations

 BEEF-vdW xc energy contributions
           1 :   -526.367802074577
           2 :    486.526193677073
           3 :   -417.190747636883
           4 :    334.883964051305
           5 :   -256.293160519764
           6 :    193.057086357687
           7 :   -149.205106255589
           8 :    121.799159711727
           9 :   -104.017797297070
          10 :    89.0127440469662
          11 :   -72.7957729174839
          12 :    55.1123737544859
          13 :   -38.3586860367393
          14 :    25.4816896236398
          15 :   -18.0971791298806
          16 :    15.6989763045665
          17 :   -16.1278753257632
          18 :    16.8118363416461
          19 :   -16.0108564475674
          20 :    13.4371403414843
          21 :   -10.0496627609064
          22 :    7.27031898007249
          23 :   -6.12045773800821
          24 :    6.72149270875752
          25 :   -8.34264223618811
          26 :    9.87430123309548
          27 :   -10.4230862911872
          28 :    9.71502919499994
          29 :   -8.13836014842434
          30 :    6.45842342637661
          31 :   -44.8975225162978
          32 :   -33.0720706093673

     Forces acting on atoms (Ry/au):

     negative rho (up, down):  7.237E-01 0.000E+00
     atom    1 type  1   force =     0.00012072    0.00008449    0.02112154
     atom    2 type  2   force =    -0.00098282   -0.00068906    0.00089933
     atom    3 type  2   force =    -0.00098142   -0.00069074    0.00089968
     atom    4 type  1   force =     0.00012131    0.00008496    0.02114128
     atom    5 type  1   force =    -0.00003417   -0.00002491    0.00001375
     atom    6 type  2   force =    -0.00003335    0.00005294   -0.00027751
     atom    7 type  2   force =     0.00003713   -0.00004798   -0.00028027
     atom    8 type  1   force =     0.00003190    0.00002275    0.00001540
     atom    9 type  1   force =    -0.00012050   -0.00008489   -0.02109717
     atom   10 type  2   force =     0.00097867    0.00068928   -0.00068646
     atom   11 type  2   force =     0.00098091    0.00068743   -0.00069290
     atom   12 type  1   force =    -0.00011838   -0.00008427   -0.02105666

     Total force =     0.029872     Total SCF correction =     0.002779

     entering subroutine stress ...

     negative rho (up, down):  7.237E-01 0.000E+00
          total   stress  (Ry/bohr**3)                   (kbar)     P=  -16.50
  -0.00012353   0.00000354   0.00000270        -18.17      0.52      0.40
   0.00000354  -0.00012608   0.00000190          0.52    -18.55      0.28
   0.00000270   0.00000190  -0.00008688          0.40      0.28    -12.78

     BFGS Geometry Optimization

     number of scf cycles    =   1
     number of bfgs steps    =   0

     energy   new            =   -2321.9104821450 Ry

     new trust radius        =       0.0210976889 bohr
     new conv_thr            =       0.0000099958 Ry

ATOMIC_POSITIONS (crystal)
Pd1      0.000000000  -0.000000000   0.399663409    0   0   0
Bi1     -0.000000000   0.500000000   0.399663409    0   0   0
Bi1      0.500000000  -0.000000000   0.399663409    0   0   0
Pd1      0.500000000   0.500000000   0.399663409    0   0   0
Pd1      0.747072968   0.747072968   0.500000000    0   0   0
Bi1      0.747072968   0.247072968   0.500000000    0   0   0
Bi1      0.247072968   0.747072968   0.500000000    0   0   0
Pd1      0.247072968   0.247072968   0.500000000    0   0   0
Pd1      0.494138180   0.494138157   0.599890401
Bi1      0.494208929   0.994209091   0.600322072
Bi1      0.994209179   0.494208921   0.600321936
Pd1      0.994138343   0.994138214   0.599891258

     Writing output data file calc.save
     Check: negative starting charge=   -0.698796
     NEW-OLD atomic charge density approx. for the potential
     Check: negative starting charge=   -0.697948

[...]

     Total force =     0.030811     Total SCF correction =     0.010590
     SCF correction compared to forces is large: reduce conv_thr to get better values

[...]

     energy   old            =   -2321.9104821450 Ry
     energy   new            =   -2321.9113630485 Ry

     CASE: energy  _new < energy  _old

     WARNING: bfgs curvature condition failed, Theta= 0.776
     new trust radius        =       0.0316465334 bohr
     new conv_thr            =       0.0000001000 Ry

[...]

     Total force =     0.004453     Total SCF correction =     0.000341

[...]

     number of scf cycles    =   7
     number of bfgs steps    =   6

     energy   old            =   -2321.9198622772 Ry
     energy   new            =   -2321.9222819842 Ry

     CASE: energy  _new < energy  _old

     new trust radius        =       0.0572542120 bohr
     new conv_thr            =       0.0000001000 Ry

ATOMIC_POSITIONS (crystal)
Pd1      0.000000000  -0.000000000   0.399663409    0   0   0
Bi1     -0.000000000   0.500000000   0.399663409    0   0   0
Bi1      0.500000000  -0.000000000   0.399663409    0   0   0
Pd1      0.500000000   0.500000000   0.399663409    0   0   0
Pd1      0.747072968   0.747072968   0.500000000    0   0   0
Bi1      0.747072968   0.247072968   0.500000000    0   0   0
Bi1      0.247072968   0.747072968   0.500000000    0   0   0
Pd1      0.247072968   0.247072968   0.500000000    0   0   0
Pd1      0.493895537   0.493893714   0.589853705
Bi1      0.496053540   0.996069432   0.599838271
Bi1      0.996074721   0.496053593   0.599830798
Pd1      0.993900756   0.993897209   0.589908356

     Writing output data file calc.save
     Check: negative starting charge=   -0.700549
     NEW-OLD atomic charge density approx. for the potential
     Check: negative starting charge=   -0.696342

[...]

     Self-consistent Calculation

[...]

     total energy              =   -2321.92242563 Ry
     Harris-Foulkes estimate   =   -2321.92242571 Ry
     estimated scf accuracy    <       0.00000012 Ry

     iteration # 10     ecut=    36.75 Ry     beta=0.30
     Davidson diagonalization with overlap
     ethr =  6.47E-11,  avg # of iterations =  2.0

[...]

     negative rho (up, down):  7.222E-01 0.000E+00

     Adding external electric field

     Computed dipole along edir(3) :
        Dipole                0.0528 Ry au,          0.1343 Debye
        Dipole field          0.0001 Ry au

        Potential amp.       -0.0102 Ry
        Total length         46.1009 bohr

     End of self-consistent calculation

[...]

          k = 0.0543-0.0484-0.0000 ( 22538 PWs)   bands (ev):

[...]

          k =-0.0815-0.0573-0.0000 ( 22518 PWs)   bands (ev):

   -48.9426 -48.9416 -48.9332 -48.9221 -48.8908 -48.8898 -48.6503 -48.6487
   -48.6347 -48.6233 -48.5849 -48.5831 -48.4025 -48.4015 -48.3370 -48.3260
   -48.2433 -48.2424 -22.2850 -22.2455 -22.2310 -22.2273 -22.2238 -22.2238
   -22.2154 -22.2061 -22.1838 -22.1477 -22.0693 -22.0287 -22.0266 -22.0112
   -21.9899 -21.9893 -21.9879 -21.9871 -21.9865 -21.9789 -21.9725 -21.9623
   -21.9480 -21.9420 -21.9414 -21.9407 -21.9369 -21.9291 -21.9238 -21.8946
   -10.4691 -10.0751  -9.8614  -9.8550  -8.8870  -8.0984  -4.3865  -4.1196
    -3.9005  -3.2717  -3.2074  -3.1387  -2.6257  -2.6026  -2.2461  -1.8373
    -1.7552  -1.7009  -1.6817  -1.6589  -1.6488  -1.6017  -1.5419  -1.4574
    -1.3838  -1.1871  -1.0855  -0.9091  -0.8395  -0.8201  -0.7884  -0.7028
    -0.6508  -0.4711  -0.4215  -0.3939  -0.3322  -0.0597  -0.0444   0.0381
     0.3167   0.8448   0.8757   1.4064   1.7848   1.9937   2.9941   3.0663
     3.1467   3.7269   4.5290   4.5718   4.6818   4.7240   4.9031

     the Fermi energy is     1.1839 ev

!    total energy              =   -2321.92242553 Ry
     Harris-Foulkes estimate   =   -2321.92242555 Ry
     estimated scf accuracy    <       0.00000001 Ry

     The total energy is the sum of the following terms:

     one-electron contribution =  -14565.63619829 Ry
     hartree contribution      =    7334.61426112 Ry
     xc contribution           =    -594.98382155 Ry
     ewald contribution        =    5504.11338327 Ry
     electric field correction =       0.00000586 Ry
     smearing contrib. (-TS)   =      -0.03005593 Ry

     convergence has been achieved in  10 iterations

 BEEF-vdW xc energy contributions
           1 :   -526.495966218784
           2 :    486.739030361474
           3 :   -417.504461297657
           4 :    335.225899382239
           5 :   -256.544017310784
           6 :    193.126097625317
           7 :   -149.088599780160
           8 :    121.586739845036
           9 :   -103.844199533624
          10 :    88.9846181503408
          11 :   -72.9351859856554
          12 :    55.3483666775401
          13 :   -38.5703098918382
          14 :    25.5664375812100
          15 :   -18.0259593146753
          16 :    15.5279572619021
          17 :   -15.9621522875834
          18 :    16.7438376906620
          19 :   -16.0701532546719
          20 :    13.5792972356496
          21 :   -10.1874193521761
          22 :    7.32563261655127
          23 :   -6.06594209224750
          24 :    6.58964114280639
          25 :   -8.20171058647145
          26 :    9.78789725134334
          27 :   -10.4167323370061
          28 :    9.76685299516487
          29 :   -8.19709099077943
          30 :    6.47590529574882
          31 :   -44.9081675622276
          32 :   -33.1022574389320

     Forces acting on atoms (Ry/au):

     negative rho (up, down):  7.222E-01 0.000E+00
     atom    1 type  1   force =     0.00009422    0.00006632    0.01747186
     atom    2 type  2   force =    -0.00104894   -0.00073622   -0.00109106
     atom    3 type  2   force =    -0.00104738   -0.00073747   -0.00108973
     atom    4 type  1   force =     0.00009402    0.00006594    0.01747958
     atom    5 type  1   force =    -0.00005728   -0.00003761    0.00224489
     atom    6 type  2   force =     0.00077008    0.00045681   -0.01910269
     atom    7 type  2   force =     0.00069777    0.00057386   -0.01910456
     atom    8 type  1   force =    -0.00003462   -0.00002732    0.00224049
     atom    9 type  1   force =     0.00054351    0.00038201    0.00068790
     atom   10 type  2   force =    -0.00026800   -0.00019985   -0.00012998
     atom   11 type  2   force =    -0.00028102   -0.00018603   -0.00010924
     atom   12 type  1   force =     0.00053764    0.00037956    0.00050254

     Total force =     0.001362     Total SCF correction =     0.000516
     SCF correction compared to forces is large: reduce conv_thr to get better values

     entering subroutine stress ...

     negative rho (up, down):  7.222E-01 0.000E+00
          total   stress  (Ry/bohr**3)                   (kbar)     P=  -11.49
  -0.00009905  -0.00000544   0.00000184        -14.57     -0.80      0.27
  -0.00000544  -0.00009513   0.00000130         -0.80    -13.99      0.19
   0.00000184   0.00000130  -0.00004023          0.27      0.19     -5.92

     bfgs converged in   8 scf cycles and   7 bfgs steps
     (criteria: energy <  1.0E+00, force <  1.9E-03)

     End of BFGS Geometry Optimization

     Final energy   =   -2321.9224255346 Ry
Begin final coordinates

ATOMIC_POSITIONS (crystal)
Pd1      0.000000000  -0.000000000   0.399663409    0   0   0
Bi1     -0.000000000   0.500000000   0.399663409    0   0   0
Bi1      0.500000000  -0.000000000   0.399663409    0   0   0
Pd1      0.500000000   0.500000000   0.399663409    0   0   0
Pd1      0.747072968   0.747072968   0.500000000    0   0   0
Bi1      0.747072968   0.247072968   0.500000000    0   0   0
Bi1      0.247072968   0.747072968   0.500000000    0   0   0
Pd1      0.247072968   0.247072968   0.500000000    0   0   0
Pd1      0.493895537   0.493893714   0.589853705
Bi1      0.496053540   0.996069432   0.599838271
Bi1      0.996074721   0.496053593   0.599830798
Pd1      0.993900756   0.993897209   0.589908356
End final coordinates

     Writing output data file calc.save

     General routines

     Parallel routines

   This run was terminated on:  20:58:29  23Feb2018

   JOB DONE.