     Program PWSCF v.5.1rc2 starts on 23Feb2018 at 20:28:46

     Current dimensions of program PWSCF are:
     Max number of different atomic species (ntypx) = 10
     Max number of k-points (npk) =  40000
     Max angular momentum in pseudopotentials (lmaxx) =  3
     Presently stress not available with electric field

     IMPORTANT: XC functional enforced from input :
     Exchange-correlation      = BEEF-VDW ( 1  4 27 13 2)
     Any further DFT definition will be discarded
     Please, verify this is what you really want

     Found symmetry operation: I + ( -0.5000 -0.5000  0.0000)
     This is a supercell, fractional translations are disabled

     bravais-lattice index     =            0
     lattice parameter (alat)  =       1.8897  a.u.
     unit-cell volume          =    6445.6075 (a.u.)^3
     number of atoms/cell      =           12
     number of atomic types    =            2
     number of electrons       =       156.00
     number of Kohn-Sham states=           88
     kinetic-energy cutoff     =      36.7493  Ry
     charge density cutoff     =     367.4932  Ry
     convergence threshold     =      1.0E-05
     mixing beta               =       0.3000
     number of iterations used =           10  plain     mixing
     Exchange-correlation      = BEEF-VDW ( 1  4 27 13 2)
     nstep                     =           50

     celldm(1)=   1.889726  celldm(2)=   0.000000  celldm(3)=   0.000000
     celldm(4)=   0.000000  celldm(5)=   0.000000  celldm(6)=   0.000000

     crystal axes: (cart. coord. in units of alat)
               a(1) = (   6.403585   0.000000   0.000000 )
               a(2) = (   2.498881   5.895888   0.000000 )
               a(3) = (  -0.000000  -0.000000  25.298504 )

     reciprocal axes: (cart. coord. in units 2 pi/alat)
               b(1) = (  0.156163 -0.066187  0.000000 )
               b(2) = (  0.000000  0.169610  0.000000 )
               b(3) = (  0.000000  0.000000  0.039528 )

     PseudoPot. # 1 for Au read from file:
     /home/users/mamunm/src/pseudo/gbrv1.5pbe/Au.UPF
     MD5 check sum: 9d7f43293ad2c663164586bc4b293ffc
     Pseudo is Ultrasoft + core correction, Zval = 11.0
     Generated by new atomic code, or converted to UPF format
     Using radial grid of  985 points,  7 beta functions with:
                l(1) =   0
                l(2) =   0
                l(3) =   1
                l(4) =   1
                l(5) =   2
                l(6) =   2
                l(7) =   3
     Q(r) pseudized with  6 coefficients,  rinner =    1.900   1.900   1.900
                                                       1.900   1.900   1.900
                                                       1.900

     PseudoPot. # 2 for Bi read from file:
     /home/users/mamunm/src/pseudo/gbrv1.5pbe/Bi.UPF
     MD5 check sum: 81103212dc04adf40945787f699eab19
     Pseudo is Ultrasoft + core correction, Zval = 15.0
     Generated by new atomic code, or converted to UPF format
     Using radial grid of  899 points,  6 beta functions with:
                l(1) =   0
                l(2) =   0
                l(3) =   1
                l(4) =   1
                l(5) =   2
                l(6) =   2
     Q(r) pseudized with  6 coefficients,  rinner =    1.000   1.000   1.000
                                                       1.000   1.000

     vdW kernel table read from file vdW_kernel_table
     MD5 check sum: 095c7af220d748ca6e76c0b4c6cfb241

     atomic species   valence    mass     pseudopotential
        Au1           11.00   196.96657     Au( 1.00)
        Bi1           15.00   208.98040     Bi( 1.00)

     No symmetry found

   Cartesian axes

     site n.     atom                  positions (alat units)
         1           Au1 tau(   1) = (  -0.0000000  -0.0000000  10.0000000  )
         2           Bi1 tau(   2) = (   1.2494404   2.9479440  10.0000000  )
         3           Bi1 tau(   3) = (   3.2017925  -0.0000000  10.0000000  )
         4           Au1 tau(   4) = (   4.4512329   2.9479440  10.0000000  )
         5           Au1 tau(   5) = (   6.4035850   4.2409397  12.6492520  )
         6           Bi1 tau(   6) = (   5.1541447   1.2929957  12.6492520  )
         7           Bi1 tau(   7) = (   3.2017925   4.2409397  12.6492520  )
         8           Au1 tau(   8) = (   1.9523521   1.2929957  12.6492520  )
         9           Au1 tau(   9) = (   3.9047043   2.5859914  15.2985040  )
        10           Bi1 tau(  10) = (   5.1541447   5.5339354  15.2985040  )
        11           Bi1 tau(  11) = (   7.1064968   2.5859914  15.2985040  )
        12           Au1 tau(  12) = (   8.3559372   5.5339354  15.2985040  )

     number of k points=    20  Fermi-Dirac smearing, width (Ry)=  0.0110
                       cart. coord. in units 2pi/alat
        k(    1) = (   0.0000000   0.0000000   0.0000000), wk =   0.0555556
        k(    2) = (   0.0000000   0.0282683   0.0000000), wk =   0.1111111
        k(    3) = (   0.0000000   0.0565366   0.0000000), wk =   0.1111111
        k(    4) = (   0.0000000  -0.0848049  -0.0000000), wk =   0.0555556
        k(    5) = (   0.0260271  -0.0110312   0.0000000), wk =   0.1111111
        k(    6) = (   0.0260271   0.0172371   0.0000000), wk =   0.1111111
        k(    7) = (   0.0260271   0.0455054   0.0000000), wk =   0.1111111
        k(    8) = (   0.0260271  -0.0958360  -0.0000000), wk =   0.1111111
        k(    9) = (   0.0260271  -0.0675678  -0.0000000), wk =   0.1111111
        k(   10) = (   0.0260271  -0.0392995   0.0000000), wk =   0.1111111
        k(   11) = (   0.0520542  -0.0220624   0.0000000), wk =   0.1111111
        k(   12) = (   0.0520542   0.0062059   0.0000000), wk =   0.1111111
        k(   13) = (   0.0520542   0.0344742   0.0000000), wk =   0.1111111
        k(   14) = (   0.0520542  -0.1068672  -0.0000000), wk =   0.1111111
        k(   15) = (   0.0520542  -0.0785989   0.0000000), wk =   0.1111111
        k(   16) = (   0.0520542  -0.0503306   0.0000000), wk =   0.1111111
        k(   17) = (  -0.0780813   0.0330935  -0.0000000), wk =   0.0555556
        k(   18) = (  -0.0780813   0.0613618  -0.0000000), wk =   0.1111111
        k(   19) = (  -0.0780813   0.0896301  -0.0000000), wk =   0.1111111
        k(   20) = (  -0.0780813  -0.0517113  -0.0000000), wk =   0.0555556

     Largest allocated arrays     est. size (Mb)     dimensions
     Largest temporary arrays     est. size (Mb)     dimensions

     Check: negative/imaginary core charge=   -0.000002    0.000000

     Initial potential from superposition of free atoms
     Check: negative starting charge=   -0.251711

     starting charge  149.99902, renormalised to  156.00000

     negative rho (up, down):  2.618E-01 0.000E+00

     *
     * You are using vdW-DF for exchange-correlation in this calculation.
     * Please cite the following three references that made this development
     * possible:
     *
     *   M. Dion, H. Rydberg, E. Schroder, D. C. Langreth, and
     *   B. I. Lundqvist, Phys. Rev. Lett. 92, 246401 (2004).
     *
     *   T. Thonhauser, V. R. Cooper, S. Li, A. Puzder, P. Hyldgaard, and
     *   D. C. Langreth, Phys. Rev. B 76, 125112 (2007).
     *
     *   G. Roman-Perez and J. M. Soler, Phys. Rev. Lett. 103, 096102 (2009).
     *
     *
     * If you are using vdW-DF2, please also cite:
     *
     *   K. Lee, E. D. Murray, L. Kong, B. I. Lundqvist, and
     *   D. C. Langreth, Phys. Rev. B 82, 081101(R) (2010).
     *
     *
     * If you are calculating the stress with vdW-DF, please also cite:
     *
     *   R. Sabatini, E. Kucukbenli, B. Kolb, T. Thonhauser, and
     *   S. de Gironcoli, J. Phys.: Condens. Matter 24, 424209 (2012).
     *

     Carrying out vdW-DF run using the following parameters:

     Nqs =      20    Nr_points =    1024   r_max =   100.000
     q_mesh =
               0.00001000     0.04494208     0.09755937     0.15916263
               0.23128650     0.31572767     0.41458969     0.53033537
               0.66584808     0.82450364     1.01025438     1.22772762
               1.48234092     1.78043706     2.12944203     2.53805004
               3.01644009     3.57652955     4.23227104     5.00000000

     Gradients computed in reciprocal space

     Adding external electric field

     Computed dipole along edir(3) :
        Dipole               -0.0000 Ry au,         -0.0000 Debye
        Dipole field         -0.0000 Ry au

        Potential amp.        0.0000 Ry
        Total length         46.6121 bohr

     Starting wfc are  108 randomized atomic wfcs

     Self-consistent Calculation

     iteration #  1     ecut=    36.75 Ry     beta=0.30
     Davidson diagonalization with overlap
     ethr =  1.00E-02,  avg # of iterations =  2.5

[...]

     total energy              =   -1822.45524588 Ry
     Harris-Foulkes estimate   =   -1824.42745314 Ry
     estimated scf accuracy    <       4.38964796 Ry

[...]

     End of self-consistent calculation

          k = 0.0000 0.0000 0.0000 ( 24267 PWs)   bands (ev):

   -22.9617 -22.9277 -22.9255 -22.9221 -22.9191 -22.9154 -22.9112 -22.8862
   -22.8705 -22.8371 -22.7619 -22.7605 -22.7201 -22.7188 -22.7056 -22.7048
   -22.6959 -22.6942 -22.6937 -22.6928 -22.6923 -22.6922 -22.6870 -22.6863
   -22.6823 -22.6817 -22.6660 -22.6654 -22.6366 -22.6337 -11.6618 -10.7633
   -10.2090  -9.9715  -9.5038  -9.3772  -4.1691  -4.1175  -4.0408  -3.8652
    -3.7548  -3.7504  -3.5879  -3.5607  -3.5538  -3.3810  -3.3362  -3.3062
    -3.2309  -3.2158  -3.1548  -3.1105  -2.8821  -2.8442  -2.8424  -2.7163
    -2.7134  -2.6948  -2.6939  -2.6894  -2.6682  -2.6291  -2.6148  -2.5982
    -2.5496  -2.5195  -2.3065  -2.1977  -2.0593  -2.0118  -1.9865  -1.9276
    -1.7763  -1.5166  -1.1579  -0.8414  -0.4863  -0.4635  -0.1706   0.3549
     0.7750   0.9021   1.6304   1.9180   2.3827   2.5954   2.6853   3.3038

[...]

          k =-0.0781 0.0331-0.0000 ( 24288 PWs)   bands (ev):

[...]

     the Fermi energy is     0.7719 ev

!    total energy              =   -1823.20584876 Ry
     Harris-Foulkes estimate   =   -1823.20584994 Ry
     estimated scf accuracy    <       0.00000705 Ry

     The total energy is the sum of the following terms:

     one-electron contribution =   -9019.74952977 Ry
     hartree contribution      =    4583.68072283 Ry
     xc contribution           =    -783.20894481 Ry
     ewald contribution        =    3396.10641759 Ry
     electric field correction =       0.00000013 Ry
     smearing contrib. (-TS)   =      -0.03451474 Ry

     convergence has been achieved in  10 iterations

 BEEF-vdW xc energy contributions
           1 :   -699.258775046164
           2 :    649.791822237668
           3 :   -562.026488722276
           4 :    454.189399971084
           5 :   -345.605347952938
           6 :    251.256906102863
           7 :   -178.657080960693
           8 :    127.712102658872
           9 :   -93.1492497844584
          10 :    68.1377232240300
          11 :   -47.4593364240486
          12 :    29.0108382315516
          13 :   -13.3877567759296
          14 :    2.20813664974912
          15 :    3.68765352206697
          16 :   -5.19548360602494
          17 :    4.68665753695404
          18 :   -4.84666311460626
          19 :    7.34691372829843
          20 :   -12.0972751008585
          21 :    17.4463708719989
          22 :   -21.1749862672473
          23 :    21.7131371745028
          24 :   -18.9400518753426
          25 :    14.1844866094563
          26 :   -9.49108799976193
          27 :    6.58420480684458
          28 :   -6.08509528900072
          29 :    7.35895670628872
          30 :   -9.01544007996756
          31 :   -55.4254424756848
          32 :   -40.5236016081074

     Forces acting on atoms (Ry/au):

     negative rho (up, down):  2.608E-01 0.000E+00
     atom    1 type  1   force =    -0.00078471   -0.00052302    0.00339560
     atom    2 type  2   force =     0.00005197    0.00002132    0.00762186
     atom    3 type  2   force =     0.00005503    0.00004375    0.00762534
     atom    4 type  1   force =    -0.00079720   -0.00052411    0.00338884
     atom    5 type  1   force =     0.00002682    0.00001537   -0.00016344
     atom    6 type  2   force =    -0.00008644   -0.00004766    0.00050732
     atom    7 type  2   force =    -0.00007188   -0.00005681    0.00049571
     atom    8 type  1   force =     0.00001469    0.00001114   -0.00015967
     atom    9 type  1   force =     0.00081739    0.00054018   -0.00401487
     atom   10 type  2   force =    -0.00001000    0.00000048   -0.00733580
     atom   11 type  2   force =    -0.00001396   -0.00000973   -0.00733725
     atom   12 type  1   force =     0.00079830    0.00052909   -0.00402364

     Total force =     0.011909     Total SCF correction =     0.002725
     SCF correction compared to forces is large: reduce conv_thr to get better values

     entering subroutine stress ...

     negative rho (up, down):  2.608E-01 0.000E+00
          total   stress  (Ry/bohr**3)                   (kbar)     P=  -11.87
  -0.00010223  -0.00001134   0.00000353        -15.04     -1.67      0.52
  -0.00001134  -0.00009261   0.00000234         -1.67    -13.62      0.34
   0.00000353   0.00000234  -0.00004733          0.52      0.34     -6.96

     BFGS Geometry Optimization

     number of scf cycles    =   1
     number of bfgs steps    =   0

     energy   new            =   -1823.2058487611 Ry

     new trust radius        =       0.0073372667 bohr
     new conv_thr            =       0.0000099958 Ry

ATOMIC_POSITIONS (crystal)
Au1      0.000000000   0.000000000   0.395280290    0   0   0
Bi1     -0.000000000   0.500000000   0.395280290    0   0   0
Bi1      0.500000000   0.000000000   0.395280290    0   0   0
Au1      0.500000000   0.500000000   0.395280290    0   0   0
Au1      0.719304651   0.719304651   0.500000000    0   0   0
Bi1      0.719304651   0.219304651   0.500000000    0   0   0
Bi1      0.219304651   0.719304651   0.500000000    0   0   0
Au1      0.219304651   0.219304651   0.500000000    0   0   0
Au1      0.438657930   0.438657785   0.604635730
Bi1      0.438608459   0.938609346   0.604566265
Bi1      0.938608490   0.438608429   0.604566235
Au1      0.938656741   0.938656790   0.604635547

     Writing output data file calc.save
     Check: negative starting charge=   -0.251711
     NEW-OLD atomic charge density approx. for the potential

     Check: negative/imaginary core charge=   -0.000002    0.000000
     Check: negative starting charge=   -0.251913

[...]

     energy   old            =   -1823.2058487611 Ry
     energy   new            =   -1823.2059756807 Ry

     CASE: energy  _new < energy  _old

[...]

     Total force =     0.009576     Total SCF correction =     0.000184

[...]

     WARNING: bfgs curvature condition failed, Theta= 0.753
     new trust radius        =       0.0165088501 bohr
     new conv_thr            =       0.0000001000 Ry

[...]

     Total force =     0.003948     Total SCF correction =     0.000152

[...]

     number of scf cycles    =   6
     number of bfgs steps    =   5

     energy   old            =   -1823.2067886929 Ry
     energy   new            =   -1823.2071521319 Ry

     CASE: energy  _new < energy  _old

     new trust radius        =       0.0484084723 bohr
     new conv_thr            =       0.0000001000 Ry

ATOMIC_POSITIONS (crystal)
Au1      0.000000000   0.000000000   0.395280290    0   0   0
Bi1     -0.000000000   0.500000000   0.395280290    0   0   0
Bi1      0.500000000   0.000000000   0.395280290    0   0   0
Au1      0.500000000   0.500000000   0.395280290    0   0   0
Au1      0.719304651   0.719304651   0.500000000    0   0   0
Bi1      0.719304651   0.219304651   0.500000000    0   0   0
Bi1      0.219304651   0.719304651   0.500000000    0   0   0
Au1      0.219304651   0.219304651   0.500000000    0   0   0
Au1      0.440407162   0.440391733   0.602045377
Bi1      0.438851840   0.938871388   0.601685734
Bi1      0.938858094   0.438846035   0.601688466
Au1      0.940355936   0.940348074   0.602042706

     Writing output data file calc.save
     Check: negative starting charge=   -0.252056
     NEW-OLD atomic charge density approx. for the potential

     Check: negative/imaginary core charge=   -0.000002    0.000000
     Check: negative starting charge=   -0.251271

[...]

     Self-consistent Calculation

[...]

     total energy              =   -1823.20732616 Ry
     Harris-Foulkes estimate   =   -1823.20732624 Ry
     estimated scf accuracy    <       0.00000047 Ry

     iteration #  8     ecut=    36.75 Ry     beta=0.30
     Davidson diagonalization with overlap
     ethr =  3.00E-10,  avg # of iterations =  2.0

[...]

     negative rho (up, down):  2.605E-01 0.000E+00

     Adding external electric field

     Computed dipole along edir(3) :
        Dipole                0.0061 Ry au,          0.0156 Debye
        Dipole field          0.0000 Ry au

        Potential amp.       -0.0011 Ry
        Total length         46.6121 bohr

     End of self-consistent calculation

[...]

          k = 0.0521-0.0503 0.0000 ( 24252 PWs)   bands (ev):

[...]

          k =-0.0781-0.0517-0.0000 ( 24264 PWs)   bands (ev):

   -22.9736 -22.9380 -22.9375 -22.9364 -22.9287 -22.9275 -22.9215 -22.8970
   -22.8829 -22.8481 -22.7678 -22.7494 -22.7256 -22.7125 -22.7079 -22.6994
   -22.6988 -22.6964 -22.6937 -22.6910 -22.6875 -22.6811 -22.6798 -22.6791
   -22.6746 -22.6745 -22.6706 -22.6532 -22.6444 -22.6250 -11.1181 -10.7273
   -10.4120 -10.2570  -9.5040  -8.8664  -5.4253  -5.3844  -5.1351  -4.5403
    -4.5175  -4.2870  -4.2344  -4.0219  -3.8364  -3.8152  -3.7282  -3.7011
    -3.5849  -3.5408  -3.4110  -3.3458  -3.2589  -3.2183  -3.2133  -3.1946
    -2.9564  -2.8894  -2.8387  -2.7992  -2.7986  -2.7018  -2.6664  -2.6434
    -2.6308  -2.5413  -2.4342  -2.1605  -2.0822  -1.9408  -1.5772  -0.3857
    -0.2859   0.0189   0.4916   0.7226   1.2463   1.4483   1.9940   2.1696
     2.1745   2.4383   3.3745   3.5422   3.6589   3.6865   3.7558   3.7777

     the Fermi energy is     0.7813 ev

!    total energy              =   -1823.20732616 Ry
     Harris-Foulkes estimate   =   -1823.20732624 Ry
     estimated scf accuracy    <       0.00000008 Ry

     The total energy is the sum of the following terms:

     one-electron contribution =   -9114.30254381 Ry
     hartree contribution      =    4630.89461355 Ry
     xc contribution           =    -783.26533293 Ry
     ewald contribution        =    3443.50005984 Ry
     electric field correction =       0.00000007 Ry
     smearing contrib. (-TS)   =      -0.03412289 Ry

     convergence has been achieved in   8 iterations

 BEEF-vdW xc energy contributions
           1 :   -699.321505263785
           2 :    649.900105710044
           3 :   -562.192333979795
           4 :    454.378181310548
           5 :   -345.752730731900
           6 :    251.306275611558
           7 :   -178.595669132880
           8 :    127.583469531036
           9 :   -93.0329617708410
          10 :    68.1070586527260
          11 :   -47.5407281684168
          12 :    29.1681673852571
          13 :   -13.5413257051412
          14 :    2.27790818759763
          15 :    3.73779368888404
          16 :   -5.33741253274422
          17 :    4.84352833905382
          18 :   -4.93538166231190
          19 :    7.32343080748740
          20 :   -11.9798385417895
          21 :    17.3039972016236
          22 :   -21.0880932960235
          23 :    21.7284790146302
          24 :   -19.0452141235501
          25 :    14.3162108880895
          26 :   -9.57197514763254
          27 :    6.56655895549216
          28 :   -5.97773186933716
          29 :    7.22191720269916
          30 :   -8.92574467875397
          31 :   -55.4311325250744
          32 :   -40.5408183146203

     Forces acting on atoms (Ry/au):

     negative rho (up, down):  2.605E-01 0.000E+00
     atom    1 type  1   force =    -0.00071989   -0.00047707    0.00246942
     atom    2 type  2   force =    -0.00047377   -0.00031618    0.00600776
     atom    3 type  2   force =    -0.00047541   -0.00031293    0.00600639
     atom    4 type  1   force =    -0.00071108   -0.00047117    0.00245502
     atom    5 type  1   force =     0.00035392    0.00023261   -0.00408448
     atom    6 type  2   force =    -0.00030469   -0.00019854   -0.00461654
     atom    7 type  2   force =    -0.00030251   -0.00020423   -0.00461424
     atom    8 type  1   force =     0.00033974    0.00022735   -0.00407482
     atom    9 type  1   force =     0.00004066    0.00003079    0.00011202
     atom   10 type  2   force =     0.00109381    0.00072868    0.00010864
     atom   11 type  2   force =     0.00110167    0.00072484    0.00010290
     atom   12 type  1   force =     0.00005755    0.00003586    0.00012793

     Total force =     0.001877     Total SCF correction =     0.000244
     SCF correction compared to forces is large: reduce conv_thr to get better values

     entering subroutine stress ...

     negative rho (up, down):  2.605E-01 0.000E+00
          total   stress  (Ry/bohr**3)                   (kbar)     P=   -8.97
  -0.00008464  -0.00001169   0.00000362        -12.45     -1.72      0.53
  -0.00001169  -0.00007473   0.00000240         -1.72    -10.99      0.35
   0.00000362   0.00000240  -0.00002360          0.53      0.35     -3.47

     bfgs converged in   7 scf cycles and   6 bfgs steps
     (criteria: energy <  1.0E+00, force <  1.9E-03)

     End of BFGS Geometry Optimization

     Final energy   =   -1823.2073261578 Ry
Begin final coordinates

ATOMIC_POSITIONS (crystal)
Au1      0.000000000   0.000000000   0.395280290    0   0   0
Bi1     -0.000000000   0.500000000   0.395280290    0   0   0
Bi1      0.500000000   0.000000000   0.395280290    0   0   0
Au1      0.500000000   0.500000000   0.395280290    0   0   0
Au1      0.719304651   0.719304651   0.500000000    0   0   0
Bi1      0.719304651   0.219304651   0.500000000    0   0   0
Bi1      0.219304651   0.719304651   0.500000000    0   0   0
Au1      0.219304651   0.219304651   0.500000000    0   0   0
Au1      0.440407162   0.440391733   0.602045377
Bi1      0.438851840   0.938871388   0.601685734
Bi1      0.938858094   0.438846035   0.601688466
Au1      0.940355936   0.940348074   0.602042706
End final coordinates

     Writing output data file calc.save

     General routines

     Parallel routines

   This run was terminated on:  20:49:20  23Feb2018

   JOB DONE.