     Program PWSCF v.5.1rc2 (svn rev. ) starts on 23Feb2018 at 20:31: 1

     Current dimensions of program PWSCF are:
     Max number of different atomic species (ntypx) = 10
     Max number of k-points (npk) =  40000
     Max angular momentum in pseudopotentials (lmaxx) =  3
     Presently stress not available with electric field

     IMPORTANT: XC functional enforced from input :
     Exchange-correlation      = BEEF-VDW ( 1  4 27 13 2)
     Any further DFT definition will be discarded
     Please, verify this is what you really want

     Subspace diagonalization in iterative solution of the eigenvalue problem:
     a serial algorithm will be used

     Found symmetry operation: I + (  0.5000 -0.5000  0.0000)
     This is a supercell, fractional translations are disabled

     bravais-lattice index     =            0
     lattice parameter (alat)  =       1.8897  a.u.
     unit-cell volume          =    6608.0179 (a.u.)^3
     number of atoms/cell      =           12
     number of atomic types    =            2
     number of electrons       =       204.00
     number of Kohn-Sham states=          112
     kinetic-energy cutoff     =      36.7493  Ry
     charge density cutoff     =     367.4932  Ry
     convergence threshold     =      1.0E-05
     mixing beta               =       0.3000
     number of iterations used =           10  plain     mixing
     Exchange-correlation      = BEEF-VDW ( 1  4 27 13 2)
     nstep                     =           50

     celldm(1)=   1.889726  celldm(2)=   0.000000  celldm(3)=   0.000000
     celldm(4)=   0.000000  celldm(5)=   0.000000  celldm(6)=   0.000000

     crystal axes: (cart. coord. in units of alat)
               a(1) = (   6.531446   0.000000   0.000000 )
               a(2) = (   2.800753   5.900471   0.000000 )
               a(3) = (   0.000000   0.000000  25.408475 )

     reciprocal axes: (cart. coord. in units 2 pi/alat)
               b(1) = (  0.153105 -0.072674  0.000000 )
               b(2) = (  0.000000  0.169478 -0.000000 )
               b(3) = (  0.000000  0.000000  0.039357 )

     PseudoPot. # 1 for Ag read from file:
     /home/mamunm/src/pseudo/gbrv1.5pbe/Ag.UPF
     MD5 check sum: d66d668201baa78d5eb5b04ef7011058
     Pseudo is Ultrasoft + core correction, Zval = 19.0
     Generated by new atomic code, or converted to UPF format
     Using radial grid of  887 points,  6 beta functions with:
                l(1) =   0
                l(2) =   0
                l(3) =   1
                l(4) =   1
                l(5) =   2
                l(6) =   2
     Q(r) pseudized with  6 coefficients,  rinner =    1.300   1.300   1.300
                                                       1.300   1.300

     PseudoPot. # 2 for Bi read from file:
     /home/mamunm/src/pseudo/gbrv1.5pbe/Bi.UPF
     MD5 check sum: 81103212dc04adf40945787f699eab19
     Pseudo is Ultrasoft + core correction, Zval = 15.0
     Generated by new atomic code, or converted to UPF format
     Using radial grid of  899 points,  6 beta functions with:
                l(1) =   0
                l(2) =   0
                l(3) =   1
                l(4) =   1
                l(5) =   2
                l(6) =   2
     Q(r) pseudized with  6 coefficients,  rinner =    1.000   1.000   1.000
                                                       1.000   1.000

     vdW kernel table read from file vdW_kernel_table
     MD5 check sum: 095c7af220d748ca6e76c0b4c6cfb241

     atomic species   valence    mass     pseudopotential
        Ag1           19.00   107.86820     Ag( 1.00)
        Bi1           15.00   208.98040     Bi( 1.00)

     No symmetry found

   Cartesian axes

     site n.     atom                  positions (alat units)
         1           Ag1 tau(   1) = (   0.0000000   0.0000000  10.0000000  )
         2           Bi1 tau(   2) = (   1.4003766   2.9502357  10.0000000  )
         3           Bi1 tau(   3) = (   3.2657228   0.0000000  10.0000000  )
         4           Ag1 tau(   4) = (   4.6660993   2.9502357  10.0000000  )
         5           Ag1 tau(   5) = (   6.5314455   4.1296386  12.7042373  )
         6           Bi1 tau(   6) = (   5.1310690   1.1794029  12.7042373  )
         7           Bi1 tau(   7) = (   3.2657228   4.1296386  12.7042373  )
         8           Ag1 tau(   8) = (   1.8653462   1.1794029  12.7042373  )
         9           Ag1 tau(   9) = (   3.7306924   2.3588057  15.4084747  )
        10           Bi1 tau(  10) = (   5.1310690   5.3090414  15.4084747  )
        11           Bi1 tau(  11) = (   6.9964152   2.3588057  15.4084747  )
        12           Ag1 tau(  12) = (   8.3967917   5.3090414  15.4084747  )

     number of k points=    20  Fermi-Dirac smearing, width (Ry)=  0.0110
                       cart. coord. in units 2pi/alat
        k(    1) = (   0.0000000   0.0000000   0.0000000), wk =   0.0555556
        k(    2) = (   0.0000000   0.0282463  -0.0000000), wk =   0.1111111
        k(    3) = (   0.0000000   0.0564927  -0.0000000), wk =   0.1111111
        k(    4) = (   0.0000000  -0.0847390   0.0000000), wk =   0.0555556
        k(    5) = (   0.0255176  -0.0121123   0.0000000), wk =   0.1111111
        k(    6) = (   0.0255176   0.0161340  -0.0000000), wk =   0.1111111
        k(    7) = (   0.0255176   0.0443803  -0.0000000), wk =   0.1111111
        k(    8) = (   0.0255176  -0.0968513   0.0000000), wk =   0.1111111
        k(    9) = (   0.0255176  -0.0686050   0.0000000), wk =   0.1111111
        k(   10) = (   0.0255176  -0.0403587   0.0000000), wk =   0.1111111
        k(   11) = (   0.0510352  -0.0242247   0.0000000), wk =   0.1111111
        k(   12) = (   0.0510352   0.0040217  -0.0000000), wk =   0.1111111
        k(   13) = (   0.0510352   0.0322680  -0.0000000), wk =   0.1111111
        k(   14) = (   0.0510352  -0.1089636   0.0000000), wk =   0.1111111
        k(   15) = (   0.0510352  -0.0807173   0.0000000), wk =   0.1111111
        k(   16) = (   0.0510352  -0.0524710   0.0000000), wk =   0.1111111
        k(   17) = (  -0.0765527   0.0363370  -0.0000000), wk =   0.0555556
        k(   18) = (  -0.0765527   0.0645833  -0.0000000), wk =   0.1111111
        k(   19) = (  -0.0765527   0.0928296  -0.0000000), wk =   0.1111111
        k(   20) = (  -0.0765527  -0.0484020   0.0000000), wk =   0.0555556

     Largest allocated arrays     est. size (Mb)     dimensions
     Largest temporary arrays     est. size (Mb)     dimensions

     Initial potential from superposition of free atoms
     Check: negative starting charge=   -0.254943

     starting charge  194.99947, renormalised to  204.00000

     negative rho (up, down):  2.667E-01 0.000E+00

     *
     * You are using vdW-DF for exchange-correlation in this calculation.
     * Please cite the following three references that made this development
     * possible:
     *
     *   M. Dion, H. Rydberg, E. Schroder, D. C. Langreth, and
     *   B. I. Lundqvist, Phys. Rev. Lett. 92, 246401 (2004).
     *
     *   T. Thonhauser, V. R. Cooper, S. Li, A. Puzder, P. Hyldgaard, and
     *   D. C. Langreth, Phys. Rev. B 76, 125112 (2007).
     *
     *   G. Roman-Perez and J. M. Soler, Phys. Rev. Lett. 103, 096102 (2009).
     *
     *
     * If you are using vdW-DF2, please also cite:
     *
     *   K. Lee, E. D. Murray, L. Kong, B. I. Lundqvist, and
     *   D. C. Langreth, Phys. Rev. B 82, 081101(R) (2010).
     *
     *
     * If you are calculating the stress with vdW-DF, please also cite:
     *
     *   R. Sabatini, E. Kucukbenli, B. Kolb, T. Thonhauser, and
     *   S. de Gironcoli, J. Phys.: Condens. Matter 24, 424209 (2012).
     *

     Carrying out vdW-DF run using the following parameters:

     Nqs =      20    Nr_points =    1024   r_max =   100.000
     q_mesh =
               0.00001000     0.04494208     0.09755937     0.15916263
               0.23128650     0.31572767     0.41458969     0.53033537
               0.66584808     0.82450364     1.01025438     1.22772762
               1.48234092     1.78043706     2.12944203     2.53805004
               3.01644009     3.57652955     4.23227104     5.00000000

     Gradients computed in reciprocal space

     Adding external electric field

     Computed dipole along edir(3) :
        Dipole               -0.0000 Ry au,         -0.0000 Debye
        Dipole field         -0.0000 Ry au

        Potential amp.        0.0000 Ry
        Total length         46.8147 bohr

     Starting wfc are  132 randomized atomic wfcs

     Self-consistent Calculation

     iteration #  1     ecut=    36.75 Ry     beta=0.30
     Davidson diagonalization with overlap
     ethr =  1.00E-02,  avg # of iterations =  4.2

[...]

     total energy              =   -2879.87552325 Ry
     Harris-Foulkes estimate   =   -2910.82978102 Ry
     estimated scf accuracy    <      65.79894578 Ry

[...]

     End of self-consistent calculation

          k = 0.0000 0.0000 0.0000 ( 24837 PWs)   bands (ev):

   -91.2958 -91.2955 -90.9988 -90.9985 -90.9983 -90.9980 -54.8049 -54.8044
   -54.7869 -54.7865 -54.7834 -54.7766 -54.5130 -54.5126 -54.5125 -54.5121
   -54.5022 -54.5018 -54.4954 -54.4950 -54.4849 -54.4845 -54.4844 -54.4840
   -22.5975 -22.5563 -22.5393 -22.5351 -22.5338 -22.5325 -22.5285 -22.5117
   -22.4940 -22.4524 -22.3355 -22.3332 -22.2820 -22.2810 -22.2791 -22.2781
   -22.2483 -22.2470 -22.2468 -22.2443 -22.2431 -22.2428 -22.2397 -22.2392
   -22.2381 -22.2364 -22.2345 -22.2335 -22.1950 -22.1925 -11.1431 -10.3258
    -9.8407  -9.5732  -9.0110  -8.7759  -3.9488  -3.8610  -3.8003  -3.7966
    -3.7601  -3.7097  -3.6691  -3.6512  -3.6377  -3.5504  -3.5096  -3.5042
    -3.4567  -3.4282  -3.4053  -3.3875  -3.2481  -3.2433  -3.2362  -3.1868
    -3.1695  -3.1436  -3.1323  -3.1299  -3.1292  -3.1274  -3.0922  -3.0858
    -3.0426  -2.8657  -2.4883  -2.2556  -2.0598  -2.0069  -1.9233  -1.6356
    -1.3973  -1.2686  -0.8396  -0.6753  -0.0775   0.5143   0.6888   1.0435
     1.6254   2.1779   2.2119   2.3097   2.4660   3.0128   3.2399   3.5231

[...]

          k =-0.0766 0.0363-0.0000 ( 24846 PWs)   bands (ev):

[...]

     the Fermi energy is     0.9497 ev

!    total energy              =   -2902.82973355 Ry
     Harris-Foulkes estimate   =   -2902.82973454 Ry
     estimated scf accuracy    <       0.00000240 Ry

     The total energy is the sum of the following terms:

     one-electron contribution =  -15916.22778109 Ry
     hartree contribution      =    7977.87054928 Ry
     xc contribution           =    -579.68549712 Ry
     ewald contribution        =    5615.24402650 Ry
     electric field correction =       0.00000004 Ry
     smearing contrib. (-TS)   =      -0.03103114 Ry

     convergence has been achieved in  11 iterations

 BEEF-vdW xc energy contributions
           1 :   -512.352101974681
           2 :    472.210620343406
           3 :   -402.999177503257
           4 :    322.120880166399
           5 :   -246.587482098164
           6 :    187.464211756803
           7 :   -147.596914762104
           8 :    122.952813928355
           9 :   -106.319086708512
          10 :    91.2801222310716
          11 :   -74.6871198973830
          12 :    56.9063736270793
          13 :   -40.3558170224203
          14 :    27.5150144564848
          15 :   -19.5216827247472
          16 :    15.8403119729076
          17 :   -14.8180368191729
          18 :    14.5763992979194
          19 :   -13.7420943851198
          20 :    11.7851021124911
          21 :   -8.98390511315642
          22 :    6.13763550902627
          23 :   -4.15283337679512
          24 :    3.61949116721951
          25 :   -4.51509137826577
          26 :    6.17250708385711
          27 :   -7.57003778455964
          28 :    7.84029496663675
          29 :   -6.74621617083505
          30 :    4.84224561567362
          31 :   -43.9078561264382
          32 :   -32.1134122498538

     Forces acting on atoms (Ry/au):

     negative rho (up, down):  2.655E-01 0.000E+00
     atom    1 type  1   force =     0.00174585    0.00110484    0.00336298
     atom    2 type  2   force =    -0.00116595   -0.00073586    0.00660829
     atom    3 type  2   force =    -0.00116367   -0.00073591    0.00661524
     atom    4 type  1   force =     0.00174414    0.00110216    0.00336313
     atom    5 type  1   force =     0.00002138    0.00001598    0.00006905
     atom    6 type  2   force =    -0.00000296    0.00000719    0.00080902
     atom    7 type  2   force =     0.00001703    0.00000121    0.00081312
     atom    8 type  1   force =     0.00003362    0.00001897    0.00006682
     atom    9 type  1   force =    -0.00170145   -0.00107489   -0.00382736
     atom   10 type  2   force =     0.00108947    0.00068890   -0.00703647
     atom   11 type  2   force =     0.00109454    0.00069136   -0.00702168
     atom   12 type  1   force =    -0.00171199   -0.00108395   -0.00382215

     Total force =     0.011814     Total SCF correction =     0.004285
     SCF correction compared to forces is large: reduce conv_thr to get better values

     entering subroutine stress ...

     negative rho (up, down):  2.655E-01 0.000E+00
          total   stress  (Ry/bohr**3)                   (kbar)     P=  -11.24
  -0.00009042   0.00000604  -0.00000339        -13.30      0.89     -0.50
   0.00000604  -0.00009615  -0.00000214          0.89    -14.14     -0.31
  -0.00000339  -0.00000214  -0.00004272         -0.50     -0.31     -6.28

     BFGS Geometry Optimization

     number of scf cycles    =   1
     number of bfgs steps    =   0

     energy   new            =   -2902.8297335466 Ry

     new trust radius        =       0.0071535660 bohr
     new conv_thr            =       0.0000099958 Ry

ATOMIC_POSITIONS (crystal)
Ag1      0.000000000   0.000000000   0.393569474    0   0   0
Bi1     -0.000000000   0.500000000   0.393569474    0   0   0
Bi1      0.500000000   0.000000000   0.393569474    0   0   0
Ag1      0.500000000   0.500000000   0.393569474    0   0   0
Ag1      0.699882821   0.699882821   0.500000000    0   0   0
Bi1      0.699882821   0.199882821   0.500000000    0   0   0
Bi1      0.199882821   0.699882821   0.500000000    0   0   0
Ag1      0.199882821   0.199882821   0.500000000    0   0   0
Ag1      0.399669127   0.399669241   0.606350815
Bi1      0.399827416   0.899827425   0.606283979
Bi1      0.899827733   0.399827645   0.606284287
Ag1      0.899668621   0.899668428   0.606350923

     Writing output data file calc.save
     Check: negative starting charge=   -0.254943
     NEW-OLD atomic charge density approx. for the potential
     Check: negative starting charge=   -0.255016

[...]

     energy   old            =   -2902.8297335466 Ry
     energy   new            =   -2902.8298533370 Ry

     CASE: energy  _new < energy  _old

[...]

     WARNING: bfgs curvature condition failed, Theta= 0.667
     uphill step: resetting bfgs history

[...]

     Total force =     0.009458     Total SCF correction =     0.000575

[...]

     WARNING: bfgs curvature condition failed, Theta= 0.832
     new trust radius        =       0.0084323793 bohr
     new conv_thr            =       0.0000001000 Ry

[...]

     Total force =     0.005956     Total SCF correction =     0.000434

[...]

     iteration #  1     ecut=    36.75 Ry     beta=0.30
     Davidson diagonalization with overlap
     c_bands:  1 eigenvalues not converged
     c_bands:  1 eigenvalues not converged
     ethr =  1.00E-06,  avg # of iterations =  9.3

[...]

     number of scf cycles    =  10
     number of bfgs steps    =   9

     energy   old            =   -2902.8314272276 Ry
     energy   new            =   -2902.8316163735 Ry

     CASE: energy  _new < energy  _old

     new trust radius        =       0.0098362491 bohr
     new conv_thr            =       0.0000001000 Ry

ATOMIC_POSITIONS (crystal)
Ag1      0.000000000   0.000000000   0.393569474    0   0   0
Bi1     -0.000000000   0.500000000   0.393569474    0   0   0
Bi1      0.500000000   0.000000000   0.393569474    0   0   0
Ag1      0.500000000   0.500000000   0.393569474    0   0   0
Ag1      0.699882821   0.699882821   0.500000000    0   0   0
Bi1      0.699882821   0.199882821   0.500000000    0   0   0
Bi1      0.199882821   0.699882821   0.500000000    0   0   0
Ag1      0.199882821   0.199882821   0.500000000    0   0   0
Ag1      0.396768497   0.396767949   0.603357823
Bi1      0.400320823   0.900329637   0.602510449
Bi1      0.900329181   0.400320677   0.602510364
Ag1      0.896664192   0.896664231   0.603357200

     Writing output data file calc.save
     Check: negative starting charge=   -0.255202
     NEW-OLD atomic charge density approx. for the potential
     Check: negative starting charge=   -0.255205

[...]

     Self-consistent Calculation

[...]

     total energy              =   -2902.83163893 Ry
     Harris-Foulkes estimate   =   -2902.83163888 Ry
     estimated scf accuracy    <       0.00000035 Ry

     iteration #  6     ecut=    36.75 Ry     beta=0.30
     Davidson diagonalization with overlap
     ethr =  1.71E-10,  avg # of iterations =  3.0

[...]

     negative rho (up, down):  2.662E-01 0.000E+00

     Adding external electric field

     Computed dipole along edir(3) :
        Dipole                0.0086 Ry au,          0.0219 Debye
        Dipole field          0.0000 Ry au

        Potential amp.       -0.0015 Ry
        Total length         46.8147 bohr

     End of self-consistent calculation

[...]

          k = 0.0510-0.0525 0.0000 ( 24869 PWs)   bands (ev):

[...]

          k =-0.0766-0.0484 0.0000 ( 24908 PWs)   bands (ev):

   -91.3356 -91.3353 -91.0520 -91.0517 -90.9877 -90.9874 -54.8424 -54.8418
   -54.8301 -54.8296 -54.8227 -54.8159 -54.5647 -54.5641 -54.5550 -54.5481
   -54.5409 -54.5404 -54.5017 -54.5010 -54.4911 -54.4843 -54.4746 -54.4741
   -22.5966 -22.5538 -22.5387 -22.5372 -22.5352 -22.5324 -22.5294 -22.5095
   -22.4939 -22.4508 -22.3385 -22.3156 -22.2856 -22.2836 -22.2636 -22.2583
   -22.2500 -22.2467 -22.2460 -22.2420 -22.2412 -22.2400 -22.2280 -22.2252
   -22.2246 -22.2208 -22.2196 -22.2146 -22.1985 -22.1756 -10.8377 -10.3063
    -9.9626  -9.7723  -9.0147  -8.4432  -4.6027  -4.4925  -4.3731  -4.2966
    -4.2496  -3.9514  -3.9238  -3.8902  -3.8777  -3.8266  -3.8256  -3.7800
    -3.7287  -3.7036  -3.5401  -3.5313  -3.4993  -3.4418  -3.4406  -3.4232
    -3.3038  -3.2794  -3.2648  -3.2371  -3.1778  -3.1663  -3.1161  -3.0868
    -3.0827  -3.0536  -2.9155  -2.3282  -2.2590  -2.0761  -1.8069  -0.5580
    -0.3607   0.2050   0.4330   0.6733   1.0382   1.9790   2.0152   2.0452
     2.7198   2.9285   3.4035   3.6598   3.7579   3.8364   4.0779   4.0844

     the Fermi energy is     0.9625 ev

!    total energy              =   -2902.83163894 Ry
     Harris-Foulkes estimate   =   -2902.83163896 Ry
     estimated scf accuracy    <       0.00000004 Ry

     The total energy is the sum of the following terms:

     one-electron contribution =  -16106.14923991 Ry
     hartree contribution      =    8072.73401342 Ry
     xc contribution           =    -579.74363957 Ry
     ewald contribution        =    5710.35823720 Ry
     electric field correction =       0.00000014 Ry
     smearing contrib. (-TS)   =      -0.03101023 Ry

     convergence has been achieved in   6 iterations

 BEEF-vdW xc energy contributions
           1 :   -512.417409284533
           2 :    472.325252186339
           3 :   -403.171521752251
           4 :    322.306331849615
           5 :   -246.715235410191
           6 :    187.485184251701
           7 :   -147.518901624356
           8 :    122.838205999918
           9 :   -106.246610948352
          10 :    91.2961360097845
          11 :   -74.7796256471250
          12 :    57.0178398829883
          13 :   -40.4230459674841
          14 :    27.5079925143274
          15 :   -19.4570663305061
          16 :    15.7637108101975
          17 :   -14.7712346667373
          18 :    14.5738015748451
          19 :   -13.7702037084297
          20 :    11.8197978023992
          21 :   -9.00905868163397
          22 :    6.15122014105486
          23 :   -4.15898152373177
          24 :    3.61753822079424
          25 :   -4.49815602895410
          26 :    6.13749030906081
          27 :   -7.52877474064633
          28 :    7.81821004805988
          29 :   -6.76515175562338
          30 :    4.89898446191069
          31 :   -43.9140591355114
          32 :   -32.1314983115456

     Forces acting on atoms (Ry/au):

     negative rho (up, down):  2.662E-01 0.000E+00
     atom    1 type  1   force =     0.00167597    0.00105966    0.00344441
     atom    2 type  2   force =    -0.00085519   -0.00054136    0.00583170
     atom    3 type  2   force =    -0.00085580   -0.00054057    0.00583156
     atom    4 type  1   force =     0.00167982    0.00106212    0.00345514
     atom    5 type  1   force =     0.00050801    0.00032122   -0.00431087
     atom    6 type  2   force =    -0.00044603   -0.00028073   -0.00447829
     atom    7 type  2   force =    -0.00044490   -0.00028253   -0.00447810
     atom    8 type  1   force =     0.00051580    0.00032609   -0.00430766
     atom    9 type  1   force =    -0.00081765   -0.00051685   -0.00189708
     atom   10 type  2   force =    -0.00003241   -0.00000987    0.00140871
     atom   11 type  2   force =    -0.00002248   -0.00002487    0.00140897
     atom   12 type  1   force =    -0.00090513   -0.00057232   -0.00190850

     Total force =     0.003646     Total SCF correction =     0.000743
     SCF correction compared to forces is large: reduce conv_thr to get better values

     entering subroutine stress ...

     negative rho (up, down):  2.662E-01 0.000E+00
          total   stress  (Ry/bohr**3)                   (kbar)     P=  -10.09
  -0.00008402   0.00000628  -0.00000266        -12.36      0.92     -0.39
   0.00000628  -0.00008998  -0.00000168          0.92    -13.24     -0.25
  -0.00000266  -0.00000168  -0.00003175         -0.39     -0.25     -4.67

     bfgs converged in  11 scf cycles and  10 bfgs steps
     (criteria: energy <  1.0E+00, force <  1.9E-03)

     End of BFGS Geometry Optimization

     Final energy   =   -2902.8316389441 Ry
Begin final coordinates

ATOMIC_POSITIONS (crystal)
Ag1      0.000000000   0.000000000   0.393569474    0   0   0
Bi1     -0.000000000   0.500000000   0.393569474    0   0   0
Bi1      0.500000000   0.000000000   0.393569474    0   0   0
Ag1      0.500000000   0.500000000   0.393569474    0   0   0
Ag1      0.699882821   0.699882821   0.500000000    0   0   0
Bi1      0.699882821   0.199882821   0.500000000    0   0   0
Bi1      0.199882821   0.699882821   0.500000000    0   0   0
Ag1      0.199882821   0.199882821   0.500000000    0   0   0
Ag1      0.396768497   0.396767949   0.603357823
Bi1      0.400320823   0.900329637   0.602510449
Bi1      0.900329181   0.400320677   0.602510364
Ag1      0.896664192   0.896664231   0.603357200
End final coordinates

     Writing output data file calc.save

     General routines

     Parallel routines

   This run was terminated on:  21:25:38  23Feb2018

   JOB DONE.