     Program PWSCF v.5.1rc2 (svn rev. ) starts on 23Feb2018 at 20:39:32

     Current dimensions of program PWSCF are:
     Max number of different atomic species (ntypx) = 10
     Max number of k-points (npk) =  40000
     Max angular momentum in pseudopotentials (lmaxx) =  3
     Presently stress not available with electric field

     IMPORTANT: XC functional enforced from input :
     Exchange-correlation      = BEEF-VDW ( 1  4 27 13 2)
     Any further DFT definition will be discarded
     Please, verify this is what you really want

     Subspace diagonalization in iterative solution of the eigenvalue problem:
     a serial algorithm will be used

     Found symmetry operation: I + ( -0.5000  0.0000  0.0000)
     This is a supercell, fractional translations are disabled

     bravais-lattice index     =            0
     lattice parameter (alat)  =       1.8897  a.u.
     unit-cell volume          =    7983.7515 (a.u.)^3
     number of atoms/cell      =           12
     number of atomic types    =            2
     number of electrons       =       168.00
     number of Kohn-Sham states=           94
     kinetic-energy cutoff     =      36.7493  Ry
     charge density cutoff     =     367.4932  Ry
     convergence threshold     =      1.0E-05
     mixing beta               =       0.3000
     number of iterations used =           10  plain     mixing
     Exchange-correlation      = BEEF-VDW ( 1  4 27 13 2)
     nstep                     =           50

     celldm(1)=   1.889726  celldm(2)=   0.000000  celldm(3)=   0.000000
     celldm(4)=   0.000000  celldm(5)=   0.000000  celldm(6)=   0.000000

     crystal axes: (cart. coord. in units of alat)
               a(1) = (   6.981103   0.000000   0.000000 )
               a(2) = (  -3.490552   6.542043   0.000000 )
               a(3) = (   0.000000  -0.000000  25.904367 )

     reciprocal axes: (cart. coord. in units 2 pi/alat)
               b(1) = (  0.143244  0.076429  0.000000 )
               b(2) = (  0.000000  0.152857  0.000000 )
               b(3) = (  0.000000  0.000000  0.038604 )

     PseudoPot. # 1 for Tl read from file:
     /home/mamunm/src/pseudo/gbrv1.5pbe/Tl.UPF
     MD5 check sum: b76cf1f7e72655a2b2c53cf6385d7059
     Pseudo is Ultrasoft + core correction, Zval = 13.0
     Generated by new atomic code, or converted to UPF format
     Using radial grid of  899 points,  6 beta functions with:
                l(1) =   0
                l(2) =   0
                l(3) =   1
                l(4) =   1
                l(5) =   2
                l(6) =   2
     Q(r) pseudized with  6 coefficients,  rinner =    1.100   1.100   1.100
                                                       1.100   1.100

     PseudoPot. # 2 for Bi read from file:
     /home/mamunm/src/pseudo/gbrv1.5pbe/Bi.UPF
     MD5 check sum: 81103212dc04adf40945787f699eab19
     Pseudo is Ultrasoft + core correction, Zval = 15.0
     Generated by new atomic code, or converted to UPF format
     Using radial grid of  899 points,  6 beta functions with:
                l(1) =   0
                l(2) =   0
                l(3) =   1
                l(4) =   1
                l(5) =   2
                l(6) =   2
     Q(r) pseudized with  6 coefficients,  rinner =    1.000   1.000   1.000
                                                       1.000   1.000

     vdW kernel table read from file vdW_kernel_table
     MD5 check sum: 095c7af220d748ca6e76c0b4c6cfb241

     atomic species   valence    mass     pseudopotential
        Tl1           13.00   204.38000     Tl( 1.00)
        Bi1           15.00   208.98040     Bi( 1.00)

     No symmetry found

   Cartesian axes

     site n.     atom                  positions (alat units)
         1           Tl1 tau(   1) = (   0.0000000  -0.0000000  10.0000000  )
         2           Bi1 tau(   2) = (  -1.7452758   3.2710213  10.0000000  )
         3           Bi1 tau(   3) = (   1.7452758   3.2710213  10.0000000  )
         4           Tl1 tau(   4) = (   3.4905515  -0.0000000  10.0000000  )
         5           Tl1 tau(   5) = (   3.4905515   1.8624076  12.9521836  )
         6           Bi1 tau(   6) = (   1.7452758   5.1334289  12.9521836  )
         7           Bi1 tau(   7) = (  -1.7452758   5.1334289  12.9521836  )
         8           Tl1 tau(   8) = (   0.0000000   1.8624076  12.9521836  )
         9           Tl1 tau(   9) = (  -0.0000000   3.7248152  15.9043672  )
        10           Bi1 tau(  10) = (   1.7452758   0.4537939  15.9043672  )
        11           Bi1 tau(  11) = (   5.2358273   0.4537939  15.9043672  )
        12           Tl1 tau(  12) = (   3.4905515   3.7248152  15.9043672  )

     number of k points=    20  Fermi-Dirac smearing, width (Ry)=  0.0110
                       cart. coord. in units 2pi/alat
        k(    1) = (   0.0000000   0.0000000   0.0000000), wk =   0.0555556
        k(    2) = (   0.0000000   0.0254762   0.0000000), wk =   0.1111111
        k(    3) = (   0.0000000   0.0509525   0.0000000), wk =   0.1111111
        k(    4) = (   0.0000000  -0.0764287  -0.0000000), wk =   0.0555556
        k(    5) = (   0.0238740   0.0127381   0.0000000), wk =   0.1111111
        k(    6) = (   0.0238740   0.0382144   0.0000000), wk =   0.1111111
        k(    7) = (   0.0238740   0.0636906   0.0000000), wk =   0.1111111
        k(    8) = (   0.0238740  -0.0636906  -0.0000000), wk =   0.1111111
        k(    9) = (   0.0238740  -0.0382144  -0.0000000), wk =   0.1111111
        k(   10) = (   0.0238740  -0.0127381  -0.0000000), wk =   0.1111111
        k(   11) = (   0.0477479   0.0254762   0.0000000), wk =   0.1111111
        k(   12) = (   0.0477479   0.0509525   0.0000000), wk =   0.1111111
        k(   13) = (   0.0477479   0.0764287   0.0000000), wk =   0.1111111
        k(   14) = (   0.0477479  -0.0509525  -0.0000000), wk =   0.1111111
        k(   15) = (   0.0477479  -0.0254762  -0.0000000), wk =   0.1111111
        k(   16) = (   0.0477479   0.0000000   0.0000000), wk =   0.1111111
        k(   17) = (  -0.0716219  -0.0382144  -0.0000000), wk =   0.0555556
        k(   18) = (  -0.0716219  -0.0127381  -0.0000000), wk =   0.1111111
        k(   19) = (  -0.0716219   0.0127381   0.0000000), wk =   0.1111111
        k(   20) = (  -0.0716219  -0.1146431  -0.0000000), wk =   0.0555556

     Largest allocated arrays     est. size (Mb)     dimensions
     Largest temporary arrays     est. size (Mb)     dimensions

     Check: negative/imaginary core charge=   -0.000001    0.000000

     Initial potential from superposition of free atoms
     Check: negative starting charge=   -0.555947

     starting charge  161.97055, renormalised to  168.00000

     negative rho (up, down):  5.766E-01 0.000E+00

     *
     * You are using vdW-DF for exchange-correlation in this calculation.
     * Please cite the following three references that made this development
     * possible:
     *
     *   M. Dion, H. Rydberg, E. Schroder, D. C. Langreth, and
     *   B. I. Lundqvist, Phys. Rev. Lett. 92, 246401 (2004).
     *
     *   T. Thonhauser, V. R. Cooper, S. Li, A. Puzder, P. Hyldgaard, and
     *   D. C. Langreth, Phys. Rev. B 76, 125112 (2007).
     *
     *   G. Roman-Perez and J. M. Soler, Phys. Rev. Lett. 103, 096102 (2009).
     *
     *
     * If you are using vdW-DF2, please also cite:
     *
     *   K. Lee, E. D. Murray, L. Kong, B. I. Lundqvist, and
     *   D. C. Langreth, Phys. Rev. B 82, 081101(R) (2010).
     *
     *
     * If you are calculating the stress with vdW-DF, please also cite:
     *
     *   R. Sabatini, E. Kucukbenli, B. Kolb, T. Thonhauser, and
     *   S. de Gironcoli, J. Phys.: Condens. Matter 24, 424209 (2012).
     *

     Carrying out vdW-DF run using the following parameters:

     Nqs =      20    Nr_points =    1024   r_max =   100.000
     q_mesh =
               0.00001000     0.04494208     0.09755937     0.15916263
               0.23128650     0.31572767     0.41458969     0.53033537
               0.66584808     0.82450364     1.01025438     1.22772762
               1.48234092     1.78043706     2.12944203     2.53805004
               3.01644009     3.57652955     4.23227104     5.00000000

     Gradients computed in reciprocal space

     Adding external electric field

     Computed dipole along edir(3) :
        Dipole                0.0000 Ry au,          0.0000 Debye
        Dipole field          0.0000 Ry au

        Potential amp.       -0.0000 Ry
        Total length         47.7284 bohr

     Starting wfc are  108 randomized atomic wfcs

     Self-consistent Calculation

     iteration #  1     ecut=    36.75 Ry     beta=0.30
     Davidson diagonalization with overlap
     ethr =  1.00E-02,  avg # of iterations =  2.5

[...]

     total energy              =   -2003.61728817 Ry
     Harris-Foulkes estimate   =   -2004.84008321 Ry
     estimated scf accuracy    <       2.76525491 Ry

[...]

     iteration #  8     ecut=    36.75 Ry     beta=0.30
     Davidson diagonalization with overlap
     c_bands:  2 eigenvalues not converged
     ethr =  5.66E-07,  avg # of iterations =  6.0

[...]

     End of self-consistent calculation

          k = 0.0000 0.0000 0.0000 ( 30069 PWs)   bands (ev):

   -22.7632 -22.7221 -22.6847 -22.6832 -22.6794 -22.6748 -22.6724 -22.6701
   -22.6396 -22.6063 -22.5839 -22.5780 -22.5367 -22.5355 -22.5093 -22.5092
   -22.4944 -22.4935 -22.4814 -22.4798 -22.4779 -22.4775 -22.4767 -22.4755
   -22.4702 -22.4670 -22.4669 -22.4668 -22.4354 -22.4347 -11.5187 -11.4998
   -11.4074 -11.4032 -11.3825 -11.3784 -11.3674 -11.3606 -11.3397 -11.3256
   -11.2971 -11.2696 -11.2624 -11.2538 -11.2477 -11.2068 -11.1997 -11.1710
   -11.1590 -11.1565 -11.1323 -11.1245 -11.1044 -11.0755 -11.0311 -11.0212
   -10.9759 -10.9691 -10.9674 -10.9457 -10.8459 -10.4040  -9.8242  -9.5014
    -9.0613  -8.6893  -6.0744  -6.0463  -5.4544  -4.9170  -4.5725  -3.7389
    -2.9799  -2.7944  -2.1441  -2.1138  -2.0008  -1.8878  -1.7941  -1.6209
    -1.5178  -1.1159  -0.1608   0.9229   0.9274   1.5236   1.7587   2.2755
     2.4550   2.9787   2.9810   2.9923   3.0886   3.1859

[...]

          k =-0.0716-0.0382-0.0000 ( 30026 PWs)   bands (ev):

[...]

     the Fermi energy is     0.4742 ev

!    total energy              =   -2003.80025616 Ry
     Harris-Foulkes estimate   =   -2003.80025546 Ry
     estimated scf accuracy    <       0.00000086 Ry

     The total energy is the sum of the following terms:

     one-electron contribution =   -8473.88366466 Ry
     hartree contribution      =    4302.12597999 Ry
     xc contribution           =    -783.02500008 Ry
     ewald contribution        =    2951.03025377 Ry
     electric field correction =       0.00000001 Ry
     smearing contrib. (-TS)   =      -0.04782520 Ry

     convergence has been achieved in  11 iterations

 BEEF-vdW xc energy contributions
           1 :   -697.924527338083
           2 :    647.860006293678
           3 :   -559.960989769674
           4 :    453.804908354637
           5 :   -349.360314273553
           6 :    260.952725652836
           7 :   -194.304469364004
           8 :    147.206936771578
           9 :   -112.938294152853
          10 :    84.5148096064196
          11 :   -57.8340467032923
          12 :    32.5737877520115
          13 :   -10.9873161112417
          14 :   -4.31917499010012
          15 :    12.2793038287400
          16 :   -14.0636073518928
          17 :    12.4729286180994
          18 :   -10.5812581598251
          19 :    10.4207423283066
          20 :   -12.3492237005596
          21 :    15.2949567007340
          22 :   -17.6256980913978
          23 :    18.1204215510238
          24 :   -16.5658023767331
          25 :    13.7509883416908
          26 :   -10.9618980144636
          27 :    9.28933038566538
          28 :   -9.11253406390745
          29 :    9.98637797823642
          30 :   -10.9498952036014
          31 :   -55.7486285157321
          32 :   -40.7495098996141

     Forces acting on atoms (Ry/au):

     negative rho (up, down):  5.765E-01 0.000E+00
     atom    1 type  1   force =    -0.00000664   -0.00355423   -0.00347359
     atom    2 type  2   force =    -0.00000163    0.00565753    0.01214095
     atom    3 type  2   force =     0.00000234    0.00567093    0.01216253
     atom    4 type  1   force =     0.00001077   -0.00353484   -0.00350411
     atom    5 type  1   force =    -0.00005318    0.00006940    0.00015723
     atom    6 type  2   force =     0.00000281   -0.00009389   -0.00000207
     atom    7 type  2   force =    -0.00000538   -0.00003516    0.00007323
     atom    8 type  1   force =     0.00005271    0.00007165    0.00014988
     atom    9 type  1   force =     0.00001313    0.00355879    0.00331476
     atom   10 type  2   force =     0.00000420   -0.00567268   -0.01216117
     atom   11 type  2   force =    -0.00000349   -0.00570276   -0.01216925
     atom   12 type  1   force =    -0.00001563    0.00356525    0.00331162

     Total force =     0.020199     Total SCF correction =     0.000756

     entering subroutine stress ...

     negative rho (up, down):  5.765E-01 0.000E+00
          total   stress  (Ry/bohr**3)                   (kbar)     P=   -7.98
  -0.00005317   0.00000000   0.00000000         -7.82      0.00      0.00
   0.00000000  -0.00005437  -0.00000497          0.00     -8.00     -0.73
   0.00000000  -0.00000497  -0.00005521          0.00     -0.73     -8.12

     BFGS Geometry Optimization

     number of scf cycles    =   1
     number of bfgs steps    =   0

     energy   new            =   -2003.8002561627 Ry

     new trust radius        =       0.0134392052 bohr
     new conv_thr            =       0.0000099958 Ry

ATOMIC_POSITIONS (crystal)
Tl1      0.000000000   0.000000000   0.386035294    0   0   0
Bi1     -0.000000000   0.500000000   0.386035294    0   0   0
Bi1      0.500000000   0.500000000   0.386035294    0   0   0
Tl1      0.500000000   0.000000000   0.386035294    0   0   0
Tl1      0.642341445   0.284682889   0.500000000    0   0   0
Bi1      0.642341445   0.784682889   0.500000000    0   0   0
Bi1      0.142341445   0.784682889   0.500000000    0   0   0
Tl1      0.142341445   0.284682889   0.500000000    0   0   0
Tl1      0.284827817   0.569653644   0.614032420
Bi1      0.284453780   0.068906923   0.613716276
Bi1      0.784451980   0.068904490   0.613716111
Tl1      0.784825899   0.569654167   0.614032356

     Writing output data file calc.save
     Check: negative starting charge=   -0.555947
     NEW-OLD atomic charge density approx. for the potential

     Check: negative/imaginary core charge=   -0.000001    0.000000
     Check: negative starting charge=   -0.555629

[...]

     Total force =     0.019581     Total SCF correction =     0.002318
     SCF correction compared to forces is large: reduce conv_thr to get better values

[...]

     energy   old            =   -2003.8002561627 Ry
     energy   new            =   -2003.8006488410 Ry

     CASE: energy  _new < energy  _old

     WARNING: bfgs curvature condition failed, Theta= 0.832
     new trust radius        =       0.0201588078 bohr
     new conv_thr            =       0.0000001000 Ry

[...]

     Total force =     0.013815     Total SCF correction =     0.000690

[...]

     number of scf cycles    =   7
     number of bfgs steps    =   6

     energy   old            =   -2003.8047911482 Ry
     energy   new            =   -2003.8066043955 Ry

     CASE: energy  _new < energy  _old

     new trust radius        =       0.1530809466 bohr
     new conv_thr            =       0.0000001000 Ry

ATOMIC_POSITIONS (crystal)
Tl1      0.000000000   0.000000000   0.386035294    0   0   0
Bi1     -0.000000000   0.500000000   0.386035294    0   0   0
Bi1      0.500000000   0.500000000   0.386035294    0   0   0
Tl1      0.500000000   0.000000000   0.386035294    0   0   0
Tl1      0.642341445   0.284682889   0.500000000    0   0   0
Bi1      0.642341445   0.784682889   0.500000000    0   0   0
Bi1      0.142341445   0.784682889   0.500000000    0   0   0
Tl1      0.142341445   0.284682889   0.500000000    0   0   0
Tl1      0.289565198   0.579117416   0.616200857
Bi1      0.277171723   0.054335724   0.605995943
Bi1      0.777148570   0.054301936   0.605993661
Tl1      0.789548588   0.579122311   0.616200732

     Writing output data file calc.save
     Check: negative starting charge=   -0.556945
     NEW-OLD atomic charge density approx. for the potential

     Check: negative/imaginary core charge=   -0.000001    0.000000
     Check: negative starting charge=   -0.555553

[...]

     Self-consistent Calculation

     iteration #  1     ecut=    36.75 Ry     beta=0.30
     Davidson diagonalization with overlap
     c_bands:  1 eigenvalues not converged
     c_bands:  1 eigenvalues not converged
     ethr =  1.00E-06,  avg # of iterations =  9.3

[...]

     total energy              =   -2003.80788077 Ry
     Harris-Foulkes estimate   =   -2003.80788114 Ry
     estimated scf accuracy    <       0.00000054 Ry

     iteration # 10     ecut=    36.75 Ry     beta=0.30
     Davidson diagonalization with overlap
     ethr =  3.23E-10,  avg # of iterations =  4.0

[...]

     negative rho (up, down):  5.766E-01 0.000E+00

     Adding external electric field

     Computed dipole along edir(3) :
        Dipole                0.0913 Ry au,          0.2320 Debye
        Dipole field          0.0001 Ry au

        Potential amp.       -0.0137 Ry
        Total length         47.7284 bohr

     End of self-consistent calculation

[...]

          k = 0.0477 0.0000 0.0000 ( 30013 PWs)   bands (ev):

[...]

          k =-0.0716-0.1146-0.0000 ( 30026 PWs)   bands (ev):

   -22.6817 -22.6816 -22.6584 -22.6583 -22.6311 -22.6310 -22.6201 -22.6200
   -22.6159 -22.6158 -22.4973 -22.4972 -22.4925 -22.4924 -22.4673 -22.4672
   -22.4577 -22.4574 -22.4546 -22.4543 -22.4503 -22.4502 -22.4406 -22.4404
   -22.4336 -22.4333 -22.4192 -22.4188 -22.4141 -22.4137 -11.3446 -11.3445
   -11.3321 -11.3321 -11.2974 -11.2974 -11.2887 -11.2887 -11.2682 -11.2682
   -11.2564 -11.2564 -11.2411 -11.2411 -11.2244 -11.2244 -11.2068 -11.2068
   -11.1889 -11.1889 -11.0510 -11.0509 -11.0133 -11.0133 -11.0056 -11.0056
   -10.9954 -10.9954 -10.9647 -10.9647 -10.5028 -10.5026  -9.8310  -9.8308
    -9.2903  -9.2903  -6.0357  -6.0356  -5.4222  -5.4220  -4.8604  -4.8604
    -1.7384  -1.7382  -1.2282  -1.2281  -0.7227  -0.7226  -0.4479  -0.4478
    -0.1401  -0.1401   0.3508   0.3508   0.4942   0.4944   0.7650   0.7652
     1.9199   1.9200   2.4528   2.4528   2.6736   2.6737

     the Fermi energy is     0.5240 ev

!    total energy              =   -2003.80788049 Ry
     Harris-Foulkes estimate   =   -2003.80788091 Ry
     estimated scf accuracy    <       0.00000008 Ry

     The total energy is the sum of the following terms:

     one-electron contribution =   -8574.41691588 Ry
     hartree contribution      =    4352.60803621 Ry
     xc contribution           =    -783.10344918 Ry
     ewald contribution        =    3001.15123582 Ry
     electric field correction =       0.00001312 Ry
     smearing contrib. (-TS)   =      -0.04680058 Ry

     convergence has been achieved in  10 iterations

 BEEF-vdW xc energy contributions
           1 :   -698.006399996761
           2 :    647.980352167190
           3 :   -560.130996333083
           4 :    453.993297887950
           5 :   -349.503464260322
           6 :    260.989694068771
           7 :   -194.216760052680
           8 :    147.036916697287
           9 :   -112.772334054009
          10 :    84.4393187353030
          11 :   -57.8891299793700
          12 :    32.7311129816530
          13 :   -11.1653042645780
          14 :   -4.21088524081506
          15 :    12.2907818692347
          16 :   -14.1783550694630
          17 :    12.6193960548306
          18 :   -10.6747414946649
          19 :    10.4104155567350
          20 :   -12.2438880038616
          21 :    15.1547727715458
          22 :   -17.5268929479223
          23 :    18.1140528711785
          24 :   -16.6527994137136
          25 :    13.8848271235333
          26 :   -11.0749462569072
          27 :    9.32740187107038
          28 :   -9.06028520261339
          29 :    9.87251540912689
          30 :   -10.8310941926218
          31 :   -55.7558345564692
          32 :   -40.7663086387410

     Forces acting on atoms (Ry/au):

     negative rho (up, down):  5.766E-01 0.000E+00
     atom    1 type  1   force =     0.00000282   -0.00279631   -0.00385666
     atom    2 type  2   force =    -0.00000298    0.00216466    0.00809965
     atom    3 type  2   force =     0.00000032    0.00214847    0.00805633
     atom    4 type  1   force =    -0.00000211   -0.00280422   -0.00386043
     atom    5 type  1   force =     0.00002088    0.00270408   -0.00249666
     atom    6 type  2   force =    -0.00000263   -0.00269757   -0.00274943
     atom    7 type  2   force =     0.00000027   -0.00272472   -0.00277296
     atom    8 type  1   force =    -0.00001947    0.00270080   -0.00248937
     atom    9 type  1   force =    -0.00000919    0.00069228    0.00125092
     atom   10 type  2   force =     0.00000287   -0.00005647   -0.00022444
     atom   11 type  2   force =    -0.00000583   -0.00002537   -0.00019734
     atom   12 type  1   force =     0.00001504    0.00069436    0.00124040

     Total force =     0.002039     Total SCF correction =     0.000335
     SCF correction compared to forces is large: reduce conv_thr to get better values

     entering subroutine stress ...

     negative rho (up, down):  5.766E-01 0.000E+00
          total   stress  (Ry/bohr**3)                   (kbar)     P=   -5.99
  -0.00004799  -0.00000000  -0.00000000         -7.06     -0.00     -0.00
  -0.00000000  -0.00004050   0.00000186         -0.00     -5.96      0.27
  -0.00000000   0.00000186  -0.00003363         -0.00      0.27     -4.95

     bfgs converged in   8 scf cycles and   7 bfgs steps
     (criteria: energy <  1.0E+00, force <  1.9E-03)

     End of BFGS Geometry Optimization

     Final energy   =   -2003.8078804937 Ry
Begin final coordinates

ATOMIC_POSITIONS (crystal)
Tl1      0.000000000   0.000000000   0.386035294    0   0   0
Bi1     -0.000000000   0.500000000   0.386035294    0   0   0
Bi1      0.500000000   0.500000000   0.386035294    0   0   0
Tl1      0.500000000   0.000000000   0.386035294    0   0   0
Tl1      0.642341445   0.284682889   0.500000000    0   0   0
Bi1      0.642341445   0.784682889   0.500000000    0   0   0
Bi1      0.142341445   0.784682889   0.500000000    0   0   0
Tl1      0.142341445   0.284682889   0.500000000    0   0   0
Tl1      0.289565198   0.579117416   0.616200857
Bi1      0.277171723   0.054335724   0.605995943
Bi1      0.777148570   0.054301936   0.605993661
Tl1      0.789548588   0.579122311   0.616200732
End final coordinates

     Writing output data file calc.save

     General routines

     Parallel routines

   This run was terminated on:  21:21:53  23Feb2018

   JOB DONE.