     Program PWSCF v.5.1rc2 (svn rev. ) starts on 23Feb2018 at 20:50:42

     Current dimensions of program PWSCF are:
     Max number of different atomic species (ntypx) = 10
     Max number of k-points (npk) =  40000
     Max angular momentum in pseudopotentials (lmaxx) =  3
     Presently stress not available with electric field

     IMPORTANT: XC functional enforced from input :
     Exchange-correlation      = BEEF-VDW ( 1  4 27 13 2)
     Any further DFT definition will be discarded
     Please, verify this is what you really want

     Subspace diagonalization in iterative solution of the eigenvalue problem:
     a serial algorithm will be used

     Found symmetry operation: I + ( -0.5000 -0.5000  0.0000)
     This is a supercell, fractional translations are disabled

     bravais-lattice index     =            0
     lattice parameter (alat)  =       1.8897  a.u.
     unit-cell volume          =    5570.9886 (a.u.)^3
     number of atoms/cell      =           12
     number of atomic types    =            2
     number of electrons       =       186.00
     number of Kohn-Sham states=          103
     kinetic-energy cutoff     =      36.7493  Ry
     charge density cutoff     =     367.4932  Ry
     convergence threshold     =      1.0E-05
     mixing beta               =       0.3000
     number of iterations used =           10  plain     mixing
     Exchange-correlation      = BEEF-VDW ( 1  4 27 13 2)
     nstep                     =           50

     celldm(1)=   1.889726  celldm(2)=   0.000000  celldm(3)=   0.000000
     celldm(4)=   0.000000  celldm(5)=   0.000000  celldm(6)=   0.000000

     crystal axes: (cart. coord. in units of alat)
               a(1) = (   5.937287   0.000000   0.000000 )
               a(2) = (   1.985929   5.595307   0.000000 )
               a(3) = (   0.000000  -0.000000  24.849850 )

     reciprocal axes: (cart. coord. in units 2 pi/alat)
               b(1) = (  0.168427 -0.059779 -0.000000 )
               b(2) = (  0.000000  0.178721  0.000000 )
               b(3) = (  0.000000  0.000000  0.040242 )

     PseudoPot. # 1 for Os read from file:
     /home/mamunm/src/pseudo/gbrv1.5pbe/Os.UPF
     MD5 check sum: a3fb40a04f0c37c25c34bbc47164c9a8
     Pseudo is Ultrasoft + core correction, Zval = 16.0
     Generated by new atomic code, or converted to UPF format
     Using radial grid of  983 points,  8 beta functions with:
                l(1) =   0
                l(2) =   0
                l(3) =   1
                l(4) =   1
                l(5) =   2
                l(6) =   2
                l(7) =   3
                l(8) =   3
     Q(r) pseudized with  8 coefficients,  rinner =    1.150   1.150   1.150
                                                       1.150   1.150   1.150
                                                       1.150

     PseudoPot. # 2 for Bi read from file:
     /home/mamunm/src/pseudo/gbrv1.5pbe/Bi.UPF
     MD5 check sum: 81103212dc04adf40945787f699eab19
     Pseudo is Ultrasoft + core correction, Zval = 15.0
     Generated by new atomic code, or converted to UPF format
     Using radial grid of  899 points,  6 beta functions with:
                l(1) =   0
                l(2) =   0
                l(3) =   1
                l(4) =   1
                l(5) =   2
                l(6) =   2
     Q(r) pseudized with  6 coefficients,  rinner =    1.000   1.000   1.000
                                                       1.000   1.000

     vdW kernel table read from file vdW_kernel_table
     MD5 check sum: 095c7af220d748ca6e76c0b4c6cfb241

     atomic species   valence    mass     pseudopotential
        Os1           16.00   190.23000     Os( 1.00)
        Bi1           15.00   208.98040     Bi( 1.00)

     No symmetry found

   Cartesian axes

     site n.     atom                  positions (alat units)
         1           Os1 tau(   1) = (   0.0000000  -0.0000000  10.0000000  )
         2           Bi1 tau(   2) = (   0.9929646   2.7976533  10.0000000  )
         3           Bi1 tau(   3) = (   2.9686433  -0.0000000  10.0000000  )
         4           Os1 tau(   4) = (   3.9616078   2.7976533  10.0000000  )
         5           Os1 tau(   5) = (   5.9372865   4.1928606  12.4249249  )
         6           Bi1 tau(   6) = (   4.9443219   1.3952073  12.4249249  )
         7           Bi1 tau(   7) = (   2.9686433   4.1928606  12.4249249  )
         8           Os1 tau(   8) = (   1.9756787   1.3952073  12.4249249  )
         9           Os1 tau(   9) = (   3.9513573   2.7904145  14.8498498  )
        10           Bi1 tau(  10) = (   4.9443219   5.5880678  14.8498498  )
        11           Bi1 tau(  11) = (   6.9200006   2.7904145  14.8498498  )
        12           Os1 tau(  12) = (   7.9129652   5.5880678  14.8498498  )

     number of k points=    20  Fermi-Dirac smearing, width (Ry)=  0.0110
                       cart. coord. in units 2pi/alat
        k(    1) = (   0.0000000   0.0000000   0.0000000), wk =   0.0555556
        k(    2) = (   0.0000000   0.0297869   0.0000000), wk =   0.1111111
        k(    3) = (   0.0000000   0.0595737   0.0000000), wk =   0.1111111
        k(    4) = (   0.0000000  -0.0893606  -0.0000000), wk =   0.0555556
        k(    5) = (   0.0280712  -0.0099632  -0.0000000), wk =   0.1111111
        k(    6) = (   0.0280712   0.0198236   0.0000000), wk =   0.1111111
        k(    7) = (   0.0280712   0.0496105   0.0000000), wk =   0.1111111
        k(    8) = (   0.0280712  -0.0993238  -0.0000000), wk =   0.1111111
        k(    9) = (   0.0280712  -0.0695370  -0.0000000), wk =   0.1111111
        k(   10) = (   0.0280712  -0.0397501  -0.0000000), wk =   0.1111111
        k(   11) = (   0.0561424  -0.0199265  -0.0000000), wk =   0.1111111
        k(   12) = (   0.0561424   0.0098604  -0.0000000), wk =   0.1111111
        k(   13) = (   0.0561424   0.0396473   0.0000000), wk =   0.1111111
        k(   14) = (   0.0561424  -0.1092871  -0.0000000), wk =   0.1111111
        k(   15) = (   0.0561424  -0.0795002  -0.0000000), wk =   0.1111111
        k(   16) = (   0.0561424  -0.0497133  -0.0000000), wk =   0.1111111
        k(   17) = (  -0.0842136   0.0298897   0.0000000), wk =   0.0555556
        k(   18) = (  -0.0842136   0.0596766   0.0000000), wk =   0.1111111
        k(   19) = (  -0.0842136   0.0894635   0.0000000), wk =   0.1111111
        k(   20) = (  -0.0842136  -0.0594709  -0.0000000), wk =   0.0555556

     Largest allocated arrays     est. size (Mb)     dimensions
     Largest temporary arrays     est. size (Mb)     dimensions

     Initial potential from superposition of free atoms
     Check: negative starting charge=   -1.007566

     starting charge  176.99953, renormalised to  186.00000

     negative rho (up, down):  1.059E+00 0.000E+00

     *
     * You are using vdW-DF for exchange-correlation in this calculation.
     * Please cite the following three references that made this development
     * possible:
     *
     *   M. Dion, H. Rydberg, E. Schroder, D. C. Langreth, and
     *   B. I. Lundqvist, Phys. Rev. Lett. 92, 246401 (2004).
     *
     *   T. Thonhauser, V. R. Cooper, S. Li, A. Puzder, P. Hyldgaard, and
     *   D. C. Langreth, Phys. Rev. B 76, 125112 (2007).
     *
     *   G. Roman-Perez and J. M. Soler, Phys. Rev. Lett. 103, 096102 (2009).
     *
     *
     * If you are using vdW-DF2, please also cite:
     *
     *   K. Lee, E. D. Murray, L. Kong, B. I. Lundqvist, and
     *   D. C. Langreth, Phys. Rev. B 82, 081101(R) (2010).
     *
     *
     * If you are calculating the stress with vdW-DF, please also cite:
     *
     *   R. Sabatini, E. Kucukbenli, B. Kolb, T. Thonhauser, and
     *   S. de Gironcoli, J. Phys.: Condens. Matter 24, 424209 (2012).
     *

     Carrying out vdW-DF run using the following parameters:

     Nqs =      20    Nr_points =    1024   r_max =   100.000
     q_mesh =
               0.00001000     0.04494208     0.09755937     0.15916263
               0.23128650     0.31572767     0.41458969     0.53033537
               0.66584808     0.82450364     1.01025438     1.22772762
               1.48234092     1.78043706     2.12944203     2.53805004
               3.01644009     3.57652955     4.23227104     5.00000000

     Gradients computed in reciprocal space

     Adding external electric field

     Computed dipole along edir(3) :
        Dipole               -0.0000 Ry au,         -0.0000 Debye
        Dipole field         -0.0000 Ry au

        Potential amp.        0.0000 Ry
        Total length         45.7854 bohr

     Starting wfc are  132 randomized atomic wfcs

     Self-consistent Calculation

     iteration #  1     ecut=    36.75 Ry     beta=0.30
     Davidson diagonalization with overlap
     ethr =  1.00E-02,  avg # of iterations =  2.3

[...]

     total energy              =   -2320.51850932 Ry
     Harris-Foulkes estimate   =   -2322.33878959 Ry
     estimated scf accuracy    <       4.19516498 Ry

[...]

     End of self-consistent calculation

          k = 0.0000 0.0000 0.0000 ( 20983 PWs)   bands (ev):

   -84.0525 -84.0511 -83.6984 -83.6983 -83.6972 -83.6970 -43.4472 -43.4044
   -43.3909 -43.3874 -43.3335 -43.3296 -43.1130 -43.1122 -43.1095 -43.1085
   -43.0866 -43.0863 -43.0448 -43.0446 -42.9177 -42.9167 -42.9138 -42.9130
   -21.4392 -21.3945 -21.3936 -21.3587 -21.3577 -21.3509 -21.3506 -21.3444
   -21.3346 -21.3254 -21.3008 -21.2990 -21.2909 -21.2898 -21.2784 -21.2691
   -21.2462 -21.2459 -21.2442 -21.2414 -21.2364 -21.2316 -21.2259 -21.2235
   -21.2157 -21.2122 -21.1790 -21.1731 -21.1663 -21.1505 -11.3332 -10.0361
    -9.0222  -8.8563  -8.4910  -8.4879  -3.0698  -3.0261  -2.2540  -2.2225
    -2.0562  -1.9645  -1.8839  -1.3233  -1.1098  -0.9646  -0.7284  -0.7191
    -0.5212  -0.1172  -0.0550   0.2944   0.3876   0.3956   0.5376   0.6868
     0.7146   0.7241   0.7816   0.7871   0.9060   0.9356   1.0016   1.1632
     1.2477   1.4158   1.4349   1.5893   1.6390   1.6746   1.8934   2.1046
     2.4264   2.4377   2.4654   2.5483   2.5512   2.8694   3.1676

[...]

          k =-0.0842 0.0299 0.0000 ( 20948 PWs)   bands (ev):

[...]

     the Fermi energy is     1.9419 ev

!    total energy              =   -2320.81621294 Ry
     Harris-Foulkes estimate   =   -2320.81621698 Ry
     estimated scf accuracy    <       0.00000558 Ry

     The total energy is the sum of the following terms:

     one-electron contribution =  -15192.69470383 Ry
     hartree contribution      =    7616.73382878 Ry
     xc contribution           =    -632.01743071 Ry
     ewald contribution        =    5887.24677858 Ry
     electric field correction =       0.00000080 Ry
     smearing contrib. (-TS)   =      -0.08468656 Ry

     convergence has been achieved in  14 iterations

 BEEF-vdW xc energy contributions
           1 :   -559.998573381578
           2 :    519.891350786098
           3 :   -449.085285231603
           4 :    362.990401179777
           5 :   -277.988136674190
           6 :    206.709404786975
           7 :   -155.154153063392
           8 :    122.382459299710
           9 :   -102.579751135827
          10 :    88.4100010401265
          11 :   -74.1896509664989
          12 :    57.6637794748892
          13 :   -39.9369131626054
          14 :    23.9515171210976
          15 :   -12.4732574342345
          16 :    6.57991180882550
          17 :   -5.25634924991255
          18 :    6.08893876043521
          19 :   -6.55458979057221
          20 :    5.18749580064889
          21 :   -2.06630903903897
          22 :   -1.53523026318351
          23 :    4.04937377030490
          24 :   -4.54239556793391
          25 :    3.18853743263435
          26 :   -1.09951194042060
          27 :  -0.335117628477292
          28 :   0.203700485087211
          29 :    1.47959029233346
          30 :   -3.84808366938637
          31 :   -47.6438813298824
          32 :   -35.5611941693259

     Forces acting on atoms (Ry/au):

     negative rho (up, down):  9.631E-01 0.000E+00
     atom    1 type  1   force =     0.00016737    0.00011823    0.06354511
     atom    2 type  2   force =    -0.00034521   -0.00052137   -0.03744761
     atom    3 type  2   force =    -0.00059630   -0.00014701   -0.03744846
     atom    4 type  1   force =     0.00032427    0.00023135    0.06346531
     atom    5 type  1   force =     0.00010808    0.00007613    0.00166868
     atom    6 type  2   force =    -0.00022623    0.00030869   -0.00200812
     atom    7 type  2   force =     0.00022298   -0.00031237   -0.00201230
     atom    8 type  1   force =    -0.00011598   -0.00007786    0.00164823
     atom    9 type  1   force =    -0.00018950   -0.00012720   -0.06058521
     atom   10 type  2   force =     0.00037517    0.00048988    0.03495612
     atom   11 type  2   force =     0.00057667    0.00018146    0.03495765
     atom   12 type  1   force =    -0.00030132   -0.00021993   -0.06073940

     Total force =     0.099019     Total SCF correction =     0.007559

     entering subroutine stress ...

     negative rho (up, down):  9.631E-01 0.000E+00
          total   stress  (Ry/bohr**3)                   (kbar)     P=  -24.24
  -0.00018418   0.00002598   0.00000080        -27.09      3.82      0.12
   0.00002598  -0.00020262   0.00000057          3.82    -29.81      0.08
   0.00000080   0.00000057  -0.00010748          0.12      0.08    -15.81

     BFGS Geometry Optimization

     number of scf cycles    =   1
     number of bfgs steps    =   0

     energy   new            =   -2320.8162129410 Ry

     new trust radius        =       0.0607405406 bohr
     new conv_thr            =       0.0000099958 Ry

ATOMIC_POSITIONS (crystal)
Os1      0.000000000  -0.000000000   0.402416919    0   0   0
Bi1     -0.000000000   0.500000000   0.402416919    0   0   0
Bi1      0.500000000  -0.000000000   0.402416919    0   0   0
Os1      0.500000000   0.500000000   0.402416919    0   0   0
Os1      0.749353137   0.749353137   0.500000000    0   0   0
Bi1      0.749353137   0.249353137   0.500000000    0   0   0
Bi1      0.249353137   0.749353137   0.500000000    0   0   0
Os1      0.249353137   0.249353137   0.500000000    0   0   0
Os1      0.498693407   0.498694243   0.596292920
Bi1      0.498724214   0.998752603   0.598327471
Bi1      0.998751930   0.498723434   0.598327504
Os1      0.998686374   0.998685473   0.596289636

     Writing output data file calc.save
     Check: negative starting charge=   -1.007566
     NEW-OLD atomic charge density approx. for the potential
     Check: negative starting charge=   -1.007554

[...]

     energy   old            =   -2320.8162129410 Ry
     energy   new            =   -2320.8259461147 Ry

     CASE: energy  _new < energy  _old

     WARNING: bfgs curvature condition failed, Theta= 0.828
     new trust radius        =       0.0668145946 bohr
     new conv_thr            =       0.0000001000 Ry

[...]

     Total force =     0.007887     Total SCF correction =     0.000581

[...]

     number of scf cycles    =   6
     number of bfgs steps    =   5

     energy   old            =   -2320.8649891765 Ry
     energy   new            =   -2320.8768063279 Ry

     CASE: energy  _new < energy  _old

     new trust radius        =       0.0371817876 bohr
     new conv_thr            =       0.0000001000 Ry

ATOMIC_POSITIONS (crystal)
Os1      0.000000000  -0.000000000   0.402416919    0   0   0
Bi1     -0.000000000   0.500000000   0.402416919    0   0   0
Bi1      0.500000000  -0.000000000   0.402416919    0   0   0
Os1      0.500000000   0.500000000   0.402416919    0   0   0
Os1      0.749353137   0.749353137   0.500000000    0   0   0
Bi1      0.749353137   0.249353137   0.500000000    0   0   0
Bi1      0.249353137   0.749353137   0.500000000    0   0   0
Os1      0.249353137   0.249353137   0.500000000    0   0   0
Os1      0.498612407   0.498618478   0.583952281
Bi1      0.498963724   0.999112299   0.604357383
Bi1      0.999108746   0.498959591   0.604357546
Os1      0.998557047   0.998550642   0.583940363

     Writing output data file calc.save
     Check: negative starting charge=   -1.006507
     NEW-OLD atomic charge density approx. for the potential
     Check: negative starting charge=   -1.006507

[...]

     Self-consistent Calculation

[...]

     total energy              =   -2320.87698750 Ry
     Harris-Foulkes estimate   =   -2320.87698740 Ry
     estimated scf accuracy    <       0.00000026 Ry

     iteration # 12     ecut=    36.75 Ry     beta=0.30
     Davidson diagonalization with overlap
     ethr =  1.39E-10,  avg # of iterations =  2.0

[...]

     negative rho (up, down):  9.646E-01 0.000E+00

     Adding external electric field

     Computed dipole along edir(3) :
        Dipole                0.1437 Ry au,          0.3653 Debye
        Dipole field          0.0003 Ry au

        Potential amp.       -0.0297 Ry
        Total length         45.7854 bohr

     End of self-consistent calculation

[...]

          k = 0.0561-0.0497-0.0000 ( 20944 PWs)   bands (ev):

[...]

          k =-0.0842-0.0595-0.0000 ( 20998 PWs)   bands (ev):

   -83.8765 -83.8755 -83.6288 -83.6278 -83.5779 -83.5770 -43.2217 -43.2047
   -43.1983 -43.1981 -43.1946 -43.1791 -43.0331 -43.0110 -43.0066 -42.9892
   -42.9719 -42.9710 -42.9678 -42.9291 -42.9210 -42.9187 -42.8113 -42.8078
   -21.3392 -21.2820 -21.2703 -21.2673 -21.2670 -21.2561 -21.2456 -21.2266
   -21.2161 -21.1989 -21.1669 -21.1493 -21.1485 -21.1314 -21.0964 -21.0949
   -21.0933 -21.0886 -21.0769 -21.0759 -21.0737 -21.0689 -21.0689 -21.0649
   -21.0648 -21.0426 -21.0408 -21.0311 -21.0036 -20.9956 -10.1381  -9.6325
    -9.2844  -9.2730  -8.1623  -7.3180  -4.8015  -4.5535  -4.1559  -3.1672
    -2.9462  -2.8428  -2.6455  -2.0898  -1.5769  -0.9001  -0.5372  -0.5233
    -0.4298  -0.3836  -0.3625  -0.2858  -0.2147   0.0461   0.1481   0.2578
     0.5687   0.7740   1.1425   1.1565   1.3350   1.5321   1.6200   1.6226
     1.7270   1.7965   1.9793   2.0522   2.1799   2.5850   2.6245   2.7211
     2.9096   3.2471   3.4886   3.6731   4.7387   4.7969   5.0731

     the Fermi energy is     2.0783 ev

!    total energy              =   -2320.87698752 Ry
     Harris-Foulkes estimate   =   -2320.87698789 Ry
     estimated scf accuracy    <       0.00000003 Ry

     The total energy is the sum of the following terms:

     one-electron contribution =  -15376.24881957 Ry
     hartree contribution      =    7709.35222047 Ry
     xc contribution           =    -632.13434377 Ry
     ewald contribution        =    5978.22337819 Ry
     electric field correction =       0.00004658 Ry
     smearing contrib. (-TS)   =      -0.06946942 Ry

     convergence has been achieved in  12 iterations

 BEEF-vdW xc energy contributions
           1 :   -560.120727274963
           2 :    520.076345616151
           3 :   -449.363006508440
           4 :    363.337412236182
           5 :   -278.332999820864
           6 :    206.963959944688
           7 :   -155.254090362314
           8 :    122.317033731988
           9 :   -102.397253156169
          10 :    88.1972538603710
          11 :   -74.0357643344297
          12 :    57.6247612057841
          13 :   -40.0159488745894
          14 :    24.1022914310954
          15 :   -12.6239400820634
          16 :    6.66658595291165
          17 :   -5.25077364644790
          18 :    6.00898554067624
          19 :   -6.45355929326274
          20 :    5.12736786990513
          21 :   -2.08687755093206
          22 :   -1.43675086469420
          23 :    3.91752219600016
          24 :   -4.44135503938560
          25 :    3.17066116236083
          26 :   -1.18018975004338
          27 :  -0.184772270070425
          28 :   4.285981893872304E-002
          29 :    1.59010614980025
          30 :   -3.87457146448696
          31 :   -47.6526670315214
          32 :   -35.5867442971011

     Forces acting on atoms (Ry/au):

     negative rho (up, down):  9.646E-01 0.000E+00
     atom    1 type  1   force =     0.00013167    0.00009273    0.06849303
     atom    2 type  2   force =    -0.00051800   -0.00038243   -0.03094125
     atom    3 type  2   force =    -0.00053346   -0.00036003   -0.03094125
     atom    4 type  1   force =     0.00014435    0.00010218    0.06851328
     atom    5 type  1   force =    -0.00029176   -0.00020585    0.00850498
     atom    6 type  2   force =     0.00043029    0.00027350   -0.04749230
     atom    7 type  2   force =     0.00040150    0.00031362   -0.04750175
     atom    8 type  1   force =    -0.00025609   -0.00018074    0.00851869
     atom    9 type  1   force =     0.00009488    0.00006546    0.00138225
     atom   10 type  2   force =     0.00021835   -0.00000519   -0.00001373
     atom   11 type  2   force =     0.00007043    0.00020881   -0.00001444
     atom   12 type  1   force =     0.00010784    0.00007793    0.00149250

     Total force =     0.002065     Total SCF correction =     0.000275
     SCF correction compared to forces is large: reduce conv_thr to get better values

     entering subroutine stress ...

     negative rho (up, down):  9.646E-01 0.000E+00
          total   stress  (Ry/bohr**3)                   (kbar)     P=  -21.82
  -0.00018540  -0.00000121   0.00000105        -27.27     -0.18      0.15
  -0.00000121  -0.00018454   0.00000074         -0.18    -27.15      0.11
   0.00000105   0.00000074  -0.00007497          0.15      0.11    -11.03

     bfgs converged in   7 scf cycles and   6 bfgs steps
     (criteria: energy <  1.0E+00, force <  1.9E-03)

     End of BFGS Geometry Optimization

     Final energy   =   -2320.8769875164 Ry
Begin final coordinates

ATOMIC_POSITIONS (crystal)
Os1      0.000000000  -0.000000000   0.402416919    0   0   0
Bi1     -0.000000000   0.500000000   0.402416919    0   0   0
Bi1      0.500000000  -0.000000000   0.402416919    0   0   0
Os1      0.500000000   0.500000000   0.402416919    0   0   0
Os1      0.749353137   0.749353137   0.500000000    0   0   0
Bi1      0.749353137   0.249353137   0.500000000    0   0   0
Bi1      0.249353137   0.749353137   0.500000000    0   0   0
Os1      0.249353137   0.249353137   0.500000000    0   0   0
Os1      0.498612407   0.498618478   0.583952281
Bi1      0.498963724   0.999112299   0.604357383
Bi1      0.999108746   0.498959591   0.604357546
Os1      0.998557047   0.998550642   0.583940363
End final coordinates

     Writing output data file calc.save

     General routines

     Parallel routines

   This run was terminated on:  21:29:48  23Feb2018

   JOB DONE.