     Program PWSCF v.5.1rc2 starts on 26Feb2018 at 12:33: 0

     Current dimensions of program PWSCF are:
     Max number of different atomic species (ntypx) = 10
     Max number of k-points (npk) =  40000
     Max angular momentum in pseudopotentials (lmaxx) =  3
     Presently stress not available with electric field

     IMPORTANT: XC functional enforced from input :
     Exchange-correlation      = BEEF-VDW ( 1  4 27 13 2)
     Any further DFT definition will be discarded
     Please, verify this is what you really want

     Found symmetry operation: I + ( -0.5000 -0.5000  0.0000)
     This is a supercell, fractional translations are disabled

     bravais-lattice index     =            0
     lattice parameter (alat)  =       1.8897  a.u.
     unit-cell volume          =    5720.1444 (a.u.)^3
     number of atoms/cell      =           12
     number of atomic types    =            2
     number of electrons       =       174.00
     number of Kohn-Sham states=           97
     kinetic-energy cutoff     =      36.7493  Ry
     charge density cutoff     =     367.4932  Ry
     convergence threshold     =      1.0E-05
     mixing beta               =       0.3000
     number of iterations used =           10  plain     mixing
     Exchange-correlation      = BEEF-VDW ( 1  4 27 13 2)
     nstep                     =           50

     celldm(1)=   1.889726  celldm(2)=   0.000000  celldm(3)=   0.000000
     celldm(4)=   0.000000  celldm(5)=   0.000000  celldm(6)=   0.000000

     crystal axes: (cart. coord. in units of alat)
               a(1) = (   6.000188   0.000000   0.000000 )
               a(2) = (   1.939187   5.678187   0.000000 )
               a(3) = (   0.000000   0.000000  24.879167 )

     reciprocal axes: (cart. coord. in units 2 pi/alat)
               b(1) = (  0.166661 -0.056917  0.000000 )
               b(2) = (  0.000000  0.176113  0.000000 )
               b(3) = (  0.000000  0.000000  0.040194 )

     PseudoPot. # 1 for Mo read from file:
     /home/users/mamunm/src/pseudo/gbrv1.5pbe/Mo.UPF
     MD5 check sum: 30c4dcd161f5d35cd49bb5239c51a633
     Pseudo is Ultrasoft + core correction, Zval = 14.0
     Generated by new atomic code, or converted to UPF format
     Using radial grid of  889 points,  6 beta functions with:
                l(1) =   0
                l(2) =   0
                l(3) =   1
                l(4) =   1
                l(5) =   2
                l(6) =   2
     Q(r) pseudized with  6 coefficients,  rinner =    1.000   1.000   1.000
                                                       1.000   1.000

     PseudoPot. # 2 for Bi read from file:
     /home/users/mamunm/src/pseudo/gbrv1.5pbe/Bi.UPF
     MD5 check sum: 81103212dc04adf40945787f699eab19
     Pseudo is Ultrasoft + core correction, Zval = 15.0
     Generated by new atomic code, or converted to UPF format
     Using radial grid of  899 points,  6 beta functions with:
                l(1) =   0
                l(2) =   0
                l(3) =   1
                l(4) =   1
                l(5) =   2
                l(6) =   2
     Q(r) pseudized with  6 coefficients,  rinner =    1.000   1.000   1.000
                                                       1.000   1.000

     vdW kernel table read from file vdW_kernel_table
     MD5 check sum: 095c7af220d748ca6e76c0b4c6cfb241

     atomic species   valence    mass     pseudopotential
        Mo1           14.00    95.95000     Mo( 1.00)
        Bi1           15.00   208.98040     Bi( 1.00)

     No symmetry found

   Cartesian axes

     site n.     atom                  positions (alat units)
         1           Mo1 tau(   1) = (   0.0000000   0.0000000  10.0000000  )
         2           Bi1 tau(   2) = (   0.9695934   2.8390936  10.0000000  )
         3           Bi1 tau(   3) = (   3.0000940   0.0000000  10.0000000  )
         4           Mo1 tau(   4) = (   3.9696874   2.8390936  10.0000000  )
         5           Mo1 tau(   5) = (   6.0001880   4.2912939  12.4395833  )
         6           Bi1 tau(   6) = (   5.0305945   1.4522003  12.4395833  )
         7           Bi1 tau(   7) = (   3.0000940   4.2912939  12.4395833  )
         8           Mo1 tau(   8) = (   2.0305005   1.4522003  12.4395833  )
         9           Mo1 tau(   9) = (   4.0610011   2.9044005  14.8791667  )
        10           Bi1 tau(  10) = (   3.0914077   0.0653069  14.8791667  )
        11           Bi1 tau(  11) = (   1.0609071   2.9044005  14.8791667  )
        12           Mo1 tau(  12) = (   0.0913137   0.0653069  14.8791667  )

     number of k points=    20  Fermi-Dirac smearing, width (Ry)=  0.0110
                       cart. coord. in units 2pi/alat
        k(    1) = (   0.0000000   0.0000000   0.0000000), wk =   0.0555556
        k(    2) = (   0.0000000   0.0293521   0.0000000), wk =   0.1111111
        k(    3) = (   0.0000000   0.0587042   0.0000000), wk =   0.1111111
        k(    4) = (   0.0000000  -0.0880563   0.0000000), wk =   0.0555556
        k(    5) = (   0.0277769  -0.0094862   0.0000000), wk =   0.1111111
        k(    6) = (   0.0277769   0.0198659   0.0000000), wk =   0.1111111
        k(    7) = (   0.0277769   0.0492179   0.0000000), wk =   0.1111111
        k(    8) = (   0.0277769  -0.0975425   0.0000000), wk =   0.1111111
        k(    9) = (   0.0277769  -0.0681904   0.0000000), wk =   0.1111111
        k(   10) = (   0.0277769  -0.0388383   0.0000000), wk =   0.1111111
        k(   11) = (   0.0555538  -0.0189725   0.0000000), wk =   0.1111111
        k(   12) = (   0.0555538   0.0103796   0.0000000), wk =   0.1111111
        k(   13) = (   0.0555538   0.0397317   0.0000000), wk =   0.1111111
        k(   14) = (   0.0555538  -0.1070287   0.0000000), wk =   0.1111111
        k(   15) = (   0.0555538  -0.0776767   0.0000000), wk =   0.1111111
        k(   16) = (   0.0555538  -0.0483246   0.0000000), wk =   0.1111111
        k(   17) = (  -0.0833307   0.0284587   0.0000000), wk =   0.0555556
        k(   18) = (  -0.0833307   0.0578108   0.0000000), wk =   0.1111111
        k(   19) = (  -0.0833307   0.0871629   0.0000000), wk =   0.1111111
        k(   20) = (  -0.0833307  -0.0595976   0.0000000), wk =   0.0555556

     Largest allocated arrays     est. size (Mb)     dimensions
     Largest temporary arrays     est. size (Mb)     dimensions

     Initial potential from superposition of free atoms
     Check: negative starting charge=   -0.251390

     starting charge  167.99337, renormalised to  174.00000

     negative rho (up, down):  2.604E-01 0.000E+00

     *
     * You are using vdW-DF for exchange-correlation in this calculation.
     * Please cite the following three references that made this development
     * possible:
     *
     *   M. Dion, H. Rydberg, E. Schroder, D. C. Langreth, and
     *   B. I. Lundqvist, Phys. Rev. Lett. 92, 246401 (2004).
     *
     *   T. Thonhauser, V. R. Cooper, S. Li, A. Puzder, P. Hyldgaard, and
     *   D. C. Langreth, Phys. Rev. B 76, 125112 (2007).
     *
     *   G. Roman-Perez and J. M. Soler, Phys. Rev. Lett. 103, 096102 (2009).
     *
     *
     * If you are using vdW-DF2, please also cite:
     *
     *   K. Lee, E. D. Murray, L. Kong, B. I. Lundqvist, and
     *   D. C. Langreth, Phys. Rev. B 82, 081101(R) (2010).
     *
     *
     * If you are calculating the stress with vdW-DF, please also cite:
     *
     *   R. Sabatini, E. Kucukbenli, B. Kolb, T. Thonhauser, and
     *   S. de Gironcoli, J. Phys.: Condens. Matter 24, 424209 (2012).
     *

     Carrying out vdW-DF run using the following parameters:

     Nqs =      20    Nr_points =    1024   r_max =   100.000
     q_mesh =
               0.00001000     0.04494208     0.09755937     0.15916263
               0.23128650     0.31572767     0.41458969     0.53033537
               0.66584808     0.82450364     1.01025438     1.22772762
               1.48234092     1.78043706     2.12944203     2.53805004
               3.01644009     3.57652955     4.23227104     5.00000000

     Gradients computed in reciprocal space

     Adding external electric field

     Computed dipole along edir(3) :
        Dipole               -0.0000 Ry au,         -0.0001 Debye
        Dipole field         -0.0000 Ry au

        Potential amp.        0.0000 Ry
        Total length         45.8394 bohr

     Starting wfc are  132 randomized atomic wfcs

     Self-consistent Calculation

     iteration #  1     ecut=    36.75 Ry     beta=0.30
     Davidson diagonalization with overlap
     ethr =  1.00E-02,  avg # of iterations =  2.0

[...]

     total energy              =   -1961.88613753 Ry
     Harris-Foulkes estimate   =   -1962.89094074 Ry
     estimated scf accuracy    <       2.34286150 Ry

[...]

     End of self-consistent calculation

          k = 0.0000 0.0000 0.0000 ( 21423 PWs)   bands (ev):

   -59.1216 -59.1159 -59.0997 -59.0988 -59.0948 -59.0945 -33.2528 -33.2516
   -33.2135 -33.2093 -33.1987 -33.1955 -33.1879 -33.1691 -33.1687 -33.1347
   -33.1285 -33.1263 -33.1237 -33.1207 -33.1114 -33.1098 -33.1003 -33.0979
   -21.1912 -21.1625 -21.1607 -21.1443 -21.1317 -21.1306 -21.1280 -21.1087
   -21.1062 -21.0948 -21.0855 -21.0632 -21.0612 -21.0588 -21.0549 -21.0496
   -21.0169 -21.0163 -21.0148 -21.0135 -21.0068 -21.0066 -21.0034 -20.9991
   -20.9958 -20.9917 -20.9527 -20.9450 -20.9446 -20.9304 -10.8067  -9.6588
    -8.7753  -8.7192  -8.3587  -8.3520  -2.4684  -2.3026  -1.7271  -1.6848
    -1.5204  -1.5137  -1.3007  -0.8168  -0.7084  -0.3261  -0.0254   0.0367
     0.3633   0.4844   0.6733   0.7621   0.7626   1.0285   1.1455   1.1874
     1.2824   1.4198   1.4472   1.6943   1.7424   1.7488   1.7817   2.0434
     2.0808   2.1041   2.3238   2.3747   2.4100   2.4237   2.6114   2.9892
     3.1419

[...]

          k =-0.0833 0.0285 0.0000 ( 21520 PWs)   bands (ev):

[...]

     the Fermi energy is     1.9922 ev

!    total energy              =   -1962.12971200 Ry
     Harris-Foulkes estimate   =   -1962.12971842 Ry
     estimated scf accuracy    <       0.00000787 Ry

     The total energy is the sum of the following terms:

     one-electron contribution =  -12910.38762794 Ry
     hartree contribution      =    6481.24086273 Ry
     xc contribution           =    -519.84344323 Ry
     ewald contribution        =    4986.96191366 Ry
     electric field correction =       0.00000069 Ry
     smearing contrib. (-TS)   =      -0.10141789 Ry

     convergence has been achieved in  16 iterations

 BEEF-vdW xc energy contributions
           1 :   -459.673576733928
           2 :    425.803350666353
           3 :   -366.453902080586
           4 :    295.196054169168
           5 :   -226.114983257890
           6 :    169.543554670655
           7 :   -129.717810142733
           8 :    104.901584413823
           9 :   -89.5835922130894
          10 :    77.5642408110402
          11 :   -64.5874018276500
          12 :    49.5363892392946
          13 :   -34.0003855396632
          14 :    20.7254078937762
          15 :   -11.8685561292236
          16 :    7.87682724124420
          17 :   -7.40146898308205
          18 :    8.10919585798172
          19 :   -7.87152907025256
          20 :    5.69905983289226
          21 :   -2.00282373737070
          22 :   -1.86609575613284
          23 :    4.47759368690271
          24 :   -5.10868129096804
          25 :    4.06507655525581
          26 :   -2.43498073374212
          27 :    1.46387262372832
          28 :   -1.91312439333132
          29 :    3.72812135578999
          30 :   -6.15370680227431
          31 :   -40.1441626905475
          32 :   -29.9648475737793

     Forces acting on atoms (Ry/au):

     negative rho (up, down):  2.738E-01 0.000E+00
     atom    1 type  1   force =     0.00055339    0.00039545    0.05067011
     atom    2 type  2   force =     0.00386648    0.00245298   -0.02971312
     atom    3 type  2   force =     0.00356922    0.00286491   -0.02971142
     atom    4 type  1   force =     0.00052019    0.00037299    0.05068958
     atom    5 type  1   force =     0.00003241    0.00002364    0.00071402
     atom    6 type  2   force =     0.00027673   -0.00040920   -0.00157450
     atom    7 type  2   force =    -0.00029306    0.00039578   -0.00157403
     atom    8 type  1   force =    -0.00000534   -0.00000345    0.00071450
     atom    9 type  1   force =    -0.00056752   -0.00040514   -0.04912974
     atom   10 type  2   force =    -0.00384518   -0.00245606    0.02902237
     atom   11 type  2   force =    -0.00356976   -0.00284758    0.02902854
     atom   12 type  1   force =    -0.00053756   -0.00038433   -0.04913631

     Total force =     0.080967     Total SCF correction =     0.008768
     SCF correction compared to forces is large: reduce conv_thr to get better values

     entering subroutine stress ...

     negative rho (up, down):  2.738E-01 0.000E+00
          total   stress  (Ry/bohr**3)                   (kbar)     P=  -21.51
  -0.00017641   0.00000454  -0.00001356        -25.95      0.67     -1.99
   0.00000454  -0.00017951  -0.00000970          0.67    -26.41     -1.43
  -0.00001356  -0.00000970  -0.00008274         -1.99     -1.43    -12.17

     BFGS Geometry Optimization

     number of scf cycles    =   1
     number of bfgs steps    =   0

     energy   new            =   -1962.1297119968 Ry

     new trust radius        =       0.0491407489 bohr
     new conv_thr            =       0.0000099958 Ry

ATOMIC_POSITIONS (crystal)
Mo1      0.000000000   0.000000000   0.401942723    0   0   0
Bi1      0.000000000   0.500000000   0.401942723    0   0   0
Bi1      0.500000000   0.000000000   0.401942723    0   0   0
Mo1      0.500000000   0.500000000   0.401942723    0   0   0
Mo1      0.755750685   0.755750685   0.500000000    0   0   0
Bi1      0.755750685   0.255750685   0.500000000    0   0   0
Bi1      0.255750685   0.755750685   0.500000000    0   0   0
Mo1      0.255750685   0.255750685   0.500000000    0   0   0
Mo1      0.511463520   0.511463612   0.597012293
Bi1      0.511236224   0.011272477   0.598674580
Bi1      0.011272307   0.511235989   0.598674711
Mo1      0.011465536   0.011465551   0.597012153

     Writing output data file calc.save
     Check: negative starting charge=   -0.251390
     NEW-OLD atomic charge density approx. for the potential
     Check: negative starting charge=   -0.251530

[...]

     Total force =     0.076840     Total SCF correction =     0.002249

[...]

     energy   old            =   -1962.1297119968 Ry
     energy   new            =   -1962.1361512476 Ry

     CASE: energy  _new < energy  _old

     WARNING: bfgs curvature condition failed, Theta= 0.843
     new trust radius        =       0.0540548238 bohr
     new conv_thr            =       0.0000001000 Ry

[...]

     iteration #  6     ecut=    36.75 Ry     beta=0.30
     Davidson diagonalization with overlap
     c_bands:  1 eigenvalues not converged
     c_bands:  1 eigenvalues not converged
     ethr =  2.07E-06,  avg # of iterations =  6.5

[...]

     iteration #  1     ecut=    36.75 Ry     beta=0.30
     Davidson diagonalization with overlap
     c_bands:  1 eigenvalues not converged
     c_bands:  1 eigenvalues not converged
     ethr =  1.00E-06,  avg # of iterations = 13.7

[...]

     Total force =     0.003590     Total SCF correction =     0.000272

[...]

     number of scf cycles    =   9
     number of bfgs steps    =   8

     energy   old            =   -1962.1681830908 Ry
     energy   new            =   -1962.1682095526 Ry

     CASE: energy  _new < energy  _old

     new trust radius        =       0.0071937228 bohr
     new conv_thr            =       0.0000001000 Ry

ATOMIC_POSITIONS (crystal)
Mo1      0.000000000   0.000000000   0.401942723    0   0   0
Bi1      0.000000000   0.500000000   0.401942723    0   0   0
Bi1      0.500000000   0.000000000   0.401942723    0   0   0
Mo1      0.500000000   0.500000000   0.401942723    0   0   0
Mo1      0.755750685   0.755750685   0.500000000    0   0   0
Bi1      0.755750685   0.255750685   0.500000000    0   0   0
Bi1      0.255750685   0.755750685   0.500000000    0   0   0
Mo1      0.255750685   0.255750685   0.500000000    0   0   0
Mo1      0.510330277   0.510330911   0.587041200
Bi1      0.509056856   0.009079193   0.604550524
Bi1      0.009078752   0.509056184   0.604550813
Mo1      0.010299710   0.010299015   0.587041605

     Writing output data file calc.save
     Check: negative starting charge=   -0.252100
     NEW-OLD atomic charge density approx. for the potential
     Check: negative starting charge=   -0.252405

[...]

     Self-consistent Calculation

[...]

     total energy              =   -1962.16824047 Ry
     Harris-Foulkes estimate   =   -1962.16824055 Ry
     estimated scf accuracy    <       0.00000092 Ry

     iteration # 11     ecut=    36.75 Ry     beta=0.30
     Davidson diagonalization with overlap
     ethr =  4.29E-10,  avg # of iterations =  2.9

[...]

     negative rho (up, down):  2.753E-01 0.000E+00

     Adding external electric field

     Computed dipole along edir(3) :
        Dipole                0.0141 Ry au,          0.0359 Debye
        Dipole field          0.0000 Ry au

        Potential amp.       -0.0028 Ry
        Total length         45.8394 bohr

     End of self-consistent calculation

[...]

          k = 0.0556-0.0483 0.0000 ( 21517 PWs)   bands (ev):

[...]

          k =-0.0833-0.0596 0.0000 ( 21554 PWs)   bands (ev):

   -59.1642 -59.1601 -59.1233 -59.1183 -59.0996 -59.0941 -33.2869 -33.2821
   -33.2707 -33.2526 -33.2511 -33.2326 -33.2160 -33.1984 -33.1953 -33.1537
   -33.1487 -33.1452 -33.1417 -33.1315 -33.1268 -33.1266 -33.1106 -33.1072
   -21.2319 -21.1891 -21.1885 -21.1855 -21.1833 -21.1818 -21.1773 -21.1511
   -21.1450 -21.1237 -21.0843 -21.0835 -21.0755 -21.0592 -21.0567 -21.0382
   -21.0360 -21.0282 -21.0167 -21.0162 -21.0153 -21.0122 -21.0070 -21.0052
   -21.0023 -20.9976 -20.9924 -20.9664 -20.9634 -20.9408  -9.8337  -9.4494
    -9.2219  -9.1800  -8.2195  -7.4082  -3.9297  -3.7437  -3.3851  -2.6708
    -2.5856  -2.4856  -2.0322  -1.8289  -1.2659  -0.6313  -0.0993   0.0864
     0.1529   0.1991   0.3118   0.3357   0.3895   0.5678   0.7772   0.8815
     1.0547   1.1713   1.4084   1.8387   1.8764   2.1693   2.2479   2.3893
     2.4098   2.4373   2.4805   2.7402   2.9198   3.1595   3.4014   3.4361
     3.6099

     the Fermi energy is     1.9845 ev

!    total energy              =   -1962.16824046 Ry
     Harris-Foulkes estimate   =   -1962.16824053 Ry
     estimated scf accuracy    <       0.00000009 Ry

     The total energy is the sum of the following terms:

     one-electron contribution =  -12988.13102867 Ry
     hartree contribution      =    6519.99088157 Ry
     xc contribution           =    -519.90654795 Ry
     ewald contribution        =    5025.97907399 Ry
     electric field correction =       0.00000044 Ry
     smearing contrib. (-TS)   =      -0.10061985 Ry

     convergence has been achieved in  11 iterations

 BEEF-vdW xc energy contributions
           1 :   -459.739520695405
           2 :    425.897085990129
           3 :   -366.582354050841
           4 :    295.335179857134
           5 :   -226.220686280356
           6 :    169.579349659038
           7 :   -129.676095655343
           8 :    104.804597998778
           9 :   -89.4683663885436
          10 :    77.4660099632541
          11 :   -64.5297625486909
          12 :    49.5269400624222
          13 :   -34.0280074270564
          14 :    20.7622052364122
          15 :   -11.8802172974463
          16 :    7.84082700363734
          17 :   -7.32356759496480
          18 :    8.02497866267890
          19 :   -7.82791160853685
          20 :    5.72599323235357
          21 :   -2.09258890530884
          22 :   -1.75728569210378
          23 :    4.40517178935505
          24 :   -5.10768461094722
          25 :    4.13117581356653
          26 :   -2.52971825708073
          27 :    1.53924697570881
          28 :   -1.94007381916521
          29 :    3.71282901917931
          30 :   -6.13430002919512
          31 :   -40.1491856897874
          32 :   -29.9751341340622

     Forces acting on atoms (Ry/au):

     negative rho (up, down):  2.753E-01 0.000E+00
     atom    1 type  1   force =     0.00008683    0.00006201    0.05422436
     atom    2 type  2   force =     0.00370316    0.00279243   -0.03070848
     atom    3 type  2   force =     0.00383939    0.00260199   -0.03070835
     atom    4 type  1   force =     0.00009421    0.00006743    0.05424474
     atom    5 type  1   force =     0.00000845    0.00000604    0.01560746
     atom    6 type  2   force =    -0.00279318   -0.00198611   -0.04033157
     atom    7 type  2   force =    -0.00278257   -0.00200170   -0.04033223
     atom    8 type  1   force =     0.00001205    0.00000866    0.01558319
     atom    9 type  1   force =    -0.00067000   -0.00047913   -0.00028332
     atom   10 type  2   force =    -0.00035706   -0.00038141    0.00149563
     atom   11 type  2   force =    -0.00047600   -0.00021438    0.00149482
     atom   12 type  1   force =    -0.00066527   -0.00047583   -0.00028623

     Total force =     0.002555     Total SCF correction =     0.000506
     SCF correction compared to forces is large: reduce conv_thr to get better values

     entering subroutine stress ...

     negative rho (up, down):  2.753E-01 0.000E+00
          total   stress  (Ry/bohr**3)                   (kbar)     P=  -17.63
  -0.00016300  -0.00001823  -0.00000777        -23.98     -2.68     -1.14
  -0.00001823  -0.00015055  -0.00000556         -2.68    -22.15     -0.82
  -0.00000777  -0.00000556  -0.00004605         -1.14     -0.82     -6.77

     bfgs converged in  10 scf cycles and   9 bfgs steps
     (criteria: energy <  1.0E+00, force <  1.9E-03)

     End of BFGS Geometry Optimization

     Final energy   =   -1962.1682404648 Ry
Begin final coordinates

ATOMIC_POSITIONS (crystal)
Mo1      0.000000000   0.000000000   0.401942723    0   0   0
Bi1      0.000000000   0.500000000   0.401942723    0   0   0
Bi1      0.500000000   0.000000000   0.401942723    0   0   0
Mo1      0.500000000   0.500000000   0.401942723    0   0   0
Mo1      0.755750685   0.755750685   0.500000000    0   0   0
Bi1      0.755750685   0.255750685   0.500000000    0   0   0
Bi1      0.255750685   0.755750685   0.500000000    0   0   0
Mo1      0.255750685   0.255750685   0.500000000    0   0   0
Mo1      0.510330277   0.510330911   0.587041200
Bi1      0.509056856   0.009079193   0.604550524
Bi1      0.009078752   0.509056184   0.604550813
Mo1      0.010299710   0.010299015   0.587041605
End final coordinates

     Writing output data file calc.save

     General routines

     Parallel routines

   This run was terminated on:  13:11:50  26Feb2018

   JOB DONE.