     Program PWSCF v.5.1rc2 starts on 26Feb2018 at 12:36:54

     Current dimensions of program PWSCF are:
     Max number of different atomic species (ntypx) = 10
     Max number of k-points (npk) =  40000
     Max angular momentum in pseudopotentials (lmaxx) =  3
     Presently stress not available with electric field

     IMPORTANT: XC functional enforced from input :
     Exchange-correlation      = BEEF-VDW ( 1  4 27 13 2)
     Any further DFT definition will be discarded
     Please, verify this is what you really want

     Found symmetry operation: I + ( -0.5000 -0.5000  0.0000)
     This is a supercell, fractional translations are disabled

     bravais-lattice index     =            0
     lattice parameter (alat)  =       1.8897  a.u.
     unit-cell volume          =    6017.8831 (a.u.)^3
     number of atoms/cell      =           12
     number of atomic types    =            2
     number of electrons       =       162.00
     number of Kohn-Sham states=           91
     kinetic-energy cutoff     =      36.7493  Ry
     charge density cutoff     =     367.4932  Ry
     convergence threshold     =      1.0E-05
     mixing beta               =       0.3000
     number of iterations used =           10  plain     mixing
     Exchange-correlation      = BEEF-VDW ( 1  4 27 13 2)
     nstep                     =           50

     celldm(1)=   1.889726  celldm(2)=   0.000000  celldm(3)=   0.000000
     celldm(4)=   0.000000  celldm(5)=   0.000000  celldm(6)=   0.000000

     crystal axes: (cart. coord. in units of alat)
               a(1) = (   6.132772   0.000000   0.000000 )
               a(2) = (   1.918771   5.824879   0.000000 )
               a(3) = (   0.000000   0.000000  24.963383 )

     reciprocal axes: (cart. coord. in units 2 pi/alat)
               b(1) = (  0.163058 -0.053713  0.000000 )
               b(2) = (  0.000000  0.171677 -0.000000 )
               b(3) = (  0.000000  0.000000  0.040059 )

     PseudoPot. # 1 for Ti read from file:
     /home/users/mamunm/src/pseudo/gbrv1.5pbe/Ti.UPF
     MD5 check sum: 88a00a6731bd790ddea75d31a80cb452
     Pseudo is Ultrasoft + core correction, Zval = 12.0
     Generated by new atomic code, or converted to UPF format
     Using radial grid of  851 points,  6 beta functions with:
                l(1) =   0
                l(2) =   0
                l(3) =   1
                l(4) =   1
                l(5) =   2
                l(6) =   2
     Q(r) pseudized with  6 coefficients,  rinner =    1.000   1.000   1.000
                                                       1.000   1.000

     PseudoPot. # 2 for Bi read from file:
     /home/users/mamunm/src/pseudo/gbrv1.5pbe/Bi.UPF
     MD5 check sum: 81103212dc04adf40945787f699eab19
     Pseudo is Ultrasoft + core correction, Zval = 15.0
     Generated by new atomic code, or converted to UPF format
     Using radial grid of  899 points,  6 beta functions with:
                l(1) =   0
                l(2) =   0
                l(3) =   1
                l(4) =   1
                l(5) =   2
                l(6) =   2
     Q(r) pseudized with  6 coefficients,  rinner =    1.000   1.000   1.000
                                                       1.000   1.000

     vdW kernel table read from file vdW_kernel_table
     MD5 check sum: 095c7af220d748ca6e76c0b4c6cfb241

     atomic species   valence    mass     pseudopotential
        Ti1           12.00    47.86700     Ti( 1.00)
        Bi1           15.00   208.98040     Bi( 1.00)

     No symmetry found

   Cartesian axes

     site n.     atom                  positions (alat units)
         1           Ti1 tau(   1) = (   0.0000000   0.0000000  10.0000000  )
         2           Bi1 tau(   2) = (   0.9593857   2.9124393  10.0000000  )
         3           Bi1 tau(   3) = (   3.0663861   0.0000000  10.0000000  )
         4           Ti1 tau(   4) = (   4.0257717   2.9124393  10.0000000  )
         5           Ti1 tau(   5) = (   6.1327722   4.4367460  12.4816913  )
         6           Bi1 tau(   6) = (   5.1733865   1.5243067  12.4816913  )
         7           Bi1 tau(   7) = (   3.0663861   4.4367460  12.4816913  )
         8           Ti1 tau(   8) = (   2.1070004   1.5243067  12.4816913  )
         9           Ti1 tau(   9) = (   4.2140009   3.0486134  14.9633826  )
        10           Bi1 tau(  10) = (   3.2546152   0.1361741  14.9633826  )
        11           Bi1 tau(  11) = (   1.1476148   3.0486134  14.9633826  )
        12           Ti1 tau(  12) = (   0.1882291   0.1361741  14.9633826  )

     number of k points=    20  Fermi-Dirac smearing, width (Ry)=  0.0110
                       cart. coord. in units 2pi/alat
        k(    1) = (   0.0000000   0.0000000   0.0000000), wk =   0.0555556
        k(    2) = (   0.0000000   0.0286129  -0.0000000), wk =   0.1111111
        k(    3) = (   0.0000000   0.0572258  -0.0000000), wk =   0.1111111
        k(    4) = (   0.0000000  -0.0858387   0.0000000), wk =   0.0555556
        k(    5) = (   0.0271764  -0.0089522   0.0000000), wk =   0.1111111
        k(    6) = (   0.0271764   0.0196607  -0.0000000), wk =   0.1111111
        k(    7) = (   0.0271764   0.0482736  -0.0000000), wk =   0.1111111
        k(    8) = (   0.0271764  -0.0947909   0.0000000), wk =   0.1111111
        k(    9) = (   0.0271764  -0.0661780   0.0000000), wk =   0.1111111
        k(   10) = (   0.0271764  -0.0375651   0.0000000), wk =   0.1111111
        k(   11) = (   0.0543528  -0.0179043   0.0000000), wk =   0.1111111
        k(   12) = (   0.0543528   0.0107086  -0.0000000), wk =   0.1111111
        k(   13) = (   0.0543528   0.0393215  -0.0000000), wk =   0.1111111
        k(   14) = (   0.0543528  -0.1037430   0.0000000), wk =   0.1111111
        k(   15) = (   0.0543528  -0.0751301   0.0000000), wk =   0.1111111
        k(   16) = (   0.0543528  -0.0465172   0.0000000), wk =   0.1111111
        k(   17) = (  -0.0815292   0.0268565  -0.0000000), wk =   0.0555556
        k(   18) = (  -0.0815292   0.0554694  -0.0000000), wk =   0.1111111
        k(   19) = (  -0.0815292   0.0840823  -0.0000000), wk =   0.1111111
        k(   20) = (  -0.0815292  -0.0589822   0.0000000), wk =   0.0555556

     Largest allocated arrays     est. size (Mb)     dimensions
     Largest temporary arrays     est. size (Mb)     dimensions

     Check: negative/imaginary core charge=   -0.000003    0.000000

     Initial potential from superposition of free atoms
     Check: negative starting charge=   -0.257900

     starting charge  149.99948, renormalised to  162.00000

     negative rho (up, down):  2.785E-01 0.000E+00

     *
     * You are using vdW-DF for exchange-correlation in this calculation.
     * Please cite the following three references that made this development
     * possible:
     *
     *   M. Dion, H. Rydberg, E. Schroder, D. C. Langreth, and
     *   B. I. Lundqvist, Phys. Rev. Lett. 92, 246401 (2004).
     *
     *   T. Thonhauser, V. R. Cooper, S. Li, A. Puzder, P. Hyldgaard, and
     *   D. C. Langreth, Phys. Rev. B 76, 125112 (2007).
     *
     *   G. Roman-Perez and J. M. Soler, Phys. Rev. Lett. 103, 096102 (2009).
     *
     *
     * If you are using vdW-DF2, please also cite:
     *
     *   K. Lee, E. D. Murray, L. Kong, B. I. Lundqvist, and
     *   D. C. Langreth, Phys. Rev. B 82, 081101(R) (2010).
     *
     *
     * If you are calculating the stress with vdW-DF, please also cite:
     *
     *   R. Sabatini, E. Kucukbenli, B. Kolb, T. Thonhauser, and
     *   S. de Gironcoli, J. Phys.: Condens. Matter 24, 424209 (2012).
     *

     Carrying out vdW-DF run using the following parameters:

     Nqs =      20    Nr_points =    1024   r_max =   100.000
     q_mesh =
               0.00001000     0.04494208     0.09755937     0.15916263
               0.23128650     0.31572767     0.41458969     0.53033537
               0.66584808     0.82450364     1.01025438     1.22772762
               1.48234092     1.78043706     2.12944203     2.53805004
               3.01644009     3.57652955     4.23227104     5.00000000

     Gradients computed in reciprocal space

     Adding external electric field

     Computed dipole along edir(3) :
        Dipole               -0.0000 Ry au,         -0.0000 Debye
        Dipole field         -0.0000 Ry au

        Potential amp.        0.0000 Ry
        Total length         45.9946 bohr

     Starting wfc are  114 randomized atomic wfcs

     Self-consistent Calculation

     iteration #  1     ecut=    36.75 Ry     beta=0.30
     Davidson diagonalization with overlap
     ethr =  1.00E-02,  avg # of iterations =  3.6

[...]

     total energy              =   -1842.10452283 Ry
     Harris-Foulkes estimate   =   -1845.36449979 Ry
     estimated scf accuracy    <       7.25590320 Ry

[...]

     iteration # 12     ecut=    36.75 Ry     beta=0.30
     Davidson diagonalization with overlap
     c_bands:  1 eigenvalues not converged
     ethr =  1.42E-06,  avg # of iterations =  7.0

[...]

     End of self-consistent calculation

          k = 0.0000 0.0000 0.0000 ( 22633 PWs)   bands (ev):

   -56.2257 -56.2240 -56.2231 -56.2214 -55.8359 -55.8333 -32.5682 -32.5665
   -32.5645 -32.5629 -32.4420 -32.4403 -32.4014 -32.3998 -32.3765 -32.3746
   -32.3731 -32.3711 -32.1112 -32.1076 -32.1041 -32.0680 -32.0138 -32.0087
   -21.6281 -21.6149 -21.6042 -21.5942 -21.5922 -21.5886 -21.5850 -21.5769
   -21.5525 -21.5101 -21.4822 -21.4766 -21.4572 -21.4552 -21.4491 -21.4472
   -21.4232 -21.4211 -21.4143 -21.4123 -21.4110 -21.4088 -21.4061 -21.4020
   -21.3940 -21.3922 -21.3752 -21.3637 -21.3600 -21.3521 -11.0068  -9.9147
    -9.0998  -9.0276  -8.7341  -8.6260  -2.8406  -2.4882  -2.0736  -2.0477
    -1.9900  -1.9144  -1.4651  -1.3484  -0.7747  -0.1982  -0.1841   0.0207
     0.6177   0.6337   0.6926   0.8797   1.0112   1.1646   1.2330   1.2432
     1.3514   1.5331   1.6151   1.7895   1.8574   1.8872   2.0086   2.0529
     2.1536   2.2396   2.2866

[...]

          k =-0.0815 0.0269-0.0000 ( 22656 PWs)   bands (ev):

[...]

     the Fermi energy is     1.4208 ev

!    total energy              =   -1842.27951247 Ry
     Harris-Foulkes estimate   =   -1842.27952017 Ry
     estimated scf accuracy    <       0.00000723 Ry

     The total energy is the sum of the following terms:

     one-electron contribution =  -10797.76947541 Ry
     hartree contribution      =    5420.64635933 Ry
     xc contribution           =    -512.25642601 Ry
     ewald contribution        =    4047.19817308 Ry
     electric field correction =       0.00000029 Ry
     smearing contrib. (-TS)   =      -0.09814374 Ry

     convergence has been achieved in  16 iterations

 BEEF-vdW xc energy contributions
           1 :   -453.283146635526
           2 :    418.069453767086
           3 :   -357.230692759610
           4 :    285.604264791365
           5 :   -217.367878692709
           6 :    161.565009882134
           7 :   -120.747691158141
           8 :    92.4374952362223
           9 :   -71.9361079079086
          10 :    54.8904207101100
          11 :   -38.7074068551592
          12 :    22.7257098867077
          13 :   -7.63104747180688
          14 :   -5.31247031744965
          15 :    14.8823357490526
          16 :   -20.3537285953603
          17 :    21.8367165734531
          18 :   -20.4017154368929
          19 :    17.7965191500775
          20 :   -15.7461439409556
          21 :    15.1534354632392
          22 :   -15.6972255698436
          23 :    16.1226961724027
          24 :   -15.0828633194957
          25 :    12.0127688077584
          26 :   -7.49501124329640
          27 :    2.90376339006821
          28 :   0.409982051238785
          29 :   -1.85447888406776
          30 :    1.80925596652759
          31 :   -38.6408279835107
          32 :   -28.2517718965553

     Forces acting on atoms (Ry/au):

     negative rho (up, down):  2.737E-01 0.000E+00
     atom    1 type  1   force =    -0.00151303   -0.00109613    0.03973734
     atom    2 type  2   force =     0.00501473    0.00387760   -0.02608126
     atom    3 type  2   force =     0.00525704    0.00354988   -0.02607807
     atom    4 type  1   force =    -0.00149823   -0.00108245    0.03968535
     atom    5 type  1   force =    -0.00003196   -0.00002229   -0.00042547
     atom    6 type  2   force =    -0.00006106    0.00017810    0.00131004
     atom    7 type  2   force =     0.00015266   -0.00011324    0.00130701
     atom    8 type  1   force =    -0.00001878   -0.00001344   -0.00042561
     atom    9 type  1   force =     0.00151027    0.00109343   -0.04065111
     atom   10 type  2   force =    -0.00501405   -0.00389892    0.02611295
     atom   11 type  2   force =    -0.00527905   -0.00354454    0.02611203
     atom   12 type  1   force =     0.00148146    0.00107200   -0.04060321

     Total force =     0.068938     Total SCF correction =     0.000872

     entering subroutine stress ...

     negative rho (up, down):  2.737E-01 0.000E+00
          total   stress  (Ry/bohr**3)                   (kbar)     P=  -13.60
  -0.00011161  -0.00000690  -0.00001131        -16.42     -1.01     -1.66
  -0.00000690  -0.00010707  -0.00000818         -1.01    -15.75     -1.20
  -0.00001131  -0.00000818  -0.00005872         -1.66     -1.20     -8.64

     BFGS Geometry Optimization

     number of scf cycles    =   1
     number of bfgs steps    =   0

     energy   new            =   -1842.2795124659 Ry

     new trust radius        =       0.0406938508 bohr
     new conv_thr            =       0.0000099958 Ry

ATOMIC_POSITIONS (crystal)
Ti1     -0.000000000  -0.000000000   0.400586737    0   0   0
Bi1     -0.000000000   0.500000000   0.400586737    0   0   0
Bi1      0.500000000  -0.000000000   0.400586737    0   0   0
Ti1      0.500000000   0.500000000   0.400586737    0   0   0
Ti1      0.761689009   0.761689009   0.500000000    0   0   0
Bi1      0.761689009   0.261689009   0.500000000    0   0   0
Bi1      0.261689009   0.761689009   0.500000000    0   0   0
Ti1      0.261689009   0.261689009   0.500000000    0   0   0
Ti1      0.523477255   0.523477354   0.598551535
Bi1      0.523056194   0.023023810   0.599966809
Bi1      0.023023255   0.523056004   0.599966789
Ti1      0.023475378   0.023475407   0.598552551

     Writing output data file calc.save
     Check: negative starting charge=   -0.257900
     NEW-OLD atomic charge density approx. for the potential

     Check: negative/imaginary core charge=   -0.000003    0.000000
     Check: negative starting charge=   -0.258484

[...]

     energy   old            =   -1842.2795124659 Ry
     energy   new            =   -1842.2841236225 Ry

     CASE: energy  _new < energy  _old

     WARNING: bfgs curvature condition failed, Theta= 0.849
     new trust radius        =       0.0610407762 bohr
     new conv_thr            =       0.0000001000 Ry

[...]

     iteration #  1     ecut=    36.75 Ry     beta=0.30
     Davidson diagonalization with overlap
     c_bands:  1 eigenvalues not converged
     c_bands:  1 eigenvalues not converged
     ethr =  1.00E-06,  avg # of iterations = 15.8

[...]

     Total force =     0.006093     Total SCF correction =     0.001220
     SCF correction compared to forces is large: reduce conv_thr to get better values

[...]

     WARNING: bfgs curvature condition failed, Theta= 0.882
     new trust radius        =       0.0028907890 bohr
     new conv_thr            =       0.0000001000 Ry

[...]

     number of scf cycles    =   9
     number of bfgs steps    =   8

     energy   old            =   -1842.3147449010 Ry
     energy   new            =   -1842.3147624257 Ry

     CASE: energy  _new < energy  _old

     new trust radius        =       0.0043361834 bohr
     new conv_thr            =       0.0000001000 Ry

ATOMIC_POSITIONS (crystal)
Ti1     -0.000000000  -0.000000000   0.400586737    0   0   0
Bi1     -0.000000000   0.500000000   0.400586737    0   0   0
Bi1      0.500000000  -0.000000000   0.400586737    0   0   0
Ti1      0.500000000   0.500000000   0.400586737    0   0   0
Ti1      0.761689009   0.761689009   0.500000000    0   0   0
Bi1      0.761689009   0.261689009   0.500000000    0   0   0
Bi1      0.261689009   0.761689009   0.500000000    0   0   0
Ti1      0.261689009   0.261689009   0.500000000    0   0   0
Ti1      0.523974207   0.523975213   0.587332567
Bi1      0.519736085   0.019667772   0.607129309
Bi1      0.019665805   0.519735974   0.607129226
Ti1      0.023980766   0.023980518   0.587334681

     Writing output data file calc.save
     Check: negative starting charge=   -0.258505
     NEW-OLD atomic charge density approx. for the potential

     Check: negative/imaginary core charge=   -0.000003    0.000000
     Check: negative starting charge=   -0.258324

[...]

     Self-consistent Calculation

[...]

     total energy              =   -1842.31478359 Ry
     Harris-Foulkes estimate   =   -1842.31478360 Ry
     estimated scf accuracy    <       0.00000020 Ry

     iteration # 11     ecut=    36.75 Ry     beta=0.30
     Davidson diagonalization with overlap
     ethr =  1.25E-10,  avg # of iterations =  4.0

[...]

     negative rho (up, down):  2.758E-01 0.000E+00

     Adding external electric field

     Computed dipole along edir(3) :
        Dipole               -0.1100 Ry au,         -0.2796 Debye
        Dipole field         -0.0002 Ry au

        Potential amp.        0.0211 Ry
        Total length         45.9946 bohr

     End of self-consistent calculation

[...]

          k = 0.0544-0.0465 0.0000 ( 22644 PWs)   bands (ev):

[...]

          k =-0.0815-0.0590 0.0000 ( 22640 PWs)   bands (ev):

   -56.3522 -56.3497 -56.2097 -56.2072 -55.9434 -55.9407 -32.7032 -32.6993
   -32.5748 -32.5392 -32.5339 -32.5337 -32.4908 -32.4856 -32.4522 -32.4087
   -32.3857 -32.3812 -32.2382 -32.1955 -32.1935 -32.1877 -32.1067 -32.1043
   -21.7383 -21.7203 -21.7146 -21.7085 -21.7070 -21.7014 -21.6917 -21.6885
   -21.6773 -21.6109 -21.5892 -21.5706 -21.5608 -21.5569 -21.5379 -21.5314
   -21.5255 -21.5220 -21.5186 -21.5174 -21.5062 -21.4985 -21.4947 -21.4870
   -21.4839 -21.4738 -21.4705 -21.4660 -21.4554 -21.4392 -10.2852  -9.8419
    -9.7531  -9.6029  -8.7388  -8.0162  -4.1136  -3.9086  -3.5193  -2.7953
    -2.3607  -2.2365  -2.0480  -1.6765  -0.8836  -0.8241   0.1255   0.2512
     0.4633   0.5677   0.6293   0.8655   0.8895   0.8919   0.9165   1.1015
     1.1524   1.2166   1.4191   1.7910   1.8039   1.8443   2.0293   2.0474
     2.3271   2.3831   2.5527

     the Fermi energy is     1.3121 ev

!    total energy              =   -1842.31478360 Ry
     Harris-Foulkes estimate   =   -1842.31478362 Ry
     estimated scf accuracy    <       0.00000002 Ry

     The total energy is the sum of the following terms:

     one-electron contribution =  -10826.85696608 Ry
     hartree contribution      =    5434.69217626 Ry
     xc contribution           =    -512.28797269 Ry
     ewald contribution        =    4062.22778667 Ry
     electric field correction =       0.00002526 Ry
     smearing contrib. (-TS)   =      -0.08983302 Ry

     convergence has been achieved in  11 iterations

 BEEF-vdW xc energy contributions
           1 :   -453.312830897560
           2 :    418.097700915839
           3 :   -357.253197431221
           4 :    285.612357489079
           5 :   -217.355460555199
           6 :    161.538802368617
           7 :   -120.723548298323
           8 :    92.4249717133288
           9 :   -71.9280147016640
          10 :    54.8675085012197
          11 :   -38.6529168569218
          12 :    22.6401720797458
          13 :   -7.53952514722374
          14 :   -5.36735006187365
          15 :    14.8640702802662
          16 :   -20.2612377929100
          17 :    21.7162240477767
          18 :   -20.3246365123428
          19 :    17.8127958052884
          20 :   -15.8451104749460
          21 :    15.2642426393948
          22 :   -15.7343022496722
          23 :    16.0472003471461
          24 :   -14.9346275394641
          25 :    11.8860535472069
          26 :   -7.47298862661364
          27 :    3.00100717992404
          28 :   0.252453569940542
          29 :   -1.71869098831900
          30 :    1.73596382786479
          31 :   -38.6434069891479
          32 :   -28.2519089155371

     Forces acting on atoms (Ry/au):

     negative rho (up, down):  2.758E-01 0.000E+00
     atom    1 type  1   force =    -0.00128997   -0.00093326    0.04409123
     atom    2 type  2   force =     0.00520966    0.00375108   -0.02713455
     atom    3 type  2   force =     0.00519271    0.00377438   -0.02713458
     atom    4 type  1   force =    -0.00129433   -0.00093637    0.04408202
     atom    5 type  1   force =     0.00044457    0.00032176    0.00918032
     atom    6 type  2   force =    -0.00450901   -0.00322757   -0.02909685
     atom    7 type  2   force =    -0.00447636   -0.00327262   -0.02909752
     atom    8 type  1   force =     0.00045179    0.00032689    0.00918835
     atom    9 type  1   force =    -0.00032794   -0.00023734    0.00104509
     atom   10 type  2   force =     0.00042317    0.00036995    0.00192144
     atom   11 type  2   force =     0.00048485    0.00028686    0.00192177
     atom   12 type  1   force =    -0.00030913   -0.00022376    0.00103327

     Total force =     0.003238     Total SCF correction =     0.000305

     entering subroutine stress ...

     negative rho (up, down):  2.758E-01 0.000E+00
          total   stress  (Ry/bohr**3)                   (kbar)     P=  -11.97
  -0.00011321  -0.00002036  -0.00000575        -16.65     -3.00     -0.85
  -0.00002036  -0.00009980  -0.00000416         -3.00    -14.68     -0.61
  -0.00000575  -0.00000416  -0.00003103         -0.85     -0.61     -4.56

     bfgs converged in  10 scf cycles and   9 bfgs steps
     (criteria: energy <  1.0E+00, force <  1.9E-03)

     End of BFGS Geometry Optimization

     Final energy   =   -1842.3147836024 Ry
Begin final coordinates

ATOMIC_POSITIONS (crystal)
Ti1     -0.000000000  -0.000000000   0.400586737    0   0   0
Bi1     -0.000000000   0.500000000   0.400586737    0   0   0
Bi1      0.500000000  -0.000000000   0.400586737    0   0   0
Ti1      0.500000000   0.500000000   0.400586737    0   0   0
Ti1      0.761689009   0.761689009   0.500000000    0   0   0
Bi1      0.761689009   0.261689009   0.500000000    0   0   0
Bi1      0.261689009   0.761689009   0.500000000    0   0   0
Ti1      0.261689009   0.261689009   0.500000000    0   0   0
Ti1      0.523974207   0.523975213   0.587332567
Bi1      0.519736085   0.019667772   0.607129309
Bi1      0.019665805   0.519735974   0.607129226
Ti1      0.023980766   0.023980518   0.587334681
End final coordinates

     Writing output data file calc.save

     General routines

     Parallel routines

   This run was terminated on:  13:22: 5  26Feb2018

   JOB DONE.