     Program PWSCF v.5.1rc2 starts on 26Feb2018 at 12:37: 8

     Current dimensions of program PWSCF are:
     Max number of different atomic species (ntypx) = 10
     Max number of k-points (npk) =  40000
     Max angular momentum in pseudopotentials (lmaxx) =  3
     Presently stress not available with electric field

     IMPORTANT: XC functional enforced from input :
     Exchange-correlation      = BEEF-VDW ( 1  4 27 13 2)
     Any further DFT definition will be discarded
     Please, verify this is what you really want

     Found symmetry operation: I + ( -0.5000 -0.5000  0.0000)
     This is a supercell, fractional translations are disabled

     bravais-lattice index     =            0
     lattice parameter (alat)  =       1.8897  a.u.
     unit-cell volume          =    7025.1236 (a.u.)^3
     number of atoms/cell      =           12
     number of atomic types    =            2
     number of electrons       =       204.00
     number of Kohn-Sham states=          112
     kinetic-energy cutoff     =      36.7493  Ry
     charge density cutoff     =     367.4932  Ry
     convergence threshold     =      1.0E-05
     mixing beta               =       0.3000
     number of iterations used =           10  plain     mixing
     Exchange-correlation      = BEEF-VDW ( 1  4 27 13 2)
     nstep                     =           50

     celldm(1)=   1.889726  celldm(2)=   0.000000  celldm(3)=   0.000000
     celldm(4)=   0.000000  celldm(5)=   0.000000  celldm(6)=   0.000000

     crystal axes: (cart. coord. in units of alat)
               a(1) = (   6.792753   0.000000   0.000000 )
               a(2) = (   3.205583   5.988800   0.000000 )
               a(3) = (  -0.000000   0.000000  25.590086 )

     reciprocal axes: (cart. coord. in units 2 pi/alat)
               b(1) = (  0.147216 -0.078799  0.000000 )
               b(2) = (  0.000000  0.166978 -0.000000 )
               b(3) = (  0.000000  0.000000  0.039078 )

     PseudoPot. # 1 for Ga read from file:
     /home/users/mamunm/src/pseudo/gbrv1.5pbe/Ga.UPF
     MD5 check sum: ccd671392a58a050fbb373893b4fcd66
     Pseudo is Ultrasoft + core correction, Zval = 19.0
     Generated by new atomic code, or converted to UPF format
     Using radial grid of  871 points,  6 beta functions with:
                l(1) =   0
                l(2) =   0
                l(3) =   1
                l(4) =   1
                l(5) =   2
                l(6) =   2
     Q(r) pseudized with  8 coefficients,  rinner =    1.250   1.250   1.250
                                                       1.250   1.250

     PseudoPot. # 2 for Bi read from file:
     /home/users/mamunm/src/pseudo/gbrv1.5pbe/Bi.UPF
     MD5 check sum: 81103212dc04adf40945787f699eab19
     Pseudo is Ultrasoft + core correction, Zval = 15.0
     Generated by new atomic code, or converted to UPF format
     Using radial grid of  899 points,  6 beta functions with:
                l(1) =   0
                l(2) =   0
                l(3) =   1
                l(4) =   1
                l(5) =   2
                l(6) =   2
     Q(r) pseudized with  6 coefficients,  rinner =    1.000   1.000   1.000
                                                       1.000   1.000

     vdW kernel table read from file vdW_kernel_table
     MD5 check sum: 095c7af220d748ca6e76c0b4c6cfb241

     atomic species   valence    mass     pseudopotential
        Ga1           19.00    69.72300     Ga( 1.00)
        Bi1           15.00   208.98040     Bi( 1.00)

     No symmetry found

   Cartesian axes

     site n.     atom                  positions (alat units)
         1           Ga1 tau(   1) = (  -0.0000000   0.0000000  10.0000000  )
         2           Bi1 tau(   2) = (   1.6027916   2.9944000  10.0000000  )
         3           Bi1 tau(   3) = (   3.3963764   0.0000000  10.0000000  )
         4           Ga1 tau(   4) = (   4.9991680   2.9944000  10.0000000  )
         5           Ga1 tau(   5) = (   6.7927528   4.0687208  12.7950432  )
         6           Bi1 tau(   6) = (   5.1899611   1.0743208  12.7950432  )
         7           Bi1 tau(   7) = (   3.3963764   4.0687208  12.7950432  )
         8           Ga1 tau(   8) = (   1.7935847   1.0743208  12.7950432  )
         9           Ga1 tau(   9) = (   3.5871695   2.1486416  15.5900863  )
        10           Bi1 tau(  10) = (   5.1899611   5.1430416  15.5900863  )
        11           Bi1 tau(  11) = (   6.9835458   2.1486416  15.5900863  )
        12           Ga1 tau(  12) = (   8.5863375   5.1430416  15.5900863  )

     number of k points=    20  Fermi-Dirac smearing, width (Ry)=  0.0110
                       cart. coord. in units 2pi/alat
        k(    1) = (   0.0000000   0.0000000   0.0000000), wk =   0.0555556
        k(    2) = (   0.0000000   0.0278297  -0.0000000), wk =   0.1111111
        k(    3) = (   0.0000000   0.0556595  -0.0000000), wk =   0.1111111
        k(    4) = (   0.0000000  -0.0834892   0.0000000), wk =   0.0555556
        k(    5) = (   0.0245360  -0.0131332   0.0000000), wk =   0.1111111
        k(    6) = (   0.0245360   0.0146965   0.0000000), wk =   0.1111111
        k(    7) = (   0.0245360   0.0425263   0.0000000), wk =   0.1111111
        k(    8) = (   0.0245360  -0.0966224   0.0000000), wk =   0.1111111
        k(    9) = (   0.0245360  -0.0687926   0.0000000), wk =   0.1111111
        k(   10) = (   0.0245360  -0.0409629   0.0000000), wk =   0.1111111
        k(   11) = (   0.0490719  -0.0262664   0.0000000), wk =   0.1111111
        k(   12) = (   0.0490719   0.0015633   0.0000000), wk =   0.1111111
        k(   13) = (   0.0490719   0.0293931   0.0000000), wk =   0.1111111
        k(   14) = (   0.0490719  -0.1097556   0.0000000), wk =   0.1111111
        k(   15) = (   0.0490719  -0.0819258   0.0000000), wk =   0.1111111
        k(   16) = (   0.0490719  -0.0540961   0.0000000), wk =   0.1111111
        k(   17) = (  -0.0736079   0.0393996  -0.0000000), wk =   0.0555556
        k(   18) = (  -0.0736079   0.0672293  -0.0000000), wk =   0.1111111
        k(   19) = (  -0.0736079   0.0950590  -0.0000000), wk =   0.1111111
        k(   20) = (  -0.0736079  -0.0440896  -0.0000000), wk =   0.0555556

     Largest allocated arrays     est. size (Mb)     dimensions
     Largest temporary arrays     est. size (Mb)     dimensions

     Initial potential from superposition of free atoms
     Check: negative starting charge=   -0.252983

     starting charge  191.99974, renormalised to  204.00000

     negative rho (up, down):  2.688E-01 0.000E+00

     *
     * You are using vdW-DF for exchange-correlation in this calculation.
     * Please cite the following three references that made this development
     * possible:
     *
     *   M. Dion, H. Rydberg, E. Schroder, D. C. Langreth, and
     *   B. I. Lundqvist, Phys. Rev. Lett. 92, 246401 (2004).
     *
     *   T. Thonhauser, V. R. Cooper, S. Li, A. Puzder, P. Hyldgaard, and
     *   D. C. Langreth, Phys. Rev. B 76, 125112 (2007).
     *
     *   G. Roman-Perez and J. M. Soler, Phys. Rev. Lett. 103, 096102 (2009).
     *
     *
     * If you are using vdW-DF2, please also cite:
     *
     *   K. Lee, E. D. Murray, L. Kong, B. I. Lundqvist, and
     *   D. C. Langreth, Phys. Rev. B 82, 081101(R) (2010).
     *
     *
     * If you are calculating the stress with vdW-DF, please also cite:
     *
     *   R. Sabatini, E. Kucukbenli, B. Kolb, T. Thonhauser, and
     *   S. de Gironcoli, J. Phys.: Condens. Matter 24, 424209 (2012).
     *

     Carrying out vdW-DF run using the following parameters:

     Nqs =      20    Nr_points =    1024   r_max =   100.000
     q_mesh =
               0.00001000     0.04494208     0.09755937     0.15916263
               0.23128650     0.31572767     0.41458969     0.53033537
               0.66584808     0.82450364     1.01025438     1.22772762
               1.48234092     1.78043706     2.12944203     2.53805004
               3.01644009     3.57652955     4.23227104     5.00000000

     Gradients computed in reciprocal space

     Adding external electric field

     Computed dipole along edir(3) :
        Dipole               -0.0000 Ry au,         -0.0000 Debye
        Dipole field         -0.0000 Ry au

        Potential amp.        0.0000 Ry
        Total length         47.1493 bohr

     Starting wfc are  126 randomized atomic wfcs

     Self-consistent Calculation

     iteration #  1     ecut=    36.75 Ry     beta=0.30
     Davidson diagonalization with overlap
     ethr =  1.00E-02,  avg # of iterations =  5.8

[...]

     total energy              =   -3468.33949586 Ry
     Harris-Foulkes estimate   =   -3644.98386766 Ry
     estimated scf accuracy    <     362.94249900 Ry

[...]

     End of self-consistent calculation

          k = 0.0000 0.0000 0.0000 ( 26445 PWs)   bands (ev):

   -94.6344 -94.6344 -94.6336 -94.6336 -94.6150 -94.6149 -94.6141 -94.6140
   -94.6045 -94.6045 -94.6035 -94.6035 -94.3854 -94.3854 -94.3814 -94.3813
   -94.3751 -94.3751 -23.0725 -23.0347 -23.0027 -22.9954 -22.9938 -22.9904
   -22.9903 -22.9897 -22.9485 -22.9241 -22.9181 -22.9142 -22.8769 -22.8749
   -22.8509 -22.8494 -22.8330 -22.8313 -22.8166 -22.8161 -22.8138 -22.8137
   -22.8127 -22.8108 -22.8078 -22.8063 -22.8045 -22.8001 -22.7763 -22.7739
   -14.9680 -14.9663 -14.9561 -14.9541 -14.9403 -14.9402 -14.9397 -14.9390
   -14.9385 -14.9378 -14.9345 -14.9333 -14.9333 -14.9320 -14.9318 -14.9310
   -14.9104 -14.9093 -14.8962 -14.8951 -14.7314 -14.7246 -14.7120 -14.7111
   -14.7027 -14.7005 -14.6975 -14.6944 -14.6848 -14.6687 -11.7326 -10.9504
   -10.3098  -9.9617  -9.4919  -9.1322  -5.5088  -5.3201  -4.9102  -4.8677
    -4.8590  -4.0208  -3.4273  -3.4222  -2.8347  -2.5195  -2.3462  -2.3226
    -2.1669  -2.1427  -1.8527  -1.7264  -0.2429   0.4825   0.9276   1.0714
     1.9951   2.1907   2.2202   2.2766   2.6018   2.6935   3.1149   3.1922

[...]

          k =-0.0736 0.0394-0.0000 ( 26428 PWs)   bands (ev):

[...]

     the Fermi energy is     0.2534 ev

!    total energy              =   -3622.44597080 Ry
     Harris-Foulkes estimate   =   -3622.44597626 Ry
     estimated scf accuracy    <       0.00000742 Ry

     The total energy is the sum of the following terms:

     one-electron contribution =  -16237.92393103 Ry
     hartree contribution      =    8145.67039604 Ry
     xc contribution           =    -697.15001535 Ry
     ewald contribution        =    5167.00158103 Ry
     electric field correction =       0.00000090 Ry
     smearing contrib. (-TS)   =      -0.04400239 Ry

     convergence has been achieved in  15 iterations

 BEEF-vdW xc energy contributions
           1 :   -622.362850712855
           2 :    572.387321874733
           3 :   -486.458855036230
           4 :    386.456168678999
           5 :   -293.341572154786
           6 :    220.061564444018
           7 :   -169.020018061744
           8 :    134.479232243638
           9 :   -107.859568414644
          10 :    82.7933349483060
          11 :   -57.5030112522711
          12 :    33.9761333896330
          13 :   -15.2768162733526
          14 :    3.04447018511655
          15 :    3.39943627798698
          16 :   -6.26364802084538
          17 :    7.79877548386116
          18 :   -9.25956175381134
          19 :    10.8325629499603
          20 :   -12.2336616356563
          21 :    13.2910074483606
          22 :   -14.0609801411456
          23 :    14.5521838490589
          24 :   -14.4928664576352
          25 :    13.4814208191046
          26 :   -11.4451206277537
          27 :    8.97702288713765
          28 :   -7.16038699120281
          29 :    6.89717777020837
          30 :   -8.20664626169037
          31 :   -47.9351312218669
          32 :   -34.0360802580842

     Forces acting on atoms (Ry/au):

     negative rho (up, down):  2.644E-01 0.000E+00
     atom    1 type  1   force =     0.00113924    0.00068010   -0.00049157
     atom    2 type  2   force =     0.00246577    0.00147255    0.01086636
     atom    3 type  2   force =     0.00246636    0.00147967    0.01083946
     atom    4 type  1   force =     0.00113310    0.00067126   -0.00047974
     atom    5 type  1   force =    -0.00014715   -0.00008423   -0.00097046
     atom    6 type  2   force =    -0.00010781   -0.00006313    0.00000439
     atom    7 type  2   force =    -0.00011232   -0.00006546    0.00001093
     atom    8 type  1   force =    -0.00014330   -0.00008310   -0.00096546
     atom    9 type  1   force =    -0.00097004   -0.00057777    0.00034871
     atom   10 type  2   force =    -0.00238084   -0.00142089   -0.00976931
     atom   11 type  2   force =    -0.00237844   -0.00142883   -0.00973957
     atom   12 type  1   force =    -0.00096458   -0.00058018    0.00034626

     Total force =     0.014438     Total SCF correction =     0.005662
     SCF correction compared to forces is large: reduce conv_thr to get better values

     entering subroutine stress ...

     negative rho (up, down):  2.644E-01 0.000E+00
          total   stress  (Ry/bohr**3)                   (kbar)     P=   -4.13
  -0.00002978  -0.00000234  -0.00000984         -4.38     -0.34     -1.45
  -0.00000234  -0.00002727  -0.00000589         -0.34     -4.01     -0.87
  -0.00000984  -0.00000589  -0.00002711         -1.45     -0.87     -3.99

     BFGS Geometry Optimization

     number of scf cycles    =   1
     number of bfgs steps    =   0

     energy   new            =   -3622.4459708045 Ry

     new trust radius        =       0.0101551317 bohr
     new conv_thr            =       0.0000099958 Ry

ATOMIC_POSITIONS (crystal)
Ga1     -0.000000000  -0.000000000   0.390776329    0   0   0
Bi1     -0.000000000   0.500000000   0.390776329    0   0   0
Bi1      0.500000000  -0.000000000   0.390776329    0   0   0
Ga1      0.500000000   0.500000000   0.390776329    0   0   0
Ga1      0.679388323   0.679388323   0.500000000    0   0   0
Bi1      0.679388323   0.179388323   0.500000000    0   0   0
Bi1      0.179388323   0.679388323   0.500000000    0   0   0
Ga1      0.179388323   0.179388323   0.500000000    0   0   0
Ga1      0.358725169   0.358725594   0.609230882
Bi1      0.358650420   0.858651095   0.609021651
Bi1      0.858650938   0.358650393   0.609022266
Ga1      0.858725695   0.858725380   0.609230831

     Writing output data file calc.save
     Check: negative starting charge=   -0.252983
     NEW-OLD atomic charge density approx. for the potential
     Check: negative starting charge=   -0.252508

[...]

     energy   old            =   -3622.4459708045 Ry
     energy   new            =   -3622.4462154238 Ry

     CASE: energy  _new < energy  _old

     WARNING: bfgs curvature condition failed, Theta= 0.635
     new trust radius        =       0.0152326976 bohr
     new conv_thr            =       0.0000001000 Ry

[...]

     Total force =     0.017073     Total SCF correction =     0.000815

[...]

     WARNING: info= 36 for Hessian

     WARNING: bfgs curvature condition failed, Theta= 0.010
     uphill step: resetting bfgs history

[...]

     WARNING: bfgs curvature condition failed, Theta= 0.792
     new trust radius        =       0.0173993021 bohr
     new conv_thr            =       0.0000001000 Ry

[...]

     Total force =     0.008994     Total SCF correction =     0.000770

[...]

     number of scf cycles    =  10
     number of bfgs steps    =   9

     energy   old            =   -3622.4511840002 Ry
     energy   new            =   -3622.4522898908 Ry

     CASE: energy  _new < energy  _old

     new trust radius        =       0.0461190998 bohr
     new conv_thr            =       0.0000001000 Ry

ATOMIC_POSITIONS (crystal)
Ga1     -0.000000000   0.000000000   0.390776329    0   0   0
Bi1     -0.000000000   0.500000000   0.390776329    0   0   0
Bi1      0.500000000   0.000000000   0.390776329    0   0   0
Ga1      0.500000000   0.500000000   0.390776329    0   0   0
Ga1      0.679388323   0.679388323   0.500000000    0   0   0
Bi1      0.679388323   0.179388323   0.500000000    0   0   0
Bi1      0.179388323   0.679388323   0.500000000    0   0   0
Ga1      0.179388323   0.179388323   0.500000000    0   0   0
Ga1      0.358276945   0.358276135   0.607190809
Bi1      0.353388887   0.853393086   0.600362427
Bi1      0.853394402   0.353391227   0.600364229
Ga1      0.858275400   0.858274855   0.607189180

     Writing output data file calc.save
     Check: negative starting charge=   -0.252605
     NEW-OLD atomic charge density approx. for the potential
     Check: negative starting charge=   -0.253119

[...]

     Self-consistent Calculation

[...]

     total energy              =   -3622.45236857 Ry
     Harris-Foulkes estimate   =   -3622.45236868 Ry
     estimated scf accuracy    <       0.00000014 Ry

     iteration #  8     ecut=    36.75 Ry     beta=0.30
     Davidson diagonalization with overlap
     ethr =  6.68E-11,  avg # of iterations =  3.5

[...]

     negative rho (up, down):  2.650E-01 0.000E+00

     Adding external electric field

     Computed dipole along edir(3) :
        Dipole                0.0373 Ry au,          0.0947 Debye
        Dipole field          0.0001 Ry au

        Potential amp.       -0.0063 Ry
        Total length         47.1493 bohr

     End of self-consistent calculation

[...]

          k = 0.0491-0.0541 0.0000 ( 26429 PWs)   bands (ev):

[...]

          k =-0.0736-0.0441-0.0000 ( 26378 PWs)   bands (ev):

   -94.6010 -94.6010 -94.5894 -94.5894 -94.5846 -94.5845 -94.5755 -94.5755
   -94.5683 -94.5681 -94.5566 -94.5566 -94.3701 -94.3700 -94.3627 -94.3625
   -94.3534 -94.3534 -23.0345 -22.9866 -22.9753 -22.9518 -22.9455 -22.9414
   -22.9412 -22.9409 -22.9034 -22.8956 -22.8701 -22.8664 -22.8623 -22.8445
   -22.8234 -22.8222 -22.8058 -22.8054 -22.8018 -22.8003 -22.7956 -22.7897
   -22.7786 -22.7664 -22.7626 -22.7620 -22.7590 -22.7577 -22.7500 -22.7265
   -14.9367 -14.9252 -14.9219 -14.9104 -14.9104 -14.9094 -14.9088 -14.9042
   -14.9036 -14.9005 -14.8955 -14.8914 -14.8889 -14.8871 -14.8864 -14.8855
   -14.8840 -14.8690 -14.8636 -14.8499 -14.7147 -14.7071 -14.6973 -14.6922
   -14.6889 -14.6849 -14.6804 -14.6801 -14.6670 -14.6505 -11.5323 -10.9257
   -10.4322 -10.2987  -9.5155  -8.9169  -6.9157  -6.0270  -5.8905  -5.7607
    -4.9248  -3.5676  -2.1441  -1.6726  -1.6336  -1.6275  -1.5829  -1.2686
    -1.1042  -0.6728   0.1039   0.1134   0.2414   0.5731   0.6240   0.7536
     0.7865   1.2781   1.6254   1.6548   1.8731   2.1219   2.2573   2.4600

     the Fermi energy is     0.3040 ev

!    total energy              =   -3622.45236844 Ry
     Harris-Foulkes estimate   =   -3622.45236857 Ry
     estimated scf accuracy    <       0.00000003 Ry

     The total energy is the sum of the following terms:

     one-electron contribution =  -16499.47603707 Ry
     hartree contribution      =    8276.60630818 Ry
     xc contribution           =    -697.26712810 Ry
     ewald contribution        =    5297.72616647 Ry
     electric field correction =       0.00000248 Ry
     smearing contrib. (-TS)   =      -0.04168041 Ry

     convergence has been achieved in   8 iterations

 BEEF-vdW xc energy contributions
           1 :   -622.485490946208
           2 :    572.574667608224
           3 :   -486.730127927029
           4 :    386.764240091539
           5 :   -293.593608901559
           6 :    220.172030687386
           7 :   -168.962207888533
           8 :    134.303673560448
           9 :   -107.669089801172
          10 :    82.6897490602183
          11 :   -57.5357319758737
          12 :    34.1205488794170
          13 :   -15.4520273970295
          14 :    3.15857475619362
          15 :    3.40181991765235
          16 :   -6.37561770305115
          17 :    7.95814611031801
          18 :   -9.38274305573441
          19 :    10.8566998271633
          20 :   -12.1466352041439
          21 :    13.1363147356562
          22 :   -13.9161171523816
          23 :    14.4909503239681
          24 :   -14.5487923323667
          25 :    13.6293697186502
          26 :   -11.6106975299519
          27 :    9.07077050797375
          28 :   -7.12178100287269
          29 :    6.72725678930988
          30 :   -7.97195069860857
          31 :   -47.9461545719016
          32 :   -34.0641359986494

     Forces acting on atoms (Ry/au):

     negative rho (up, down):  2.650E-01 0.000E+00
     atom    1 type  1   force =     0.00146938    0.00088006    0.00292557
     atom    2 type  2   force =    -0.00052800   -0.00031635    0.01010474
     atom    3 type  2   force =    -0.00052745   -0.00031620    0.01010526
     atom    4 type  1   force =     0.00146924    0.00088010    0.00292617
     atom    5 type  1   force =     0.00140026    0.00083642   -0.00657461
     atom    6 type  2   force =    -0.00270313   -0.00161863   -0.00513568
     atom    7 type  2   force =    -0.00270493   -0.00162030   -0.00513868
     atom    8 type  1   force =     0.00140016    0.00083996   -0.00657368
     atom    9 type  1   force =    -0.00069237   -0.00041463   -0.00185517
     atom   10 type  2   force =     0.00105497    0.00063214    0.00053953
     atom   11 type  2   force =     0.00105388    0.00063212    0.00053488
     atom   12 type  1   force =    -0.00069200   -0.00041470   -0.00185833

     Total force =     0.003435     Total SCF correction =     0.001445
     SCF correction compared to forces is large: reduce conv_thr to get better values

     entering subroutine stress ...

     negative rho (up, down):  2.650E-01 0.000E+00
          total   stress  (Ry/bohr**3)                   (kbar)     P=   -5.20
  -0.00003548   0.00000247  -0.00000141         -5.22      0.36     -0.21
   0.00000247  -0.00003812  -0.00000085          0.36     -5.61     -0.12
  -0.00000141  -0.00000085  -0.00003238         -0.21     -0.12     -4.76

     bfgs converged in  11 scf cycles and  10 bfgs steps
     (criteria: energy <  1.0E+00, force <  1.9E-03)

     End of BFGS Geometry Optimization

     Final energy   =   -3622.4523684427 Ry
Begin final coordinates

ATOMIC_POSITIONS (crystal)
Ga1     -0.000000000   0.000000000   0.390776329    0   0   0
Bi1     -0.000000000   0.500000000   0.390776329    0   0   0
Bi1      0.500000000   0.000000000   0.390776329    0   0   0
Ga1      0.500000000   0.500000000   0.390776329    0   0   0
Ga1      0.679388323   0.679388323   0.500000000    0   0   0
Bi1      0.679388323   0.179388323   0.500000000    0   0   0
Bi1      0.179388323   0.679388323   0.500000000    0   0   0
Ga1      0.179388323   0.179388323   0.500000000    0   0   0
Ga1      0.358276945   0.358276135   0.607190809
Bi1      0.353388887   0.853393086   0.600362427
Bi1      0.853394402   0.353391227   0.600364229
Ga1      0.858275400   0.858274855   0.607189180
End final coordinates

     Writing output data file calc.save

     General routines

     Parallel routines

   This run was terminated on:  13:18:58  26Feb2018

   JOB DONE.