     Program PWSCF v.5.1rc2 (svn rev. ) starts on 23Feb2018 at 21: 5:17

     Current dimensions of program PWSCF are:
     Max number of different atomic species (ntypx) = 10
     Max number of k-points (npk) =  40000
     Max angular momentum in pseudopotentials (lmaxx) =  3
     Presently stress not available with electric field

     IMPORTANT: XC functional enforced from input :
     Exchange-correlation      = BEEF-VDW ( 1  4 27 13 2)
     Any further DFT definition will be discarded
     Please, verify this is what you really want

     Subspace diagonalization in iterative solution of the eigenvalue problem:
     a serial algorithm will be used

     Found symmetry operation: I + ( -0.5000 -0.5000  0.0000)
     This is a supercell, fractional translations are disabled

     bravais-lattice index     =            0
     lattice parameter (alat)  =       1.8897  a.u.
     unit-cell volume          =    5691.4254 (a.u.)^3
     number of atoms/cell      =           12
     number of atomic types    =            2
     number of electrons       =       168.00
     number of Kohn-Sham states=           94
     kinetic-energy cutoff     =      36.7493  Ry
     charge density cutoff     =     367.4932  Ry
     convergence threshold     =      1.0E-05
     mixing beta               =       0.3000
     number of iterations used =           10  plain     mixing
     Exchange-correlation      = BEEF-VDW ( 1  4 27 13 2)
     nstep                     =           50

     celldm(1)=   1.889726  celldm(2)=   0.000000  celldm(3)=   0.000000
     celldm(4)=   0.000000  celldm(5)=   0.000000  celldm(6)=   0.000000

     crystal axes: (cart. coord. in units of alat)
               a(1) = (   5.983677   0.000000   0.000000 )
               a(2) = (   1.911472   5.670156   0.000000 )
               a(3) = (   0.000000   0.000000  24.857722 )

     reciprocal axes: (cart. coord. in units 2 pi/alat)
               b(1) = (  0.167121 -0.056338  0.000000 )
               b(2) = (  0.000000  0.176362  0.000000 )
               b(3) = (  0.000000  0.000000  0.040229 )

     PseudoPot. # 1 for V  read from file:
     /home/mamunm/src/pseudo/gbrv1.5pbe/V.UPF
     MD5 check sum: 22b79981416ebb76fdaf5b1b8640f6fb
     Pseudo is Ultrasoft + core correction, Zval = 13.0
     Generated by new atomic code, or converted to UPF format
     Using radial grid of  853 points,  6 beta functions with:
                l(1) =   0
                l(2) =   0
                l(3) =   1
                l(4) =   1
                l(5) =   2
                l(6) =   2
     Q(r) pseudized with  8 coefficients,  rinner =    1.100   1.100   1.100
                                                       1.100   1.100

     PseudoPot. # 2 for Bi read from file:
     /home/mamunm/src/pseudo/gbrv1.5pbe/Bi.UPF
     MD5 check sum: 81103212dc04adf40945787f699eab19
     Pseudo is Ultrasoft + core correction, Zval = 15.0
     Generated by new atomic code, or converted to UPF format
     Using radial grid of  899 points,  6 beta functions with:
                l(1) =   0
                l(2) =   0
                l(3) =   1
                l(4) =   1
                l(5) =   2
                l(6) =   2
     Q(r) pseudized with  6 coefficients,  rinner =    1.000   1.000   1.000
                                                       1.000   1.000

     vdW kernel table read from file vdW_kernel_table
     MD5 check sum: 095c7af220d748ca6e76c0b4c6cfb241

     atomic species   valence    mass     pseudopotential
        V1            13.00    50.94150     V ( 1.00)
        Bi1           15.00   208.98040     Bi( 1.00)

     No symmetry found

   Cartesian axes

     site n.     atom                  positions (alat units)
         1           V1  tau(   1) = (   0.0000000   0.0000000  10.0000000  )
         2           Bi1 tau(   2) = (   0.9557359   2.8350778  10.0000000  )
         3           Bi1 tau(   3) = (   2.9918385   0.0000000  10.0000000  )
         4           V1  tau(   4) = (   3.9475744   2.8350778  10.0000000  )
         5           V1  tau(   5) = (   5.9836769   4.2973705  12.4288611  )
         6           Bi1 tau(   6) = (   5.0279410   1.4622927  12.4288611  )
         7           Bi1 tau(   7) = (   2.9918385   4.2973705  12.4288611  )
         8           V1  tau(   8) = (   2.0361025   1.4622927  12.4288611  )
         9           V1  tau(   9) = (   4.0722050   2.9245853  14.8577222  )
        10           Bi1 tau(  10) = (   3.1164691   0.0895075  14.8577222  )
        11           Bi1 tau(  11) = (   1.0803666   2.9245853  14.8577222  )
        12           V1  tau(  12) = (   0.1246306   0.0895075  14.8577222  )

     number of k points=    20  Fermi-Dirac smearing, width (Ry)=  0.0110
                       cart. coord. in units 2pi/alat
        k(    1) = (   0.0000000   0.0000000   0.0000000), wk =   0.0555556
        k(    2) = (   0.0000000   0.0293937   0.0000000), wk =   0.1111111
        k(    3) = (   0.0000000   0.0587873   0.0000000), wk =   0.1111111
        k(    4) = (   0.0000000  -0.0881810   0.0000000), wk =   0.0555556
        k(    5) = (   0.0278536  -0.0093897   0.0000000), wk =   0.1111111
        k(    6) = (   0.0278536   0.0200039   0.0000000), wk =   0.1111111
        k(    7) = (   0.0278536   0.0493976   0.0000000), wk =   0.1111111
        k(    8) = (   0.0278536  -0.0975707   0.0000000), wk =   0.1111111
        k(    9) = (   0.0278536  -0.0681771   0.0000000), wk =   0.1111111
        k(   10) = (   0.0278536  -0.0387834   0.0000000), wk =   0.1111111
        k(   11) = (   0.0557071  -0.0187795   0.0000000), wk =   0.1111111
        k(   12) = (   0.0557071   0.0106142   0.0000000), wk =   0.1111111
        k(   13) = (   0.0557071   0.0400079   0.0000000), wk =   0.1111111
        k(   14) = (   0.0557071  -0.1069605   0.0000000), wk =   0.1111111
        k(   15) = (   0.0557071  -0.0775668   0.0000000), wk =   0.1111111
        k(   16) = (   0.0557071  -0.0481731   0.0000000), wk =   0.1111111
        k(   17) = (  -0.0835607   0.0281692   0.0000000), wk =   0.0555556
        k(   18) = (  -0.0835607   0.0575629   0.0000000), wk =   0.1111111
        k(   19) = (  -0.0835607   0.0869566   0.0000000), wk =   0.1111111
        k(   20) = (  -0.0835607  -0.0600118   0.0000000), wk =   0.0555556

     Largest allocated arrays     est. size (Mb)     dimensions
     Largest temporary arrays     est. size (Mb)     dimensions

     Check: negative/imaginary core charge=   -0.000001    0.000000

     Initial potential from superposition of free atoms
     Check: negative starting charge=   -0.253963

     starting charge  161.99239, renormalised to  168.00000

     negative rho (up, down):  2.634E-01 0.000E+00

     *
     * You are using vdW-DF for exchange-correlation in this calculation.
     * Please cite the following three references that made this development
     * possible:
     *
     *   M. Dion, H. Rydberg, E. Schroder, D. C. Langreth, and
     *   B. I. Lundqvist, Phys. Rev. Lett. 92, 246401 (2004).
     *
     *   T. Thonhauser, V. R. Cooper, S. Li, A. Puzder, P. Hyldgaard, and
     *   D. C. Langreth, Phys. Rev. B 76, 125112 (2007).
     *
     *   G. Roman-Perez and J. M. Soler, Phys. Rev. Lett. 103, 096102 (2009).
     *
     *
     * If you are using vdW-DF2, please also cite:
     *
     *   K. Lee, E. D. Murray, L. Kong, B. I. Lundqvist, and
     *   D. C. Langreth, Phys. Rev. B 82, 081101(R) (2010).
     *
     *
     * If you are calculating the stress with vdW-DF, please also cite:
     *
     *   R. Sabatini, E. Kucukbenli, B. Kolb, T. Thonhauser, and
     *   S. de Gironcoli, J. Phys.: Condens. Matter 24, 424209 (2012).
     *

     Carrying out vdW-DF run using the following parameters:

     Nqs =      20    Nr_points =    1024   r_max =   100.000
     q_mesh =
               0.00001000     0.04494208     0.09755937     0.15916263
               0.23128650     0.31572767     0.41458969     0.53033537
               0.66584808     0.82450364     1.01025438     1.22772762
               1.48234092     1.78043706     2.12944203     2.53805004
               3.01644009     3.57652955     4.23227104     5.00000000

     Gradients computed in reciprocal space

     Adding external electric field

     Computed dipole along edir(3) :
        Dipole               -0.0000 Ry au,         -0.0000 Debye
        Dipole field         -0.0000 Ry au

        Potential amp.        0.0000 Ry
        Total length         45.7999 bohr

     Starting wfc are  114 randomized atomic wfcs

     Self-consistent Calculation

     iteration #  1     ecut=    36.75 Ry     beta=0.30
     Davidson diagonalization with overlap
     ethr =  1.00E-02,  avg # of iterations =  3.0

[...]

     total energy              =   -1995.60020011 Ry
     Harris-Foulkes estimate   =   -1998.49292124 Ry
     estimated scf accuracy    <       6.46991867 Ry

[...]

     End of self-consistent calculation

          k = 0.0000 0.0000 0.0000 ( 21343 PWs)   bands (ev):

   -63.0806 -63.0803 -63.0787 -63.0784 -62.9541 -62.9522 -36.9699 -36.9694
   -36.9677 -36.9665 -36.9378 -36.9375 -36.9072 -36.9071 -36.8458 -36.8414
   -36.8411 -36.8387 -36.8109 -36.8105 -36.7817 -36.7537 -36.7499 -36.7490
   -21.6725 -21.6430 -21.6380 -21.6290 -21.6220 -21.6138 -21.6131 -21.5902
   -21.5714 -21.5379 -21.5330 -21.5306 -21.4945 -21.4926 -21.4893 -21.4869
   -21.4482 -21.4470 -21.4413 -21.4406 -21.4397 -21.4396 -21.4390 -21.4326
   -21.4287 -21.4247 -21.3983 -21.3851 -21.3813 -21.3690 -11.2715 -10.0850
    -9.0532  -9.0259  -8.6839  -8.5652  -3.0028  -2.6825  -2.1614  -2.1508
    -2.1423  -2.0453  -1.4882  -1.4506  -0.8661  -0.2223  -0.1540  -0.0393
     0.4290   0.4778   0.5733   0.8229   0.8394   0.9036   1.0533   1.0733
     1.2641   1.3276   1.3435   1.5225   1.5705   1.6228   1.6592   1.8227
     1.8275   1.8297   1.9192   2.0144   2.0389   2.0547

[...]

          k =-0.0836 0.0282 0.0000 ( 21404 PWs)   bands (ev):

[...]

     the Fermi energy is     1.4904 ev

!    total energy              =   -1997.08257567 Ry
     Harris-Foulkes estimate   =   -1997.08257883 Ry
     estimated scf accuracy    <       0.00000445 Ry

     The total energy is the sum of the following terms:

     one-electron contribution =  -12353.16893859 Ry
     hartree contribution      =    6199.59099704 Ry
     xc contribution           =    -521.96364312 Ry
     ewald contribution        =    4678.58584247 Ry
     electric field correction =       0.00000004 Ry
     smearing contrib. (-TS)   =      -0.12683353 Ry

     convergence has been achieved in  18 iterations

 BEEF-vdW xc energy contributions
           1 :   -461.854183488449
           2 :    426.038112245797
           3 :   -364.155307495801
           4 :    291.438161946890
           5 :   -222.639670374812
           6 :    167.297924173152
           7 :   -128.059875568803
           8 :    102.054823983475
           9 :   -83.9438079154565
          10 :    68.8704723503948
          11 :   -54.1296305446425
          12 :    39.3157811274896
          13 :   -25.4786497258806
          14 :    14.0336471249717
          15 :   -5.97077159113093
          16 :    1.51368692325570
          17 :  -0.119457569071415
          18 :   0.657969564797781
          19 :   -1.71841168230219
          20 :    2.03855334718850
          21 :  -0.973627757594386
          22 :   -1.22213075835060
          23 :    3.53024262590247
          24 :   -4.74240510965035
          25 :    4.18534292101839
          26 :   -2.15618144428140
          27 :  -0.227897132231305
          28 :    1.68657792298040
          29 :   -1.53135896882281
          30 :   4.440476556703743E-002
          31 :   -39.2660463843666
          32 :   -28.7837659493107

     Forces acting on atoms (Ry/au):

     negative rho (up, down):  2.755E-01 0.000E+00
     atom    1 type  1   force =    -0.00063588   -0.00045718    0.04696912
     atom    2 type  2   force =     0.00488502    0.00311130   -0.02704215
     atom    3 type  2   force =     0.00450389    0.00363278   -0.02704242
     atom    4 type  1   force =    -0.00061946   -0.00044478    0.04697999
     atom    5 type  1   force =    -0.00001056   -0.00000811   -0.00018940
     atom    6 type  2   force =    -0.00032497    0.00040076    0.00050208
     atom    7 type  2   force =     0.00028552   -0.00042870    0.00051449
     atom    8 type  1   force =    -0.00000040   -0.00000270   -0.00017558
     atom    9 type  1   force =     0.00064814    0.00046444   -0.04738405
     atom   10 type  2   force =    -0.00484592   -0.00312447    0.02709875
     atom   11 type  2   force =    -0.00450326   -0.00358658    0.02710757
     atom   12 type  1   force =     0.00061786    0.00044324   -0.04733839

     Total force =     0.077608     Total SCF correction =     0.003072

     entering subroutine stress ...

     negative rho (up, down):  2.755E-01 0.000E+00
          total   stress  (Ry/bohr**3)                   (kbar)     P=  -17.49
  -0.00014064  -0.00000097  -0.00001295        -20.69     -0.14     -1.91
  -0.00000097  -0.00013999  -0.00000930         -0.14    -20.59     -1.37
  -0.00001295  -0.00000930  -0.00007614         -1.91     -1.37    -11.20

     BFGS Geometry Optimization

     number of scf cycles    =   1
     number of bfgs steps    =   0

     energy   new            =   -1997.0825756744 Ry

     new trust radius        =       0.0473907583 bohr
     new conv_thr            =       0.0000099958 Ry

ATOMIC_POSITIONS (crystal)
V1       0.000000000   0.000000000   0.402289474    0   0   0
Bi1      0.000000000   0.500000000   0.402289474    0   0   0
Bi1      0.500000000   0.000000000   0.402289474    0   0   0
V1       0.500000000   0.500000000   0.402289474    0   0   0
V1       0.757892862   0.757892862   0.500000000    0   0   0
Bi1      0.757892862   0.257892862   0.500000000    0   0   0
Bi1      0.257892862   0.757892862   0.500000000    0   0   0
V1       0.257892862   0.257892862   0.500000000    0   0   0
V1       0.515829197   0.515829069   0.596701803
Bi1      0.515450316   0.015494127   0.598287411
Bi1      0.015494396   0.515451000   0.598287599
V1       0.015827151   0.015827090   0.596702775

     Writing output data file calc.save
     Check: negative starting charge=   -0.253963
     NEW-OLD atomic charge density approx. for the potential

     Check: negative/imaginary core charge=   -0.000001    0.000000
     Check: negative starting charge=   -0.254419

[...]

     iteration #  1     ecut=    36.75 Ry     beta=0.30
     Davidson diagonalization with overlap
     c_bands:  2 eigenvalues not converged
     ethr =  1.00E-06,  avg # of iterations = 14.1

[...]

     Total force =     0.074735     Total SCF correction =     0.009991
     SCF correction compared to forces is large: reduce conv_thr to get better values

[...]

     energy   old            =   -1997.0825756744 Ry
     energy   new            =   -1997.0883818690 Ry

     CASE: energy  _new < energy  _old

     WARNING: bfgs curvature condition failed, Theta= 0.831
     new trust radius        =       0.0521298341 bohr
     new conv_thr            =       0.0000001000 Ry

[...]

     Total force =     0.025255     Total SCF correction =     0.000674

[...]

     iteration #  1     ecut=    36.75 Ry     beta=0.30
     Davidson diagonalization with overlap
     c_bands:  1 eigenvalues not converged
     ethr =  1.00E-06,  avg # of iterations = 15.4

[...]

     number of scf cycles    =   7
     number of bfgs steps    =   6

     energy   old            =   -1997.1222393040 Ry
     energy   new            =   -1997.1254104401 Ry

     CASE: energy  _new < energy  _old

     new trust radius        =       0.0402684789 bohr
     new conv_thr            =       0.0000001000 Ry

ATOMIC_POSITIONS (crystal)
V1       0.000000000   0.000000000   0.402289474    0   0   0
Bi1      0.000000000   0.500000000   0.402289474    0   0   0
Bi1      0.500000000   0.000000000   0.402289474    0   0   0
V1       0.500000000   0.500000000   0.402289474    0   0   0
V1       0.757892862   0.757892862   0.500000000    0   0   0
Bi1      0.757892862   0.257892862   0.500000000    0   0   0
Bi1      0.257892862   0.757892862   0.500000000    0   0   0
V1       0.257892862   0.257892862   0.500000000    0   0   0
V1       0.515998336   0.515997132   0.584281792
Bi1      0.512266775   0.012535333   0.604217549
Bi1      0.012536372   0.512270148   0.604218395
V1       0.015952820   0.015953613   0.584286198

     Writing output data file calc.save
     Check: negative starting charge=   -0.253754
     NEW-OLD atomic charge density approx. for the potential

     Check: negative/imaginary core charge=   -0.000001    0.000000
     Check: negative starting charge=   -0.252776

[...]

     Self-consistent Calculation

[...]

     total energy              =   -1997.12557760 Ry
     Harris-Foulkes estimate   =   -1997.12557763 Ry
     estimated scf accuracy    <       0.00000110 Ry

     iteration # 17     ecut=    36.75 Ry     beta=0.30
     Davidson diagonalization with overlap
     ethr =  6.07E-10,  avg # of iterations =  1.4

[...]

     negative rho (up, down):  2.745E-01 0.000E+00

     Adding external electric field

     Computed dipole along edir(3) :
        Dipole               -0.0352 Ry au,         -0.0896 Debye
        Dipole field         -0.0001 Ry au

        Potential amp.        0.0071 Ry
        Total length         45.7999 bohr

     End of self-consistent calculation

[...]

          k = 0.0557-0.0482 0.0000 ( 21422 PWs)   bands (ev):

[...]

          k =-0.0836-0.0600 0.0000 ( 21474 PWs)   bands (ev):

   -63.1640 -63.1622 -63.1095 -63.1077 -63.0472 -63.0452 -37.0532 -37.0499
   -37.0336 -37.0028 -37.0020 -36.9954 -36.9672 -36.9343 -36.9231 -36.9163
   -36.9079 -36.9033 -36.9009 -36.8777 -36.8775 -36.8461 -36.8261 -36.8238
   -21.7660 -21.7367 -21.7262 -21.7222 -21.7174 -21.7156 -21.7106 -21.6913
   -21.6802 -21.6078 -21.6038 -21.5860 -21.5662 -21.5533 -21.5486 -21.5376
   -21.5202 -21.5100 -21.5081 -21.5081 -21.5033 -21.4991 -21.4925 -21.4923
   -21.4879 -21.4851 -21.4806 -21.4572 -21.4517 -21.4407 -10.4341  -9.9730
    -9.7965  -9.7188  -8.6727  -7.7995  -4.3592  -4.1250  -3.6893  -2.9596
    -2.4853  -2.2989  -2.1247  -1.6877  -0.9137  -0.8677   0.1190   0.2058
     0.3441   0.4027   0.6061   0.6169   0.6184   0.7295   0.7743   0.8957
     0.9111   1.0643   1.2089   1.5496   1.5617   1.7465   1.7650   1.8191
     1.9677   2.0363   2.0730   2.1356   2.2219   2.3522

     the Fermi energy is     1.4248 ev

!    total energy              =   -1997.12557759 Ry
     Harris-Foulkes estimate   =   -1997.12557778 Ry
     estimated scf accuracy    <       0.00000004 Ry

     The total energy is the sum of the following terms:

     one-electron contribution =  -12456.63737653 Ry
     hartree contribution      =    6250.87288486 Ry
     xc contribution           =    -522.01794188 Ry
     ewald contribution        =    4730.77549965 Ry
     electric field correction =       0.00000274 Ry
     smearing contrib. (-TS)   =      -0.11864643 Ry

     convergence has been achieved in  17 iterations

 BEEF-vdW xc energy contributions
           1 :   -461.910593902701
           2 :    426.115163765955
           3 :   -364.251403421231
           4 :    291.524966611247
           5 :   -222.683878244874
           6 :    167.290583689634
           7 :   -128.021830269178
           8 :    102.015737346020
           9 :   -83.9182921706615
          10 :    68.8512728707079
          11 :   -54.0975035262160
          12 :    39.2561852946334
          13 :   -25.3964390101981
          14 :    13.9578018894686
          15 :   -5.94140816152748
          16 :    1.55256868499833
          17 :  -0.203766754413380
          18 :   0.725235379432490
          19 :   -1.70831720091900
          20 :    1.94199247124271
          21 :  -0.846613528746559
          22 :   -1.29560504155535
          23 :    3.49929501010450
          24 :   -4.62728470826636
          25 :    4.06448899222647
          26 :   -2.11301194606864
          27 :  -0.160908194801380
          28 :    1.54967789114801
          29 :   -1.41001109683504
          30 :   8.882832497818072E-003
          31 :   -39.2709044665923
          32 :   -28.7910665377541

     Forces acting on atoms (Ry/au):

     negative rho (up, down):  2.745E-01 0.000E+00
     atom    1 type  1   force =    -0.00074019   -0.00053149    0.05083741
     atom    2 type  2   force =     0.00474206    0.00344671   -0.02805406
     atom    3 type  2   force =     0.00478091    0.00339253   -0.02805397
     atom    4 type  1   force =    -0.00073958   -0.00053130    0.05083492
     atom    5 type  1   force =    -0.00055796   -0.00040082    0.01578680
     atom    6 type  2   force =    -0.00390704   -0.00279191   -0.03785297
     atom    7 type  2   force =    -0.00389442   -0.00281131   -0.03785242
     atom    8 type  1   force =    -0.00055783   -0.00040040    0.01577544
     atom    9 type  1   force =     0.00024863    0.00017848   -0.00073257
     atom   10 type  2   force =     0.00033936   -0.00002938    0.00003225
     atom   11 type  2   force =     0.00007861    0.00032900    0.00003027
     atom   12 type  1   force =     0.00020746    0.00014988   -0.00075110

     Total force =     0.001222     Total SCF correction =     0.000666
     SCF correction compared to forces is large: reduce conv_thr to get better values

     entering subroutine stress ...

     negative rho (up, down):  2.745E-01 0.000E+00
          total   stress  (Ry/bohr**3)                   (kbar)     P=  -16.22
  -0.00015019  -0.00002856  -0.00000574        -22.09     -4.20     -0.84
  -0.00002856  -0.00013093  -0.00000412         -4.20    -19.26     -0.61
  -0.00000574  -0.00000412  -0.00004957         -0.84     -0.61     -7.29

     bfgs converged in   8 scf cycles and   7 bfgs steps
     (criteria: energy <  1.0E+00, force <  1.9E-03)

     End of BFGS Geometry Optimization

     Final energy   =   -1997.1255775912 Ry
Begin final coordinates

ATOMIC_POSITIONS (crystal)
V1       0.000000000   0.000000000   0.402289474    0   0   0
Bi1      0.000000000   0.500000000   0.402289474    0   0   0
Bi1      0.500000000   0.000000000   0.402289474    0   0   0
V1       0.500000000   0.500000000   0.402289474    0   0   0
V1       0.757892862   0.757892862   0.500000000    0   0   0
Bi1      0.757892862   0.257892862   0.500000000    0   0   0
Bi1      0.257892862   0.757892862   0.500000000    0   0   0
V1       0.257892862   0.257892862   0.500000000    0   0   0
V1       0.515998336   0.515997132   0.584281792
Bi1      0.512266775   0.012535333   0.604217549
Bi1      0.012536372   0.512270148   0.604218395
V1       0.015952820   0.015953613   0.584286198
End final coordinates

     Writing output data file calc.save

     General routines

     Parallel routines

   This run was terminated on:  22: 2:24  23Feb2018

   JOB DONE.