     Program PWSCF v.5.1rc2 (svn rev. ) starts on 23Feb2018 at 21: 5:17

     Current dimensions of program PWSCF are:
     Max number of different atomic species (ntypx) = 10
     Max number of k-points (npk) =  40000
     Max angular momentum in pseudopotentials (lmaxx) =  3
     Presently stress not available with electric field

     IMPORTANT: XC functional enforced from input :
     Exchange-correlation      = BEEF-VDW ( 1  4 27 13 2)
     Any further DFT definition will be discarded
     Please, verify this is what you really want

     Subspace diagonalization in iterative solution of the eigenvalue problem:
     a serial algorithm will be used

     Found symmetry operation: I + (  0.5000 -0.5000  0.0000)
     This is a supercell, fractional translations are disabled

     bravais-lattice index     =            0
     lattice parameter (alat)  =       1.8897  a.u.
     unit-cell volume          =    5651.4835 (a.u.)^3
     number of atoms/cell      =           12
     number of atomic types    =            2
     number of electrons       =       180.00
     number of Kohn-Sham states=          100
     kinetic-energy cutoff     =      36.7493  Ry
     charge density cutoff     =     367.4932  Ry
     convergence threshold     =      1.0E-05
     mixing beta               =       0.3000
     number of iterations used =           10  plain     mixing
     Exchange-correlation      = BEEF-VDW ( 1  4 27 13 2)
     nstep                     =           50

     celldm(1)=   1.889726  celldm(2)=   0.000000  celldm(3)=   0.000000
     celldm(4)=   0.000000  celldm(5)=   0.000000  celldm(6)=   0.000000

     crystal axes: (cart. coord. in units of alat)
               a(1) = (   5.960793   0.000000   0.000000 )
               a(2) = (   1.872954   5.658895   0.000000 )
               a(3) = (   0.000000   0.000000  24.827338 )

     reciprocal axes: (cart. coord. in units 2 pi/alat)
               b(1) = (  0.167763 -0.055525  0.000000 )
               b(2) = (  0.000000  0.176713  0.000000 )
               b(3) = (  0.000000  0.000000  0.040278 )

     PseudoPot. # 1 for Re read from file:
     /home/mamunm/src/pseudo/gbrv1.5pbe/Re.UPF
     MD5 check sum: 85f993410f3e006da9d71c142b4ad953
     Pseudo is Ultrasoft + core correction, Zval = 15.0
     Generated by new atomic code, or converted to UPF format
     Using radial grid of  981 points,  8 beta functions with:
                l(1) =   0
                l(2) =   0
                l(3) =   1
                l(4) =   1
                l(5) =   2
                l(6) =   2
                l(7) =   3
                l(8) =   3
     Q(r) pseudized with  8 coefficients,  rinner =    1.150   1.150   1.150
                                                       1.150   1.150   1.150
                                                       1.150

     PseudoPot. # 2 for Bi read from file:
     /home/mamunm/src/pseudo/gbrv1.5pbe/Bi.UPF
     MD5 check sum: 81103212dc04adf40945787f699eab19
     Pseudo is Ultrasoft + core correction, Zval = 15.0
     Generated by new atomic code, or converted to UPF format
     Using radial grid of  899 points,  6 beta functions with:
                l(1) =   0
                l(2) =   0
                l(3) =   1
                l(4) =   1
                l(5) =   2
                l(6) =   2
     Q(r) pseudized with  6 coefficients,  rinner =    1.000   1.000   1.000
                                                       1.000   1.000

     vdW kernel table read from file vdW_kernel_table
     MD5 check sum: 095c7af220d748ca6e76c0b4c6cfb241

     atomic species   valence    mass     pseudopotential
        Re1           15.00   186.20700     Re( 1.00)
        Bi1           15.00   208.98040     Bi( 1.00)

     No symmetry found

   Cartesian axes

     site n.     atom                  positions (alat units)
         1           Re1 tau(   1) = (   0.0000000   0.0000000  10.0000000  )
         2           Bi1 tau(   2) = (   0.9364768   2.8294477  10.0000000  )
         3           Bi1 tau(   3) = (   2.9803965   0.0000000  10.0000000  )
         4           Re1 tau(   4) = (   3.9168734   2.8294477  10.0000000  )
         5           Re1 tau(   5) = (   5.9607930   4.3059223  12.4136689  )
         6           Bi1 tau(   6) = (   5.0243162   1.4764746  12.4136689  )
         7           Bi1 tau(   7) = (   2.9803965   4.3059223  12.4136689  )
         8           Re1 tau(   8) = (   2.0439197   1.4764746  12.4136689  )
         9           Re1 tau(   9) = (   4.0878393   2.9529491  14.8273377  )
        10           Bi1 tau(  10) = (   3.1513625   0.1235014  14.8273377  )
        11           Bi1 tau(  11) = (   1.1074428   2.9529491  14.8273377  )
        12           Re1 tau(  12) = (   0.1709660   0.1235014  14.8273377  )

     number of k points=    20  Fermi-Dirac smearing, width (Ry)=  0.0110
                       cart. coord. in units 2pi/alat
        k(    1) = (   0.0000000   0.0000000   0.0000000), wk =   0.0555556
        k(    2) = (   0.0000000   0.0294522   0.0000000), wk =   0.1111111
        k(    3) = (   0.0000000   0.0589043   0.0000000), wk =   0.1111111
        k(    4) = (   0.0000000  -0.0883565   0.0000000), wk =   0.0555556
        k(    5) = (   0.0279605  -0.0092542   0.0000000), wk =   0.1111111
        k(    6) = (   0.0279605   0.0201979   0.0000000), wk =   0.1111111
        k(    7) = (   0.0279605   0.0496501   0.0000000), wk =   0.1111111
        k(    8) = (   0.0279605  -0.0976107   0.0000000), wk =   0.1111111
        k(    9) = (   0.0279605  -0.0681585   0.0000000), wk =   0.1111111
        k(   10) = (   0.0279605  -0.0387064   0.0000000), wk =   0.1111111
        k(   11) = (   0.0559210  -0.0185085   0.0000000), wk =   0.1111111
        k(   12) = (   0.0559210   0.0109437   0.0000000), wk =   0.1111111
        k(   13) = (   0.0559210   0.0403959   0.0000000), wk =   0.1111111
        k(   14) = (   0.0559210  -0.1068649   0.0000000), wk =   0.1111111
        k(   15) = (   0.0559210  -0.0774128   0.0000000), wk =   0.1111111
        k(   16) = (   0.0559210  -0.0479606   0.0000000), wk =   0.1111111
        k(   17) = (  -0.0838815   0.0277627   0.0000000), wk =   0.0555556
        k(   18) = (  -0.0838815   0.0572148   0.0000000), wk =   0.1111111
        k(   19) = (  -0.0838815   0.0866670   0.0000000), wk =   0.1111111
        k(   20) = (  -0.0838815  -0.0605938   0.0000000), wk =   0.0555556

     Largest allocated arrays     est. size (Mb)     dimensions
     Largest temporary arrays     est. size (Mb)     dimensions

     Initial potential from superposition of free atoms
     Check: negative starting charge=   -1.029243

     starting charge  170.99948, renormalised to  180.00000

     negative rho (up, down):  1.083E+00 0.000E+00

     *
     * You are using vdW-DF for exchange-correlation in this calculation.
     * Please cite the following three references that made this development
     * possible:
     *
     *   M. Dion, H. Rydberg, E. Schroder, D. C. Langreth, and
     *   B. I. Lundqvist, Phys. Rev. Lett. 92, 246401 (2004).
     *
     *   T. Thonhauser, V. R. Cooper, S. Li, A. Puzder, P. Hyldgaard, and
     *   D. C. Langreth, Phys. Rev. B 76, 125112 (2007).
     *
     *   G. Roman-Perez and J. M. Soler, Phys. Rev. Lett. 103, 096102 (2009).
     *
     *
     * If you are using vdW-DF2, please also cite:
     *
     *   K. Lee, E. D. Murray, L. Kong, B. I. Lundqvist, and
     *   D. C. Langreth, Phys. Rev. B 82, 081101(R) (2010).
     *
     *
     * If you are calculating the stress with vdW-DF, please also cite:
     *
     *   R. Sabatini, E. Kucukbenli, B. Kolb, T. Thonhauser, and
     *   S. de Gironcoli, J. Phys.: Condens. Matter 24, 424209 (2012).
     *

     Carrying out vdW-DF run using the following parameters:

     Nqs =      20    Nr_points =    1024   r_max =   100.000
     q_mesh =
               0.00001000     0.04494208     0.09755937     0.15916263
               0.23128650     0.31572767     0.41458969     0.53033537
               0.66584808     0.82450364     1.01025438     1.22772762
               1.48234092     1.78043706     2.12944203     2.53805004
               3.01644009     3.57652955     4.23227104     5.00000000

     Gradients computed in reciprocal space

     Adding external electric field

     Computed dipole along edir(3) :
        Dipole               -0.0000 Ry au,         -0.0000 Debye
        Dipole field         -0.0000 Ry au

        Potential amp.        0.0000 Ry
        Total length         45.7439 bohr

     Starting wfc are  132 randomized atomic wfcs

     Self-consistent Calculation

     iteration #  1     ecut=    36.75 Ry     beta=0.30
     Davidson diagonalization with overlap
     ethr =  1.00E-02,  avg # of iterations =  2.0

[...]

     total energy              =   -2274.64254601 Ry
     Harris-Foulkes estimate   =   -2276.46857311 Ry
     estimated scf accuracy    <       4.25834338 Ry

[...]

     End of self-consistent calculation

          k = 0.0000 0.0000 0.0000 ( 21235 PWs)   bands (ev):

   -78.3027 -78.2998 -78.1482 -78.1481 -78.1468 -78.1466 -40.0432 -40.0398
   -40.0392 -40.0124 -40.0078 -39.9904 -39.9500 -39.9494 -39.9020 -39.9016
   -39.8766 -39.8727 -39.8725 -39.8682 -39.8080 -39.8048 -39.8034 -39.7999
   -21.3026 -21.2639 -21.2625 -21.2403 -21.2399 -21.2247 -21.2162 -21.2048
   -21.2048 -21.1901 -21.1732 -21.1627 -21.1599 -21.1590 -21.1491 -21.1403
   -21.1203 -21.1186 -21.1151 -21.1129 -21.1119 -21.1045 -21.1007 -21.0987
   -21.0971 -21.0933 -21.0516 -21.0417 -21.0416 -21.0242 -11.2539  -9.9302
    -8.9334  -8.8709  -8.5164  -8.4619  -2.9902  -2.8870  -2.1322  -2.0720
    -2.0146  -1.8567  -1.7512  -1.1232  -1.0998  -0.6540  -0.4958  -0.4211
    -0.3769   0.1946   0.2765   0.3728   0.4604   0.7595   0.7934   0.9468
     0.9540   1.0660   1.0939   1.1434   1.2826   1.4159   1.4359   1.7151
     1.7167   1.8164   1.9769   2.1112   2.1450   2.1858   2.4420   2.6503
     2.8742   2.8978   2.9596   3.1836

[...]

          k =-0.0839 0.0278 0.0000 ( 21256 PWs)   bands (ev):

[...]

     the Fermi energy is     1.9999 ev

!    total energy              =   -2274.85873983 Ry
     Harris-Foulkes estimate   =   -2274.85874048 Ry
     estimated scf accuracy    <       0.00000112 Ry

     The total energy is the sum of the following terms:

     one-electron contribution =  -13997.44557453 Ry
     hartree contribution      =    7019.45887509 Ry
     xc contribution           =    -724.22212171 Ry
     ewald contribution        =    5427.44217732 Ry
     electric field correction =       0.00000005 Ry
     smearing contrib. (-TS)   =      -0.09209605 Ry

     convergence has been achieved in  15 iterations

 BEEF-vdW xc energy contributions
           1 :   -645.059020082457
           2 :    599.667744806638
           3 :   -518.882131399480
           4 :    419.194036202345
           5 :   -318.360761010606
           6 :    230.461673741297
           7 :   -162.830672735789
           8 :    115.644361546382
           9 :   -83.9483588842194
          10 :    60.9905997375002
          11 :   -41.3602375855384
          12 :    22.7216490931544
          13 :   -5.72952490171588
          14 :   -7.43571364669515
          15 :    14.9424629794019
          16 :   -16.6242302284300
          17 :    14.1992369015685
          18 :   -10.4647780845121
          19 :    8.00667625226333
          20 :   -8.12459193733571
          21 :    10.4792784345630
          22 :   -13.5550963642971
          23 :    15.6121890238835
          24 :   -15.6036660810629
          25 :    13.6157785389995
          26 :   -10.6817730581114
          27 :    8.14312615580980
          28 :   -6.93511313227168
          29 :    7.16500158924532
          30 :   -8.16435031938749
          31 :   -52.3332903646324
          32 :   -38.6468698958852

     Forces acting on atoms (Ry/au):

     negative rho (up, down):  1.021E+00 0.000E+00
     atom    1 type  1   force =    -0.00050658   -0.00036287    0.06394177
     atom    2 type  2   force =     0.00874940    0.00601714   -0.03622843
     atom    3 type  2   force =     0.00846136    0.00641709   -0.03623691
     atom    4 type  1   force =    -0.00046604   -0.00033993    0.06414870
     atom    5 type  1   force =    -0.00002236   -0.00001529    0.00045206
     atom    6 type  2   force =     0.00002041   -0.00004680   -0.00057608
     atom    7 type  2   force =    -0.00004348    0.00003087   -0.00058191
     atom    8 type  1   force =     0.00000138    0.00001776    0.00045396
     atom    9 type  1   force =     0.00050733    0.00036409   -0.06340444
     atom   10 type  2   force =    -0.00874629   -0.00603228    0.03572060
     atom   11 type  2   force =    -0.00847351   -0.00640368    0.03571328
     atom   12 type  1   force =     0.00051837    0.00035391   -0.06340260

     Total force =     0.104009     Total SCF correction =     0.001045

     entering subroutine stress ...

     negative rho (up, down):  1.021E+00 0.000E+00
          total   stress  (Ry/bohr**3)                   (kbar)     P=  -28.82
  -0.00022759   0.00003045  -0.00002614        -33.48      4.48     -3.85
   0.00003045  -0.00024775  -0.00001889          4.48    -36.45     -2.78
  -0.00002614  -0.00001889  -0.00011236         -3.85     -2.78    -16.53

     BFGS Geometry Optimization

     number of scf cycles    =   1
     number of bfgs steps    =   0

     energy   new            =   -2274.8587398289 Ry

     new trust radius        =       0.0634075150 bohr
     new conv_thr            =       0.0000099958 Ry

ATOMIC_POSITIONS (crystal)
Re1      0.000000000   0.000000000   0.402781809    0   0   0
Bi1      0.000000000   0.500000000   0.402781809    0   0   0
Bi1      0.500000000   0.000000000   0.402781809    0   0   0
Re1      0.500000000   0.500000000   0.402781809    0   0   0
Re1      0.760912145   0.760912145   0.500000000    0   0   0
Bi1      0.760912145   0.260912145   0.500000000    0   0   0
Bi1      0.260912145   0.760912145   0.500000000    0   0   0
Re1      0.260912145   0.260912145   0.500000000    0   0   0
Re1      0.521858631   0.521858337   0.595866770
Bi1      0.521225072   0.021260197   0.597979550
Bi1      0.021260200   0.521225466   0.597979394
Re1      0.021859910   0.021857385   0.595866809

     Writing output data file calc.save
     Check: negative starting charge=   -1.029243
     NEW-OLD atomic charge density approx. for the potential
     Check: negative starting charge=   -1.033974

[...]

     iteration #  1     ecut=    36.75 Ry     beta=0.30
     Davidson diagonalization with overlap
     c_bands:  1 eigenvalues not converged
     ethr =  1.00E-06,  avg # of iterations =  6.4

[...]

     energy   old            =   -2274.8587398289 Ry
     energy   new            =   -2274.8691125620 Ry

     CASE: energy  _new < energy  _old

     WARNING: bfgs curvature condition failed, Theta= 0.873
     new trust radius        =       0.0951112725 bohr
     new conv_thr            =       0.0000001000 Ry

[...]

     Total force =     0.010046     Total SCF correction =     0.000430

[...]

     Total force =     0.004100     Total SCF correction =     0.000528
     SCF correction compared to forces is large: reduce conv_thr to get better values

[...]

     new trust radius        =       0.0036774954 bohr
     new conv_thr            =       0.0000001000 Ry

[...]

     number of scf cycles    =   8
     number of bfgs steps    =   7

     energy   old            =   -2274.9168352329 Ry
     energy   new            =   -2274.9168526441 Ry

     CASE: energy  _new < energy  _old

     WARNING: bfgs curvature condition failed, Theta= 0.902
     new trust radius        =       0.0055162432 bohr
     new conv_thr            =       0.0000001000 Ry

ATOMIC_POSITIONS (crystal)
Re1      0.000000000   0.000000000   0.402781809    0   0   0
Bi1      0.000000000   0.500000000   0.402781809    0   0   0
Bi1      0.500000000   0.000000000   0.402781809    0   0   0
Re1      0.500000000   0.500000000   0.402781809    0   0   0
Re1      0.760912145   0.760912145   0.500000000    0   0   0
Bi1      0.760912145   0.260912145   0.500000000    0   0   0
Bi1      0.260912145   0.760912145   0.500000000    0   0   0
Re1      0.260912145   0.260912145   0.500000000    0   0   0
Re1      0.521522911   0.521526360   0.583892146
Bi1      0.516419012   0.016404067   0.604149384
Bi1      0.016403181   0.516417328   0.604149143
Re1      0.021555479   0.021548998   0.583891422

     Writing output data file calc.save
     Check: negative starting charge=   -1.027046
     NEW-OLD atomic charge density approx. for the potential
     Check: negative starting charge=   -1.026791

[...]

     Self-consistent Calculation

[...]

     total energy              =   -2274.91687770 Ry
     Harris-Foulkes estimate   =   -2274.91687773 Ry
     estimated scf accuracy    <       0.00000010 Ry

     iteration # 11     ecut=    36.75 Ry     beta=0.30
     Davidson diagonalization with overlap
     ethr =  5.70E-11,  avg # of iterations =  1.0

[...]

     negative rho (up, down):  1.022E+00 0.000E+00

     Adding external electric field

     Computed dipole along edir(3) :
        Dipole                0.0944 Ry au,          0.2399 Debye
        Dipole field          0.0002 Ry au

        Potential amp.       -0.0192 Ry
        Total length         45.7439 bohr

     End of self-consistent calculation

[...]

          k = 0.0559-0.0480 0.0000 ( 21262 PWs)   bands (ev):

[...]

          k =-0.0839-0.0606 0.0000 ( 21290 PWs)   bands (ev):

   -78.2352 -78.2341 -78.0735 -78.0724 -78.0417 -78.0405 -39.9766 -39.9704
   -39.9698 -39.9626 -39.9331 -39.8825 -39.8799 -39.8748 -39.8315 -39.8245
   -39.7929 -39.7877 -39.7776 -39.7728 -39.7348 -39.7314 -39.7286 -39.7274
   -21.2407 -21.2009 -21.1985 -21.1903 -21.1880 -21.1853 -21.1770 -21.1548
   -21.1448 -21.1158 -21.0792 -21.0763 -21.0758 -21.0566 -21.0380 -21.0290
   -21.0277 -21.0254 -21.0118 -21.0109 -21.0107 -21.0076 -21.0049 -21.0036
   -20.9975 -20.9941 -20.9849 -20.9623 -20.9513 -20.9343 -10.0830  -9.5678
    -9.3844  -9.1980  -8.2546  -7.3813  -4.7890  -4.5667  -4.0819  -3.1182
    -2.8624  -2.7784  -2.6123  -2.0403  -1.4679  -0.7705  -0.3128  -0.2579
    -0.2331  -0.1407  -0.1110  -0.0575   0.1981   0.2254   0.5188   0.6743
     0.7523   1.1063   1.2057   1.4940   1.6074   1.9609   2.0200   2.1288
     2.2236   2.2350   2.2897   2.3523   2.7898   3.0489   3.0635   3.2314
     3.3966   3.5160   3.6281   4.1448

     the Fermi energy is     2.0913 ev

!    total energy              =   -2274.91687768 Ry
     Harris-Foulkes estimate   =   -2274.91687758 Ry
     estimated scf accuracy    <       0.00000001 Ry

     The total energy is the sum of the following terms:

     one-electron contribution =  -14139.13519091 Ry
     hartree contribution      =    7090.78575744 Ry
     xc contribution           =    -724.34612712 Ry
     ewald contribution        =    5497.87133523 Ry
     electric field correction =       0.00001981 Ry
     smearing contrib. (-TS)   =      -0.09267213 Ry

     convergence has been achieved in  11 iterations

 BEEF-vdW xc energy contributions
           1 :   -645.187282412428
           2 :    599.853062679894
           3 :   -519.148553448306
           4 :    419.511173819994
           5 :   -318.652601376157
           6 :    230.646241360347
           7 :   -162.864996275588
           8 :    115.548049152149
           9 :   -83.7929348434303
          10 :    60.8619613948665
          11 :   -41.3160748680663
          12 :    22.7666455422225
          13 :   -5.81902254291367
          14 :   -7.36861250359766
          15 :    14.9516774985277
          16 :   -16.7248781027795
          17 :    14.3627323756743
          18 :   -10.6348053791271
          19 :    8.12658029023464
          20 :   -8.16314729420696
          21 :    10.4438061965344
          22 :   -13.4864233421511
          23 :    15.5646002244106
          24 :   -15.6199603588623
          25 :    13.7086945891645
          26 :   -10.8294486487255
          27 :    8.29994021359062
          28 :   -7.05299681618521
          29 :    7.21589229285314
          30 :   -8.15368836167227
          31 :   -52.3426601507929
          32 :   -38.6697466895105

     Forces acting on atoms (Ry/au):

     negative rho (up, down):  1.022E+00 0.000E+00
     atom    1 type  1   force =    -0.00112838   -0.00081527    0.06671520
     atom    2 type  2   force =     0.00868032    0.00625340   -0.03368910
     atom    3 type  2   force =     0.00866423    0.00627579   -0.03368925
     atom    4 type  1   force =    -0.00112257   -0.00081079    0.06671781
     atom    5 type  1   force =     0.00096303    0.00069566    0.01769554
     atom    6 type  2   force =    -0.00757441   -0.00546724   -0.05352222
     atom    7 type  2   force =    -0.00756925   -0.00547489   -0.05353156
     atom    8 type  1   force =     0.00096041    0.00069410    0.01770157
     atom    9 type  1   force =    -0.00009445   -0.00006730    0.00096329
     atom   10 type  2   force =    -0.00083880   -0.00058593    0.00184041
     atom   11 type  2   force =    -0.00082064   -0.00061369    0.00184092
     atom   12 type  1   force =    -0.00011950   -0.00008385    0.00095738

     Total force =     0.003279     Total SCF correction =     0.000364
     SCF correction compared to forces is large: reduce conv_thr to get better values

     entering subroutine stress ...

     negative rho (up, down):  1.022E+00 0.000E+00
          total   stress  (Ry/bohr**3)                   (kbar)     P=  -24.28
  -0.00021241  -0.00000060  -0.00001375        -31.25     -0.09     -2.02
  -0.00000060  -0.00021202  -0.00000993         -0.09    -31.19     -1.46
  -0.00001375  -0.00000993  -0.00007079         -2.02     -1.46    -10.41

     bfgs converged in   9 scf cycles and   8 bfgs steps
     (criteria: energy <  1.0E+00, force <  1.9E-03)

     End of BFGS Geometry Optimization

     Final energy   =   -2274.9168776831 Ry
Begin final coordinates

ATOMIC_POSITIONS (crystal)
Re1      0.000000000   0.000000000   0.402781809    0   0   0
Bi1      0.000000000   0.500000000   0.402781809    0   0   0
Bi1      0.500000000   0.000000000   0.402781809    0   0   0
Re1      0.500000000   0.500000000   0.402781809    0   0   0
Re1      0.760912145   0.760912145   0.500000000    0   0   0
Bi1      0.760912145   0.260912145   0.500000000    0   0   0
Bi1      0.260912145   0.760912145   0.500000000    0   0   0
Re1      0.260912145   0.260912145   0.500000000    0   0   0
Re1      0.521522911   0.521526360   0.583892146
Bi1      0.516419012   0.016404067   0.604149384
Bi1      0.016403181   0.516417328   0.604149143
Re1      0.021555479   0.021548998   0.583891422
End final coordinates

     Writing output data file calc.save

     General routines

     Parallel routines

   This run was terminated on:  21:57:53  23Feb2018

   JOB DONE.