     Program PWSCF v.5.1rc2 (svn rev. ) starts on 23Feb2018 at 21: 5:17

     Current dimensions of program PWSCF are:
     Max number of different atomic species (ntypx) = 10
     Max number of k-points (npk) =  40000
     Max angular momentum in pseudopotentials (lmaxx) =  3
     Presently stress not available with electric field

     IMPORTANT: XC functional enforced from input :
     Exchange-correlation      = BEEF-VDW ( 1  4 27 13 2)
     Any further DFT definition will be discarded
     Please, verify this is what you really want

     Subspace diagonalization in iterative solution of the eigenvalue problem:
     a serial algorithm will be used

     Found symmetry operation: I + ( -0.5000  0.5000  0.0000)
     This is a supercell, fractional translations are disabled

     bravais-lattice index     =            0
     lattice parameter (alat)  =       1.8897  a.u.
     unit-cell volume          =    5447.6248 (a.u.)^3
     number of atoms/cell      =           12
     number of atomic types    =            2
     number of electrons       =       180.00
     number of Kohn-Sham states=          100
     kinetic-energy cutoff     =      36.7493  Ry
     charge density cutoff     =     367.4932  Ry
     convergence threshold     =      1.0E-05
     mixing beta               =       0.3000
     number of iterations used =           10  plain     mixing
     Exchange-correlation      = BEEF-VDW ( 1  4 27 13 2)
     nstep                     =           50

     celldm(1)=   1.889726  celldm(2)=   0.000000  celldm(3)=   0.000000
     celldm(4)=   0.000000  celldm(5)=   0.000000  celldm(6)=   0.000000

     crystal axes: (cart. coord. in units of alat)
               a(1) = (   5.875989   0.000000   0.000000 )
               a(2) = (   1.958077   5.540142   0.000000 )
               a(3) = (   0.000000   0.000000  24.797545 )

     reciprocal axes: (cart. coord. in units 2 pi/alat)
               b(1) = (  0.170184 -0.060149 -0.000000 )
               b(2) = (  0.000000  0.180501 -0.000000 )
               b(3) = (  0.000000  0.000000  0.040327 )

     PseudoPot. # 1 for Tc read from file:
     /home/mamunm/src/pseudo/gbrv1.5pbe/Tc.UPF
     MD5 check sum: 9eb49e5b028550b2339a02317eb7b844
     Pseudo is Ultrasoft + core correction, Zval = 15.0
     Generated by new atomic code, or converted to UPF format
     Using radial grid of  965 points,  6 beta functions with:
                l(1) =   0
                l(2) =   0
                l(3) =   1
                l(4) =   1
                l(5) =   2
                l(6) =   2
     Q(r) pseudized with  8 coefficients,  rinner =    1.300   1.300   1.300
                                                       1.300   1.300

     PseudoPot. # 2 for Bi read from file:
     /home/mamunm/src/pseudo/gbrv1.5pbe/Bi.UPF
     MD5 check sum: 81103212dc04adf40945787f699eab19
     Pseudo is Ultrasoft + core correction, Zval = 15.0
     Generated by new atomic code, or converted to UPF format
     Using radial grid of  899 points,  6 beta functions with:
                l(1) =   0
                l(2) =   0
                l(3) =   1
                l(4) =   1
                l(5) =   2
                l(6) =   2
     Q(r) pseudized with  6 coefficients,  rinner =    1.000   1.000   1.000
                                                       1.000   1.000

     vdW kernel table read from file vdW_kernel_table
     MD5 check sum: 095c7af220d748ca6e76c0b4c6cfb241

     atomic species   valence    mass     pseudopotential
        Tc1           15.00    97.90721     Tc( 1.00)
        Bi1           15.00   208.98040     Bi( 1.00)

     No symmetry found

   Cartesian axes

     site n.     atom                  positions (alat units)
         1           Tc1 tau(   1) = (   0.0000000   0.0000000  10.0000000  )
         2           Bi1 tau(   2) = (   0.9790385   2.7700712  10.0000000  )
         3           Bi1 tau(   3) = (   2.9379944   0.0000000  10.0000000  )
         4           Tc1 tau(   4) = (   3.9170329   2.7700712  10.0000000  )
         5           Tc1 tau(   5) = (   5.8759888   4.1554176  12.3987726  )
         6           Bi1 tau(   6) = (   4.8969503   1.3853463  12.3987726  )
         7           Bi1 tau(   7) = (   2.9379944   4.1554176  12.3987726  )
         8           Tc1 tau(   8) = (   1.9589559   1.3853463  12.3987726  )
         9           Tc1 tau(   9) = (   3.9179117   2.7706927  14.7975453  )
        10           Bi1 tau(  10) = (   2.9388732   0.0006215  14.7975453  )
        11           Bi1 tau(  11) = (   0.9799173   2.7706927  14.7975453  )
        12           Tc1 tau(  12) = (   0.0008788   0.0006215  14.7975453  )

     number of k points=    20  Fermi-Dirac smearing, width (Ry)=  0.0110
                       cart. coord. in units 2pi/alat
        k(    1) = (   0.0000000   0.0000000   0.0000000), wk =   0.0555556
        k(    2) = (   0.0000000   0.0300835  -0.0000000), wk =   0.1111111
        k(    3) = (   0.0000000   0.0601669  -0.0000000), wk =   0.1111111
        k(    4) = (   0.0000000  -0.0902504   0.0000000), wk =   0.0555556
        k(    5) = (   0.0283640  -0.0100248  -0.0000000), wk =   0.1111111
        k(    6) = (   0.0283640   0.0200586  -0.0000000), wk =   0.1111111
        k(    7) = (   0.0283640   0.0501421  -0.0000000), wk =   0.1111111
        k(    8) = (   0.0283640  -0.1002752   0.0000000), wk =   0.1111111
        k(    9) = (   0.0283640  -0.0701917   0.0000000), wk =   0.1111111
        k(   10) = (   0.0283640  -0.0401083  -0.0000000), wk =   0.1111111
        k(   11) = (   0.0567280  -0.0200496  -0.0000000), wk =   0.1111111
        k(   12) = (   0.0567280   0.0100338  -0.0000000), wk =   0.1111111
        k(   13) = (   0.0567280   0.0401173  -0.0000000), wk =   0.1111111
        k(   14) = (   0.0567280  -0.1103000  -0.0000000), wk =   0.1111111
        k(   15) = (   0.0567280  -0.0802166  -0.0000000), wk =   0.1111111
        k(   16) = (   0.0567280  -0.0501331  -0.0000000), wk =   0.1111111
        k(   17) = (  -0.0850921   0.0300745   0.0000000), wk =   0.0555556
        k(   18) = (  -0.0850921   0.0601579   0.0000000), wk =   0.1111111
        k(   19) = (  -0.0850921   0.0902414   0.0000000), wk =   0.1111111
        k(   20) = (  -0.0850921  -0.0601759   0.0000000), wk =   0.0555556

     Largest allocated arrays     est. size (Mb)     dimensions
     Largest temporary arrays     est. size (Mb)     dimensions

     Check: negative/imaginary core charge=   -0.000012    0.000000

     Initial potential from superposition of free atoms
     Check: negative starting charge=   -1.007142

     starting charge  167.99958, renormalised to  180.00000

     negative rho (up, down):  1.079E+00 0.000E+00

     *
     * You are using vdW-DF for exchange-correlation in this calculation.
     * Please cite the following three references that made this development
     * possible:
     *
     *   M. Dion, H. Rydberg, E. Schroder, D. C. Langreth, and
     *   B. I. Lundqvist, Phys. Rev. Lett. 92, 246401 (2004).
     *
     *   T. Thonhauser, V. R. Cooper, S. Li, A. Puzder, P. Hyldgaard, and
     *   D. C. Langreth, Phys. Rev. B 76, 125112 (2007).
     *
     *   G. Roman-Perez and J. M. Soler, Phys. Rev. Lett. 103, 096102 (2009).
     *
     *
     * If you are using vdW-DF2, please also cite:
     *
     *   K. Lee, E. D. Murray, L. Kong, B. I. Lundqvist, and
     *   D. C. Langreth, Phys. Rev. B 82, 081101(R) (2010).
     *
     *
     * If you are calculating the stress with vdW-DF, please also cite:
     *
     *   R. Sabatini, E. Kucukbenli, B. Kolb, T. Thonhauser, and
     *   S. de Gironcoli, J. Phys.: Condens. Matter 24, 424209 (2012).
     *

     Carrying out vdW-DF run using the following parameters:

     Nqs =      20    Nr_points =    1024   r_max =   100.000
     q_mesh =
               0.00001000     0.04494208     0.09755937     0.15916263
               0.23128650     0.31572767     0.41458969     0.53033537
               0.66584808     0.82450364     1.01025438     1.22772762
               1.48234092     1.78043706     2.12944203     2.53805004
               3.01644009     3.57652955     4.23227104     5.00000000

     Gradients computed in reciprocal space

     Adding external electric field

     Computed dipole along edir(3) :
        Dipole                0.0000 Ry au,          0.0000 Debye
        Dipole field          0.0000 Ry au

        Potential amp.       -0.0000 Ry
        Total length         45.6891 bohr

     Starting wfc are  132 randomized atomic wfcs

     Self-consistent Calculation

     iteration #  1     ecut=    36.75 Ry     beta=0.30
     Davidson diagonalization with overlap
     ethr =  1.00E-02,  avg # of iterations =  3.4

[...]

     total energy              =   -2171.76395421 Ry
     Harris-Foulkes estimate   =   -2178.18372150 Ry
     estimated scf accuracy    <      14.62207536 Ry

[...]

     End of self-consistent calculation

          k = 0.0000 0.0000 0.0000 ( 20563 PWs)   bands (ev):

   -64.5977 -64.5934 -64.4650 -64.4648 -64.4609 -64.4606 -36.6777 -36.6633
   -36.6591 -36.6563 -36.6489 -36.6111 -36.6103 -36.6019 -36.5375 -36.5367
   -36.5317 -36.5269 -36.5252 -36.5187 -36.4504 -36.4459 -36.4429 -36.4381
   -21.2628 -21.2135 -21.2127 -21.1801 -21.1789 -21.1699 -21.1587 -21.1567
   -21.1451 -21.1423 -21.1156 -21.0960 -21.0941 -21.0893 -21.0792 -21.0723
   -21.0319 -21.0318 -21.0293 -21.0285 -21.0224 -21.0144 -21.0131 -21.0127
   -21.0099 -21.0084 -20.9651 -20.9549 -20.9494 -20.9326 -11.0367  -9.7976
    -8.8345  -8.6677  -8.2867  -8.2842  -2.6250  -2.4576  -1.7710  -1.7621
    -1.6315  -1.6281  -1.4058  -0.8544  -0.7732  -0.4735  -0.1658  -0.0968
     0.1546   0.4995   0.5518   0.5805   0.6763   0.8813   1.0223   1.0734
     1.0897   1.2157   1.2967   1.3932   1.4021   1.4791   1.4839   1.6812
     1.7396   1.8330   1.9731   2.0391   2.0865   2.1539   2.4070   2.6263
     2.8847   3.0399   3.0803   3.1940

[...]

          k =-0.0851 0.0301 0.0000 ( 20440 PWs)   bands (ev):

[...]

     the Fermi energy is     2.0470 ev

!    total energy              =   -2174.16152511 Ry
     Harris-Foulkes estimate   =   -2174.16152553 Ry
     estimated scf accuracy    <       0.00000064 Ry

     The total energy is the sum of the following terms:

     one-electron contribution =  -14561.23218705 Ry
     hartree contribution      =    7310.66620343 Ry
     xc contribution           =    -598.79857282 Ry
     ewald contribution        =    5675.29477587 Ry
     electric field correction =       0.00000004 Ry
     smearing contrib. (-TS)   =      -0.09174458 Ry

     convergence has been achieved in  19 iterations

 BEEF-vdW xc energy contributions
           1 :   -530.978546996909
           2 :    492.027959561939
           3 :   -423.044091578292
           4 :    338.528999842829
           5 :   -253.861181785205
           6 :    180.821506719577
           7 :   -125.047785954767
           8 :    85.9683019581684
           9 :   -58.9089237658585
          10 :    38.1546641930736
          11 :   -19.6413987524104
          12 :    2.23290492469755
          13 :    12.6383123257116
          14 :   -22.5022547508552
          15 :    25.6184034847798
          16 :   -22.1331203214145
          17 :    14.1615453283417
          18 :   -4.91943808500253
          19 :   -2.58047496358517
          20 :    6.59678601535916
          21 :   -7.04527859220707
          22 :    5.10680222912697
          23 :   -2.36193891780044
          24 :  -7.279663649933354E-002
          25 :    1.97919922251776
          26 :   -3.89583054837090
          27 :    6.55007635130767
          28 :   -10.2310766854813
          29 :    14.4540853534935
          30 :   -18.0945160636727
          31 :   -44.9388326028843
          32 :   -33.1009150766541

     Forces acting on atoms (Ry/au):

     negative rho (up, down):  1.039E+00 0.000E+00
     atom    1 type  1   force =     0.00000448    0.00000304    0.04824965
     atom    2 type  2   force =    -0.00002064    0.00011246   -0.03691261
     atom    3 type  2   force =     0.00009900   -0.00005779   -0.03691299
     atom    4 type  1   force =    -0.00000978   -0.00000681    0.04825577
     atom    5 type  1   force =    -0.00000580   -0.00000389   -0.00030096
     atom    6 type  2   force =     0.00005459   -0.00006407    0.00058353
     atom    7 type  2   force =    -0.00004368    0.00007189    0.00058494
     atom    8 type  1   force =     0.00000799    0.00000608   -0.00029570
     atom    9 type  1   force =    -0.00000502   -0.00000351   -0.04875996
     atom   10 type  2   force =     0.00001081   -0.00010889    0.03712503
     atom   11 type  2   force =    -0.00009905    0.00004626    0.03712606
     atom   12 type  1   force =     0.00000709    0.00000523   -0.04874275

     Total force =     0.086660     Total SCF correction =     0.001507

     entering subroutine stress ...

     negative rho (up, down):  1.039E+00 0.000E+00
          total   stress  (Ry/bohr**3)                   (kbar)     P=  -15.62
  -0.00013426  -0.00000843  -0.00000016        -19.75     -1.24     -0.02
  -0.00000843  -0.00012832  -0.00000012         -1.24    -18.88     -0.02
  -0.00000016  -0.00000012  -0.00005595         -0.02     -0.02     -8.23

     BFGS Geometry Optimization

     number of scf cycles    =   1
     number of bfgs steps    =   0

     energy   new            =   -2174.1615251054 Ry

     new trust radius        =       0.0487599632 bohr
     new conv_thr            =       0.0000099958 Ry

ATOMIC_POSITIONS (crystal)
Tc1      0.000000000   0.000000000   0.403265722    0   0   0
Bi1     -0.000000000   0.500000000   0.403265722    0   0   0
Bi1      0.500000000   0.000000000   0.403265722    0   0   0
Tc1      0.500000000   0.500000000   0.403265722    0   0   0
Tc1      0.750056087   0.750056087   0.500000000    0   0   0
Bi1      0.750056087   0.250056087   0.500000000    0   0   0
Bi1      0.250056087   0.750056087   0.500000000    0   0   0
Tc1      0.250056087   0.250056087   0.500000000    0   0   0
Tc1      0.500111833   0.500111839   0.595693745
Bi1      0.500116614   0.000101773   0.597526522
Bi1      0.000101782   0.500116593   0.597526544
Tc1      0.000112646   0.000112673   0.595694112

     Writing output data file calc.save
     Check: negative starting charge=   -1.007142
     NEW-OLD atomic charge density approx. for the potential

     Check: negative/imaginary core charge=   -0.000012    0.000000
     Check: negative starting charge=   -1.005343

[...]

     energy   old            =   -2174.1615251053 Ry
     energy   new            =   -2174.1686235555 Ry

     CASE: energy  _new < energy  _old

     WARNING: bfgs curvature condition failed, Theta= 0.909
     new trust radius        =       0.0731399449 bohr
     new conv_thr            =       0.0000001000 Ry

[...]

     Total force =     0.006476     Total SCF correction =     0.001465
     SCF correction compared to forces is large: reduce conv_thr to get better values

[...]

     WARNING: bfgs curvature condition failed, Theta= 0.976
     new trust radius        =       0.0061489049 bohr
     new conv_thr            =       0.0000001000 Ry

[...]

     Total force =     0.004439     Total SCF correction =     0.000367

[...]

     number of scf cycles    =   9
     number of bfgs steps    =   8

     energy   old            =   -2174.1975889222 Ry
     energy   new            =   -2174.1976455062 Ry

     CASE: energy  _new < energy  _old

     new trust radius        =       0.0138350360 bohr
     new conv_thr            =       0.0000001000 Ry

ATOMIC_POSITIONS (crystal)
Tc1      0.000000000   0.000000000   0.403265722    0   0   0
Bi1     -0.000000000   0.500000000   0.403265722    0   0   0
Bi1      0.500000000   0.000000000   0.403265722    0   0   0
Tc1      0.500000000   0.500000000   0.403265722    0   0   0
Tc1      0.750056087   0.750056087   0.500000000    0   0   0
Bi1      0.750056087   0.250056087   0.500000000    0   0   0
Bi1      0.250056087   0.750056087   0.500000000    0   0   0
Tc1      0.250056087   0.250056087   0.500000000    0   0   0
Tc1      0.500088058   0.500088136   0.587200684
Bi1      0.500066207   0.000099034   0.604462227
Bi1      0.000099021   0.500066145   0.604462270
Tc1      0.000091293   0.000091199   0.587199760

     Writing output data file calc.save
     Check: negative starting charge=   -1.007695
     NEW-OLD atomic charge density approx. for the potential

     Check: negative/imaginary core charge=   -0.000012    0.000000
     Check: negative starting charge=   -1.007322

[...]

     Self-consistent Calculation

[...]

     total energy              =   -2174.19769474 Ry
     Harris-Foulkes estimate   =   -2174.19769486 Ry
     estimated scf accuracy    <       0.00000140 Ry

     iteration # 11     ecut=    36.75 Ry     beta=0.30
     Davidson diagonalization with overlap
     ethr =  7.79E-10,  avg # of iterations =  1.0

[...]

     negative rho (up, down):  1.040E+00 0.000E+00

     Adding external electric field

     Computed dipole along edir(3) :
        Dipole                0.0344 Ry au,          0.0874 Debye
        Dipole field          0.0001 Ry au

        Potential amp.       -0.0072 Ry
        Total length         45.6891 bohr

     End of self-consistent calculation

[...]

          k = 0.0567-0.0501-0.0000 ( 20491 PWs)   bands (ev):

[...]

          k =-0.0851-0.0602 0.0000 ( 20454 PWs)   bands (ev):

   -64.5349 -64.5309 -64.4308 -64.4287 -64.4266 -64.4242 -36.6125 -36.6055
   -36.6022 -36.5989 -36.5849 -36.5841 -36.5784 -36.5158 -36.5138 -36.5067
   -36.4964 -36.4881 -36.4810 -36.4767 -36.4230 -36.4182 -36.4175 -36.4127
   -21.1990 -21.1484 -21.1311 -21.1298 -21.1270 -21.1122 -21.1084 -21.1013
   -21.0742 -21.0704 -21.0563 -21.0507 -21.0349 -21.0126 -21.0047 -21.0044
   -20.9952 -20.9829 -20.9764 -20.9698 -20.9678 -20.9654 -20.9641 -20.9628
   -20.9572 -20.9564 -20.9496 -20.9116 -20.9047 -20.8872  -9.8633  -9.5107
    -9.2173  -9.1126  -8.0551  -7.1469  -4.0106  -3.7721  -3.4181  -2.7595
    -2.6613  -2.4972  -2.0175  -1.8110  -1.3046  -0.6772  -0.2321  -0.0622
    -0.0083   0.1651   0.1745   0.1809   0.2028   0.4994   0.5621   0.7296
     0.9508   1.2277   1.2842   1.6553   1.8162   1.9320   2.0514   2.0792
     2.1156   2.1939   2.3646   2.5590   2.5776   2.9879   3.1455   3.1529
     3.3920   3.8360   3.8694   3.8723

     the Fermi energy is     2.0826 ev

!    total energy              =   -2174.19769473 Ry
     Harris-Foulkes estimate   =   -2174.19769493 Ry
     estimated scf accuracy    <       0.00000009 Ry

     The total energy is the sum of the following terms:

     one-electron contribution =  -14594.73661602 Ry
     hartree contribution      =    7327.71614850 Ry
     xc contribution           =    -598.79816421 Ry
     ewald contribution        =    5691.71704691 Ry
     electric field correction =       0.00000273 Ry
     smearing contrib. (-TS)   =      -0.09611265 Ry

     convergence has been achieved in  11 iterations

 BEEF-vdW xc energy contributions
           1 :   -530.982084607001
           2 :    492.040561517104
           3 :   -423.066474925355
           4 :    338.548787945172
           5 :   -253.859934715801
           6 :    180.787758110431
           7 :   -124.985695495056
           8 :    85.8937474048045
           9 :   -58.8353983470489
          10 :    38.0849778206907
          11 :   -19.5724650375499
          12 :    2.16560374237667
          13 :    12.6942221552513
          14 :   -22.5356620076303
          15 :    25.6280010719705
          16 :   -22.1318739857256
          17 :    14.1701669864445
          18 :   -4.95276153119846
          19 :   -2.52467650000347
          20 :    6.53733252043776
          21 :   -7.00377496671138
          22 :    5.09075224170329
          23 :   -2.35665448848476
          24 :  -9.708353811970483E-002
          25 :    2.04972437905337
          26 :   -4.01959668145366
          27 :    6.70805733584268
          28 :   -10.3874319662569
          29 :    14.5750613200115
          30 :   -18.1654023498851
          31 :   -44.9391924872590
          32 :   -33.1019244630750

     Forces acting on atoms (Ry/au):

     negative rho (up, down):  1.040E+00 0.000E+00
     atom    1 type  1   force =     0.00001320    0.00000934    0.04903321
     atom    2 type  2   force =     0.00000765    0.00007049   -0.03267220
     atom    3 type  2   force =     0.00006901   -0.00001628   -0.03267217
     atom    4 type  1   force =     0.00000242    0.00000171    0.04904190
     atom    5 type  1   force =     0.00000896    0.00000635    0.00795011
     atom    6 type  2   force =    -0.00001347   -0.00004822   -0.02612087
     atom    7 type  2   force =    -0.00004999    0.00000332   -0.02612096
     atom    8 type  1   force =     0.00000456    0.00000323    0.00795409
     atom    9 type  1   force =    -0.00001291   -0.00000915    0.00052054
     atom   10 type  2   force =     0.00003838   -0.00007392    0.00127950
     atom   11 type  2   force =    -0.00005691    0.00006084    0.00127940
     atom   12 type  1   force =    -0.00001091   -0.00000770    0.00052745

     Total force =     0.001959     Total SCF correction =     0.000201
     SCF correction compared to forces is large: reduce conv_thr to get better values

     entering subroutine stress ...

     negative rho (up, down):  1.040E+00 0.000E+00
          total   stress  (Ry/bohr**3)                   (kbar)     P=  -15.07
  -0.00014126  -0.00002094  -0.00000011        -20.78     -3.08     -0.02
  -0.00002094  -0.00012646  -0.00000008         -3.08    -18.60     -0.01
  -0.00000011  -0.00000008  -0.00003961         -0.02     -0.01     -5.83

     bfgs converged in  10 scf cycles and   9 bfgs steps
     (criteria: energy <  1.0E+00, force <  1.9E-03)

     End of BFGS Geometry Optimization

     Final energy   =   -2174.1976947349 Ry
Begin final coordinates

ATOMIC_POSITIONS (crystal)
Tc1      0.000000000   0.000000000   0.403265722    0   0   0
Bi1     -0.000000000   0.500000000   0.403265722    0   0   0
Bi1      0.500000000   0.000000000   0.403265722    0   0   0
Tc1      0.500000000   0.500000000   0.403265722    0   0   0
Tc1      0.750056087   0.750056087   0.500000000    0   0   0
Bi1      0.750056087   0.250056087   0.500000000    0   0   0
Bi1      0.250056087   0.750056087   0.500000000    0   0   0
Tc1      0.250056087   0.250056087   0.500000000    0   0   0
Tc1      0.500088058   0.500088136   0.587200684
Bi1      0.500066207   0.000099034   0.604462227
Bi1      0.000099021   0.500066145   0.604462270
Tc1      0.000091293   0.000091199   0.587199760
End final coordinates

     Writing output data file calc.save

     General routines

     Parallel routines

   This run was terminated on:  21:50:59  23Feb2018

   JOB DONE.