     Program PWSCF v.5.1rc2 (svn rev. ) starts on 23Feb2018 at 21:13:26

     Current dimensions of program PWSCF are:
     Max number of different atomic species (ntypx) = 10
     Max number of k-points (npk) =  40000
     Max angular momentum in pseudopotentials (lmaxx) =  3
     Presently stress not available with electric field

     IMPORTANT: XC functional enforced from input :
     Exchange-correlation      = BEEF-VDW ( 1  4 27 13 2)
     Any further DFT definition will be discarded
     Please, verify this is what you really want

     Subspace diagonalization in iterative solution of the eigenvalue problem:
     a serial algorithm will be used

     Found symmetry operation: I + ( -0.5000 -0.5000  0.0000)
     This is a supercell, fractional translations are disabled

     bravais-lattice index     =            0
     lattice parameter (alat)  =       1.8897  a.u.
     unit-cell volume          =    6355.1812 (a.u.)^3
     number of atoms/cell      =           12
     number of atomic types    =            2
     number of electrons       =       162.00
     number of Kohn-Sham states=           91
     kinetic-energy cutoff     =      36.7493  Ry
     charge density cutoff     =     367.4932  Ry
     convergence threshold     =      1.0E-05
     mixing beta               =       0.3000
     number of iterations used =           10  plain     mixing
     Exchange-correlation      = BEEF-VDW ( 1  4 27 13 2)
     nstep                     =           50

     celldm(1)=   1.889726  celldm(2)=   0.000000  celldm(3)=   0.000000
     celldm(4)=   0.000000  celldm(5)=   0.000000  celldm(6)=   0.000000

     crystal axes: (cart. coord. in units of alat)
               a(1) = (   6.312173   0.000000   0.000000 )
               a(2) = (   2.171952   5.926732  -0.000000 )
               a(3) = (   0.000000   0.000000  25.173123 )

     reciprocal axes: (cart. coord. in units 2 pi/alat)
               b(1) = (  0.158424 -0.058057 -0.000000 )
               b(2) = (  0.000000  0.168727 -0.000000 )
               b(3) = (  0.000000  0.000000  0.039725 )

     PseudoPot. # 1 for Hf read from file:
     /home/mamunm/src/pseudo/gbrv1.5pbe/Hf.UPF
     MD5 check sum: 8ee9378dfe14276e333edf04c5e4aa26
     Pseudo is Ultrasoft + core correction, Zval = 12.0
     Generated by new atomic code, or converted to UPF format
     Using radial grid of  921 points,  8 beta functions with:
                l(1) =   0
                l(2) =   0
                l(3) =   0
                l(4) =   1
                l(5) =   1
                l(6) =   2
                l(7) =   2
                l(8) =   3
     Q(r) pseudized with  6 coefficients,  rinner =    1.200   1.200   1.200
                                                       1.200   1.200   1.200
                                                       1.200

     PseudoPot. # 2 for Bi read from file:
     /home/mamunm/src/pseudo/gbrv1.5pbe/Bi.UPF
     MD5 check sum: 81103212dc04adf40945787f699eab19
     Pseudo is Ultrasoft + core correction, Zval = 15.0
     Generated by new atomic code, or converted to UPF format
     Using radial grid of  899 points,  6 beta functions with:
                l(1) =   0
                l(2) =   0
                l(3) =   1
                l(4) =   1
                l(5) =   2
                l(6) =   2
     Q(r) pseudized with  6 coefficients,  rinner =    1.000   1.000   1.000
                                                       1.000   1.000

     vdW kernel table read from file vdW_kernel_table
     MD5 check sum: 095c7af220d748ca6e76c0b4c6cfb241

     atomic species   valence    mass     pseudopotential
        Hf1           12.00   178.49000     Hf( 1.00)
        Bi1           15.00   208.98040     Bi( 1.00)

     No symmetry found

   Cartesian axes

     site n.     atom                  positions (alat units)
         1           Hf1 tau(   1) = (   0.0000000   0.0000000  10.0000000  )
         2           Bi1 tau(   2) = (   1.0859762   2.9633662  10.0000000  )
         3           Bi1 tau(   3) = (   3.1560867   0.0000000  10.0000000  )
         4           Hf1 tau(   4) = (   4.2420629   2.9633662  10.0000000  )
         5           Hf1 tau(   5) = (   6.3121734   4.4094775  12.5865616  )
         6           Bi1 tau(   6) = (   5.2261972   1.4461114  12.5865616  )
         7           Bi1 tau(   7) = (   3.1560867   4.4094775  12.5865616  )
         8           Hf1 tau(   8) = (   2.0701105   1.4461114  12.5865616  )
         9           Hf1 tau(   9) = (   4.1402210   2.8922227  15.1731232  )
        10           Bi1 tau(  10) = (   5.2261972   5.8555889  15.1731232  )
        11           Bi1 tau(  11) = (   7.2963077   2.8922227  15.1731232  )
        12           Hf1 tau(  12) = (   8.3822839   5.8555889  15.1731232  )

     number of k points=    20  Fermi-Dirac smearing, width (Ry)=  0.0110
                       cart. coord. in units 2pi/alat
        k(    1) = (   0.0000000   0.0000000   0.0000000), wk =   0.0555556
        k(    2) = (   0.0000000   0.0281212  -0.0000000), wk =   0.1111111
        k(    3) = (   0.0000000   0.0562423  -0.0000000), wk =   0.1111111
        k(    4) = (   0.0000000  -0.0843635   0.0000000), wk =   0.0555556
        k(    5) = (   0.0264040  -0.0096762  -0.0000000), wk =   0.1111111
        k(    6) = (   0.0264040   0.0184450  -0.0000000), wk =   0.1111111
        k(    7) = (   0.0264040   0.0465661  -0.0000000), wk =   0.1111111
        k(    8) = (   0.0264040  -0.0940397   0.0000000), wk =   0.1111111
        k(    9) = (   0.0264040  -0.0659185   0.0000000), wk =   0.1111111
        k(   10) = (   0.0264040  -0.0377974   0.0000000), wk =   0.1111111
        k(   11) = (   0.0528080  -0.0193524  -0.0000000), wk =   0.1111111
        k(   12) = (   0.0528080   0.0087688  -0.0000000), wk =   0.1111111
        k(   13) = (   0.0528080   0.0368899  -0.0000000), wk =   0.1111111
        k(   14) = (   0.0528080  -0.1037159   0.0000000), wk =   0.1111111
        k(   15) = (   0.0528080  -0.0755947   0.0000000), wk =   0.1111111
        k(   16) = (   0.0528080  -0.0474736   0.0000000), wk =   0.1111111
        k(   17) = (  -0.0792120   0.0290286   0.0000000), wk =   0.0555556
        k(   18) = (  -0.0792120   0.0571498  -0.0000000), wk =   0.1111111
        k(   19) = (  -0.0792120   0.0852709  -0.0000000), wk =   0.1111111
        k(   20) = (  -0.0792120  -0.0553349   0.0000000), wk =   0.0555556

     Largest allocated arrays     est. size (Mb)     dimensions
     Largest temporary arrays     est. size (Mb)     dimensions

     Check: negative/imaginary core charge=   -0.000003    0.000000

     Initial potential from superposition of free atoms
     Check: negative starting charge=   -0.902289

     starting charge  143.99974, renormalised to  162.00000

     negative rho (up, down):  1.015E+00 0.000E+00

     *
     * You are using vdW-DF for exchange-correlation in this calculation.
     * Please cite the following three references that made this development
     * possible:
     *
     *   M. Dion, H. Rydberg, E. Schroder, D. C. Langreth, and
     *   B. I. Lundqvist, Phys. Rev. Lett. 92, 246401 (2004).
     *
     *   T. Thonhauser, V. R. Cooper, S. Li, A. Puzder, P. Hyldgaard, and
     *   D. C. Langreth, Phys. Rev. B 76, 125112 (2007).
     *
     *   G. Roman-Perez and J. M. Soler, Phys. Rev. Lett. 103, 096102 (2009).
     *
     *
     * If you are using vdW-DF2, please also cite:
     *
     *   K. Lee, E. D. Murray, L. Kong, B. I. Lundqvist, and
     *   D. C. Langreth, Phys. Rev. B 82, 081101(R) (2010).
     *
     *
     * If you are calculating the stress with vdW-DF, please also cite:
     *
     *   R. Sabatini, E. Kucukbenli, B. Kolb, T. Thonhauser, and
     *   S. de Gironcoli, J. Phys.: Condens. Matter 24, 424209 (2012).
     *

     Carrying out vdW-DF run using the following parameters:

     Nqs =      20    Nr_points =    1024   r_max =   100.000
     q_mesh =
               0.00001000     0.04494208     0.09755937     0.15916263
               0.23128650     0.31572767     0.41458969     0.53033537
               0.66584808     0.82450364     1.01025438     1.22772762
               1.48234092     1.78043706     2.12944203     2.53805004
               3.01644009     3.57652955     4.23227104     5.00000000

     Gradients computed in reciprocal space

     Adding external electric field

     Computed dipole along edir(3) :
        Dipole               -0.0000 Ry au,         -0.0000 Debye
        Dipole field         -0.0000 Ry au

        Potential amp.        0.0000 Ry
        Total length         46.3811 bohr

     Starting wfc are  132 randomized atomic wfcs

     Self-consistent Calculation

     iteration #  1     ecut=    36.75 Ry     beta=0.30
     Davidson diagonalization with overlap
     ethr =  1.00E-02,  avg # of iterations =  8.9

[...]

     total energy              =   -2070.91599317 Ry
     Harris-Foulkes estimate   =   -2096.27465467 Ry
     estimated scf accuracy    <      54.18197418 Ry

[...]

     iteration # 15     ecut=    36.75 Ry     beta=0.30
     Davidson diagonalization with overlap
     c_bands:  1 eigenvalues not converged
     ethr =  1.48E-08,  avg # of iterations =  5.5

[...]

     End of self-consistent calculation

          k = 0.0000 0.0000 0.0000 ( 23913 PWs)   bands (ev):

   -61.6589 -61.6561 -61.6557 -61.6531 -60.9054 -60.9023 -30.2676 -30.2648
   -30.2580 -30.2554 -30.1043 -30.1016 -30.0828 -30.0800 -30.0736 -30.0706
   -30.0015 -29.9990 -29.4848 -29.4470 -29.4366 -29.3842 -29.3747 -29.3719
   -21.0587 -21.0513 -21.0346 -21.0340 -21.0251 -21.0195 -21.0138 -21.0011
   -21.0006 -20.9933 -20.9887 -20.9790 -20.9760 -20.9690 -20.9619 -20.9594
   -20.9428 -20.9413 -20.9360 -20.9337 -20.9303 -20.9281 -20.9275 -20.9261
   -20.9079 -20.9051 -20.8886 -20.8825 -20.8823 -20.8747 -10.5057  -9.5217
    -8.8360  -8.6611  -8.3562  -8.3454  -2.5262  -2.2600  -1.8899  -1.5613
    -1.5201  -1.5115  -1.5081  -0.8248  -0.5764  -0.2323   0.1147   0.2216
     0.4940   0.5754   0.7946   1.0493   1.1787   1.4143   1.6191   1.6614
     2.1031   2.1205   2.1832   2.2899   2.4682   2.5987   2.9026   3.2035
     3.3152   3.4177   3.4336

[...]

          k =-0.0792 0.0290 0.0000 ( 23914 PWs)   bands (ev):

[...]

     the Fermi energy is     1.9265 ev

!    total energy              =   -2086.30049678 Ry
     Harris-Foulkes estimate   =   -2086.30050122 Ry
     estimated scf accuracy    <       0.00000677 Ry

     The total energy is the sum of the following terms:

     one-electron contribution =   -9996.46312197 Ry
     hartree contribution      =    5019.67087044 Ry
     xc contribution           =    -863.72840721 Ry
     ewald contribution        =    3754.28390530 Ry
     electric field correction =       0.00000108 Ry
     smearing contrib. (-TS)   =      -0.06374442 Ry

     convergence has been achieved in  15 iterations

 BEEF-vdW xc energy contributions
           1 :   -776.250785835567
           2 :    721.991785153666
           3 :   -625.814891159005
           4 :    507.746452939128
           5 :   -388.784698236094
           6 :    284.950791967080
           7 :   -204.288433546667
           8 :    147.200914876981
           9 :   -109.114252520110
          10 :    83.7393534852649
          11 :   -65.5580431548819
          12 :    50.9174278814528
          13 :   -37.9603279956111
          14 :    25.9918569688941
          15 :   -14.8732036904776
          16 :    4.69010255883768
          17 :    4.34066165675245
          18 :   -11.9103713709119
          19 :    17.6941401242952
          20 :   -21.4486590184619
          21 :    23.0534857230266
          22 :   -22.5004732111420
          23 :    19.9073474736799
          24 :   -15.6365406396872
          25 :    10.4656093997626
          26 :   -5.63944520513598
          27 :    2.62526581608495
          28 :   -2.57253685257956
          29 :    5.70780148144172
          30 :   -11.0301153021285
          31 :   -58.4958826878678
          32 :   -42.6481755049565

     Forces acting on atoms (Ry/au):

     negative rho (up, down):  9.574E-01 0.000E+00
     atom    1 type  1   force =     0.00092536    0.00064424    0.04539368
     atom    2 type  2   force =    -0.00283344   -0.00208573   -0.02871014
     atom    3 type  2   force =    -0.00293001   -0.00193779   -0.02870823
     atom    4 type  1   force =     0.00097214    0.00067956    0.04540939
     atom    5 type  1   force =    -0.00011449   -0.00007882    0.00164441
     atom    6 type  2   force =    -0.00009633    0.00016191   -0.00228448
     atom    7 type  2   force =     0.00012372   -0.00015039   -0.00229491
     atom    8 type  1   force =     0.00016908    0.00011666    0.00166828
     atom    9 type  1   force =    -0.00107952   -0.00075230   -0.04280426
     atom   10 type  2   force =     0.00282689    0.00207763    0.02672819
     atom   11 type  2   force =     0.00292040    0.00194205    0.02672220
     atom   12 type  1   force =    -0.00088381   -0.00061701   -0.04276414

     Total force =     0.071533     Total SCF correction =     0.007636
     SCF correction compared to forces is large: reduce conv_thr to get better values

     entering subroutine stress ...

     negative rho (up, down):  9.574E-01 0.000E+00
          total   stress  (Ry/bohr**3)                   (kbar)     P=  -15.59
  -0.00012244  -0.00001133   0.00000584        -18.01     -1.67      0.86
  -0.00001133  -0.00011414   0.00000408         -1.67    -16.79      0.60
   0.00000584   0.00000408  -0.00008128          0.86      0.60    -11.96

     BFGS Geometry Optimization

     number of scf cycles    =   1
     number of bfgs steps    =   0

     energy   new            =   -2086.3004967791 Ry

     new trust radius        =       0.0428244771 bohr
     new conv_thr            =       0.0000099958 Ry

ATOMIC_POSITIONS (crystal)
Hf1      0.000000000   0.000000000   0.397249079    0   0   0
Bi1     -0.000000000   0.500000000   0.397249079    0   0   0
Bi1      0.500000000   0.000000000   0.397249079    0   0   0
Hf1      0.500000000   0.500000000   0.397249079    0   0   0
Hf1      0.743998089   0.743998089   0.500000000    0   0   0
Bi1      0.743998089   0.243998089   0.500000000    0   0   0
Bi1      0.243998089   0.743998089   0.500000000    0   0   0
Hf1      0.243998089   0.243998089   0.500000000    0   0   0
Hf1      0.487928789   0.487929007   0.601851111
Bi1      0.488169338   0.988181681   0.603312788
Bi1      0.988181342   0.488169576   0.603312662
Hf1      0.987941040   0.987941087   0.601851954

     Writing output data file calc.save
     Check: negative starting charge=   -0.902289
     NEW-OLD atomic charge density approx. for the potential

     Check: negative/imaginary core charge=   -0.000003    0.000000
     Check: negative starting charge=   -0.900178

[...]

     Total force =     0.068523     Total SCF correction =     0.003597

[...]

     energy   old            =   -2086.3004967791 Ry
     energy   new            =   -2086.3056788362 Ry

     CASE: energy  _new < energy  _old

     WARNING: bfgs curvature condition failed, Theta= 0.835
     new trust radius        =       0.0471069248 bohr
     new conv_thr            =       0.0000001000 Ry

[...]

     iteration #  1     ecut=    36.75 Ry     beta=0.30
     Davidson diagonalization with overlap
     c_bands:  1 eigenvalues not converged
     c_bands:  1 eigenvalues not converged
     c_bands:  1 eigenvalues not converged
     c_bands:  1 eigenvalues not converged
     ethr =  1.00E-06,  avg # of iterations = 16.1

[...]

     number of scf cycles    =  11
     number of bfgs steps    =  10

     energy   old            =   -2086.3366927036 Ry
     energy   new            =   -2086.3368742613 Ry

     CASE: energy  _new < energy  _old

     new trust radius        =       0.0404243113 bohr
     new conv_thr            =       0.0000001000 Ry

ATOMIC_POSITIONS (crystal)
Hf1      0.000000000   0.000000000   0.397249079    0   0   0
Bi1     -0.000000000   0.500000000   0.397249079    0   0   0
Bi1      0.500000000   0.000000000   0.397249079    0   0   0
Hf1      0.500000000   0.500000000   0.397249079    0   0   0
Hf1      0.743998089   0.743998089   0.500000000    0   0   0
Bi1      0.743998089   0.243998089   0.500000000    0   0   0
Bi1      0.243998089   0.743998089   0.500000000    0   0   0
Hf1      0.243998089   0.243998089   0.500000000    0   0   0
Hf1      0.488433813   0.488433274   0.592377441
Bi1      0.489846764   0.989701204   0.612175187
Bi1      0.989699984   0.489847521   0.612175065
Hf1      0.988664447   0.988665521   0.592398713

     Writing output data file calc.save
     Check: negative starting charge=   -0.902711
     NEW-OLD atomic charge density approx. for the potential

     Check: negative/imaginary core charge=   -0.000002    0.000000
     Check: negative starting charge=   -0.902563

[...]

     Self-consistent Calculation

[...]

     total energy              =   -2086.33696442 Ry
     Harris-Foulkes estimate   =   -2086.33696444 Ry
     estimated scf accuracy    <       0.00000013 Ry

     iteration # 11     ecut=    36.75 Ry     beta=0.30
     Davidson diagonalization with overlap
     ethr =  7.98E-11,  avg # of iterations =  3.5

[...]

     negative rho (up, down):  9.579E-01 0.000E+00

     Adding external electric field

     Computed dipole along edir(3) :
        Dipole               -0.0921 Ry au,         -0.2340 Debye
        Dipole field         -0.0002 Ry au

        Potential amp.        0.0169 Ry
        Total length         46.3811 bohr

     End of self-consistent calculation

[...]

          k = 0.0528-0.0475 0.0000 ( 23911 PWs)   bands (ev):

[...]

          k =-0.0792-0.0553 0.0000 ( 23816 PWs)   bands (ev):

   -61.7739 -61.7710 -61.5414 -61.5384 -60.9901 -60.9870 -30.3901 -30.3800
   -30.2193 -30.1924 -30.1804 -30.1527 -30.1409 -30.1158 -30.0425 -30.0020
   -29.9898 -29.9345 -29.5783 -29.5096 -29.4976 -29.4692 -29.4542 -29.4454
   -21.1536 -21.1399 -21.1279 -21.1260 -21.1239 -21.1119 -21.1117 -21.1059
   -21.1016 -21.0847 -21.0644 -21.0586 -21.0529 -21.0500 -21.0470 -21.0403
   -21.0281 -21.0261 -21.0224 -21.0165 -21.0148 -21.0131 -20.9998 -20.9966
   -20.9933 -20.9892 -20.9854 -20.9734 -20.9728 -20.9701  -9.7662  -9.3761
    -9.1341  -9.0753  -8.2723  -7.7771  -4.0496  -4.0220  -3.5678  -2.6864
    -2.5373  -2.2963  -2.0241  -1.5718  -0.9405  -0.5703   0.1978   0.3185
     0.6184   0.9195   1.0738   1.2207   1.3307   1.4038   1.4139   1.5158
     1.5619   1.9721   2.2280   2.3016   2.3796   2.4161   2.8717   2.9432
     3.3662   3.5790   3.9359

     the Fermi energy is     1.8343 ev

!    total energy              =   -2086.33696443 Ry
     Harris-Foulkes estimate   =   -2086.33696439 Ry
     estimated scf accuracy    <          8.2E-09 Ry

     The total energy is the sum of the following terms:

     one-electron contribution =   -9963.59076705 Ry
     hartree contribution      =    5002.87016676 Ry
     xc contribution           =    -863.76801169 Ry
     ewald contribution        =    3738.21179391 Ry
     electric field correction =       0.00001676 Ry
     smearing contrib. (-TS)   =      -0.06016313 Ry

     convergence has been achieved in  11 iterations

 BEEF-vdW xc energy contributions
           1 :   -776.285422719611
           2 :    722.016303723130
           3 :   -625.828614927750
           4 :    507.753050099101
           5 :   -388.782174565690
           6 :    284.933037913441
           7 :   -204.252477186215
           8 :    147.148349587211
           9 :   -109.045760336740
          10 :    83.6519365443334
          11 :   -65.4484453672055
          12 :    50.7891909610564
          13 :   -37.8267720485114
          14 :    25.8724199702142
          15 :   -14.7847586134441
          16 :    4.63788457506394
          17 :    4.36791082087905
          18 :   -11.9385411203348
          19 :    17.7539375581628
          20 :   -21.5588446577661
          21 :    23.2055240390187
          22 :   -22.6567660285250
          23 :    20.0204837898061
          24 :   -15.6807046188377
          25 :    10.4585596893864
          26 :   -5.63606544987169
          27 :    2.68236968727808
          28 :   -2.70745050673327
          29 :    5.88249948566761
          30 :   -11.1755026340788
          31 :   -58.4981900704214
          32 :   -42.6462729331375

     Forces acting on atoms (Ry/au):

     negative rho (up, down):  9.579E-01 0.000E+00
     atom    1 type  1   force =     0.00111422    0.00077831    0.04722685
     atom    2 type  2   force =    -0.00299608   -0.00209507   -0.02738131
     atom    3 type  2   force =    -0.00299809   -0.00209223   -0.02738145
     atom    4 type  1   force =     0.00112540    0.00078611    0.04726482
     atom    5 type  1   force =    -0.00084829   -0.00059247    0.01285377
     atom    6 type  2   force =     0.00189663    0.00129010   -0.03240441
     atom    7 type  2   force =     0.00186398    0.00133703   -0.03240359
     atom    8 type  1   force =    -0.00051219   -0.00035778    0.01292980
     atom    9 type  1   force =    -0.00013075   -0.00009054   -0.00064136
     atom   10 type  2   force =     0.00072572    0.00051847    0.00031449
     atom   11 type  2   force =     0.00073743    0.00050337    0.00031467
     atom   12 type  1   force =     0.00002202    0.00001470   -0.00069227

     Total force =     0.001645     Total SCF correction =     0.000112

     entering subroutine stress ...

     negative rho (up, down):  9.579E-01 0.000E+00
          total   stress  (Ry/bohr**3)                   (kbar)     P=  -14.10
  -0.00012750  -0.00002893   0.00000423        -18.76     -4.26      0.62
  -0.00002893  -0.00010630   0.00000295         -4.26    -15.64      0.43
   0.00000423   0.00000295  -0.00005369          0.62      0.43     -7.90

     bfgs converged in  12 scf cycles and  11 bfgs steps
     (criteria: energy <  1.0E+00, force <  1.9E-03)

     End of BFGS Geometry Optimization

     Final energy   =   -2086.3369644305 Ry
Begin final coordinates

ATOMIC_POSITIONS (crystal)
Hf1      0.000000000   0.000000000   0.397249079    0   0   0
Bi1     -0.000000000   0.500000000   0.397249079    0   0   0
Bi1      0.500000000   0.000000000   0.397249079    0   0   0
Hf1      0.500000000   0.500000000   0.397249079    0   0   0
Hf1      0.743998089   0.743998089   0.500000000    0   0   0
Bi1      0.743998089   0.243998089   0.500000000    0   0   0
Bi1      0.243998089   0.743998089   0.500000000    0   0   0
Hf1      0.243998089   0.243998089   0.500000000    0   0   0
Hf1      0.488433813   0.488433274   0.592377441
Bi1      0.489846764   0.989701204   0.612175187
Bi1      0.989699984   0.489847521   0.612175065
Hf1      0.988664447   0.988665521   0.592398713
End final coordinates

     Writing output data file calc.save

     General routines

     Parallel routines

   This run was terminated on:  22:21:56  23Feb2018

   JOB DONE.