     Program PWSCF v.5.1rc2 starts on 14Nov2017 at  9:36: 4

     Current dimensions of program PWSCF are:
     Max number of different atomic species (ntypx) = 10
     Max number of k-points (npk) =  40000
     Max angular momentum in pseudopotentials (lmaxx) =  3

     IMPORTANT: XC functional enforced from input :
     Exchange-correlation      = BEEF-VDW ( 1  4 27 13 2)
     Any further DFT definition will be discarded
     Please, verify this is what you really want

     Found symmetry operation: I + ( -0.5000 -0.5000  0.0000)
     This is a supercell, fractional translations are disabled

     bravais-lattice index     =            0
     lattice parameter (alat)  =       1.8897  a.u.
     unit-cell volume          =     422.7529 (a.u.)^3
     number of atoms/cell      =            4
     number of atomic types    =            2
     number of electrons       =        58.00
     number of Kohn-Sham states=           49
     kinetic-energy cutoff     =      58.7989  Ry
     charge density cutoff     =     587.9892  Ry
     convergence threshold     =      1.0E-06
     mixing beta               =       0.1000
     number of iterations used =           10  plain     mixing
     Exchange-correlation      = BEEF-VDW ( 1  4 27 13 2)

     celldm(1)=   1.889726  celldm(2)=   0.000000  celldm(3)=   0.000000
     celldm(4)=   0.000000  celldm(5)=   0.000000  celldm(6)=   0.000000

     crystal axes: (cart. coord. in units of alat)
               a(1) = (   3.997942   0.000000   0.000000 )
               a(2) = (   0.000000   3.997942   0.000000 )
               a(3) = (   0.000000   0.000000   3.919377 )

     reciprocal axes: (cart. coord. in units 2 pi/alat)
               b(1) = (  0.250129  0.000000  0.000000 )
               b(2) = (  0.000000  0.250129  0.000000 )
               b(3) = (  0.000000  0.000000  0.255143 )

     PseudoPot. # 1 for W  read from file:
     /home/users/vossj/suncat/psp/gbrv1.5pbe/W.UPF
     MD5 check sum: 9c083fa34c2a2ea0f02f1f893e16e1c8
     Pseudo is Ultrasoft + core correction, Zval = 14.0
     Generated by new atomic code, or converted to UPF format
     Using radial grid of  923 points,  8 beta functions with:
                l(1) =   0
                l(2) =   0
                l(3) =   0
                l(4) =   1
                l(5) =   1
                l(6) =   2
                l(7) =   2
                l(8) =   3
     Q(r) pseudized with  6 coefficients,  rinner =    1.350   1.350   1.350
                                                       1.350   1.350   1.350
                                                       1.350

     PseudoPot. # 2 for Re read from file:
     /home/users/vossj/suncat/psp/gbrv1.5pbe/Re.UPF
     MD5 check sum: 85f993410f3e006da9d71c142b4ad953
     Pseudo is Ultrasoft + core correction, Zval = 15.0
     Generated by new atomic code, or converted to UPF format
     Using radial grid of  981 points,  8 beta functions with:
                l(1) =   0
                l(2) =   0
                l(3) =   1
                l(4) =   1
                l(5) =   2
                l(6) =   2
                l(7) =   3
                l(8) =   3
     Q(r) pseudized with  8 coefficients,  rinner =    1.150   1.150   1.150
                                                       1.150   1.150   1.150
                                                       1.150

     vdW kernel table read from file vdW_kernel_table
     MD5 check sum: 095c7af220d748ca6e76c0b4c6cfb241

     atomic species   valence    mass     pseudopotential
        W1            14.00   183.85000     W ( 1.00)
        Re1           15.00   186.20700     Re( 1.00)

     16 Sym. Ops., with inversion, found

   Cartesian axes

     site n.     atom                  positions (alat units)
         1           W1  tau(   1) = (   0.0000000   0.0000000   0.0000000  )
         2           W1  tau(   2) = (   1.9989709   1.9989709   0.0000000  )
         3           Re1 tau(   3) = (   1.9989709   0.0000000   1.9596884  )
         4           Re1 tau(   4) = (   0.0000000   1.9989709   1.9596884  )

     number of k points=    75  Fermi-Dirac smearing, width (Ry)=  0.0073
                       cart. coord. in units 2pi/alat
        k(    1) = (   0.0000000   0.0000000   0.0000000), wk =   0.0027435
        k(    2) = (   0.0000000   0.0000000   0.0283492), wk =   0.0054870
        k(    3) = (   0.0000000   0.0000000   0.0566984), wk =   0.0054870
        k(    4) = (   0.0000000   0.0000000   0.0850475), wk =   0.0054870
        k(    5) = (   0.0000000   0.0000000   0.1133967), wk =   0.0054870
        k(    6) = (   0.0000000   0.0277921   0.0000000), wk =   0.0109739
        k(    7) = (   0.0000000   0.0277921   0.0283492), wk =   0.0219479
        k(    8) = (   0.0000000   0.0277921   0.0566984), wk =   0.0219479
        k(    9) = (   0.0000000   0.0277921   0.0850475), wk =   0.0219479
        k(   10) = (   0.0000000   0.0277921   0.1133967), wk =   0.0219479
        k(   11) = (   0.0000000   0.0555842   0.0000000), wk =   0.0109739
        k(   12) = (   0.0000000   0.0555842   0.0283492), wk =   0.0219479
        k(   13) = (   0.0000000   0.0555842   0.0566984), wk =   0.0219479
        k(   14) = (   0.0000000   0.0555842   0.0850475), wk =   0.0219479
        k(   15) = (   0.0000000   0.0555842   0.1133967), wk =   0.0219479
        k(   16) = (   0.0000000   0.0833762   0.0000000), wk =   0.0109739
        k(   17) = (   0.0000000   0.0833762   0.0283492), wk =   0.0219479
        k(   18) = (   0.0000000   0.0833762   0.0566984), wk =   0.0219479
        k(   19) = (   0.0000000   0.0833762   0.0850475), wk =   0.0219479
        k(   20) = (   0.0000000   0.0833762   0.1133967), wk =   0.0219479
        k(   21) = (   0.0000000   0.1111683   0.0000000), wk =   0.0109739
        k(   22) = (   0.0000000   0.1111683   0.0283492), wk =   0.0219479
        k(   23) = (   0.0000000   0.1111683   0.0566984), wk =   0.0219479
        k(   24) = (   0.0000000   0.1111683   0.0850475), wk =   0.0219479
        k(   25) = (   0.0000000   0.1111683   0.1133967), wk =   0.0219479
        k(   26) = (   0.0277921   0.0277921   0.0000000), wk =   0.0109739
        k(   27) = (   0.0277921   0.0277921   0.0283492), wk =   0.0219479
        k(   28) = (   0.0277921   0.0277921   0.0566984), wk =   0.0219479
        k(   29) = (   0.0277921   0.0277921   0.0850475), wk =   0.0219479
        k(   30) = (   0.0277921   0.0277921   0.1133967), wk =   0.0219479
        k(   31) = (   0.0277921   0.0555842   0.0000000), wk =   0.0219479
        k(   32) = (   0.0277921   0.0555842   0.0283492), wk =   0.0438957
        k(   33) = (   0.0277921   0.0555842   0.0566984), wk =   0.0438957
        k(   34) = (   0.0277921   0.0555842   0.0850475), wk =   0.0438957
        k(   35) = (   0.0277921   0.0555842   0.1133967), wk =   0.0438957
        k(   36) = (   0.0277921   0.0833762   0.0000000), wk =   0.0219479
        k(   37) = (   0.0277921   0.0833762   0.0283492), wk =   0.0438957
        k(   38) = (   0.0277921   0.0833762   0.0566984), wk =   0.0438957
        k(   39) = (   0.0277921   0.0833762   0.0850475), wk =   0.0438957
        k(   40) = (   0.0277921   0.0833762   0.1133967), wk =   0.0438957
        k(   41) = (   0.0277921   0.1111683   0.0000000), wk =   0.0219479
        k(   42) = (   0.0277921   0.1111683   0.0283492), wk =   0.0438957
        k(   43) = (   0.0277921   0.1111683   0.0566984), wk =   0.0438957
        k(   44) = (   0.0277921   0.1111683   0.0850475), wk =   0.0438957
        k(   45) = (   0.0277921   0.1111683   0.1133967), wk =   0.0438957
        k(   46) = (   0.0555842   0.0555842   0.0000000), wk =   0.0109739
        k(   47) = (   0.0555842   0.0555842   0.0283492), wk =   0.0219479
        k(   48) = (   0.0555842   0.0555842   0.0566984), wk =   0.0219479
        k(   49) = (   0.0555842   0.0555842   0.0850475), wk =   0.0219479
        k(   50) = (   0.0555842   0.0555842   0.1133967), wk =   0.0219479
        k(   51) = (   0.0555842   0.0833762   0.0000000), wk =   0.0219479
        k(   52) = (   0.0555842   0.0833762   0.0283492), wk =   0.0438957
        k(   53) = (   0.0555842   0.0833762   0.0566984), wk =   0.0438957
        k(   54) = (   0.0555842   0.0833762   0.0850475), wk =   0.0438957
        k(   55) = (   0.0555842   0.0833762   0.1133967), wk =   0.0438957
        k(   56) = (   0.0555842   0.1111683   0.0000000), wk =   0.0219479
        k(   57) = (   0.0555842   0.1111683   0.0283492), wk =   0.0438957
        k(   58) = (   0.0555842   0.1111683   0.0566984), wk =   0.0438957
        k(   59) = (   0.0555842   0.1111683   0.0850475), wk =   0.0438957
        k(   60) = (   0.0555842   0.1111683   0.1133967), wk =   0.0438957
        k(   61) = (   0.0833762   0.0833762   0.0000000), wk =   0.0109739
        k(   62) = (   0.0833762   0.0833762   0.0283492), wk =   0.0219479
        k(   63) = (   0.0833762   0.0833762   0.0566984), wk =   0.0219479
        k(   64) = (   0.0833762   0.0833762   0.0850475), wk =   0.0219479
        k(   65) = (   0.0833762   0.0833762   0.1133967), wk =   0.0219479
        k(   66) = (   0.0833762   0.1111683   0.0000000), wk =   0.0219479
        k(   67) = (   0.0833762   0.1111683   0.0283492), wk =   0.0438957
        k(   68) = (   0.0833762   0.1111683   0.0566984), wk =   0.0438957
        k(   69) = (   0.0833762   0.1111683   0.0850475), wk =   0.0438957
        k(   70) = (   0.0833762   0.1111683   0.1133967), wk =   0.0438957
        k(   71) = (   0.1111683   0.1111683   0.0000000), wk =   0.0109739
        k(   72) = (   0.1111683   0.1111683   0.0283492), wk =   0.0219479
        k(   73) = (   0.1111683   0.1111683   0.0566984), wk =   0.0219479
        k(   74) = (   0.1111683   0.1111683   0.0850475), wk =   0.0219479
        k(   75) = (   0.1111683   0.1111683   0.1133967), wk =   0.0219479

     Largest allocated arrays     est. size (Mb)     dimensions
     Largest temporary arrays     est. size (Mb)     dimensions

     Initial potential from superposition of free atoms
     Check: negative starting charge=   -0.380314

     starting charge   56.79923, renormalised to   58.00000

     negative rho (up, down):  3.884E-01 0.000E+00

     *
     * You are using vdW-DF for exchange-correlation in this calculation.
     * Please cite the following three references that made this development
     * possible:
     *
     *   M. Dion, H. Rydberg, E. Schroder, D. C. Langreth, and
     *   B. I. Lundqvist, Phys. Rev. Lett. 92, 246401 (2004).
     *
     *   T. Thonhauser, V. R. Cooper, S. Li, A. Puzder, P. Hyldgaard, and
     *   D. C. Langreth, Phys. Rev. B 76, 125112 (2007).
     *
     *   G. Roman-Perez and J. M. Soler, Phys. Rev. Lett. 103, 096102 (2009).
     *
     *
     * If you are using vdW-DF2, please also cite:
     *
     *   K. Lee, E. D. Murray, L. Kong, B. I. Lundqvist, and
     *   D. C. Langreth, Phys. Rev. B 82, 081101(R) (2010).
     *
     *
     * If you are calculating the stress with vdW-DF, please also cite:
     *
     *   R. Sabatini, E. Kucukbenli, B. Kolb, T. Thonhauser, and
     *   S. de Gironcoli, J. Phys.: Condens. Matter 24, 424209 (2012).
     *

     Carrying out vdW-DF run using the following parameters:

     Nqs =      20    Nr_points =    1024   r_max =   100.000
     q_mesh =
               0.00001000     0.04494208     0.09755937     0.15916263
               0.23128650     0.31572767     0.41458969     0.53033537
               0.66584808     0.82450364     1.01025438     1.22772762
               1.48234092     1.78043706     2.12944203     2.53805004
               3.01644009     3.57652955     4.23227104     5.00000000

     Gradients computed in reciprocal space

     Starting wfc are   52 randomized atomic wfcs

     Self-consistent Calculation

     iteration #  1     ecut=    58.80 Ry     beta=0.10
     Davidson diagonalization with overlap
     ethr =  1.00E-02,  avg # of iterations =  4.2

     Threshold (ethr) on eigenvalues was too large:
     Diagonalizing with lowered threshold

     Davidson diagonalization with overlap
     ethr =  7.32E-04,  avg # of iterations =  1.2

[...]

     total energy              =    -705.43083026 Ry
     Harris-Foulkes estimate   =    -705.49004191 Ry
     estimated scf accuracy    <       0.42810560 Ry

[...]

     total energy              =    -705.34946287 Ry
     Harris-Foulkes estimate   =    -705.34946263 Ry
     estimated scf accuracy    <       0.00000297 Ry

     iteration # 11     ecut=    58.80 Ry     beta=0.10
     Davidson diagonalization with overlap
     ethr =  3.12E-09,  avg # of iterations =  1.0

     negative rho (up, down):  4.139E-01 0.000E+00

     End of self-consistent calculation

          k = 0.0000 0.0000 0.0000 (  3223 PWs)   bands (ev):

   -57.8919 -57.8389 -51.7811 -51.7049 -19.8074 -19.8074 -19.6691 -19.5038
   -19.3654 -19.3654 -16.0976 -16.0976 -15.8498 -15.7923 -15.5490 -15.5490
    12.9868  16.3732  16.3968  16.4075  17.2569  17.3073  17.3073  21.1103
    21.1103  21.4483  23.9967  24.5276  25.1563  25.1563  25.5677  26.3834
    26.5919  26.9171  27.1171  27.5685  27.5685  27.6472  27.6472  28.1366
    34.0549  34.0549  34.1524  34.2381  34.2381  34.8791  34.9121  35.4685
    35.6588

[...]

          k = 0.1112 0.1112 0.1134 (  3211 PWs)   bands (ev):

   -57.8655 -57.8639 -51.7441 -51.7418 -19.8792 -19.8670 -19.6197 -19.6169
   -19.3270 -19.3136 -16.1422 -16.1261 -15.8223 -15.8183 -15.5240 -15.5060
    16.2775  16.3764  16.4416  16.4700  20.6694  20.7521  20.8044  20.8575
    21.0014  21.0054  21.4285  21.5476  22.3910  22.5244  22.6051  22.6333
    26.2640  26.2938  26.6375  26.9694  27.0168  27.1267  27.1774  27.3033
    32.2778  32.3953  32.5777  32.8475  35.3203  35.3312  35.3333  35.3832
    41.0027

     the Fermi energy is    22.3753 ev

!    total energy              =    -705.34946562 Ry
     Harris-Foulkes estimate   =    -705.34946320 Ry
     estimated scf accuracy    <       0.00000002 Ry

     The total energy is the sum of the following terms:

     one-electron contribution =     -68.78869815 Ry
     hartree contribution      =      71.14905873 Ry
     xc contribution           =    -193.63924115 Ry
     ewald contribution        =    -514.06225186 Ry
     smearing contrib. (-TS)   =      -0.00833318 Ry

     convergence has been achieved in  11 iterations

     Forces acting on atoms (Ry/au):

     negative rho (up, down):  4.139E-01 0.000E+00
     atom    1 type  1   force =     0.00000000    0.00000000    0.00000000
     atom    2 type  1   force =     0.00000000    0.00000000    0.00000000
     atom    3 type  2   force =     0.00000000    0.00000000    0.00000000
     atom    4 type  2   force =     0.00000000    0.00000000    0.00000000

     Total force =     0.000000     Total SCF correction =     0.000000

     General routines

     Parallel routines

   This run was terminated on:   9:36:49  14Nov2017

   JOB DONE.