     Program PWSCF v.5.1rc2 starts on 14Nov2017 at  9:40:10

     Current dimensions of program PWSCF are:
     Max number of different atomic species (ntypx) = 10
     Max number of k-points (npk) =  40000
     Max angular momentum in pseudopotentials (lmaxx) =  3

     IMPORTANT: XC functional enforced from input :
     Exchange-correlation      = BEEF-VDW ( 1  4 27 13 2)
     Any further DFT definition will be discarded
     Please, verify this is what you really want

     Found symmetry operation: I + ( -0.5000 -0.5000  0.0000)
     This is a supercell, fractional translations are disabled

     bravais-lattice index     =            0
     lattice parameter (alat)  =       1.8897  a.u.
     unit-cell volume          =     412.3851 (a.u.)^3
     number of atoms/cell      =            4
     number of atomic types    =            2
     number of electrons       =        60.00
     number of Kohn-Sham states=           50
     kinetic-energy cutoff     =      58.7989  Ry
     charge density cutoff     =     587.9892  Ry
     convergence threshold     =      1.0E-06
     mixing beta               =       0.1000
     number of iterations used =           10  plain     mixing
     Exchange-correlation      = BEEF-VDW ( 1  4 27 13 2)

     celldm(1)=   1.889726  celldm(2)=   0.000000  celldm(3)=   0.000000
     celldm(4)=   0.000000  celldm(5)=   0.000000  celldm(6)=   0.000000

     crystal axes: (cart. coord. in units of alat)
               a(1) = (   3.960522   0.000000   0.000000 )
               a(2) = (   0.000000   3.960522   0.000000 )
               a(3) = (   0.000000   0.000000   3.895845 )

     reciprocal axes: (cart. coord. in units 2 pi/alat)
               b(1) = (  0.252492  0.000000  0.000000 )
               b(2) = (  0.000000  0.252492  0.000000 )
               b(3) = (  0.000000  0.000000  0.256684 )

     PseudoPot. # 1 for W  read from file:
     /home/users/vossj/suncat/psp/gbrv1.5pbe/W.UPF
     MD5 check sum: 9c083fa34c2a2ea0f02f1f893e16e1c8
     Pseudo is Ultrasoft + core correction, Zval = 14.0
     Generated by new atomic code, or converted to UPF format
     Using radial grid of  923 points,  8 beta functions with:
                l(1) =   0
                l(2) =   0
                l(3) =   0
                l(4) =   1
                l(5) =   1
                l(6) =   2
                l(7) =   2
                l(8) =   3
     Q(r) pseudized with  6 coefficients,  rinner =    1.350   1.350   1.350
                                                       1.350   1.350   1.350
                                                       1.350

     PseudoPot. # 2 for Os read from file:
     /home/users/vossj/suncat/psp/gbrv1.5pbe/Os.UPF
     MD5 check sum: a3fb40a04f0c37c25c34bbc47164c9a8
     Pseudo is Ultrasoft + core correction, Zval = 16.0
     Generated by new atomic code, or converted to UPF format
     Using radial grid of  983 points,  8 beta functions with:
                l(1) =   0
                l(2) =   0
                l(3) =   1
                l(4) =   1
                l(5) =   2
                l(6) =   2
                l(7) =   3
                l(8) =   3
     Q(r) pseudized with  8 coefficients,  rinner =    1.150   1.150   1.150
                                                       1.150   1.150   1.150
                                                       1.150

     vdW kernel table read from file vdW_kernel_table
     MD5 check sum: 095c7af220d748ca6e76c0b4c6cfb241

     atomic species   valence    mass     pseudopotential
        W1            14.00   183.85000     W ( 1.00)
        Os1           16.00   190.20000     Os( 1.00)

     16 Sym. Ops., with inversion, found

   Cartesian axes

     site n.     atom                  positions (alat units)
         1           W1  tau(   1) = (   0.0000000   0.0000000   0.0000000  )
         2           W1  tau(   2) = (   1.9802608   1.9802608   0.0000000  )
         3           Os1 tau(   3) = (   1.9802608   0.0000000   1.9479225  )
         4           Os1 tau(   4) = (   0.0000000   1.9802608   1.9479225  )

     number of k points=    75  Fermi-Dirac smearing, width (Ry)=  0.0073
                       cart. coord. in units 2pi/alat
        k(    1) = (   0.0000000   0.0000000   0.0000000), wk =   0.0027435
        k(    2) = (   0.0000000   0.0000000   0.0285204), wk =   0.0054870
        k(    3) = (   0.0000000   0.0000000   0.0570408), wk =   0.0054870
        k(    4) = (   0.0000000   0.0000000   0.0855612), wk =   0.0054870
        k(    5) = (   0.0000000   0.0000000   0.1140817), wk =   0.0054870
        k(    6) = (   0.0000000   0.0280547   0.0000000), wk =   0.0109739
        k(    7) = (   0.0000000   0.0280547   0.0285204), wk =   0.0219479
        k(    8) = (   0.0000000   0.0280547   0.0570408), wk =   0.0219479
        k(    9) = (   0.0000000   0.0280547   0.0855612), wk =   0.0219479
        k(   10) = (   0.0000000   0.0280547   0.1140817), wk =   0.0219479
        k(   11) = (   0.0000000   0.0561093   0.0000000), wk =   0.0109739
        k(   12) = (   0.0000000   0.0561093   0.0285204), wk =   0.0219479
        k(   13) = (   0.0000000   0.0561093   0.0570408), wk =   0.0219479
        k(   14) = (   0.0000000   0.0561093   0.0855612), wk =   0.0219479
        k(   15) = (   0.0000000   0.0561093   0.1140817), wk =   0.0219479
        k(   16) = (   0.0000000   0.0841640   0.0000000), wk =   0.0109739
        k(   17) = (   0.0000000   0.0841640   0.0285204), wk =   0.0219479
        k(   18) = (   0.0000000   0.0841640   0.0570408), wk =   0.0219479
        k(   19) = (   0.0000000   0.0841640   0.0855612), wk =   0.0219479
        k(   20) = (   0.0000000   0.0841640   0.1140817), wk =   0.0219479
        k(   21) = (   0.0000000   0.1122187   0.0000000), wk =   0.0109739
        k(   22) = (   0.0000000   0.1122187   0.0285204), wk =   0.0219479
        k(   23) = (   0.0000000   0.1122187   0.0570408), wk =   0.0219479
        k(   24) = (   0.0000000   0.1122187   0.0855612), wk =   0.0219479
        k(   25) = (   0.0000000   0.1122187   0.1140817), wk =   0.0219479
        k(   26) = (   0.0280547   0.0280547   0.0000000), wk =   0.0109739
        k(   27) = (   0.0280547   0.0280547   0.0285204), wk =   0.0219479
        k(   28) = (   0.0280547   0.0280547   0.0570408), wk =   0.0219479
        k(   29) = (   0.0280547   0.0280547   0.0855612), wk =   0.0219479
        k(   30) = (   0.0280547   0.0280547   0.1140817), wk =   0.0219479
        k(   31) = (   0.0280547   0.0561093   0.0000000), wk =   0.0219479
        k(   32) = (   0.0280547   0.0561093   0.0285204), wk =   0.0438957
        k(   33) = (   0.0280547   0.0561093   0.0570408), wk =   0.0438957
        k(   34) = (   0.0280547   0.0561093   0.0855612), wk =   0.0438957
        k(   35) = (   0.0280547   0.0561093   0.1140817), wk =   0.0438957
        k(   36) = (   0.0280547   0.0841640   0.0000000), wk =   0.0219479
        k(   37) = (   0.0280547   0.0841640   0.0285204), wk =   0.0438957
        k(   38) = (   0.0280547   0.0841640   0.0570408), wk =   0.0438957
        k(   39) = (   0.0280547   0.0841640   0.0855612), wk =   0.0438957
        k(   40) = (   0.0280547   0.0841640   0.1140817), wk =   0.0438957
        k(   41) = (   0.0280547   0.1122187   0.0000000), wk =   0.0219479
        k(   42) = (   0.0280547   0.1122187   0.0285204), wk =   0.0438957
        k(   43) = (   0.0280547   0.1122187   0.0570408), wk =   0.0438957
        k(   44) = (   0.0280547   0.1122187   0.0855612), wk =   0.0438957
        k(   45) = (   0.0280547   0.1122187   0.1140817), wk =   0.0438957
        k(   46) = (   0.0561093   0.0561093   0.0000000), wk =   0.0109739
        k(   47) = (   0.0561093   0.0561093   0.0285204), wk =   0.0219479
        k(   48) = (   0.0561093   0.0561093   0.0570408), wk =   0.0219479
        k(   49) = (   0.0561093   0.0561093   0.0855612), wk =   0.0219479
        k(   50) = (   0.0561093   0.0561093   0.1140817), wk =   0.0219479
        k(   51) = (   0.0561093   0.0841640   0.0000000), wk =   0.0219479
        k(   52) = (   0.0561093   0.0841640   0.0285204), wk =   0.0438957
        k(   53) = (   0.0561093   0.0841640   0.0570408), wk =   0.0438957
        k(   54) = (   0.0561093   0.0841640   0.0855612), wk =   0.0438957
        k(   55) = (   0.0561093   0.0841640   0.1140817), wk =   0.0438957
        k(   56) = (   0.0561093   0.1122187   0.0000000), wk =   0.0219479
        k(   57) = (   0.0561093   0.1122187   0.0285204), wk =   0.0438957
        k(   58) = (   0.0561093   0.1122187   0.0570408), wk =   0.0438957
        k(   59) = (   0.0561093   0.1122187   0.0855612), wk =   0.0438957
        k(   60) = (   0.0561093   0.1122187   0.1140817), wk =   0.0438957
        k(   61) = (   0.0841640   0.0841640   0.0000000), wk =   0.0109739
        k(   62) = (   0.0841640   0.0841640   0.0285204), wk =   0.0219479
        k(   63) = (   0.0841640   0.0841640   0.0570408), wk =   0.0219479
        k(   64) = (   0.0841640   0.0841640   0.0855612), wk =   0.0219479
        k(   65) = (   0.0841640   0.0841640   0.1140817), wk =   0.0219479
        k(   66) = (   0.0841640   0.1122187   0.0000000), wk =   0.0219479
        k(   67) = (   0.0841640   0.1122187   0.0285204), wk =   0.0438957
        k(   68) = (   0.0841640   0.1122187   0.0570408), wk =   0.0438957
        k(   69) = (   0.0841640   0.1122187   0.0855612), wk =   0.0438957
        k(   70) = (   0.0841640   0.1122187   0.1140817), wk =   0.0438957
        k(   71) = (   0.1122187   0.1122187   0.0000000), wk =   0.0109739
        k(   72) = (   0.1122187   0.1122187   0.0285204), wk =   0.0219479
        k(   73) = (   0.1122187   0.1122187   0.0570408), wk =   0.0219479
        k(   74) = (   0.1122187   0.1122187   0.0855612), wk =   0.0219479
        k(   75) = (   0.1122187   0.1122187   0.1140817), wk =   0.0219479

     Largest allocated arrays     est. size (Mb)     dimensions
     Largest temporary arrays     est. size (Mb)     dimensions

     Initial potential from superposition of free atoms
     Check: negative starting charge=   -0.371254

     starting charge   58.79925, renormalised to   60.00000

     negative rho (up, down):  3.788E-01 0.000E+00

     *
     * You are using vdW-DF for exchange-correlation in this calculation.
     * Please cite the following three references that made this development
     * possible:
     *
     *   M. Dion, H. Rydberg, E. Schroder, D. C. Langreth, and
     *   B. I. Lundqvist, Phys. Rev. Lett. 92, 246401 (2004).
     *
     *   T. Thonhauser, V. R. Cooper, S. Li, A. Puzder, P. Hyldgaard, and
     *   D. C. Langreth, Phys. Rev. B 76, 125112 (2007).
     *
     *   G. Roman-Perez and J. M. Soler, Phys. Rev. Lett. 103, 096102 (2009).
     *
     *
     * If you are using vdW-DF2, please also cite:
     *
     *   K. Lee, E. D. Murray, L. Kong, B. I. Lundqvist, and
     *   D. C. Langreth, Phys. Rev. B 82, 081101(R) (2010).
     *
     *
     * If you are calculating the stress with vdW-DF, please also cite:
     *
     *   R. Sabatini, E. Kucukbenli, B. Kolb, T. Thonhauser, and
     *   S. de Gironcoli, J. Phys.: Condens. Matter 24, 424209 (2012).
     *

     Carrying out vdW-DF run using the following parameters:

     Nqs =      20    Nr_points =    1024   r_max =   100.000
     q_mesh =
               0.00001000     0.04494208     0.09755937     0.15916263
               0.23128650     0.31572767     0.41458969     0.53033537
               0.66584808     0.82450364     1.01025438     1.22772762
               1.48234092     1.78043706     2.12944203     2.53805004
               3.01644009     3.57652955     4.23227104     5.00000000

     Gradients computed in reciprocal space

     Starting wfc are   52 randomized atomic wfcs

     Self-consistent Calculation

     iteration #  1     ecut=    58.80 Ry     beta=0.10
     Davidson diagonalization with overlap
     ethr =  1.00E-02,  avg # of iterations =  4.3

     Threshold (ethr) on eigenvalues was too large:
     Diagonalizing with lowered threshold

     Davidson diagonalization with overlap
     ethr =  7.63E-04,  avg # of iterations =  1.1

[...]

     total energy              =    -720.71813752 Ry
     Harris-Foulkes estimate   =    -720.78436281 Ry
     estimated scf accuracy    <       0.46004266 Ry

[...]

     total energy              =    -720.64239623 Ry
     Harris-Foulkes estimate   =    -720.64240442 Ry
     estimated scf accuracy    <       0.00001005 Ry

     iteration # 17     ecut=    58.80 Ry     beta=0.10
     Davidson diagonalization with overlap
     ethr =  2.43E-09,  avg # of iterations =  3.3

     negative rho (up, down):  3.868E-01 0.000E+00

     End of self-consistent calculation

          k = 0.0000 0.0000 0.0000 (  3133 PWs)   bands (ev):

   -63.2379 -63.1971 -51.2926 -51.2066 -22.6944 -22.6944 -22.5428 -22.4353
   -22.3361 -22.3361 -15.6249 -15.6249 -15.4114 -15.3013 -15.0172 -15.0172
    13.4332  16.7217  16.7600  16.7624  17.5290  17.5766  17.5766  21.2287
    21.2287  21.6680  23.8263  24.5943  25.7500  25.7500  26.0179  26.1000
    26.1075  27.3500  27.4385  27.6743  27.6743  27.7370  27.7370  28.8937
    34.5434  34.8453  34.8453  35.0452  35.0452  35.0632  35.9711  36.0398
    36.1221  36.3301

[...]

          k = 0.1122 0.1122 0.1141 (  3134 PWs)   bands (ev):

   -63.2178 -63.2165 -51.2505 -51.2479 -22.7452 -22.7349 -22.5052 -22.5028
   -22.3096 -22.2987 -15.6941 -15.6764 -15.3667 -15.3620 -14.9821 -14.9624
    16.6146  16.7027  16.8108  16.8441  20.7812  20.7887  20.8162  20.9669
    21.1123  21.1953  21.8356  21.9714  22.8367  23.0288  23.1501  23.2315
    25.9750  26.0480  26.7067  27.0682  27.2927  27.4522  27.5776  27.7027
    32.5417  32.7113  33.0899  33.3420  36.2328  36.2417  36.2815  36.2950
    41.6462  41.7755

     the Fermi energy is    23.0902 ev

!    total energy              =    -720.64239845 Ry
     Harris-Foulkes estimate   =    -720.64239812 Ry
     estimated scf accuracy    <       0.00000065 Ry

     The total energy is the sum of the following terms:

     one-electron contribution =     -82.73007150 Ry
     hartree contribution      =      80.55935444 Ry
     xc contribution           =    -162.86524746 Ry
     ewald contribution        =    -555.59757591 Ry
     smearing contrib. (-TS)   =      -0.00885802 Ry

     convergence has been achieved in  17 iterations

     Forces acting on atoms (Ry/au):

     negative rho (up, down):  3.868E-01 0.000E+00
     atom    1 type  1   force =     0.00000000    0.00000000    0.00000000
     atom    2 type  1   force =     0.00000000    0.00000000    0.00000000
     atom    3 type  2   force =     0.00000000    0.00000000    0.00000000
     atom    4 type  2   force =     0.00000000    0.00000000    0.00000000

     Total force =     0.000000     Total SCF correction =     0.000000

     General routines

     Parallel routines

   This run was terminated on:   9:41:15  14Nov2017

   JOB DONE.