     Program PWSCF v.5.1rc2 (svn rev. ) starts on 14Nov2017 at 23:12:44

     Current dimensions of program PWSCF are:
     Max number of different atomic species (ntypx) = 10
     Max number of k-points (npk) =  40000
     Max angular momentum in pseudopotentials (lmaxx) =  3

     IMPORTANT: XC functional enforced from input :
     Exchange-correlation      = BEEF-VDW ( 1  4 27 13 2)
     Any further DFT definition will be discarded
     Please, verify this is what you really want

     Subspace diagonalization in iterative solution of the eigenvalue problem:
     a serial algorithm will be used

     Found symmetry operation: I + ( -0.5000 -0.5000  0.0000)
     This is a supercell, fractional translations are disabled

     bravais-lattice index     =            0
     lattice parameter (alat)  =       1.8897  a.u.
     unit-cell volume          =     373.0040 (a.u.)^3
     number of atoms/cell      =            4
     number of atomic types    =            2
     number of electrons       =        56.00
     number of Kohn-Sham states=           48
     kinetic-energy cutoff     =      58.7989  Ry
     charge density cutoff     =     587.9892  Ry
     convergence threshold     =      1.0E-06
     mixing beta               =       0.1000
     number of iterations used =           10  plain     mixing
     Exchange-correlation      = BEEF-VDW ( 1  4 27 13 2)

     celldm(1)=   1.889726  celldm(2)=   0.000000  celldm(3)=   0.000000
     celldm(4)=   0.000000  celldm(5)=   0.000000  celldm(6)=   0.000000

     crystal axes: (cart. coord. in units of alat)
               a(1) = (   4.273494   0.000000   0.000000 )
               a(2) = (   0.000000   4.273494   0.000000 )
               a(3) = (   0.000000   0.000000   3.026569 )

     reciprocal axes: (cart. coord. in units 2 pi/alat)
               b(1) = (  0.234001  0.000000  0.000000 )
               b(2) = (  0.000000  0.234001  0.000000 )
               b(3) = (  0.000000  0.000000  0.330407 )

     PseudoPot. # 1 for V  read from file:
     /home/vossj/suncat/psp/gbrv1.5pbe/V.UPF
     MD5 check sum: 22b79981416ebb76fdaf5b1b8640f6fb
     Pseudo is Ultrasoft + core correction, Zval = 13.0
     Generated by new atomic code, or converted to UPF format
     Using radial grid of  853 points,  6 beta functions with:
                l(1) =   0
                l(2) =   0
                l(3) =   1
                l(4) =   1
                l(5) =   2
                l(6) =   2
     Q(r) pseudized with  8 coefficients,  rinner =    1.100   1.100   1.100
                                                       1.100   1.100

     PseudoPot. # 2 for Tc read from file:
     /home/vossj/suncat/psp/gbrv1.5pbe/Tc.UPF
     MD5 check sum: 9eb49e5b028550b2339a02317eb7b844
     Pseudo is Ultrasoft + core correction, Zval = 15.0
     Generated by new atomic code, or converted to UPF format
     Using radial grid of  965 points,  6 beta functions with:
                l(1) =   0
                l(2) =   0
                l(3) =   1
                l(4) =   1
                l(5) =   2
                l(6) =   2
     Q(r) pseudized with  8 coefficients,  rinner =    1.300   1.300   1.300
                                                       1.300   1.300

     vdW kernel table read from file vdW_kernel_table
     MD5 check sum: 095c7af220d748ca6e76c0b4c6cfb241

     atomic species   valence    mass     pseudopotential
        V1            13.00    50.94150     V ( 1.00)
        Tc1           15.00    97.90721     Tc( 1.00)

     16 Sym. Ops., with inversion, found

   Cartesian axes

     site n.     atom                  positions (alat units)
         1           V1  tau(   1) = (   0.0000000   0.0000000   0.0000000  )
         2           V1  tau(   2) = (   2.1367471   2.1367471   0.0000000  )
         3           Tc1 tau(   3) = (   2.1367471   0.0000000   1.5132846  )
         4           Tc1 tau(   4) = (   0.0000000   2.1367471   1.5132846  )

     number of k points=    75  Fermi-Dirac smearing, width (Ry)=  0.0073
                       cart. coord. in units 2pi/alat
        k(    1) = (   0.0000000   0.0000000   0.0000000), wk =   0.0027435
        k(    2) = (   0.0000000   0.0000000   0.0367119), wk =   0.0054870
        k(    3) = (   0.0000000   0.0000000   0.0734238), wk =   0.0054870
        k(    4) = (   0.0000000   0.0000000   0.1101357), wk =   0.0054870
        k(    5) = (   0.0000000   0.0000000   0.1468476), wk =   0.0054870
        k(    6) = (   0.0000000   0.0260001   0.0000000), wk =   0.0109739
        k(    7) = (   0.0000000   0.0260001   0.0367119), wk =   0.0219479
        k(    8) = (   0.0000000   0.0260001   0.0734238), wk =   0.0219479
        k(    9) = (   0.0000000   0.0260001   0.1101357), wk =   0.0219479
        k(   10) = (   0.0000000   0.0260001   0.1468476), wk =   0.0219479
        k(   11) = (   0.0000000   0.0520001   0.0000000), wk =   0.0109739
        k(   12) = (   0.0000000   0.0520001   0.0367119), wk =   0.0219479
        k(   13) = (   0.0000000   0.0520001   0.0734238), wk =   0.0219479
        k(   14) = (   0.0000000   0.0520001   0.1101357), wk =   0.0219479
        k(   15) = (   0.0000000   0.0520001   0.1468476), wk =   0.0219479
        k(   16) = (   0.0000000   0.0780002   0.0000000), wk =   0.0109739
        k(   17) = (   0.0000000   0.0780002   0.0367119), wk =   0.0219479
        k(   18) = (   0.0000000   0.0780002   0.0734238), wk =   0.0219479
        k(   19) = (   0.0000000   0.0780002   0.1101357), wk =   0.0219479
        k(   20) = (   0.0000000   0.0780002   0.1468476), wk =   0.0219479
        k(   21) = (   0.0000000   0.1040002   0.0000000), wk =   0.0109739
        k(   22) = (   0.0000000   0.1040002   0.0367119), wk =   0.0219479
        k(   23) = (   0.0000000   0.1040002   0.0734238), wk =   0.0219479
        k(   24) = (   0.0000000   0.1040002   0.1101357), wk =   0.0219479
        k(   25) = (   0.0000000   0.1040002   0.1468476), wk =   0.0219479
        k(   26) = (   0.0260001   0.0260001   0.0000000), wk =   0.0109739
        k(   27) = (   0.0260001   0.0260001   0.0367119), wk =   0.0219479
        k(   28) = (   0.0260001   0.0260001   0.0734238), wk =   0.0219479
        k(   29) = (   0.0260001   0.0260001   0.1101357), wk =   0.0219479
        k(   30) = (   0.0260001   0.0260001   0.1468476), wk =   0.0219479
        k(   31) = (   0.0260001   0.0520001   0.0000000), wk =   0.0219479
        k(   32) = (   0.0260001   0.0520001   0.0367119), wk =   0.0438957
        k(   33) = (   0.0260001   0.0520001   0.0734238), wk =   0.0438957
        k(   34) = (   0.0260001   0.0520001   0.1101357), wk =   0.0438957
        k(   35) = (   0.0260001   0.0520001   0.1468476), wk =   0.0438957
        k(   36) = (   0.0260001   0.0780002   0.0000000), wk =   0.0219479
        k(   37) = (   0.0260001   0.0780002   0.0367119), wk =   0.0438957
        k(   38) = (   0.0260001   0.0780002   0.0734238), wk =   0.0438957
        k(   39) = (   0.0260001   0.0780002   0.1101357), wk =   0.0438957
        k(   40) = (   0.0260001   0.0780002   0.1468476), wk =   0.0438957
        k(   41) = (   0.0260001   0.1040002   0.0000000), wk =   0.0219479
        k(   42) = (   0.0260001   0.1040002   0.0367119), wk =   0.0438957
        k(   43) = (   0.0260001   0.1040002   0.0734238), wk =   0.0438957
        k(   44) = (   0.0260001   0.1040002   0.1101357), wk =   0.0438957
        k(   45) = (   0.0260001   0.1040002   0.1468476), wk =   0.0438957
        k(   46) = (   0.0520001   0.0520001   0.0000000), wk =   0.0109739
        k(   47) = (   0.0520001   0.0520001   0.0367119), wk =   0.0219479
        k(   48) = (   0.0520001   0.0520001   0.0734238), wk =   0.0219479
        k(   49) = (   0.0520001   0.0520001   0.1101357), wk =   0.0219479
        k(   50) = (   0.0520001   0.0520001   0.1468476), wk =   0.0219479
        k(   51) = (   0.0520001   0.0780002   0.0000000), wk =   0.0219479
        k(   52) = (   0.0520001   0.0780002   0.0367119), wk =   0.0438957
        k(   53) = (   0.0520001   0.0780002   0.0734238), wk =   0.0438957
        k(   54) = (   0.0520001   0.0780002   0.1101357), wk =   0.0438957
        k(   55) = (   0.0520001   0.0780002   0.1468476), wk =   0.0438957
        k(   56) = (   0.0520001   0.1040002   0.0000000), wk =   0.0219479
        k(   57) = (   0.0520001   0.1040002   0.0367119), wk =   0.0438957
        k(   58) = (   0.0520001   0.1040002   0.0734238), wk =   0.0438957
        k(   59) = (   0.0520001   0.1040002   0.1101357), wk =   0.0438957
        k(   60) = (   0.0520001   0.1040002   0.1468476), wk =   0.0438957
        k(   61) = (   0.0780002   0.0780002   0.0000000), wk =   0.0109739
        k(   62) = (   0.0780002   0.0780002   0.0367119), wk =   0.0219479
        k(   63) = (   0.0780002   0.0780002   0.0734238), wk =   0.0219479
        k(   64) = (   0.0780002   0.0780002   0.1101357), wk =   0.0219479
        k(   65) = (   0.0780002   0.0780002   0.1468476), wk =   0.0219479
        k(   66) = (   0.0780002   0.1040002   0.0000000), wk =   0.0219479
        k(   67) = (   0.0780002   0.1040002   0.0367119), wk =   0.0438957
        k(   68) = (   0.0780002   0.1040002   0.0734238), wk =   0.0438957
        k(   69) = (   0.0780002   0.1040002   0.1101357), wk =   0.0438957
        k(   70) = (   0.0780002   0.1040002   0.1468476), wk =   0.0438957
        k(   71) = (   0.1040002   0.1040002   0.0000000), wk =   0.0109739
        k(   72) = (   0.1040002   0.1040002   0.0367119), wk =   0.0219479
        k(   73) = (   0.1040002   0.1040002   0.0734238), wk =   0.0219479
        k(   74) = (   0.1040002   0.1040002   0.1101357), wk =   0.0219479
        k(   75) = (   0.1040002   0.1040002   0.1468476), wk =   0.0219479

     Largest allocated arrays     est. size (Mb)     dimensions
     Largest temporary arrays     est. size (Mb)     dimensions

     Check: negative/imaginary core charge=   -0.000009    0.000000

     Initial potential from superposition of free atoms
     Check: negative starting charge=   -0.250490

     starting charge   53.99749, renormalised to   56.00000

     negative rho (up, down):  2.598E-01 0.000E+00

     *
     * You are using vdW-DF for exchange-correlation in this calculation.
     * Please cite the following three references that made this development
     * possible:
     *
     *   M. Dion, H. Rydberg, E. Schroder, D. C. Langreth, and
     *   B. I. Lundqvist, Phys. Rev. Lett. 92, 246401 (2004).
     *
     *   T. Thonhauser, V. R. Cooper, S. Li, A. Puzder, P. Hyldgaard, and
     *   D. C. Langreth, Phys. Rev. B 76, 125112 (2007).
     *
     *   G. Roman-Perez and J. M. Soler, Phys. Rev. Lett. 103, 096102 (2009).
     *
     *
     * If you are using vdW-DF2, please also cite:
     *
     *   K. Lee, E. D. Murray, L. Kong, B. I. Lundqvist, and
     *   D. C. Langreth, Phys. Rev. B 82, 081101(R) (2010).
     *
     *
     * If you are calculating the stress with vdW-DF, please also cite:
     *
     *   R. Sabatini, E. Kucukbenli, B. Kolb, T. Thonhauser, and
     *   S. de Gironcoli, J. Phys.: Condens. Matter 24, 424209 (2012).
     *

     Carrying out vdW-DF run using the following parameters:

     Nqs =      20    Nr_points =    1024   r_max =   100.000
     q_mesh =
               0.00001000     0.04494208     0.09755937     0.15916263
               0.23128650     0.31572767     0.41458969     0.53033537
               0.66584808     0.82450364     1.01025438     1.22772762
               1.48234092     1.78043706     2.12944203     2.53805004
               3.01644009     3.57652955     4.23227104     5.00000000

     Gradients computed in reciprocal space

     Starting wfc are   46 randomized atomic wfcs +    2 random wfc

     Self-consistent Calculation

     iteration #  1     ecut=    58.80 Ry     beta=0.10
     Davidson diagonalization with overlap
     ethr =  1.00E-02,  avg # of iterations =  3.9

[...]

     total energy              =    -642.69480795 Ry
     Harris-Foulkes estimate   =    -643.01059001 Ry
     estimated scf accuracy    <       2.07906362 Ry

[...]

     total energy              =    -642.36433380 Ry
     Harris-Foulkes estimate   =    -642.36433367 Ry
     estimated scf accuracy    <       0.00000247 Ry

     iteration # 10     ecut=    58.80 Ry     beta=0.10
     Davidson diagonalization with overlap
     ethr =  4.41E-09,  avg # of iterations =  3.0

     negative rho (up, down):  2.646E-01 0.000E+00

     End of self-consistent calculation

          k = 0.0000 0.0000 0.0000 (  2817 PWs)   bands (ev):

   -47.1504 -47.0957 -44.7783 -44.7663 -19.5489 -19.5489 -19.2173 -19.2134
   -19.2134 -18.9884 -18.4900 -18.3365 -18.3365 -18.3222 -18.3222 -18.3213
    12.6528  14.8201  15.0216  15.0254  15.2979  16.9855  16.9855  18.7504
    18.7504  18.7655  21.2147  21.2574  21.2750  21.3238  21.3515  21.3515
    21.6895  21.7018  22.8422  22.8464  22.8464  23.3361  23.3361  29.5931
    29.6412  29.6412  29.8389  31.2073  34.1042  34.1042  37.3513  37.9950

[...]

          k = 0.1040 0.1040 0.1468 (  2844 PWs)   bands (ev):

   -47.0974 -47.0962 -44.7675 -44.7666 -19.5394 -19.5354 -19.5306 -19.5217
   -18.9940 -18.9871 -18.4958 -18.4913 -18.3544 -18.3478 -18.3443 -18.3345
    14.9051  14.9098  15.3452  15.3975  17.0207  17.0321  17.0479  17.1186
    20.3021  20.5936  20.7633  20.8516  21.1033  21.1847  21.2949  21.3411
    21.6659  21.9290  22.0197  22.7674  23.1431  23.3182  23.5877  23.6095
    29.9456  30.0384  31.2394  31.3885  34.1783  34.2692  34.2959  34.3741

     the Fermi energy is    19.9208 ev

!    total energy              =    -642.36433841 Ry
     Harris-Foulkes estimate   =    -642.36433593 Ry
     estimated scf accuracy    <       0.00000085 Ry

     The total energy is the sum of the following terms:

     one-electron contribution =    -137.37451855 Ry
     hartree contribution      =     103.01366824 Ry
     xc contribution           =    -107.19328103 Ry
     ewald contribution        =    -500.80534588 Ry
     smearing contrib. (-TS)   =      -0.00486119 Ry

     convergence has been achieved in  10 iterations

     Forces acting on atoms (Ry/au):

     negative rho (up, down):  2.646E-01 0.000E+00
     atom    1 type  1   force =     0.00000000    0.00000000    0.00000000
     atom    2 type  1   force =     0.00000000    0.00000000    0.00000000
     atom    3 type  2   force =     0.00000000    0.00000000    0.00000000
     atom    4 type  2   force =     0.00000000    0.00000000    0.00000000

     Total force =     0.000000     Total SCF correction =     0.000000

     General routines

     Parallel routines

   This run was terminated on:  23:13:19  14Nov2017

   JOB DONE.