     Program PWSCF v.5.1rc2 starts on 15Nov2017 at  6:51:28

     Current dimensions of program PWSCF are:
     Max number of different atomic species (ntypx) = 10
     Max number of k-points (npk) =  40000
     Max angular momentum in pseudopotentials (lmaxx) =  3

     IMPORTANT: XC functional enforced from input :
     Exchange-correlation      = BEEF-VDW ( 1  4 27 13 2)
     Any further DFT definition will be discarded
     Please, verify this is what you really want

     Found symmetry operation: I + (  0.5000  0.5000  0.0000)
     This is a supercell, fractional translations are disabled

     bravais-lattice index     =            0
     lattice parameter (alat)  =       1.8897  a.u.
     unit-cell volume          =     380.2436 (a.u.)^3
     number of atoms/cell      =            4
     number of atomic types    =            2
     number of electrons       =        64.00
     number of Kohn-Sham states=           52
     kinetic-energy cutoff     =      58.7989  Ry
     charge density cutoff     =     587.9892  Ry
     convergence threshold     =      1.0E-06
     mixing beta               =       0.1000
     number of iterations used =           10  plain     mixing
     Exchange-correlation      = BEEF-VDW ( 1  4 27 13 2)

     celldm(1)=   1.889726  celldm(2)=   0.000000  celldm(3)=   0.000000
     celldm(4)=   0.000000  celldm(5)=   0.000000  celldm(6)=   0.000000

     crystal axes: (cart. coord. in units of alat)
               a(1) = (   3.760038   0.000000   0.000000 )
               a(2) = (   0.000000   3.760038   0.000000 )
               a(3) = (   0.000000   0.000000   3.985481 )

     reciprocal axes: (cart. coord. in units 2 pi/alat)
               b(1) = (  0.265955  0.000000  0.000000 )
               b(2) = (  0.000000  0.265955  0.000000 )
               b(3) = (  0.000000  0.000000  0.250911 )

     PseudoPot. # 1 for V  read from file:
     /home/users/vossj/suncat/psp/gbrv1.5pbe/V.UPF
     MD5 check sum: 22b79981416ebb76fdaf5b1b8640f6fb
     Pseudo is Ultrasoft + core correction, Zval = 13.0
     Generated by new atomic code, or converted to UPF format
     Using radial grid of  853 points,  6 beta functions with:
                l(1) =   0
                l(2) =   0
                l(3) =   1
                l(4) =   1
                l(5) =   2
                l(6) =   2
     Q(r) pseudized with  8 coefficients,  rinner =    1.100   1.100   1.100
                                                       1.100   1.100

     PseudoPot. # 2 for Ga read from file:
     /home/users/vossj/suncat/psp/gbrv1.5pbe/Ga.UPF
     MD5 check sum: ccd671392a58a050fbb373893b4fcd66
     Pseudo is Ultrasoft + core correction, Zval = 19.0
     Generated by new atomic code, or converted to UPF format
     Using radial grid of  871 points,  6 beta functions with:
                l(1) =   0
                l(2) =   0
                l(3) =   1
                l(4) =   1
                l(5) =   2
                l(6) =   2
     Q(r) pseudized with  8 coefficients,  rinner =    1.250   1.250   1.250
                                                       1.250   1.250

     vdW kernel table read from file vdW_kernel_table
     MD5 check sum: 095c7af220d748ca6e76c0b4c6cfb241

     atomic species   valence    mass     pseudopotential
        V1            13.00    50.94150     V ( 1.00)
        Ga1           19.00    69.72300     Ga( 1.00)

     16 Sym. Ops., with inversion, found

   Cartesian axes

     site n.     atom                  positions (alat units)
         1           V1  tau(   1) = (   0.0000000   0.0000000   0.0000000  )
         2           V1  tau(   2) = (   1.8800192   1.8800192   0.0000000  )
         3           Ga1 tau(   3) = (   1.8800192   0.0000000   1.9927403  )
         4           Ga1 tau(   4) = (   0.0000000   1.8800192   1.9927403  )

     number of k points=    75  Fermi-Dirac smearing, width (Ry)=  0.0073
                       cart. coord. in units 2pi/alat
        k(    1) = (   0.0000000   0.0000000   0.0000000), wk =   0.0027435
        k(    2) = (   0.0000000   0.0000000   0.0278790), wk =   0.0054870
        k(    3) = (   0.0000000   0.0000000   0.0557579), wk =   0.0054870
        k(    4) = (   0.0000000   0.0000000   0.0836369), wk =   0.0054870
        k(    5) = (   0.0000000   0.0000000   0.1115159), wk =   0.0054870
        k(    6) = (   0.0000000   0.0295505   0.0000000), wk =   0.0109739
        k(    7) = (   0.0000000   0.0295505   0.0278790), wk =   0.0219479
        k(    8) = (   0.0000000   0.0295505   0.0557579), wk =   0.0219479
        k(    9) = (   0.0000000   0.0295505   0.0836369), wk =   0.0219479
        k(   10) = (   0.0000000   0.0295505   0.1115159), wk =   0.0219479
        k(   11) = (   0.0000000   0.0591011   0.0000000), wk =   0.0109739
        k(   12) = (   0.0000000   0.0591011   0.0278790), wk =   0.0219479
        k(   13) = (   0.0000000   0.0591011   0.0557579), wk =   0.0219479
        k(   14) = (   0.0000000   0.0591011   0.0836369), wk =   0.0219479
        k(   15) = (   0.0000000   0.0591011   0.1115159), wk =   0.0219479
        k(   16) = (   0.0000000   0.0886516   0.0000000), wk =   0.0109739
        k(   17) = (   0.0000000   0.0886516   0.0278790), wk =   0.0219479
        k(   18) = (   0.0000000   0.0886516   0.0557579), wk =   0.0219479
        k(   19) = (   0.0000000   0.0886516   0.0836369), wk =   0.0219479
        k(   20) = (   0.0000000   0.0886516   0.1115159), wk =   0.0219479
        k(   21) = (   0.0000000   0.1182021   0.0000000), wk =   0.0109739
        k(   22) = (   0.0000000   0.1182021   0.0278790), wk =   0.0219479
        k(   23) = (   0.0000000   0.1182021   0.0557579), wk =   0.0219479
        k(   24) = (   0.0000000   0.1182021   0.0836369), wk =   0.0219479
        k(   25) = (   0.0000000   0.1182021   0.1115159), wk =   0.0219479
        k(   26) = (   0.0295505   0.0295505   0.0000000), wk =   0.0109739
        k(   27) = (   0.0295505   0.0295505   0.0278790), wk =   0.0219479
        k(   28) = (   0.0295505   0.0295505   0.0557579), wk =   0.0219479
        k(   29) = (   0.0295505   0.0295505   0.0836369), wk =   0.0219479
        k(   30) = (   0.0295505   0.0295505   0.1115159), wk =   0.0219479
        k(   31) = (   0.0295505   0.0591011   0.0000000), wk =   0.0219479
        k(   32) = (   0.0295505   0.0591011   0.0278790), wk =   0.0438957
        k(   33) = (   0.0295505   0.0591011   0.0557579), wk =   0.0438957
        k(   34) = (   0.0295505   0.0591011   0.0836369), wk =   0.0438957
        k(   35) = (   0.0295505   0.0591011   0.1115159), wk =   0.0438957
        k(   36) = (   0.0295505   0.0886516   0.0000000), wk =   0.0219479
        k(   37) = (   0.0295505   0.0886516   0.0278790), wk =   0.0438957
        k(   38) = (   0.0295505   0.0886516   0.0557579), wk =   0.0438957
        k(   39) = (   0.0295505   0.0886516   0.0836369), wk =   0.0438957
        k(   40) = (   0.0295505   0.0886516   0.1115159), wk =   0.0438957
        k(   41) = (   0.0295505   0.1182021   0.0000000), wk =   0.0219479
        k(   42) = (   0.0295505   0.1182021   0.0278790), wk =   0.0438957
        k(   43) = (   0.0295505   0.1182021   0.0557579), wk =   0.0438957
        k(   44) = (   0.0295505   0.1182021   0.0836369), wk =   0.0438957
        k(   45) = (   0.0295505   0.1182021   0.1115159), wk =   0.0438957
        k(   46) = (   0.0591011   0.0591011   0.0000000), wk =   0.0109739
        k(   47) = (   0.0591011   0.0591011   0.0278790), wk =   0.0219479
        k(   48) = (   0.0591011   0.0591011   0.0557579), wk =   0.0219479
        k(   49) = (   0.0591011   0.0591011   0.0836369), wk =   0.0219479
        k(   50) = (   0.0591011   0.0591011   0.1115159), wk =   0.0219479
        k(   51) = (   0.0591011   0.0886516   0.0000000), wk =   0.0219479
        k(   52) = (   0.0591011   0.0886516   0.0278790), wk =   0.0438957
        k(   53) = (   0.0591011   0.0886516   0.0557579), wk =   0.0438957
        k(   54) = (   0.0591011   0.0886516   0.0836369), wk =   0.0438957
        k(   55) = (   0.0591011   0.0886516   0.1115159), wk =   0.0438957
        k(   56) = (   0.0591011   0.1182021   0.0000000), wk =   0.0219479
        k(   57) = (   0.0591011   0.1182021   0.0278790), wk =   0.0438957
        k(   58) = (   0.0591011   0.1182021   0.0557579), wk =   0.0438957
        k(   59) = (   0.0591011   0.1182021   0.0836369), wk =   0.0438957
        k(   60) = (   0.0591011   0.1182021   0.1115159), wk =   0.0438957
        k(   61) = (   0.0886516   0.0886516   0.0000000), wk =   0.0109739
        k(   62) = (   0.0886516   0.0886516   0.0278790), wk =   0.0219479
        k(   63) = (   0.0886516   0.0886516   0.0557579), wk =   0.0219479
        k(   64) = (   0.0886516   0.0886516   0.0836369), wk =   0.0219479
        k(   65) = (   0.0886516   0.0886516   0.1115159), wk =   0.0219479
        k(   66) = (   0.0886516   0.1182021   0.0000000), wk =   0.0219479
        k(   67) = (   0.0886516   0.1182021   0.0278790), wk =   0.0438957
        k(   68) = (   0.0886516   0.1182021   0.0557579), wk =   0.0438957
        k(   69) = (   0.0886516   0.1182021   0.0836369), wk =   0.0438957
        k(   70) = (   0.0886516   0.1182021   0.1115159), wk =   0.0438957
        k(   71) = (   0.1182021   0.1182021   0.0000000), wk =   0.0109739
        k(   72) = (   0.1182021   0.1182021   0.0278790), wk =   0.0219479
        k(   73) = (   0.1182021   0.1182021   0.0557579), wk =   0.0219479
        k(   74) = (   0.1182021   0.1182021   0.0836369), wk =   0.0219479
        k(   75) = (   0.1182021   0.1182021   0.1115159), wk =   0.0219479

     Largest allocated arrays     est. size (Mb)     dimensions
     Largest temporary arrays     est. size (Mb)     dimensions

     Check: negative/imaginary core charge=   -0.000002    0.000000

     Initial potential from superposition of free atoms
     Check: negative starting charge=   -0.000802

     starting charge   61.99754, renormalised to   64.00000

     negative rho (up, down):  8.278E-04 0.000E+00

     *
     * You are using vdW-DF for exchange-correlation in this calculation.
     * Please cite the following three references that made this development
     * possible:
     *
     *   M. Dion, H. Rydberg, E. Schroder, D. C. Langreth, and
     *   B. I. Lundqvist, Phys. Rev. Lett. 92, 246401 (2004).
     *
     *   T. Thonhauser, V. R. Cooper, S. Li, A. Puzder, P. Hyldgaard, and
     *   D. C. Langreth, Phys. Rev. B 76, 125112 (2007).
     *
     *   G. Roman-Perez and J. M. Soler, Phys. Rev. Lett. 103, 096102 (2009).
     *
     *
     * If you are using vdW-DF2, please also cite:
     *
     *   K. Lee, E. D. Murray, L. Kong, B. I. Lundqvist, and
     *   D. C. Langreth, Phys. Rev. B 82, 081101(R) (2010).
     *
     *
     * If you are calculating the stress with vdW-DF, please also cite:
     *
     *   R. Sabatini, E. Kucukbenli, B. Kolb, T. Thonhauser, and
     *   S. de Gironcoli, J. Phys.: Condens. Matter 24, 424209 (2012).
     *

     Carrying out vdW-DF run using the following parameters:

     Nqs =      20    Nr_points =    1024   r_max =   100.000
     q_mesh =
               0.00001000     0.04494208     0.09755937     0.15916263
               0.23128650     0.31572767     0.41458969     0.53033537
               0.66584808     0.82450364     1.01025438     1.22772762
               1.48234092     1.78043706     2.12944203     2.53805004
               3.01644009     3.57652955     4.23227104     5.00000000

     Gradients computed in reciprocal space

     Starting wfc are   44 randomized atomic wfcs +    8 random wfc

     Self-consistent Calculation

     iteration #  1     ecut=    58.80 Ry     beta=0.10
     Davidson diagonalization with overlap
     ethr =  1.00E-02,  avg # of iterations =  4.2

[...]

     total energy              =   -1125.35024665 Ry
     Harris-Foulkes estimate   =   -1126.36833987 Ry
     estimated scf accuracy    <       5.81722163 Ry

[...]

     total energy              =   -1124.83989841 Ry
     Harris-Foulkes estimate   =   -1124.83989871 Ry
     estimated scf accuracy    <       0.00000395 Ry

     iteration # 13     ecut=    58.80 Ry     beta=0.10
     Davidson diagonalization with overlap
     ethr =  6.18E-09,  avg # of iterations =  1.8

     negative rho (up, down):  1.224E-03 0.000E+00

     End of self-consistent calculation

          k = 0.0000 0.0000 0.0000 (  2907 PWs)   bands (ev):

   -78.8391 -78.8391 -78.8297 -78.8297 -78.7811 -78.7796 -48.5604 -48.4347
   -22.4964 -22.4964 -22.4584 -22.3438 -22.0701 -22.0701   0.4159   0.5058
     0.6456   0.7088   0.7088   0.9358   0.9358   0.9565   1.0022   1.1784
     4.7736  11.8252  13.4077  14.1098  14.4927  14.9631  14.9631  15.1731
    15.1731  15.6182  17.2055  17.2055  18.1991  19.0210  19.2350  21.3631
    22.0022  22.8222  25.1442  25.1442  26.5321  26.5321  28.6341  29.2059
    30.2617  30.2617  30.7125  31.8961

[...]

          k = 0.1182 0.1182 0.1115 (  2891 PWs)   bands (ev):

   -78.8398 -78.8395 -78.8293 -78.8291 -78.7804 -78.7803 -48.4981 -48.4943
   -22.5612 -22.5487 -22.4082 -22.4046 -22.0410 -22.0278   0.5835   0.6026
     0.6600   0.6657   0.8178   0.8324   0.9506   0.9572   0.9950   1.0074
     9.2363   9.6068  11.9524  12.2762  13.6132  14.0387  14.3456  14.5804
    16.5234  16.5424  16.8420  16.8929  17.3540  17.3634  18.4041  18.4934
    21.5561  21.7461  28.8517  29.6595  29.7458  30.0086  31.7125  31.8212
    33.3165  33.4276  33.7370  34.0544

     the Fermi energy is    15.9478 ev

!    total energy              =   -1124.83990415 Ry
     Harris-Foulkes estimate   =   -1124.83989896 Ry
     estimated scf accuracy    <       0.00000020 Ry

     The total energy is the sum of the following terms:

     one-electron contribution =    -720.13101208 Ry
     hartree contribution      =     394.58034137 Ry
     xc contribution           =    -140.67670196 Ry
     ewald contribution        =    -658.60531934 Ry
     smearing contrib. (-TS)   =      -0.00721214 Ry

     convergence has been achieved in  13 iterations

     Forces acting on atoms (Ry/au):

     negative rho (up, down):  1.224E-03 0.000E+00
     atom    1 type  1   force =     0.00000000    0.00000000    0.00000000
     atom    2 type  1   force =     0.00000000    0.00000000    0.00000000
     atom    3 type  2   force =     0.00000000    0.00000000    0.00000000
     atom    4 type  2   force =     0.00000000    0.00000000    0.00000000

     Total force =     0.000000     Total SCF correction =     0.000000

     General routines

     Parallel routines

   This run was terminated on:   6:52:10  15Nov2017

   JOB DONE.