     Program PWSCF v.5.1rc2 starts on 14Nov2017 at  9:36: 2

     Current dimensions of program PWSCF are:
     Max number of different atomic species (ntypx) = 10
     Max number of k-points (npk) =  40000
     Max angular momentum in pseudopotentials (lmaxx) =  3

     IMPORTANT: XC functional enforced from input :
     Exchange-correlation      = BEEF-VDW ( 1  4 27 13 2)
     Any further DFT definition will be discarded
     Please, verify this is what you really want

     Found symmetry operation: I + ( -0.5000 -0.5000  0.0000)
     This is a supercell, fractional translations are disabled

     bravais-lattice index     =            0
     lattice parameter (alat)  =       1.8897  a.u.
     unit-cell volume          =     410.6815 (a.u.)^3
     number of atoms/cell      =            4
     number of atomic types    =            2
     number of electrons       =        58.00
     number of Kohn-Sham states=           49
     kinetic-energy cutoff     =      58.7989  Ry
     charge density cutoff     =     587.9892  Ry
     convergence threshold     =      1.0E-06
     mixing beta               =       0.1000
     number of iterations used =           10  plain     mixing
     Exchange-correlation      = BEEF-VDW ( 1  4 27 13 2)

     celldm(1)=   1.889726  celldm(2)=   0.000000  celldm(3)=   0.000000
     celldm(4)=   0.000000  celldm(5)=   0.000000  celldm(6)=   0.000000

     crystal axes: (cart. coord. in units of alat)
               a(1) = (   3.932381   0.000000   0.000000 )
               a(2) = (   0.000000   3.932381   0.000000 )
               a(3) = (   0.000000   0.000000   3.935476 )

     reciprocal axes: (cart. coord. in units 2 pi/alat)
               b(1) = (  0.254299  0.000000  0.000000 )
               b(2) = (  0.000000  0.254299  0.000000 )
               b(3) = (  0.000000  0.000000  0.254099 )

     PseudoPot. # 1 for W  read from file:
     /home/users/vossj/suncat/psp/gbrv1.5pbe/W.UPF
     MD5 check sum: 9c083fa34c2a2ea0f02f1f893e16e1c8
     Pseudo is Ultrasoft + core correction, Zval = 14.0
     Generated by new atomic code, or converted to UPF format
     Using radial grid of  923 points,  8 beta functions with:
                l(1) =   0
                l(2) =   0
                l(3) =   0
                l(4) =   1
                l(5) =   1
                l(6) =   2
                l(7) =   2
                l(8) =   3
     Q(r) pseudized with  6 coefficients,  rinner =    1.350   1.350   1.350
                                                       1.350   1.350   1.350
                                                       1.350

     PseudoPot. # 2 for Ir read from file:
     /home/users/vossj/suncat/psp/gbrv1.5pbe/Ir.UPF
     MD5 check sum: 8836f839c3459d2b385c504ce6d91f2c
     Pseudo is Ultrasoft + core correction, Zval = 15.0
     Generated by new atomic code, or converted to UPF format
     Using radial grid of  983 points,  7 beta functions with:
                l(1) =   0
                l(2) =   0
                l(3) =   1
                l(4) =   1
                l(5) =   1
                l(6) =   2
                l(7) =   2
     Q(r) pseudized with  8 coefficients,  rinner =    1.400   1.400   1.400
                                                       1.400   1.400

     vdW kernel table read from file vdW_kernel_table
     MD5 check sum: 095c7af220d748ca6e76c0b4c6cfb241

     atomic species   valence    mass     pseudopotential
        W1            14.00   183.85000     W ( 1.00)
        Ir1           15.00   192.22000     Ir( 1.00)

     16 Sym. Ops., with inversion, found

   Cartesian axes

     site n.     atom                  positions (alat units)
         1           W1  tau(   1) = (   0.0000000   0.0000000   0.0000000  )
         2           W1  tau(   2) = (   1.9661907   1.9661907   0.0000000  )
         3           Ir1 tau(   3) = (   1.9661907   0.0000000   1.9677381  )
         4           Ir1 tau(   4) = (   0.0000000   1.9661907   1.9677381  )

     number of k points=    75  Fermi-Dirac smearing, width (Ry)=  0.0073
                       cart. coord. in units 2pi/alat
        k(    1) = (   0.0000000   0.0000000   0.0000000), wk =   0.0027435
        k(    2) = (   0.0000000   0.0000000   0.0282332), wk =   0.0054870
        k(    3) = (   0.0000000   0.0000000   0.0564664), wk =   0.0054870
        k(    4) = (   0.0000000   0.0000000   0.0846996), wk =   0.0054870
        k(    5) = (   0.0000000   0.0000000   0.1129328), wk =   0.0054870
        k(    6) = (   0.0000000   0.0282554   0.0000000), wk =   0.0109739
        k(    7) = (   0.0000000   0.0282554   0.0282332), wk =   0.0219479
        k(    8) = (   0.0000000   0.0282554   0.0564664), wk =   0.0219479
        k(    9) = (   0.0000000   0.0282554   0.0846996), wk =   0.0219479
        k(   10) = (   0.0000000   0.0282554   0.1129328), wk =   0.0219479
        k(   11) = (   0.0000000   0.0565109   0.0000000), wk =   0.0109739
        k(   12) = (   0.0000000   0.0565109   0.0282332), wk =   0.0219479
        k(   13) = (   0.0000000   0.0565109   0.0564664), wk =   0.0219479
        k(   14) = (   0.0000000   0.0565109   0.0846996), wk =   0.0219479
        k(   15) = (   0.0000000   0.0565109   0.1129328), wk =   0.0219479
        k(   16) = (   0.0000000   0.0847663   0.0000000), wk =   0.0109739
        k(   17) = (   0.0000000   0.0847663   0.0282332), wk =   0.0219479
        k(   18) = (   0.0000000   0.0847663   0.0564664), wk =   0.0219479
        k(   19) = (   0.0000000   0.0847663   0.0846996), wk =   0.0219479
        k(   20) = (   0.0000000   0.0847663   0.1129328), wk =   0.0219479
        k(   21) = (   0.0000000   0.1130217   0.0000000), wk =   0.0109739
        k(   22) = (   0.0000000   0.1130217   0.0282332), wk =   0.0219479
        k(   23) = (   0.0000000   0.1130217   0.0564664), wk =   0.0219479
        k(   24) = (   0.0000000   0.1130217   0.0846996), wk =   0.0219479
        k(   25) = (   0.0000000   0.1130217   0.1129328), wk =   0.0219479
        k(   26) = (   0.0282554   0.0282554   0.0000000), wk =   0.0109739
        k(   27) = (   0.0282554   0.0282554   0.0282332), wk =   0.0219479
        k(   28) = (   0.0282554   0.0282554   0.0564664), wk =   0.0219479
        k(   29) = (   0.0282554   0.0282554   0.0846996), wk =   0.0219479
        k(   30) = (   0.0282554   0.0282554   0.1129328), wk =   0.0219479
        k(   31) = (   0.0282554   0.0565109   0.0000000), wk =   0.0219479
        k(   32) = (   0.0282554   0.0565109   0.0282332), wk =   0.0438957
        k(   33) = (   0.0282554   0.0565109   0.0564664), wk =   0.0438957
        k(   34) = (   0.0282554   0.0565109   0.0846996), wk =   0.0438957
        k(   35) = (   0.0282554   0.0565109   0.1129328), wk =   0.0438957
        k(   36) = (   0.0282554   0.0847663   0.0000000), wk =   0.0219479
        k(   37) = (   0.0282554   0.0847663   0.0282332), wk =   0.0438957
        k(   38) = (   0.0282554   0.0847663   0.0564664), wk =   0.0438957
        k(   39) = (   0.0282554   0.0847663   0.0846996), wk =   0.0438957
        k(   40) = (   0.0282554   0.0847663   0.1129328), wk =   0.0438957
        k(   41) = (   0.0282554   0.1130217   0.0000000), wk =   0.0219479
        k(   42) = (   0.0282554   0.1130217   0.0282332), wk =   0.0438957
        k(   43) = (   0.0282554   0.1130217   0.0564664), wk =   0.0438957
        k(   44) = (   0.0282554   0.1130217   0.0846996), wk =   0.0438957
        k(   45) = (   0.0282554   0.1130217   0.1129328), wk =   0.0438957
        k(   46) = (   0.0565109   0.0565109   0.0000000), wk =   0.0109739
        k(   47) = (   0.0565109   0.0565109   0.0282332), wk =   0.0219479
        k(   48) = (   0.0565109   0.0565109   0.0564664), wk =   0.0219479
        k(   49) = (   0.0565109   0.0565109   0.0846996), wk =   0.0219479
        k(   50) = (   0.0565109   0.0565109   0.1129328), wk =   0.0219479
        k(   51) = (   0.0565109   0.0847663   0.0000000), wk =   0.0219479
        k(   52) = (   0.0565109   0.0847663   0.0282332), wk =   0.0438957
        k(   53) = (   0.0565109   0.0847663   0.0564664), wk =   0.0438957
        k(   54) = (   0.0565109   0.0847663   0.0846996), wk =   0.0438957
        k(   55) = (   0.0565109   0.0847663   0.1129328), wk =   0.0438957
        k(   56) = (   0.0565109   0.1130217   0.0000000), wk =   0.0219479
        k(   57) = (   0.0565109   0.1130217   0.0282332), wk =   0.0438957
        k(   58) = (   0.0565109   0.1130217   0.0564664), wk =   0.0438957
        k(   59) = (   0.0565109   0.1130217   0.0846996), wk =   0.0438957
        k(   60) = (   0.0565109   0.1130217   0.1129328), wk =   0.0438957
        k(   61) = (   0.0847663   0.0847663   0.0000000), wk =   0.0109739
        k(   62) = (   0.0847663   0.0847663   0.0282332), wk =   0.0219479
        k(   63) = (   0.0847663   0.0847663   0.0564664), wk =   0.0219479
        k(   64) = (   0.0847663   0.0847663   0.0846996), wk =   0.0219479
        k(   65) = (   0.0847663   0.0847663   0.1129328), wk =   0.0219479
        k(   66) = (   0.0847663   0.1130217   0.0000000), wk =   0.0219479
        k(   67) = (   0.0847663   0.1130217   0.0282332), wk =   0.0438957
        k(   68) = (   0.0847663   0.1130217   0.0564664), wk =   0.0438957
        k(   69) = (   0.0847663   0.1130217   0.0846996), wk =   0.0438957
        k(   70) = (   0.0847663   0.1130217   0.1129328), wk =   0.0438957
        k(   71) = (   0.1130217   0.1130217   0.0000000), wk =   0.0109739
        k(   72) = (   0.1130217   0.1130217   0.0282332), wk =   0.0219479
        k(   73) = (   0.1130217   0.1130217   0.0564664), wk =   0.0219479
        k(   74) = (   0.1130217   0.1130217   0.0846996), wk =   0.0219479
        k(   75) = (   0.1130217   0.1130217   0.1129328), wk =   0.0219479

     Largest allocated arrays     est. size (Mb)     dimensions
     Largest temporary arrays     est. size (Mb)     dimensions

     Initial potential from superposition of free atoms
     Check: negative starting charge=   -0.852997

     starting charge   56.79926, renormalised to   58.00000

     negative rho (up, down):  8.710E-01 0.000E+00

     *
     * You are using vdW-DF for exchange-correlation in this calculation.
     * Please cite the following three references that made this development
     * possible:
     *
     *   M. Dion, H. Rydberg, E. Schroder, D. C. Langreth, and
     *   B. I. Lundqvist, Phys. Rev. Lett. 92, 246401 (2004).
     *
     *   T. Thonhauser, V. R. Cooper, S. Li, A. Puzder, P. Hyldgaard, and
     *   D. C. Langreth, Phys. Rev. B 76, 125112 (2007).
     *
     *   G. Roman-Perez and J. M. Soler, Phys. Rev. Lett. 103, 096102 (2009).
     *
     *
     * If you are using vdW-DF2, please also cite:
     *
     *   K. Lee, E. D. Murray, L. Kong, B. I. Lundqvist, and
     *   D. C. Langreth, Phys. Rev. B 82, 081101(R) (2010).
     *
     *
     * If you are calculating the stress with vdW-DF, please also cite:
     *
     *   R. Sabatini, E. Kucukbenli, B. Kolb, T. Thonhauser, and
     *   S. de Gironcoli, J. Phys.: Condens. Matter 24, 424209 (2012).
     *

     Carrying out vdW-DF run using the following parameters:

     Nqs =      20    Nr_points =    1024   r_max =   100.000
     q_mesh =
               0.00001000     0.04494208     0.09755937     0.15916263
               0.23128650     0.31572767     0.41458969     0.53033537
               0.66584808     0.82450364     1.01025438     1.22772762
               1.48234092     1.78043706     2.12944203     2.53805004
               3.01644009     3.57652955     4.23227104     5.00000000

     Gradients computed in reciprocal space

     Starting wfc are   50 randomized atomic wfcs

     Self-consistent Calculation

     iteration #  1     ecut=    58.80 Ry     beta=0.10
     Davidson diagonalization with overlap
     ethr =  1.00E-02,  avg # of iterations =  4.2

[...]

     total energy              =    -687.77335537 Ry
     Harris-Foulkes estimate   =    -688.42056497 Ry
     estimated scf accuracy    <       3.93700152 Ry

[...]

     total energy              =    -687.78721708 Ry
     Harris-Foulkes estimate   =    -687.78721757 Ry
     estimated scf accuracy    <       0.00001249 Ry

     iteration # 11     ecut=    58.80 Ry     beta=0.10
     Davidson diagonalization with overlap
     ethr =  1.22E-08,  avg # of iterations =  1.1

     negative rho (up, down):  7.733E-01 0.000E+00

     End of self-consistent calculation

          k = 0.0000 0.0000 0.0000 (  3119 PWs)   bands (ev):

   -51.8556 -51.7616 -26.7376 -26.7376 -26.6649 -26.5899 -26.4495 -26.4495
   -16.1761 -16.1761 -16.0168 -15.8786 -15.5264 -15.5264  12.9262  16.0485
    16.0976  16.1744  16.7865  16.8011  16.8011  20.2039  20.2039  20.7434
    22.4573  23.3425  24.2568  24.5480  25.2665  25.2854  25.2854  26.3575
    26.3575  26.5213  26.7312  26.7312  26.7802  28.5709  33.5704  33.8330
    34.0291  34.2004  34.5488  34.5488  34.6564  34.6564  34.8131  35.5018
    35.5324

[...]

          k = 0.1130 0.1130 0.1129 (  3133 PWs)   bands (ev):

   -51.8094 -51.8066 -26.7745 -26.7661 -26.6351 -26.6332 -26.4305 -26.4217
   -16.2584 -16.2396 -15.9600 -15.9550 -15.4858 -15.4649  15.9694  16.0577
    16.1422  16.1671  19.5197  19.5721  19.8261  19.9975  20.2021  20.2962
    21.0811  21.2329  22.1345  22.4406  22.5529  22.7033  24.4599  24.6673
    25.5919  25.9928  26.4092  26.5638  26.7602  26.9030  31.4918  31.6939
    32.3235  32.5579  34.0556  34.0564  35.9820  35.9985  36.0492  36.1071
    41.0977

     the Fermi energy is    22.8167 ev

!    total energy              =    -687.78722929 Ry
     Harris-Foulkes estimate   =    -687.78721822 Ry
     estimated scf accuracy    <       0.00000030 Ry

     The total energy is the sum of the following terms:

     one-electron contribution =     -48.55640587 Ry
     hartree contribution      =      69.25320243 Ry
     xc contribution           =    -189.43106482 Ry
     ewald contribution        =    -519.04810096 Ry
     smearing contrib. (-TS)   =      -0.00486008 Ry

     convergence has been achieved in  11 iterations

     Forces acting on atoms (Ry/au):

     negative rho (up, down):  7.733E-01 0.000E+00
     atom    1 type  1   force =     0.00000000    0.00000000    0.00000000
     atom    2 type  1   force =     0.00000000    0.00000000    0.00000000
     atom    3 type  2   force =     0.00000000    0.00000000    0.00000000
     atom    4 type  2   force =     0.00000000    0.00000000    0.00000000

     Total force =     0.000000     Total SCF correction =     0.000000

     General routines

     Parallel routines

   This run was terminated on:   9:36:39  14Nov2017

   JOB DONE.