     Program PWSCF v.5.1rc2 starts on 15Nov2017 at  6: 4:24

     Current dimensions of program PWSCF are:
     Max number of different atomic species (ntypx) = 10
     Max number of k-points (npk) =  40000
     Max angular momentum in pseudopotentials (lmaxx) =  3

     IMPORTANT: XC functional enforced from input :
     Exchange-correlation      = BEEF-VDW ( 1  4 27 13 2)
     Any further DFT definition will be discarded
     Please, verify this is what you really want

     Found symmetry operation: I + ( -0.5000 -0.5000  0.0000)
     This is a supercell, fractional translations are disabled

     bravais-lattice index     =            0
     lattice parameter (alat)  =       1.8897  a.u.
     unit-cell volume          =     527.8409 (a.u.)^3
     number of atoms/cell      =            4
     number of atomic types    =            2
     number of electrons       =        54.00
     number of Kohn-Sham states=           47
     kinetic-energy cutoff     =      58.7989  Ry
     charge density cutoff     =     587.9892  Ry
     convergence threshold     =      1.0E-06
     mixing beta               =       0.1000
     number of iterations used =           10  plain     mixing
     Exchange-correlation      = BEEF-VDW ( 1  4 27 13 2)

     celldm(1)=   1.889726  celldm(2)=   0.000000  celldm(3)=   0.000000
     celldm(4)=   0.000000  celldm(5)=   0.000000  celldm(6)=   0.000000

     crystal axes: (cart. coord. in units of alat)
               a(1) = (   4.828454   0.000000   0.000000 )
               a(2) = (   0.000000   4.828454   0.000000 )
               a(3) = (   0.000000   0.000000   3.354983 )

     reciprocal axes: (cart. coord. in units 2 pi/alat)
               b(1) = (  0.207106  0.000000  0.000000 )
               b(2) = (  0.000000  0.207106  0.000000 )
               b(3) = (  0.000000  0.000000  0.298064 )

     PseudoPot. # 1 for V  read from file:
     /home/users/vossj/suncat/psp/gbrv1.5pbe/V.UPF
     MD5 check sum: 22b79981416ebb76fdaf5b1b8640f6fb
     Pseudo is Ultrasoft + core correction, Zval = 13.0
     Generated by new atomic code, or converted to UPF format
     Using radial grid of  853 points,  6 beta functions with:
                l(1) =   0
                l(2) =   0
                l(3) =   1
                l(4) =   1
                l(5) =   2
                l(6) =   2
     Q(r) pseudized with  8 coefficients,  rinner =    1.100   1.100   1.100
                                                       1.100   1.100

     PseudoPot. # 2 for Pb read from file:
     /home/users/vossj/suncat/psp/gbrv1.5pbe/Pb.UPF
     MD5 check sum: 3d1c1779aa92214d1e8f3a7db79003e2
     Pseudo is Ultrasoft + core correction, Zval = 14.0
     Generated by new atomic code, or converted to UPF format
     Using radial grid of  899 points,  6 beta functions with:
                l(1) =   0
                l(2) =   0
                l(3) =   1
                l(4) =   1
                l(5) =   2
                l(6) =   2
     Q(r) pseudized with  6 coefficients,  rinner =    1.000   1.000   1.000
                                                       1.000   1.000

     vdW kernel table read from file vdW_kernel_table
     MD5 check sum: 095c7af220d748ca6e76c0b4c6cfb241

     atomic species   valence    mass     pseudopotential
        V1            13.00    50.94150     V ( 1.00)
        Pb1           14.00   207.20000     Pb( 1.00)

     16 Sym. Ops., with inversion, found

   Cartesian axes

     site n.     atom                  positions (alat units)
         1           V1  tau(   1) = (   0.0000000   0.0000000   0.0000000  )
         2           V1  tau(   2) = (   2.4142269   2.4142269   0.0000000  )
         3           Pb1 tau(   3) = (   2.4142269   0.0000000   1.6774913  )
         4           Pb1 tau(   4) = (   0.0000000   2.4142269   1.6774913  )

     number of k points=    75  Fermi-Dirac smearing, width (Ry)=  0.0073
                       cart. coord. in units 2pi/alat
        k(    1) = (   0.0000000   0.0000000   0.0000000), wk =   0.0027435
        k(    2) = (   0.0000000   0.0000000   0.0331182), wk =   0.0054870
        k(    3) = (   0.0000000   0.0000000   0.0662365), wk =   0.0054870
        k(    4) = (   0.0000000   0.0000000   0.0993547), wk =   0.0054870
        k(    5) = (   0.0000000   0.0000000   0.1324730), wk =   0.0054870
        k(    6) = (   0.0000000   0.0230117   0.0000000), wk =   0.0109739
        k(    7) = (   0.0000000   0.0230117   0.0331182), wk =   0.0219479
        k(    8) = (   0.0000000   0.0230117   0.0662365), wk =   0.0219479
        k(    9) = (   0.0000000   0.0230117   0.0993547), wk =   0.0219479
        k(   10) = (   0.0000000   0.0230117   0.1324730), wk =   0.0219479
        k(   11) = (   0.0000000   0.0460235   0.0000000), wk =   0.0109739
        k(   12) = (   0.0000000   0.0460235   0.0331182), wk =   0.0219479
        k(   13) = (   0.0000000   0.0460235   0.0662365), wk =   0.0219479
        k(   14) = (   0.0000000   0.0460235   0.0993547), wk =   0.0219479
        k(   15) = (   0.0000000   0.0460235   0.1324730), wk =   0.0219479
        k(   16) = (   0.0000000   0.0690352   0.0000000), wk =   0.0109739
        k(   17) = (   0.0000000   0.0690352   0.0331182), wk =   0.0219479
        k(   18) = (   0.0000000   0.0690352   0.0662365), wk =   0.0219479
        k(   19) = (   0.0000000   0.0690352   0.0993547), wk =   0.0219479
        k(   20) = (   0.0000000   0.0690352   0.1324730), wk =   0.0219479
        k(   21) = (   0.0000000   0.0920469   0.0000000), wk =   0.0109739
        k(   22) = (   0.0000000   0.0920469   0.0331182), wk =   0.0219479
        k(   23) = (   0.0000000   0.0920469   0.0662365), wk =   0.0219479
        k(   24) = (   0.0000000   0.0920469   0.0993547), wk =   0.0219479
        k(   25) = (   0.0000000   0.0920469   0.1324730), wk =   0.0219479
        k(   26) = (   0.0230117   0.0230117   0.0000000), wk =   0.0109739
        k(   27) = (   0.0230117   0.0230117   0.0331182), wk =   0.0219479
        k(   28) = (   0.0230117   0.0230117   0.0662365), wk =   0.0219479
        k(   29) = (   0.0230117   0.0230117   0.0993547), wk =   0.0219479
        k(   30) = (   0.0230117   0.0230117   0.1324730), wk =   0.0219479
        k(   31) = (   0.0230117   0.0460235   0.0000000), wk =   0.0219479
        k(   32) = (   0.0230117   0.0460235   0.0331182), wk =   0.0438957
        k(   33) = (   0.0230117   0.0460235   0.0662365), wk =   0.0438957
        k(   34) = (   0.0230117   0.0460235   0.0993547), wk =   0.0438957
        k(   35) = (   0.0230117   0.0460235   0.1324730), wk =   0.0438957
        k(   36) = (   0.0230117   0.0690352   0.0000000), wk =   0.0219479
        k(   37) = (   0.0230117   0.0690352   0.0331182), wk =   0.0438957
        k(   38) = (   0.0230117   0.0690352   0.0662365), wk =   0.0438957
        k(   39) = (   0.0230117   0.0690352   0.0993547), wk =   0.0438957
        k(   40) = (   0.0230117   0.0690352   0.1324730), wk =   0.0438957
        k(   41) = (   0.0230117   0.0920469   0.0000000), wk =   0.0219479
        k(   42) = (   0.0230117   0.0920469   0.0331182), wk =   0.0438957
        k(   43) = (   0.0230117   0.0920469   0.0662365), wk =   0.0438957
        k(   44) = (   0.0230117   0.0920469   0.0993547), wk =   0.0438957
        k(   45) = (   0.0230117   0.0920469   0.1324730), wk =   0.0438957
        k(   46) = (   0.0460235   0.0460235   0.0000000), wk =   0.0109739
        k(   47) = (   0.0460235   0.0460235   0.0331182), wk =   0.0219479
        k(   48) = (   0.0460235   0.0460235   0.0662365), wk =   0.0219479
        k(   49) = (   0.0460235   0.0460235   0.0993547), wk =   0.0219479
        k(   50) = (   0.0460235   0.0460235   0.1324730), wk =   0.0219479
        k(   51) = (   0.0460235   0.0690352   0.0000000), wk =   0.0219479
        k(   52) = (   0.0460235   0.0690352   0.0331182), wk =   0.0438957
        k(   53) = (   0.0460235   0.0690352   0.0662365), wk =   0.0438957
        k(   54) = (   0.0460235   0.0690352   0.0993547), wk =   0.0438957
        k(   55) = (   0.0460235   0.0690352   0.1324730), wk =   0.0438957
        k(   56) = (   0.0460235   0.0920469   0.0000000), wk =   0.0219479
        k(   57) = (   0.0460235   0.0920469   0.0331182), wk =   0.0438957
        k(   58) = (   0.0460235   0.0920469   0.0662365), wk =   0.0438957
        k(   59) = (   0.0460235   0.0920469   0.0993547), wk =   0.0438957
        k(   60) = (   0.0460235   0.0920469   0.1324730), wk =   0.0438957
        k(   61) = (   0.0690352   0.0690352   0.0000000), wk =   0.0109739
        k(   62) = (   0.0690352   0.0690352   0.0331182), wk =   0.0219479
        k(   63) = (   0.0690352   0.0690352   0.0662365), wk =   0.0219479
        k(   64) = (   0.0690352   0.0690352   0.0993547), wk =   0.0219479
        k(   65) = (   0.0690352   0.0690352   0.1324730), wk =   0.0219479
        k(   66) = (   0.0690352   0.0920469   0.0000000), wk =   0.0219479
        k(   67) = (   0.0690352   0.0920469   0.0331182), wk =   0.0438957
        k(   68) = (   0.0690352   0.0920469   0.0662365), wk =   0.0438957
        k(   69) = (   0.0690352   0.0920469   0.0993547), wk =   0.0438957
        k(   70) = (   0.0690352   0.0920469   0.1324730), wk =   0.0438957
        k(   71) = (   0.0920469   0.0920469   0.0000000), wk =   0.0109739
        k(   72) = (   0.0920469   0.0920469   0.0331182), wk =   0.0219479
        k(   73) = (   0.0920469   0.0920469   0.0662365), wk =   0.0219479
        k(   74) = (   0.0920469   0.0920469   0.0993547), wk =   0.0219479
        k(   75) = (   0.0920469   0.0920469   0.1324730), wk =   0.0219479

     Largest allocated arrays     est. size (Mb)     dimensions
     Largest temporary arrays     est. size (Mb)     dimensions

     Check: negative/imaginary core charge=   -0.000002    0.000000

     Initial potential from superposition of free atoms
     Check: negative starting charge=   -0.031091

     starting charge   53.99284, renormalised to   54.00000

     negative rho (up, down):  3.110E-02 0.000E+00

     *
     * You are using vdW-DF for exchange-correlation in this calculation.
     * Please cite the following three references that made this development
     * possible:
     *
     *   M. Dion, H. Rydberg, E. Schroder, D. C. Langreth, and
     *   B. I. Lundqvist, Phys. Rev. Lett. 92, 246401 (2004).
     *
     *   T. Thonhauser, V. R. Cooper, S. Li, A. Puzder, P. Hyldgaard, and
     *   D. C. Langreth, Phys. Rev. B 76, 125112 (2007).
     *
     *   G. Roman-Perez and J. M. Soler, Phys. Rev. Lett. 103, 096102 (2009).
     *
     *
     * If you are using vdW-DF2, please also cite:
     *
     *   K. Lee, E. D. Murray, L. Kong, B. I. Lundqvist, and
     *   D. C. Langreth, Phys. Rev. B 82, 081101(R) (2010).
     *
     *
     * If you are calculating the stress with vdW-DF, please also cite:
     *
     *   R. Sabatini, E. Kucukbenli, B. Kolb, T. Thonhauser, and
     *   S. de Gironcoli, J. Phys.: Condens. Matter 24, 424209 (2012).
     *

     Carrying out vdW-DF run using the following parameters:

     Nqs =      20    Nr_points =    1024   r_max =   100.000
     q_mesh =
               0.00001000     0.04494208     0.09755937     0.15916263
               0.23128650     0.31572767     0.41458969     0.53033537
               0.66584808     0.82450364     1.01025438     1.22772762
               1.48234092     1.78043706     2.12944203     2.53805004
               3.01644009     3.57652955     4.23227104     5.00000000

     Gradients computed in reciprocal space

     Starting wfc are   38 randomized atomic wfcs +    9 random wfc

     Self-consistent Calculation

     iteration #  1     ecut=    58.80 Ry     beta=0.10
     Davidson diagonalization with overlap
     ethr =  1.00E-02,  avg # of iterations =  4.5

     Threshold (ethr) on eigenvalues was too large:
     Diagonalizing with lowered threshold

     Davidson diagonalization with overlap
     ethr =  5.39E-04,  avg # of iterations =  1.0

[...]

     total energy              =    -623.42195221 Ry
     Harris-Foulkes estimate   =    -623.47228193 Ry
     estimated scf accuracy    <       0.29060169 Ry

[...]

     total energy              =    -623.43045715 Ry
     Harris-Foulkes estimate   =    -623.43028873 Ry
     estimated scf accuracy    <       0.00001115 Ry

     iteration #  9     ecut=    58.80 Ry     beta=0.10
     Davidson diagonalization with overlap
     ethr =  2.07E-08,  avg # of iterations =  2.0

     negative rho (up, down):  3.748E-02 0.000E+00

     End of self-consistent calculation

          k = 0.0000 0.0000 0.0000 (  3991 PWs)   bands (ev):

   -49.5599 -49.5546 -23.4151 -23.4151 -23.3775 -23.3775 -23.3615 -23.3545
    -2.5405  -2.5080  -2.4539  -2.3866  -2.2850  -2.2850  -2.1892  -2.1835
    -2.1835  -2.0005   3.0915   6.7521  11.6154  11.6154  13.7165  13.8027
    13.8097  15.2123  15.2123  15.6022  15.6542  15.6542  16.0790  16.4914
    17.3701  17.3701  17.8155  18.0214  20.7727  21.9997  24.1597  24.3791
    24.8511  24.8511  25.5264  25.5913  27.4163  28.1662  29.1736

[...]

          k = 0.0920 0.0920 0.1325 (  4029 PWs)   bands (ev):

   -49.5541 -49.5539 -23.4143 -23.4132 -23.4062 -23.4059 -23.3710 -23.3699
    -2.4622  -2.4586  -2.3488  -2.3364  -2.3063  -2.3025  -2.2939  -2.2869
    -2.0072  -1.9987   6.7597   6.8698  11.5748  11.5831  11.7616  11.7629
    13.9098  13.9446  15.0921  15.1584  15.1615  15.1864  16.1329  16.1359
    16.4269  16.5518  18.2683  18.3634  21.4349  21.7050  24.3517  24.4275
    24.4463  24.7112  25.5346  25.5363  26.6938  26.7879  28.1088

     the Fermi energy is    14.8264 ev

!    total energy              =    -623.43117506 Ry
     Harris-Foulkes estimate   =    -623.43045872 Ry
     estimated scf accuracy    <       0.00000064 Ry

     The total energy is the sum of the following terms:

     one-electron contribution =    -149.23262279 Ry
     hartree contribution      =     111.45139809 Ry
     xc contribution           =    -171.72108363 Ry
     ewald contribution        =    -413.91396007 Ry
     smearing contrib. (-TS)   =      -0.01490666 Ry

     convergence has been achieved in   9 iterations

     Forces acting on atoms (Ry/au):

     negative rho (up, down):  3.748E-02 0.000E+00
     atom    1 type  1   force =     0.00000000    0.00000000    0.00000000
     atom    2 type  1   force =     0.00000000    0.00000000    0.00000000
     atom    3 type  2   force =     0.00000000    0.00000000    0.00000000
     atom    4 type  2   force =     0.00000000    0.00000000    0.00000000

     Total force =     0.000000     Total SCF correction =     0.000000

     General routines

     Parallel routines

   This run was terminated on:   6: 5: 2  15Nov2017

   JOB DONE.