     Program PWSCF v.5.1rc2 starts on 15Nov2017 at  7:40:44

     Current dimensions of program PWSCF are:
     Max number of different atomic species (ntypx) = 10
     Max number of k-points (npk) =  40000
     Max angular momentum in pseudopotentials (lmaxx) =  3

     IMPORTANT: XC functional enforced from input :
     Exchange-correlation      = BEEF-VDW ( 1  4 27 13 2)
     Any further DFT definition will be discarded
     Please, verify this is what you really want

     Found symmetry operation: I + (  0.5000  0.5000  0.0000)
     This is a supercell, fractional translations are disabled

     bravais-lattice index     =            0
     lattice parameter (alat)  =       1.8897  a.u.
     unit-cell volume          =     731.6104 (a.u.)^3
     number of atoms/cell      =            4
     number of atomic types    =            2
     number of electrons       =        46.00
     number of Kohn-Sham states=           43
     kinetic-energy cutoff     =      58.7989  Ry
     charge density cutoff     =     587.9892  Ry
     convergence threshold     =      1.0E-06
     mixing beta               =       0.1000
     number of iterations used =           10  plain     mixing
     Exchange-correlation      = BEEF-VDW ( 1  4 27 13 2)

     celldm(1)=   1.889726  celldm(2)=   0.000000  celldm(3)=   0.000000
     celldm(4)=   0.000000  celldm(5)=   0.000000  celldm(6)=   0.000000

     crystal axes: (cart. coord. in units of alat)
               a(1) = (   4.686375   0.000000   0.000000 )
               a(2) = (   0.000000   4.686375   0.000000 )
               a(3) = (   0.000000   0.000000   4.936387 )

     reciprocal axes: (cart. coord. in units 2 pi/alat)
               b(1) = (  0.213385  0.000000  0.000000 )
               b(2) = (  0.000000  0.213385  0.000000 )
               b(3) = (  0.000000  0.000000  0.202577 )

     PseudoPot. # 1 for Zr read from file:
     /home/users/vossj/suncat/psp/gbrv1.5pbe/Zr.UPF
     MD5 check sum: 5db81b1e868ab7776c4564c113de050b
     Pseudo is Ultrasoft + core correction, Zval = 12.0
     Generated by new atomic code, or converted to UPF format
     Using radial grid of  887 points,  6 beta functions with:
                l(1) =   0
                l(2) =   0
                l(3) =   1
                l(4) =   1
                l(5) =   2
                l(6) =   2
     Q(r) pseudized with  6 coefficients,  rinner =    1.200   1.200   1.200
                                                       1.200   1.200

     PseudoPot. # 2 for Y  read from file:
     /home/users/vossj/suncat/psp/gbrv1.5pbe/Y.UPF
     MD5 check sum: d034151ed7554c50b6e82763ed42c788
     Pseudo is Ultrasoft + core correction, Zval = 11.0
     Generated by new atomic code, or converted to UPF format
     Using radial grid of  885 points,  6 beta functions with:
                l(1) =   0
                l(2) =   0
                l(3) =   1
                l(4) =   1
                l(5) =   2
                l(6) =   2
     Q(r) pseudized with  8 coefficients,  rinner =    1.200   1.200   1.200
                                                       1.200   1.200

     vdW kernel table read from file vdW_kernel_table
     MD5 check sum: 095c7af220d748ca6e76c0b4c6cfb241

     atomic species   valence    mass     pseudopotential
        Zr1           12.00    91.22400     Zr( 1.00)
        Y1            11.00    88.90590     Y ( 1.00)

     16 Sym. Ops., with inversion, found

   Cartesian axes

     site n.     atom                  positions (alat units)
         1           Zr1 tau(   1) = (   0.0000000   0.0000000   0.0000000  )
         2           Zr1 tau(   2) = (   2.3431876   2.3431876   0.0000000  )
         3           Y1  tau(   3) = (   2.3431876   0.0000000   2.4681934  )
         4           Y1  tau(   4) = (   0.0000000   2.3431876   2.4681934  )

     number of k points=    75  Fermi-Dirac smearing, width (Ry)=  0.0073
                       cart. coord. in units 2pi/alat
        k(    1) = (   0.0000000   0.0000000   0.0000000), wk =   0.0027435
        k(    2) = (   0.0000000   0.0000000   0.0225086), wk =   0.0054870
        k(    3) = (   0.0000000   0.0000000   0.0450172), wk =   0.0054870
        k(    4) = (   0.0000000   0.0000000   0.0675258), wk =   0.0054870
        k(    5) = (   0.0000000   0.0000000   0.0900344), wk =   0.0054870
        k(    6) = (   0.0000000   0.0237094   0.0000000), wk =   0.0109739
        k(    7) = (   0.0000000   0.0237094   0.0225086), wk =   0.0219479
        k(    8) = (   0.0000000   0.0237094   0.0450172), wk =   0.0219479
        k(    9) = (   0.0000000   0.0237094   0.0675258), wk =   0.0219479
        k(   10) = (   0.0000000   0.0237094   0.0900344), wk =   0.0219479
        k(   11) = (   0.0000000   0.0474188   0.0000000), wk =   0.0109739
        k(   12) = (   0.0000000   0.0474188   0.0225086), wk =   0.0219479
        k(   13) = (   0.0000000   0.0474188   0.0450172), wk =   0.0219479
        k(   14) = (   0.0000000   0.0474188   0.0675258), wk =   0.0219479
        k(   15) = (   0.0000000   0.0474188   0.0900344), wk =   0.0219479
        k(   16) = (   0.0000000   0.0711282   0.0000000), wk =   0.0109739
        k(   17) = (   0.0000000   0.0711282   0.0225086), wk =   0.0219479
        k(   18) = (   0.0000000   0.0711282   0.0450172), wk =   0.0219479
        k(   19) = (   0.0000000   0.0711282   0.0675258), wk =   0.0219479
        k(   20) = (   0.0000000   0.0711282   0.0900344), wk =   0.0219479
        k(   21) = (   0.0000000   0.0948376   0.0000000), wk =   0.0109739
        k(   22) = (   0.0000000   0.0948376   0.0225086), wk =   0.0219479
        k(   23) = (   0.0000000   0.0948376   0.0450172), wk =   0.0219479
        k(   24) = (   0.0000000   0.0948376   0.0675258), wk =   0.0219479
        k(   25) = (   0.0000000   0.0948376   0.0900344), wk =   0.0219479
        k(   26) = (   0.0237094   0.0237094   0.0000000), wk =   0.0109739
        k(   27) = (   0.0237094   0.0237094   0.0225086), wk =   0.0219479
        k(   28) = (   0.0237094   0.0237094   0.0450172), wk =   0.0219479
        k(   29) = (   0.0237094   0.0237094   0.0675258), wk =   0.0219479
        k(   30) = (   0.0237094   0.0237094   0.0900344), wk =   0.0219479
        k(   31) = (   0.0237094   0.0474188   0.0000000), wk =   0.0219479
        k(   32) = (   0.0237094   0.0474188   0.0225086), wk =   0.0438957
        k(   33) = (   0.0237094   0.0474188   0.0450172), wk =   0.0438957
        k(   34) = (   0.0237094   0.0474188   0.0675258), wk =   0.0438957
        k(   35) = (   0.0237094   0.0474188   0.0900344), wk =   0.0438957
        k(   36) = (   0.0237094   0.0711282   0.0000000), wk =   0.0219479
        k(   37) = (   0.0237094   0.0711282   0.0225086), wk =   0.0438957
        k(   38) = (   0.0237094   0.0711282   0.0450172), wk =   0.0438957
        k(   39) = (   0.0237094   0.0711282   0.0675258), wk =   0.0438957
        k(   40) = (   0.0237094   0.0711282   0.0900344), wk =   0.0438957
        k(   41) = (   0.0237094   0.0948376   0.0000000), wk =   0.0219479
        k(   42) = (   0.0237094   0.0948376   0.0225086), wk =   0.0438957
        k(   43) = (   0.0237094   0.0948376   0.0450172), wk =   0.0438957
        k(   44) = (   0.0237094   0.0948376   0.0675258), wk =   0.0438957
        k(   45) = (   0.0237094   0.0948376   0.0900344), wk =   0.0438957
        k(   46) = (   0.0474188   0.0474188   0.0000000), wk =   0.0109739
        k(   47) = (   0.0474188   0.0474188   0.0225086), wk =   0.0219479
        k(   48) = (   0.0474188   0.0474188   0.0450172), wk =   0.0219479
        k(   49) = (   0.0474188   0.0474188   0.0675258), wk =   0.0219479
        k(   50) = (   0.0474188   0.0474188   0.0900344), wk =   0.0219479
        k(   51) = (   0.0474188   0.0711282   0.0000000), wk =   0.0219479
        k(   52) = (   0.0474188   0.0711282   0.0225086), wk =   0.0438957
        k(   53) = (   0.0474188   0.0711282   0.0450172), wk =   0.0438957
        k(   54) = (   0.0474188   0.0711282   0.0675258), wk =   0.0438957
        k(   55) = (   0.0474188   0.0711282   0.0900344), wk =   0.0438957
        k(   56) = (   0.0474188   0.0948376   0.0000000), wk =   0.0219479
        k(   57) = (   0.0474188   0.0948376   0.0225086), wk =   0.0438957
        k(   58) = (   0.0474188   0.0948376   0.0450172), wk =   0.0438957
        k(   59) = (   0.0474188   0.0948376   0.0675258), wk =   0.0438957
        k(   60) = (   0.0474188   0.0948376   0.0900344), wk =   0.0438957
        k(   61) = (   0.0711282   0.0711282   0.0000000), wk =   0.0109739
        k(   62) = (   0.0711282   0.0711282   0.0225086), wk =   0.0219479
        k(   63) = (   0.0711282   0.0711282   0.0450172), wk =   0.0219479
        k(   64) = (   0.0711282   0.0711282   0.0675258), wk =   0.0219479
        k(   65) = (   0.0711282   0.0711282   0.0900344), wk =   0.0219479
        k(   66) = (   0.0711282   0.0948376   0.0000000), wk =   0.0219479
        k(   67) = (   0.0711282   0.0948376   0.0225086), wk =   0.0438957
        k(   68) = (   0.0711282   0.0948376   0.0450172), wk =   0.0438957
        k(   69) = (   0.0711282   0.0948376   0.0675258), wk =   0.0438957
        k(   70) = (   0.0711282   0.0948376   0.0900344), wk =   0.0438957
        k(   71) = (   0.0948376   0.0948376   0.0000000), wk =   0.0109739
        k(   72) = (   0.0948376   0.0948376   0.0225086), wk =   0.0219479
        k(   73) = (   0.0948376   0.0948376   0.0450172), wk =   0.0219479
        k(   74) = (   0.0948376   0.0948376   0.0675258), wk =   0.0219479
        k(   75) = (   0.0948376   0.0948376   0.0900344), wk =   0.0219479

     Largest allocated arrays     est. size (Mb)     dimensions
     Largest temporary arrays     est. size (Mb)     dimensions

     Initial potential from superposition of free atoms
     Check: negative starting charge=   -0.120936

     starting charge   45.98676, renormalised to   46.00000

     negative rho (up, down):  1.210E-01 0.000E+00

     *
     * You are using vdW-DF for exchange-correlation in this calculation.
     * Please cite the following three references that made this development
     * possible:
     *
     *   M. Dion, H. Rydberg, E. Schroder, D. C. Langreth, and
     *   B. I. Lundqvist, Phys. Rev. Lett. 92, 246401 (2004).
     *
     *   T. Thonhauser, V. R. Cooper, S. Li, A. Puzder, P. Hyldgaard, and
     *   D. C. Langreth, Phys. Rev. B 76, 125112 (2007).
     *
     *   G. Roman-Perez and J. M. Soler, Phys. Rev. Lett. 103, 096102 (2009).
     *
     *
     * If you are using vdW-DF2, please also cite:
     *
     *   K. Lee, E. D. Murray, L. Kong, B. I. Lundqvist, and
     *   D. C. Langreth, Phys. Rev. B 82, 081101(R) (2010).
     *
     *
     * If you are calculating the stress with vdW-DF, please also cite:
     *
     *   R. Sabatini, E. Kucukbenli, B. Kolb, T. Thonhauser, and
     *   S. de Gironcoli, J. Phys.: Condens. Matter 24, 424209 (2012).
     *

     Carrying out vdW-DF run using the following parameters:

     Nqs =      20    Nr_points =    1024   r_max =   100.000
     q_mesh =
               0.00001000     0.04494208     0.09755937     0.15916263
               0.23128650     0.31572767     0.41458969     0.53033537
               0.66584808     0.82450364     1.01025438     1.22772762
               1.48234092     1.78043706     2.12944203     2.53805004
               3.01644009     3.57652955     4.23227104     5.00000000

     Gradients computed in reciprocal space

     Starting wfc are   52 randomized atomic wfcs

     Self-consistent Calculation

     iteration #  1     ecut=    58.80 Ry     beta=0.10
     Davidson diagonalization with overlap
     ethr =  1.00E-02,  avg # of iterations =  3.2

     Threshold (ethr) on eigenvalues was too large:
     Diagonalizing with lowered threshold

     Davidson diagonalization with overlap
     ethr =  4.29E-05,  avg # of iterations =  5.3

[...]

     total energy              =    -386.96536257 Ry
     Harris-Foulkes estimate   =    -386.96620358 Ry
     estimated scf accuracy    <       0.02245468 Ry

[...]

     total energy              =    -386.96567027 Ry
     Harris-Foulkes estimate   =    -386.96566278 Ry
     estimated scf accuracy    <       0.00000173 Ry

     iteration # 10     ecut=    58.80 Ry     beta=0.10
     Davidson diagonalization with overlap
     ethr =  3.76E-09,  avg # of iterations =  2.0

     negative rho (up, down):  1.234E-01 0.000E+00

     End of self-consistent calculation

          k = 0.0000 0.0000 0.0000 (  5547 PWs)   bands (ev):

   -37.5240 -37.4648 -30.8894 -30.7794 -15.5978 -15.5978 -15.5388 -15.4416
   -15.2803 -15.2803 -11.1112 -11.1112 -10.8032 -10.6883 -10.5941 -10.5941
     6.5856   9.2905   9.3115   9.3894  10.1175  10.1175  10.1985  12.8413
    13.1206  13.1206  13.7898  14.4943  14.4943  14.8808  15.1915  16.2287
    16.5500  17.0571  17.0571  17.3438  17.3648  17.4513  17.4513  18.6209
    19.6035  20.7108  20.7108

[...]

          k = 0.0948 0.0948 0.0900 (  5588 PWs)   bands (ev):

   -37.4947 -37.4930 -30.8354 -30.8321 -15.6459 -15.6368 -15.4982 -15.4959
   -15.2577 -15.2479 -11.1829 -11.1680 -10.7516 -10.7471 -10.5598 -10.5430
     9.1843   9.2605   9.3829   9.4205  12.1417  12.2157  12.2822  12.3751
    12.5552  12.5575  13.0156  13.0377  13.0768  13.0926  13.1438  13.1825
    16.3821  16.4170  16.4971  16.6195  17.1141  17.1698  17.3878  17.4664
    20.1686  20.2644  20.6299

     the Fermi energy is    11.6270 ev

!    total energy              =    -386.96571040 Ry
     Harris-Foulkes estimate   =    -386.96567055 Ry
     estimated scf accuracy    <       0.00000006 Ry

     The total energy is the sum of the following terms:

     one-electron contribution =     -78.46456126 Ry
     hartree contribution      =      54.36477545 Ry
     xc contribution           =     -93.46091248 Ry
     ewald contribution        =    -269.39057669 Ry
     smearing contrib. (-TS)   =      -0.01443541 Ry

     convergence has been achieved in  10 iterations

     Forces acting on atoms (Ry/au):

     negative rho (up, down):  1.234E-01 0.000E+00
     atom    1 type  1   force =     0.00000000    0.00000000    0.00000000
     atom    2 type  1   force =     0.00000000    0.00000000    0.00000000
     atom    3 type  2   force =     0.00000000    0.00000000    0.00000000
     atom    4 type  2   force =     0.00000000    0.00000000    0.00000000

     Total force =     0.000000     Total SCF correction =     0.000000

     General routines

     Parallel routines

   This run was terminated on:   7:41:28  15Nov2017

   JOB DONE.