     Program PWSCF v.5.1rc2 starts on 14Nov2017 at  9: 4:25

     Current dimensions of program PWSCF are:
     Max number of different atomic species (ntypx) = 10
     Max number of k-points (npk) =  40000
     Max angular momentum in pseudopotentials (lmaxx) =  3

     IMPORTANT: XC functional enforced from input :
     Exchange-correlation      = BEEF-VDW ( 1  4 27 13 2)
     Any further DFT definition will be discarded
     Please, verify this is what you really want

     Found symmetry operation: I + ( -0.5000 -0.5000  0.0000)
     This is a supercell, fractional translations are disabled

     bravais-lattice index     =            0
     lattice parameter (alat)  =       1.8897  a.u.
     unit-cell volume          =     574.7728 (a.u.)^3
     number of atoms/cell      =            4
     number of atomic types    =            2
     number of electrons       =        60.00
     number of Kohn-Sham states=           50
     kinetic-energy cutoff     =      58.7989  Ry
     charge density cutoff     =     587.9892  Ry
     convergence threshold     =      1.0E-06
     mixing beta               =       0.1000
     number of iterations used =           10  plain     mixing
     Exchange-correlation      = BEEF-VDW ( 1  4 27 13 2)

     celldm(1)=   1.889726  celldm(2)=   0.000000  celldm(3)=   0.000000
     celldm(4)=   0.000000  celldm(5)=   0.000000  celldm(6)=   0.000000

     crystal axes: (cart. coord. in units of alat)
               a(1) = (   4.938501   0.000000   0.000000 )
               a(2) = (   0.000000   4.938501   0.000000 )
               a(3) = (   0.000000   0.000000   3.492282 )

     reciprocal axes: (cart. coord. in units 2 pi/alat)
               b(1) = (  0.202491  0.000000  0.000000 )
               b(2) = (  0.000000  0.202491  0.000000 )
               b(3) = (  0.000000  0.000000  0.286346 )

     PseudoPot. # 1 for Cu read from file:
     /home/users/vossj/suncat/psp/gbrv1.5pbe/Cu.UPF
     MD5 check sum: 6e991ff952a84172a2a52a1c1e996048
     Pseudo is Ultrasoft + core correction, Zval = 19.0
     Generated by new atomic code, or converted to UPF format
     Using radial grid of  867 points,  6 beta functions with:
                l(1) =   0
                l(2) =   0
                l(3) =   1
                l(4) =   1
                l(5) =   2
                l(6) =   2
     Q(r) pseudized with  8 coefficients,  rinner =    1.150   1.150   1.150
                                                       1.150   1.150

     PseudoPot. # 2 for Y  read from file:
     /home/users/vossj/suncat/psp/gbrv1.5pbe/Y.UPF
     MD5 check sum: d034151ed7554c50b6e82763ed42c788
     Pseudo is Ultrasoft + core correction, Zval = 11.0
     Generated by new atomic code, or converted to UPF format
     Using radial grid of  885 points,  6 beta functions with:
                l(1) =   0
                l(2) =   0
                l(3) =   1
                l(4) =   1
                l(5) =   2
                l(6) =   2
     Q(r) pseudized with  8 coefficients,  rinner =    1.200   1.200   1.200
                                                       1.200   1.200

     vdW kernel table read from file vdW_kernel_table
     MD5 check sum: 095c7af220d748ca6e76c0b4c6cfb241

     atomic species   valence    mass     pseudopotential
        Cu1           19.00    63.54600     Cu( 1.00)
        Y1            11.00    88.90590     Y ( 1.00)

     16 Sym. Ops., with inversion, found

   Cartesian axes

     site n.     atom                  positions (alat units)
         1           Cu1 tau(   1) = (   0.0000000   0.0000000   0.0000000  )
         2           Cu1 tau(   2) = (   2.4692505   2.4692505   0.0000000  )
         3           Y1  tau(   3) = (   2.4692505   0.0000000   1.7461410  )
         4           Y1  tau(   4) = (   0.0000000   2.4692505   1.7461410  )

     number of k points=    75  Fermi-Dirac smearing, width (Ry)=  0.0073
                       cart. coord. in units 2pi/alat
        k(    1) = (   0.0000000   0.0000000   0.0000000), wk =   0.0027435
        k(    2) = (   0.0000000   0.0000000   0.0318162), wk =   0.0054870
        k(    3) = (   0.0000000   0.0000000   0.0636324), wk =   0.0054870
        k(    4) = (   0.0000000   0.0000000   0.0954486), wk =   0.0054870
        k(    5) = (   0.0000000   0.0000000   0.1272648), wk =   0.0054870
        k(    6) = (   0.0000000   0.0224990   0.0000000), wk =   0.0109739
        k(    7) = (   0.0000000   0.0224990   0.0318162), wk =   0.0219479
        k(    8) = (   0.0000000   0.0224990   0.0636324), wk =   0.0219479
        k(    9) = (   0.0000000   0.0224990   0.0954486), wk =   0.0219479
        k(   10) = (   0.0000000   0.0224990   0.1272648), wk =   0.0219479
        k(   11) = (   0.0000000   0.0449979   0.0000000), wk =   0.0109739
        k(   12) = (   0.0000000   0.0449979   0.0318162), wk =   0.0219479
        k(   13) = (   0.0000000   0.0449979   0.0636324), wk =   0.0219479
        k(   14) = (   0.0000000   0.0449979   0.0954486), wk =   0.0219479
        k(   15) = (   0.0000000   0.0449979   0.1272648), wk =   0.0219479
        k(   16) = (   0.0000000   0.0674969   0.0000000), wk =   0.0109739
        k(   17) = (   0.0000000   0.0674969   0.0318162), wk =   0.0219479
        k(   18) = (   0.0000000   0.0674969   0.0636324), wk =   0.0219479
        k(   19) = (   0.0000000   0.0674969   0.0954486), wk =   0.0219479
        k(   20) = (   0.0000000   0.0674969   0.1272648), wk =   0.0219479
        k(   21) = (   0.0000000   0.0899958   0.0000000), wk =   0.0109739
        k(   22) = (   0.0000000   0.0899958   0.0318162), wk =   0.0219479
        k(   23) = (   0.0000000   0.0899958   0.0636324), wk =   0.0219479
        k(   24) = (   0.0000000   0.0899958   0.0954486), wk =   0.0219479
        k(   25) = (   0.0000000   0.0899958   0.1272648), wk =   0.0219479
        k(   26) = (   0.0224990   0.0224990   0.0000000), wk =   0.0109739
        k(   27) = (   0.0224990   0.0224990   0.0318162), wk =   0.0219479
        k(   28) = (   0.0224990   0.0224990   0.0636324), wk =   0.0219479
        k(   29) = (   0.0224990   0.0224990   0.0954486), wk =   0.0219479
        k(   30) = (   0.0224990   0.0224990   0.1272648), wk =   0.0219479
        k(   31) = (   0.0224990   0.0449979   0.0000000), wk =   0.0219479
        k(   32) = (   0.0224990   0.0449979   0.0318162), wk =   0.0438957
        k(   33) = (   0.0224990   0.0449979   0.0636324), wk =   0.0438957
        k(   34) = (   0.0224990   0.0449979   0.0954486), wk =   0.0438957
        k(   35) = (   0.0224990   0.0449979   0.1272648), wk =   0.0438957
        k(   36) = (   0.0224990   0.0674969   0.0000000), wk =   0.0219479
        k(   37) = (   0.0224990   0.0674969   0.0318162), wk =   0.0438957
        k(   38) = (   0.0224990   0.0674969   0.0636324), wk =   0.0438957
        k(   39) = (   0.0224990   0.0674969   0.0954486), wk =   0.0438957
        k(   40) = (   0.0224990   0.0674969   0.1272648), wk =   0.0438957
        k(   41) = (   0.0224990   0.0899958   0.0000000), wk =   0.0219479
        k(   42) = (   0.0224990   0.0899958   0.0318162), wk =   0.0438957
        k(   43) = (   0.0224990   0.0899958   0.0636324), wk =   0.0438957
        k(   44) = (   0.0224990   0.0899958   0.0954486), wk =   0.0438957
        k(   45) = (   0.0224990   0.0899958   0.1272648), wk =   0.0438957
        k(   46) = (   0.0449979   0.0449979   0.0000000), wk =   0.0109739
        k(   47) = (   0.0449979   0.0449979   0.0318162), wk =   0.0219479
        k(   48) = (   0.0449979   0.0449979   0.0636324), wk =   0.0219479
        k(   49) = (   0.0449979   0.0449979   0.0954486), wk =   0.0219479
        k(   50) = (   0.0449979   0.0449979   0.1272648), wk =   0.0219479
        k(   51) = (   0.0449979   0.0674969   0.0000000), wk =   0.0219479
        k(   52) = (   0.0449979   0.0674969   0.0318162), wk =   0.0438957
        k(   53) = (   0.0449979   0.0674969   0.0636324), wk =   0.0438957
        k(   54) = (   0.0449979   0.0674969   0.0954486), wk =   0.0438957
        k(   55) = (   0.0449979   0.0674969   0.1272648), wk =   0.0438957
        k(   56) = (   0.0449979   0.0899958   0.0000000), wk =   0.0219479
        k(   57) = (   0.0449979   0.0899958   0.0318162), wk =   0.0438957
        k(   58) = (   0.0449979   0.0899958   0.0636324), wk =   0.0438957
        k(   59) = (   0.0449979   0.0899958   0.0954486), wk =   0.0438957
        k(   60) = (   0.0449979   0.0899958   0.1272648), wk =   0.0438957
        k(   61) = (   0.0674969   0.0674969   0.0000000), wk =   0.0109739
        k(   62) = (   0.0674969   0.0674969   0.0318162), wk =   0.0219479
        k(   63) = (   0.0674969   0.0674969   0.0636324), wk =   0.0219479
        k(   64) = (   0.0674969   0.0674969   0.0954486), wk =   0.0219479
        k(   65) = (   0.0674969   0.0674969   0.1272648), wk =   0.0219479
        k(   66) = (   0.0674969   0.0899958   0.0000000), wk =   0.0219479
        k(   67) = (   0.0674969   0.0899958   0.0318162), wk =   0.0438957
        k(   68) = (   0.0674969   0.0899958   0.0636324), wk =   0.0438957
        k(   69) = (   0.0674969   0.0899958   0.0954486), wk =   0.0438957
        k(   70) = (   0.0674969   0.0899958   0.1272648), wk =   0.0438957
        k(   71) = (   0.0899958   0.0899958   0.0000000), wk =   0.0109739
        k(   72) = (   0.0899958   0.0899958   0.0318162), wk =   0.0219479
        k(   73) = (   0.0899958   0.0899958   0.0636324), wk =   0.0219479
        k(   74) = (   0.0899958   0.0899958   0.0954486), wk =   0.0219479
        k(   75) = (   0.0899958   0.0899958   0.1272648), wk =   0.0219479

     Largest allocated arrays     est. size (Mb)     dimensions
     Largest temporary arrays     est. size (Mb)     dimensions

     Initial potential from superposition of free atoms

     starting charge   57.99106, renormalised to   60.00000

     *
     * You are using vdW-DF for exchange-correlation in this calculation.
     * Please cite the following three references that made this development
     * possible:
     *
     *   M. Dion, H. Rydberg, E. Schroder, D. C. Langreth, and
     *   B. I. Lundqvist, Phys. Rev. Lett. 92, 246401 (2004).
     *
     *   T. Thonhauser, V. R. Cooper, S. Li, A. Puzder, P. Hyldgaard, and
     *   D. C. Langreth, Phys. Rev. B 76, 125112 (2007).
     *
     *   G. Roman-Perez and J. M. Soler, Phys. Rev. Lett. 103, 096102 (2009).
     *
     *
     * If you are using vdW-DF2, please also cite:
     *
     *   K. Lee, E. D. Murray, L. Kong, B. I. Lundqvist, and
     *   D. C. Langreth, Phys. Rev. B 82, 081101(R) (2010).
     *
     *
     * If you are calculating the stress with vdW-DF, please also cite:
     *
     *   R. Sabatini, E. Kucukbenli, B. Kolb, T. Thonhauser, and
     *   S. de Gironcoli, J. Phys.: Condens. Matter 24, 424209 (2012).
     *

     Carrying out vdW-DF run using the following parameters:

     Nqs =      20    Nr_points =    1024   r_max =   100.000
     q_mesh =
               0.00001000     0.04494208     0.09755937     0.15916263
               0.23128650     0.31572767     0.41458969     0.53033537
               0.66584808     0.82450364     1.01025438     1.22772762
               1.48234092     1.78043706     2.12944203     2.53805004
               3.01644009     3.57652955     4.23227104     5.00000000

     Gradients computed in reciprocal space

     Starting wfc are   52 randomized atomic wfcs

     Self-consistent Calculation

     iteration #  1     ecut=    58.80 Ry     beta=0.10
     Davidson diagonalization with overlap
     ethr =  1.00E-02,  avg # of iterations =  4.2

     total energy              =    -997.52456203 Ry
     Harris-Foulkes estimate   =    -997.85237036 Ry
     estimated scf accuracy    <       1.92468016 Ry

[...]

     total energy              =    -997.44238575 Ry
     Harris-Foulkes estimate   =    -997.44237406 Ry
     estimated scf accuracy    <       0.00000105 Ry

     iteration # 12     ecut=    58.80 Ry     beta=0.10
     Davidson diagonalization with overlap
     ethr =  1.75E-09,  avg # of iterations =  2.7

     End of self-consistent calculation

          k = 0.0000 0.0000 0.0000 (  4301 PWs)   bands (ev):

  -101.0943-101.0938 -58.4757 -58.4757 -58.4748 -58.4748 -58.4745 -58.4740
   -31.2687 -31.2094 -11.3711 -11.3711 -11.0369 -11.0361 -11.0361 -10.9665
     5.4257   7.7342   8.2070   8.2179   8.2186   8.6396   8.6396   8.8987
     8.8992   8.8992   9.1651   9.7185  12.2312  12.2317  12.3792  12.3792
    12.6406  15.0260  15.0260  16.3147  16.3147  16.3161  17.5179  17.7422
    17.7430  17.7430  19.5456  19.9703  20.7843  23.0871  23.1178  23.1178
    25.1328  25.1344

[...]

          k = 0.0900 0.0900 0.1273 (  4376 PWs)   bands (ev):

  -101.0943-101.0937 -58.4757 -58.4757 -58.4753 -58.4748 -58.4747 -58.4747
   -31.2112 -31.2095 -11.3715 -11.3635 -11.3616 -11.3595 -10.9780 -10.9679
     7.7652   7.7841   8.2260   8.2347   8.6448   8.6477   8.6479   8.6613
     9.1341   9.1493   9.6640   9.6985  11.8803  11.9703  12.3085  12.3869
    12.9151  13.0384  14.9416  15.0553  15.1015  15.1616  17.4645  17.5061
    19.1452  19.5751  19.9496  19.9849  20.9790  21.1942  23.0858  23.3085
    23.3467  23.3992

     the Fermi energy is    11.7889 ev

!    total energy              =    -997.44242866 Ry
     Harris-Foulkes estimate   =    -997.44238598 Ry
     estimated scf accuracy    <       0.00000010 Ry

     The total energy is the sum of the following terms:

     one-electron contribution =    -739.76750071 Ry
     hartree contribution      =     394.98373700 Ry
     xc contribution           =    -136.59086320 Ry
     ewald contribution        =    -516.06153423 Ry
     smearing contrib. (-TS)   =      -0.00626752 Ry

     convergence has been achieved in  12 iterations

     Forces acting on atoms (Ry/au):

     atom    1 type  1   force =     0.00000000    0.00000000    0.00000000
     atom    2 type  1   force =     0.00000000    0.00000000    0.00000000
     atom    3 type  2   force =     0.00000000    0.00000000    0.00000000
     atom    4 type  2   force =     0.00000000    0.00000000    0.00000000

     Total force =     0.000000     Total SCF correction =     0.000000

     General routines

     Parallel routines

   This run was terminated on:   9: 5:17  14Nov2017

   JOB DONE.