     Program PWSCF v.5.1rc2 starts on 15Nov2017 at  7: 1: 7

     Current dimensions of program PWSCF are:
     Max number of different atomic species (ntypx) = 10
     Max number of k-points (npk) =  40000
     Max angular momentum in pseudopotentials (lmaxx) =  3

     IMPORTANT: XC functional enforced from input :
     Exchange-correlation      = BEEF-VDW ( 1  4 27 13 2)
     Any further DFT definition will be discarded
     Please, verify this is what you really want

     Found symmetry operation: I + ( -0.5000 -0.5000  0.0000)
     This is a supercell, fractional translations are disabled

     bravais-lattice index     =            0
     lattice parameter (alat)  =       1.8897  a.u.
     unit-cell volume          =     477.2765 (a.u.)^3
     number of atoms/cell      =            4
     number of atomic types    =            2
     number of electrons       =        52.00
     number of Kohn-Sham states=           46
     kinetic-energy cutoff     =      58.7989  Ry
     charge density cutoff     =     587.9892  Ry
     convergence threshold     =      1.0E-06
     mixing beta               =       0.1000
     number of iterations used =           10  plain     mixing
     Exchange-correlation      = BEEF-VDW ( 1  4 27 13 2)

     celldm(1)=   1.889726  celldm(2)=   0.000000  celldm(3)=   0.000000
     celldm(4)=   0.000000  celldm(5)=   0.000000  celldm(6)=   0.000000

     crystal axes: (cart. coord. in units of alat)
               a(1) = (   4.075931   0.000000   0.000000 )
               a(2) = (   0.000000   4.075931   0.000000 )
               a(3) = (   0.000000   0.000000   4.257159 )

     reciprocal axes: (cart. coord. in units 2 pi/alat)
               b(1) = (  0.245343  0.000000  0.000000 )
               b(2) = (  0.000000  0.245343  0.000000 )
               b(3) = (  0.000000  0.000000  0.234898 )

     PseudoPot. # 1 for V  read from file:
     /home/users/vossj/suncat/psp/gbrv1.5pbe/V.UPF
     MD5 check sum: 22b79981416ebb76fdaf5b1b8640f6fb
     Pseudo is Ultrasoft + core correction, Zval = 13.0
     Generated by new atomic code, or converted to UPF format
     Using radial grid of  853 points,  6 beta functions with:
                l(1) =   0
                l(2) =   0
                l(3) =   1
                l(4) =   1
                l(5) =   2
                l(6) =   2
     Q(r) pseudized with  8 coefficients,  rinner =    1.100   1.100   1.100
                                                       1.100   1.100

     PseudoPot. # 2 for In read from file:
     /home/users/vossj/suncat/psp/gbrv1.5pbe/In.UPF
     MD5 check sum: 90777abd96fbb83f2e67db2a40c566b9
     Pseudo is Ultrasoft + core correction, Zval = 13.0
     Generated by new atomic code, or converted to UPF format
     Using radial grid of  889 points,  6 beta functions with:
                l(1) =   0
                l(2) =   0
                l(3) =   1
                l(4) =   1
                l(5) =   2
                l(6) =   2
     Q(r) pseudized with  6 coefficients,  rinner =    1.400   1.400   1.400
                                                       1.400   1.400

     vdW kernel table read from file vdW_kernel_table
     MD5 check sum: 095c7af220d748ca6e76c0b4c6cfb241

     atomic species   valence    mass     pseudopotential
        V1            13.00    50.94150     V ( 1.00)
        In1           13.00   114.82000     In( 1.00)

     16 Sym. Ops., with inversion, found

   Cartesian axes

     site n.     atom                  positions (alat units)
         1           V1  tau(   1) = (   0.0000000   0.0000000   0.0000000  )
         2           V1  tau(   2) = (   2.0379654   2.0379654   0.0000000  )
         3           In1 tau(   3) = (   2.0379654   0.0000000   2.1285793  )
         4           In1 tau(   4) = (   0.0000000   2.0379654   2.1285793  )

     number of k points=    75  Fermi-Dirac smearing, width (Ry)=  0.0073
                       cart. coord. in units 2pi/alat
        k(    1) = (   0.0000000   0.0000000   0.0000000), wk =   0.0027435
        k(    2) = (   0.0000000   0.0000000   0.0260998), wk =   0.0054870
        k(    3) = (   0.0000000   0.0000000   0.0521997), wk =   0.0054870
        k(    4) = (   0.0000000   0.0000000   0.0782995), wk =   0.0054870
        k(    5) = (   0.0000000   0.0000000   0.1043993), wk =   0.0054870
        k(    6) = (   0.0000000   0.0272603   0.0000000), wk =   0.0109739
        k(    7) = (   0.0000000   0.0272603   0.0260998), wk =   0.0219479
        k(    8) = (   0.0000000   0.0272603   0.0521997), wk =   0.0219479
        k(    9) = (   0.0000000   0.0272603   0.0782995), wk =   0.0219479
        k(   10) = (   0.0000000   0.0272603   0.1043993), wk =   0.0219479
        k(   11) = (   0.0000000   0.0545206   0.0000000), wk =   0.0109739
        k(   12) = (   0.0000000   0.0545206   0.0260998), wk =   0.0219479
        k(   13) = (   0.0000000   0.0545206   0.0521997), wk =   0.0219479
        k(   14) = (   0.0000000   0.0545206   0.0782995), wk =   0.0219479
        k(   15) = (   0.0000000   0.0545206   0.1043993), wk =   0.0219479
        k(   16) = (   0.0000000   0.0817809   0.0000000), wk =   0.0109739
        k(   17) = (   0.0000000   0.0817809   0.0260998), wk =   0.0219479
        k(   18) = (   0.0000000   0.0817809   0.0521997), wk =   0.0219479
        k(   19) = (   0.0000000   0.0817809   0.0782995), wk =   0.0219479
        k(   20) = (   0.0000000   0.0817809   0.1043993), wk =   0.0219479
        k(   21) = (   0.0000000   0.1090412   0.0000000), wk =   0.0109739
        k(   22) = (   0.0000000   0.1090412   0.0260998), wk =   0.0219479
        k(   23) = (   0.0000000   0.1090412   0.0521997), wk =   0.0219479
        k(   24) = (   0.0000000   0.1090412   0.0782995), wk =   0.0219479
        k(   25) = (   0.0000000   0.1090412   0.1043993), wk =   0.0219479
        k(   26) = (   0.0272603   0.0272603   0.0000000), wk =   0.0109739
        k(   27) = (   0.0272603   0.0272603   0.0260998), wk =   0.0219479
        k(   28) = (   0.0272603   0.0272603   0.0521997), wk =   0.0219479
        k(   29) = (   0.0272603   0.0272603   0.0782995), wk =   0.0219479
        k(   30) = (   0.0272603   0.0272603   0.1043993), wk =   0.0219479
        k(   31) = (   0.0272603   0.0545206   0.0000000), wk =   0.0219479
        k(   32) = (   0.0272603   0.0545206   0.0260998), wk =   0.0438957
        k(   33) = (   0.0272603   0.0545206   0.0521997), wk =   0.0438957
        k(   34) = (   0.0272603   0.0545206   0.0782995), wk =   0.0438957
        k(   35) = (   0.0272603   0.0545206   0.1043993), wk =   0.0438957
        k(   36) = (   0.0272603   0.0817809   0.0000000), wk =   0.0219479
        k(   37) = (   0.0272603   0.0817809   0.0260998), wk =   0.0438957
        k(   38) = (   0.0272603   0.0817809   0.0521997), wk =   0.0438957
        k(   39) = (   0.0272603   0.0817809   0.0782995), wk =   0.0438957
        k(   40) = (   0.0272603   0.0817809   0.1043993), wk =   0.0438957
        k(   41) = (   0.0272603   0.1090412   0.0000000), wk =   0.0219479
        k(   42) = (   0.0272603   0.1090412   0.0260998), wk =   0.0438957
        k(   43) = (   0.0272603   0.1090412   0.0521997), wk =   0.0438957
        k(   44) = (   0.0272603   0.1090412   0.0782995), wk =   0.0438957
        k(   45) = (   0.0272603   0.1090412   0.1043993), wk =   0.0438957
        k(   46) = (   0.0545206   0.0545206   0.0000000), wk =   0.0109739
        k(   47) = (   0.0545206   0.0545206   0.0260998), wk =   0.0219479
        k(   48) = (   0.0545206   0.0545206   0.0521997), wk =   0.0219479
        k(   49) = (   0.0545206   0.0545206   0.0782995), wk =   0.0219479
        k(   50) = (   0.0545206   0.0545206   0.1043993), wk =   0.0219479
        k(   51) = (   0.0545206   0.0817809   0.0000000), wk =   0.0219479
        k(   52) = (   0.0545206   0.0817809   0.0260998), wk =   0.0438957
        k(   53) = (   0.0545206   0.0817809   0.0521997), wk =   0.0438957
        k(   54) = (   0.0545206   0.0817809   0.0782995), wk =   0.0438957
        k(   55) = (   0.0545206   0.0817809   0.1043993), wk =   0.0438957
        k(   56) = (   0.0545206   0.1090412   0.0000000), wk =   0.0219479
        k(   57) = (   0.0545206   0.1090412   0.0260998), wk =   0.0438957
        k(   58) = (   0.0545206   0.1090412   0.0521997), wk =   0.0438957
        k(   59) = (   0.0545206   0.1090412   0.0782995), wk =   0.0438957
        k(   60) = (   0.0545206   0.1090412   0.1043993), wk =   0.0438957
        k(   61) = (   0.0817809   0.0817809   0.0000000), wk =   0.0109739
        k(   62) = (   0.0817809   0.0817809   0.0260998), wk =   0.0219479
        k(   63) = (   0.0817809   0.0817809   0.0521997), wk =   0.0219479
        k(   64) = (   0.0817809   0.0817809   0.0782995), wk =   0.0219479
        k(   65) = (   0.0817809   0.0817809   0.1043993), wk =   0.0219479
        k(   66) = (   0.0817809   0.1090412   0.0000000), wk =   0.0219479
        k(   67) = (   0.0817809   0.1090412   0.0260998), wk =   0.0438957
        k(   68) = (   0.0817809   0.1090412   0.0521997), wk =   0.0438957
        k(   69) = (   0.0817809   0.1090412   0.0782995), wk =   0.0438957
        k(   70) = (   0.0817809   0.1090412   0.1043993), wk =   0.0438957
        k(   71) = (   0.1090412   0.1090412   0.0000000), wk =   0.0109739
        k(   72) = (   0.1090412   0.1090412   0.0260998), wk =   0.0219479
        k(   73) = (   0.1090412   0.1090412   0.0521997), wk =   0.0219479
        k(   74) = (   0.1090412   0.1090412   0.0782995), wk =   0.0219479
        k(   75) = (   0.1090412   0.1090412   0.1043993), wk =   0.0219479

     Largest allocated arrays     est. size (Mb)     dimensions
     Largest temporary arrays     est. size (Mb)     dimensions

     Check: negative/imaginary core charge=   -0.000001    0.000000

     Initial potential from superposition of free atoms
     Check: negative starting charge=   -0.000921

     starting charge   48.99754, renormalised to   52.00000

     negative rho (up, down):  9.773E-04 0.000E+00

     *
     * You are using vdW-DF for exchange-correlation in this calculation.
     * Please cite the following three references that made this development
     * possible:
     *
     *   M. Dion, H. Rydberg, E. Schroder, D. C. Langreth, and
     *   B. I. Lundqvist, Phys. Rev. Lett. 92, 246401 (2004).
     *
     *   T. Thonhauser, V. R. Cooper, S. Li, A. Puzder, P. Hyldgaard, and
     *   D. C. Langreth, Phys. Rev. B 76, 125112 (2007).
     *
     *   G. Roman-Perez and J. M. Soler, Phys. Rev. Lett. 103, 096102 (2009).
     *
     *
     * If you are using vdW-DF2, please also cite:
     *
     *   K. Lee, E. D. Murray, L. Kong, B. I. Lundqvist, and
     *   D. C. Langreth, Phys. Rev. B 82, 081101(R) (2010).
     *
     *
     * If you are calculating the stress with vdW-DF, please also cite:
     *
     *   R. Sabatini, E. Kucukbenli, B. Kolb, T. Thonhauser, and
     *   S. de Gironcoli, J. Phys.: Condens. Matter 24, 424209 (2012).
     *

     Carrying out vdW-DF run using the following parameters:

     Nqs =      20    Nr_points =    1024   r_max =   100.000
     q_mesh =
               0.00001000     0.04494208     0.09755937     0.15916263
               0.23128650     0.31572767     0.41458969     0.53033537
               0.66584808     0.82450364     1.01025438     1.22772762
               1.48234092     1.78043706     2.12944203     2.53805004
               3.01644009     3.57652955     4.23227104     5.00000000

     Gradients computed in reciprocal space

     Starting wfc are   38 randomized atomic wfcs +    8 random wfc

     Self-consistent Calculation

     iteration #  1     ecut=    58.80 Ry     beta=0.10
     Davidson diagonalization with overlap
     ethr =  1.00E-02,  avg # of iterations =  4.7

[...]

     total energy              =    -561.73541190 Ry
     Harris-Foulkes estimate   =    -562.59761605 Ry
     estimated scf accuracy    <       5.30636952 Ry

[...]

     total energy              =    -561.08328043 Ry
     Harris-Foulkes estimate   =    -561.08327991 Ry
     estimated scf accuracy    <       0.00000111 Ry

     iteration # 15     ecut=    58.80 Ry     beta=0.10
     Davidson diagonalization with overlap
     ethr =  2.14E-09,  avg # of iterations =  1.8

     negative rho (up, down):  9.775E-04 0.000E+00

     End of self-consistent calculation

          k = 0.0000 0.0000 0.0000 (  3655 PWs)   bands (ev):

   -50.1754 -50.1276 -24.0519 -24.0339 -24.0339 -24.0026 -23.8332 -23.8332
    -1.2911  -1.0876  -0.8563  -0.7401  -0.7401  -0.3666  -0.3666  -0.3071
    -0.2575   0.0671   4.3215  11.2616  12.4412  12.9919  13.1080  13.4238
    13.4238  13.9349  13.9349  14.1637  15.3048  15.3048  16.0450  16.6180
    17.7695  18.9515  20.2053  20.6628  22.4647  22.4647  22.8614  22.8614
    23.7389  27.2824  27.4096  27.4096  27.5331  28.5435

[...]

          k = 0.1090 0.1090 0.1044 (  3631 PWs)   bands (ev):

   -50.1519 -50.1504 -24.0606 -24.0546 -24.0303 -24.0288 -23.8205 -23.8143
    -0.9893  -0.9572  -0.8265  -0.8166  -0.5841  -0.5590  -0.3430  -0.3315
    -0.2420  -0.2183   8.7253   9.1746  10.7710  11.1704  12.1827  12.5305
    13.0240  13.1778  14.7995  14.8118  15.0843  15.1185  15.3893  15.4021
    16.5851  16.6713  18.6272  18.8218  26.7691  26.7763  27.0951  27.1785
    27.3145  27.4965  28.6847  28.8523  29.1649  29.6048

     the Fermi energy is    14.3727 ev

!    total energy              =    -561.08328394 Ry
     Harris-Foulkes estimate   =    -561.08328055 Ry
     estimated scf accuracy    <       0.00000002 Ry

     The total energy is the sum of the following terms:

     one-electron contribution =    -163.69160979 Ry
     hartree contribution      =     118.52737396 Ry
     xc contribution           =    -119.32698840 Ry
     ewald contribution        =    -396.58241025 Ry
     smearing contrib. (-TS)   =      -0.00964947 Ry

     convergence has been achieved in  15 iterations

     Forces acting on atoms (Ry/au):

     negative rho (up, down):  9.775E-04 0.000E+00
     atom    1 type  1   force =     0.00000000    0.00000000    0.00000000
     atom    2 type  1   force =     0.00000000    0.00000000    0.00000000
     atom    3 type  2   force =     0.00000000    0.00000000    0.00000000
     atom    4 type  2   force =     0.00000000    0.00000000    0.00000000

     Total force =     0.000000     Total SCF correction =     0.000000

     General routines

     Parallel routines

   This run was terminated on:   7: 2: 0  15Nov2017

   JOB DONE.