     Program PWSCF v.5.1rc2 (svn rev. ) starts on 23Feb2018 at 21:16:38

     Current dimensions of program PWSCF are:
     Max number of different atomic species (ntypx) = 10
     Max number of k-points (npk) =  40000
     Max angular momentum in pseudopotentials (lmaxx) =  3
     Presently stress not available with electric field

     IMPORTANT: XC functional enforced from input :
     Exchange-correlation      = BEEF-VDW ( 1  4 27 13 2)
     Any further DFT definition will be discarded
     Please, verify this is what you really want

     Subspace diagonalization in iterative solution of the eigenvalue problem:
     a serial algorithm will be used

     Found symmetry operation: I + (  0.5000  0.5000  0.0000)
     This is a supercell, fractional translations are disabled

     bravais-lattice index     =            0
     lattice parameter (alat)  =       1.8897  a.u.
     unit-cell volume          =    7162.9713 (a.u.)^3
     number of atoms/cell      =           12
     number of atomic types    =            2
     number of electrons       =       162.00
     number of Kohn-Sham states=           91
     kinetic-energy cutoff     =      36.7493  Ry
     charge density cutoff     =     367.4932  Ry
     convergence threshold     =      1.0E-05
     mixing beta               =       0.3000
     number of iterations used =           10  plain     mixing
     Exchange-correlation      = BEEF-VDW ( 1  4 27 13 2)
     nstep                     =           50

     celldm(1)=   1.889726  celldm(2)=   0.000000  celldm(3)=   0.000000
     celldm(4)=   0.000000  celldm(5)=   0.000000  celldm(6)=   0.000000

     crystal axes: (cart. coord. in units of alat)
               a(1) = (   6.832172   0.000000   0.000000 )
               a(2) = (   3.154071   6.060562   0.000000 )
               a(3) = (   0.000000   0.000000  25.634506 )

     reciprocal axes: (cart. coord. in units 2 pi/alat)
               b(1) = (  0.146366 -0.076173 -0.000000 )
               b(2) = (  0.000000  0.165001 -0.000000 )
               b(3) = (  0.000000  0.000000  0.039010 )

     PseudoPot. # 1 for Cd read from file:
     /home/mamunm/src/pseudo/gbrv1.5pbe/Cd.UPF
     MD5 check sum: 17164a7926edb8e0dc231208abae86a6
     Pseudo is Ultrasoft + core correction, Zval = 12.0
     Generated by new atomic code, or converted to UPF format
     Using radial grid of  889 points,  6 beta functions with:
                l(1) =   0
                l(2) =   0
                l(3) =   1
                l(4) =   1
                l(5) =   2
                l(6) =   2
     Q(r) pseudized with  6 coefficients,  rinner =    1.000   1.000   1.000
                                                       1.000   1.000

     PseudoPot. # 2 for Bi read from file:
     /home/mamunm/src/pseudo/gbrv1.5pbe/Bi.UPF
     MD5 check sum: 81103212dc04adf40945787f699eab19
     Pseudo is Ultrasoft + core correction, Zval = 15.0
     Generated by new atomic code, or converted to UPF format
     Using radial grid of  899 points,  6 beta functions with:
                l(1) =   0
                l(2) =   0
                l(3) =   1
                l(4) =   1
                l(5) =   2
                l(6) =   2
     Q(r) pseudized with  6 coefficients,  rinner =    1.000   1.000   1.000
                                                       1.000   1.000

     vdW kernel table read from file vdW_kernel_table
     MD5 check sum: 095c7af220d748ca6e76c0b4c6cfb241

     atomic species   valence    mass     pseudopotential
        Cd1           12.00   112.41400     Cd( 1.00)
        Bi1           15.00   208.98040     Bi( 1.00)

     No symmetry found

   Cartesian axes

     site n.     atom                  positions (alat units)
         1           Cd1 tau(   1) = (   0.0000000   0.0000000  10.0000000  )
         2           Bi1 tau(   2) = (   1.5770357   3.0302808  10.0000000  )
         3           Bi1 tau(   3) = (   3.4160860   0.0000000  10.0000000  )
         4           Cd1 tau(   4) = (   4.9931217   3.0302808  10.0000000  )
         5           Cd1 tau(   5) = (   6.8321719   4.1463839  12.8172532  )
         6           Bi1 tau(   6) = (   5.2551362   1.1161031  12.8172532  )
         7           Bi1 tau(   7) = (   3.4160860   4.1463839  12.8172532  )
         8           Cd1 tau(   8) = (   1.8390503   1.1161031  12.8172532  )
         9           Cd1 tau(   9) = (   3.6781005   2.2322062  15.6345064  )
        10           Bi1 tau(  10) = (   5.2551362   5.2624870  15.6345064  )
        11           Bi1 tau(  11) = (   7.0941865   2.2322062  15.6345064  )
        12           Cd1 tau(  12) = (   8.6712222   5.2624870  15.6345064  )

     number of k points=    20  Fermi-Dirac smearing, width (Ry)=  0.0110
                       cart. coord. in units 2pi/alat
        k(    1) = (   0.0000000   0.0000000   0.0000000), wk =   0.0555556
        k(    2) = (   0.0000000   0.0275002  -0.0000000), wk =   0.1111111
        k(    3) = (   0.0000000   0.0550004  -0.0000000), wk =   0.1111111
        k(    4) = (   0.0000000  -0.0825006   0.0000000), wk =   0.0555556
        k(    5) = (   0.0243944  -0.0126955  -0.0000000), wk =   0.1111111
        k(    6) = (   0.0243944   0.0148047  -0.0000000), wk =   0.1111111
        k(    7) = (   0.0243944   0.0423049  -0.0000000), wk =   0.1111111
        k(    8) = (   0.0243944  -0.0951961   0.0000000), wk =   0.1111111
        k(    9) = (   0.0243944  -0.0676959   0.0000000), wk =   0.1111111
        k(   10) = (   0.0243944  -0.0401957  -0.0000000), wk =   0.1111111
        k(   11) = (   0.0487888  -0.0253909  -0.0000000), wk =   0.1111111
        k(   12) = (   0.0487888   0.0021093  -0.0000000), wk =   0.1111111
        k(   13) = (   0.0487888   0.0296095  -0.0000000), wk =   0.1111111
        k(   14) = (   0.0487888  -0.1078915   0.0000000), wk =   0.1111111
        k(   15) = (   0.0487888  -0.0803913  -0.0000000), wk =   0.1111111
        k(   16) = (   0.0487888  -0.0528911  -0.0000000), wk =   0.1111111
        k(   17) = (  -0.0731832   0.0380864   0.0000000), wk =   0.0555556
        k(   18) = (  -0.0731832   0.0655866   0.0000000), wk =   0.1111111
        k(   19) = (  -0.0731832   0.0930868   0.0000000), wk =   0.1111111
        k(   20) = (  -0.0731832  -0.0444142   0.0000000), wk =   0.0555556

     Largest allocated arrays     est. size (Mb)     dimensions
     Largest temporary arrays     est. size (Mb)     dimensions

     Initial potential from superposition of free atoms
     Check: negative starting charge=   -0.383297

     starting charge  152.99950, renormalised to  162.00000

     negative rho (up, down):  4.058E-01 0.000E+00

     *
     * You are using vdW-DF for exchange-correlation in this calculation.
     * Please cite the following three references that made this development
     * possible:
     *
     *   M. Dion, H. Rydberg, E. Schroder, D. C. Langreth, and
     *   B. I. Lundqvist, Phys. Rev. Lett. 92, 246401 (2004).
     *
     *   T. Thonhauser, V. R. Cooper, S. Li, A. Puzder, P. Hyldgaard, and
     *   D. C. Langreth, Phys. Rev. B 76, 125112 (2007).
     *
     *   G. Roman-Perez and J. M. Soler, Phys. Rev. Lett. 103, 096102 (2009).
     *
     *
     * If you are using vdW-DF2, please also cite:
     *
     *   K. Lee, E. D. Murray, L. Kong, B. I. Lundqvist, and
     *   D. C. Langreth, Phys. Rev. B 82, 081101(R) (2010).
     *
     *
     * If you are calculating the stress with vdW-DF, please also cite:
     *
     *   R. Sabatini, E. Kucukbenli, B. Kolb, T. Thonhauser, and
     *   S. de Gironcoli, J. Phys.: Condens. Matter 24, 424209 (2012).
     *

     Carrying out vdW-DF run using the following parameters:

     Nqs =      20    Nr_points =    1024   r_max =   100.000
     q_mesh =
               0.00001000     0.04494208     0.09755937     0.15916263
               0.23128650     0.31572767     0.41458969     0.53033537
               0.66584808     0.82450364     1.01025438     1.22772762
               1.48234092     1.78043706     2.12944203     2.53805004
               3.01644009     3.57652955     4.23227104     5.00000000

     Gradients computed in reciprocal space

     Adding external electric field

     Computed dipole along edir(3) :
        Dipole               -0.0000 Ry au,         -0.0000 Debye
        Dipole field         -0.0000 Ry au

        Potential amp.        0.0000 Ry
        Total length         47.2311 bohr

     Starting wfc are  108 randomized atomic wfcs

     Self-consistent Calculation

     iteration #  1     ecut=    36.75 Ry     beta=0.30
     Davidson diagonalization with overlap
     ethr =  1.00E-02,  avg # of iterations =  3.3

[...]

     total energy              =   -1819.17243044 Ry
     Harris-Foulkes estimate   =   -1821.16430835 Ry
     estimated scf accuracy    <       4.41100971 Ry

[...]

     End of self-consistent calculation

          k = 0.0000 0.0000 0.0000 ( 26929 PWs)   bands (ev):

   -22.9494 -22.9185 -22.8951 -22.8867 -22.8805 -22.8799 -22.8728 -22.8688
   -22.8670 -22.8582 -22.8301 -22.8232 -22.8221 -22.8047 -22.8039 -22.8002
   -22.7856 -22.7849 -22.7730 -22.7727 -22.7716 -22.7711 -22.7709 -22.7686
   -22.7680 -22.7678 -22.7602 -22.7578 -22.7425 -22.7372 -11.4527 -10.8128
   -10.4349 -10.1871  -9.6960  -9.4983  -8.5602  -8.4288  -8.4018  -8.3923
    -8.3908  -8.3509  -8.3361  -8.3067  -8.2913  -8.2908  -8.2785  -8.2745
    -8.2427  -8.1897  -8.1879  -8.1597  -8.1593  -8.1270  -8.1269  -8.1060
    -8.1038  -8.1007  -8.0959  -8.0861  -8.0213  -8.0111  -7.9941  -7.9867
    -7.9779  -7.9230  -3.6095  -3.5158  -3.3319  -3.2484  -2.9909  -2.7620
    -2.1919  -2.1246  -1.9692  -1.8734  -1.4833  -1.2682  -1.0257  -0.7230
    -0.0827   0.1039   0.6529   0.8021   1.1647   1.6336   2.4803   2.6309
     3.1746   3.3290   3.3496

[...]

          k =-0.0732 0.0381 0.0000 ( 26926 PWs)   bands (ev):

[...]

     the Fermi energy is     0.4792 ev

!    total energy              =   -1819.42841817 Ry
     Harris-Foulkes estimate   =   -1819.42841300 Ry
     estimated scf accuracy    <       0.00000813 Ry

     The total energy is the sum of the following terms:

     one-electron contribution =   -8845.31926148 Ry
     hartree contribution      =    4494.13039444 Ry
     xc contribution           =    -643.85609957 Ry
     ewald contribution        =    3175.65868181 Ry
     electric field correction =       0.00000016 Ry
     smearing contrib. (-TS)   =      -0.04213354 Ry

     convergence has been achieved in   9 iterations

 BEEF-vdW xc energy contributions
           1 :   -570.323176255040
           2 :    526.603491221375
           3 :   -451.100250184825
           4 :    362.590536776792
           5 :   -279.436582571923
           6 :    213.589049438537
           7 :   -168.146155401895
           8 :    138.872018747279
           9 :   -118.258931516890
          10 :    99.7986711650852
          11 :   -80.5063698990723
          12 :    61.0038128504066
          13 :   -43.8242420595002
          14 :    31.2920575676155
          15 :   -24.1533545711732
          16 :    21.3970207261117
          17 :   -20.9830078716111
          18 :    20.8547264267432
          19 :   -19.7071607198047
          20 :    17.2773439856289
          21 :   -14.1894661685756
          22 :    11.5096713495223
          23 :   -10.1943252790711
          24 :    10.6175111180950
          25 :   -12.3603922732780
          26 :    14.3791736152900
          27 :   -15.5127140979556
          28 :    15.0911989715637
          29 :   -13.3081561506779
          30 :    11.1176531251360
          31 :   -47.6144587139324
          32 :   -34.8234045527441

     Forces acting on atoms (Ry/au):

     negative rho (up, down):  3.983E-01 0.000E+00
     atom    1 type  1   force =     0.00247926    0.00150531   -0.00612562
     atom    2 type  2   force =     0.00031256    0.00021112    0.00825161
     atom    3 type  2   force =     0.00033313    0.00017203    0.00825927
     atom    4 type  1   force =     0.00247617    0.00150269   -0.00608090
     atom    5 type  1   force =     0.00005698    0.00004251   -0.00043869
     atom    6 type  2   force =     0.00002370    0.00001529    0.00016983
     atom    7 type  2   force =     0.00004724    0.00002463    0.00016579
     atom    8 type  1   force =     0.00004574    0.00004740   -0.00042512
     atom    9 type  1   force =    -0.00240486   -0.00145166    0.00598300
     atom   10 type  2   force =    -0.00046452   -0.00030035   -0.00788192
     atom   11 type  2   force =    -0.00048870   -0.00029588   -0.00787021
     atom   12 type  1   force =    -0.00241669   -0.00147310    0.00599299

     Total force =     0.014571     Total SCF correction =     0.009249
     SCF correction compared to forces is large: reduce conv_thr to get better values

     entering subroutine stress ...

     negative rho (up, down):  3.983E-01 0.000E+00
          total   stress  (Ry/bohr**3)                   (kbar)     P=   -5.86
  -0.00005396  -0.00000969  -0.00000871         -7.94     -1.42     -1.28
  -0.00000969  -0.00004388  -0.00000529         -1.42     -6.45     -0.78
  -0.00000871  -0.00000529  -0.00002163         -1.28     -0.78     -3.18

     BFGS Geometry Optimization

     number of scf cycles    =   1
     number of bfgs steps    =   0

     energy   new            =   -1819.4284181724 Ry

     new trust radius        =       0.0079013076 bohr
     new conv_thr            =       0.0000099958 Ry

ATOMIC_POSITIONS (crystal)
Cd1      0.000000000  -0.000000000   0.390099184    0   0   0
Bi1      0.000000000   0.500000000   0.390099184    0   0   0
Bi1      0.500000000  -0.000000000   0.390099184    0   0   0
Cd1      0.500000000   0.500000000   0.390099184    0   0   0
Cd1      0.684158366   0.684158366   0.500000000    0   0   0
Bi1      0.684158366   0.184158366   0.500000000    0   0   0
Bi1      0.184158366   0.684158366   0.500000000    0   0   0
Cd1      0.184158366   0.184158366   0.500000000    0   0   0
Cd1      0.368188982   0.368189981   0.610024324
Bi1      0.368292860   0.868290507   0.609738109
Bi1      0.868290807   0.368290898   0.609738350
Cd1      0.868188929   0.868188109   0.610024531

     Writing output data file calc.save
     Check: negative starting charge=   -0.383297
     NEW-OLD atomic charge density approx. for the potential
     Check: negative starting charge=   -0.383619

[...]

     Threshold (ethr) on eigenvalues was too large:
     Diagonalizing with lowered threshold

     Davidson diagonalization with overlap
     ethr =  2.88E-08,  avg # of iterations =  2.4

[...]

     energy   old            =   -1819.4284181723 Ry
     energy   new            =   -1819.4286233478 Ry

     CASE: energy  _new < energy  _old

     WARNING: bfgs curvature condition failed, Theta= 0.958
     new trust radius        =       0.0086914384 bohr
     new conv_thr            =       0.0000001000 Ry

[...]

     Total force =     0.014076     Total SCF correction =     0.000442

[...]

     Threshold (ethr) on eigenvalues was too large:
     Diagonalizing with lowered threshold

     Davidson diagonalization with overlap
     ethr =  6.42E-08,  avg # of iterations =  1.9

[...]

     WARNING: bfgs curvature condition failed, Theta= 0.872
     new trust radius        =       0.0679064102 bohr
     new conv_thr            =       0.0000001000 Ry

[...]

     iteration #  1     ecut=    36.75 Ry     beta=0.30
     Davidson diagonalization with overlap
     c_bands:  1 eigenvalues not converged
     c_bands:  1 eigenvalues not converged
     ethr =  1.00E-06,  avg # of iterations = 10.9

[...]

     Total force =     0.004180     Total SCF correction =     0.000318

[...]

     number of scf cycles    =  35
     number of bfgs steps    =  34

     energy   old            =   -1819.4333085876 Ry
     energy   new            =   -1819.4335165466 Ry

     CASE: energy  _new < energy  _old

     new trust radius        =       0.1127316051 bohr
     new conv_thr            =       0.0000001000 Ry

ATOMIC_POSITIONS (crystal)
Cd1     -0.000000000  -0.000000000   0.390099184    0   0   0
Bi1      0.000000000   0.500000000   0.390099184    0   0   0
Bi1      0.500000000  -0.000000000   0.390099184    0   0   0
Cd1      0.500000000   0.500000000   0.390099184    0   0   0
Cd1      0.684158366   0.684158366   0.500000000    0   0   0
Bi1      0.684158366   0.184158366   0.500000000    0   0   0
Bi1      0.184158366   0.684158366   0.500000000    0   0   0
Cd1      0.184158366   0.184158366   0.500000000    0   0   0
Cd1      0.341280878   0.340880566   0.615371840
Bi1      0.336535323   0.835715236   0.607049211
Bi1      0.835639213   0.337376213   0.606970250
Cd1      0.841430326   0.841647971   0.615225214

     Writing output data file calc.save
     Check: negative starting charge=   -0.383257
     NEW-OLD atomic charge density approx. for the potential
     Check: negative starting charge=   -0.380560

[...]

     Self-consistent Calculation

[...]

     total energy              =   -1819.43363959 Ry
     Harris-Foulkes estimate   =   -1819.43363966 Ry
     estimated scf accuracy    <       0.00000012 Ry

     iteration #  9     ecut=    36.75 Ry     beta=0.30
     Davidson diagonalization with overlap
     ethr =  7.67E-11,  avg # of iterations =  3.9

[...]

     negative rho (up, down):  3.955E-01 0.000E+00

     Adding external electric field

     Computed dipole along edir(3) :
        Dipole                0.0364 Ry au,          0.0924 Debye
        Dipole field          0.0001 Ry au

        Potential amp.       -0.0060 Ry
        Total length         47.2311 bohr

     End of self-consistent calculation

[...]

          k = 0.0488-0.0529-0.0000 ( 26983 PWs)   bands (ev):

[...]

          k =-0.0732-0.0444 0.0000 ( 26910 PWs)   bands (ev):

   -22.9349 -22.8898 -22.8871 -22.8746 -22.8545 -22.8518 -22.8484 -22.8418
   -22.8374 -22.8288 -22.8267 -22.8031 -22.7994 -22.7916 -22.7832 -22.7790
   -22.7729 -22.7707 -22.7684 -22.7630 -22.7609 -22.7549 -22.7462 -22.7339
   -22.7304 -22.7279 -22.7271 -22.7208 -22.7140 -22.6964 -11.3129 -10.7475
   -10.2474 -10.2367  -9.6438  -8.9956  -8.5524  -8.5177  -8.4266  -8.4249
    -8.4018  -8.3979  -8.3439  -8.3329  -8.3070  -8.2967  -8.2849  -8.2844
    -8.2518  -8.2455  -8.1944  -8.1870  -8.1826  -8.1707  -8.1471  -8.1425
    -8.1278  -8.1274  -8.1123  -8.0970  -8.0863  -8.0829  -8.0689  -8.0445
    -7.9966  -7.9534  -5.1806  -4.3596  -4.1088  -3.9079  -3.2899  -1.9268
    -1.2152  -1.1547  -0.8172  -0.4764  -0.2548   0.3333   0.6278   0.6304
     0.7317   1.1380   1.4457   1.7358   1.7750   2.0077   2.3043   2.4281
     2.7253   2.8642   2.9879

     the Fermi energy is     0.4933 ev

!    total energy              =   -1819.43363950 Ry
     Harris-Foulkes estimate   =   -1819.43363972 Ry
     estimated scf accuracy    <       0.00000002 Ry

     The total energy is the sum of the following terms:

     one-electron contribution =   -8819.32540460 Ry
     hartree contribution      =    4481.20058710 Ry
     xc contribution           =    -643.87154359 Ry
     ewald contribution        =    3162.60331463 Ry
     electric field correction =       0.00000232 Ry
     smearing contrib. (-TS)   =      -0.04059536 Ry

     convergence has been achieved in   9 iterations

 BEEF-vdW xc energy contributions
           1 :   -570.336474250928
           2 :    526.607191610778
           3 :   -451.094365597736
           4 :    362.582107333941
           5 :   -279.428410532396
           6 :    213.572335727046
           7 :   -168.105594390295
           8 :    138.800598948391
           9 :   -118.170110910644
          10 :    99.7240921823061
          11 :   -80.4780280623706
          12 :    61.0323269440441
          13 :   -43.8892204647814
          14 :    31.3529807338761
          15 :   -24.1747975265550
          16 :    21.3711353329619
          17 :   -20.9338769893536
          18 :    20.8217966669657
          19 :   -19.7189318086629
          20 :    17.3330843034033
          21 :   -14.2611488976336
          22 :    11.5618131169783
          23 :   -10.2067997639018
          24 :    10.5952778002002
          25 :   -12.3254382459879
          26 :    14.3534677073748
          27 :   -15.5054842884331
          28 :    15.0978436011416
          29 :   -13.3182989352724
          30 :    11.1237946412432
          31 :   -47.6151631461380
          32 :   -34.8207980675814

     Forces acting on atoms (Ry/au):

     negative rho (up, down):  3.955E-01 0.000E+00
     atom    1 type  1   force =     0.00187690    0.00114894   -0.00418137
     atom    2 type  2   force =    -0.00132910   -0.00078638    0.00498811
     atom    3 type  2   force =    -0.00124602   -0.00080045    0.00501690
     atom    4 type  1   force =     0.00189366    0.00114197   -0.00417681
     atom    5 type  1   force =     0.00218241    0.00133842   -0.00136458
     atom    6 type  2   force =    -0.00238386   -0.00141137    0.00131198
     atom    7 type  2   force =    -0.00223602   -0.00143118    0.00137948
     atom    8 type  1   force =     0.00216036    0.00130061   -0.00123753
     atom    9 type  1   force =    -0.00143962   -0.00089307   -0.00082515
     atom   10 type  2   force =     0.00087406    0.00062125   -0.00009095
     atom   11 type  2   force =     0.00099037    0.00055781   -0.00011249
     atom   12 type  1   force =    -0.00134313   -0.00078656   -0.00070758

     Total force =     0.002990     Total SCF correction =     0.000304
     SCF correction compared to forces is large: reduce conv_thr to get better values

     entering subroutine stress ...

     negative rho (up, down):  3.955E-01 0.000E+00
          total   stress  (Ry/bohr**3)                   (kbar)     P=   -7.15
  -0.00006545  -0.00000634  -0.00000164         -9.63     -0.93     -0.24
  -0.00000634  -0.00005887  -0.00000093         -0.93     -8.66     -0.14
  -0.00000164  -0.00000093  -0.00002159         -0.24     -0.14     -3.18

     bfgs converged in  36 scf cycles and  35 bfgs steps
     (criteria: energy <  1.0E+00, force <  1.9E-03)

     End of BFGS Geometry Optimization

     Final energy   =   -1819.4336394984 Ry
Begin final coordinates

ATOMIC_POSITIONS (crystal)
Cd1     -0.000000000  -0.000000000   0.390099184    0   0   0
Bi1      0.000000000   0.500000000   0.390099184    0   0   0
Bi1      0.500000000  -0.000000000   0.390099184    0   0   0
Cd1      0.500000000   0.500000000   0.390099184    0   0   0
Cd1      0.684158366   0.684158366   0.500000000    0   0   0
Bi1      0.684158366   0.184158366   0.500000000    0   0   0
Bi1      0.184158366   0.684158366   0.500000000    0   0   0
Cd1      0.184158366   0.184158366   0.500000000    0   0   0
Cd1      0.341280878   0.340880566   0.615371840
Bi1      0.336535323   0.835715236   0.607049211
Bi1      0.835639213   0.337376213   0.606970250
Cd1      0.841430326   0.841647971   0.615225214
End final coordinates

     Writing output data file calc.save

     General routines

     Parallel routines

   This run was terminated on:  23:26:21  23Feb2018

   JOB DONE.