     Program PWSCF v.5.1rc2 (svn rev. ) starts on 23Feb2018 at 21:30: 6

     Current dimensions of program PWSCF are:
     Max number of different atomic species (ntypx) = 10
     Max number of k-points (npk) =  40000
     Max angular momentum in pseudopotentials (lmaxx) =  3
     Presently stress not available with electric field

     IMPORTANT: XC functional enforced from input :
     Exchange-correlation      = BEEF-VDW ( 1  4 27 13 2)
     Any further DFT definition will be discarded
     Please, verify this is what you really want

     Subspace diagonalization in iterative solution of the eigenvalue problem:
     a serial algorithm will be used

     Found symmetry operation: I + ( -0.5000 -0.5000  0.0000)
     This is a supercell, fractional translations are disabled

     bravais-lattice index     =            0
     lattice parameter (alat)  =       1.8897  a.u.
     unit-cell volume          =    6636.1142 (a.u.)^3
     number of atoms/cell      =           12
     number of atomic types    =            2
     number of electrons       =       156.00
     number of Kohn-Sham states=           88
     kinetic-energy cutoff     =      36.7493  Ry
     charge density cutoff     =     367.4932  Ry
     convergence threshold     =      1.0E-05
     mixing beta               =       0.3000
     number of iterations used =           10  plain     mixing
     Exchange-correlation      = BEEF-VDW ( 1  4 27 13 2)
     nstep                     =           50

     celldm(1)=   1.889726  celldm(2)=   0.000000  celldm(3)=   0.000000
     celldm(4)=   0.000000  celldm(5)=   0.000000  celldm(6)=   0.000000

     crystal axes: (cart. coord. in units of alat)
               a(1) = (   6.474333   0.000000   0.000000 )
               a(2) = (   2.452648   5.991786   0.000000 )
               a(3) = (  -0.000000   0.000000  25.349298 )

     reciprocal axes: (cart. coord. in units 2 pi/alat)
               b(1) = (  0.154456 -0.063224  0.000000 )
               b(2) = (  0.000000  0.166895 -0.000000 )
               b(3) = (  0.000000  0.000000  0.039449 )

     PseudoPot. # 1 for Sc read from file:
     /home/mamunm/src/pseudo/gbrv1.5pbe/Sc.UPF
     MD5 check sum: db30a2753ba66ef00f23801d899b7e7f
     Pseudo is Ultrasoft + core correction, Zval = 11.0
     Generated by new atomic code, or converted to UPF format
     Using radial grid of  849 points,  6 beta functions with:
                l(1) =   0
                l(2) =   0
                l(3) =   1
                l(4) =   1
                l(5) =   2
                l(6) =   2
     Q(r) pseudized with  6 coefficients,  rinner =    1.200   1.200   1.200
                                                       1.200   1.200

     PseudoPot. # 2 for Bi read from file:
     /home/mamunm/src/pseudo/gbrv1.5pbe/Bi.UPF
     MD5 check sum: 81103212dc04adf40945787f699eab19
     Pseudo is Ultrasoft + core correction, Zval = 15.0
     Generated by new atomic code, or converted to UPF format
     Using radial grid of  899 points,  6 beta functions with:
                l(1) =   0
                l(2) =   0
                l(3) =   1
                l(4) =   1
                l(5) =   2
                l(6) =   2
     Q(r) pseudized with  6 coefficients,  rinner =    1.000   1.000   1.000
                                                       1.000   1.000

     vdW kernel table read from file vdW_kernel_table
     MD5 check sum: 095c7af220d748ca6e76c0b4c6cfb241

     atomic species   valence    mass     pseudopotential
        Sc1           11.00    44.95591     Sc( 1.00)
        Bi1           15.00   208.98040     Bi( 1.00)

     No symmetry found

   Cartesian axes

     site n.     atom                  positions (alat units)
         1           Sc1 tau(   1) = (  -0.0000000   0.0000000  10.0000000  )
         2           Bi1 tau(   2) = (   1.2263238   2.9958931  10.0000000  )
         3           Bi1 tau(   3) = (   3.2371663   0.0000000  10.0000000  )
         4           Sc1 tau(   4) = (   4.4634901   2.9958931  10.0000000  )
         5           Sc1 tau(   5) = (   6.4743325   4.3455699  12.6746491  )
         6           Bi1 tau(   6) = (   5.2480087   1.3496768  12.6746491  )
         7           Bi1 tau(   7) = (   3.2371663   4.3455699  12.6746491  )
         8           Sc1 tau(   8) = (   2.0108425   1.3496768  12.6746491  )
         9           Sc1 tau(   9) = (   4.0216850   2.6993537  15.3492982  )
        10           Bi1 tau(  10) = (   5.2480087   5.6952467  15.3492982  )
        11           Bi1 tau(  11) = (   7.2588512   2.6993537  15.3492982  )
        12           Sc1 tau(  12) = (   8.4851750   5.6952467  15.3492982  )

     number of k points=    20  Fermi-Dirac smearing, width (Ry)=  0.0110
                       cart. coord. in units 2pi/alat
        k(    1) = (   0.0000000   0.0000000   0.0000000), wk =   0.0555556
        k(    2) = (   0.0000000   0.0278159  -0.0000000), wk =   0.1111111
        k(    3) = (   0.0000000   0.0556317  -0.0000000), wk =   0.1111111
        k(    4) = (   0.0000000  -0.0834476   0.0000000), wk =   0.0555556
        k(    5) = (   0.0257427  -0.0105374   0.0000000), wk =   0.1111111
        k(    6) = (   0.0257427   0.0172785   0.0000000), wk =   0.1111111
        k(    7) = (   0.0257427   0.0450943   0.0000000), wk =   0.1111111
        k(    8) = (   0.0257427  -0.0939849   0.0000000), wk =   0.1111111
        k(    9) = (   0.0257427  -0.0661691   0.0000000), wk =   0.1111111
        k(   10) = (   0.0257427  -0.0383532   0.0000000), wk =   0.1111111
        k(   11) = (   0.0514854  -0.0210748   0.0000000), wk =   0.1111111
        k(   12) = (   0.0514854   0.0067411   0.0000000), wk =   0.1111111
        k(   13) = (   0.0514854   0.0345570   0.0000000), wk =   0.1111111
        k(   14) = (   0.0514854  -0.1045223   0.0000000), wk =   0.1111111
        k(   15) = (   0.0514854  -0.0767065   0.0000000), wk =   0.1111111
        k(   16) = (   0.0514854  -0.0488906   0.0000000), wk =   0.1111111
        k(   17) = (  -0.0772280   0.0316121  -0.0000000), wk =   0.0555556
        k(   18) = (  -0.0772280   0.0594280  -0.0000000), wk =   0.1111111
        k(   19) = (  -0.0772280   0.0872438  -0.0000000), wk =   0.1111111
        k(   20) = (  -0.0772280  -0.0518354  -0.0000000), wk =   0.0555556

     Largest allocated arrays     est. size (Mb)     dimensions
     Largest temporary arrays     est. size (Mb)     dimensions

     Check: negative/imaginary core charge=   -0.000001    0.000000

     Initial potential from superposition of free atoms
     Check: negative starting charge=   -0.250908

     starting charge  149.98534, renormalised to  156.00000

     negative rho (up, down):  2.610E-01 0.000E+00

     *
     * You are using vdW-DF for exchange-correlation in this calculation.
     * Please cite the following three references that made this development
     * possible:
     *
     *   M. Dion, H. Rydberg, E. Schroder, D. C. Langreth, and
     *   B. I. Lundqvist, Phys. Rev. Lett. 92, 246401 (2004).
     *
     *   T. Thonhauser, V. R. Cooper, S. Li, A. Puzder, P. Hyldgaard, and
     *   D. C. Langreth, Phys. Rev. B 76, 125112 (2007).
     *
     *   G. Roman-Perez and J. M. Soler, Phys. Rev. Lett. 103, 096102 (2009).
     *
     *
     * If you are using vdW-DF2, please also cite:
     *
     *   K. Lee, E. D. Murray, L. Kong, B. I. Lundqvist, and
     *   D. C. Langreth, Phys. Rev. B 82, 081101(R) (2010).
     *
     *
     * If you are calculating the stress with vdW-DF, please also cite:
     *
     *   R. Sabatini, E. Kucukbenli, B. Kolb, T. Thonhauser, and
     *   S. de Gironcoli, J. Phys.: Condens. Matter 24, 424209 (2012).
     *

     Carrying out vdW-DF run using the following parameters:

     Nqs =      20    Nr_points =    1024   r_max =   100.000
     q_mesh =
               0.00001000     0.04494208     0.09755937     0.15916263
               0.23128650     0.31572767     0.41458969     0.53033537
               0.66584808     0.82450364     1.01025438     1.22772762
               1.48234092     1.78043706     2.12944203     2.53805004
               3.01644009     3.57652955     4.23227104     5.00000000

     Gradients computed in reciprocal space

     Adding external electric field

     Computed dipole along edir(3) :
        Dipole               -0.0000 Ry au,         -0.0000 Debye
        Dipole field         -0.0000 Ry au

        Potential amp.        0.0000 Ry
        Total length         46.7057 bohr

     Starting wfc are  132 randomized atomic wfcs

     Self-consistent Calculation

     iteration #  1     ecut=    36.75 Ry     beta=0.30
     Davidson diagonalization with overlap
     ethr =  1.00E-02,  avg # of iterations =  3.0

[...]

     total energy              =   -1691.96319557 Ry
     Harris-Foulkes estimate   =   -1693.27536283 Ry
     estimated scf accuracy    <       3.06620309 Ry

[...]

     End of self-consistent calculation

          k = 0.0000 0.0000 0.0000 ( 24923 PWs)   bands (ev):

   -49.5321 -49.5313 -49.5259 -49.5253 -49.0015 -48.9962 -28.2224 -28.2212
   -28.2143 -28.2139 -28.0783 -28.0774 -28.0704 -28.0696 -28.0582 -28.0574
   -27.9849 -27.9845 -27.6352 -27.6344 -27.6265 -27.5581 -27.5502 -27.5418
   -21.7992 -21.7857 -21.7598 -21.7513 -21.7437 -21.7397 -21.7276 -21.7264
   -21.7246 -21.6818 -21.6693 -21.6661 -21.6422 -21.6418 -21.6299 -21.6268
   -21.6092 -21.6087 -21.5967 -21.5957 -21.5744 -21.5730 -21.5704 -21.5700
   -21.5613 -21.5565 -21.5561 -21.5476 -21.5472 -21.5462 -10.7144  -9.9102
    -9.3802  -9.1597  -8.7744  -8.6638  -2.8262  -2.4408  -2.1883  -2.0413
    -2.0005  -1.7995  -1.4966  -1.3144  -0.9931  -0.5088  -0.3590   0.0226
     0.4760   0.5598   0.6181   0.8369   1.2364   1.2650   1.3003   1.3475
     1.8212   1.8323   1.9104   1.9158   1.9530   2.0250   2.1485   2.2308

[...]

          k =-0.0772 0.0316-0.0000 ( 24974 PWs)   bands (ev):

[...]

     the Fermi energy is     1.2371 ev

!    total energy              =   -1692.21411104 Ry
     Harris-Foulkes estimate   =   -1692.21411333 Ry
     estimated scf accuracy    <       0.00000475 Ry

     The total energy is the sum of the following terms:

     one-electron contribution =   -8998.03101070 Ry
     hartree contribution      =    4518.32613986 Ry
     xc contribution           =    -482.96158691 Ry
     ewald contribution        =    3270.53229046 Ry
     electric field correction =       0.00000004 Ry
     smearing contrib. (-TS)   =      -0.07994378 Ry

     convergence has been achieved in  14 iterations

 BEEF-vdW xc energy contributions
           1 :   -427.093625086516
           2 :    393.650528073417
           3 :   -336.360797727689
           4 :    269.753638327889
           5 :   -207.192383954562
           6 :    156.743291167146
           7 :   -120.405937100873
           8 :    95.8587527517957
           9 :   -78.9666045866718
          10 :    65.7349515395194
          11 :   -53.3369290964428
          12 :    40.4576835891503
          13 :   -27.2849109721084
          14 :    15.2077912353648
          15 :   -6.10952298710657
          16 :    1.32190568670427
          17 :  -0.728772419143695
          18 :    2.64027109980248
          19 :   -4.63410730039993
          20 :    4.85827080113086
          21 :   -2.94029146738762
          22 :  -5.549319359073479E-002
          23 :    2.49589027689245
          24 :   -3.22515032141263
          25 :    2.13057273391644
          26 :  -2.207926221274192E-003
          27 :   -2.05163695050607
          28 :    3.18215908436042
          29 :   -3.09008882119730
          30 :    2.02145878090766
          31 :   -36.7003878044982
          32 :   -26.8740839355758

     Forces acting on atoms (Ry/au):

     negative rho (up, down):  2.725E-01 0.000E+00
     atom    1 type  1   force =     0.00082968    0.00055945    0.02042866
     atom    2 type  2   force =    -0.00738111   -0.00517232   -0.01662219
     atom    3 type  2   force =    -0.00758496   -0.00487271   -0.01662203
     atom    4 type  1   force =     0.00076829    0.00051768    0.02056541
     atom    5 type  1   force =    -0.00012731   -0.00008494    0.00009302
     atom    6 type  2   force =    -0.00023075    0.00039113   -0.00039184
     atom    7 type  2   force =     0.00027338   -0.00036878   -0.00039961
     atom    8 type  1   force =     0.00007175    0.00005186    0.00014338
     atom    9 type  1   force =    -0.00084523   -0.00056596   -0.02002543
     atom   10 type  2   force =     0.00741377    0.00521987    0.01656120
     atom   11 type  2   force =     0.00764380    0.00488032    0.01655732
     atom   12 type  1   force =    -0.00083131   -0.00055562   -0.02028789

     Total force =     0.039084     Total SCF correction =     0.001281

     entering subroutine stress ...

     negative rho (up, down):  2.725E-01 0.000E+00
          total   stress  (Ry/bohr**3)                   (kbar)     P=  -10.49
  -0.00010160  -0.00001298   0.00002037        -14.95     -1.91      3.00
  -0.00001298  -0.00009097   0.00001367         -1.91    -13.38      2.01
   0.00002037   0.00001367  -0.00002144          3.00      2.01     -3.15

     BFGS Geometry Optimization

     number of scf cycles    =   1
     number of bfgs steps    =   0

     energy   new            =   -1692.2141110370 Ry

     new trust radius        =       0.0203125183 bohr
     new conv_thr            =       0.0000099958 Ry

ATOMIC_POSITIONS (crystal)
Sc1     -0.000000000   0.000000000   0.394488238    0   0   0
Bi1      0.000000000   0.500000000   0.394488238    0   0   0
Bi1      0.500000000   0.000000000   0.394488238    0   0   0
Sc1      0.500000000   0.500000000   0.394488238    0   0   0
Sc1      0.725254504   0.725254504   0.500000000    0   0   0
Bi1      0.725254504   0.225254504   0.500000000    0   0   0
Bi1      0.225254504   0.725254504   0.500000000    0   0   0
Sc1      0.225254504   0.225254504   0.500000000    0   0   0
Sc1      0.450458859   0.450459025   0.605093722
Bi1      0.450940330   0.950970012   0.605857484
Bi1      0.950970492   0.450940024   0.605857403
Sc1      0.950459651   0.950459938   0.605088243

     Writing output data file calc.save
     Check: negative starting charge=   -0.250908
     NEW-OLD atomic charge density approx. for the potential

     Check: negative/imaginary core charge=   -0.000001    0.000000
     Check: negative starting charge=   -0.250395

[...]

     Total force =     0.036590     Total SCF correction =     0.006088
     SCF correction compared to forces is large: reduce conv_thr to get better values

[...]

     energy   old            =   -1692.2141110371 Ry
     energy   new            =   -1692.2156001022 Ry

     CASE: energy  _new < energy  _old

     WARNING: bfgs curvature condition failed, Theta= 0.856
     new trust radius        =       0.0304687775 bohr
     new conv_thr            =       0.0000001000 Ry

[...]

     iteration #  1     ecut=    36.75 Ry     beta=0.30
     Davidson diagonalization with overlap
     c_bands:  1 eigenvalues not converged
     ethr =  1.00E-06,  avg # of iterations = 15.2

[...]

     iteration #  1     ecut=    36.75 Ry     beta=0.30
     Davidson diagonalization with overlap
     c_bands:  1 eigenvalues not converged
     ethr =  1.00E-06,  avg # of iterations = 15.0

[...]

     WARNING: bfgs curvature condition failed, Theta= 0.890
     new trust radius        =       0.0071485491 bohr
     new conv_thr            =       0.0000001000 Ry

[...]

     Threshold (ethr) on eigenvalues was too large:
     Diagonalizing with lowered threshold

     Davidson diagonalization with overlap
     ethr =  9.14E-08,  avg # of iterations =  1.2

[...]

     Threshold (ethr) on eigenvalues was too large:
     Diagonalizing with lowered threshold

     Davidson diagonalization with overlap
     ethr =  6.97E-08,  avg # of iterations =  2.0

[...]

     Total force =     0.005371     Total SCF correction =     0.000510

[...]

     number of scf cycles    =  20
     number of bfgs steps    =  19

     energy   old            =   -1692.2313247204 Ry
     energy   new            =   -1692.2314354957 Ry

     CASE: energy  _new < energy  _old

     new trust radius        =       0.0175407938 bohr
     new conv_thr            =       0.0000001000 Ry

ATOMIC_POSITIONS (crystal)
Sc1     -0.000000000   0.000000000   0.394488238    0   0   0
Bi1      0.000000000   0.500000000   0.394488238    0   0   0
Bi1      0.500000000   0.000000000   0.394488238    0   0   0
Sc1      0.500000000   0.500000000   0.394488238    0   0   0
Sc1      0.725254504   0.725254504   0.500000000    0   0   0
Bi1      0.725254504   0.225254504   0.500000000    0   0   0
Bi1      0.225254504   0.725254504   0.500000000    0   0   0
Sc1      0.225254504   0.225254504   0.500000000    0   0   0
Sc1      0.471790241   0.471787673   0.598475669
Bi1      0.472795760   0.973156524   0.614234554
Bi1      0.973156407   0.472794776   0.614235333
Sc1      0.971926203   0.971923327   0.598492125

     Writing output data file calc.save
     Check: negative starting charge=   -0.250358
     NEW-OLD atomic charge density approx. for the potential

     Check: negative/imaginary core charge=   -0.000001    0.000000
     Check: negative starting charge=   -0.250728

[...]

     Self-consistent Calculation

[...]

     total energy              =   -1692.23149065 Ry
     Harris-Foulkes estimate   =   -1692.23149072 Ry
     estimated scf accuracy    <       0.00000031 Ry

     iteration # 10     ecut=    36.75 Ry     beta=0.30
     Davidson diagonalization with overlap
     ethr =  2.00E-10,  avg # of iterations =  6.5

[...]

     negative rho (up, down):  2.725E-01 0.000E+00

     Adding external electric field

     Computed dipole along edir(3) :
        Dipole               -0.1324 Ry au,         -0.3366 Debye
        Dipole field         -0.0003 Ry au

        Potential amp.        0.0234 Ry
        Total length         46.7057 bohr

     End of self-consistent calculation

[...]

          k = 0.0515-0.0489 0.0000 ( 24978 PWs)   bands (ev):

[...]

          k =-0.0772-0.0518-0.0000 ( 25022 PWs)   bands (ev):

   -49.6631 -49.6580 -49.5606 -49.5555 -49.1729 -49.1675 -28.3581 -28.3509
   -28.2316 -28.2239 -28.2060 -28.1976 -28.1909 -28.1213 -28.1173 -28.1129
   -28.1119 -28.0367 -27.8067 -27.7936 -27.7849 -27.7304 -27.7185 -27.7110
   -21.8795 -21.8583 -21.8477 -21.8279 -21.8196 -21.8193 -21.8169 -21.8043
   -21.8013 -21.7679 -21.7663 -21.7428 -21.7334 -21.7318 -21.7127 -21.7030
   -21.6930 -21.6873 -21.6770 -21.6728 -21.6630 -21.6620 -21.6602 -21.6573
   -21.6520 -21.6368 -21.6188 -21.6116 -21.6085 -21.6067 -10.2783  -9.8579
    -9.7177  -9.4928  -8.7742  -8.3684  -3.7862  -3.6558  -3.3604  -2.7005
    -2.3800  -2.3640  -1.8452  -1.5497  -0.9855  -0.9146  -0.3264  -0.0292
     0.2563   0.4164   0.9901   1.0833   1.1207   1.1588   1.2446   1.2860
     1.4313   1.7065   1.7096   1.8291   1.9015   1.9045   2.0688   2.4312

     the Fermi energy is     1.1150 ev

!    total energy              =   -1692.23149062 Ry
     Harris-Foulkes estimate   =   -1692.23149050 Ry
     estimated scf accuracy    <       0.00000008 Ry

     The total energy is the sum of the following terms:

     one-electron contribution =   -8927.21856082 Ry
     hartree contribution      =    4482.39487091 Ry
     xc contribution           =    -482.93206152 Ry
     ewald contribution        =    3235.60133328 Ry
     electric field correction =       0.00003321 Ry
     smearing contrib. (-TS)   =      -0.07710570 Ry

     convergence has been achieved in  10 iterations

 BEEF-vdW xc energy contributions
           1 :   -427.062221012012
           2 :    393.594944598960
           3 :   -336.279432059103
           4 :    269.667818501291
           5 :   -207.130361325158
           6 :    156.720006704451
           7 :   -120.410711778192
           8 :    95.8636359981726
           9 :   -78.9510651935967
          10 :    65.7026152170186
          11 :   -53.3077728361025
          12 :    40.4474368925140
          13 :   -27.2958608803681
          14 :    15.2367528913226
          15 :   -6.15619843212136
          16 :    1.38375381205907
          17 :  -0.790065887560502
          18 :    2.67379017739125
          19 :   -4.62084978321997
          20 :    4.80915970412383
          21 :   -2.89725866466040
          22 :  -4.646576201230346E-002
          23 :    2.42092532233346
          24 :   -3.11610192392931
          25 :    2.04187212680546
          26 :   2.959115365706566E-002
          27 :   -2.03022900098466
          28 :    3.13914695181774
          29 :   -3.05468233303236
          30 :    2.00223001343960
          31 :   -36.6978081462336
          32 :   -26.8650003483377

     Forces acting on atoms (Ry/au):

     negative rho (up, down):  2.725E-01 0.000E+00
     atom    1 type  1   force =     0.00105401    0.00070756    0.02190241
     atom    2 type  2   force =    -0.00888661   -0.00602023   -0.01688602
     atom    3 type  2   force =    -0.00893811   -0.00594390   -0.01688576
     atom    4 type  1   force =     0.00104331    0.00070036    0.02190269
     atom    5 type  1   force =     0.00112712    0.00075647    0.00716024
     atom    6 type  2   force =     0.00633478    0.00416829   -0.00875906
     atom    7 type  2   force =     0.00625734    0.00428294   -0.00875869
     atom    8 type  1   force =     0.00113866    0.00076447    0.00712620
     atom    9 type  1   force =     0.00076359    0.00051288   -0.00149888
     atom   10 type  2   force =    -0.00016006   -0.00032163   -0.00188066
     atom   11 type  2   force =    -0.00035715   -0.00002558   -0.00188147
     atom   12 type  1   force =     0.00062311    0.00041838   -0.00154100

     Total force =     0.003656     Total SCF correction =     0.000568
     SCF correction compared to forces is large: reduce conv_thr to get better values

     entering subroutine stress ...

     negative rho (up, down):  2.725E-01 0.000E+00
          total   stress  (Ry/bohr**3)                   (kbar)     P=  -11.33
  -0.00011083  -0.00001566   0.00001262        -16.30     -2.30      1.86
  -0.00001566  -0.00009800   0.00000847         -2.30    -14.42      1.25
   0.00001262   0.00000847  -0.00002219          1.86      1.25     -3.26

     bfgs converged in  21 scf cycles and  20 bfgs steps
     (criteria: energy <  1.0E+00, force <  1.9E-03)

     End of BFGS Geometry Optimization

     Final energy   =   -1692.2314906235 Ry
Begin final coordinates

ATOMIC_POSITIONS (crystal)
Sc1     -0.000000000   0.000000000   0.394488238    0   0   0
Bi1      0.000000000   0.500000000   0.394488238    0   0   0
Bi1      0.500000000   0.000000000   0.394488238    0   0   0
Sc1      0.500000000   0.500000000   0.394488238    0   0   0
Sc1      0.725254504   0.725254504   0.500000000    0   0   0
Bi1      0.725254504   0.225254504   0.500000000    0   0   0
Bi1      0.225254504   0.725254504   0.500000000    0   0   0
Sc1      0.225254504   0.225254504   0.500000000    0   0   0
Sc1      0.471790241   0.471787673   0.598475669
Bi1      0.472795760   0.973156524   0.614234554
Bi1      0.973156407   0.472794776   0.614235333
Sc1      0.971926203   0.971923327   0.598492125
End final coordinates

     Writing output data file calc.save

     General routines

     Parallel routines

   This run was terminated on:  23:15:27  23Feb2018

   JOB DONE.