     Program PWSCF v.5.1rc2 (svn rev. ) starts on 23Feb2018 at 21:36:48

     Current dimensions of program PWSCF are:
     Max number of different atomic species (ntypx) = 10
     Max number of k-points (npk) =  40000
     Max angular momentum in pseudopotentials (lmaxx) =  3
     Presently stress not available with electric field

     IMPORTANT: XC functional enforced from input :
     Exchange-correlation      = BEEF-VDW ( 1  4 27 13 2)
     Any further DFT definition will be discarded
     Please, verify this is what you really want

     Subspace diagonalization in iterative solution of the eigenvalue problem:
     a serial algorithm will be used

     Found symmetry operation: I + ( -0.5000  0.5000  0.0000)
     This is a supercell, fractional translations are disabled

     bravais-lattice index     =            0
     lattice parameter (alat)  =       1.8897  a.u.
     unit-cell volume          =    8297.3469 (a.u.)^3
     number of atoms/cell      =           12
     number of atomic types    =            2
     number of electrons       =       156.00
     number of Kohn-Sham states=           88
     kinetic-energy cutoff     =      36.7493  Ry
     charge density cutoff     =     367.4932  Ry
     convergence threshold     =      1.0E-05
     mixing beta               =       0.3000
     number of iterations used =           10  plain     mixing
     Exchange-correlation      = BEEF-VDW ( 1  4 27 13 2)
     nstep                     =           50

     celldm(1)=   1.889726  celldm(2)=   0.000000  celldm(3)=   0.000000
     celldm(4)=   0.000000  celldm(5)=   0.000000  celldm(6)=   0.000000

     crystal axes: (cart. coord. in units of alat)
               a(1) = (   7.060923   0.000000   0.000000 )
               a(2) = (   1.761296   6.837725   0.000000 )
               a(3) = (  -0.000000   0.000000  25.466516 )

     reciprocal axes: (cart. coord. in units 2 pi/alat)
               b(1) = (  0.141625 -0.036480  0.000000 )
               b(2) = (  0.000000  0.146247  0.000000 )
               b(3) = (  0.000000  0.000000  0.039267 )

     PseudoPot. # 1 for La read from file:
     /home/mamunm/src/pseudo/gbrv1.5pbe/La.UPF
     MD5 check sum: 5937b0c7494ba0601a847275249473aa
     Pseudo is Ultrasoft + core correction, Zval = 11.0
     Generated by new atomic code, or converted to UPF format
     Using radial grid of  995 points,  8 beta functions with:
                l(1) =   0
                l(2) =   0
                l(3) =   1
                l(4) =   1
                l(5) =   2
                l(6) =   2
                l(7) =   3
                l(8) =   3
     Q(r) pseudized with  8 coefficients,  rinner =    1.700   1.700   1.700
                                                       1.700   1.700   1.700
                                                       1.700

     PseudoPot. # 2 for Bi read from file:
     /home/mamunm/src/pseudo/gbrv1.5pbe/Bi.UPF
     MD5 check sum: 81103212dc04adf40945787f699eab19
     Pseudo is Ultrasoft + core correction, Zval = 15.0
     Generated by new atomic code, or converted to UPF format
     Using radial grid of  899 points,  6 beta functions with:
                l(1) =   0
                l(2) =   0
                l(3) =   1
                l(4) =   1
                l(5) =   2
                l(6) =   2
     Q(r) pseudized with  6 coefficients,  rinner =    1.000   1.000   1.000
                                                       1.000   1.000

     vdW kernel table read from file vdW_kernel_table
     MD5 check sum: 095c7af220d748ca6e76c0b4c6cfb241

     atomic species   valence    mass     pseudopotential
        La1           11.00   138.90547     La( 1.00)
        Bi1           15.00   208.98040     Bi( 1.00)

     No symmetry found

   Cartesian axes

     site n.     atom                  positions (alat units)
         1           La1 tau(   1) = (  -0.0000000   0.0000000  10.0000000  )
         2           Bi1 tau(   2) = (   0.8806480   3.4188623  10.0000000  )
         3           Bi1 tau(   3) = (   3.5304617   0.0000000  10.0000000  )
         4           La1 tau(   4) = (   4.4111097   3.4188623  10.0000000  )
         5           La1 tau(   5) = (   7.0609235   5.4726194  12.7332582  )
         6           Bi1 tau(   6) = (   6.1802755   2.0537572  12.7332582  )
         7           Bi1 tau(   7) = (   3.5304617   5.4726194  12.7332582  )
         8           La1 tau(   8) = (   2.6498137   2.0537572  12.7332582  )
         9           La1 tau(   9) = (   5.2996275   4.1075143  15.4665165  )
        10           Bi1 tau(  10) = (   4.4189795   0.6886521  15.4665165  )
        11           Bi1 tau(  11) = (   1.7691658   4.1075143  15.4665165  )
        12           La1 tau(  12) = (   0.8885178   0.6886521  15.4665165  )

     number of k points=    20  Fermi-Dirac smearing, width (Ry)=  0.0110
                       cart. coord. in units 2pi/alat
        k(    1) = (   0.0000000   0.0000000   0.0000000), wk =   0.0555556
        k(    2) = (   0.0000000   0.0243746   0.0000000), wk =   0.1111111
        k(    3) = (   0.0000000   0.0487492   0.0000000), wk =   0.1111111
        k(    4) = (   0.0000000  -0.0731237   0.0000000), wk =   0.0555556
        k(    5) = (   0.0236041  -0.0060801   0.0000000), wk =   0.1111111
        k(    6) = (   0.0236041   0.0182945   0.0000000), wk =   0.1111111
        k(    7) = (   0.0236041   0.0426691   0.0000000), wk =   0.1111111
        k(    8) = (   0.0236041  -0.0792038   0.0000000), wk =   0.1111111
        k(    9) = (   0.0236041  -0.0548292   0.0000000), wk =   0.1111111
        k(   10) = (   0.0236041  -0.0304546   0.0000000), wk =   0.1111111
        k(   11) = (   0.0472082  -0.0121601   0.0000000), wk =   0.1111111
        k(   12) = (   0.0472082   0.0122145   0.0000000), wk =   0.1111111
        k(   13) = (   0.0472082   0.0365890   0.0000000), wk =   0.1111111
        k(   14) = (   0.0472082  -0.0852839   0.0000000), wk =   0.1111111
        k(   15) = (   0.0472082  -0.0609093   0.0000000), wk =   0.1111111
        k(   16) = (   0.0472082  -0.0365347   0.0000000), wk =   0.1111111
        k(   17) = (  -0.0708123   0.0182402  -0.0000000), wk =   0.0555556
        k(   18) = (  -0.0708123   0.0426148  -0.0000000), wk =   0.1111111
        k(   19) = (  -0.0708123   0.0669893  -0.0000000), wk =   0.1111111
        k(   20) = (  -0.0708123  -0.0548836  -0.0000000), wk =   0.0555556

     Largest allocated arrays     est. size (Mb)     dimensions
     Largest temporary arrays     est. size (Mb)     dimensions

     Initial potential from superposition of free atoms
     Check: negative starting charge=   -0.676325

     starting charge  149.80734, renormalised to  156.00000

     negative rho (up, down):  7.043E-01 0.000E+00

     *
     * You are using vdW-DF for exchange-correlation in this calculation.
     * Please cite the following three references that made this development
     * possible:
     *
     *   M. Dion, H. Rydberg, E. Schroder, D. C. Langreth, and
     *   B. I. Lundqvist, Phys. Rev. Lett. 92, 246401 (2004).
     *
     *   T. Thonhauser, V. R. Cooper, S. Li, A. Puzder, P. Hyldgaard, and
     *   D. C. Langreth, Phys. Rev. B 76, 125112 (2007).
     *
     *   G. Roman-Perez and J. M. Soler, Phys. Rev. Lett. 103, 096102 (2009).
     *
     *
     * If you are using vdW-DF2, please also cite:
     *
     *   K. Lee, E. D. Murray, L. Kong, B. I. Lundqvist, and
     *   D. C. Langreth, Phys. Rev. B 82, 081101(R) (2010).
     *
     *
     * If you are calculating the stress with vdW-DF, please also cite:
     *
     *   R. Sabatini, E. Kucukbenli, B. Kolb, T. Thonhauser, and
     *   S. de Gironcoli, J. Phys.: Condens. Matter 24, 424209 (2012).
     *

     Carrying out vdW-DF run using the following parameters:

     Nqs =      20    Nr_points =    1024   r_max =   100.000
     q_mesh =
               0.00001000     0.04494208     0.09755937     0.15916263
               0.23128650     0.31572767     0.41458969     0.53033537
               0.66584808     0.82450364     1.01025438     1.22772762
               1.48234092     1.78043706     2.12944203     2.53805004
               3.01644009     3.57652955     4.23227104     5.00000000

     Gradients computed in reciprocal space

     Adding external electric field

     Computed dipole along edir(3) :
        Dipole                0.0000 Ry au,          0.0000 Debye
        Dipole field          0.0000 Ry au

        Potential amp.       -0.0000 Ry
        Total length         46.9216 bohr

     Starting wfc are  174 randomized atomic wfcs

     Self-consistent Calculation

     iteration #  1     ecut=    36.75 Ry     beta=0.30
     Davidson diagonalization with overlap
     ethr =  1.00E-02,  avg # of iterations =  2.0

[...]

     total energy              =   -1747.38340467 Ry
     Harris-Foulkes estimate   =   -1748.55762066 Ry
     estimated scf accuracy    <       2.67558261 Ry

[...]

     iteration #  5     ecut=    36.75 Ry     beta=0.30
     Davidson diagonalization with overlap
     c_bands:  1 eigenvalues not converged
     ethr =  3.50E-05,  avg # of iterations = 16.4

[...]

     End of self-consistent calculation

          k = 0.0000 0.0000 0.0000 ( 31207 PWs)   bands (ev):

   -32.2547 -32.2513 -32.2427 -32.2406 -31.6304 -31.6195 -21.3455 -21.3407
   -21.3402 -21.3363 -21.3362 -21.3356 -21.2629 -21.2590 -21.2413 -21.2291
   -20.8919 -20.8895 -20.8884 -20.8862 -20.8842 -20.8812 -20.8797 -20.8780
   -20.8766 -20.8759 -20.8726 -20.8725 -20.8347 -20.8323 -20.8311 -20.8299
   -20.8149 -20.8138 -20.8028 -20.8018 -16.0579 -16.0517 -15.9359 -15.8832
   -15.8818 -15.8803 -15.8332 -15.8244 -15.7703 -15.7589 -15.6825 -15.6701
   -15.3861 -15.2822 -15.2285 -15.1500 -15.0583 -15.0097  -9.5282  -9.1121
    -8.6593  -8.4049  -8.3705  -8.2723  -1.1552  -1.0072  -0.9777  -0.7035
    -0.4583  -0.4196  -0.3365  -0.0391   0.0689   0.3291   0.5825   0.6540
     0.7823   0.9197   1.1343   1.2738   1.4579   1.6172   1.6278   1.8323
     1.9882   2.0480   2.1182   2.2715   2.3856   2.4706   2.5800   2.6228

[...]

          k =-0.0708 0.0182-0.0000 ( 31226 PWs)   bands (ev):

[...]

     the Fermi energy is     1.6236 ev

!    total energy              =   -1747.75503301 Ry
     Harris-Foulkes estimate   =   -1747.75503542 Ry
     estimated scf accuracy    <       0.00000846 Ry

     The total energy is the sum of the following terms:

     one-electron contribution =   -7094.96640159 Ry
     hartree contribution      =    3581.62492734 Ry
     xc contribution           =    -704.12442801 Ry
     ewald contribution        =    2469.77628326 Ry
     electric field correction =       0.00000023 Ry
     smearing contrib. (-TS)   =      -0.06541425 Ry

     convergence has been achieved in  12 iterations

 BEEF-vdW xc energy contributions
           1 :   -626.291545837779
           2 :    579.594743555638
           3 :   -497.066636167829
           4 :    396.360478999443
           5 :   -296.071385359635
           6 :    210.634314207527
           7 :   -147.495159597872
           8 :    106.872358768251
           9 :   -83.6359813772876
          10 :    70.3180677970910
          11 :   -60.0647368933077
          12 :    48.5519420189551
          13 :   -34.5023176612438
          14 :    19.0452992550232
          15 :   -4.47929952012146
          16 :   -7.00322879061173
          17 :    14.2033892247587
          18 :   -17.2087116032169
          19 :    17.1213602246387
          20 :   -15.4556078778282
          21 :    13.5137602488870
          22 :   -12.0055810648025
          23 :    11.0258654386132
          24 :   -10.3233075067008
          25 :    9.65418797957989
          26 :   -9.00510251332116
          27 :    8.57732159947909
          28 :   -8.58660663559249
          29 :    9.03791542353758
          30 :   -9.64102304919447
          31 :   -51.2543384026490
          32 :   -37.2658427880642

     Forces acting on atoms (Ry/au):

     negative rho (up, down):  5.360E-01 0.000E+00
     atom    1 type  1   force =     0.00447953    0.00346280    0.00206805
     atom    2 type  2   force =    -0.00213723   -0.00063138   -0.01026807
     atom    3 type  2   force =    -0.00114546   -0.00191675   -0.01027108
     atom    4 type  1   force =     0.00417286    0.00323509    0.00233354
     atom    5 type  1   force =    -0.00002723   -0.00002479    0.00049217
     atom    6 type  2   force =     0.00015853   -0.00006841   -0.00051920
     atom    7 type  2   force =    -0.00001294    0.00016694   -0.00052153
     atom    8 type  1   force =    -0.00007130   -0.00005458    0.00051648
     atom    9 type  1   force =    -0.00443055   -0.00342600   -0.00137667
     atom   10 type  2   force =     0.00211189    0.00055945    0.00961177
     atom   11 type  2   force =     0.00105778    0.00192330    0.00961232
     atom   12 type  1   force =    -0.00415587   -0.00322568   -0.00167779

     Total force =     0.016066     Total SCF correction =     0.004012
     SCF correction compared to forces is large: reduce conv_thr to get better values

     entering subroutine stress ...

     negative rho (up, down):  5.360E-01 0.000E+00
          total   stress  (Ry/bohr**3)                   (kbar)     P=   -7.00
  -0.00009038  -0.00004186  -0.00000794        -13.29     -6.16     -1.17
  -0.00004186  -0.00006881  -0.00000616         -6.16    -10.12     -0.91
  -0.00000794  -0.00000616   0.00001649         -1.17     -0.91      2.43

     BFGS Geometry Optimization

     number of scf cycles    =   1
     number of bfgs steps    =   0

     energy   new            =   -1747.7550330130 Ry

     new trust radius        =       0.0098597513 bohr
     new conv_thr            =       0.0000099958 Ry

ATOMIC_POSITIONS (crystal)
La1      0.000000000   0.000000000   0.392672473    0   0   0
Bi1     -0.000000000   0.500000000   0.392672473    0   0   0
Bi1      0.500000000   0.000000000   0.392672473    0   0   0
La1      0.500000000   0.500000000   0.392672473    0   0   0
La1      0.800356817   0.800356817   0.500000000    0   0   0
Bi1      0.800356817   0.300356817   0.500000000    0   0   0
Bi1      0.300356817   0.800356817   0.500000000    0   0   0
La1      0.300356817   0.300356817   0.500000000    0   0   0
La1      0.600447726   0.600448493   0.607298921
Bi1      0.600861108   0.100756930   0.607527253
Bi1      0.100755780   0.600862480   0.607527265
La1      0.100464445   0.100463995   0.607292664

     Writing output data file calc.save
     Check: negative starting charge=   -0.676325
     NEW-OLD atomic charge density approx. for the potential
     Check: negative starting charge=   -0.676771

[...]

     energy   old            =   -1747.7550330130 Ry
     energy   new            =   -1747.7552959399 Ry

     CASE: energy  _new < energy  _old

     WARNING: bfgs curvature condition failed, Theta= 0.835
     new trust radius        =       0.0147896270 bohr
     new conv_thr            =       0.0000001000 Ry

[...]

     Total force =     0.014879     Total SCF correction =     0.000276

[...]

     Total force =     0.003972     Total SCF correction =     0.000372

[...]

     number of scf cycles    =  21
     number of bfgs steps    =  20

     energy   old            =   -1747.7595263487 Ry
     energy   new            =   -1747.7595565296 Ry

     CASE: energy  _new < energy  _old

     new trust radius        =       0.0223235009 bohr
     new conv_thr            =       0.0000001000 Ry

ATOMIC_POSITIONS (crystal)
La1     -0.000000000   0.000000000   0.392672473    0   0   0
Bi1     -0.000000000   0.500000000   0.392672473    0   0   0
Bi1      0.500000000   0.000000000   0.392672473    0   0   0
La1      0.500000000   0.500000000   0.392672473    0   0   0
La1      0.800356817   0.800356817   0.500000000    0   0   0
Bi1      0.800356817   0.300356817   0.500000000    0   0   0
Bi1      0.300356817   0.800356817   0.500000000    0   0   0
La1      0.300356817   0.300356817   0.500000000    0   0   0
La1      0.582619905   0.582647830   0.608351187
Bi1      0.585739271   0.084199451   0.614571676
Bi1      0.084180620   0.585757187   0.614572335
La1      0.082702232   0.082710344   0.608351535

     Writing output data file calc.save
     Check: negative starting charge=   -0.676184
     NEW-OLD atomic charge density approx. for the potential
     Check: negative starting charge=   -0.677075

[...]

     Self-consistent Calculation

[...]

     iteration #  3     ecut=    36.75 Ry     beta=0.30
     Davidson diagonalization with overlap
     c_bands:  1 eigenvalues not converged
     c_bands:  1 eigenvalues not converged
     c_bands:  1 eigenvalues not converged
     c_bands:  3 eigenvalues not converged
     c_bands:  1 eigenvalues not converged
     c_bands:  1 eigenvalues not converged
     c_bands:  2 eigenvalues not converged
     c_bands:  1 eigenvalues not converged
     c_bands:  1 eigenvalues not converged
     c_bands:  1 eigenvalues not converged
     c_bands:  2 eigenvalues not converged
     c_bands:  1 eigenvalues not converged
     c_bands:  1 eigenvalues not converged
     c_bands:  1 eigenvalues not converged
     c_bands:  1 eigenvalues not converged
     c_bands:  1 eigenvalues not converged
     ethr =  1.62E-06,  avg # of iterations = 19.6

[...]

     total energy              =   -1747.75958986 Ry
     Harris-Foulkes estimate   =   -1747.75958989 Ry
     estimated scf accuracy    <       0.00000019 Ry

     iteration # 10     ecut=    36.75 Ry     beta=0.30
     Davidson diagonalization with overlap
     ethr =  1.23E-10,  avg # of iterations =  4.9

[...]

     negative rho (up, down):  5.376E-01 0.000E+00

     Adding external electric field

     Computed dipole along edir(3) :
        Dipole               -0.0982 Ry au,         -0.2497 Debye
        Dipole field         -0.0001 Ry au

        Potential amp.        0.0140 Ry
        Total length         46.9216 bohr

     End of self-consistent calculation

[...]

          k = 0.0472-0.0365 0.0000 ( 31233 PWs)   bands (ev):

[...]

          k =-0.0708-0.0549-0.0000 ( 31264 PWs)   bands (ev):

   -32.3412 -32.3317 -32.3278 -32.3182 -31.8041 -31.7918 -21.3335 -21.3297
   -21.3289 -21.3271 -21.3235 -21.3209 -21.2746 -21.2671 -21.2472 -21.2356
   -20.9805 -20.9768 -20.9724 -20.9667 -20.9619 -20.9604 -20.9258 -20.9181
   -20.8994 -20.8885 -20.8862 -20.8816 -20.8771 -20.8718 -20.8581 -20.8569
   -20.8431 -20.8355 -20.8158 -20.8062 -16.1690 -16.0757 -15.9938 -15.9932
   -15.9744 -15.9726 -15.9600 -15.8760 -15.8539 -15.7910 -15.7477 -15.7335
   -15.5275 -15.4225 -15.3757 -15.2988 -15.2167 -15.2109  -9.0370  -8.9329
    -8.5387  -8.3288  -8.3237  -8.0608  -2.1734  -2.1264  -1.9536  -1.6105
    -1.4079  -1.2178  -1.1502  -1.0351  -0.6484  -0.0085   0.1106   0.1781
     0.3532   0.6865   0.7214   0.9797   1.2261   1.5585   1.7798   1.8714
     1.9267   2.1910   2.3461   2.5195   2.5719   2.5913   2.5967   2.6040

     the Fermi energy is     1.5234 ev

!    total energy              =   -1747.75958987 Ry
     Harris-Foulkes estimate   =   -1747.75958988 Ry
     estimated scf accuracy    <       0.00000004 Ry

     The total energy is the sum of the following terms:

     one-electron contribution =   -6977.20860292 Ry
     hartree contribution      =    3522.36919844 Ry
     xc contribution           =    -704.02985782 Ry
     ewald contribution        =    2411.17604305 Ry
     electric field correction =       0.00001461 Ry
     smearing contrib. (-TS)   =      -0.06638523 Ry

     convergence has been achieved in  10 iterations

 BEEF-vdW xc energy contributions
           1 :   -626.193128374996
           2 :    579.444657999081
           3 :   -496.858216954156
           4 :    396.140536260222
           5 :   -295.912201404704
           6 :    210.591137767301
           7 :   -147.571716540070
           8 :    107.015856330411
           9 :   -83.7690282182946
          10 :    70.3872744731584
          11 :   -60.0690854818018
          12 :    48.5322053935981
          13 :   -34.5054808415049
          14 :    19.0920852010578
          15 :   -4.55353147350661
          16 :   -6.94051758761441
          17 :    14.1857088821216
          18 :   -17.2412388435200
          19 :    17.1792471839658
          20 :   -15.5017823626108
          21 :    13.5211639830334
          22 :   -11.9699711959454
          23 :    10.9645110495745
          24 :   -10.2628488745288
          25 :    9.61586503870672
          26 :   -8.99665459670950
          27 :    8.59489675209488
          28 :   -8.62169827932087
          29 :    9.08269526439926
          30 :   -9.68925362184473
          31 :   -51.2454370552258
          32 :   -37.2445001632130

     Forces acting on atoms (Ry/au):

     negative rho (up, down):  5.376E-01 0.000E+00
     atom    1 type  1   force =     0.00546619    0.00423561    0.00009695
     atom    2 type  2   force =     0.00034407    0.00028240   -0.01183397
     atom    3 type  2   force =     0.00035889    0.00026305   -0.01183418
     atom    4 type  1   force =     0.00543538    0.00421194    0.00008894
     atom    5 type  1   force =    -0.00208442   -0.00161495    0.00967162
     atom    6 type  2   force =    -0.00334848   -0.00270067    0.00415242
     atom    7 type  2   force =    -0.00345407   -0.00256656    0.00415071
     atom    8 type  1   force =    -0.00212478   -0.00164623    0.00990597
     atom    9 type  1   force =     0.00001133    0.00000104   -0.00165813
     atom   10 type  2   force =    -0.00108987    0.00019682   -0.00056974
     atom   11 type  2   force =    -0.00008149   -0.00110830   -0.00057103
     atom   12 type  1   force =     0.00056725    0.00044586   -0.00159955

     Total force =     0.002990     Total SCF correction =     0.000574
     SCF correction compared to forces is large: reduce conv_thr to get better values

     entering subroutine stress ...

     negative rho (up, down):  5.376E-01 0.000E+00
          total   stress  (Ry/bohr**3)                   (kbar)     P=   -9.17
  -0.00010573  -0.00003840  -0.00000773        -15.55     -5.65     -1.14
  -0.00003840  -0.00008595  -0.00000599         -5.65    -12.64     -0.88
  -0.00000773  -0.00000599   0.00000471         -1.14     -0.88      0.69

     bfgs converged in  22 scf cycles and  21 bfgs steps
     (criteria: energy <  1.0E+00, force <  1.9E-03)

     End of BFGS Geometry Optimization

     Final energy   =   -1747.7595898683 Ry
Begin final coordinates

ATOMIC_POSITIONS (crystal)
La1     -0.000000000   0.000000000   0.392672473    0   0   0
Bi1     -0.000000000   0.500000000   0.392672473    0   0   0
Bi1      0.500000000   0.000000000   0.392672473    0   0   0
La1      0.500000000   0.500000000   0.392672473    0   0   0
La1      0.800356817   0.800356817   0.500000000    0   0   0
Bi1      0.800356817   0.300356817   0.500000000    0   0   0
Bi1      0.300356817   0.800356817   0.500000000    0   0   0
La1      0.300356817   0.300356817   0.500000000    0   0   0
La1      0.582619905   0.582647830   0.608351187
Bi1      0.585739271   0.084199451   0.614571676
Bi1      0.084180620   0.585757187   0.614572335
La1      0.082702232   0.082710344   0.608351535
End final coordinates

     Writing output data file calc.save

     General routines

     Parallel routines

   This run was terminated on:   0:25: 5  24Feb2018

   JOB DONE.