     Program PWSCF v.5.1rc2 (svn rev. ) starts on 23Feb2018 at 21:40:51

     Current dimensions of program PWSCF are:
     Max number of different atomic species (ntypx) = 10
     Max number of k-points (npk) =  40000
     Max angular momentum in pseudopotentials (lmaxx) =  3
     Presently stress not available with electric field

     IMPORTANT: XC functional enforced from input :
     Exchange-correlation      = BEEF-VDW ( 1  4 27 13 2)
     Any further DFT definition will be discarded
     Please, verify this is what you really want

     Subspace diagonalization in iterative solution of the eigenvalue problem:
     a serial algorithm will be used

     Found symmetry operation: I + ( -0.5000 -0.5000  0.0000)
     This is a supercell, fractional translations are disabled

     bravais-lattice index     =            0
     lattice parameter (alat)  =       1.8897  a.u.
     unit-cell volume          =    5519.7102 (a.u.)^3
     number of atoms/cell      =           12
     number of atomic types    =            2
     number of electrons       =       186.00
     number of Kohn-Sham states=          103
     kinetic-energy cutoff     =      36.7493  Ry
     charge density cutoff     =     367.4932  Ry
     convergence threshold     =      1.0E-05
     mixing beta               =       0.3000
     number of iterations used =           10  plain     mixing
     Exchange-correlation      = BEEF-VDW ( 1  4 27 13 2)
     nstep                     =           50

     celldm(1)=   1.889726  celldm(2)=   0.000000  celldm(3)=   0.000000
     celldm(4)=   0.000000  celldm(5)=   0.000000  celldm(6)=   0.000000

     crystal axes: (cart. coord. in units of alat)
               a(1) = (   5.913626   0.000000   0.000000 )
               a(2) = (   1.987325   5.569696   0.000000 )
               a(3) = (  -0.000000  -0.000000  24.833297 )

     reciprocal axes: (cart. coord. in units 2 pi/alat)
               b(1) = (  0.169101 -0.060337  0.000000 )
               b(2) = (  0.000000  0.179543  0.000000 )
               b(3) = (  0.000000  0.000000  0.040269 )

     PseudoPot. # 1 for Ru read from file:
     /home/mamunm/src/pseudo/gbrv1.5pbe/Ru.UPF
     MD5 check sum: 7158a806dd851261a58e6920c40ebe78
     Pseudo is Ultrasoft + core correction, Zval = 16.0
     Generated by new atomic code, or converted to UPF format
     Using radial grid of  967 points,  6 beta functions with:
                l(1) =   0
                l(2) =   0
                l(3) =   1
                l(4) =   1
                l(5) =   2
                l(6) =   2
     Q(r) pseudized with  8 coefficients,  rinner =    1.300   1.300   1.300
                                                       1.300   1.300

     PseudoPot. # 2 for Bi read from file:
     /home/mamunm/src/pseudo/gbrv1.5pbe/Bi.UPF
     MD5 check sum: 81103212dc04adf40945787f699eab19
     Pseudo is Ultrasoft + core correction, Zval = 15.0
     Generated by new atomic code, or converted to UPF format
     Using radial grid of  899 points,  6 beta functions with:
                l(1) =   0
                l(2) =   0
                l(3) =   1
                l(4) =   1
                l(5) =   2
                l(6) =   2
     Q(r) pseudized with  6 coefficients,  rinner =    1.000   1.000   1.000
                                                       1.000   1.000

     vdW kernel table read from file vdW_kernel_table
     MD5 check sum: 095c7af220d748ca6e76c0b4c6cfb241

     atomic species   valence    mass     pseudopotential
        Ru1           16.00   101.07000     Ru( 1.00)
        Bi1           15.00   208.98040     Bi( 1.00)

     No symmetry found

   Cartesian axes

     site n.     atom                  positions (alat units)
         1           Ru1 tau(   1) = (  -0.0000000  -0.0000000  10.0000000  )
         2           Bi1 tau(   2) = (   0.9936624   2.7848478  10.0000000  )
         3           Bi1 tau(   3) = (   2.9568129  -0.0000000  10.0000000  )
         4           Ru1 tau(   4) = (   3.9504752   2.7848478  10.0000000  )
         5           Ru1 tau(   5) = (   5.9136257   4.1687511  12.4166484  )
         6           Bi1 tau(   6) = (   4.9199634   1.3839032  12.4166484  )
         7           Bi1 tau(   7) = (   2.9568129   4.1687511  12.4166484  )
         8           Ru1 tau(   8) = (   1.9631505   1.3839032  12.4166484  )
         9           Ru1 tau(   9) = (   3.9263010   2.7678065  14.8332967  )
        10           Bi1 tau(  10) = (   4.9199634   5.5526543  14.8332967  )
        11           Bi1 tau(  11) = (   6.8831139   2.7678065  14.8332967  )
        12           Ru1 tau(  12) = (   7.8767762   5.5526543  14.8332967  )

     number of k points=    20  Fermi-Dirac smearing, width (Ry)=  0.0110
                       cart. coord. in units 2pi/alat
        k(    1) = (   0.0000000   0.0000000   0.0000000), wk =   0.0555556
        k(    2) = (   0.0000000   0.0299238   0.0000000), wk =   0.1111111
        k(    3) = (   0.0000000   0.0598477   0.0000000), wk =   0.1111111
        k(    4) = (   0.0000000  -0.0897715  -0.0000000), wk =   0.0555556
        k(    5) = (   0.0281835  -0.0100562   0.0000000), wk =   0.1111111
        k(    6) = (   0.0281835   0.0198677   0.0000000), wk =   0.1111111
        k(    7) = (   0.0281835   0.0497915   0.0000000), wk =   0.1111111
        k(    8) = (   0.0281835  -0.0998277  -0.0000000), wk =   0.1111111
        k(    9) = (   0.0281835  -0.0699038  -0.0000000), wk =   0.1111111
        k(   10) = (   0.0281835  -0.0399800   0.0000000), wk =   0.1111111
        k(   11) = (   0.0563670  -0.0201123   0.0000000), wk =   0.1111111
        k(   12) = (   0.0563670   0.0098115   0.0000000), wk =   0.1111111
        k(   13) = (   0.0563670   0.0397353   0.0000000), wk =   0.1111111
        k(   14) = (   0.0563670  -0.1098838   0.0000000), wk =   0.1111111
        k(   15) = (   0.0563670  -0.0799600   0.0000000), wk =   0.1111111
        k(   16) = (   0.0563670  -0.0500362   0.0000000), wk =   0.1111111
        k(   17) = (  -0.0845505   0.0301685  -0.0000000), wk =   0.0555556
        k(   18) = (  -0.0845505   0.0600923  -0.0000000), wk =   0.1111111
        k(   19) = (  -0.0845505   0.0900162  -0.0000000), wk =   0.1111111
        k(   20) = (  -0.0845505  -0.0596030  -0.0000000), wk =   0.0555556

     Largest allocated arrays     est. size (Mb)     dimensions
     Largest temporary arrays     est. size (Mb)     dimensions

     Initial potential from superposition of free atoms
     Check: negative starting charge=   -0.679117

     starting charge  173.99966, renormalised to  186.00000

     negative rho (up, down):  7.260E-01 0.000E+00

     *
     * You are using vdW-DF for exchange-correlation in this calculation.
     * Please cite the following three references that made this development
     * possible:
     *
     *   M. Dion, H. Rydberg, E. Schroder, D. C. Langreth, and
     *   B. I. Lundqvist, Phys. Rev. Lett. 92, 246401 (2004).
     *
     *   T. Thonhauser, V. R. Cooper, S. Li, A. Puzder, P. Hyldgaard, and
     *   D. C. Langreth, Phys. Rev. B 76, 125112 (2007).
     *
     *   G. Roman-Perez and J. M. Soler, Phys. Rev. Lett. 103, 096102 (2009).
     *
     *
     * If you are using vdW-DF2, please also cite:
     *
     *   K. Lee, E. D. Murray, L. Kong, B. I. Lundqvist, and
     *   D. C. Langreth, Phys. Rev. B 82, 081101(R) (2010).
     *
     *
     * If you are calculating the stress with vdW-DF, please also cite:
     *
     *   R. Sabatini, E. Kucukbenli, B. Kolb, T. Thonhauser, and
     *   S. de Gironcoli, J. Phys.: Condens. Matter 24, 424209 (2012).
     *

     Carrying out vdW-DF run using the following parameters:

     Nqs =      20    Nr_points =    1024   r_max =   100.000
     q_mesh =
               0.00001000     0.04494208     0.09755937     0.15916263
               0.23128650     0.31572767     0.41458969     0.53033537
               0.66584808     0.82450364     1.01025438     1.22772762
               1.48234092     1.78043706     2.12944203     2.53805004
               3.01644009     3.57652955     4.23227104     5.00000000

     Gradients computed in reciprocal space

     Adding external electric field

     Computed dipole along edir(3) :
        Dipole               -0.0000 Ry au,         -0.0000 Debye
        Dipole field         -0.0000 Ry au

        Potential amp.        0.0000 Ry
        Total length         45.7549 bohr

     Starting wfc are  132 randomized atomic wfcs

     Self-consistent Calculation

     iteration #  1     ecut=    36.75 Ry     beta=0.30
     Davidson diagonalization with overlap
     ethr =  1.00E-02,  avg # of iterations =  3.3

[...]

     total energy              =   -2289.77412824 Ry
     Harris-Foulkes estimate   =   -2297.59562539 Ry
     estimated scf accuracy    <      17.55786826 Ry

[...]

     End of self-consistent calculation

          k = 0.0000 0.0000 0.0000 ( 20815 PWs)   bands (ev):

   -70.5116 -70.5092 -70.2097 -70.2083 -70.2073 -70.2060 -40.5818 -40.5364
   -40.5277 -40.5239 -40.4733 -40.4689 -40.3048 -40.3032 -40.3010 -40.2994
   -40.2752 -40.2737 -40.2310 -40.2295 -40.1056 -40.1038 -40.1013 -40.0997
   -21.5942 -21.5437 -21.5378 -21.5052 -21.5049 -21.5028 -21.4900 -21.4778
   -21.4667 -21.4593 -21.4444 -21.4265 -21.4053 -21.4023 -21.3790 -21.3744
   -21.3472 -21.3465 -21.3405 -21.3391 -21.3301 -21.3270 -21.3230 -21.3213
   -21.3167 -21.3146 -21.2920 -21.2797 -21.2662 -21.2538 -11.1563  -9.9505
    -9.0091  -8.8307  -8.4611  -8.4405  -2.7797  -2.6343  -1.9350  -1.9005
    -1.8203  -1.8151  -1.6456  -1.1235  -0.9957  -0.8508  -0.5170  -0.3345
    -0.2742   0.0265   0.0968   0.3501   0.3726   0.4390   0.5486   0.6893
     0.6989   0.7044   0.7103   0.8005   0.8304   0.8743   0.9142   1.0188
     1.0569   1.1989   1.2307   1.3541   1.3860   1.4228   1.6801   1.8404
     2.0382   2.1582   2.1808   2.3403   2.6327   2.8070   4.1191

[...]

          k =-0.0846 0.0302-0.0000 ( 20720 PWs)   bands (ev):

[...]

     the Fermi energy is     1.7799 ev

!    total energy              =   -2293.29864865 Ry
     Harris-Foulkes estimate   =   -2293.29865417 Ry
     estimated scf accuracy    <       0.00000721 Ry

     The total energy is the sum of the following terms:

     one-electron contribution =  -15436.30359636 Ry
     hartree contribution      =    7747.96304829 Ry
     xc contribution           =    -561.14922357 Ry
     ewald contribution        =    5956.27849637 Ry
     electric field correction =       0.00000065 Ry
     smearing contrib. (-TS)   =      -0.08737402 Ry

     convergence has been achieved in  16 iterations

 BEEF-vdW xc energy contributions
           1 :   -496.488479026744
           2 :    459.911861772914
           3 :   -395.790488873114
           4 :    318.740629934628
           5 :   -243.915235289447
           6 :    182.440913426199
           7 :   -138.882646312824
           8 :    111.369780363216
           9 :   -93.9701071123218
          10 :    80.0541934059618
          11 :   -65.1534409132441
          12 :    48.2343334855679
          13 :   -31.1637463773758
          14 :    16.9650374528430
          15 :   -7.89725999994380
          16 :    4.27867814271269
          17 :   -4.47435184284222
          18 :    5.85544407216582
          19 :   -6.11954465496160
          20 :    4.27782063627956
          21 :  -0.870002399635496
          22 :   -2.59997377397394
          23 :    4.62502443853657
          24 :   -4.52115194290582
          25 :    2.72063019506072
          26 :  -0.450715900358773
          27 :  -0.968869237541639
          28 :   0.809399527980304
          29 :   0.751433187380030
          30 :   -2.81155078960978
          31 :   -42.8773373585209
          32 :   -31.8951101858189

     Forces acting on atoms (Ry/au):

     negative rho (up, down):  6.995E-01 0.000E+00
     atom    1 type  1   force =     0.00027596    0.00019415    0.05565432
     atom    2 type  2   force =    -0.00094475   -0.00095683   -0.03098363
     atom    3 type  2   force =    -0.00121735   -0.00056904   -0.03098417
     atom    4 type  1   force =     0.00027279    0.00019307    0.05563427
     atom    5 type  1   force =     0.00001240    0.00000770    0.00128840
     atom    6 type  2   force =     0.00025162   -0.00036163   -0.00183170
     atom    7 type  2   force =    -0.00025787    0.00036016   -0.00183173
     atom    8 type  1   force =     0.00000233    0.00000265    0.00127708
     atom    9 type  1   force =    -0.00027864   -0.00019571   -0.05362057
     atom   10 type  2   force =     0.00094362    0.00094715    0.02954387
     atom   11 type  2   force =     0.00121137    0.00056950    0.02954327
     atom   12 type  1   force =    -0.00027148   -0.00019118   -0.05368942

     Total force =     0.086644     Total SCF correction =     0.007063

     entering subroutine stress ...

     negative rho (up, down):  6.995E-01 0.000E+00
          total   stress  (Ry/bohr**3)                   (kbar)     P=  -20.59
  -0.00015999   0.00000510   0.00000265        -23.54      0.75      0.39
   0.00000510  -0.00016363   0.00000187          0.75    -24.07      0.27
   0.00000265   0.00000187  -0.00009635          0.39      0.27    -14.17

     BFGS Geometry Optimization

     number of scf cycles    =   1
     number of bfgs steps    =   0

     energy   new            =   -2293.2986486533 Ry

     new trust radius        =       0.0536904505 bohr
     new conv_thr            =       0.0000099958 Ry

ATOMIC_POSITIONS (crystal)
Ru1      0.000000000   0.000000000   0.402685158    0   0   0
Bi1      0.000000000   0.500000000   0.402685158    0   0   0
Bi1      0.500000000   0.000000000   0.402685158    0   0   0
Ru1      0.500000000   0.500000000   0.402685158    0   0   0
Ru1      0.748470171   0.748470171   0.500000000    0   0   0
Bi1      0.748470171   0.248470171   0.500000000    0   0   0
Bi1      0.248470171   0.748470171   0.500000000    0   0   0
Ru1      0.248470171   0.248470171   0.500000000    0   0   0
Ru1      0.496921657   0.496921748   0.596172232
Bi1      0.496994540   0.997030331   0.597944398
Bi1      0.997030557   0.496994451   0.597944385
Ru1      0.996922153   0.996922178   0.596170765

     Writing output data file calc.save
     Check: negative starting charge=   -0.679117
     NEW-OLD atomic charge density approx. for the potential
     Check: negative starting charge=   -0.679884

[...]

     energy   old            =   -2293.2986486533 Ry
     energy   new            =   -2293.3061107311 Ry

     CASE: energy  _new < energy  _old

     WARNING: bfgs curvature condition failed, Theta= 0.833
     new trust radius        =       0.0590594956 bohr
     new conv_thr            =       0.0000001000 Ry

[...]

     Total force =     0.013323     Total SCF correction =     0.000207

[...]

     number of scf cycles    =   6
     number of bfgs steps    =   5

     energy   old            =   -2293.3361340191 Ry
     energy   new            =   -2293.3461384660 Ry

     CASE: energy  _new < energy  _old

     new trust radius        =       0.0716873649 bohr
     new conv_thr            =       0.0000001000 Ry

ATOMIC_POSITIONS (crystal)
Ru1      0.000000000   0.000000000   0.402685158    0   0   0
Bi1      0.000000000   0.500000000   0.402685158    0   0   0
Bi1      0.500000000   0.000000000   0.402685158    0   0   0
Ru1      0.500000000   0.500000000   0.402685158    0   0   0
Ru1      0.748470171   0.748470171   0.500000000    0   0   0
Bi1      0.748470171   0.248470171   0.500000000    0   0   0
Bi1      0.248470171   0.748470171   0.500000000    0   0   0
Ru1      0.248470171   0.248470171   0.500000000    0   0   0
Ru1      0.496913668   0.496913943   0.584430058
Bi1      0.497656966   0.997735136   0.603506517
Bi1      0.997736073   0.497656434   0.603506465
Ru1      0.996918538   0.996918563   0.584418888

     Writing output data file calc.save
     Check: negative starting charge=   -0.680150
     NEW-OLD atomic charge density approx. for the potential
     Check: negative starting charge=   -0.679717

[...]

     Self-consistent Calculation

[...]

     total energy              =   -2293.34670269 Ry
     Harris-Foulkes estimate   =   -2293.34670276 Ry
     estimated scf accuracy    <       0.00000047 Ry

     iteration # 14     ecut=    36.75 Ry     beta=0.30
     Davidson diagonalization with overlap
     ethr =  2.54E-10,  avg # of iterations =  1.1

[...]

     negative rho (up, down):  7.014E-01 0.000E+00

     Adding external electric field

     Computed dipole along edir(3) :
        Dipole                0.0808 Ry au,          0.2055 Debye
        Dipole field          0.0002 Ry au

        Potential amp.       -0.0168 Ry
        Total length         45.7549 bohr

     End of self-consistent calculation

[...]

          k = 0.0564-0.0500 0.0000 ( 20770 PWs)   bands (ev):

[...]

          k =-0.0846-0.0596-0.0000 ( 20806 PWs)   bands (ev):

   -70.3924 -70.3902 -70.2065 -70.2042 -70.1365 -70.1342 -40.4215 -40.4026
   -40.3948 -40.3890 -40.3856 -40.3762 -40.2791 -40.2579 -40.2528 -40.2327
   -40.2175 -40.2130 -40.2039 -40.1705 -40.1683 -40.1595 -40.0454 -40.0416
   -21.5148 -21.4533 -21.4399 -21.4389 -21.4374 -21.4247 -21.4153 -21.3970
   -21.3839 -21.3654 -21.3381 -21.3206 -21.3122 -21.2966 -21.2767 -21.2547
   -21.2507 -21.2468 -21.2405 -21.2400 -21.2394 -21.2303 -21.2258 -21.2217
   -21.2182 -21.2133 -21.1949 -21.1902 -21.1742 -21.1530 -10.0716  -9.6604
    -9.3801  -9.3122  -8.2240  -7.3561  -4.1396  -3.8492  -3.5592  -2.8592
    -2.7497  -2.6341  -2.0787  -1.9583  -1.4524  -0.8518  -0.4942  -0.4295
    -0.3263  -0.2745  -0.2733  -0.2644  -0.1801   0.0454   0.1472   0.2299
     0.4840   0.6979   1.0040   1.1082   1.2578   1.3072   1.3156   1.3393
     1.4245   1.7398   1.7911   1.8493   1.9067   2.2476   2.2573   2.4092
     2.5114   3.1529   3.3466   3.4099   4.4670   4.5193   5.4112

     the Fermi energy is     1.8581 ev

!    total energy              =   -2293.34670262 Ry
     Harris-Foulkes estimate   =   -2293.34670335 Ry
     estimated scf accuracy    <       0.00000009 Ry

     The total energy is the sum of the following terms:

     one-electron contribution =  -15617.77700934 Ry
     hartree contribution      =    7839.22353156 Ry
     xc contribution           =    -561.22292697 Ry
     ewald contribution        =    6046.50352841 Ry
     electric field correction =       0.00001488 Ry
     smearing contrib. (-TS)   =      -0.07384114 Ry

     convergence has been achieved in  14 iterations

 BEEF-vdW xc energy contributions
           1 :   -496.570387006741
           2 :    460.046919492470
           3 :   -395.996019300545
           4 :    318.981584754331
           5 :   -244.121090686488
           6 :    182.545558045577
           7 :   -138.860079203694
           8 :    111.245216836440
           9 :   -93.8042873354724
          10 :    79.9133088600958
          11 :   -65.0815521615444
          12 :    48.2398816883558
          13 :   -31.2226377887158
          14 :    17.0355386319611
          15 :   -7.93950905844383
          16 :    4.27156082000795
          17 :   -4.42359015208160
          18 :    5.78994838190954
          19 :   -6.07732405398997
          20 :    4.28700370998433
          21 :  -0.933621791643077
          22 :   -2.50755207715190
          23 :    4.54734612841037
          24 :   -4.49951446407465
          25 :    2.77428577792534
          26 :  -0.567045575032580
          27 :  -0.829059620067028
          28 :   0.693012493867286
          29 :   0.813203605494664
          30 :   -2.81878130417942
          31 :   -42.8835825975525
          32 :   -31.9138297580611

     Forces acting on atoms (Ry/au):

     negative rho (up, down):  7.014E-01 0.000E+00
     atom    1 type  1   force =     0.00011104    0.00007828    0.05914351
     atom    2 type  2   force =    -0.00111203   -0.00078558   -0.02647800
     atom    3 type  2   force =    -0.00111372   -0.00078332   -0.02647814
     atom    4 type  1   force =     0.00011327    0.00007989    0.05915718
     atom    5 type  1   force =    -0.00043846   -0.00030912    0.00104886
     atom    6 type  2   force =     0.00070204    0.00053041   -0.03420220
     atom    7 type  2   force =     0.00073541    0.00048310   -0.03420258
     atom    8 type  1   force =    -0.00043377   -0.00030582    0.00104494
     atom    9 type  1   force =     0.00049681    0.00034986    0.00175563
     atom   10 type  2   force =     0.00026523    0.00010593   -0.00131800
     atom   11 type  2   force =     0.00018844    0.00021415   -0.00131806
     atom   12 type  1   force =     0.00048574    0.00034221    0.00184685

     Total force =     0.003294     Total SCF correction =     0.000453
     SCF correction compared to forces is large: reduce conv_thr to get better values

     entering subroutine stress ...

     negative rho (up, down):  7.014E-01 0.000E+00
          total   stress  (Ry/bohr**3)                   (kbar)     P=  -18.51
  -0.00016028  -0.00001090   0.00000278        -23.58     -1.60      0.41
  -0.00001090  -0.00015250   0.00000196         -1.60    -22.43      0.29
   0.00000278   0.00000196  -0.00006468          0.41      0.29     -9.52

     bfgs converged in   7 scf cycles and   6 bfgs steps
     (criteria: energy <  1.0E+00, force <  1.9E-03)

     End of BFGS Geometry Optimization

     Final energy   =   -2293.3467026182 Ry
Begin final coordinates

ATOMIC_POSITIONS (crystal)
Ru1      0.000000000   0.000000000   0.402685158    0   0   0
Bi1      0.000000000   0.500000000   0.402685158    0   0   0
Bi1      0.500000000   0.000000000   0.402685158    0   0   0
Ru1      0.500000000   0.500000000   0.402685158    0   0   0
Ru1      0.748470171   0.748470171   0.500000000    0   0   0
Bi1      0.748470171   0.248470171   0.500000000    0   0   0
Bi1      0.248470171   0.748470171   0.500000000    0   0   0
Ru1      0.248470171   0.248470171   0.500000000    0   0   0
Ru1      0.496913668   0.496913943   0.584430058
Bi1      0.497656966   0.997735136   0.603506517
Bi1      0.997736073   0.497656434   0.603506465
Ru1      0.996918538   0.996918563   0.584418888
End final coordinates

     Writing output data file calc.save

     General routines

     Parallel routines

   This run was terminated on:  22:16:46  23Feb2018

   JOB DONE.