     Program PWSCF v.5.1rc2 (svn rev. ) starts on 23Feb2018 at 21:53:37

     Current dimensions of program PWSCF are:
     Max number of different atomic species (ntypx) = 10
     Max number of k-points (npk) =  40000
     Max angular momentum in pseudopotentials (lmaxx) =  3
     Presently stress not available with electric field

     IMPORTANT: XC functional enforced from input :
     Exchange-correlation      = BEEF-VDW ( 1  4 27 13 2)
     Any further DFT definition will be discarded
     Please, verify this is what you really want

     Subspace diagonalization in iterative solution of the eigenvalue problem:
     a serial algorithm will be used

     Found symmetry operation: I + ( -0.5000 -0.5000  0.0000)
     This is a supercell, fractional translations are disabled

     bravais-lattice index     =            0
     lattice parameter (alat)  =       1.8897  a.u.
     unit-cell volume          =    5723.7930 (a.u.)^3
     number of atoms/cell      =           12
     number of atomic types    =            2
     number of electrons       =       180.00
     number of Kohn-Sham states=          100
     kinetic-energy cutoff     =      36.7493  Ry
     charge density cutoff     =     367.4932  Ry
     convergence threshold     =      1.0E-05
     mixing beta               =       0.3000
     number of iterations used =           10  plain     mixing
     Exchange-correlation      = BEEF-VDW ( 1  4 27 13 2)
     nstep                     =           50

     celldm(1)=   1.889726  celldm(2)=   0.000000  celldm(3)=   0.000000
     celldm(4)=   0.000000  celldm(5)=   0.000000  celldm(6)=   0.000000

     crystal axes: (cart. coord. in units of alat)
               a(1) = (   6.002267   0.000000   0.000000 )
               a(2) = (   1.942527   5.679242   0.000000 )
               a(3) = (  -0.000000  -0.000000  24.881789 )

     reciprocal axes: (cart. coord. in units 2 pi/alat)
               b(1) = (  0.166604 -0.056985  0.000000 )
               b(2) = (  0.000000  0.176080  0.000000 )
               b(3) = (  0.000000  0.000000  0.040190 )

     PseudoPot. # 1 for Rh read from file:
     /home/mamunm/src/pseudo/gbrv1.5pbe/Rh.UPF
     MD5 check sum: 761627e959a2e3a1f56b0b5fe687810e
     Pseudo is Ultrasoft + core correction, Zval = 15.0
     Generated by new atomic code, or converted to UPF format
     Using radial grid of  969 points,  7 beta functions with:
                l(1) =   0
                l(2) =   0
                l(3) =   1
                l(4) =   1
                l(5) =   2
                l(6) =   2
                l(7) =   2
     Q(r) pseudized with  8 coefficients,  rinner =    1.200   1.200   1.200
                                                       1.200   1.200

     PseudoPot. # 2 for Bi read from file:
     /home/mamunm/src/pseudo/gbrv1.5pbe/Bi.UPF
     MD5 check sum: 81103212dc04adf40945787f699eab19
     Pseudo is Ultrasoft + core correction, Zval = 15.0
     Generated by new atomic code, or converted to UPF format
     Using radial grid of  899 points,  6 beta functions with:
                l(1) =   0
                l(2) =   0
                l(3) =   1
                l(4) =   1
                l(5) =   2
                l(6) =   2
     Q(r) pseudized with  6 coefficients,  rinner =    1.000   1.000   1.000
                                                       1.000   1.000

     vdW kernel table read from file vdW_kernel_table
     MD5 check sum: 095c7af220d748ca6e76c0b4c6cfb241

     atomic species   valence    mass     pseudopotential
        Rh1           15.00   102.90550     Rh( 1.00)
        Bi1           15.00   208.98040     Bi( 1.00)

     No symmetry found

   Cartesian axes

     site n.     atom                  positions (alat units)
         1           Rh1 tau(   1) = (  -0.0000000  -0.0000000  10.0000000  )
         2           Bi1 tau(   2) = (   0.9712637   2.8396212  10.0000000  )
         3           Bi1 tau(   3) = (   3.0011335  -0.0000000  10.0000000  )
         4           Rh1 tau(   4) = (   3.9723972   2.8396212  10.0000000  )
         5           Rh1 tau(   5) = (   6.0022669   4.2906496  12.4408944  )
         6           Bi1 tau(   6) = (   5.0310032   1.4510284  12.4408944  )
         7           Bi1 tau(   7) = (   3.0011335   4.2906496  12.4408944  )
         8           Rh1 tau(   8) = (   2.0298697   1.4510284  12.4408944  )
         9           Rh1 tau(   9) = (   4.0597394   2.9020568  14.8817888  )
        10           Bi1 tau(  10) = (   3.0884757   0.0624356  14.8817888  )
        11           Bi1 tau(  11) = (   1.0586060   2.9020568  14.8817888  )
        12           Rh1 tau(  12) = (   0.0873422   0.0624356  14.8817888  )

     number of k points=    20  Fermi-Dirac smearing, width (Ry)=  0.0110
                       cart. coord. in units 2pi/alat
        k(    1) = (   0.0000000   0.0000000   0.0000000), wk =   0.0555556
        k(    2) = (   0.0000000   0.0293466   0.0000000), wk =   0.1111111
        k(    3) = (   0.0000000   0.0586933   0.0000000), wk =   0.1111111
        k(    4) = (   0.0000000  -0.0880399  -0.0000000), wk =   0.0555556
        k(    5) = (   0.0277673  -0.0094975   0.0000000), wk =   0.1111111
        k(    6) = (   0.0277673   0.0198491   0.0000000), wk =   0.1111111
        k(    7) = (   0.0277673   0.0491958   0.0000000), wk =   0.1111111
        k(    8) = (   0.0277673  -0.0975374  -0.0000000), wk =   0.1111111
        k(    9) = (   0.0277673  -0.0681908  -0.0000000), wk =   0.1111111
        k(   10) = (   0.0277673  -0.0388442   0.0000000), wk =   0.1111111
        k(   11) = (   0.0555346  -0.0189950   0.0000000), wk =   0.1111111
        k(   12) = (   0.0555346   0.0103516   0.0000000), wk =   0.1111111
        k(   13) = (   0.0555346   0.0396982   0.0000000), wk =   0.1111111
        k(   14) = (   0.0555346  -0.1070350   0.0000000), wk =   0.1111111
        k(   15) = (   0.0555346  -0.0776883   0.0000000), wk =   0.1111111
        k(   16) = (   0.0555346  -0.0483417   0.0000000), wk =   0.1111111
        k(   17) = (  -0.0833019   0.0284926  -0.0000000), wk =   0.0555556
        k(   18) = (  -0.0833019   0.0578392  -0.0000000), wk =   0.1111111
        k(   19) = (  -0.0833019   0.0871858  -0.0000000), wk =   0.1111111
        k(   20) = (  -0.0833019  -0.0595474  -0.0000000), wk =   0.0555556

     Largest allocated arrays     est. size (Mb)     dimensions
     Largest temporary arrays     est. size (Mb)     dimensions

     Initial potential from superposition of free atoms
     Check: negative starting charge=   -0.579342

     starting charge  170.99916, renormalised to  180.00000

     negative rho (up, down):  6.098E-01 0.000E+00

     *
     * You are using vdW-DF for exchange-correlation in this calculation.
     * Please cite the following three references that made this development
     * possible:
     *
     *   M. Dion, H. Rydberg, E. Schroder, D. C. Langreth, and
     *   B. I. Lundqvist, Phys. Rev. Lett. 92, 246401 (2004).
     *
     *   T. Thonhauser, V. R. Cooper, S. Li, A. Puzder, P. Hyldgaard, and
     *   D. C. Langreth, Phys. Rev. B 76, 125112 (2007).
     *
     *   G. Roman-Perez and J. M. Soler, Phys. Rev. Lett. 103, 096102 (2009).
     *
     *
     * If you are using vdW-DF2, please also cite:
     *
     *   K. Lee, E. D. Murray, L. Kong, B. I. Lundqvist, and
     *   D. C. Langreth, Phys. Rev. B 82, 081101(R) (2010).
     *
     *
     * If you are calculating the stress with vdW-DF, please also cite:
     *
     *   R. Sabatini, E. Kucukbenli, B. Kolb, T. Thonhauser, and
     *   S. de Gironcoli, J. Phys.: Condens. Matter 24, 424209 (2012).
     *

     Carrying out vdW-DF run using the following parameters:

     Nqs =      20    Nr_points =    1024   r_max =   100.000
     q_mesh =
               0.00001000     0.04494208     0.09755937     0.15916263
               0.23128650     0.31572767     0.41458969     0.53033537
               0.66584808     0.82450364     1.01025438     1.22772762
               1.48234092     1.78043706     2.12944203     2.53805004
               3.01644009     3.57652955     4.23227104     5.00000000

     Gradients computed in reciprocal space

     Adding external electric field

     Computed dipole along edir(3) :
        Dipole               -0.0000 Ry au,         -0.0000 Debye
        Dipole field         -0.0000 Ry au

        Potential amp.        0.0000 Ry
        Total length         45.8443 bohr

     Starting wfc are  126 randomized atomic wfcs

     Self-consistent Calculation

     iteration #  1     ecut=    36.75 Ry     beta=0.30
     Davidson diagonalization with overlap
     ethr =  1.00E-02,  avg # of iterations =  2.7

[...]

     total energy              =   -2153.73239701 Ry
     Harris-Foulkes estimate   =   -2158.70789454 Ry
     estimated scf accuracy    <      11.11374925 Ry

[...]

     End of self-consistent calculation

          k = 0.0000 0.0000 0.0000 ( 21431 PWs)   bands (ev):

   -44.5140 -44.5113 -44.5097 -44.4927 -44.4334 -44.4317 -44.2533 -44.2525
   -44.2518 -44.2510 -44.1539 -44.1532 -44.1331 -44.1325 -44.0228 -44.0220
   -44.0211 -44.0204 -21.9713 -21.9365 -21.9267 -21.9057 -21.8999 -21.8942
   -21.8847 -21.8846 -21.8751 -21.8742 -21.8479 -21.8431 -21.8360 -21.8347
   -21.8075 -21.8022 -21.7932 -21.7903 -21.7869 -21.7831 -21.7765 -21.7734
   -21.7722 -21.7643 -21.7601 -21.7578 -21.7383 -21.7277 -21.7227 -21.7108
   -11.2523 -10.1310  -9.2031  -9.1245  -8.8176  -8.7670  -2.8951  -2.7947
    -2.1303  -2.1199  -1.9880  -1.9812  -1.9042  -1.4338  -1.3199  -1.2936
    -0.9388  -0.7953  -0.6739  -0.4858  -0.4807  -0.3828  -0.1563  -0.1087
    -0.0123   0.0453   0.0496   0.0848   0.1252   0.1252   0.1504   0.1602
     0.2333   0.2660   0.3022   0.3323   0.4609   0.5044   0.5490   0.5605
     0.8943   0.9156   0.9746   1.2168   1.2809   1.3637   1.7622   2.3128
     3.4376   3.4581   3.4812   3.5462

[...]

          k =-0.0833 0.0285-0.0000 ( 21528 PWs)   bands (ev):

[...]

     the Fermi energy is     1.2905 ev

!    total energy              =   -2156.21528854 Ry
     Harris-Foulkes estimate   =   -2156.21529048 Ry
     estimated scf accuracy    <       0.00000323 Ry

     The total energy is the sum of the following terms:

     one-electron contribution =  -13906.33737832 Ry
     hartree contribution      =    7003.22854499 Ry
     xc contribution           =    -586.13714430 Ry
     ewald contribution        =    5333.10918923 Ry
     electric field correction =       0.00000023 Ry
     smearing contrib. (-TS)   =      -0.07850037 Ry

     convergence has been achieved in  15 iterations

 BEEF-vdW xc energy contributions
           1 :   -518.801087111999
           2 :    480.290528138556
           3 :   -412.937670670572
           4 :    332.306270273227
           5 :   -254.372353630321
           6 :    190.646948191484
           7 :   -145.576192515994
           8 :    116.847703602395
           9 :   -98.0717326014598
          10 :    82.4121048150829
          11 :   -65.5401755859566
          12 :    46.8007638396928
          13 :   -28.4418868159914
          14 :    13.6472033719997
          15 :   -4.52684842599194
          16 :    1.02932859182567
          17 :   -1.13782045094717
          18 :    2.03770042148494
          19 :   -1.52892932523059
          20 :   -1.05755880349739
          21 :    4.83795542000257
          22 :   -8.14724298534327
          23 :    9.59810748462746
          24 :   -8.83586552934435
          25 :    6.63826418859708
          26 :   -4.39878084073939
          27 :    3.33965021030792
          28 :   -3.89645433873875
          29 :    5.57696305935201
          30 :   -7.32152647688554
          31 :   -44.3919481176665
          32 :   -32.8666886081917

     Forces acting on atoms (Ry/au):

     negative rho (up, down):  5.915E-01 0.000E+00
     atom    1 type  1   force =    -0.00035801   -0.00025524    0.03621573
     atom    2 type  2   force =     0.00299871    0.00204892   -0.01382335
     atom    3 type  2   force =     0.00291040    0.00217315   -0.01382591
     atom    4 type  1   force =    -0.00035091   -0.00025083    0.03622402
     atom    5 type  1   force =    -0.00000525   -0.00000233    0.00052161
     atom    6 type  2   force =    -0.00003593    0.00006597   -0.00096380
     atom    7 type  2   force =     0.00005177   -0.00005377   -0.00096059
     atom    8 type  1   force =    -0.00000124   -0.00000087    0.00053468
     atom    9 type  1   force =     0.00035615    0.00025439   -0.03518001
     atom   10 type  2   force =    -0.00302163   -0.00202358    0.01321400
     atom   11 type  2   force =    -0.00289326   -0.00220478    0.01321511
     atom   12 type  1   force =     0.00034918    0.00024898   -0.03517149

     Total force =     0.053392     Total SCF correction =     0.002761

     entering subroutine stress ...

     negative rho (up, down):  5.915E-01 0.000E+00
          total   stress  (Ry/bohr**3)                   (kbar)     P=  -28.20
  -0.00021237   0.00000585  -0.00000835        -31.24      0.86     -1.23
   0.00000585  -0.00021637  -0.00000597          0.86    -31.83     -0.88
  -0.00000835  -0.00000597  -0.00014629         -1.23     -0.88    -21.52

     BFGS Geometry Optimization

     number of scf cycles    =   1
     number of bfgs steps    =   0

     energy   new            =   -2156.2152885396 Ry

     new trust radius        =       0.0351827359 bohr
     new conv_thr            =       0.0000099958 Ry

ATOMIC_POSITIONS (crystal)
Rh1     -0.000000000  -0.000000000   0.401900366    0   0   0
Bi1     -0.000000000   0.500000000   0.401900366    0   0   0
Bi1      0.500000000  -0.000000000   0.401900366    0   0   0
Rh1      0.500000000   0.500000000   0.401900366    0   0   0
Rh1      0.755496821   0.755496821   0.500000000    0   0   0
Bi1      0.755496821   0.255496821   0.500000000    0   0   0
Bi1      0.255496821   0.755496821   0.500000000    0   0   0
Rh1      0.255496821   0.255496821   0.500000000    0   0   0
Rh1      0.511017370   0.511017345   0.597351438
Bi1      0.510788267   0.010805089   0.598380665
Bi1      0.010805049   0.510788205   0.598380689
Rh1      0.011016918   0.011016840   0.597351619

     Writing output data file calc.save
     Check: negative starting charge=   -0.579342
     NEW-OLD atomic charge density approx. for the potential
     Check: negative starting charge=   -0.577731

[...]

     energy   old            =   -2156.2152885396 Ry
     energy   new            =   -2156.2181294235 Ry

     CASE: energy  _new < energy  _old

     WARNING: bfgs curvature condition failed, Theta= 0.804
     new trust radius        =       0.0527741038 bohr
     new conv_thr            =       0.0000001000 Ry

[...]

     iteration #  1     ecut=    36.75 Ry     beta=0.30
     Davidson diagonalization with overlap
     c_bands:  1 eigenvalues not converged
     c_bands:  1 eigenvalues not converged
     ethr =  1.00E-06,  avg # of iterations =  7.4

[...]

     WARNING: bfgs curvature condition failed, Theta= 0.876
     new trust radius        =       0.0050947192 bohr
     new conv_thr            =       0.0000001000 Ry

[...]

     Total force =     0.005695     Total SCF correction =     0.000539

[...]

     Total force =     0.005154     Total SCF correction =     0.000833
     SCF correction compared to forces is large: reduce conv_thr to get better values

[...]

     number of scf cycles    =  12
     number of bfgs steps    =  11

     energy   old            =   -2156.2449318057 Ry
     energy   new            =   -2156.2450096869 Ry

     CASE: energy  _new < energy  _old

     new trust radius        =       0.0171946773 bohr
     new conv_thr            =       0.0000001000 Ry

ATOMIC_POSITIONS (crystal)
Rh1     -0.000000000  -0.000000000   0.401900366    0   0   0
Bi1     -0.000000000   0.500000000   0.401900366    0   0   0
Bi1      0.500000000  -0.000000000   0.401900366    0   0   0
Rh1      0.500000000   0.500000000   0.401900366    0   0   0
Rh1      0.755496821   0.755496821   0.500000000    0   0   0
Bi1      0.755496821   0.255496821   0.500000000    0   0   0
Bi1      0.255496821   0.755496821   0.500000000    0   0   0
Rh1      0.255496821   0.255496821   0.500000000    0   0   0
Rh1      0.510533450   0.510533610   0.584725781
Bi1      0.507054834   0.007136907   0.601233400
Bi1      0.007136814   0.507054087   0.601233530
Rh1      0.010524314   0.010523659   0.584723676

     Writing output data file calc.save
     Check: negative starting charge=   -0.581481
     NEW-OLD atomic charge density approx. for the potential
     Check: negative starting charge=   -0.580418

[...]

     Self-consistent Calculation

[...]

     total energy              =   -2156.24509647 Ry
     Harris-Foulkes estimate   =   -2156.24509649 Ry
     estimated scf accuracy    <       0.00000010 Ry

     iteration # 12     ecut=    36.75 Ry     beta=0.30
     Davidson diagonalization with overlap
     ethr =  5.74E-11,  avg # of iterations =  2.0

[...]

     negative rho (up, down):  5.945E-01 0.000E+00

     Adding external electric field

     Computed dipole along edir(3) :
        Dipole                0.0959 Ry au,          0.2438 Debye
        Dipole field          0.0002 Ry au

        Potential amp.       -0.0193 Ry
        Total length         45.8443 bohr

     End of self-consistent calculation

[...]

          k = 0.0555-0.0483 0.0000 ( 21533 PWs)   bands (ev):

[...]

          k =-0.0833-0.0595-0.0000 ( 21554 PWs)   bands (ev):

   -44.4682 -44.4653 -44.4533 -44.4319 -44.4174 -44.4161 -44.3045 -44.3018
   -44.2613 -44.2393 -44.2247 -44.2236 -44.2058 -44.2039 -44.0913 -44.0703
   -43.9737 -43.9720 -21.9341 -21.8876 -21.8864 -21.8833 -21.8662 -21.8644
   -21.8517 -21.8424 -21.8209 -21.8194 -21.7865 -21.7789 -21.7767 -21.7579
   -21.7420 -21.7349 -21.7285 -21.7268 -21.7223 -21.7171 -21.7147 -21.7142
   -21.7064 -21.7014 -21.7000 -21.6986 -21.6835 -21.6705 -21.6659 -21.6468
   -10.3037  -9.9287  -9.7189  -9.6875  -8.6900  -7.7977  -4.3129  -4.0273
    -3.7589  -3.0252  -3.0026  -2.9028  -2.3063  -2.2672  -1.7989  -1.2151
    -0.9967  -0.9777  -0.9510  -0.8992  -0.8767  -0.8261  -0.7137  -0.6567
    -0.4360  -0.4097  -0.2738  -0.0271   0.3049   0.3133   0.3334   0.3460
     0.3939   0.5638   0.6195   0.7948   0.8663   0.9554   1.1301   1.2781
     1.3058   1.4233   1.6031   2.2919   2.6356   2.6710   3.7205   3.8421
     4.3853   4.7614   4.9651   5.1969

     the Fermi energy is     1.3795 ev

!    total energy              =   -2156.24509645 Ry
     Harris-Foulkes estimate   =   -2156.24509672 Ry
     estimated scf accuracy    <       0.00000005 Ry

     The total energy is the sum of the following terms:

     one-electron contribution =  -14146.29726064 Ry
     hartree contribution      =    7123.35328363 Ry
     xc contribution           =    -586.24502815 Ry
     ewald contribution        =    5453.01729421 Ry
     electric field correction =       0.00002020 Ry
     smearing contrib. (-TS)   =      -0.07340570 Ry

     convergence has been achieved in  12 iterations

 BEEF-vdW xc energy contributions
           1 :   -518.922697601784
           2 :    480.497590821967
           3 :   -413.252240088315
           4 :    332.665767481081
           5 :   -254.664622791627
           6 :    190.776658803777
           7 :   -145.519859839363
           8 :    116.666687200288
           9 :   -97.8799409634454
          10 :    82.3192583700020
          11 :   -65.6007144189485
          12 :    46.9928404992551
          13 :   -28.6839944746791
          14 :    13.8412953240537
          15 :   -4.60618406000845
          16 :   0.989078702867573
          17 :   -1.03419666339232
          18 :    1.95673214795875
          19 :   -1.54104032343673
          20 :  -0.934861505596473
          21 :    4.64921924155419
          22 :   -7.97336017486964
          23 :    9.51128249244721
          24 :   -8.86301789650042
          25 :    6.75157492018343
          26 :   -4.53404199872648
          27 :    3.43018103387965
          28 :   -3.90572473406462
          29 :    5.51487920260706
          30 :   -7.23668768865605
          31 :   -44.4016131363198
          32 :   -32.8966429657164

     Forces acting on atoms (Ry/au):

     negative rho (up, down):  5.945E-01 0.000E+00
     atom    1 type  1   force =    -0.00072611   -0.00051908    0.03917382
     atom    2 type  2   force =     0.00278332    0.00207203   -0.01426310
     atom    3 type  2   force =     0.00286146    0.00196306   -0.01426311
     atom    4 type  1   force =    -0.00072566   -0.00051871    0.03917108
     atom    5 type  1   force =     0.00104201    0.00074484    0.00427724
     atom    6 type  2   force =    -0.00197819   -0.00134995   -0.02739089
     atom    7 type  2   force =    -0.00191750   -0.00143507   -0.02739103
     atom    8 type  1   force =     0.00104174    0.00074468    0.00426976
     atom    9 type  1   force =    -0.00075547   -0.00053998   -0.00029999
     atom   10 type  2   force =    -0.00037595   -0.00039727   -0.00149828
     atom   11 type  2   force =    -0.00049739   -0.00022697   -0.00149863
     atom   12 type  1   force =    -0.00075226   -0.00053759   -0.00028686

     Total force =     0.002642     Total SCF correction =     0.000304
     SCF correction compared to forces is large: reduce conv_thr to get better values

     entering subroutine stress ...

     negative rho (up, down):  5.945E-01 0.000E+00
          total   stress  (Ry/bohr**3)                   (kbar)     P=  -24.63
  -0.00019857  -0.00001153  -0.00000520        -29.21     -1.70     -0.77
  -0.00001153  -0.00019068  -0.00000372         -1.70    -28.05     -0.55
  -0.00000520  -0.00000372  -0.00011301         -0.77     -0.55    -16.62

     bfgs converged in  13 scf cycles and  12 bfgs steps
     (criteria: energy <  1.0E+00, force <  1.9E-03)

     End of BFGS Geometry Optimization

     Final energy   =   -2156.2450964460 Ry
Begin final coordinates

ATOMIC_POSITIONS (crystal)
Rh1     -0.000000000  -0.000000000   0.401900366    0   0   0
Bi1     -0.000000000   0.500000000   0.401900366    0   0   0
Bi1      0.500000000  -0.000000000   0.401900366    0   0   0
Rh1      0.500000000   0.500000000   0.401900366    0   0   0
Rh1      0.755496821   0.755496821   0.500000000    0   0   0
Bi1      0.755496821   0.255496821   0.500000000    0   0   0
Bi1      0.255496821   0.755496821   0.500000000    0   0   0
Rh1      0.255496821   0.255496821   0.500000000    0   0   0
Rh1      0.510533450   0.510533610   0.584725781
Bi1      0.507054834   0.007136907   0.601233400
Bi1      0.007136814   0.507054087   0.601233530
Rh1      0.010524314   0.010523659   0.584723676
End final coordinates

     Writing output data file calc.save

     General routines

     Parallel routines

   This run was terminated on:  22:51:34  23Feb2018

   JOB DONE.