     Program PWSCF v.5.1rc2 (svn rev. ) starts on 23Feb2018 at 22: 1:40

     Current dimensions of program PWSCF are:
     Max number of different atomic species (ntypx) = 10
     Max number of k-points (npk) =  40000
     Max angular momentum in pseudopotentials (lmaxx) =  3
     Presently stress not available with electric field

     IMPORTANT: XC functional enforced from input :
     Exchange-correlation      = BEEF-VDW ( 1  4 27 13 2)
     Any further DFT definition will be discarded
     Please, verify this is what you really want

     Subspace diagonalization in iterative solution of the eigenvalue problem:
     a serial algorithm will be used

     Found symmetry operation: I + (  0.5000  0.5000  0.0000)
     This is a supercell, fractional translations are disabled

     bravais-lattice index     =            0
     lattice parameter (alat)  =       1.8897  a.u.
     unit-cell volume          =    6505.7877 (a.u.)^3
     number of atoms/cell      =           12
     number of atomic types    =            2
     number of electrons       =       210.00
     number of Kohn-Sham states=          115
     kinetic-energy cutoff     =      36.7493  Ry
     charge density cutoff     =     367.4932  Ry
     convergence threshold     =      1.0E-05
     mixing beta               =       0.3000
     number of iterations used =           10  plain     mixing
     Exchange-correlation      = BEEF-VDW ( 1  4 27 13 2)
     nstep                     =           50

     celldm(1)=   1.889726  celldm(2)=   0.000000  celldm(3)=   0.000000
     celldm(4)=   0.000000  celldm(5)=   0.000000  celldm(6)=   0.000000

     crystal axes: (cart. coord. in units of alat)
               a(1) = (   6.433600   0.000000   0.000000 )
               a(2) = (   2.525742   5.917080  -0.000000 )
               a(3) = (   0.000000   0.000000  25.324550 )

     reciprocal axes: (cart. coord. in units 2 pi/alat)
               b(1) = (  0.155434 -0.066348 -0.000000 )
               b(2) = (  0.000000  0.169002 -0.000000 )
               b(3) = (  0.000000  0.000000  0.039487 )

     PseudoPot. # 1 for Zn read from file:
     /home/mamunm/src/pseudo/gbrv1.5pbe/Zn.UPF
     MD5 check sum: df62231357ef9e81f77b2b3087fa5675
     Pseudo is Ultrasoft, Zval = 20.0
     Generated by new atomic code, or converted to UPF format
     Using radial grid of  943 points,  6 beta functions with:
                l(1) =   0
                l(2) =   0
                l(3) =   1
                l(4) =   1
                l(5) =   2
                l(6) =   2
     Q(r) pseudized with  8 coefficients,  rinner =    1.100   1.100   1.100
                                                       1.100   1.100

     PseudoPot. # 2 for Bi read from file:
     /home/mamunm/src/pseudo/gbrv1.5pbe/Bi.UPF
     MD5 check sum: 81103212dc04adf40945787f699eab19
     Pseudo is Ultrasoft + core correction, Zval = 15.0
     Generated by new atomic code, or converted to UPF format
     Using radial grid of  899 points,  6 beta functions with:
                l(1) =   0
                l(2) =   0
                l(3) =   1
                l(4) =   1
                l(5) =   2
                l(6) =   2
     Q(r) pseudized with  6 coefficients,  rinner =    1.000   1.000   1.000
                                                       1.000   1.000

     vdW kernel table read from file vdW_kernel_table
     MD5 check sum: 095c7af220d748ca6e76c0b4c6cfb241

     atomic species   valence    mass     pseudopotential
        Zn1           20.00    65.38000     Zn( 1.00)
        Bi1           15.00   208.98040     Bi( 1.00)

     No symmetry found

   Cartesian axes

     site n.     atom                  positions (alat units)
         1           Zn1 tau(   1) = (   0.0000000   0.0000000  10.0000000  )
         2           Bi1 tau(   2) = (   1.2628711   2.9585402  10.0000000  )
         3           Bi1 tau(   3) = (   3.2168002   0.0000000  10.0000000  )
         4           Zn1 tau(   4) = (   4.4796714   2.9585402  10.0000000  )
         5           Zn1 tau(   5) = (   6.4336004   4.2489870  12.6622748  )
         6           Bi1 tau(   6) = (   5.1707293   1.2904468  12.6622748  )
         7           Bi1 tau(   7) = (   3.2168002   4.2489870  12.6622748  )
         8           Zn1 tau(   8) = (   1.9539291   1.2904468  12.6622748  )
         9           Zn1 tau(   9) = (   3.9078582   2.5808937  15.3245496  )
        10           Bi1 tau(  10) = (   5.1707293   5.5394339  15.3245496  )
        11           Bi1 tau(  11) = (   7.1246584   2.5808937  15.3245496  )
        12           Zn1 tau(  12) = (   8.3875295   5.5394339  15.3245496  )

     number of k points=    20  Fermi-Dirac smearing, width (Ry)=  0.0110
                       cart. coord. in units 2pi/alat
        k(    1) = (   0.0000000   0.0000000   0.0000000), wk =   0.0555556
        k(    2) = (   0.0000000   0.0281670  -0.0000000), wk =   0.1111111
        k(    3) = (   0.0000000   0.0563341  -0.0000000), wk =   0.1111111
        k(    4) = (   0.0000000  -0.0845011   0.0000000), wk =   0.0555556
        k(    5) = (   0.0259057  -0.0110580  -0.0000000), wk =   0.1111111
        k(    6) = (   0.0259057   0.0171091  -0.0000000), wk =   0.1111111
        k(    7) = (   0.0259057   0.0452761  -0.0000000), wk =   0.1111111
        k(    8) = (   0.0259057  -0.0955591   0.0000000), wk =   0.1111111
        k(    9) = (   0.0259057  -0.0673921   0.0000000), wk =   0.1111111
        k(   10) = (   0.0259057  -0.0392250   0.0000000), wk =   0.1111111
        k(   11) = (   0.0518113  -0.0221160  -0.0000000), wk =   0.1111111
        k(   12) = (   0.0518113   0.0060511  -0.0000000), wk =   0.1111111
        k(   13) = (   0.0518113   0.0342181  -0.0000000), wk =   0.1111111
        k(   14) = (   0.0518113  -0.1066171   0.0000000), wk =   0.1111111
        k(   15) = (   0.0518113  -0.0784501   0.0000000), wk =   0.1111111
        k(   16) = (   0.0518113  -0.0502830   0.0000000), wk =   0.1111111
        k(   17) = (  -0.0777170   0.0331740   0.0000000), wk =   0.0555556
        k(   18) = (  -0.0777170   0.0613410  -0.0000000), wk =   0.1111111
        k(   19) = (  -0.0777170   0.0895081  -0.0000000), wk =   0.1111111
        k(   20) = (  -0.0777170  -0.0513272   0.0000000), wk =   0.0555556

     Largest allocated arrays     est. size (Mb)     dimensions
     Largest temporary arrays     est. size (Mb)     dimensions

     Initial potential from superposition of free atoms
     Check: negative starting charge=   -0.252637

     starting charge  203.99890, renormalised to  210.00000

     negative rho (up, down):  2.601E-01 0.000E+00

     *
     * You are using vdW-DF for exchange-correlation in this calculation.
     * Please cite the following three references that made this development
     * possible:
     *
     *   M. Dion, H. Rydberg, E. Schroder, D. C. Langreth, and
     *   B. I. Lundqvist, Phys. Rev. Lett. 92, 246401 (2004).
     *
     *   T. Thonhauser, V. R. Cooper, S. Li, A. Puzder, P. Hyldgaard, and
     *   D. C. Langreth, Phys. Rev. B 76, 125112 (2007).
     *
     *   G. Roman-Perez and J. M. Soler, Phys. Rev. Lett. 103, 096102 (2009).
     *
     *
     * If you are using vdW-DF2, please also cite:
     *
     *   K. Lee, E. D. Murray, L. Kong, B. I. Lundqvist, and
     *   D. C. Langreth, Phys. Rev. B 82, 081101(R) (2010).
     *
     *
     * If you are calculating the stress with vdW-DF, please also cite:
     *
     *   R. Sabatini, E. Kucukbenli, B. Kolb, T. Thonhauser, and
     *   S. de Gironcoli, J. Phys.: Condens. Matter 24, 424209 (2012).
     *

     Carrying out vdW-DF run using the following parameters:

     Nqs =      20    Nr_points =    1024   r_max =   100.000
     q_mesh =
               0.00001000     0.04494208     0.09755937     0.15916263
               0.23128650     0.31572767     0.41458969     0.53033537
               0.66584808     0.82450364     1.01025438     1.22772762
               1.48234092     1.78043706     2.12944203     2.53805004
               3.01644009     3.57652955     4.23227104     5.00000000

     Gradients computed in reciprocal space

     Adding external electric field

     Computed dipole along edir(3) :
        Dipole               -0.0000 Ry au,         -0.0000 Debye
        Dipole field         -0.0000 Ry au

        Potential amp.        0.0000 Ry
        Total length         46.6601 bohr

     Starting wfc are  132 randomized atomic wfcs

     Self-consistent Calculation

     iteration #  1     ecut=    36.75 Ry     beta=0.30
     Davidson diagonalization with overlap
     ethr =  1.00E-02,  avg # of iterations =  3.4

[...]

     total energy              =   -3845.58188944 Ry
     Harris-Foulkes estimate   =   -3908.24768406 Ry
     estimated scf accuracy    <     128.82871297 Ry

[...]

     iteration # 10     ecut=    36.75 Ry     beta=0.30
     Davidson diagonalization with overlap
     c_bands:  1 eigenvalues not converged
     ethr =  3.40E-07,  avg # of iterations =  3.1

[...]

     End of self-consistent calculation

          k = 0.0000 0.0000 0.0000 ( 24439 PWs)   bands (ev):

  -125.8634-125.8634-125.7001-125.7001-125.6994-125.6994 -80.0569 -80.0567
   -80.0468 -80.0465 -80.0380 -80.0378 -79.8928 -79.8927 -79.8923 -79.8921
   -79.8839 -79.8836 -79.8833 -79.8830 -79.8744 -79.8742 -79.8738 -79.8735
   -22.9223 -22.8909 -22.8656 -22.8622 -22.8547 -22.8543 -22.8536 -22.8514
   -22.8424 -22.8358 -22.8136 -22.7966 -22.7946 -22.7834 -22.7831 -22.7829
   -22.7583 -22.7572 -22.7489 -22.7466 -22.7465 -22.7463 -22.7460 -22.7454
   -22.7444 -22.7430 -22.7308 -22.7303 -22.7192 -22.7153 -11.6821 -10.8618
   -10.2245  -9.9386  -9.5843  -9.4006  -6.8398  -6.7848  -6.7821  -6.7675
    -6.7605  -6.7339  -6.7222  -6.7123  -6.7028  -6.7013  -6.6682  -6.6639
    -6.6637  -6.6173  -6.5985  -6.5861  -6.5823  -6.5782  -6.5651  -6.5639
    -6.5638  -6.5583  -6.5549  -6.5508  -6.5211  -6.5183  -6.4997  -6.4944
    -6.4902  -6.4636  -3.9048  -3.6568  -3.4825  -3.3215  -3.0332  -3.0259
    -2.4699  -2.3084  -1.8852  -1.8249  -1.6852  -1.4566  -1.1331  -0.4454
    -0.4088  -0.3731   0.6319   0.9133   1.8040   1.8492   2.0352   2.6950
     3.1073   3.3367   3.5688

[...]

          k =-0.0777 0.0332 0.0000 ( 24510 PWs)   bands (ev):

[...]

     the Fermi energy is     0.5059 ev

!    total energy              =   -3899.48107075 Ry
     Harris-Foulkes estimate   =   -3899.48107115 Ry
     estimated scf accuracy    <       0.00000123 Ry

     The total energy is the sum of the following terms:

     one-electron contribution =  -18674.13402053 Ry
     hartree contribution      =    9352.94886493 Ry
     xc contribution           =    -659.50495559 Ry
     ewald contribution        =    6081.24790690 Ry
     electric field correction =       0.00000006 Ry
     smearing contrib. (-TS)   =      -0.03886651 Ry

     convergence has been achieved in  13 iterations

 BEEF-vdW xc energy contributions
           1 :   -587.243702982901
           2 :    540.128994365900
           3 :   -459.071358767569
           4 :    364.581071630255
           5 :   -276.264209804754
           6 :    206.240412455850
           7 :   -156.897779979656
           8 :    123.204412697614
           9 :   -97.5598551247805
          10 :    74.2632980041224
          11 :   -51.5048275151138
          12 :    30.5957106909239
          13 :   -13.7476138740727
          14 :    2.15008943015380
          15 :    4.62149396866209
          16 :   -8.00040975054424
          17 :    9.47833037709017
          18 :   -10.0801696509958
          19 :    10.4130313032730
          20 :   -10.9148060360908
          21 :    11.8862315912675
          22 :   -13.2624385554678
          23 :    14.4481929047321
          24 :   -14.5573009062523
          25 :    13.0308530792507
          26 :   -10.2015756917730
          27 :    7.29873729686415
          28 :   -5.76586510921231
          29 :    6.30422835790148
          30 :   -8.32831320320452
          31 :   -46.1849832141244
          32 :   -32.9150345392775

     Forces acting on atoms (Ry/au):

     negative rho (up, down):  2.649E-01 0.000E+00
     atom    1 type  1   force =     0.00207072    0.00136877   -0.00306886
     atom    2 type  2   force =    -0.00125020   -0.00082285    0.01402081
     atom    3 type  2   force =    -0.00124769   -0.00082672    0.01401770
     atom    4 type  1   force =     0.00207825    0.00137154   -0.00306624
     atom    5 type  1   force =     0.00003096    0.00001802   -0.00024951
     atom    6 type  2   force =     0.00004112    0.00002967   -0.00011285
     atom    7 type  2   force =     0.00004263    0.00002429   -0.00011188
     atom    8 type  1   force =    -0.00014793   -0.00009636   -0.00025133
     atom    9 type  1   force =    -0.00193359   -0.00127664    0.00305899
     atom   10 type  2   force =     0.00125459    0.00082347   -0.01364496
     atom   11 type  2   force =     0.00125009    0.00083132   -0.01364575
     atom   12 type  1   force =    -0.00218894   -0.00144452    0.00305388

     Total force =     0.020195     Total SCF correction =     0.001774

     entering subroutine stress ...

     negative rho (up, down):  2.649E-01 0.000E+00
          total   stress  (Ry/bohr**3)                   (kbar)     P=   -7.60
  -0.00005952  -0.00000870  -0.00000258         -8.76     -1.28     -0.38
  -0.00000870  -0.00005210  -0.00000170         -1.28     -7.66     -0.25
  -0.00000258  -0.00000170  -0.00004336         -0.38     -0.25     -6.38

     BFGS Geometry Optimization

     number of scf cycles    =   1
     number of bfgs steps    =   0

     energy   new            =   -3899.4810707457 Ry

     new trust radius        =       0.0137280813 bohr
     new conv_thr            =       0.0000099958 Ry

ATOMIC_POSITIONS (crystal)
Zn1     -0.000000000  -0.000000000   0.394873755    0   0   0
Bi1      0.000000000   0.500000000   0.394873755    0   0   0
Bi1      0.500000000  -0.000000000   0.394873755    0   0   0
Zn1      0.500000000   0.500000000   0.394873755    0   0   0
Zn1      0.718088441   0.718088441   0.500000000    0   0   0
Bi1      0.718088441   0.218088441   0.500000000    0   0   0
Bi1      0.218088441   0.718088441   0.500000000    0   0   0
Zn1      0.218088441   0.218088441   0.500000000    0   0   0
Zn1      0.436062663   0.436062710   0.605190165
Bi1      0.436251163   0.936250527   0.604841122
Bi1      0.936250517   0.436251230   0.604841106
Zn1      0.936047554   0.936047696   0.605190058

     Writing output data file calc.save
     Check: negative starting charge=   -0.252637
     NEW-OLD atomic charge density approx. for the potential
     Check: negative starting charge=   -0.252673

[...]

     Total force =     0.018243     Total SCF correction =     0.002837
     SCF correction compared to forces is large: reduce conv_thr to get better values

[...]

     energy   old            =   -3899.4810707457 Ry
     energy   new            =   -3899.4814562653 Ry

     CASE: energy  _new < energy  _old

     WARNING: bfgs curvature condition failed, Theta= 0.888
     new trust radius        =       0.0205921220 bohr
     new conv_thr            =       0.0000001000 Ry

[...]

     WARNING: bfgs curvature condition failed, Theta= 0.854
     new trust radius        =       0.0308881830 bohr
     new conv_thr            =       0.0000001000 Ry

[...]

     Total force =     0.014641     Total SCF correction =     0.000881

[...]

     number of scf cycles    =   7
     number of bfgs steps    =   6

     energy   old            =   -3899.4852641243 Ry
     energy   new            =   -3899.4866586352 Ry

     CASE: energy  _new < energy  _old

     new trust radius        =       0.1187963283 bohr
     new conv_thr            =       0.0000001000 Ry

ATOMIC_POSITIONS (crystal)
Zn1     -0.000000000  -0.000000000   0.394873755    0   0   0
Bi1     -0.000000000   0.500000000   0.394873755    0   0   0
Bi1      0.500000000  -0.000000000   0.394873755    0   0   0
Zn1      0.500000000   0.500000000   0.394873755    0   0   0
Zn1      0.718088441   0.718088441   0.500000000    0   0   0
Bi1      0.718088441   0.218088441   0.500000000    0   0   0
Bi1      0.218088441   0.718088441   0.500000000    0   0   0
Zn1      0.218088441   0.218088441   0.500000000    0   0   0
Zn1      0.433197164   0.433194870   0.607313645
Bi1      0.438525250   0.938580221   0.596743056
Bi1      0.938578549   0.438524594   0.596742932
Zn1      0.932805526   0.932805819   0.607304833

     Writing output data file calc.save
     Check: negative starting charge=   -0.251476
     NEW-OLD atomic charge density approx. for the potential
     Check: negative starting charge=   -0.251208

[...]

     Self-consistent Calculation

[...]

     total energy              =   -3899.48716979 Ry
     Harris-Foulkes estimate   =   -3899.48716987 Ry
     estimated scf accuracy    <       0.00000023 Ry

     iteration #  9     ecut=    36.75 Ry     beta=0.30
     Davidson diagonalization with overlap
     ethr =  1.10E-10,  avg # of iterations =  3.0

[...]

     negative rho (up, down):  2.636E-01 0.000E+00

     Adding external electric field

     Computed dipole along edir(3) :
        Dipole                0.0134 Ry au,          0.0341 Debye
        Dipole field          0.0000 Ry au

        Potential amp.       -0.0024 Ry
        Total length         46.6601 bohr

     End of self-consistent calculation

[...]

          k = 0.0518-0.0503 0.0000 ( 24494 PWs)   bands (ev):

[...]

          k =-0.0777-0.0513 0.0000 ( 24492 PWs)   bands (ev):

  -125.9199-125.9199-125.6961-125.6961-125.6467-125.6467 -80.1131 -80.1130
   -80.1021 -80.1019 -80.0943 -80.0941 -79.8885 -79.8883 -79.8807 -79.8804
   -79.8706 -79.8705 -79.8405 -79.8402 -79.8296 -79.8293 -79.8213 -79.8213
   -22.9237 -22.8867 -22.8785 -22.8663 -22.8575 -22.8568 -22.8515 -22.8477
   -22.8371 -22.8180 -22.8130 -22.8031 -22.7929 -22.7814 -22.7807 -22.7665
   -22.7654 -22.7584 -22.7550 -22.7546 -22.7500 -22.7439 -22.7420 -22.7305
   -22.7298 -22.7293 -22.7248 -22.7232 -22.7125 -22.7023 -11.1804 -10.8868
   -10.5455 -10.3842  -9.6230  -8.8990  -6.9451  -6.9090  -6.9049  -6.8756
    -6.8520  -6.8195  -6.8091  -6.8076  -6.7927  -6.7881  -6.6890  -6.6779
    -6.6459  -6.6305  -6.6297  -6.6219  -6.6158  -6.6128  -6.5777  -6.5692
    -6.5671  -6.5666  -6.5537  -6.5501  -6.5292  -6.5270  -6.5183  -6.5150
    -6.5043  -6.4796  -5.2510  -5.0748  -4.7246  -3.9847  -3.8004  -2.0184
    -1.3116  -1.0183  -0.6994  -0.5578  -0.3685  -0.3530   0.6022   0.7305
     0.8144   1.1706   1.9794   2.2229   2.2919   2.4150   2.4428   2.6702
     2.8963   2.9949   3.1421

     the Fermi energy is     0.5133 ev

!    total energy              =   -3899.48716972 Ry
     Harris-Foulkes estimate   =   -3899.48716982 Ry
     estimated scf accuracy    <       0.00000003 Ry

     The total energy is the sum of the following terms:

     one-electron contribution =  -18809.87795003 Ry
     hartree contribution      =    9420.78815257 Ry
     xc contribution           =    -659.58073076 Ry
     ewald contribution        =    6149.21993394 Ry
     electric field correction =       0.00000035 Ry
     smearing contrib. (-TS)   =      -0.03657578 Ry

     convergence has been achieved in   9 iterations

 BEEF-vdW xc energy contributions
           1 :   -587.323703146382
           2 :    540.253350160619
           3 :   -459.247248177063
           4 :    364.766668794254
           5 :   -276.393388899889
           6 :    206.266529588411
           7 :   -156.824790019104
           8 :    123.084583998556
           9 :   -97.4614072354254
          10 :    74.2313006138563
          11 :   -51.5409258103707
          12 :    30.6664709825922
          13 :   -13.8109296076591
          14 :    2.17908054567442
          15 :    4.63086329709108
          16 :   -8.03668725658804
          17 :    9.52562437612414
          18 :   -10.1228352885018
          19 :    10.4344496741053
          20 :   -10.8989982284314
          21 :    11.8275844187635
          22 :   -13.1778257486420
          23 :    14.3779344413713
          24 :   -14.5468204116019
          25 :    13.1009341455957
          26 :   -10.3280583686676
          27 :    7.41977445934890
          28 :   -5.81649492944598
          29 :    6.25682673724782
          30 :   -8.21029891394039
          31 :   -46.1924203472172
          32 :   -32.9326864934202

     Forces acting on atoms (Ry/au):

     negative rho (up, down):  2.636E-01 0.000E+00
     atom    1 type  1   force =     0.00204126    0.00134811   -0.00333865
     atom    2 type  2   force =    -0.00218833   -0.00144751    0.01266668
     atom    3 type  2   force =    -0.00219052   -0.00144453    0.01266690
     atom    4 type  1   force =     0.00204402    0.00134973   -0.00335620
     atom    5 type  1   force =     0.00158578    0.00104740   -0.00918625
     atom    6 type  2   force =    -0.00290683   -0.00193675   -0.00313090
     atom    7 type  2   force =    -0.00292232   -0.00191325   -0.00313063
     atom    8 type  1   force =     0.00140360    0.00092698   -0.00920042
     atom    9 type  1   force =     0.00087535    0.00057843    0.00187191
     atom   10 type  2   force =     0.00056472    0.00045877    0.00113418
     atom   11 type  2   force =     0.00064393    0.00033977    0.00113507
     atom   12 type  1   force =     0.00104935    0.00069286    0.00186830

     Total force =     0.003648     Total SCF correction =     0.001320
     SCF correction compared to forces is large: reduce conv_thr to get better values

     entering subroutine stress ...

     negative rho (up, down):  2.636E-01 0.000E+00
          total   stress  (Ry/bohr**3)                   (kbar)     P=   -7.21
  -0.00005843  -0.00000822   0.00000276         -8.59     -1.21      0.41
  -0.00000822  -0.00005141   0.00000182         -1.21     -7.56      0.27
   0.00000276   0.00000182  -0.00003724          0.41      0.27     -5.48

     bfgs converged in   8 scf cycles and   7 bfgs steps
     (criteria: energy <  1.0E+00, force <  1.9E-03)

     End of BFGS Geometry Optimization

     Final energy   =   -3899.4871697169 Ry
Begin final coordinates

ATOMIC_POSITIONS (crystal)
Zn1     -0.000000000  -0.000000000   0.394873755    0   0   0
Bi1     -0.000000000   0.500000000   0.394873755    0   0   0
Bi1      0.500000000  -0.000000000   0.394873755    0   0   0
Zn1      0.500000000   0.500000000   0.394873755    0   0   0
Zn1      0.718088441   0.718088441   0.500000000    0   0   0
Bi1      0.718088441   0.218088441   0.500000000    0   0   0
Bi1      0.218088441   0.718088441   0.500000000    0   0   0
Zn1      0.218088441   0.218088441   0.500000000    0   0   0
Zn1      0.433197164   0.433194870   0.607313645
Bi1      0.438525250   0.938580221   0.596743056
Bi1      0.938578549   0.438524594   0.596742932
Zn1      0.932805526   0.932805819   0.607304833
End final coordinates

     Writing output data file calc.save

     General routines

     Parallel routines

   This run was terminated on:  22:35:18  23Feb2018

   JOB DONE.