     Program PWSCF v.5.1rc2 (svn rev. ) starts on 23Feb2018 at 22:10:25

     Current dimensions of program PWSCF are:
     Max number of different atomic species (ntypx) = 10
     Max number of k-points (npk) =  40000
     Max angular momentum in pseudopotentials (lmaxx) =  3
     Presently stress not available with electric field

     IMPORTANT: XC functional enforced from input :
     Exchange-correlation      = BEEF-VDW ( 1  4 27 13 2)
     Any further DFT definition will be discarded
     Please, verify this is what you really want

     Subspace diagonalization in iterative solution of the eigenvalue problem:
     a serial algorithm will be used

     Found symmetry operation: I + ( -0.5000 -0.5000  0.0000)
     This is a supercell, fractional translations are disabled

     bravais-lattice index     =            0
     lattice parameter (alat)  =       1.8897  a.u.
     unit-cell volume          =    6004.2108 (a.u.)^3
     number of atoms/cell      =           12
     number of atomic types    =            2
     number of electrons       =       186.00
     number of Kohn-Sham states=          103
     kinetic-energy cutoff     =      36.7493  Ry
     charge density cutoff     =     367.4932  Ry
     convergence threshold     =      1.0E-05
     mixing beta               =       0.3000
     number of iterations used =           10  plain     mixing
     Exchange-correlation      = BEEF-VDW ( 1  4 27 13 2)
     nstep                     =           50

     celldm(1)=   1.889726  celldm(2)=   0.000000  celldm(3)=   0.000000
     celldm(4)=   0.000000  celldm(5)=   0.000000  celldm(6)=   0.000000

     crystal axes: (cart. coord. in units of alat)
               a(1) = (   6.143133   0.000000   0.000000 )
               a(2) = (   2.055198   5.789149   0.000000 )
               a(3) = (   0.000000  -0.000000  25.018120 )

     reciprocal axes: (cart. coord. in units 2 pi/alat)
               b(1) = (  0.162783 -0.057790 -0.000000 )
               b(2) = (  0.000000  0.172737  0.000000 )
               b(3) = (  0.000000  0.000000  0.039971 )

     PseudoPot. # 1 for Pt read from file:
     /home/mamunm/src/pseudo/gbrv1.5pbe/Pt.UPF
     MD5 check sum: f09d6de1a584b5a045c4fc126da2d0c4
     Pseudo is Ultrasoft + core correction, Zval = 16.0
     Generated by new atomic code, or converted to UPF format
     Using radial grid of  985 points,  6 beta functions with:
                l(1) =   0
                l(2) =   0
                l(3) =   1
                l(4) =   1
                l(5) =   2
                l(6) =   2
     Q(r) pseudized with  8 coefficients,  rinner =    1.300   1.300   1.300
                                                       1.300   1.300

     PseudoPot. # 2 for Bi read from file:
     /home/mamunm/src/pseudo/gbrv1.5pbe/Bi.UPF
     MD5 check sum: 81103212dc04adf40945787f699eab19
     Pseudo is Ultrasoft + core correction, Zval = 15.0
     Generated by new atomic code, or converted to UPF format
     Using radial grid of  899 points,  6 beta functions with:
                l(1) =   0
                l(2) =   0
                l(3) =   1
                l(4) =   1
                l(5) =   2
                l(6) =   2
     Q(r) pseudized with  6 coefficients,  rinner =    1.000   1.000   1.000
                                                       1.000   1.000

     vdW kernel table read from file vdW_kernel_table
     MD5 check sum: 095c7af220d748ca6e76c0b4c6cfb241

     atomic species   valence    mass     pseudopotential
        Pt1           16.00   195.08400     Pt( 1.00)
        Bi1           15.00   208.98040     Bi( 1.00)

     No symmetry found

   Cartesian axes

     site n.     atom                  positions (alat units)
         1           Pt1 tau(   1) = (   0.0000000  -0.0000000  10.0000000  )
         2           Bi1 tau(   2) = (   1.0275989   2.8945745  10.0000000  )
         3           Bi1 tau(   3) = (   3.0715666  -0.0000000  10.0000000  )
         4           Pt1 tau(   4) = (   4.0991654   2.8945745  10.0000000  )
         5           Pt1 tau(   5) = (   6.1431331   4.3378968  12.5090601  )
         6           Bi1 tau(   6) = (   5.1155343   1.4433223  12.5090601  )
         7           Bi1 tau(   7) = (   3.0715666   4.3378968  12.5090601  )
         8           Pt1 tau(   8) = (   2.0439677   1.4433223  12.5090601  )
         9           Pt1 tau(   9) = (   4.0879354   2.8866446  15.0181201  )
        10           Bi1 tau(  10) = (   5.1155343   5.7812191  15.0181201  )
        11           Bi1 tau(  11) = (   7.1595019   2.8866446  15.0181201  )
        12           Pt1 tau(  12) = (   8.1871008   5.7812191  15.0181201  )

     number of k points=    20  Fermi-Dirac smearing, width (Ry)=  0.0110
                       cart. coord. in units 2pi/alat
        k(    1) = (   0.0000000   0.0000000   0.0000000), wk =   0.0555556
        k(    2) = (   0.0000000   0.0287895   0.0000000), wk =   0.1111111
        k(    3) = (   0.0000000   0.0575790   0.0000000), wk =   0.1111111
        k(    4) = (   0.0000000  -0.0863685  -0.0000000), wk =   0.0555556
        k(    5) = (   0.0271306  -0.0096316  -0.0000000), wk =   0.1111111
        k(    6) = (   0.0271306   0.0191579  -0.0000000), wk =   0.1111111
        k(    7) = (   0.0271306   0.0479474  -0.0000000), wk =   0.1111111
        k(    8) = (   0.0271306  -0.0960001  -0.0000000), wk =   0.1111111
        k(    9) = (   0.0271306  -0.0672106  -0.0000000), wk =   0.1111111
        k(   10) = (   0.0271306  -0.0384211  -0.0000000), wk =   0.1111111
        k(   11) = (   0.0542611  -0.0192632  -0.0000000), wk =   0.1111111
        k(   12) = (   0.0542611   0.0095263  -0.0000000), wk =   0.1111111
        k(   13) = (   0.0542611   0.0383158  -0.0000000), wk =   0.1111111
        k(   14) = (   0.0542611  -0.1056316  -0.0000000), wk =   0.1111111
        k(   15) = (   0.0542611  -0.0768422  -0.0000000), wk =   0.1111111
        k(   16) = (   0.0542611  -0.0480527  -0.0000000), wk =   0.1111111
        k(   17) = (  -0.0813917   0.0288948   0.0000000), wk =   0.0555556
        k(   18) = (  -0.0813917   0.0576842   0.0000000), wk =   0.1111111
        k(   19) = (  -0.0813917   0.0864737   0.0000000), wk =   0.1111111
        k(   20) = (  -0.0813917  -0.0574737   0.0000000), wk =   0.0555556

     Largest allocated arrays     est. size (Mb)     dimensions
     Largest temporary arrays     est. size (Mb)     dimensions

     Check: negative/imaginary core charge=   -0.000001    0.000000

     Initial potential from superposition of free atoms
     Check: negative starting charge=   -1.364639

     starting charge  176.99968, renormalised to  186.00000

     negative rho (up, down):  1.434E+00 0.000E+00

     *
     * You are using vdW-DF for exchange-correlation in this calculation.
     * Please cite the following three references that made this development
     * possible:
     *
     *   M. Dion, H. Rydberg, E. Schroder, D. C. Langreth, and
     *   B. I. Lundqvist, Phys. Rev. Lett. 92, 246401 (2004).
     *
     *   T. Thonhauser, V. R. Cooper, S. Li, A. Puzder, P. Hyldgaard, and
     *   D. C. Langreth, Phys. Rev. B 76, 125112 (2007).
     *
     *   G. Roman-Perez and J. M. Soler, Phys. Rev. Lett. 103, 096102 (2009).
     *
     *
     * If you are using vdW-DF2, please also cite:
     *
     *   K. Lee, E. D. Murray, L. Kong, B. I. Lundqvist, and
     *   D. C. Langreth, Phys. Rev. B 82, 081101(R) (2010).
     *
     *
     * If you are calculating the stress with vdW-DF, please also cite:
     *
     *   R. Sabatini, E. Kucukbenli, B. Kolb, T. Thonhauser, and
     *   S. de Gironcoli, J. Phys.: Condens. Matter 24, 424209 (2012).
     *

     Carrying out vdW-DF run using the following parameters:

     Nqs =      20    Nr_points =    1024   r_max =   100.000
     q_mesh =
               0.00001000     0.04494208     0.09755937     0.15916263
               0.23128650     0.31572767     0.41458969     0.53033537
               0.66584808     0.82450364     1.01025438     1.22772762
               1.48234092     1.78043706     2.12944203     2.53805004
               3.01644009     3.57652955     4.23227104     5.00000000

     Gradients computed in reciprocal space

     Adding external electric field

     Computed dipole along edir(3) :
        Dipole               -0.0000 Ry au,         -0.0000 Debye
        Dipole field         -0.0000 Ry au

        Potential amp.        0.0000 Ry
        Total length         46.0955 bohr

     Starting wfc are  126 randomized atomic wfcs

     Self-consistent Calculation

     iteration #  1     ecut=    36.75 Ry     beta=0.30
     Davidson diagonalization with overlap
     ethr =  1.00E-02,  avg # of iterations =  4.8

[...]

     total energy              =   -2388.95241252 Ry
     Harris-Foulkes estimate   =   -2401.96423581 Ry
     estimated scf accuracy    <      28.67305177 Ry

[...]

     End of self-consistent calculation

          k = 0.0000 0.0000 0.0000 ( 22581 PWs)   bands (ev):

   -51.0270 -51.0242 -51.0116 -50.9993 -50.9743 -50.9716 -50.5103 -50.5095
   -50.5088 -50.5083 -50.4524 -50.4516 -50.4405 -50.4397 -50.3431 -50.3421
   -50.3415 -50.3409 -22.2040 -22.1645 -22.1567 -22.1415 -22.1409 -22.1371
   -22.1293 -22.1219 -22.1010 -22.0841 -21.9891 -21.9876 -21.9488 -21.9464
   -21.9259 -21.9246 -21.9127 -21.9123 -21.9115 -21.9110 -21.9100 -21.9080
   -21.9076 -21.9061 -21.9006 -21.8931 -21.8847 -21.8842 -21.8574 -21.8526
   -11.2994 -10.1691  -9.3873  -9.2922  -8.9013  -8.8944  -3.2542  -3.2275
    -2.7079  -2.6256  -2.3682  -2.2102  -2.0301  -2.0260  -1.9625  -1.7070
    -1.6785  -1.4635  -1.3557  -1.2478  -1.1929  -1.1909  -0.9704  -0.9270
    -0.6969  -0.5892  -0.5824  -0.5234  -0.4534  -0.4254  -0.4244  -0.3942
    -0.3934  -0.3669  -0.3613  -0.3093  -0.2403  -0.2390  -0.1789  -0.1764
     0.1221   0.1488   0.2988   0.3758   0.5530   0.6559   0.6888   1.5925
     1.7048   1.7947   2.5538   2.5812   3.1307   3.1321   3.5092

[...]

          k =-0.0814 0.0289 0.0000 ( 22586 PWs)   bands (ev):

[...]

     the Fermi energy is     1.3697 ev

!    total energy              =   -2397.16512810 Ry
     Harris-Foulkes estimate   =   -2397.16513127 Ry
     estimated scf accuracy    <       0.00000410 Ry

     The total energy is the sum of the following terms:

     one-electron contribution =  -14074.78881264 Ry
     hartree contribution      =    7083.48286486 Ry
     xc contribution           =    -751.37638741 Ry
     ewald contribution        =    5345.54991703 Ry
     electric field correction =       0.00000022 Ry
     smearing contrib. (-TS)   =      -0.03271017 Ry

     convergence has been achieved in  13 iterations

 BEEF-vdW xc energy contributions
           1 :   -669.543407444161
           2 :    622.454024820571
           3 :   -538.868637849790
           4 :    436.108210727044
           5 :   -332.588053332244
           6 :    242.623128910487
           7 :   -173.365268286604
           8 :    124.577008197962
           9 :   -90.9189057183662
          10 :    65.4967029663774
          11 :   -43.0831457920835
          12 :    21.7672702449695
          13 :   -2.67361270583501
          14 :   -11.7111434544420
          15 :    19.5286802358276
          16 :   -20.8452071819786
          17 :    17.7319827700453
          18 :   -13.2797791583339
          19 :    10.1827231197390
          20 :   -9.66398986105798
          21 :    11.2420933542965
          22 :   -13.3521898594150
          23 :    14.3921051989696
          24 :   -13.6094226270538
          25 :    11.3990161210503
          26 :   -8.93835688483443
          27 :    7.43444637854418
          28 :   -7.43602628719805
          29 :    8.57875948240257
          30 :   -9.86371367181482
          31 :   -54.0044805611486
          32 :   -39.7490640091069

     Forces acting on atoms (Ry/au):

     negative rho (up, down):  1.330E+00 0.000E+00
     atom    1 type  1   force =    -0.00004655   -0.00003240    0.02556192
     atom    2 type  2   force =    -0.00041068    0.00005913    0.00121301
     atom    3 type  2   force =    -0.00007957   -0.00040471    0.00121122
     atom    4 type  1   force =    -0.00002802   -0.00001999    0.02551648
     atom    5 type  1   force =     0.00000281    0.00000195   -0.00055749
     atom    6 type  2   force =     0.00014182   -0.00019062    0.00041178
     atom    7 type  2   force =    -0.00013326    0.00019563    0.00041155
     atom    8 type  1   force =    -0.00000896   -0.00000600   -0.00055089
     atom    9 type  1   force =     0.00004353    0.00003048   -0.02651551
     atom   10 type  2   force =     0.00040026   -0.00003851   -0.00009220
     atom   11 type  2   force =     0.00009452    0.00038799   -0.00009068
     atom   12 type  1   force =     0.00002410    0.00001706   -0.02651919

     Total force =     0.037506     Total SCF correction =     0.001150

     entering subroutine stress ...

     negative rho (up, down):  1.330E+00 0.000E+00
          total   stress  (Ry/bohr**3)                   (kbar)     P=  -19.99
  -0.00014751   0.00001087   0.00000089        -21.70      1.60      0.13
   0.00001087  -0.00015523   0.00000063          1.60    -22.84      0.09
   0.00000089   0.00000063  -0.00010484          0.13      0.09    -15.42

     BFGS Geometry Optimization

     number of scf cycles    =   1
     number of bfgs steps    =   0

     energy   new            =   -2397.1651281049 Ry

     new trust radius        =       0.0265192066 bohr
     new conv_thr            =       0.0000099958 Ry

ATOMIC_POSITIONS (crystal)
Pt1      0.000000000  -0.000000000   0.399710288    0   0   0
Bi1      0.000000000   0.500000000   0.399710288    0   0   0
Bi1      0.500000000  -0.000000000   0.399710288    0   0   0
Pt1      0.500000000   0.500000000   0.399710288    0   0   0
Pt1      0.749315104   0.749315104   0.500000000    0   0   0
Bi1      0.749315104   0.249315104   0.500000000    0   0   0
Bi1      0.249315104   0.749315104   0.500000000    0   0   0
Pt1      0.249315104   0.249315104   0.500000000    0   0   0
Pt1      0.498633025   0.498632993   0.599728863
Bi1      0.498665864   0.998626687   0.600287762
Bi1      0.998626485   0.498665673   0.600287794
Pt1      0.998631762   0.998631767   0.599728785

     Writing output data file calc.save
     Check: negative starting charge=   -1.364639
     NEW-OLD atomic charge density approx. for the potential

     Check: negative/imaginary core charge=   -0.000001    0.000000
     Check: negative starting charge=   -1.364709

[...]

     Total force =     0.036232     Total SCF correction =     0.006119
     SCF correction compared to forces is large: reduce conv_thr to get better values

[...]

     energy   old            =   -2397.1651281049 Ry
     energy   new            =   -2397.1664906921 Ry

     CASE: energy  _new < energy  _old

     WARNING: bfgs curvature condition failed, Theta= 0.829
     new trust radius        =       0.0291711272 bohr
     new conv_thr            =       0.0000001000 Ry

[...]

     Total force =     0.003859     Total SCF correction =     0.000216

[...]

     number of scf cycles    =   8
     number of bfgs steps    =   7

     energy   old            =   -2397.1800033970 Ry
     energy   new            =   -2397.1806950248 Ry

     CASE: energy  _new < energy  _old

     new trust radius        =       0.0250083306 bohr
     new conv_thr            =       0.0000001000 Ry

ATOMIC_POSITIONS (crystal)
Pt1     -0.000000000  -0.000000000   0.399710288    0   0   0
Bi1      0.000000000   0.500000000   0.399710288    0   0   0
Bi1      0.500000000  -0.000000000   0.399710288    0   0   0
Pt1      0.500000000   0.500000000   0.399710288    0   0   0
Pt1      0.749315104   0.749315104   0.500000000    0   0   0
Bi1      0.749315104   0.249315104   0.500000000    0   0   0
Bi1      0.249315104   0.749315104   0.500000000    0   0   0
Pt1      0.249315104   0.249315104   0.500000000    0   0   0
Pt1      0.498684383   0.498684127   0.589614076
Bi1      0.499009683   0.998871127   0.599945612
Bi1      0.998869458   0.499007650   0.599945829
Pt1      0.998696111   0.998696178   0.589609896

     Writing output data file calc.save
     Check: negative starting charge=   -1.363063
     NEW-OLD atomic charge density approx. for the potential

     Check: negative/imaginary core charge=   -0.000001    0.000000
     Check: negative starting charge=   -1.364396

[...]

     Self-consistent Calculation

[...]

     total energy              =   -2397.18073986 Ry
     Harris-Foulkes estimate   =   -2397.18073988 Ry
     estimated scf accuracy    <       0.00000025 Ry

     iteration #  8     ecut=    36.75 Ry     beta=0.30
     Davidson diagonalization with overlap
     ethr =  1.33E-10,  avg # of iterations =  2.0

[...]

     negative rho (up, down):  1.331E+00 0.000E+00

     Adding external electric field

     Computed dipole along edir(3) :
        Dipole                0.0891 Ry au,          0.2265 Debye
        Dipole field          0.0002 Ry au

        Potential amp.       -0.0172 Ry
        Total length         46.0955 bohr

     End of self-consistent calculation

[...]

          k = 0.0543-0.0481-0.0000 ( 22620 PWs)   bands (ev):

[...]

          k =-0.0814-0.0575 0.0000 ( 22610 PWs)   bands (ev):

   -50.9889 -50.9878 -50.9635 -50.9515 -50.9287 -50.9276 -50.6664 -50.6652
   -50.6458 -50.6335 -50.5847 -50.5837 -50.3957 -50.3945 -50.3348 -50.3229
   -50.2076 -50.2066 -22.1019 -22.0583 -22.0497 -22.0444 -22.0366 -22.0351
   -22.0244 -22.0202 -21.9968 -21.9674 -21.9359 -21.8980 -21.8956 -21.8762
   -21.8631 -21.8604 -21.8595 -21.8589 -21.8574 -21.8517 -21.8390 -21.8312
   -21.8202 -21.8187 -21.8181 -21.8139 -21.8135 -21.8047 -21.7942 -21.7698
   -10.4084 -10.0213  -9.7755  -9.7260  -8.8118  -7.9964  -4.9303  -4.6783
    -4.4002  -3.4439  -3.3849  -3.3681  -3.0567  -2.6925  -2.3048  -1.8244
    -1.7110  -1.6519  -1.6225  -1.6194  -1.6078  -1.5268  -1.4588  -1.3656
    -1.2385  -1.0634  -0.9055  -0.6770  -0.5161  -0.4881  -0.4817  -0.4128
    -0.4061  -0.1100  -0.1083   0.0145   0.0489   0.1247   0.3502   0.4067
     0.7208   0.9684   1.2636   1.5718   2.1805   2.2771   3.4742   3.4915
     3.6341   3.9386   4.3818   4.5060   4.5523   4.8898   5.1526

     the Fermi energy is     1.4404 ev

!    total energy              =   -2397.18073981 Ry
     Harris-Foulkes estimate   =   -2397.18074004 Ry
     estimated scf accuracy    <       0.00000007 Ry

     The total energy is the sum of the following terms:

     one-electron contribution =  -14354.67911476 Ry
     hartree contribution      =    7223.68396822 Ry
     xc contribution           =    -751.53038487 Ry
     ewald contribution        =    5485.37532638 Ry
     electric field correction =       0.00001661 Ry
     smearing contrib. (-TS)   =      -0.03055139 Ry

     convergence has been achieved in   8 iterations

 BEEF-vdW xc energy contributions
           1 :   -669.709496455266
           2 :    622.716665738495
           3 :   -539.254704554020
           4 :    436.549633884739
           5 :   -332.955216054994
           6 :    242.795221765904
           7 :   -173.298646689216
           8 :    124.334318439765
           9 :   -90.6434377758004
          10 :    65.3440040999919
          11 :   -43.1449073727897
          12 :    22.0271336989180
          13 :   -3.01713611806895
          14 :   -11.4384027302301
          15 :    19.4443015768095
          16 :   -20.9726253484957
          17 :    17.9922057360151
          18 :   -13.5354078794772
          19 :    10.3100582252388
          20 :   -9.61533027539940
          21 :    11.0657154287871
          22 :   -13.1612346875042
          23 :    14.3019714981467
          24 :   -13.6784188569638
          25 :    11.6014081564454
          26 :   -9.18148871588801
          27 :    7.61023441887028
          28 :   -7.47870215601290
          29 :    8.49679846548338
          30 :   -9.73029746164502
          31 :   -54.0173234980143
          32 :   -39.7855010502191

     Forces acting on atoms (Ry/au):

     negative rho (up, down):  1.331E+00 0.000E+00
     atom    1 type  1   force =    -0.00002644   -0.00001876    0.02093112
     atom    2 type  2   force =    -0.00028945   -0.00017482   -0.00130067
     atom    3 type  2   force =    -0.00026161   -0.00021434   -0.00130063
     atom    4 type  1   force =    -0.00002213   -0.00001555    0.02092933
     atom    5 type  1   force =     0.00000690    0.00000472    0.00356428
     atom    6 type  2   force =     0.00017366    0.00009676   -0.02147061
     atom    7 type  2   force =     0.00014922    0.00013121   -0.02146962
     atom    8 type  1   force =     0.00000245    0.00000183    0.00358128
     atom    9 type  1   force =     0.00006380    0.00004528   -0.00007155
     atom   10 type  2   force =     0.00003699    0.00008888   -0.00166803
     atom   11 type  2   force =     0.00009727    0.00000607   -0.00166871
     atom   12 type  1   force =     0.00006933    0.00004871   -0.00005618

     Total force =     0.002368     Total SCF correction =     0.000458
     SCF correction compared to forces is large: reduce conv_thr to get better values

     entering subroutine stress ...

     negative rho (up, down):  1.331E+00 0.000E+00
          total   stress  (Ry/bohr**3)                   (kbar)     P=  -13.48
  -0.00011429  -0.00000347   0.00000066        -16.81     -0.51      0.10
  -0.00000347  -0.00011182   0.00000047         -0.51    -16.45      0.07
   0.00000066   0.00000047  -0.00004880          0.10      0.07     -7.18

     bfgs converged in   9 scf cycles and   8 bfgs steps
     (criteria: energy <  1.0E+00, force <  1.9E-03)

     End of BFGS Geometry Optimization

     Final energy   =   -2397.1807398116 Ry
Begin final coordinates

ATOMIC_POSITIONS (crystal)
Pt1     -0.000000000  -0.000000000   0.399710288    0   0   0
Bi1      0.000000000   0.500000000   0.399710288    0   0   0
Bi1      0.500000000  -0.000000000   0.399710288    0   0   0
Pt1      0.500000000   0.500000000   0.399710288    0   0   0
Pt1      0.749315104   0.749315104   0.500000000    0   0   0
Bi1      0.749315104   0.249315104   0.500000000    0   0   0
Bi1      0.249315104   0.749315104   0.500000000    0   0   0
Pt1      0.249315104   0.249315104   0.500000000    0   0   0
Pt1      0.498684383   0.498684127   0.589614076
Bi1      0.499009683   0.998871127   0.599945612
Bi1      0.998869458   0.499007650   0.599945829
Pt1      0.998696111   0.998696178   0.589609896
End final coordinates

     Writing output data file calc.save

     General routines

     Parallel routines

   This run was terminated on:  22:47: 8  23Feb2018

   JOB DONE.