     Program PWSCF v.5.1rc2 (svn rev. ) starts on 23Feb2018 at 22:17: 4

     Current dimensions of program PWSCF are:
     Max number of different atomic species (ntypx) = 10
     Max number of k-points (npk) =  40000
     Max angular momentum in pseudopotentials (lmaxx) =  3
     Presently stress not available with electric field

     IMPORTANT: XC functional enforced from input :
     Exchange-correlation      = BEEF-VDW ( 1  4 27 13 2)
     Any further DFT definition will be discarded
     Please, verify this is what you really want

     Subspace diagonalization in iterative solution of the eigenvalue problem:
     a serial algorithm will be used

     Found symmetry operation: I + (  0.5000 -0.5000  0.0000)
     This is a supercell, fractional translations are disabled

     bravais-lattice index     =            0
     lattice parameter (alat)  =       1.8897  a.u.
     unit-cell volume          =    6484.0326 (a.u.)^3
     number of atoms/cell      =           12
     number of atomic types    =            2
     number of electrons       =       162.00
     number of Kohn-Sham states=           91
     kinetic-energy cutoff     =      36.7493  Ry
     charge density cutoff     =     367.4932  Ry
     convergence threshold     =      1.0E-05
     mixing beta               =       0.3000
     number of iterations used =           10  plain     mixing
     Exchange-correlation      = BEEF-VDW ( 1  4 27 13 2)
     nstep                     =           50

     celldm(1)=   1.889726  celldm(2)=   0.000000  celldm(3)=   0.000000
     celldm(4)=   0.000000  celldm(5)=   0.000000  celldm(6)=   0.000000

     crystal axes: (cart. coord. in units of alat)
               a(1) = (   6.355849   0.000000   0.000000 )
               a(2) = (   2.085576   6.003932   0.000000 )
               a(3) = (  -0.000000   0.000000  25.179046 )

     reciprocal axes: (cart. coord. in units 2 pi/alat)
               b(1) = (  0.157335 -0.054653  0.000000 )
               b(2) = (  0.000000  0.166558 -0.000000 )
               b(3) = ( -0.000000  0.000000  0.039716 )

     PseudoPot. # 1 for Zr read from file:
     /home/mamunm/src/pseudo/gbrv1.5pbe/Zr.UPF
     MD5 check sum: 5db81b1e868ab7776c4564c113de050b
     Pseudo is Ultrasoft + core correction, Zval = 12.0
     Generated by new atomic code, or converted to UPF format
     Using radial grid of  887 points,  6 beta functions with:
                l(1) =   0
                l(2) =   0
                l(3) =   1
                l(4) =   1
                l(5) =   2
                l(6) =   2
     Q(r) pseudized with  6 coefficients,  rinner =    1.200   1.200   1.200
                                                       1.200   1.200

     PseudoPot. # 2 for Bi read from file:
     /home/mamunm/src/pseudo/gbrv1.5pbe/Bi.UPF
     MD5 check sum: 81103212dc04adf40945787f699eab19
     Pseudo is Ultrasoft + core correction, Zval = 15.0
     Generated by new atomic code, or converted to UPF format
     Using radial grid of  899 points,  6 beta functions with:
                l(1) =   0
                l(2) =   0
                l(3) =   1
                l(4) =   1
                l(5) =   2
                l(6) =   2
     Q(r) pseudized with  6 coefficients,  rinner =    1.000   1.000   1.000
                                                       1.000   1.000

     vdW kernel table read from file vdW_kernel_table
     MD5 check sum: 095c7af220d748ca6e76c0b4c6cfb241

     atomic species   valence    mass     pseudopotential
        Zr1           12.00    91.22400     Zr( 1.00)
        Bi1           15.00   208.98040     Bi( 1.00)

     No symmetry found

   Cartesian axes

     site n.     atom                  positions (alat units)
         1           Zr1 tau(   1) = (  -0.0000000   0.0000000  10.0000000  )
         2           Bi1 tau(   2) = (   1.0427878   3.0019658  10.0000000  )
         3           Bi1 tau(   3) = (   3.1779246   0.0000000  10.0000000  )
         4           Zr1 tau(   4) = (   4.2207124   3.0019658  10.0000000  )
         5           Zr1 tau(   5) = (   6.3558493   4.5205738  12.5895228  )
         6           Bi1 tau(   6) = (   5.3130615   1.5186080  12.5895228  )
         7           Bi1 tau(   7) = (   3.1779246   4.5205738  12.5895228  )
         8           Zr1 tau(   8) = (   2.1351368   1.5186080  12.5895228  )
         9           Zr1 tau(   9) = (   4.2702737   3.0372160  15.1790456  )
        10           Bi1 tau(  10) = (   3.2274859   0.0352502  15.1790456  )
        11           Bi1 tau(  11) = (   1.0923490   3.0372160  15.1790456  )
        12           Zr1 tau(  12) = (   0.0495612   0.0352502  15.1790456  )

     number of k points=    20  Fermi-Dirac smearing, width (Ry)=  0.0110
                       cart. coord. in units 2pi/alat
        k(    1) = (   0.0000000   0.0000000   0.0000000), wk =   0.0555556
        k(    2) = (   0.0000000   0.0277596  -0.0000000), wk =   0.1111111
        k(    3) = (   0.0000000   0.0555192  -0.0000000), wk =   0.1111111
        k(    4) = (  -0.0000000  -0.0832788   0.0000000), wk =   0.0555556
        k(    5) = (   0.0262226  -0.0091089   0.0000000), wk =   0.1111111
        k(    6) = (   0.0262226   0.0186507   0.0000000), wk =   0.1111111
        k(    7) = (   0.0262226   0.0464103   0.0000000), wk =   0.1111111
        k(    8) = (   0.0262226  -0.0923877   0.0000000), wk =   0.1111111
        k(    9) = (   0.0262226  -0.0646281   0.0000000), wk =   0.1111111
        k(   10) = (   0.0262226  -0.0368685   0.0000000), wk =   0.1111111
        k(   11) = (   0.0524451  -0.0182178   0.0000000), wk =   0.1111111
        k(   12) = (   0.0524451   0.0095418   0.0000000), wk =   0.1111111
        k(   13) = (   0.0524451   0.0373014   0.0000000), wk =   0.1111111
        k(   14) = (   0.0524451  -0.1014965   0.0000000), wk =   0.1111111
        k(   15) = (   0.0524451  -0.0737370   0.0000000), wk =   0.1111111
        k(   16) = (   0.0524451  -0.0459774   0.0000000), wk =   0.1111111
        k(   17) = (  -0.0786677   0.0273267  -0.0000000), wk =   0.0555556
        k(   18) = (  -0.0786677   0.0550863  -0.0000000), wk =   0.1111111
        k(   19) = (  -0.0786677   0.0828458  -0.0000000), wk =   0.1111111
        k(   20) = (  -0.0786677  -0.0559521  -0.0000000), wk =   0.0555556

     Largest allocated arrays     est. size (Mb)     dimensions
     Largest temporary arrays     est. size (Mb)     dimensions

     Initial potential from superposition of free atoms
     Check: negative starting charge=   -0.616652

     starting charge  155.98685, renormalised to  162.00000

     negative rho (up, down):  6.404E-01 0.000E+00

     *
     * You are using vdW-DF for exchange-correlation in this calculation.
     * Please cite the following three references that made this development
     * possible:
     *
     *   M. Dion, H. Rydberg, E. Schroder, D. C. Langreth, and
     *   B. I. Lundqvist, Phys. Rev. Lett. 92, 246401 (2004).
     *
     *   T. Thonhauser, V. R. Cooper, S. Li, A. Puzder, P. Hyldgaard, and
     *   D. C. Langreth, Phys. Rev. B 76, 125112 (2007).
     *
     *   G. Roman-Perez and J. M. Soler, Phys. Rev. Lett. 103, 096102 (2009).
     *
     *
     * If you are using vdW-DF2, please also cite:
     *
     *   K. Lee, E. D. Murray, L. Kong, B. I. Lundqvist, and
     *   D. C. Langreth, Phys. Rev. B 82, 081101(R) (2010).
     *
     *
     * If you are calculating the stress with vdW-DF, please also cite:
     *
     *   R. Sabatini, E. Kucukbenli, B. Kolb, T. Thonhauser, and
     *   S. de Gironcoli, J. Phys.: Condens. Matter 24, 424209 (2012).
     *

     Carrying out vdW-DF run using the following parameters:

     Nqs =      20    Nr_points =    1024   r_max =   100.000
     q_mesh =
               0.00001000     0.04494208     0.09755937     0.15916263
               0.23128650     0.31572767     0.41458969     0.53033537
               0.66584808     0.82450364     1.01025438     1.22772762
               1.48234092     1.78043706     2.12944203     2.53805004
               3.01644009     3.57652955     4.23227104     5.00000000

     Gradients computed in reciprocal space

     Adding external electric field

     Computed dipole along edir(3) :
        Dipole               -0.0000 Ry au,         -0.0000 Debye
        Dipole field         -0.0000 Ry au

        Potential amp.        0.0000 Ry
        Total length         46.3920 bohr

     Starting wfc are  132 randomized atomic wfcs

     Self-consistent Calculation

     iteration #  1     ecut=    36.75 Ry     beta=0.30
     Davidson diagonalization with overlap
     ethr =  1.00E-02,  avg # of iterations =  2.0

[...]

     total energy              =   -1721.33637674 Ry
     Harris-Foulkes estimate   =   -1722.51259853 Ry
     estimated scf accuracy    <       2.77080752 Ry

[...]

     End of self-consistent calculation

          k = 0.0000 0.0000 0.0000 ( 24457 PWs)   bands (ev):

   -48.2062 -48.2061 -48.1988 -48.1986 -47.5498 -47.5420 -26.2803 -26.2775
   -26.2675 -26.2673 -26.1496 -26.1467 -26.0979 -26.0947 -26.0874 -26.0832
   -26.0232 -26.0215 -25.6076 -25.5506 -25.5378 -25.4866 -25.4718 -25.4705
   -21.0501 -21.0489 -21.0364 -21.0322 -21.0272 -21.0229 -21.0223 -21.0087
   -21.0049 -20.9637 -20.9621 -20.9591 -20.9463 -20.9461 -20.9450 -20.9339
   -20.9199 -20.9194 -20.9182 -20.9152 -20.9096 -20.9060 -20.9010 -20.8993
   -20.8855 -20.8836 -20.8733 -20.8661 -20.8649 -20.8593 -10.1961  -9.2925
    -8.7055  -8.6462  -8.3551  -8.3269  -2.1284  -1.8490  -1.4763  -1.4092
    -1.2460  -1.2354  -0.9904  -0.6813  -0.3620   0.1111   0.1120   0.3628
     0.6739   0.8069   1.0239   1.1826   1.3316   1.4625   1.4932   1.5460
     1.8447   2.0689   2.1572   2.3856   2.3910   2.4783   2.5906   2.8603
     2.9545   3.1142   3.1440

[...]

          k =-0.0000-0.0833 0.0000 ( 24396 PWs)   bands (ev):

[...]

     the Fermi energy is     1.8285 ev

!    total energy              =   -1721.62257105 Ry
     Harris-Foulkes estimate   =   -1721.62257189 Ry
     estimated scf accuracy    <       0.00000121 Ry

     The total energy is the sum of the following terms:

     one-electron contribution =   -9800.78405192 Ry
     hartree contribution      =    4925.72780951 Ry
     xc contribution           =    -510.11152473 Ry
     ewald contribution        =    3663.61360939 Ry
     electric field correction =       0.00000000 Ry
     smearing contrib. (-TS)   =      -0.06841329 Ry

     convergence has been achieved in  14 iterations

 BEEF-vdW xc energy contributions
           1 :   -451.143583396107
           2 :    417.408841117955
           3 :   -358.439450137326
           4 :    287.775478476965
           5 :   -219.076093184906
           6 :    161.983950444289
           7 :   -120.208001155649
           8 :    92.0645986202447
           9 :   -72.7504916590620
          10 :    57.1256141483389
          11 :   -41.8430427964763
          12 :    26.1343734739736
          13 :   -11.2542304203477
          14 :  -0.829660631595800
          15 :    8.70780448228834
          16 :   -12.2029559821124
          17 :    12.3218395351866
          18 :   -10.7151197620835
          19 :    8.99486839605595
          20 :   -8.20307094319298
          21 :    8.58757137913943
          22 :   -9.70396246427106
          23 :    10.7472242931973
          24 :   -10.9644733599746
          25 :    9.99892938942469
          26 :   -8.05150406129184
          27 :    5.79753811805085
          28 :   -4.07933637966175
          29 :    3.49849795362570
          30 :   -4.10730123744338
          31 :   -39.3333810961104
          32 :   -29.1363433216194

     Forces acting on atoms (Ry/au):

     negative rho (up, down):  6.410E-01 0.000E+00
     atom    1 type  1   force =    -0.00018395   -0.00013001    0.04299781
     atom    2 type  2   force =     0.00128946    0.00099075   -0.02598291
     atom    3 type  2   force =     0.00135974    0.00089339   -0.02598490
     atom    4 type  1   force =    -0.00020309   -0.00014458    0.04300564
     atom    5 type  1   force =     0.00003272    0.00002424   -0.00002651
     atom    6 type  2   force =    -0.00008817    0.00012081    0.00001565
     atom    7 type  2   force =     0.00008742   -0.00012033    0.00001436
     atom    8 type  1   force =    -0.00003092   -0.00002278   -0.00002309
     atom    9 type  1   force =     0.00018492    0.00013073   -0.04318954
     atom   10 type  2   force =    -0.00129122   -0.00099368    0.02616768
     atom   11 type  2   force =    -0.00135863   -0.00089244    0.02616894
     atom   12 type  1   force =     0.00020172    0.00014391   -0.04316314

     Total force =     0.071438     Total SCF correction =     0.002256

     entering subroutine stress ...

     negative rho (up, down):  6.410E-01 0.000E+00
          total   stress  (Ry/bohr**3)                   (kbar)     P=  -12.24
  -0.00010378  -0.00001736  -0.00000342        -15.27     -2.55     -0.50
  -0.00001736  -0.00009171  -0.00000243         -2.55    -13.49     -0.36
  -0.00000342  -0.00000243  -0.00005415         -0.50     -0.36     -7.97

     BFGS Geometry Optimization

     number of scf cycles    =   1
     number of bfgs steps    =   0

     energy   new            =   -1721.6225710493 Ry

     new trust radius        =       0.0431901294 bohr
     new conv_thr            =       0.0000099958 Ry

ATOMIC_POSITIONS (crystal)
Zr1     -0.000000000   0.000000000   0.397155641    0   0   0
Bi1     -0.000000000   0.500000000   0.397155641    0   0   0
Bi1      0.500000000   0.000000000   0.397155641    0   0   0
Zr1      0.500000000   0.500000000   0.397155641    0   0   0
Zr1      0.752935595   0.752935595   0.500000000    0   0   0
Bi1      0.752935595   0.252935595   0.500000000    0   0   0
Bi1      0.252935595   0.752935595   0.500000000    0   0   0
Zr1      0.252935595   0.252935595   0.500000000    0   0   0
Zr1      0.505882805   0.505882713   0.601936663
Bi1      0.505792424   0.005783609   0.603394314
Bi1      0.005783883   0.505792532   0.603394340
Zr1      0.005883823   0.005883874   0.601937218

     Writing output data file calc.save
     Check: negative starting charge=   -0.616652
     NEW-OLD atomic charge density approx. for the potential
     Check: negative starting charge=   -0.615862

[...]

     energy   old            =   -1721.6225710493 Ry
     energy   new            =   -1721.6274643082 Ry

     CASE: energy  _new < energy  _old

     WARNING: bfgs curvature condition failed, Theta= 0.875
     new trust radius        =       0.0647851941 bohr
     new conv_thr            =       0.0000001000 Ry

[...]

     iteration #  1     ecut=    36.75 Ry     beta=0.30
     Davidson diagonalization with overlap
     c_bands:  1 eigenvalues not converged
     ethr =  1.00E-06,  avg # of iterations = 10.2

[...]

     iteration #  1     ecut=    36.75 Ry     beta=0.30
     Davidson diagonalization with overlap
     c_bands:  1 eigenvalues not converged
     c_bands:  1 eigenvalues not converged
     c_bands:  1 eigenvalues not converged
     ethr =  1.00E-06,  avg # of iterations = 14.7

[...]

     Total force =     0.003429     Total SCF correction =     0.000143

[...]

     number of scf cycles    =  10
     number of bfgs steps    =   9

     energy   old            =   -1721.6542395829 Ry
     energy   new            =   -1721.6543658812 Ry

     CASE: energy  _new < energy  _old

     new trust radius        =       0.0322888175 bohr
     new conv_thr            =       0.0000001000 Ry

ATOMIC_POSITIONS (crystal)
Zr1     -0.000000000   0.000000000   0.397155641    0   0   0
Bi1      0.000000000   0.500000000   0.397155641    0   0   0
Bi1      0.500000000   0.000000000   0.397155641    0   0   0
Zr1      0.500000000   0.500000000   0.397155641    0   0   0
Zr1      0.752935595   0.752935595   0.500000000    0   0   0
Bi1      0.752935595   0.252935595   0.500000000    0   0   0
Bi1      0.252935595   0.752935595   0.500000000    0   0   0
Zr1      0.252935595   0.252935595   0.500000000    0   0   0
Zr1      0.505208325   0.505208095   0.592992262
Bi1      0.504847496   0.004843775   0.610781730
Bi1      0.004843903   0.504847144   0.610781649
Zr1      0.005213381   0.005213190   0.592988759

     Writing output data file calc.save
     Check: negative starting charge=   -0.616068
     NEW-OLD atomic charge density approx. for the potential
     Check: negative starting charge=   -0.616897

[...]

     Self-consistent Calculation

[...]

     total energy              =   -1721.65447657 Ry
     Harris-Foulkes estimate   =   -1721.65447665 Ry
     estimated scf accuracy    <       0.00000020 Ry

     iteration # 10     ecut=    36.75 Ry     beta=0.30
     Davidson diagonalization with overlap
     ethr =  1.21E-10,  avg # of iterations =  4.8

[...]

     negative rho (up, down):  6.420E-01 0.000E+00

     Adding external electric field

     Computed dipole along edir(3) :
        Dipole               -0.1154 Ry au,         -0.2933 Debye
        Dipole field         -0.0002 Ry au

        Potential amp.        0.0208 Ry
        Total length         46.3920 bohr

     End of self-consistent calculation

[...]

          k = 0.0524-0.0460 0.0000 ( 24357 PWs)   bands (ev):

[...]

          k =-0.0787-0.0560-0.0000 ( 24352 PWs)   bands (ev):

   -48.3393 -48.3320 -48.1530 -48.1455 -47.6486 -47.6408 -26.4195 -26.4064
   -26.2885 -26.2330 -26.2287 -26.2181 -26.2135 -26.1607 -26.1485 -26.0754
   -26.0600 -26.0153 -25.7196 -25.6382 -25.6234 -25.5844 -25.5672 -25.5592
   -21.1674 -21.1468 -21.1461 -21.1422 -21.1412 -21.1322 -21.1313 -21.1291
   -21.1286 -21.0706 -21.0633 -21.0539 -21.0473 -21.0317 -21.0301 -21.0246
   -21.0211 -21.0162 -21.0090 -21.0079 -21.0049 -21.0000 -20.9940 -20.9892
   -20.9831 -20.9797 -20.9741 -20.9687 -20.9667 -20.9587  -9.5521  -9.2048
    -9.0488  -9.0077  -8.2864  -7.8040  -3.4345  -3.3224  -2.9930  -2.2943
    -2.1487  -2.0041  -1.9261  -1.5471  -0.9475  -0.4619   0.2894   0.3422
     0.6157   0.7964   0.9045   1.0785   1.1860   1.1965   1.2004   1.3448
     1.4380   1.6275   2.0264   2.2806   2.3627   2.3917   2.7675   3.0438
     3.1445   3.3262   3.6368

     the Fermi energy is     1.7226 ev

!    total energy              =   -1721.65447656 Ry
     Harris-Foulkes estimate   =   -1721.65447666 Ry
     estimated scf accuracy    <       0.00000008 Ry

     The total energy is the sum of the following terms:

     one-electron contribution =   -9791.10291561 Ry
     hartree contribution      =    4920.35289341 Ry
     xc contribution           =    -510.15013251 Ry
     ewald contribution        =    3659.30925546 Ry
     electric field correction =       0.00002581 Ry
     smearing contrib. (-TS)   =      -0.06360312 Ry

     convergence has been achieved in  10 iterations

 BEEF-vdW xc energy contributions
           1 :   -451.178539192330
           2 :    417.439339940146
           3 :   -358.465963009373
           4 :    287.797800825631
           5 :   -219.089315736854
           6 :    161.982274269370
           7 :   -120.188400036131
           8 :    92.0270936009337
           9 :   -72.6980209456956
          10 :    57.0645872671549
          11 :   -41.7821543934563
          12 :    26.0808372571150
          13 :   -11.2104562889592
          14 :  -0.865630678256650
          15 :    8.73879932396693
          16 :   -12.2300793245668
          17 :    12.3455821256899
          18 :   -10.7391790850707
          19 :    9.02892197934511
          20 :   -8.26007924390507
          21 :    8.67448642134156
          22 :   -9.81131325014309
          23 :    10.8476183377547
          24 :   -11.0258959099035
          25 :    10.0070833848964
          26 :   -8.02538792367329
          27 :    5.78403737289142
          28 :   -4.12659092064519
          29 :    3.62380781006351
          30 :   -4.28162361680660
          31 :   -39.3361113684340
          32 :   -29.1366814710487

     Forces acting on atoms (Ry/au):

     negative rho (up, down):  6.420E-01 0.000E+00
     atom    1 type  1   force =    -0.00023901   -0.00016998    0.04701065
     atom    2 type  2   force =     0.00137777    0.00101411   -0.02600019
     atom    3 type  2   force =     0.00141006    0.00096870   -0.02600013
     atom    4 type  1   force =    -0.00024753   -0.00017604    0.04702385
     atom    5 type  1   force =     0.00020964    0.00014915    0.00749403
     atom    6 type  2   force =    -0.00075857   -0.00062425   -0.02862949
     atom    7 type  2   force =    -0.00083856   -0.00051182   -0.02862966
     atom    8 type  1   force =     0.00025313    0.00017999    0.00749363
     atom    9 type  1   force =    -0.00013843   -0.00009828   -0.00066321
     atom   10 type  2   force =    -0.00043373   -0.00033866    0.00076910
     atom   11 type  2   force =    -0.00046213   -0.00029856    0.00076932
     atom   12 type  1   force =    -0.00013263   -0.00009436   -0.00063790

     Total force =     0.001640     Total SCF correction =     0.000854
     SCF correction compared to forces is large: reduce conv_thr to get better values

     entering subroutine stress ...

     negative rho (up, down):  6.420E-01 0.000E+00
          total   stress  (Ry/bohr**3)                   (kbar)     P=  -12.50
  -0.00011652  -0.00002626  -0.00000266        -17.14     -3.86     -0.39
  -0.00002626  -0.00009828  -0.00000189         -3.86    -14.46     -0.28
  -0.00000266  -0.00000189  -0.00004012         -0.39     -0.28     -5.90

     bfgs converged in  11 scf cycles and  10 bfgs steps
     (criteria: energy <  1.0E+00, force <  1.9E-03)

     End of BFGS Geometry Optimization

     Final energy   =   -1721.6544765645 Ry
Begin final coordinates

ATOMIC_POSITIONS (crystal)
Zr1     -0.000000000   0.000000000   0.397155641    0   0   0
Bi1      0.000000000   0.500000000   0.397155641    0   0   0
Bi1      0.500000000   0.000000000   0.397155641    0   0   0
Zr1      0.500000000   0.500000000   0.397155641    0   0   0
Zr1      0.752935595   0.752935595   0.500000000    0   0   0
Bi1      0.752935595   0.252935595   0.500000000    0   0   0
Bi1      0.252935595   0.752935595   0.500000000    0   0   0
Zr1      0.252935595   0.252935595   0.500000000    0   0   0
Zr1      0.505208325   0.505208095   0.592992262
Bi1      0.504847496   0.004843775   0.610781730
Bi1      0.004843903   0.504847144   0.610781649
Zr1      0.005213381   0.005213190   0.592988759
End final coordinates

     Writing output data file calc.save

     General routines

     Parallel routines

   This run was terminated on:  23: 9:26  23Feb2018

   JOB DONE.