     Program PWSCF v.5.1rc2 (svn rev. ) starts on 23Feb2018 at 22:19:24

     Current dimensions of program PWSCF are:
     Max number of different atomic species (ntypx) = 10
     Max number of k-points (npk) =  40000
     Max angular momentum in pseudopotentials (lmaxx) =  3
     Presently stress not available with electric field

     IMPORTANT: XC functional enforced from input :
     Exchange-correlation      = BEEF-VDW ( 1  4 27 13 2)
     Any further DFT definition will be discarded
     Please, verify this is what you really want

     Subspace diagonalization in iterative solution of the eigenvalue problem:
     a serial algorithm will be used

     Found symmetry operation: I + (  0.5000  0.0000  0.0000)
     This is a supercell, fractional translations are disabled

     bravais-lattice index     =            0
     lattice parameter (alat)  =       1.8897  a.u.
     unit-cell volume          =    7897.5073 (a.u.)^3
     number of atoms/cell      =           12
     number of atomic types    =            2
     number of electrons       =       174.00
     number of Kohn-Sham states=           97
     kinetic-energy cutoff     =      36.7493  Ry
     charge density cutoff     =     367.4932  Ry
     convergence threshold     =      1.0E-05
     mixing beta               =       0.3000
     number of iterations used =           10  plain     mixing
     Exchange-correlation      = BEEF-VDW ( 1  4 27 13 2)
     nstep                     =           50

     celldm(1)=   1.889726  celldm(2)=   0.000000  celldm(3)=   0.000000
     celldm(4)=   0.000000  celldm(5)=   0.000000  celldm(6)=   0.000000

     crystal axes: (cart. coord. in units of alat)
               a(1) = (   7.125483   0.000000   0.000000 )
               a(2) = (  -3.562741   6.342518   0.000000 )
               a(3) = (   0.000000   0.000000  25.895090 )

     reciprocal axes: (cart. coord. in units 2 pi/alat)
               b(1) = (  0.140341  0.078833 -0.000000 )
               b(2) = (  0.000000  0.157666 -0.000000 )
               b(3) = (  0.000000  0.000000  0.038617 )

     PseudoPot. # 1 for Pb read from file:
     /home/mamunm/src/pseudo/gbrv1.5pbe/Pb.UPF
     MD5 check sum: 3d1c1779aa92214d1e8f3a7db79003e2
     Pseudo is Ultrasoft + core correction, Zval = 14.0
     Generated by new atomic code, or converted to UPF format
     Using radial grid of  899 points,  6 beta functions with:
                l(1) =   0
                l(2) =   0
                l(3) =   1
                l(4) =   1
                l(5) =   2
                l(6) =   2
     Q(r) pseudized with  6 coefficients,  rinner =    1.000   1.000   1.000
                                                       1.000   1.000

     PseudoPot. # 2 for Bi read from file:
     /home/mamunm/src/pseudo/gbrv1.5pbe/Bi.UPF
     MD5 check sum: 81103212dc04adf40945787f699eab19
     Pseudo is Ultrasoft + core correction, Zval = 15.0
     Generated by new atomic code, or converted to UPF format
     Using radial grid of  899 points,  6 beta functions with:
                l(1) =   0
                l(2) =   0
                l(3) =   1
                l(4) =   1
                l(5) =   2
                l(6) =   2
     Q(r) pseudized with  6 coefficients,  rinner =    1.000   1.000   1.000
                                                       1.000   1.000

     vdW kernel table read from file vdW_kernel_table
     MD5 check sum: 095c7af220d748ca6e76c0b4c6cfb241

     atomic species   valence    mass     pseudopotential
        Pb1           14.00   207.20000     Pb( 1.00)
        Bi1           15.00   208.98040     Bi( 1.00)

     No symmetry found

   Cartesian axes

     site n.     atom                  positions (alat units)
         1           Pb1 tau(   1) = (   0.0000000   0.0000000  10.0000000  )
         2           Bi1 tau(   2) = (  -1.7813707   3.1712590  10.0000000  )
         3           Bi1 tau(   3) = (   1.7813707   3.1712590  10.0000000  )
         4           Pb1 tau(   4) = (   3.5627414   0.0000000  10.0000000  )
         5           Pb1 tau(   5) = (   3.5627414   2.0012755  12.9475451  )
         6           Bi1 tau(   6) = (   1.7813707   5.1725345  12.9475451  )
         7           Bi1 tau(   7) = (  -1.7813707   5.1725345  12.9475451  )
         8           Pb1 tau(   8) = (   0.0000000   2.0012755  12.9475451  )
         9           Pb1 tau(   9) = (   0.0000000   4.0025510  15.8950903  )
        10           Bi1 tau(  10) = (   1.7813707   0.8312920  15.8950903  )
        11           Bi1 tau(  11) = (   5.3441121   0.8312920  15.8950903  )
        12           Pb1 tau(  12) = (   3.5627414   4.0025510  15.8950903  )

     number of k points=    20  Fermi-Dirac smearing, width (Ry)=  0.0110
                       cart. coord. in units 2pi/alat
        k(    1) = (   0.0000000   0.0000000   0.0000000), wk =   0.0555556
        k(    2) = (   0.0000000   0.0262777  -0.0000000), wk =   0.1111111
        k(    3) = (   0.0000000   0.0525554  -0.0000000), wk =   0.1111111
        k(    4) = (   0.0000000  -0.0788330   0.0000000), wk =   0.0555556
        k(    5) = (   0.0233902   0.0131388  -0.0000000), wk =   0.1111111
        k(    6) = (   0.0233902   0.0394165  -0.0000000), wk =   0.1111111
        k(    7) = (   0.0233902   0.0656942  -0.0000000), wk =   0.1111111
        k(    8) = (   0.0233902  -0.0656942   0.0000000), wk =   0.1111111
        k(    9) = (   0.0233902  -0.0394165   0.0000000), wk =   0.1111111
        k(   10) = (   0.0233902  -0.0131388   0.0000000), wk =   0.1111111
        k(   11) = (   0.0467805   0.0262777  -0.0000000), wk =   0.1111111
        k(   12) = (   0.0467805   0.0525554  -0.0000000), wk =   0.1111111
        k(   13) = (   0.0467805   0.0788330  -0.0000000), wk =   0.1111111
        k(   14) = (   0.0467805  -0.0525554   0.0000000), wk =   0.1111111
        k(   15) = (   0.0467805  -0.0262777   0.0000000), wk =   0.1111111
        k(   16) = (   0.0467805   0.0000000   0.0000000), wk =   0.1111111
        k(   17) = (  -0.0701707  -0.0394165   0.0000000), wk =   0.0555556
        k(   18) = (  -0.0701707  -0.0131388   0.0000000), wk =   0.1111111
        k(   19) = (  -0.0701707   0.0131388  -0.0000000), wk =   0.1111111
        k(   20) = (  -0.0701707  -0.1182496   0.0000000), wk =   0.0555556

     Largest allocated arrays     est. size (Mb)     dimensions
     Largest temporary arrays     est. size (Mb)     dimensions

     Check: negative/imaginary core charge=   -0.000001    0.000000

     Initial potential from superposition of free atoms
     Check: negative starting charge=   -0.351104

     starting charge  167.98564, renormalised to  174.00000

     negative rho (up, down):  3.637E-01 0.000E+00

     *
     * You are using vdW-DF for exchange-correlation in this calculation.
     * Please cite the following three references that made this development
     * possible:
     *
     *   M. Dion, H. Rydberg, E. Schroder, D. C. Langreth, and
     *   B. I. Lundqvist, Phys. Rev. Lett. 92, 246401 (2004).
     *
     *   T. Thonhauser, V. R. Cooper, S. Li, A. Puzder, P. Hyldgaard, and
     *   D. C. Langreth, Phys. Rev. B 76, 125112 (2007).
     *
     *   G. Roman-Perez and J. M. Soler, Phys. Rev. Lett. 103, 096102 (2009).
     *
     *
     * If you are using vdW-DF2, please also cite:
     *
     *   K. Lee, E. D. Murray, L. Kong, B. I. Lundqvist, and
     *   D. C. Langreth, Phys. Rev. B 82, 081101(R) (2010).
     *
     *
     * If you are calculating the stress with vdW-DF, please also cite:
     *
     *   R. Sabatini, E. Kucukbenli, B. Kolb, T. Thonhauser, and
     *   S. de Gironcoli, J. Phys.: Condens. Matter 24, 424209 (2012).
     *

     Carrying out vdW-DF run using the following parameters:

     Nqs =      20    Nr_points =    1024   r_max =   100.000
     q_mesh =
               0.00001000     0.04494208     0.09755937     0.15916263
               0.23128650     0.31572767     0.41458969     0.53033537
               0.66584808     0.82450364     1.01025438     1.22772762
               1.48234092     1.78043706     2.12944203     2.53805004
               3.01644009     3.57652955     4.23227104     5.00000000

     Gradients computed in reciprocal space

     Adding external electric field

     Computed dipole along edir(3) :
        Dipole               -0.0000 Ry au,         -0.0000 Debye
        Dipole field         -0.0000 Ry au

        Potential amp.        0.0000 Ry
        Total length         47.7113 bohr

     Starting wfc are  108 randomized atomic wfcs

     Self-consistent Calculation

     iteration #  1     ecut=    36.75 Ry     beta=0.30
     Davidson diagonalization with overlap
     ethr =  1.00E-02,  avg # of iterations =  2.5

[...]

     total energy              =   -2118.83784512 Ry
     Harris-Foulkes estimate   =   -2120.18140432 Ry
     estimated scf accuracy    <       3.05899730 Ry

[...]

     End of self-consistent calculation

          k = 0.0000 0.0000 0.0000 ( 29677 PWs)   bands (ev):

   -22.6730 -22.6435 -22.6085 -22.6045 -22.6034 -22.6025 -22.5986 -22.5915
   -22.5683 -22.5434 -22.3728 -22.3711 -22.3319 -22.3313 -22.3213 -22.3209
   -22.2972 -22.2969 -22.2884 -22.2880 -22.2861 -22.2858 -22.2849 -22.2848
   -22.2844 -22.2844 -22.2817 -22.2794 -22.2559 -22.2554 -16.8563 -16.8307
   -16.8162 -16.7851 -16.7833 -16.7810 -16.7690 -16.7678 -16.7677 -16.7569
   -16.7531 -16.7531 -16.7512 -16.7494 -16.7423 -16.7420 -16.7137 -16.7049
   -16.6978 -16.6931 -16.6882 -16.6869 -16.6837 -16.6816 -16.6784 -16.6618
   -16.6495 -16.6392 -16.6276 -16.5852 -11.3322 -10.4690  -9.8582  -9.5733
    -9.0328  -8.7377  -7.7589  -7.7556  -7.5296  -7.3312  -6.9020  -6.3818
    -3.2200  -3.0789  -2.8888  -2.5171  -2.3802  -2.2638  -2.2294  -2.1209
    -2.0475  -1.8797  -0.3139   0.7644   0.8386   1.1481   1.1787   1.4778
     1.7620   1.8914   2.4465   2.5453   2.6102   2.7484   2.8744   2.8947
     3.4149

[...]

          k =-0.0702-0.0394 0.0000 ( 29702 PWs)   bands (ev):

[...]

     the Fermi energy is     0.8536 ev

!    total energy              =   -2119.06770406 Ry
     Harris-Foulkes estimate   =   -2119.06771086 Ry
     estimated scf accuracy    <       0.00000333 Ry

     The total energy is the sum of the following terms:

     one-electron contribution =   -9198.11158944 Ry
     hartree contribution      =    4658.11763918 Ry
     xc contribution           =    -790.79988751 Ry
     ewald contribution        =    3211.76154953 Ry
     electric field correction =       0.00000001 Ry
     smearing contrib. (-TS)   =      -0.03541581 Ry

     convergence has been achieved in  10 iterations

 BEEF-vdW xc energy contributions
           1 :   -705.058141470525
           2 :    654.850599054190
           3 :   -566.506905998952
           4 :    459.544778576762
           5 :   -354.147438803955
           6 :    265.085434752054
           7 :   -198.457181500692
           8 :    152.046878179096
           9 :   -118.637259330405
          10 :    90.4791473601422
          11 :   -62.8602265628579
          12 :    35.3945420217884
          13 :   -10.9097027323521
          14 :   -7.05669377325091
          15 :    16.6475913050824
          16 :   -18.7817735571141
          17 :    16.6089783674756
          18 :   -13.8595860754453
          19 :    13.0964009241204
          20 :   -14.7834625403129
          21 :    17.5408235735388
          22 :   -19.2975929017175
          23 :    18.6222454583944
          24 :   -15.5102556735708
          25 :    11.2852317926315
          26 :   -7.78226498151798
          27 :    6.33503362199917
          28 :   -7.12777418322867
          29 :    9.21330720439505
          30 :   -11.1165135869237
          31 :   -56.2115472961966
          32 :   -41.1942805284748

     Forces acting on atoms (Ry/au):

     negative rho (up, down):  3.676E-01 0.000E+00
     atom    1 type  1   force =     0.00000662   -0.00125561    0.00311116
     atom    2 type  2   force =     0.00000001    0.00064002    0.00776382
     atom    3 type  2   force =    -0.00000278    0.00063903    0.00775720
     atom    4 type  1   force =     0.00000468   -0.00123981    0.00310188
     atom    5 type  1   force =    -0.00000601   -0.00000969   -0.00002540
     atom    6 type  2   force =    -0.00000243    0.00003493    0.00003186
     atom    7 type  2   force =    -0.00000345    0.00005112    0.00004848
     atom    8 type  1   force =     0.00000335   -0.00002262   -0.00000825
     atom    9 type  1   force =     0.00000262    0.00121174   -0.00323358
     atom   10 type  2   force =    -0.00000883   -0.00061893   -0.00766247
     atom   11 type  2   force =     0.00000178   -0.00062332   -0.00765217
     atom   12 type  1   force =     0.00000443    0.00119314   -0.00323252

     Total force =     0.011910     Total SCF correction =     0.005669
     SCF correction compared to forces is large: reduce conv_thr to get better values

     entering subroutine stress ...

     negative rho (up, down):  3.676E-01 0.000E+00
          total   stress  (Ry/bohr**3)                   (kbar)     P=   -6.92
  -0.00004114   0.00000000  -0.00000000         -6.05      0.00     -0.00
   0.00000000  -0.00005451   0.00000169          0.00     -8.02      0.25
  -0.00000000   0.00000169  -0.00004551         -0.00      0.25     -6.70

     BFGS Geometry Optimization

     number of scf cycles    =   1
     number of bfgs steps    =   0

     energy   new            =   -2119.0677040576 Ry

     new trust radius        =       0.0076874356 bohr
     new conv_thr            =       0.0000099958 Ry

ATOMIC_POSITIONS (crystal)
Pb1      0.000000000  -0.000000000   0.386173591    0   0   0
Bi1      0.000000000   0.500000000   0.386173591    0   0   0
Bi1      0.500000000   0.500000000   0.386173591    0   0   0
Pb1      0.500000000  -0.000000000   0.386173591    0   0   0
Pb1      0.657766639   0.315533277   0.500000000    0   0   0
Bi1      0.657766639   0.815533277   0.500000000    0   0   0
Bi1      0.157766639   0.815533277   0.500000000    0   0   0
Pb1      0.157766639   0.315533277   0.500000000    0   0   0
Pb1      0.315584022   0.631167654   0.613760330
Bi1      0.315506802   0.131014916   0.613669823
Bi1      0.815507407   0.131014549   0.613670034
Pb1      0.815583380   0.631166102   0.613760351

     Writing output data file calc.save
     Check: negative starting charge=   -0.351104
     NEW-OLD atomic charge density approx. for the potential

     Check: negative/imaginary core charge=   -0.000001    0.000000
     Check: negative starting charge=   -0.351171

[...]

     energy   old            =   -2119.0677040576 Ry
     energy   new            =   -2119.0678731763 Ry

     CASE: energy  _new < energy  _old

     WARNING: bfgs curvature condition failed, Theta= 0.636
     new trust radius        =       0.0084561791 bohr
     new conv_thr            =       0.0000001000 Ry

[...]

     Total force =     0.013937     Total SCF correction =     0.000138

[...]

     WARNING: info= 36 for Hessian

[...]

     WARNING: info= 36 for Hessian
     new trust radius        =       0.0057861092 bohr
     new conv_thr            =       0.0000001000 Ry

[...]

     WARNING: info= 28 for Hessian
     new trust radius        =       0.0610634295 bohr
     new conv_thr            =       0.0000001000 Ry

[...]

     WARNING: info= 30 for Hessian
     uphill step: resetting bfgs history

[...]

     Threshold (ethr) on eigenvalues was too large:
     Diagonalizing with lowered threshold

     Davidson diagonalization with overlap
     ethr =  8.77E-09,  avg # of iterations =  3.8

[...]

     Total force =     0.010089     Total SCF correction =     0.000717

[...]

     Threshold (ethr) on eigenvalues was too large:
     Diagonalizing with lowered threshold

     Davidson diagonalization with overlap
     ethr =  5.79E-08,  avg # of iterations =  1.8

[...]

     WARNING: bfgs curvature condition failed, Theta= 0.212
     new trust radius        =       0.0327607273 bohr
     new conv_thr            =       0.0000001000 Ry

[...]

     number of scf cycles    =  19
     number of bfgs steps    =  18

     energy   old            =   -2119.0717640018 Ry
     energy   new            =   -2119.0721500351 Ry

     CASE: energy  _new < energy  _old

     new trust radius        =       0.1105674548 bohr
     new conv_thr            =       0.0000001000 Ry

ATOMIC_POSITIONS (crystal)
Pb1     -0.000000000  -0.000000000   0.386173591    0   0   0
Bi1      0.000000000   0.500000000   0.386173591    0   0   0
Bi1      0.500000000   0.500000000   0.386173591    0   0   0
Pb1      0.500000000  -0.000000000   0.386173591    0   0   0
Pb1      0.657766639   0.315533277   0.500000000    0   0   0
Bi1      0.657766639   0.815533277   0.500000000    0   0   0
Bi1      0.157766639   0.815533277   0.500000000    0   0   0
Pb1      0.157766639   0.315533277   0.500000000    0   0   0
Pb1      0.319788129   0.639592858   0.608018329
Bi1      0.310534465   0.121129668   0.607524958
Bi1      0.810561124   0.121084150   0.607528432
Pb1      0.819799146   0.639612289   0.608021419

     Writing output data file calc.save
     Check: negative starting charge=   -0.352565
     NEW-OLD atomic charge density approx. for the potential

     Check: negative/imaginary core charge=   -0.000001    0.000000
     Check: negative starting charge=   -0.350711

[...]

     Self-consistent Calculation

[...]

     total energy              =   -2119.07208469 Ry
     Harris-Foulkes estimate   =   -2119.07209516 Ry
     estimated scf accuracy    <       0.00000039 Ry

     iteration #  8     ecut=    36.75 Ry     beta=0.30
     Davidson diagonalization with overlap
     ethr =  2.26E-10,  avg # of iterations =  5.8

[...]

     negative rho (up, down):  3.678E-01 0.000E+00

     Adding external electric field

     Computed dipole along edir(3) :
        Dipole                0.0252 Ry au,          0.0641 Debye
        Dipole field          0.0000 Ry au

        Potential amp.       -0.0038 Ry
        Total length         47.7113 bohr

     End of self-consistent calculation

[...]

          k = 0.0468 0.0000 0.0000 ( 29737 PWs)   bands (ev):

[...]

          k =-0.0702-0.1182 0.0000 ( 29702 PWs)   bands (ev):

   -22.6484 -22.6484 -22.6441 -22.6441 -22.6217 -22.6217 -22.6072 -22.6072
   -22.6016 -22.6016 -22.3481 -22.3481 -22.3474 -22.3473 -22.3356 -22.3356
   -22.3176 -22.3176 -22.3124 -22.3124 -22.2968 -22.2968 -22.2929 -22.2929
   -22.2863 -22.2863 -22.2636 -22.2636 -22.2599 -22.2599 -16.8072 -16.8072
   -16.7618 -16.7618 -16.7480 -16.7480 -16.7451 -16.7451 -16.7433 -16.7433
   -16.7346 -16.7346 -16.7332 -16.7332 -16.7299 -16.7298 -16.7263 -16.7262
   -16.7238 -16.7237 -16.7209 -16.7209 -16.7177 -16.7177 -16.6860 -16.6860
   -16.6792 -16.6792 -16.6380 -16.6380 -10.7336 -10.7333  -9.8766  -9.8763
    -9.4007  -9.4004  -7.9899  -7.9898  -7.3745  -7.3744  -7.0836  -7.0836
    -1.9762  -1.9760  -1.8017  -1.8015  -1.5304  -1.5303  -0.9802  -0.9801
    -0.5531  -0.5531  -0.3545  -0.3544   0.3915   0.3917   0.5699   0.5701
     1.2543   1.2545   1.3724   1.3725   1.6210   1.6212   2.1498   2.1500
     2.3746

     the Fermi energy is     0.8591 ev

!    total energy              =   -2119.07206102 Ry
     Harris-Foulkes estimate   =   -2119.07208533 Ry
     estimated scf accuracy    <       0.00000010 Ry

     The total energy is the sum of the following terms:

     one-electron contribution =   -9403.86274661 Ry
     hartree contribution      =    4760.95740423 Ry
     xc contribution           =    -790.92798409 Ry
     ewald contribution        =    3314.79613944 Ry
     electric field correction =       0.00000101 Ry
     smearing contrib. (-TS)   =      -0.03487500 Ry

     convergence has been achieved in   8 iterations

 BEEF-vdW xc energy contributions
           1 :   -705.192455196993
           2 :    655.055546211688
           3 :   -566.797578758737
           4 :    459.859985887069
           5 :   -354.379852628947
           6 :    265.146147871036
           7 :   -198.335087778098
           8 :    151.823823412391
           9 :   -118.447512663492
          10 :    90.4361305435866
          11 :   -62.9936610801884
          12 :    35.6348782822768
          13 :   -11.1289669309854
          14 :   -6.97151347781096
          15 :    16.7312387256577
          16 :   -18.9738926331927
          17 :    16.7917053705343
          18 :   -13.9263115214821
          19 :    13.0113319334677
          20 :   -14.5983825175319
          21 :    17.3616150310756
          22 :   -19.2219651820737
          23 :    18.6855321720085
          24 :   -15.6696926238342
          25 :    11.4489625999225
          26 :   -7.86364733409778
          27 :    6.29986364535057
          28 :   -7.00854459784091
          29 :    9.08501664902212
          30 :   -11.0511629639791
          31 :   -56.2235864740690
          32 :   -41.2238878952085

     Forces acting on atoms (Ry/au):

     negative rho (up, down):  3.678E-01 0.000E+00
     atom    1 type  1   force =    -0.00000031   -0.00126089    0.00441271
     atom    2 type  2   force =     0.00000020    0.00050663    0.00738259
     atom    3 type  2   force =    -0.00000018    0.00050434    0.00738480
     atom    4 type  1   force =     0.00000053   -0.00126074    0.00441535
     atom    5 type  1   force =     0.00000196   -0.00061303   -0.00724476
     atom    6 type  2   force =     0.00000328    0.00055138   -0.00537784
     atom    7 type  2   force =    -0.00000361    0.00054772   -0.00538170
     atom    8 type  1   force =    -0.00000142   -0.00061574   -0.00724951
     atom    9 type  1   force =    -0.00000393    0.00123739    0.00118292
     atom   10 type  2   force =     0.00000594   -0.00041606   -0.00034343
     atom   11 type  2   force =    -0.00000497   -0.00041374   -0.00034857
     atom   12 type  1   force =     0.00000252    0.00123274    0.00116743

     Total force =     0.002529     Total SCF correction =     0.003743
     SCF correction compared to forces is large: reduce conv_thr to get better values

     entering subroutine stress ...

     negative rho (up, down):  3.678E-01 0.000E+00
          total   stress  (Ry/bohr**3)                   (kbar)     P=   -4.17
  -0.00002713  -0.00000000   0.00000000         -3.99     -0.00      0.00
  -0.00000000  -0.00003721   0.00000242         -0.00     -5.47      0.36
   0.00000000   0.00000242  -0.00002064          0.00      0.36     -3.04

     bfgs converged in  20 scf cycles and  19 bfgs steps
     (criteria: energy <  1.0E+00, force <  1.9E-03)

     End of BFGS Geometry Optimization

     Final energy   =   -2119.0720610224 Ry
Begin final coordinates

ATOMIC_POSITIONS (crystal)
Pb1     -0.000000000  -0.000000000   0.386173591    0   0   0
Bi1      0.000000000   0.500000000   0.386173591    0   0   0
Bi1      0.500000000   0.500000000   0.386173591    0   0   0
Pb1      0.500000000  -0.000000000   0.386173591    0   0   0
Pb1      0.657766639   0.315533277   0.500000000    0   0   0
Bi1      0.657766639   0.815533277   0.500000000    0   0   0
Bi1      0.157766639   0.815533277   0.500000000    0   0   0
Pb1      0.157766639   0.315533277   0.500000000    0   0   0
Pb1      0.319788129   0.639592858   0.608018329
Bi1      0.310534465   0.121129668   0.607524958
Bi1      0.810561124   0.121084150   0.607528432
Pb1      0.819799146   0.639612289   0.608021419
End final coordinates

     Writing output data file calc.save

     General routines

     Parallel routines

   This run was terminated on:  23:53:18  23Feb2018

   JOB DONE.