     Program PWSCF v.5.1rc2 (svn rev. ) starts on 23Feb2018 at 22:19:52

     Current dimensions of program PWSCF are:
     Max number of different atomic species (ntypx) = 10
     Max number of k-points (npk) =  40000
     Max angular momentum in pseudopotentials (lmaxx) =  3
     Presently stress not available with electric field

     IMPORTANT: XC functional enforced from input :
     Exchange-correlation      = BEEF-VDW ( 1  4 27 13 2)
     Any further DFT definition will be discarded
     Please, verify this is what you really want

     Subspace diagonalization in iterative solution of the eigenvalue problem:
     a serial algorithm will be used

     Found symmetry operation: I + ( -0.5000 -0.5000  0.0000)
     This is a supercell, fractional translations are disabled

     bravais-lattice index     =            0
     lattice parameter (alat)  =       1.8897  a.u.
     unit-cell volume          =    5924.2976 (a.u.)^3
     number of atoms/cell      =           12
     number of atomic types    =            2
     number of electrons       =       168.00
     number of Kohn-Sham states=           94
     kinetic-energy cutoff     =      36.7493  Ry
     charge density cutoff     =     367.4932  Ry
     convergence threshold     =      1.0E-05
     mixing beta               =       0.3000
     number of iterations used =           10  plain     mixing
     Exchange-correlation      = BEEF-VDW ( 1  4 27 13 2)
     nstep                     =           50

     celldm(1)=   1.889726  celldm(2)=   0.000000  celldm(3)=   0.000000
     celldm(4)=   0.000000  celldm(5)=   0.000000  celldm(6)=   0.000000

     crystal axes: (cart. coord. in units of alat)
               a(1) = (   6.105148   0.000000   0.000000 )
               a(2) = (   2.037492   5.755124   0.000000 )
               a(3) = (   0.000000   0.000000  24.985578 )

     reciprocal axes: (cart. coord. in units 2 pi/alat)
               b(1) = (  0.163796 -0.057989  0.000000 )
               b(2) = (  0.000000  0.173758  0.000000 )
               b(3) = (  0.000000  0.000000  0.040023 )

     PseudoPot. # 1 for Ta read from file:
     /home/mamunm/src/pseudo/gbrv1.5pbe/Ta.UPF
     MD5 check sum: f8bbe9446314a3b8ea5d9f3e3836c939
     Pseudo is Ultrasoft + core correction, Zval = 13.0
     Generated by new atomic code, or converted to UPF format
     Using radial grid of  921 points,  7 beta functions with:
                l(1) =   0
                l(2) =   0
                l(3) =   1
                l(4) =   1
                l(5) =   2
                l(6) =   2
                l(7) =   3
     Q(r) pseudized with  6 coefficients,  rinner =    1.300   1.300   1.300
                                                       1.300   1.300   1.300
                                                       1.300

     PseudoPot. # 2 for Bi read from file:
     /home/mamunm/src/pseudo/gbrv1.5pbe/Bi.UPF
     MD5 check sum: 81103212dc04adf40945787f699eab19
     Pseudo is Ultrasoft + core correction, Zval = 15.0
     Generated by new atomic code, or converted to UPF format
     Using radial grid of  899 points,  6 beta functions with:
                l(1) =   0
                l(2) =   0
                l(3) =   1
                l(4) =   1
                l(5) =   2
                l(6) =   2
     Q(r) pseudized with  6 coefficients,  rinner =    1.000   1.000   1.000
                                                       1.000   1.000

     vdW kernel table read from file vdW_kernel_table
     MD5 check sum: 095c7af220d748ca6e76c0b4c6cfb241

     atomic species   valence    mass     pseudopotential
        Ta1           13.00   180.94788     Ta( 1.00)
        Bi1           15.00   208.98040     Bi( 1.00)

     No symmetry found

   Cartesian axes

     site n.     atom                  positions (alat units)
         1           Ta1 tau(   1) = (   0.0000000   0.0000000  10.0000000  )
         2           Bi1 tau(   2) = (   1.0187458   2.8775621  10.0000000  )
         3           Bi1 tau(   3) = (   3.0525738   0.0000000  10.0000000  )
         4           Ta1 tau(   4) = (   4.0713195   2.8775621  10.0000000  )
         5           Ta1 tau(   5) = (   6.1051475   4.3150485  12.4927889  )
         6           Bi1 tau(   6) = (   5.0864018   1.4374864  12.4927889  )
         7           Bi1 tau(   7) = (   3.0525738   4.3150485  12.4927889  )
         8           Ta1 tau(   8) = (   2.0338280   1.4374864  12.4927889  )
         9           Ta1 tau(   9) = (   4.0676560   2.8749728  14.9855778  )
        10           Bi1 tau(  10) = (   5.0864018   5.7525349  14.9855778  )
        11           Bi1 tau(  11) = (   7.1202298   2.8749728  14.9855778  )
        12           Ta1 tau(  12) = (   8.1389755   5.7525349  14.9855778  )

     number of k points=    20  Fermi-Dirac smearing, width (Ry)=  0.0110
                       cart. coord. in units 2pi/alat
        k(    1) = (   0.0000000   0.0000000   0.0000000), wk =   0.0555556
        k(    2) = (   0.0000000   0.0289597   0.0000000), wk =   0.1111111
        k(    3) = (   0.0000000   0.0579194   0.0000000), wk =   0.1111111
        k(    4) = (   0.0000000  -0.0868791   0.0000000), wk =   0.0555556
        k(    5) = (   0.0272994  -0.0096648   0.0000000), wk =   0.1111111
        k(    6) = (   0.0272994   0.0192949   0.0000000), wk =   0.1111111
        k(    7) = (   0.0272994   0.0482546   0.0000000), wk =   0.1111111
        k(    8) = (   0.0272994  -0.0965439   0.0000000), wk =   0.1111111
        k(    9) = (   0.0272994  -0.0675842   0.0000000), wk =   0.1111111
        k(   10) = (   0.0272994  -0.0386245   0.0000000), wk =   0.1111111
        k(   11) = (   0.0545987  -0.0193296   0.0000000), wk =   0.1111111
        k(   12) = (   0.0545987   0.0096301   0.0000000), wk =   0.1111111
        k(   13) = (   0.0545987   0.0385898   0.0000000), wk =   0.1111111
        k(   14) = (   0.0545987  -0.1062087   0.0000000), wk =   0.1111111
        k(   15) = (   0.0545987  -0.0772490   0.0000000), wk =   0.1111111
        k(   16) = (   0.0545987  -0.0482893   0.0000000), wk =   0.1111111
        k(   17) = (  -0.0818981   0.0289945   0.0000000), wk =   0.0555556
        k(   18) = (  -0.0818981   0.0579542   0.0000000), wk =   0.1111111
        k(   19) = (  -0.0818981   0.0869139   0.0000000), wk =   0.1111111
        k(   20) = (  -0.0818981  -0.0578846   0.0000000), wk =   0.0555556

     Largest allocated arrays     est. size (Mb)     dimensions
     Largest temporary arrays     est. size (Mb)     dimensions

     Initial potential from superposition of free atoms
     Check: negative starting charge=   -0.822158

     starting charge  161.99308, renormalised to  168.00000

     negative rho (up, down):  8.526E-01 0.000E+00

     *
     * You are using vdW-DF for exchange-correlation in this calculation.
     * Please cite the following three references that made this development
     * possible:
     *
     *   M. Dion, H. Rydberg, E. Schroder, D. C. Langreth, and
     *   B. I. Lundqvist, Phys. Rev. Lett. 92, 246401 (2004).
     *
     *   T. Thonhauser, V. R. Cooper, S. Li, A. Puzder, P. Hyldgaard, and
     *   D. C. Langreth, Phys. Rev. B 76, 125112 (2007).
     *
     *   G. Roman-Perez and J. M. Soler, Phys. Rev. Lett. 103, 096102 (2009).
     *
     *
     * If you are using vdW-DF2, please also cite:
     *
     *   K. Lee, E. D. Murray, L. Kong, B. I. Lundqvist, and
     *   D. C. Langreth, Phys. Rev. B 82, 081101(R) (2010).
     *
     *
     * If you are calculating the stress with vdW-DF, please also cite:
     *
     *   R. Sabatini, E. Kucukbenli, B. Kolb, T. Thonhauser, and
     *   S. de Gironcoli, J. Phys.: Condens. Matter 24, 424209 (2012).
     *

     Carrying out vdW-DF run using the following parameters:

     Nqs =      20    Nr_points =    1024   r_max =   100.000
     q_mesh =
               0.00001000     0.04494208     0.09755937     0.15916263
               0.23128650     0.31572767     0.41458969     0.53033537
               0.66584808     0.82450364     1.01025438     1.22772762
               1.48234092     1.78043706     2.12944203     2.53805004
               3.01644009     3.57652955     4.23227104     5.00000000

     Gradients computed in reciprocal space

     Adding external electric field

     Computed dipole along edir(3) :
        Dipole               -0.0000 Ry au,         -0.0000 Debye
        Dipole field         -0.0000 Ry au

        Potential amp.        0.0000 Ry
        Total length         46.0355 bohr

     Starting wfc are  132 randomized atomic wfcs

     Self-consistent Calculation

     iteration #  1     ecut=    36.75 Ry     beta=0.30
     Davidson diagonalization with overlap
     ethr =  1.00E-02,  avg # of iterations =  2.0

[...]

     total energy              =   -1981.57854971 Ry
     Harris-Foulkes estimate   =   -1982.58534062 Ry
     estimated scf accuracy    <       2.46517300 Ry

[...]

     End of self-consistent calculation

          k = 0.0000 0.0000 0.0000 ( 22273 PWs)   bands (ev):

   -67.0658 -67.0655 -67.0629 -67.0624 -66.8014 -66.7977 -33.4273 -33.4271
   -33.4211 -33.4174 -33.4094 -33.4082 -33.3234 -33.3180 -33.3171 -33.3168
   -33.3155 -33.3101 -33.1496 -33.1442 -33.1416 -33.0980 -33.0846 -33.0477
   -21.0662 -21.0540 -21.0421 -21.0374 -21.0290 -21.0286 -21.0083 -21.0036
   -20.9832 -20.9761 -20.9696 -20.9519 -20.9471 -20.9451 -20.9410 -20.9333
   -20.9041 -20.9037 -20.9016 -20.9015 -20.9012 -20.8975 -20.8972 -20.8948
   -20.8801 -20.8761 -20.8487 -20.8423 -20.8332 -20.8220 -10.8885  -9.7134
    -8.8585  -8.7307  -8.3826  -8.3609  -2.7480  -2.5454  -2.0007  -1.7906
    -1.7243  -1.6811  -1.6262  -0.9251  -0.7492  -0.2612  -0.1276   0.1547
     0.2127   0.2770   0.7022   0.8344   1.0115   1.1034   1.2755   1.3902
     1.8550   1.8699   1.9036   1.9423   2.2543   2.2563   2.4489   2.6103
     2.7798   2.9814   3.0436   3.1457   3.2404   3.2802

[...]

          k =-0.0819 0.0290 0.0000 ( 22290 PWs)   bands (ev):

[...]

     the Fermi energy is     2.0825 ev

!    total energy              =   -1981.67874320 Ry
     Harris-Foulkes estimate   =   -1981.67875018 Ry
     estimated scf accuracy    <       0.00000943 Ry

     The total energy is the sum of the following terms:

     one-electron contribution =  -11551.32608851 Ry
     hartree contribution      =    5795.87654452 Ry
     xc contribution           =    -661.14229836 Ry
     ewald contribution        =    4434.98727312 Ry
     electric field correction =       0.00000020 Ry
     smearing contrib. (-TS)   =      -0.07417417 Ry

     convergence has been achieved in  13 iterations

 BEEF-vdW xc energy contributions
           1 :   -586.780460342405
           2 :    544.410732834878
           3 :   -469.764960345351
           4 :    379.214629489216
           5 :   -289.776759404815
           6 :    214.047865502140
           7 :   -157.498144679637
           8 :    118.760418328557
           9 :   -92.2736813922938
          10 :    71.7575828110855
          11 :   -52.9237928868130
          12 :    34.4885477289504
          13 :   -17.5237877343529
          14 :    3.91851913065398
          15 :    5.07613997007877
          16 :   -9.55935909091522
          17 :    10.8223556906119
          18 :   -10.6370527224490
          19 :    10.4712060099084
          20 :   -11.0124394844322
          21 :    12.1404043768944
          22 :   -13.2517565891922
          23 :    13.7089418831699
          24 :   -13.1901305394805
          25 :    11.8158631294737
          26 :   -10.0543932782318
          27 :    8.49124608402212
          28 :   -7.57866213625016
          29 :    7.46213387737839
          30 :   -7.93993341060536
          31 :   -48.9211507673349
          32 :   -36.2397529398207

     Forces acting on atoms (Ry/au):

     negative rho (up, down):  8.644E-01 0.000E+00
     atom    1 type  1   force =    -0.00002350   -0.00001599    0.06237914
     atom    2 type  2   force =     0.00011087   -0.00050028   -0.03871441
     atom    3 type  2   force =    -0.00043530    0.00027053   -0.03871165
     atom    4 type  1   force =     0.00006794    0.00004840    0.06229399
     atom    5 type  1   force =     0.00001624    0.00001291    0.00069484
     atom    6 type  2   force =    -0.00006865    0.00010059   -0.00114157
     atom    7 type  2   force =     0.00007501   -0.00009689   -0.00114120
     atom    8 type  1   force =    -0.00000500   -0.00000595    0.00069220
     atom    9 type  1   force =     0.00004192    0.00003169   -0.06122721
     atom   10 type  2   force =    -0.00014204    0.00051755    0.03803422
     atom   11 type  2   force =     0.00044211   -0.00030511    0.03803164
     atom   12 type  1   force =    -0.00007961   -0.00005745   -0.06119001

     Total force =     0.101915     Total SCF correction =     0.004076

     entering subroutine stress ...

     negative rho (up, down):  8.644E-01 0.000E+00
          total   stress  (Ry/bohr**3)                   (kbar)     P=  -18.60
  -0.00013936  -0.00000359   0.00000041        -20.50     -0.53      0.06
  -0.00000359  -0.00013681   0.00000029         -0.53    -20.13      0.04
   0.00000041   0.00000029  -0.00010316          0.06      0.04    -15.18

     BFGS Geometry Optimization

     number of scf cycles    =   1
     number of bfgs steps    =   0

     energy   new            =   -1981.6787432043 Ry

     new trust radius        =       0.0612272283 bohr
     new conv_thr            =       0.0000099958 Ry

ATOMIC_POSITIONS (crystal)
Ta1      0.000000000   0.000000000   0.400230888    0   0   0
Bi1      0.000000000   0.500000000   0.400230888    0   0   0
Bi1      0.500000000   0.000000000   0.400230888    0   0   0
Ta1      0.500000000   0.500000000   0.400230888    0   0   0
Ta1      0.749775042   0.749775042   0.500000000    0   0   0
Bi1      0.749775042   0.249775042   0.500000000    0   0   0
Bi1      0.249775042   0.749775042   0.500000000    0   0   0
Ta1      0.249775042   0.249775042   0.500000000    0   0   0
Ta1      0.499552744   0.499552998   0.598472362
Bi1      0.499521891   0.999597672   0.600574650
Bi1      0.999597767   0.499522029   0.600574596
Ta1      0.999544947   0.999544801   0.598473150

     Writing output data file calc.save
     Check: negative starting charge=   -0.822158
     NEW-OLD atomic charge density approx. for the potential
     Check: negative starting charge=   -0.819345

[...]

     iteration #  1     ecut=    36.75 Ry     beta=0.30
     Davidson diagonalization with overlap
     c_bands:  1 eigenvalues not converged
     c_bands:  1 eigenvalues not converged
     ethr =  1.00E-06,  avg # of iterations = 10.4

[...]

     energy   old            =   -1981.6787432043 Ry
     energy   new            =   -1981.6885784646 Ry

     CASE: energy  _new < energy  _old

     WARNING: bfgs curvature condition failed, Theta= 0.899
     new trust radius        =       0.0918408424 bohr
     new conv_thr            =       0.0000001000 Ry

[...]

     iteration #  1     ecut=    36.75 Ry     beta=0.30
     Davidson diagonalization with overlap
     c_bands:  1 eigenvalues not converged
     c_bands:  1 eigenvalues not converged
     c_bands:  1 eigenvalues not converged
     ethr =  1.00E-06,  avg # of iterations = 13.5

[...]

     Threshold (ethr) on eigenvalues was too large:
     Diagonalizing with lowered threshold

     Davidson diagonalization with overlap
     ethr =  7.24E-08,  avg # of iterations =  1.9

[...]

     Total force =     0.006504     Total SCF correction =     0.000673
     SCF correction compared to forces is large: reduce conv_thr to get better values

[...]

     Total force =     0.005137     Total SCF correction =     0.000274

[...]

     number of scf cycles    =  10
     number of bfgs steps    =   9

     energy   old            =   -1981.7313939753 Ry
     energy   new            =   -1981.7315305757 Ry

     CASE: energy  _new < energy  _old

     new trust radius        =       0.0373598774 bohr
     new conv_thr            =       0.0000001000 Ry

ATOMIC_POSITIONS (crystal)
Ta1      0.000000000   0.000000000   0.400230888    0   0   0
Bi1      0.000000000   0.500000000   0.400230888    0   0   0
Bi1      0.500000000   0.000000000   0.400230888    0   0   0
Ta1      0.500000000   0.500000000   0.400230888    0   0   0
Ta1      0.749775042   0.749775042   0.500000000    0   0   0
Bi1      0.749775042   0.249775042   0.500000000    0   0   0
Bi1      0.249775042   0.749775042   0.500000000    0   0   0
Ta1      0.249775042   0.249775042   0.500000000    0   0   0
Ta1      0.499561850   0.499561818   0.588133776
Bi1      0.499693072   0.999573089   0.608687444
Bi1      0.999572895   0.499692888   0.608687438
Ta1      0.999543275   0.999543298   0.588131354

     Writing output data file calc.save
     Check: negative starting charge=   -0.821019
     NEW-OLD atomic charge density approx. for the potential
     Check: negative starting charge=   -0.821291

[...]

     Self-consistent Calculation

[...]

     total energy              =   -1981.73161884 Ry
     Harris-Foulkes estimate   =   -1981.73161892 Ry
     estimated scf accuracy    <       0.00000046 Ry

     iteration # 11     ecut=    36.75 Ry     beta=0.30
     Davidson diagonalization with overlap
     ethr =  2.75E-10,  avg # of iterations =  3.6

[...]

     negative rho (up, down):  8.653E-01 0.000E+00

     Adding external electric field

     Computed dipole along edir(3) :
        Dipole                0.0381 Ry au,          0.0969 Debye
        Dipole field          0.0001 Ry au

        Potential amp.       -0.0074 Ry
        Total length         46.0355 bohr

     End of self-consistent calculation

[...]

          k = 0.0546-0.0483 0.0000 ( 22283 PWs)   bands (ev):

[...]

          k =-0.0819-0.0579 0.0000 ( 22334 PWs)   bands (ev):

   -67.1041 -67.1015 -66.9609 -66.9583 -66.8507 -66.8479 -33.4616 -33.4597
   -33.4512 -33.3669 -33.3666 -33.3555 -33.3523 -33.3487 -33.3441 -33.2542
   -33.2508 -33.2506 -33.1953 -33.1782 -33.1521 -33.1098 -33.1044 -33.1005
   -21.1584 -21.1386 -21.1254 -21.1241 -21.1236 -21.1033 -21.1017 -21.1000
   -21.0867 -21.0116 -20.9940 -20.9708 -20.9519 -20.9467 -20.9411 -20.9347
   -20.9091 -20.9086 -20.9062 -20.9021 -20.9013 -20.9009 -20.8986 -20.8983
   -20.8930 -20.8877 -20.8832 -20.8648 -20.8539 -20.8353  -9.9590  -9.4549
    -9.1965  -9.1458  -8.1871  -7.5446  -4.4462  -4.3434  -3.8782  -2.9039
    -2.6167  -2.5785  -2.4139  -1.8057  -1.1663  -0.6337   0.1152   0.1930
     0.3820   0.5861   0.6834   0.7268   0.7924   1.0967   1.0968   1.1492
     1.2193   1.6211   1.8520   2.1103   2.1219   2.2846   2.7489   2.7740
     3.0595   3.4323   3.5263   3.5291   3.6028   3.7689

     the Fermi energy is     2.0722 ev

!    total energy              =   -1981.73161886 Ry
     Harris-Foulkes estimate   =   -1981.73161899 Ry
     estimated scf accuracy    <       0.00000004 Ry

     The total energy is the sum of the following terms:

     one-electron contribution =  -11563.28269341 Ry
     hartree contribution      =    5801.67070826 Ry
     xc contribution           =    -661.21178892 Ry
     ewald contribution        =    4441.16046903 Ry
     electric field correction =       0.00000308 Ry
     smearing contrib. (-TS)   =      -0.06831690 Ry

     convergence has been achieved in  11 iterations

 BEEF-vdW xc energy contributions
           1 :   -586.846236580249
           2 :    544.481948612097
           3 :   -469.847823090746
           4 :    379.306167866261
           5 :   -289.858253967480
           6 :    214.093105448620
           7 :   -157.489480018645
           8 :    118.699429027578
           9 :   -92.1790004375187
          10 :    71.6523286225370
          11 :   -52.8219084209477
          12 :    34.3886542478774
          13 :   -17.4133942640149
          14 :    3.78528838106035
          15 :    5.23288633851030
          16 :   -9.72408944175493
          17 :    10.9694437245371
          18 :   -10.7447250961116
          19 :    10.5357312567837
          20 :   -11.0534070414927
          21 :    12.1913522309450
          22 :   -13.3398561554668
          23 :    13.8358797898680
          24 :   -13.3275088131907
          25 :    11.9208222499074
          26 :   -10.0972152989666
          27 :    8.47688240014486
          28 :   -7.54656291289996
          29 :    7.46231150221092
          30 :   -7.99971040807191
          31 :   -48.9257053448994
          32 :   -36.2445977210020

     Forces acting on atoms (Ry/au):

     negative rho (up, down):  8.653E-01 0.000E+00
     atom    1 type  1   force =     0.00002865    0.00002023    0.06255279
     atom    2 type  2   force =    -0.00014930   -0.00013174   -0.03682424
     atom    3 type  2   force =    -0.00017406   -0.00009668   -0.03682424
     atom    4 type  1   force =     0.00003608    0.00002551    0.06255308
     atom    5 type  1   force =     0.00001437    0.00001016    0.02591981
     atom    6 type  2   force =     0.00009212    0.00011677   -0.05102088
     atom    7 type  2   force =     0.00014085    0.00004784   -0.05102082
     atom    8 type  1   force =     0.00000750    0.00000529    0.02589679
     atom    9 type  1   force =    -0.00003369   -0.00002368   -0.00074671
     atom   10 type  2   force =    -0.00007776    0.00011463    0.00011963
     atom   11 type  2   force =     0.00008250   -0.00011134    0.00011977
     atom   12 type  1   force =     0.00003274    0.00002300   -0.00072499

     Total force =     0.001074     Total SCF correction =     0.000359
     SCF correction compared to forces is large: reduce conv_thr to get better values

     entering subroutine stress ...

     negative rho (up, down):  8.653E-01 0.000E+00
          total   stress  (Ry/bohr**3)                   (kbar)     P=  -17.80
  -0.00015998  -0.00004054   0.00000021        -23.53     -5.96      0.03
  -0.00004054  -0.00013128   0.00000015         -5.96    -19.31      0.02
   0.00000021   0.00000015  -0.00007168          0.03      0.02    -10.54

     bfgs converged in  11 scf cycles and  10 bfgs steps
     (criteria: energy <  1.0E+00, force <  1.9E-03)

     End of BFGS Geometry Optimization

     Final energy   =   -1981.7316188612 Ry
Begin final coordinates

ATOMIC_POSITIONS (crystal)
Ta1      0.000000000   0.000000000   0.400230888    0   0   0
Bi1      0.000000000   0.500000000   0.400230888    0   0   0
Bi1      0.500000000   0.000000000   0.400230888    0   0   0
Ta1      0.500000000   0.500000000   0.400230888    0   0   0
Ta1      0.749775042   0.749775042   0.500000000    0   0   0
Bi1      0.749775042   0.249775042   0.500000000    0   0   0
Bi1      0.249775042   0.749775042   0.500000000    0   0   0
Ta1      0.249775042   0.249775042   0.500000000    0   0   0
Ta1      0.499561850   0.499561818   0.588133776
Bi1      0.499693072   0.999573089   0.608687444
Bi1      0.999572895   0.499692888   0.608687438
Ta1      0.999543275   0.999543298   0.588131354
End final coordinates

     Writing output data file calc.save

     General routines

     Parallel routines

   This run was terminated on:  23:19:52  23Feb2018

   JOB DONE.