     Program PWSCF v.5.1rc2 (svn rev. ) starts on 23Feb2018 at 22:21:11

     Current dimensions of program PWSCF are:
     Max number of different atomic species (ntypx) = 10
     Max number of k-points (npk) =  40000
     Max angular momentum in pseudopotentials (lmaxx) =  3
     Presently stress not available with electric field

     IMPORTANT: XC functional enforced from input :
     Exchange-correlation      = BEEF-VDW ( 1  4 27 13 2)
     Any further DFT definition will be discarded
     Please, verify this is what you really want

     Subspace diagonalization in iterative solution of the eigenvalue problem:
     a serial algorithm will be used

     Found symmetry operation: I + ( -0.5000 -0.5000  0.0000)
     This is a supercell, fractional translations are disabled

     bravais-lattice index     =            0
     lattice parameter (alat)  =       1.8897  a.u.
     unit-cell volume          =    6002.8096 (a.u.)^3
     number of atoms/cell      =           12
     number of atomic types    =            2
     number of electrons       =       204.00
     number of Kohn-Sham states=          112
     kinetic-energy cutoff     =      36.7493  Ry
     charge density cutoff     =     367.4932  Ry
     convergence threshold     =      1.0E-05
     mixing beta               =       0.3000
     number of iterations used =           10  plain     mixing
     Exchange-correlation      = BEEF-VDW ( 1  4 27 13 2)
     nstep                     =           50

     celldm(1)=   1.889726  celldm(2)=   0.000000  celldm(3)=   0.000000
     celldm(4)=   0.000000  celldm(5)=   0.000000  celldm(6)=   0.000000

     crystal axes: (cart. coord. in units of alat)
               a(1) = (   6.130704   0.000000   0.000000 )
               a(2) = (   1.960097   5.808920   0.000000 )
               a(3) = (  -0.000000   0.000000  24.977690 )

     reciprocal axes: (cart. coord. in units 2 pi/alat)
               b(1) = (  0.163113 -0.055039  0.000000 )
               b(2) = (  0.000000  0.172149 -0.000000 )
               b(3) = (  0.000000  0.000000  0.040036 )

     PseudoPot. # 1 for Cu read from file:
     /home/mamunm/src/pseudo/gbrv1.5pbe/Cu.UPF
     MD5 check sum: 6e991ff952a84172a2a52a1c1e996048
     Pseudo is Ultrasoft + core correction, Zval = 19.0
     Generated by new atomic code, or converted to UPF format
     Using radial grid of  867 points,  6 beta functions with:
                l(1) =   0
                l(2) =   0
                l(3) =   1
                l(4) =   1
                l(5) =   2
                l(6) =   2
     Q(r) pseudized with  8 coefficients,  rinner =    1.150   1.150   1.150
                                                       1.150   1.150

     PseudoPot. # 2 for Bi read from file:
     /home/mamunm/src/pseudo/gbrv1.5pbe/Bi.UPF
     MD5 check sum: 81103212dc04adf40945787f699eab19
     Pseudo is Ultrasoft + core correction, Zval = 15.0
     Generated by new atomic code, or converted to UPF format
     Using radial grid of  899 points,  6 beta functions with:
                l(1) =   0
                l(2) =   0
                l(3) =   1
                l(4) =   1
                l(5) =   2
                l(6) =   2
     Q(r) pseudized with  6 coefficients,  rinner =    1.000   1.000   1.000
                                                       1.000   1.000

     vdW kernel table read from file vdW_kernel_table
     MD5 check sum: 095c7af220d748ca6e76c0b4c6cfb241

     atomic species   valence    mass     pseudopotential
        Cu1           19.00    63.54600     Cu( 1.00)
        Bi1           15.00   208.98040     Bi( 1.00)

     No symmetry found

   Cartesian axes

     site n.     atom                  positions (alat units)
         1           Cu1 tau(   1) = (  -0.0000000   0.0000000  10.0000000  )
         2           Bi1 tau(   2) = (   0.9800486   2.9044598  10.0000000  )
         3           Bi1 tau(   3) = (   3.0653519   0.0000000  10.0000000  )
         4           Cu1 tau(   4) = (   4.0454005   2.9044598  10.0000000  )
         5           Cu1 tau(   5) = (   6.1307038   4.4016366  12.4888448  )
         6           Bi1 tau(   6) = (   5.1506552   1.4971768  12.4888448  )
         7           Bi1 tau(   7) = (   3.0653519   4.4016366  12.4888448  )
         8           Cu1 tau(   8) = (   2.0853033   1.4971768  12.4888448  )
         9           Cu1 tau(   9) = (   4.1706066   2.9943535  14.9776897  )
        10           Bi1 tau(  10) = (   3.1905580   0.0898937  14.9776897  )
        11           Bi1 tau(  11) = (   1.1052547   2.9943535  14.9776897  )
        12           Cu1 tau(  12) = (   0.1252061   0.0898937  14.9776897  )

     number of k points=    20  Fermi-Dirac smearing, width (Ry)=  0.0110
                       cart. coord. in units 2pi/alat
        k(    1) = (   0.0000000   0.0000000   0.0000000), wk =   0.0555556
        k(    2) = (   0.0000000   0.0286915  -0.0000000), wk =   0.1111111
        k(    3) = (   0.0000000   0.0573830  -0.0000000), wk =   0.1111111
        k(    4) = (   0.0000000  -0.0860745   0.0000000), wk =   0.0555556
        k(    5) = (   0.0271856  -0.0091732   0.0000000), wk =   0.1111111
        k(    6) = (   0.0271856   0.0195183   0.0000000), wk =   0.1111111
        k(    7) = (   0.0271856   0.0482098   0.0000000), wk =   0.1111111
        k(    8) = (   0.0271856  -0.0952477   0.0000000), wk =   0.1111111
        k(    9) = (   0.0271856  -0.0665562   0.0000000), wk =   0.1111111
        k(   10) = (   0.0271856  -0.0378647   0.0000000), wk =   0.1111111
        k(   11) = (   0.0543711  -0.0183464   0.0000000), wk =   0.1111111
        k(   12) = (   0.0543711   0.0103451   0.0000000), wk =   0.1111111
        k(   13) = (   0.0543711   0.0390366   0.0000000), wk =   0.1111111
        k(   14) = (   0.0543711  -0.1044209   0.0000000), wk =   0.1111111
        k(   15) = (   0.0543711  -0.0757294   0.0000000), wk =   0.1111111
        k(   16) = (   0.0543711  -0.0470379   0.0000000), wk =   0.1111111
        k(   17) = (  -0.0815567   0.0275196  -0.0000000), wk =   0.0555556
        k(   18) = (  -0.0815567   0.0562111  -0.0000000), wk =   0.1111111
        k(   19) = (  -0.0815567   0.0849026  -0.0000000), wk =   0.1111111
        k(   20) = (  -0.0815567  -0.0585549  -0.0000000), wk =   0.0555556

     Largest allocated arrays     est. size (Mb)     dimensions
     Largest temporary arrays     est. size (Mb)     dimensions

     Initial potential from superposition of free atoms
     Check: negative starting charge=   -0.248762

     starting charge  191.99974, renormalised to  204.00000

     negative rho (up, down):  2.643E-01 0.000E+00

     *
     * You are using vdW-DF for exchange-correlation in this calculation.
     * Please cite the following three references that made this development
     * possible:
     *
     *   M. Dion, H. Rydberg, E. Schroder, D. C. Langreth, and
     *   B. I. Lundqvist, Phys. Rev. Lett. 92, 246401 (2004).
     *
     *   T. Thonhauser, V. R. Cooper, S. Li, A. Puzder, P. Hyldgaard, and
     *   D. C. Langreth, Phys. Rev. B 76, 125112 (2007).
     *
     *   G. Roman-Perez and J. M. Soler, Phys. Rev. Lett. 103, 096102 (2009).
     *
     *
     * If you are using vdW-DF2, please also cite:
     *
     *   K. Lee, E. D. Murray, L. Kong, B. I. Lundqvist, and
     *   D. C. Langreth, Phys. Rev. B 82, 081101(R) (2010).
     *
     *
     * If you are calculating the stress with vdW-DF, please also cite:
     *
     *   R. Sabatini, E. Kucukbenli, B. Kolb, T. Thonhauser, and
     *   S. de Gironcoli, J. Phys.: Condens. Matter 24, 424209 (2012).
     *

     Carrying out vdW-DF run using the following parameters:

     Nqs =      20    Nr_points =    1024   r_max =   100.000
     q_mesh =
               0.00001000     0.04494208     0.09755937     0.15916263
               0.23128650     0.31572767     0.41458969     0.53033537
               0.66584808     0.82450364     1.01025438     1.22772762
               1.48234092     1.78043706     2.12944203     2.53805004
               3.01644009     3.57652955     4.23227104     5.00000000

     Gradients computed in reciprocal space

     Adding external electric field

     Computed dipole along edir(3) :
        Dipole               -0.0000 Ry au,         -0.0000 Debye
        Dipole field         -0.0000 Ry au

        Potential amp.        0.0000 Ry
        Total length         46.0210 bohr

     Starting wfc are  132 randomized atomic wfcs

     Self-consistent Calculation

     iteration #  1     ecut=    36.75 Ry     beta=0.30
     Davidson diagonalization with overlap
     ethr =  1.00E-02,  avg # of iterations =  6.0

[...]

     total energy              =   -3453.93028330 Ry
     Harris-Foulkes estimate   =   -3566.20686062 Ry
     estimated scf accuracy    <     232.48138291 Ry

[...]

     End of self-consistent calculation

          k = 0.0000 0.0000 0.0000 ( 22601 PWs)   bands (ev):

  -112.0104-112.0102-111.5720-111.5720-111.5684-111.5684 -69.4289 -69.4287
   -69.4218 -69.4216 -69.4138 -69.4131 -69.0164 -69.0163 -69.0128 -69.0128
   -68.9951 -68.9945 -68.9916 -68.9910 -68.9540 -68.9540 -68.9505 -68.9504
   -22.9265 -22.9106 -22.9026 -22.8999 -22.8996 -22.8944 -22.8921 -22.8628
   -22.8540 -22.8160 -22.6689 -22.6670 -22.6254 -22.6252 -22.6220 -22.6207
   -22.5918 -22.5913 -22.5897 -22.5889 -22.5879 -22.5866 -22.5858 -22.5852
   -22.5849 -22.5844 -22.5789 -22.5720 -22.5557 -22.5506 -11.9147 -10.7705
    -9.8965  -9.8642  -9.5163  -9.3902  -3.8756  -3.6176  -3.0658  -2.9225
    -2.9133  -2.8919  -2.8614  -2.4889  -2.4270  -2.4021  -2.3344  -2.2726
    -2.1982  -2.1805  -2.1281  -2.0593  -2.0324  -1.9437  -1.7779  -1.7638
    -1.7504  -1.7442  -1.7397  -1.7261  -1.7227  -1.7205  -1.6852  -1.6818
    -1.6489  -1.6447  -1.6356  -1.6298  -1.6197  -1.6056  -1.5946  -1.5699
    -1.4133  -1.3849  -0.8854  -0.7170  -0.6436   0.1333   0.6512   0.6835
     1.1268   1.2144   1.3609   1.7777   2.1678   2.9801   3.1681   3.2387

[...]

          k =-0.0816 0.0275-0.0000 ( 22576 PWs)   bands (ev):

[...]

     the Fermi energy is     0.6819 ev

!    total energy              =   -3552.39612717 Ry
     Harris-Foulkes estimate   =   -3552.39612922 Ry
     estimated scf accuracy    <       0.00000723 Ry

     The total energy is the sum of the following terms:

     one-electron contribution =  -18755.12631059 Ry
     hartree contribution      =    9410.94788011 Ry
     xc contribution           =    -639.36404488 Ry
     ewald contribution        =    6431.18069972 Ry
     electric field correction =       0.00000029 Ry
     smearing contrib. (-TS)   =      -0.03435183 Ry

     convergence has been achieved in  15 iterations

 BEEF-vdW xc energy contributions
           1 :   -568.826437333638
           2 :    523.555841263217
           3 :   -445.323806379405
           4 :    353.392732409146
           5 :   -266.389106500788
           6 :    196.186688542810
           7 :   -145.708415044599
           8 :    110.866263813323
           9 :   -84.8673648042586
          10 :    62.2951113930330
          11 :   -41.0741858583419
          12 :    21.9886495528231
          13 :   -6.82405953707962
          14 :   -3.36564629317013
          15 :    8.91780170418679
          16 :   -11.1603673380395
          17 :    11.6030304327048
          18 :   -11.3801382142562
          19 :    11.1539161535760
          20 :   -11.2655705690551
          21 :    11.8283023809067
          22 :   -12.6738805419753
          23 :    13.3124711292043
          24 :   -13.1122996563058
          25 :    11.6990282176653
          26 :   -9.31998746787508
          27 :    6.85371586997030
          28 :   -5.36611037038551
          29 :    5.45486566286945
          30 :   -6.82219313738153
          31 :   -45.2407851617052
          32 :   -32.3213950077226

     Forces acting on atoms (Ry/au):

     negative rho (up, down):  2.601E-01 0.000E+00
     atom    1 type  1   force =    -0.00038808   -0.00028395    0.00833362
     atom    2 type  2   force =     0.00081402    0.00057049    0.00056024
     atom    3 type  2   force =     0.00079844    0.00058862    0.00056139
     atom    4 type  1   force =    -0.00040788   -0.00028870    0.00833595
     atom    5 type  1   force =    -0.00000998   -0.00000481   -0.00056166
     atom    6 type  2   force =    -0.00001544   -0.00001341   -0.00032989
     atom    7 type  2   force =    -0.00001441   -0.00000993   -0.00033245
     atom    8 type  1   force =    -0.00000931   -0.00000719   -0.00056500
     atom    9 type  1   force =     0.00042443    0.00030803   -0.00830034
     atom   10 type  2   force =    -0.00082114   -0.00057930    0.00029762
     atom   11 type  2   force =    -0.00080941   -0.00059581    0.00029758
     atom   12 type  1   force =     0.00043877    0.00031595   -0.00829706

     Total force =     0.011853     Total SCF correction =     0.003670
     SCF correction compared to forces is large: reduce conv_thr to get better values

     entering subroutine stress ...

     negative rho (up, down):  2.601E-01 0.000E+00
          total   stress  (Ry/bohr**3)                   (kbar)     P=  -16.55
  -0.00013642  -0.00000608  -0.00000124        -20.07     -0.89     -0.18
  -0.00000608  -0.00013232  -0.00000089         -0.89    -19.46     -0.13
  -0.00000124  -0.00000089  -0.00006881         -0.18     -0.13    -10.12

     BFGS Geometry Optimization

     number of scf cycles    =   1
     number of bfgs steps    =   0

     energy   new            =   -3552.3961271665 Ry

     new trust radius        =       0.0083168916 bohr
     new conv_thr            =       0.0000099958 Ry

ATOMIC_POSITIONS (crystal)
Cu1      0.000000000   0.000000000   0.400357284    0   0   0
Bi1      0.000000000   0.500000000   0.400357284    0   0   0
Bi1      0.500000000   0.000000000   0.400357284    0   0   0
Cu1      0.500000000   0.500000000   0.400357284    0   0   0
Cu1      0.757737558   0.757737558   0.500000000    0   0   0
Bi1      0.757737558   0.257737558   0.500000000    0   0   0
Bi1      0.257737558   0.757737558   0.500000000    0   0   0
Cu1      0.257737558   0.257737558   0.500000000    0   0   0
Cu1      0.515502779   0.515503177   0.599466865
Bi1      0.515421111   0.015422343   0.599649021
Bi1      0.015422605   0.515420840   0.599649021
Cu1      0.015503787   0.015503898   0.599466935

     Writing output data file calc.save
     Check: negative starting charge=   -0.248762
     NEW-OLD atomic charge density approx. for the potential
     Check: negative starting charge=   -0.248686

[...]

     energy   old            =   -3552.3961271665 Ry
     energy   new            =   -3552.3962800103 Ry

     CASE: energy  _new < energy  _old

[...]

     CASE: energy  _new > energy  _old

[...]

     Threshold (ethr) on eigenvalues was too large:
     Diagonalizing with lowered threshold

     Davidson diagonalization with overlap
     ethr =  4.45E-08,  avg # of iterations =  1.0

[...]

     Total force =     0.012188     Total SCF correction =     0.001053

[...]

     WARNING: bfgs curvature condition failed, Theta= 0.549
     new trust radius        =       0.0003812773 bohr
     new conv_thr            =       0.0000001000 Ry

[...]

     WARNING: info= 36 for Hessian
     new trust radius        =       0.0005719160 bohr
     new conv_thr            =       0.0000001000 Ry

[...]

     WARNING: info= 36 for Hessian
     new trust radius        =       0.0007538209 bohr
     new conv_thr            =       0.0000001000 Ry

[...]

     Threshold (ethr) on eigenvalues was too large:
     Diagonalizing with lowered threshold

     Davidson diagonalization with overlap
     ethr =  1.88E-09,  avg # of iterations =  2.5

[...]

     CASE: energy  _new > energy  _old

     new trust radius        =       0.0000366586 bohr

     trust_radius < trust_radius_min

     resetting bfgs history

     new conv_thr            =       0.0000001000 Ry

[...]

     Total force =     0.010811     Total SCF correction =     0.001019

[...]

     WARNING: bfgs curvature condition failed, Theta= 0.897
     new trust radius        =       0.0705290137 bohr
     new conv_thr            =       0.0000001000 Ry

[...]

     iteration #  1     ecut=    36.75 Ry     beta=0.30
     Davidson diagonalization with overlap
     c_bands:  1 eigenvalues not converged
     ethr =  1.00E-06,  avg # of iterations =  6.2

[...]

     number of scf cycles    =  21
     number of bfgs steps    =  15

     energy   old            =   -3552.3992176400 Ry
     energy   new            =   -3552.4002465897 Ry

     CASE: energy  _new < energy  _old

     new trust radius        =       0.1487874238 bohr
     new conv_thr            =       0.0000001000 Ry

ATOMIC_POSITIONS (crystal)
Cu1      0.000000000   0.000000000   0.400357284    0   0   0
Bi1      0.000000000   0.500000000   0.400357284    0   0   0
Bi1      0.500000000  -0.000000000   0.400357284    0   0   0
Cu1      0.500000000   0.500000000   0.400357284    0   0   0
Cu1      0.757737558   0.757737558   0.500000000    0   0   0
Bi1      0.757737558   0.257737558   0.500000000    0   0   0
Bi1      0.257737558   0.757737558   0.500000000    0   0   0
Cu1      0.257737558   0.257737558   0.500000000    0   0   0
Cu1      0.516445022   0.516686449   0.590004288
Bi1      0.513127005   0.012967813   0.599919970
Bi1      0.012975356   0.513089380   0.599919656
Cu1      0.017628091   0.017637779   0.590077811

     Writing output data file calc.save
     Check: negative starting charge=   -0.249098
     NEW-OLD atomic charge density approx. for the potential
     Check: negative starting charge=   -0.248979

[...]

     Self-consistent Calculation

[...]

     total energy              =   -3552.40079867 Ry
     Harris-Foulkes estimate   =   -3552.40079867 Ry
     estimated scf accuracy    <       0.00000036 Ry

     iteration # 12     ecut=    36.75 Ry     beta=0.30
     Davidson diagonalization with overlap
     ethr =  1.75E-10,  avg # of iterations =  2.3

[...]

     negative rho (up, down):  2.601E-01 0.000E+00

     Adding external electric field

     Computed dipole along edir(3) :
        Dipole                0.0082 Ry au,          0.0209 Debye
        Dipole field          0.0000 Ry au

        Potential amp.       -0.0016 Ry
        Total length         46.0210 bohr

     End of self-consistent calculation

[...]

          k = 0.0544-0.0470 0.0000 ( 22576 PWs)   bands (ev):

[...]

          k =-0.0816-0.0586-0.0000 ( 22584 PWs)   bands (ev):

  -112.0099-112.0099-111.7697-111.7685-111.5346-111.5344 -69.4282 -69.4281
   -69.4221 -69.4220 -69.4125 -69.4119 -69.1940 -69.1938 -69.1931 -69.1924
   -69.1629 -69.1614 -68.9789 -68.9787 -68.9571 -68.9564 -68.9175 -68.9172
   -22.9110 -22.8922 -22.8877 -22.8868 -22.8853 -22.8842 -22.8783 -22.8494
   -22.8426 -22.7969 -22.6588 -22.6472 -22.6170 -22.6136 -22.6096 -22.5986
   -22.5825 -22.5812 -22.5811 -22.5789 -22.5788 -22.5754 -22.5749 -22.5687
   -22.5683 -22.5680 -22.5638 -22.5547 -22.5485 -22.5365 -11.1464 -10.6919
   -10.6014 -10.4784  -9.5268  -8.6898  -5.2762  -4.9901  -4.6333  -3.7883
    -3.3105  -3.3078  -3.1907  -2.8313  -2.4796  -2.3705  -2.3268  -2.3180
    -2.3071  -2.2519  -2.2436  -2.2394  -2.1843  -2.1213  -2.0871  -1.9801
    -1.9258  -1.9149  -1.8914  -1.8826  -1.8553  -1.7934  -1.7439  -1.7232
    -1.7074  -1.6464  -1.6335  -1.5677  -1.4955  -1.4762  -1.3611  -0.4944
    -0.4681  -0.0884  -0.0309   0.6589   0.6724   1.7116   1.7696   1.9254
     1.9756   2.7514   2.9497   3.1140   3.2164   3.4466   3.4602   3.7110

     the Fermi energy is     0.7094 ev

!    total energy              =   -3552.40079869 Ry
     Harris-Foulkes estimate   =   -3552.40079874 Ry
     estimated scf accuracy    <       0.00000005 Ry

     The total energy is the sum of the following terms:

     one-electron contribution =  -19063.85820226 Ry
     hartree contribution      =    9565.13360382 Ry
     xc contribution           =    -639.42010277 Ry
     ewald contribution        =    6585.77819668 Ry
     electric field correction =       0.00000014 Ry
     smearing contrib. (-TS)   =      -0.03429430 Ry

     convergence has been achieved in  12 iterations

 BEEF-vdW xc energy contributions
           1 :   -568.890391985106
           2 :    523.671209210156
           3 :   -445.499123785900
           4 :    353.584555970553
           5 :   -266.533228971211
           6 :    196.244604582263
           7 :   -145.692656299694
           8 :    110.827347138660
           9 :   -84.8560489895044
          10 :    62.3308386152665
          11 :   -41.1416738887018
          12 :    22.0598916501012
          13 :   -6.88333455614213
          14 :   -3.31483647151038
          15 :    8.86613549562787
          16 :   -11.1100101371558
          17 :    11.5703814213564
          18 :   -11.3800487802953
          19 :    11.1800088978085
          20 :   -11.2864819521382
          21 :    11.8069461191157
          22 :   -12.5972668696080
          23 :    13.2089205315668
          24 :   -13.0388341357460
          25 :    11.7034519649432
          26 :   -9.40438130464076
          27 :    6.96799983670940
          28 :   -5.43914858589403
          29 :    5.44226548078120
          30 :   -6.73632581708785
          31 :   -45.2468450495477
          32 :   -32.3397673465919

     Forces acting on atoms (Ry/au):

     negative rho (up, down):  2.601E-01 0.000E+00
     atom    1 type  1   force =    -0.00041976   -0.00029913    0.00716651
     atom    2 type  2   force =     0.00070566    0.00050694    0.00057399
     atom    3 type  2   force =     0.00070485    0.00050854    0.00057289
     atom    4 type  1   force =    -0.00041081   -0.00029480    0.00717934
     atom    5 type  1   force =    -0.00019983   -0.00014478    0.00171001
     atom    6 type  2   force =    -0.00095416   -0.00076628   -0.00724183
     atom    7 type  2   force =    -0.00104761   -0.00064084   -0.00728978
     atom    8 type  1   force =    -0.00020344   -0.00014696    0.00174088
     atom    9 type  1   force =     0.00069103    0.00046809   -0.00019951
     atom   10 type  2   force =     0.00019937    0.00016316   -0.00192959
     atom   11 type  2   force =     0.00020310    0.00013020   -0.00193102
     atom   12 type  1   force =     0.00073158    0.00051584   -0.00035190

     Total force =     0.003039     Total SCF correction =     0.001577
     SCF correction compared to forces is large: reduce conv_thr to get better values

     entering subroutine stress ...

     negative rho (up, down):  2.601E-01 0.000E+00
          total   stress  (Ry/bohr**3)                   (kbar)     P=  -14.47
  -0.00012495  -0.00001348   0.00000068        -18.38     -1.98      0.10
  -0.00001348  -0.00011584   0.00000046         -1.98    -17.04      0.07
   0.00000068   0.00000046  -0.00005427          0.10      0.07     -7.98

     bfgs converged in  22 scf cycles and  16 bfgs steps
     (criteria: energy <  1.0E+00, force <  1.9E-03)

     End of BFGS Geometry Optimization

     Final energy   =   -3552.4007986903 Ry
Begin final coordinates

ATOMIC_POSITIONS (crystal)
Cu1      0.000000000   0.000000000   0.400357284    0   0   0
Bi1      0.000000000   0.500000000   0.400357284    0   0   0
Bi1      0.500000000  -0.000000000   0.400357284    0   0   0
Cu1      0.500000000   0.500000000   0.400357284    0   0   0
Cu1      0.757737558   0.757737558   0.500000000    0   0   0
Bi1      0.757737558   0.257737558   0.500000000    0   0   0
Bi1      0.257737558   0.757737558   0.500000000    0   0   0
Cu1      0.257737558   0.257737558   0.500000000    0   0   0
Cu1      0.516445022   0.516686449   0.590004288
Bi1      0.513127005   0.012967813   0.599919970
Bi1      0.012975356   0.513089380   0.599919656
Cu1      0.017628091   0.017637779   0.590077811
End final coordinates

     Writing output data file calc.save

     General routines

     Parallel routines

   This run was terminated on:  23:37:36  23Feb2018

   JOB DONE.