     Program PWSCF v.5.1rc2 starts on 11Jul2018 at  6:30:15

     Current dimensions of program PWSCF are:
     Max number of different atomic species (ntypx) = 10
     Max number of k-points (npk) =  40000
     Max angular momentum in pseudopotentials (lmaxx) =  3
     Presently stress not available with electric field

     IMPORTANT: XC functional enforced from input :
     Exchange-correlation      = BEEF-VDW ( 1  4 27 13 2)
     Any further DFT definition will be discarded
     Please, verify this is what you really want

     Generating pointlists ...
     new r_m :   0.4125 (alat units)  0.7795 (a.u.) for type    1
     new r_m :   0.4125 (alat units)  0.7795 (a.u.) for type    2

     bravais-lattice index     =            0
     lattice parameter (alat)  =       1.8897  a.u.
     unit-cell volume          =    4650.3473 (a.u.)^3
     number of atoms/cell      =           12
     number of atomic types    =            2
     number of electrons       =       180.00
     number of Kohn-Sham states=          100
     kinetic-energy cutoff     =      36.7493  Ry
     charge density cutoff     =     367.4932  Ry
     convergence threshold     =      1.0E-05
     mixing beta               =       0.3000
     number of iterations used =           10  plain     mixing
     Exchange-correlation      = BEEF-VDW ( 1  4 27 13 2)
     nstep                     =           50

     celldm(1)=   1.889726  celldm(2)=   0.000000  celldm(3)=   0.000000
     celldm(4)=   0.000000  celldm(5)=   0.000000  celldm(6)=   0.000000

     crystal axes: (cart. coord. in units of alat)
               a(1) = (   5.682758   0.000000   0.000000 )
               a(2) = (   2.841379   4.921413   0.000000 )
               a(3) = (   0.000000   0.000000  24.639952 )

     reciprocal axes: (cart. coord. in units 2 pi/alat)
               b(1) = (  0.175971 -0.101597  0.000000 )
               b(2) = (  0.000000  0.203194  0.000000 )
               b(3) = (  0.000000  0.000000  0.040584 )

     PseudoPot. # 1 for Mn read from file:
     /home/users/mamunm/src/pseudo/gbrv1.5pbe/Mn.UPF
     MD5 check sum: 82ef2b46521d7a7d9e736dc3972e4928
     Pseudo is Ultrasoft + core correction, Zval = 15.0
     Generated by new atomic code, or converted to UPF format
     Using radial grid of  859 points,  6 beta functions with:
                l(1) =   0
                l(2) =   0
                l(3) =   1
                l(4) =   1
                l(5) =   2
                l(6) =   2
     Q(r) pseudized with  8 coefficients,  rinner =    0.950   0.950   0.950
                                                       0.950   0.950

     PseudoPot. # 2 for Bi read from file:
     /home/users/mamunm/src/pseudo/gbrv1.5pbe/Bi.UPF
     MD5 check sum: 81103212dc04adf40945787f699eab19
     Pseudo is Ultrasoft + core correction, Zval = 15.0
     Generated by new atomic code, or converted to UPF format
     Using radial grid of  899 points,  6 beta functions with:
                l(1) =   0
                l(2) =   0
                l(3) =   1
                l(4) =   1
                l(5) =   2
                l(6) =   2
     Q(r) pseudized with  6 coefficients,  rinner =    1.000   1.000   1.000
                                                       1.000   1.000

     vdW kernel table read from file vdW_kernel_table
     MD5 check sum: 095c7af220d748ca6e76c0b4c6cfb241

     atomic species   valence    mass     pseudopotential
        Mn1           15.00    54.93804     Mn( 1.00)
        Bi1           15.00   208.98040     Bi( 1.00)

     Starting magnetic structure
     atomic species   magnetization
        Mn1          0.133
        Bi1          0.000

     No symmetry found

   Cartesian axes

     site n.     atom                  positions (alat units)
         1           Mn1 tau(   1) = (   0.0000000   0.0000000  10.0000000  )
         2           Mn1 tau(   2) = (   1.4206894   2.4607063  10.0000000  )
         3           Mn1 tau(   3) = (   2.8413789   0.0000000  10.0000000  )
         4           Bi1 tau(   4) = (   4.2620683   2.4607063  10.0000000  )
         5           Mn1 tau(   5) = (   5.6827578   3.2809417  12.3199761  )
         6           Mn1 tau(   6) = (   4.2620683   0.8202354  12.3199761  )
         7           Mn1 tau(   7) = (   2.8413789   3.2809417  12.3199761  )
         8           Bi1 tau(   8) = (   1.4206894   0.8202354  12.3199761  )
         9           Mn1 tau(   9) = (   2.8413789   1.6404709  14.6399523  )
        10           Mn1 tau(  10) = (   4.2620683   4.1011772  14.6399523  )
        11           Mn1 tau(  11) = (   5.6827578   1.6404709  14.6399523  )
        12           Bi1 tau(  12) = (   7.1034472   4.1011772  14.6399523  )

     number of k points=    40  Fermi-Dirac smearing, width (Ry)=  0.0110
                       cart. coord. in units 2pi/alat
        k(    1) = (   0.0000000   0.0000000   0.0000000), wk =   0.0277778
        k(    2) = (   0.0000000   0.0338656   0.0000000), wk =   0.0555556
        k(    3) = (   0.0000000   0.0677312   0.0000000), wk =   0.0555556
        k(    4) = (   0.0000000  -0.1015968   0.0000000), wk =   0.0277778
        k(    5) = (   0.0293285  -0.0169328   0.0000000), wk =   0.0555556
        k(    6) = (   0.0293285   0.0169328   0.0000000), wk =   0.0555556
        k(    7) = (   0.0293285   0.0507984   0.0000000), wk =   0.0555556
        k(    8) = (   0.0293285  -0.1185297   0.0000000), wk =   0.0555556
        k(    9) = (   0.0293285  -0.0846640   0.0000000), wk =   0.0555556
        k(   10) = (   0.0293285  -0.0507984   0.0000000), wk =   0.0555556
        k(   11) = (   0.0586570  -0.0338656   0.0000000), wk =   0.0555556
        k(   12) = (   0.0586570  -0.0000000   0.0000000), wk =   0.0555556
        k(   13) = (   0.0586570   0.0338656   0.0000000), wk =   0.0555556
        k(   14) = (   0.0586570  -0.1354625   0.0000000), wk =   0.0555556
        k(   15) = (   0.0586570  -0.1015968   0.0000000), wk =   0.0555556
        k(   16) = (   0.0586570  -0.0677312   0.0000000), wk =   0.0555556
        k(   17) = (  -0.0879854   0.0507984   0.0000000), wk =   0.0277778
        k(   18) = (  -0.0879854   0.0846640   0.0000000), wk =   0.0555556
        k(   19) = (  -0.0879854   0.1185297   0.0000000), wk =   0.0555556
        k(   20) = (  -0.0879854  -0.0507984   0.0000000), wk =   0.0277778
        k(   21) = (   0.0000000   0.0000000   0.0000000), wk =   0.0277778
        k(   22) = (   0.0000000   0.0338656   0.0000000), wk =   0.0555556
        k(   23) = (   0.0000000   0.0677312   0.0000000), wk =   0.0555556
        k(   24) = (   0.0000000  -0.1015968   0.0000000), wk =   0.0277778
        k(   25) = (   0.0293285  -0.0169328   0.0000000), wk =   0.0555556
        k(   26) = (   0.0293285   0.0169328   0.0000000), wk =   0.0555556
        k(   27) = (   0.0293285   0.0507984   0.0000000), wk =   0.0555556
        k(   28) = (   0.0293285  -0.1185297   0.0000000), wk =   0.0555556
        k(   29) = (   0.0293285  -0.0846640   0.0000000), wk =   0.0555556
        k(   30) = (   0.0293285  -0.0507984   0.0000000), wk =   0.0555556
        k(   31) = (   0.0586570  -0.0338656   0.0000000), wk =   0.0555556
        k(   32) = (   0.0586570  -0.0000000   0.0000000), wk =   0.0555556
        k(   33) = (   0.0586570   0.0338656   0.0000000), wk =   0.0555556
        k(   34) = (   0.0586570  -0.1354625   0.0000000), wk =   0.0555556
        k(   35) = (   0.0586570  -0.1015968   0.0000000), wk =   0.0555556
        k(   36) = (   0.0586570  -0.0677312   0.0000000), wk =   0.0555556
        k(   37) = (  -0.0879854   0.0507984   0.0000000), wk =   0.0277778
        k(   38) = (  -0.0879854   0.0846640   0.0000000), wk =   0.0555556
        k(   39) = (  -0.0879854   0.1185297   0.0000000), wk =   0.0555556
        k(   40) = (  -0.0879854  -0.0507984   0.0000000), wk =   0.0277778

     Largest allocated arrays     est. size (Mb)     dimensions
     Largest temporary arrays     est. size (Mb)     dimensions

     Check: negative/imaginary core charge=   -0.000007    0.000000

     Initial potential from superposition of free atoms
     Check: negative starting charge=(component1):   -0.063443
     Check: negative starting charge=(component2):   -0.063251

     starting charge  172.49911, renormalised to  180.00000

     negative rho (up, down):  6.620E-02 6.600E-02

     *
     * You are using vdW-DF for exchange-correlation in this calculation.
     * Please cite the following three references that made this development
     * possible:
     *
     *   M. Dion, H. Rydberg, E. Schroder, D. C. Langreth, and
     *   B. I. Lundqvist, Phys. Rev. Lett. 92, 246401 (2004).
     *
     *   T. Thonhauser, V. R. Cooper, S. Li, A. Puzder, P. Hyldgaard, and
     *   D. C. Langreth, Phys. Rev. B 76, 125112 (2007).
     *
     *   G. Roman-Perez and J. M. Soler, Phys. Rev. Lett. 103, 096102 (2009).
     *
     *
     * If you are using vdW-DF2, please also cite:
     *
     *   K. Lee, E. D. Murray, L. Kong, B. I. Lundqvist, and
     *   D. C. Langreth, Phys. Rev. B 82, 081101(R) (2010).
     *
     *
     * If you are calculating the stress with vdW-DF, please also cite:
     *
     *   R. Sabatini, E. Kucukbenli, B. Kolb, T. Thonhauser, and
     *   S. de Gironcoli, J. Phys.: Condens. Matter 24, 424209 (2012).
     *

     Carrying out vdW-DF run using the following parameters:

     Nqs =      20    Nr_points =    1024   r_max =   100.000
     q_mesh =
               0.00001000     0.04494208     0.09755937     0.15916263
               0.23128650     0.31572767     0.41458969     0.53033537
               0.66584808     0.82450364     1.01025438     1.22772762
               1.48234092     1.78043706     2.12944203     2.53805004
               3.01644009     3.57652955     4.23227104     5.00000000

     Gradients computed in reciprocal space

     Adding external electric field

     Computed dipole along edir(3) :
        Dipole                0.0000 Ry au,          0.0000 Debye
        Dipole field          0.0000 Ry au

        Potential amp.       -0.0000 Ry
        Total length         45.3987 bohr

[...]

     Starting wfc are  144 randomized atomic wfcs

     Self-consistent Calculation

     iteration #  1     ecut=    36.75 Ry     beta=0.30
     Davidson diagonalization with overlap
     ethr =  1.00E-02,  avg # of iterations =  3.1

[...]

     Magnetic moment per site:
     atom:    1    charge:    5.8791    magn:    0.7286    constr:    0.0000
     atom:    2    charge:    5.8794    magn:    0.7287    constr:    0.0000
     atom:    3    charge:    5.8794    magn:    0.7287    constr:    0.0000
     atom:    4    charge:    2.1148    magn:    0.0000    constr:    0.0000
     atom:    5    charge:    5.9011    magn:    0.7354    constr:    0.0000
     atom:    6    charge:    5.9012    magn:    0.7355    constr:    0.0000
     atom:    7    charge:    5.9011    magn:    0.7354    constr:    0.0000
     atom:    8    charge:    2.1152    magn:    0.0006    constr:    0.0000
     atom:    9    charge:    5.8792    magn:    0.7286    constr:    0.0000
     atom:   10    charge:    5.8792    magn:    0.7285    constr:    0.0000
     atom:   11    charge:    5.8793    magn:    0.7287    constr:    0.0000
     atom:   12    charge:    2.1148    magn:    0.0000    constr:    0.0000

     total energy              =   -2463.09334004 Ry
     Harris-Foulkes estimate   =   -2474.15035672 Ry
     estimated scf accuracy    <      24.58777825 Ry

     total magnetization       =    13.09 Bohr mag/cell
     absolute magnetization    =    13.92 Bohr mag/cell

[...]

     iteration # 17     ecut=    36.75 Ry     beta=0.30
     Davidson diagonalization with overlap
     c_bands:  1 eigenvalues not converged
     ethr =  4.47E-05,  avg # of iterations =  8.3

[...]

     End of self-consistent calculation

 ------ SPIN UP ------------

          k = 0.0000 0.0000 0.0000 ( 17579 PWs)   bands (ev):

   -79.5308 -79.5301 -79.4191 -79.4177 -79.4106 -79.4092 -79.0738 -75.8279
   -75.8181 -48.4596 -48.4593 -48.3141 -48.3128 -48.3008 -48.2996 -48.2555
   -48.2543 -48.1750 -48.1729 -48.1383 -48.1366 -48.0725 -48.0713 -47.9576
   -47.9560 -47.9140 -47.9120 -47.8927 -47.8561 -47.6334 -44.6708 -44.6636
   -44.6538 -44.6431 -44.5912 -44.4963 -21.8059 -21.7946 -21.7843 -21.7744
   -21.7685 -21.5561 -21.5531 -21.5420 -21.5410 -21.5409 -21.5401 -21.5300
   -21.5290 -21.5274 -21.5264 -10.9979  -9.9673  -9.5162  -3.4367  -2.7784
    -2.7404  -2.7286  -2.4377  -2.2684  -2.2254  -1.9191  -1.6929  -1.6594
    -1.5460  -1.5122  -1.4645  -1.2930  -1.2380  -1.0339  -1.0300  -1.0088
    -0.9825  -0.9803  -0.8901  -0.8803  -0.8692  -0.7759  -0.5152  -0.3303
    -0.3237  -0.2902  -0.2270  -0.2032  -0.1594  -0.1475  -0.1069  -0.0730
    -0.0206  -0.0083   0.0260   0.1775   0.2354   0.6135   0.8171   0.8208
     0.8941   0.9346   0.9411   1.1506

[...]

          k =-0.0880 0.0508 0.0000 ( 17464 PWs)   bands (ev):

[...]

 ------ SPIN DOWN ----------

[...]

     the Fermi energy is     1.6587 ev

!    total energy              =   -2470.30909766 Ry
     Harris-Foulkes estimate   =   -2470.30909396 Ry
     estimated scf accuracy    <       0.00000835 Ry

     The total energy is the sum of the following terms:

     one-electron contribution =  -17814.78218738 Ry
     hartree contribution      =    8920.95089804 Ry
     xc contribution           =    -449.34408289 Ry
     ewald contribution        =    6872.93567695 Ry
     electric field correction =       0.00000026 Ry
     smearing contrib. (-TS)   =      -0.06940265 Ry

[...]

     convergence has been achieved in *** iterations

 BEEF-vdW xc energy contributions
           1 :   -396.127482158461
           2 :    362.502152509938
           3 :   -305.549976186362
           4 :    240.642689919214
           5 :   -181.478852657277
           6 :    135.672671578987
           7 :   -104.180185944816
           8 :    83.5395109173390
           9 :   -68.9210589381116
          10 :    56.4138618767686
          11 :   -43.9879645800345
          12 :    31.3913438960155
          13 :   -19.5412109266723
          14 :    9.77464442304534
          15 :   -3.10164684688709
          16 :  -0.370349017445676
          17 :    1.54817294035922
          18 :   -1.87640182758832
          19 :    2.54717669752057
          20 :   -3.92874953270780
          21 :    5.57270814517625
          22 :   -6.72930332806959
          23 :    6.94994109233181
          24 :   -6.35823873285960
          25 :    5.47087150550738
          26 :   -4.79912129930420
          27 :    4.56220651802221
          28 :   -4.67049025851196
          29 :    4.88917755942117
          30 :   -5.01255245133018
          31 :   -33.7805119996829
          32 :   -24.3362980323991

     Forces acting on atoms (Ry/au):

     negative rho (up, down):  6.977E-02 7.091E-02
     atom    1 type  1   force =    -0.01465331   -0.01204356    0.00123988
     atom    2 type  1   force =     0.00313218    0.01871824    0.00126988
     atom    3 type  1   force =     0.01402263   -0.00808649   -0.00095487
     atom    4 type  2   force =    -0.00488817    0.00269975   -0.05289105
     atom    5 type  1   force =     0.00002106    0.00000632    0.00015532
     atom    6 type  1   force =    -0.00001914   -0.00001522    0.00017457
     atom    7 type  1   force =    -0.00003640   -0.00002209    0.00017191
     atom    8 type  2   force =     0.00003701    0.00009406   -0.00124023
     atom    9 type  1   force =     0.01467280    0.01206327   -0.00072699
     atom   10 type  1   force =    -0.00313785   -0.01876967   -0.00069360
     atom   11 type  1   force =    -0.01402628    0.00807824    0.00154197
     atom   12 type  2   force =     0.00487547   -0.00272286    0.05195321

     Total force =     0.060981     Total SCF correction =     0.009978
     SCF correction compared to forces is large: reduce conv_thr to get better values

     entering subroutine stress ...

     negative rho (up, down):  6.977E-02 7.091E-02
          total   stress  (Ry/bohr**3)                   (kbar)     P=    5.37
   0.00002490  -0.00001174   0.00000416          3.66     -1.73      0.61
  -0.00001174   0.00001152  -0.00000236         -1.73      1.69     -0.35
   0.00000416  -0.00000236   0.00007314          0.61     -0.35     10.76

     BFGS Geometry Optimization

     number of scf cycles    =   1
     number of bfgs steps    =   0

     energy   new            =   -2470.3090976630 Ry

     new trust radius        =       0.0522524630 bohr
     new conv_thr            =       0.0000099958 Ry

ATOMIC_POSITIONS (crystal)
Mn1      0.000000000   0.000000000   0.405844942    0   0   0
Mn1     -0.000000000   0.500000000   0.405844942    0   0   0
Mn1      0.500000000   0.000000000   0.405844942    0   0   0
Bi1      0.500000000   0.500000000   0.405844942    0   0   0
Mn1      0.666666667   0.666666667   0.500000000    0   0   0
Mn1      0.666666667   0.166666667   0.500000000    0   0   0
Mn1      0.166666667   0.666666667   0.500000000    0   0   0
Bi1      0.166666667   0.166666667   0.500000000    0   0   0
Mn1      0.334051107   0.334630442   0.594139445
Mn1      0.334050246   0.831315116   0.594140162
Mn1      0.831592900   0.334201950   0.594188174
Bi1      0.833933725   0.833040556   0.595270826

     Writing output data file calc.save
     Check: negative starting charge=(component1):   -0.126684
     NEW-OLD atomic charge density approx. for the potential

     Check: negative/imaginary core charge=   -0.000007    0.000000
     Check: negative starting charge=(component1):   -0.128391

[...]

     Total force =     0.056143     Total SCF correction =     0.001626

[...]

     energy   old            =   -2470.3090976630 Ry
     energy   new            =   -2470.3127245906 Ry

     CASE: energy  _new < energy  _old

     WARNING: bfgs curvature condition failed, Theta= 0.870
     new trust radius        =       0.0783786944 bohr
     new conv_thr            =       0.0000001000 Ry

[...]

     iteration #  1     ecut=    36.75 Ry     beta=0.30
     Davidson diagonalization with overlap
     c_bands:  1 eigenvalues not converged
     c_bands:  1 eigenvalues not converged
     c_bands:  1 eigenvalues not converged
     c_bands:  2 eigenvalues not converged
     c_bands:  1 eigenvalues not converged
     c_bands:  1 eigenvalues not converged
     c_bands:  1 eigenvalues not converged
     ethr =  1.00E-06,  avg # of iterations = 14.7

[...]

     Total force =     0.003915     Total SCF correction =     0.000249

[...]

     number of scf cycles    =  12
     number of bfgs steps    =  11

     energy   old            =   -2470.3364304942 Ry
     energy   new            =   -2470.3364571239 Ry

     CASE: energy  _new < energy  _old

     new trust radius        =       0.0135413405 bohr
     new conv_thr            =       0.0000001000 Ry

ATOMIC_POSITIONS (crystal)
Mn1      0.000000000   0.000000000   0.405844942    0   0   0
Mn1     -0.000000000   0.500000000   0.405844942    0   0   0
Mn1      0.500000000   0.000000000   0.405844942    0   0   0
Bi1      0.500000000   0.500000000   0.405844942    0   0   0
Mn1      0.666666667   0.666666667   0.500000000    0   0   0
Mn1      0.666666667   0.166666667   0.500000000    0   0   0
Mn1      0.166666667   0.666666667   0.500000000    0   0   0
Bi1      0.166666667   0.166666667   0.500000000    0   0   0
Mn1      0.344676287   0.340683123   0.591816680
Mn1      0.344677662   0.814632847   0.591819082
Mn1      0.820127482   0.339936838   0.593375469
Bi1      0.839227457   0.830385997   0.617369959

     Writing output data file calc.save
     Check: negative starting charge=(component1):   -0.127114
     NEW-OLD atomic charge density approx. for the potential

     Check: negative/imaginary core charge=   -0.000007    0.000000
     Check: negative starting charge=(component1):   -0.127210

[...]

     Self-consistent Calculation

[...]

     total energy              =   -2470.33647566 Ry
     Harris-Foulkes estimate   =   -2470.33647514 Ry
     estimated scf accuracy    <       0.00000025 Ry

[...]

     iteration # 11     ecut=    36.75 Ry     beta=0.30
     Davidson diagonalization with overlap
     ethr =  1.38E-10,  avg # of iterations =  4.4

[...]

     negative rho (up, down):  6.953E-02 7.069E-02

[...]

     Adding external electric field

     Computed dipole along edir(3) :
        Dipole               -0.0159 Ry au,         -0.0405 Debye
        Dipole field         -0.0000 Ry au

        Potential amp.        0.0039 Ry
        Total length         45.3987 bohr

     Magnetic moment per site:
     atom:    1    charge:    6.0055    magn:    1.4209    constr:    0.0000
     atom:    2    charge:    6.0054    magn:    1.4209    constr:    0.0000
     atom:    3    charge:    6.0047    magn:    1.4164    constr:    0.0000
     atom:    4    charge:    2.0835    magn:   -0.0027    constr:    0.0000
     atom:    5    charge:    5.9975    magn:   -1.3789    constr:    0.0000
     atom:    6    charge:    5.9975    magn:   -1.3789    constr:    0.0000
     atom:    7    charge:    5.9942    magn:    1.2454    constr:    0.0000
     atom:    8    charge:    2.0853    magn:   -0.0013    constr:    0.0000
     atom:    9    charge:    5.7030    magn:    1.3377    constr:    0.0000
     atom:   10    charge:    5.7030    magn:    1.3378    constr:    0.0000
     atom:   11    charge:    5.8857    magn:    1.3960    constr:    0.0000
     atom:   12    charge:    1.3644    magn:   -0.0013    constr:    0.0000

     End of self-consistent calculation

 ------ SPIN UP ------------

[...]

 ------ SPIN DOWN ----------

[...]

          k = 0.0587-0.0677 0.0000 ( 17493 PWs)   bands (ev):

[...]

          k =-0.0880-0.0508 0.0000 ( 17464 PWs)   bands (ev):

   -79.7235 -79.7234 -75.6842 -75.5776 -75.5669 -75.4730 -75.4663 -75.4555
   -75.4552 -48.5774 -48.5772 -48.4688 -48.4682 -48.2615 -48.2607 -44.5581
   -44.4908 -44.4296 -44.4203 -44.4171 -44.4142 -44.3988 -44.3567 -44.3429
   -44.3366 -44.3317 -44.3248 -44.3166 -44.2722 -44.2644 -44.2619 -44.2501
   -44.2158 -44.1903 -44.1852 -44.1761 -21.8319 -21.8279 -21.8221 -21.8041
   -21.7911 -21.5822 -21.5773 -21.5694 -21.5571 -21.5492 -21.4791 -21.4627
   -21.4617 -21.4454 -21.4440 -10.3984  -9.8086  -9.3361  -4.4301  -3.5973
    -3.3650  -3.0947  -2.0519  -1.8912  -1.8137  -1.5419  -1.4222  -1.3261
    -1.1798  -1.0715  -0.9560  -0.8407  -0.7391  -0.7090  -0.5348  -0.3712
     0.5076   0.6973   0.8085   0.9255   1.0719   1.3623   1.4016   1.5052
     1.6960   1.7135   1.8830   1.9897   2.1637   2.2206   2.2492   2.3039
     2.3666   2.6551   2.6824   2.7736   2.8250   2.9121   2.9669   3.0625
     3.1808   3.2238   3.2375   3.3586

     the Fermi energy is     1.6268 ev

!    total energy              =   -2470.33647653 Ry
     Harris-Foulkes estimate   =   -2470.33647575 Ry
     estimated scf accuracy    <       0.00000003 Ry

     The total energy is the sum of the following terms:

     one-electron contribution =  -17528.31983202 Ry
     hartree contribution      =    8777.56339400 Ry
     xc contribution           =    -449.19567700 Ry
     ewald contribution        =    6729.68463666 Ry
     electric field correction =       0.00000069 Ry
     smearing contrib. (-TS)   =      -0.06899886 Ry

     total magnetization       =    17.93 Bohr mag/cell
     absolute magnetization    =    33.31 Bohr mag/cell

     convergence has been achieved in  11 iterations

 BEEF-vdW xc energy contributions
           1 :   -395.976216333150
           2 :    362.258483038109
           3 :   -305.197707641022
           4 :    240.253852345743
           5 :   -181.152872572104
           6 :    135.461167162979
           7 :   -104.067724841066
           8 :    83.4852563204165
           9 :   -68.8958483674862
          10 :    56.3894004678766
          11 :   -43.9162860089713
          12 :    31.2288016643282
          13 :   -19.3015048942222
          14 :    9.54426344291130
          15 :   -2.98540030238257
          16 :  -0.331186050286988
          17 :    1.41145482496603
          18 :   -1.75439113300797
          19 :    2.51911805962158
          20 :   -3.98724308553483
          21 :    5.64691468770388
          22 :   -6.75327732519628
          23 :    6.90807377598554
          24 :   -6.27722393172400
          25 :    5.38624186054653
          26 :   -4.73592606981003
          27 :    4.53544650939210
          28 :   -4.68651913023319
          29 :    4.93979392492207
          30 :   -5.07182904401276
          31 :   -33.7604253379515
          32 :   -24.2947204349696

     Forces acting on atoms (Ry/au):

     negative rho (up, down):  6.953E-02 7.069E-02
     atom    1 type  1   force =    -0.01394093   -0.01180583   -0.00050372
     atom    2 type  1   force =     0.00325433    0.01797594   -0.00050865
     atom    3 type  1   force =     0.01486773   -0.00858282   -0.00125426
     atom    4 type  2   force =    -0.00435495    0.00250429   -0.05803838
     atom    5 type  1   force =     0.01124595    0.00373041    0.01654160
     atom    6 type  1   force =     0.00239438   -0.01160181    0.01653955
     atom    7 type  1   force =    -0.01516049    0.00875270    0.01603201
     atom    8 type  2   force =    -0.00206840    0.00119175    0.00960147
     atom    9 type  1   force =     0.00110874    0.00019927    0.00025535
     atom   10 type  1   force =     0.00038350   -0.00105337    0.00024361
     atom   11 type  1   force =     0.00064631   -0.00037752    0.00080729
     atom   12 type  2   force =     0.00162383   -0.00093302    0.00028413

     Total force =     0.002730     Total SCF correction =     0.000391
     SCF correction compared to forces is large: reduce conv_thr to get better values

     entering subroutine stress ...

     negative rho (up, down):  6.953E-02 7.069E-02
          total   stress  (Ry/bohr**3)                   (kbar)     P=    2.30
   0.00000614  -0.00000744   0.00000414          0.90     -1.10      0.61
  -0.00000744  -0.00000247  -0.00000239         -1.10     -0.36     -0.35
   0.00000414  -0.00000239   0.00004322          0.61     -0.35      6.36

     bfgs converged in  13 scf cycles and  12 bfgs steps
     (criteria: energy <  1.0E+00, force <  1.9E-03)

     End of BFGS Geometry Optimization

     Final energy   =   -2470.3364765337 Ry
Begin final coordinates

ATOMIC_POSITIONS (crystal)
Mn1      0.000000000   0.000000000   0.405844942    0   0   0
Mn1     -0.000000000   0.500000000   0.405844942    0   0   0
Mn1      0.500000000   0.000000000   0.405844942    0   0   0
Bi1      0.500000000   0.500000000   0.405844942    0   0   0
Mn1      0.666666667   0.666666667   0.500000000    0   0   0
Mn1      0.666666667   0.166666667   0.500000000    0   0   0
Mn1      0.166666667   0.666666667   0.500000000    0   0   0
Bi1      0.166666667   0.166666667   0.500000000    0   0   0
Mn1      0.344676287   0.340683123   0.591816680
Mn1      0.344677662   0.814632847   0.591819082
Mn1      0.820127482   0.339936838   0.593375469
Bi1      0.839227457   0.830385997   0.617369959
End final coordinates

     Writing output data file calc.save

     General routines

     Parallel routines

   This run was terminated on:  20:28:25  11Jul2018

   JOB DONE.