     Program PWSCF v.5.1rc2 (svn rev. ) starts on 27Feb2018 at 22:44:30

     Current dimensions of program PWSCF are:
     Max number of different atomic species (ntypx) = 10
     Max number of k-points (npk) =  40000
     Max angular momentum in pseudopotentials (lmaxx) =  3
     Presently stress not available with electric field

     IMPORTANT: XC functional enforced from input :
     Exchange-correlation      = BEEF-VDW ( 1  4 27 13 2)
     Any further DFT definition will be discarded
     Please, verify this is what you really want

     Subspace diagonalization in iterative solution of the eigenvalue problem:
     a serial algorithm will be used

     bravais-lattice index     =            0
     lattice parameter (alat)  =       1.8897  a.u.
     unit-cell volume          =    6055.2383 (a.u.)^3
     number of atoms/cell      =           12
     number of atomic types    =            2
     number of electrons       =       153.00
     number of Kohn-Sham states=           86
     kinetic-energy cutoff     =      36.7493  Ry
     charge density cutoff     =     367.4932  Ry
     convergence threshold     =      1.0E-05
     mixing beta               =       0.3000
     number of iterations used =           10  plain     mixing
     Exchange-correlation      = BEEF-VDW ( 1  4 27 13 2)
     nstep                     =           50

     celldm(1)=   1.889726  celldm(2)=   0.000000  celldm(3)=   0.000000
     celldm(4)=   0.000000  celldm(5)=   0.000000  celldm(6)=   0.000000

     crystal axes: (cart. coord. in units of alat)
               a(1) = (   6.408036   0.000000   0.000000 )
               a(2) = (   3.204018   5.549522   0.000000 )
               a(3) = (   0.000000   0.000000  25.232140 )

     reciprocal axes: (cart. coord. in units 2 pi/alat)
               b(1) = (  0.156054 -0.090098  0.000000 )
               b(2) = (  0.000000  0.180196  0.000000 )
               b(3) = (  0.000000  0.000000  0.039632 )

     PseudoPot. # 1 for Zr read from file:
     /home/mamunm/src/pseudo/gbrv1.5pbe/Zr.UPF
     MD5 check sum: 5db81b1e868ab7776c4564c113de050b
     Pseudo is Ultrasoft + core correction, Zval = 12.0
     Generated by new atomic code, or converted to UPF format
     Using radial grid of  887 points,  6 beta functions with:
                l(1) =   0
                l(2) =   0
                l(3) =   1
                l(4) =   1
                l(5) =   2
                l(6) =   2
     Q(r) pseudized with  6 coefficients,  rinner =    1.200   1.200   1.200
                                                       1.200   1.200

     PseudoPot. # 2 for Bi read from file:
     /home/mamunm/src/pseudo/gbrv1.5pbe/Bi.UPF
     MD5 check sum: 81103212dc04adf40945787f699eab19
     Pseudo is Ultrasoft + core correction, Zval = 15.0
     Generated by new atomic code, or converted to UPF format
     Using radial grid of  899 points,  6 beta functions with:
                l(1) =   0
                l(2) =   0
                l(3) =   1
                l(4) =   1
                l(5) =   2
                l(6) =   2
     Q(r) pseudized with  6 coefficients,  rinner =    1.000   1.000   1.000
                                                       1.000   1.000

     vdW kernel table read from file vdW_kernel_table
     MD5 check sum: 095c7af220d748ca6e76c0b4c6cfb241

     atomic species   valence    mass     pseudopotential
        Zr1           12.00    91.22400     Zr( 1.00)
        Bi1           15.00   208.98040     Bi( 1.00)

     No symmetry found

   Cartesian axes

     site n.     atom                  positions (alat units)
         1           Zr1 tau(   1) = (   0.0000000   0.0000000  10.0000000  )
         2           Zr1 tau(   2) = (   1.6020091   2.7747611  10.0000000  )
         3           Zr1 tau(   3) = (   3.2040181   0.0000000  10.0000000  )
         4           Bi1 tau(   4) = (   4.8060272   2.7747611  10.0000000  )
         5           Zr1 tau(   5) = (   6.4080363   3.6996815  12.6160699  )
         6           Zr1 tau(   6) = (   4.8060272   0.9249204  12.6160699  )
         7           Zr1 tau(   7) = (   3.2040181   3.6996815  12.6160699  )
         8           Bi1 tau(   8) = (   1.6020091   0.9249204  12.6160699  )
         9           Zr1 tau(   9) = (   3.2040181   1.8498407  15.2321397  )
        10           Zr1 tau(  10) = (   4.8060272   4.6246019  15.2321397  )
        11           Zr1 tau(  11) = (   6.4080363   1.8498407  15.2321397  )
        12           Bi1 tau(  12) = (   8.0100454   4.6246019  15.2321397  )

     number of k points=    20  Fermi-Dirac smearing, width (Ry)=  0.0110
                       cart. coord. in units 2pi/alat
        k(    1) = (   0.0000000   0.0000000   0.0000000), wk =   0.0555556
        k(    2) = (   0.0000000   0.0300326   0.0000000), wk =   0.1111111
        k(    3) = (   0.0000000   0.0600652   0.0000000), wk =   0.1111111
        k(    4) = (   0.0000000  -0.0900978   0.0000000), wk =   0.0555556
        k(    5) = (   0.0260090  -0.0150163   0.0000000), wk =   0.1111111
        k(    6) = (   0.0260090   0.0150163   0.0000000), wk =   0.1111111
        k(    7) = (   0.0260090   0.0450489   0.0000000), wk =   0.1111111
        k(    8) = (   0.0260090  -0.1051142   0.0000000), wk =   0.1111111
        k(    9) = (   0.0260090  -0.0750815   0.0000000), wk =   0.1111111
        k(   10) = (   0.0260090  -0.0450489   0.0000000), wk =   0.1111111
        k(   11) = (   0.0520180  -0.0300326   0.0000000), wk =   0.1111111
        k(   12) = (   0.0520180  -0.0000000   0.0000000), wk =   0.1111111
        k(   13) = (   0.0520180   0.0300326   0.0000000), wk =   0.1111111
        k(   14) = (   0.0520180  -0.1201305   0.0000000), wk =   0.1111111
        k(   15) = (   0.0520180  -0.0900978   0.0000000), wk =   0.1111111
        k(   16) = (   0.0520180  -0.0600652   0.0000000), wk =   0.1111111
        k(   17) = (  -0.0780270   0.0450489   0.0000000), wk =   0.0555556
        k(   18) = (  -0.0780270   0.0750815   0.0000000), wk =   0.1111111
        k(   19) = (  -0.0780270   0.1051142   0.0000000), wk =   0.1111111
        k(   20) = (  -0.0780270  -0.0450489   0.0000000), wk =   0.0555556

     Largest allocated arrays     est. size (Mb)     dimensions
     Largest temporary arrays     est. size (Mb)     dimensions

     Initial potential from superposition of free atoms
     Check: negative starting charge=   -0.676074

     starting charge  149.98053, renormalised to  153.00000

     negative rho (up, down):  6.897E-01 0.000E+00

     *
     * You are using vdW-DF for exchange-correlation in this calculation.
     * Please cite the following three references that made this development
     * possible:
     *
     *   M. Dion, H. Rydberg, E. Schroder, D. C. Langreth, and
     *   B. I. Lundqvist, Phys. Rev. Lett. 92, 246401 (2004).
     *
     *   T. Thonhauser, V. R. Cooper, S. Li, A. Puzder, P. Hyldgaard, and
     *   D. C. Langreth, Phys. Rev. B 76, 125112 (2007).
     *
     *   G. Roman-Perez and J. M. Soler, Phys. Rev. Lett. 103, 096102 (2009).
     *
     *
     * If you are using vdW-DF2, please also cite:
     *
     *   K. Lee, E. D. Murray, L. Kong, B. I. Lundqvist, and
     *   D. C. Langreth, Phys. Rev. B 82, 081101(R) (2010).
     *
     *
     * If you are calculating the stress with vdW-DF, please also cite:
     *
     *   R. Sabatini, E. Kucukbenli, B. Kolb, T. Thonhauser, and
     *   S. de Gironcoli, J. Phys.: Condens. Matter 24, 424209 (2012).
     *

     Carrying out vdW-DF run using the following parameters:

     Nqs =      20    Nr_points =    1024   r_max =   100.000
     q_mesh =
               0.00001000     0.04494208     0.09755937     0.15916263
               0.23128650     0.31572767     0.41458969     0.53033537
               0.66584808     0.82450364     1.01025438     1.22772762
               1.48234092     1.78043706     2.12944203     2.53805004
               3.01644009     3.57652955     4.23227104     5.00000000

     Gradients computed in reciprocal space

     Adding external electric field

     Computed dipole along edir(3) :
        Dipole               -0.0000 Ry au,         -0.0000 Debye
        Dipole field         -0.0000 Ry au

        Potential amp.        0.0000 Ry
        Total length         46.4898 bohr

     Starting wfc are  144 randomized atomic wfcs

     Self-consistent Calculation

     iteration #  1     ecut=    36.75 Ry     beta=0.30
     Davidson diagonalization with overlap
     ethr =  1.00E-02,  avg # of iterations =  2.0

[...]

     total energy              =   -1458.20673518 Ry
     Harris-Foulkes estimate   =   -1459.77037204 Ry
     estimated scf accuracy    <       3.44976623 Ry

[...]

     End of self-consistent calculation

          k = 0.0000 0.0000 0.0000 ( 22839 PWs)   bands (ev):

   -47.4959 -47.4931 -47.4280 -47.4273 -47.4269 -47.4261 -47.1408 -47.0753
   -47.0743 -25.6983 -25.6955 -25.6461 -25.6427 -25.6419 -25.6086 -25.6078
   -25.5805 -25.5798 -25.5357 -25.4940 -25.4930 -25.4683 -25.3238 -25.3067
   -25.2818 -25.2815 -25.0538 -25.0531 -25.0456 -25.0447 -25.0104 -25.0097
   -25.0036 -24.9667 -24.7391 -24.7383 -21.4349 -21.4306 -21.4306 -21.4150
   -21.4150 -21.0519 -21.0465 -21.0313 -21.0312 -21.0233 -21.0233 -21.0205
   -21.0205 -21.0201 -21.0201  -9.7241  -9.0978  -9.0507  -2.0365  -1.6320
    -1.1927  -1.1925  -1.1746  -0.9654  -0.9652  -0.3010   0.0553   0.1369
     0.1371   0.1682   0.1684   0.4936   0.4938   0.5012   0.9264   0.9268
     0.9620   1.1804   1.1808   1.4369   1.9574   1.9630   1.9634   2.2187
     2.2189   2.4383   2.7528   2.8550   3.1261   3.3226

[...]

          k =-0.0780 0.0450 0.0000 ( 22760 PWs)   bands (ev):

[...]

     the Fermi energy is     1.9153 ev

!    total energy              =   -1459.32535792 Ry
     Harris-Foulkes estimate   =   -1459.32583431 Ry
     estimated scf accuracy    <       0.00000578 Ry

     The total energy is the sum of the following terms:

     one-electron contribution =   -9286.02875334 Ry
     hartree contribution      =    4652.28056851 Ry
     xc contribution           =    -365.62840957 Ry
     ewald contribution        =    3540.14676567 Ry
     electric field correction =       0.00000039 Ry
     smearing contrib. (-TS)   =      -0.09552958 Ry

     convergence has been achieved in  12 iterations

 BEEF-vdW xc energy contributions
           1 :   -320.346658740069
           2 :    294.672327555509
           3 :   -250.266430584770
           4 :    198.012330861294
           5 :   -148.513938731082
           6 :    108.692337486077
           7 :   -80.4783943341163
           8 :    61.7073431340189
           9 :   -48.3386825072448
          10 :    36.7442575908018
          11 :   -25.0968897141230
          12 :    13.5258910322272
          13 :   -3.32545420104873
          14 :   -4.16137057441023
          15 :    8.37085840290013
          16 :   -9.73685159459535
          17 :    9.35117243862391
          18 :   -8.38684364626397
          19 :    7.63698242351700
          20 :   -7.35882587929882
          21 :    7.39450378557075
          22 :   -7.41566777159426
          23 :    7.14111838955512
          24 :   -6.45694054614830
          25 :    5.43986918302619
          26 :   -4.31200753938742
          27 :    3.35083367793823
          28 :   -2.78003497644215
          29 :    2.67638140580800
          30 :   -2.93304639464264
          31 :   -30.6116265243696
          32 :   -22.7664370806023

     Forces acting on atoms (Ry/au):

     negative rho (up, down):  6.961E-01 0.000E+00
     atom    1 type  1   force =    -0.00157773   -0.00094597    0.02181720
     atom    2 type  1   force =     0.00006684    0.00183195    0.02182060
     atom    3 type  1   force =     0.00158607   -0.00087334    0.02176374
     atom    4 type  2   force =     0.00024427    0.00002406   -0.03645750
     atom    5 type  1   force =    -0.00001682   -0.00000881   -0.00050445
     atom    6 type  1   force =     0.00000504   -0.00001555   -0.00057520
     atom    7 type  1   force =    -0.00000733    0.00001515   -0.00057100
     atom    8 type  2   force =     0.00004451    0.00002126    0.00173869
     atom    9 type  1   force =     0.00153736    0.00092242   -0.02253144
     atom   10 type  1   force =    -0.00007302   -0.00181091   -0.02257848
     atom   11 type  1   force =    -0.00157541    0.00086268   -0.02252937
     atom   12 type  2   force =    -0.00023377   -0.00002294    0.03860721

     Total force =     0.055003     Total SCF correction =     0.005312

     entering subroutine stress ...

     negative rho (up, down):  6.961E-01 0.000E+00
          total   stress  (Ry/bohr**3)                   (kbar)     P=  -11.53
  -0.00009281   0.00000006  -0.00000004        -13.65      0.01     -0.01
   0.00000006  -0.00009289  -0.00000002          0.01    -13.66     -0.00
  -0.00000004  -0.00000002  -0.00004954         -0.01     -0.00     -7.29

     BFGS Geometry Optimization

     number of scf cycles    =   1
     number of bfgs steps    =   0

     energy   new            =   -1459.3253579170 Ry

     new trust radius        =       0.0386079275 bohr
     new conv_thr            =       0.0000099958 Ry

ATOMIC_POSITIONS (crystal)
Zr1      0.000000000   0.000000000   0.396319936    0   0   0
Zr1      0.000000000   0.500000000   0.396319936    0   0   0
Zr1      0.500000000   0.000000000   0.396319936    0   0   0
Bi1      0.500000000   0.500000000   0.396319936    0   0   0
Zr1      0.666666667   0.666666667   0.500000000    0   0   0
Zr1      0.666666667   0.166666667   0.500000000    0   0   0
Zr1      0.166666667   0.666666667   0.500000000    0   0   0
Bi1      0.166666667   0.166666667   0.500000000    0   0   0
Zr1      0.333416310   0.333421291   0.603207527
Zr1      0.333413643   0.833160653   0.603206540
Zr1      0.833162105   0.333415594   0.603207570
Bi1      0.833315122   0.833331146   0.604489748

     Writing output data file calc.save
     Check: negative starting charge=   -0.676074
     NEW-OLD atomic charge density approx. for the potential
     Check: negative starting charge=   -0.676722

[...]

     iteration #  1     ecut=    36.75 Ry     beta=0.30
     Davidson diagonalization with overlap
     c_bands:  1 eigenvalues not converged
     ethr =  1.00E-06,  avg # of iterations =  5.9

[...]

     Total force =     0.047129     Total SCF correction =     0.006563
     SCF correction compared to forces is large: reduce conv_thr to get better values

[...]

     energy   old            =   -1459.3253579170 Ry
     energy   new            =   -1459.3286306526 Ry

     CASE: energy  _new < energy  _old

     WARNING: bfgs curvature condition failed, Theta= 0.934
     new trust radius        =       0.0424687202 bohr
     new conv_thr            =       0.0000001000 Ry

[...]

     number of scf cycles    =   6
     number of bfgs steps    =   5

     energy   old            =   -1459.3398921359 Ry
     energy   new            =   -1459.3438396168 Ry

     CASE: energy  _new < energy  _old

     new trust radius        =       0.0874538542 bohr
     new conv_thr            =       0.0000001000 Ry

ATOMIC_POSITIONS (crystal)
Zr1      0.000000000   0.000000000   0.396319936    0   0   0
Zr1      0.000000000   0.500000000   0.396319936    0   0   0
Zr1      0.500000000   0.000000000   0.396319936    0   0   0
Bi1      0.500000000   0.500000000   0.396319936    0   0   0
Zr1      0.666666667   0.666666667   0.500000000    0   0   0
Zr1      0.666666667   0.166666667   0.500000000    0   0   0
Zr1      0.166666667   0.666666667   0.500000000    0   0   0
Bi1      0.166666667   0.166666667   0.500000000    0   0   0
Zr1      0.333583956   0.333605628   0.597610651
Zr1      0.333576353   0.832801306   0.597611128
Zr1      0.832792743   0.333591153   0.597610837
Bi1      0.833308201   0.833331435   0.613560544

     Writing output data file calc.save
     Check: negative starting charge=   -0.675646
     NEW-OLD atomic charge density approx. for the potential
     Check: negative starting charge=   -0.675323

[...]

     Self-consistent Calculation

     iteration #  1     ecut=    36.75 Ry     beta=0.30
     Davidson diagonalization with overlap
     c_bands:  1 eigenvalues not converged
     c_bands:  1 eigenvalues not converged
     c_bands:  1 eigenvalues not converged
     ethr =  1.00E-06,  avg # of iterations =  9.2

[...]

     total energy              =   -1459.34448357 Ry
     Harris-Foulkes estimate   =   -1459.34448359 Ry
     estimated scf accuracy    <       0.00000016 Ry

     iteration # 12     ecut=    36.75 Ry     beta=0.30
     Davidson diagonalization with overlap
     ethr =  1.04E-10,  avg # of iterations =  3.4

[...]

     negative rho (up, down):  6.949E-01 0.000E+00

     Adding external electric field

     Computed dipole along edir(3) :
        Dipole               -0.0180 Ry au,         -0.0459 Debye
        Dipole field         -0.0000 Ry au

        Potential amp.        0.0035 Ry
        Total length         46.4898 bohr

     End of self-consistent calculation

[...]

          k = 0.0520-0.0601 0.0000 ( 22748 PWs)   bands (ev):

[...]

          k =-0.0780-0.0450 0.0000 ( 22760 PWs)   bands (ev):

   -47.5064 -47.4840 -47.4616 -47.3992 -47.3760 -47.3525 -47.0858 -47.0649
   -47.0430 -25.6849 -25.6436 -25.6365 -25.5939 -25.5708 -25.5432 -25.5341
   -25.5210 -25.5138 -25.4605 -25.4583 -25.4333 -25.3902 -25.3779 -25.3429
   -25.2995 -25.2520 -25.1440 -25.1268 -25.1136 -25.0987 -25.0883 -25.0057
   -24.9545 -24.8600 -24.8291 -24.7255 -21.4888 -21.4780 -21.4776 -21.4703
   -21.4676 -21.0724 -21.0687 -21.0515 -21.0507 -21.0436 -21.0429 -21.0379
   -21.0299 -21.0195 -21.0124  -9.5326  -8.9498  -8.7906  -2.9507  -2.3869
    -2.1016  -2.0765  -1.2022  -1.0201  -0.7818  -0.7790  -0.6773  -0.1850
     0.2328   0.8157   0.9300   0.9643   1.1359   1.2761   1.3264   1.4063
     1.4331   1.5729   1.6183   1.6363   1.8471   1.9105   2.1654   2.2441
     2.4059   2.5451   2.6315   2.7637   3.0474   3.2174

     the Fermi energy is     1.8890 ev

!    total energy              =   -1459.34448357 Ry
     Harris-Foulkes estimate   =   -1459.34448344 Ry
     estimated scf accuracy    <       0.00000007 Ry

     The total energy is the sum of the following terms:

     one-electron contribution =   -9327.72741266 Ry
     hartree contribution      =    4673.14056128 Ry
     xc contribution           =    -365.71555214 Ry
     ewald contribution        =    3561.04555549 Ry
     electric field correction =       0.00000068 Ry
     smearing contrib. (-TS)   =      -0.08763622 Ry

     convergence has been achieved in  12 iterations

 BEEF-vdW xc energy contributions
           1 :   -320.446457568387
           2 :    294.793002823918
           3 :   -250.410026005683
           4 :    198.155548101729
           5 :   -148.623057100781
           6 :    108.749224773333
           7 :   -80.4945659423916
           8 :    61.7151821463105
           9 :   -48.3682364755588
          10 :    36.8027900057203
          11 :   -25.1635470507358
          12 :    13.5636451083531
          13 :   -3.30377961993793
          14 :   -4.24518132872225
          15 :    8.48507905973560
          16 :   -9.83028956642340
          17 :    9.38337162906566
          18 :   -8.35457364079178
          19 :    7.57792295568038
          20 :   -7.32839320717659
          21 :    7.43095217895319
          22 :   -7.51633590382443
          23 :    7.26427230448633
          24 :   -6.54714128317056
          25 :    5.46093448538664
          26 :   -4.26810224768417
          27 :    3.28366732423626
          28 :   -2.74399397730400
          29 :    2.70641471538926
          30 :   -3.02492770673769
          31 :   -30.6192787473238
          32 :   -22.7776512869817

     Forces acting on atoms (Ry/au):

     negative rho (up, down):  6.949E-01 0.000E+00
     atom    1 type  1   force =    -0.00151037   -0.00087806    0.02005781
     atom    2 type  1   force =    -0.00000116    0.00176016    0.02007583
     atom    3 type  1   force =     0.00152288   -0.00088518    0.02006999
     atom    4 type  2   force =    -0.00000296   -0.00001340   -0.03793306
     atom    5 type  1   force =     0.00816400    0.00471674   -0.00021122
     atom    6 type  1   force =    -0.00000850   -0.00942519   -0.00021068
     atom    7 type  1   force =    -0.00816837    0.00471059   -0.00020855
     atom    8 type  2   force =    -0.00003426   -0.00001342   -0.02752935
     atom    9 type  1   force =    -0.00158725   -0.00091578    0.00134918
     atom   10 type  1   force =     0.00001720    0.00181823    0.00133544
     atom   11 type  1   force =     0.00158188   -0.00089307    0.00134312
     atom   12 type  2   force =     0.00002692    0.00001839    0.00186149

     Total force =     0.004340     Total SCF correction =     0.000381

     entering subroutine stress ...

     negative rho (up, down):  6.949E-01 0.000E+00
          total   stress  (Ry/bohr**3)                   (kbar)     P=   -9.93
  -0.00009230   0.00000001   0.00000001        -13.58      0.00      0.00
   0.00000001  -0.00009231   0.00000000          0.00    -13.58      0.00
   0.00000001   0.00000000  -0.00001795          0.00      0.00     -2.64

     bfgs converged in   7 scf cycles and   6 bfgs steps
     (criteria: energy <  1.0E+00, force <  1.9E-03)

     End of BFGS Geometry Optimization

     Final energy   =   -1459.3444835711 Ry
Begin final coordinates

ATOMIC_POSITIONS (crystal)
Zr1      0.000000000   0.000000000   0.396319936    0   0   0
Zr1      0.000000000   0.500000000   0.396319936    0   0   0
Zr1      0.500000000   0.000000000   0.396319936    0   0   0
Bi1      0.500000000   0.500000000   0.396319936    0   0   0
Zr1      0.666666667   0.666666667   0.500000000    0   0   0
Zr1      0.666666667   0.166666667   0.500000000    0   0   0
Zr1      0.166666667   0.666666667   0.500000000    0   0   0
Bi1      0.166666667   0.166666667   0.500000000    0   0   0
Zr1      0.333583956   0.333605628   0.597610651
Zr1      0.333576353   0.832801306   0.597611128
Zr1      0.832792743   0.333591153   0.597610837
Bi1      0.833308201   0.833331435   0.613560544
End final coordinates

     Writing output data file calc.save

     General routines

     Parallel routines

   This run was terminated on:  23:16: 5  27Feb2018

   JOB DONE.