     Program PWSCF v.5.1rc2 (svn rev. ) starts on 28Feb2018 at  0:18:51

     Current dimensions of program PWSCF are:
     Max number of different atomic species (ntypx) = 10
     Max number of k-points (npk) =  40000
     Max angular momentum in pseudopotentials (lmaxx) =  3
     Presently stress not available with electric field

     IMPORTANT: XC functional enforced from input :
     Exchange-correlation      = BEEF-VDW ( 1  4 27 13 2)
     Any further DFT definition will be discarded
     Please, verify this is what you really want

     Subspace diagonalization in iterative solution of the eigenvalue problem:
     a serial algorithm will be used

     Found symmetry operation: I + (  0.5000 -0.5000  0.0000)
     This is a supercell, fractional translations are disabled

     bravais-lattice index     =            0
     lattice parameter (alat)  =       1.8897  a.u.
     unit-cell volume          =    4312.7997 (a.u.)^3
     number of atoms/cell      =           12
     number of atomic types    =            2
     number of electrons       =       204.00
     number of Kohn-Sham states=          112
     kinetic-energy cutoff     =      36.7493  Ry
     charge density cutoff     =     367.4932  Ry
     convergence threshold     =      1.0E-05
     mixing beta               =       0.3000
     number of iterations used =           10  plain     mixing
     Exchange-correlation      = BEEF-VDW ( 1  4 27 13 2)
     nstep                     =           50

     celldm(1)=   1.889726  celldm(2)=   0.000000  celldm(3)=   0.000000
     celldm(4)=   0.000000  celldm(5)=   0.000000  celldm(6)=   0.000000

     crystal axes: (cart. coord. in units of alat)
               a(1) = (   5.279984   0.000000   0.000000 )
               a(2) = (   1.757253   4.978984   0.000000 )
               a(3) = (  -0.000000  -0.000000  24.310246 )

     reciprocal axes: (cart. coord. in units 2 pi/alat)
               b(1) = (  0.189395 -0.066844  0.000000 )
               b(2) = (  0.000000  0.200844  0.000000 )
               b(3) = (  0.000000  0.000000  0.041135 )

     PseudoPot. # 1 for Ga read from file:
     /home/mamunm/src/pseudo/gbrv1.5pbe/Ga.UPF
     MD5 check sum: ccd671392a58a050fbb373893b4fcd66
     Pseudo is Ultrasoft + core correction, Zval = 19.0
     Generated by new atomic code, or converted to UPF format
     Using radial grid of  871 points,  6 beta functions with:
                l(1) =   0
                l(2) =   0
                l(3) =   1
                l(4) =   1
                l(5) =   2
                l(6) =   2
     Q(r) pseudized with  8 coefficients,  rinner =    1.250   1.250   1.250
                                                       1.250   1.250

     PseudoPot. # 2 for Rh read from file:
     /home/mamunm/src/pseudo/gbrv1.5pbe/Rh.UPF
     MD5 check sum: 761627e959a2e3a1f56b0b5fe687810e
     Pseudo is Ultrasoft + core correction, Zval = 15.0
     Generated by new atomic code, or converted to UPF format
     Using radial grid of  969 points,  7 beta functions with:
                l(1) =   0
                l(2) =   0
                l(3) =   1
                l(4) =   1
                l(5) =   2
                l(6) =   2
                l(7) =   2
     Q(r) pseudized with  8 coefficients,  rinner =    1.200   1.200   1.200
                                                       1.200   1.200

     vdW kernel table read from file vdW_kernel_table
     MD5 check sum: 095c7af220d748ca6e76c0b4c6cfb241

     atomic species   valence    mass     pseudopotential
        Ga1           19.00    69.72300     Ga( 1.00)
        Rh1           15.00   102.90550     Rh( 1.00)

     No symmetry found

   Cartesian axes

     site n.     atom                  positions (alat units)
         1           Ga1 tau(   1) = (  -0.0000000  -0.0000000  10.0000000  )
         2           Ga1 tau(   2) = (   3.5186185   2.4894922  10.0000000  )
         3           Rh1 tau(   3) = (   2.6399918  -0.0000000  10.0000000  )
         4           Rh1 tau(   4) = (   0.8786267   2.4894922  10.0000000  )
         5           Ga1 tau(   5) = (   5.2799835   3.7356928  12.1551231  )
         6           Ga1 tau(   6) = (   1.7613650   1.2462006  12.1551231  )
         7           Rh1 tau(   7) = (   2.6399918   3.7356928  12.1551231  )
         8           Rh1 tau(   8) = (   4.4013568   1.2462006  12.1551231  )
         9           Ga1 tau(   9) = (   3.5227300   2.4924012  14.3102462  )
        10           Ga1 tau(  10) = (   0.0041115   0.0029090  14.3102462  )
        11           Rh1 tau(  11) = (   0.8827383   2.4924012  14.3102462  )
        12           Rh1 tau(  12) = (   2.6441033   0.0029090  14.3102462  )

     number of k points=    20  Fermi-Dirac smearing, width (Ry)=  0.0110
                       cart. coord. in units 2pi/alat
        k(    1) = (   0.0000000   0.0000000   0.0000000), wk =   0.0555556
        k(    2) = (   0.0000000   0.0334740   0.0000000), wk =   0.1111111
        k(    3) = (   0.0000000   0.0669481   0.0000000), wk =   0.1111111
        k(    4) = (   0.0000000  -0.1004221  -0.0000000), wk =   0.0555556
        k(    5) = (   0.0315658  -0.0111406   0.0000000), wk =   0.1111111
        k(    6) = (   0.0315658   0.0223334   0.0000000), wk =   0.1111111
        k(    7) = (   0.0315658   0.0558074   0.0000000), wk =   0.1111111
        k(    8) = (   0.0315658  -0.1115627  -0.0000000), wk =   0.1111111
        k(    9) = (   0.0315658  -0.0780887  -0.0000000), wk =   0.1111111
        k(   10) = (   0.0315658  -0.0446147   0.0000000), wk =   0.1111111
        k(   11) = (   0.0631315  -0.0222813   0.0000000), wk =   0.1111111
        k(   12) = (   0.0631315   0.0111928   0.0000000), wk =   0.1111111
        k(   13) = (   0.0631315   0.0446668   0.0000000), wk =   0.1111111
        k(   14) = (   0.0631315  -0.1227033   0.0000000), wk =   0.1111111
        k(   15) = (   0.0631315  -0.0892293   0.0000000), wk =   0.1111111
        k(   16) = (   0.0631315  -0.0557553   0.0000000), wk =   0.1111111
        k(   17) = (  -0.0946973   0.0334219  -0.0000000), wk =   0.0555556
        k(   18) = (  -0.0946973   0.0668959  -0.0000000), wk =   0.1111111
        k(   19) = (  -0.0946973   0.1003700  -0.0000000), wk =   0.1111111
        k(   20) = (  -0.0946973  -0.0670002  -0.0000000), wk =   0.0555556

     Largest allocated arrays     est. size (Mb)     dimensions
     Largest temporary arrays     est. size (Mb)     dimensions

     Initial potential from superposition of free atoms
     Check: negative starting charge=   -0.328621

     starting charge  194.99940, renormalised to  204.00000

     negative rho (up, down):  3.438E-01 0.000E+00

     *
     * You are using vdW-DF for exchange-correlation in this calculation.
     * Please cite the following three references that made this development
     * possible:
     *
     *   M. Dion, H. Rydberg, E. Schroder, D. C. Langreth, and
     *   B. I. Lundqvist, Phys. Rev. Lett. 92, 246401 (2004).
     *
     *   T. Thonhauser, V. R. Cooper, S. Li, A. Puzder, P. Hyldgaard, and
     *   D. C. Langreth, Phys. Rev. B 76, 125112 (2007).
     *
     *   G. Roman-Perez and J. M. Soler, Phys. Rev. Lett. 103, 096102 (2009).
     *
     *
     * If you are using vdW-DF2, please also cite:
     *
     *   K. Lee, E. D. Murray, L. Kong, B. I. Lundqvist, and
     *   D. C. Langreth, Phys. Rev. B 82, 081101(R) (2010).
     *
     *
     * If you are calculating the stress with vdW-DF, please also cite:
     *
     *   R. Sabatini, E. Kucukbenli, B. Kolb, T. Thonhauser, and
     *   S. de Gironcoli, J. Phys.: Condens. Matter 24, 424209 (2012).
     *

     Carrying out vdW-DF run using the following parameters:

     Nqs =      20    Nr_points =    1024   r_max =   100.000
     q_mesh =
               0.00001000     0.04494208     0.09755937     0.15916263
               0.23128650     0.31572767     0.41458969     0.53033537
               0.66584808     0.82450364     1.01025438     1.22772762
               1.48234092     1.78043706     2.12944203     2.53805004
               3.01644009     3.57652955     4.23227104     5.00000000

     Gradients computed in reciprocal space

     Adding external electric field

     Computed dipole along edir(3) :
        Dipole               -0.0000 Ry au,         -0.0000 Debye
        Dipole field         -0.0000 Ry au

        Potential amp.        0.0000 Ry
        Total length         44.7912 bohr

     Starting wfc are  144 randomized atomic wfcs

     Self-consistent Calculation

     iteration #  1     ecut=    36.75 Ry     beta=0.30
     Davidson diagonalization with overlap
     ethr =  1.00E-02,  avg # of iterations =  4.8

[...]

     total energy              =   -3520.95426845 Ry
     Harris-Foulkes estimate   =   -3542.10032243 Ry
     estimated scf accuracy    <      44.25467453 Ry

[...]

     End of self-consistent calculation

          k = 0.0000 0.0000 0.0000 ( 16241 PWs)   bands (ev):

   -93.5659 -93.5658 -93.5624 -93.5611 -93.5460 -93.5459 -93.4140 -93.4139
   -93.4125 -93.4124 -93.3845 -93.3832 -93.3830 -93.3817 -93.3533 -93.3533
   -93.3519 -93.3518 -45.2336 -45.1573 -45.1497 -45.1451 -45.1356 -45.1277
   -44.9859 -44.9850 -44.8866 -44.8834 -44.8825 -44.8821 -44.8778 -44.8712
   -44.7611 -44.7570 -44.7508 -44.7463 -14.0508 -14.0337 -13.9909 -13.9860
   -13.9820 -13.9522 -13.9425 -13.9350 -13.9007 -13.8643 -13.8461 -13.8447
   -13.8094 -13.8023 -13.7958 -13.7940 -13.7596 -13.7540 -13.7521 -13.7417
   -13.7346 -13.7254 -13.7239 -13.7167 -13.7125 -13.7089 -13.6932 -13.6758
   -13.6317 -13.6136  -8.9135  -7.0101  -5.6889  -5.6533  -5.1716  -4.9127
    -2.5360  -2.5315  -2.4141  -2.2383  -2.1144  -2.0428  -1.9733  -1.6019
    -1.5507  -1.3956  -1.1166  -0.9178  -0.7420  -0.7228  -0.6492  -0.6070
    -0.4985  -0.2877  -0.2285  -0.1921  -0.0813  -0.0253   0.1604   0.1957
     0.2213   0.2567   0.2651   0.2901   0.3289   0.6387   0.7796   0.9069
     1.2062   1.7077   1.7357   2.8600   2.8880   3.0573   4.4925   4.7194

[...]

          k =-0.0947 0.0334-0.0000 ( 16224 PWs)   bands (ev):

[...]

     the Fermi energy is     1.0795 ev

!    total energy              =   -3533.24288787 Ry
     Harris-Foulkes estimate   =   -3533.24289051 Ry
     estimated scf accuracy    <       0.00000432 Ry

     The total energy is the sum of the following terms:

     one-electron contribution =  -25653.84691252 Ry
     hartree contribution      =   12853.43282087 Ry
     xc contribution           =    -485.54471102 Ry
     ewald contribution        =    9752.75359740 Ry
     electric field correction =       0.00000007 Ry
     smearing contrib. (-TS)   =      -0.03768266 Ry

     convergence has been achieved in  14 iterations

 BEEF-vdW xc energy contributions
           1 :   -430.002469555769
           2 :    392.608764259480
           3 :   -329.104849315682
           4 :    256.867129450706
           5 :   -192.038946659459
           6 :    143.810392691085
           7 :   -112.756615721520
           8 :    93.3295744981305
           9 :   -78.4870407104635
          10 :    63.6612420697491
          11 :   -48.1627637259124
          12 :    33.9341262392348
          13 :   -23.1184867629065
          14 :    16.2703601895842
          15 :   -12.1929012340987
          16 :    9.08123067262272
          17 :   -5.84141439771059
          18 :    2.57790278355401
          19 :  -6.140397819746113E-002
          20 :   -1.21297556835930
          21 :    1.55694832466725
          22 :   -1.83489481639890
          23 :    2.72002304434636
          24 :   -4.13084711265265
          25 :    5.32592249182767
          26 :   -5.56638190181434
          27 :    4.78111994138976
          28 :   -3.67821373564493
          29 :    3.20556207533417
          30 :   -3.79254482463642
          31 :   -35.6995094069460
          32 :   -25.5057476450438

     Forces acting on atoms (Ry/au):

     negative rho (up, down):  3.350E-01 0.000E+00
     atom    1 type  1   force =     0.00004689    0.00003697   -0.02694987
     atom    2 type  1   force =     0.00004950    0.00003288   -0.02690632
     atom    3 type  2   force =     0.00010102    0.00007205    0.03319985
     atom    4 type  2   force =     0.00010142    0.00007089    0.03322331
     atom    5 type  1   force =     0.00015579   -0.00022322    0.00010879
     atom    6 type  1   force =    -0.00017358    0.00021333    0.00010128
     atom    7 type  2   force =     0.00004090    0.00002798   -0.00051741
     atom    8 type  2   force =    -0.00001116   -0.00000935   -0.00051857
     atom    9 type  1   force =    -0.00008607   -0.00005154    0.02820977
     atom   10 type  1   force =    -0.00007721   -0.00006472    0.02820541
     atom   11 type  2   force =    -0.00007437   -0.00005365   -0.03409760
     atom   12 type  2   force =    -0.00007313   -0.00005161   -0.03405864

     Total force =     0.062562     Total SCF correction =     0.009222
     SCF correction compared to forces is large: reduce conv_thr to get better values

     entering subroutine stress ...

     negative rho (up, down):  3.350E-01 0.000E+00
          total   stress  (Ry/bohr**3)                   (kbar)     P=  -27.82
  -0.00023223  -0.00000739  -0.00000049        -34.16     -1.09     -0.07
  -0.00000739  -0.00022702  -0.00000035         -1.09    -33.40     -0.05
  -0.00000049  -0.00000035  -0.00010803         -0.07     -0.05    -15.89

     BFGS Geometry Optimization

     number of scf cycles    =   1
     number of bfgs steps    =   0

     energy   new            =   -3533.2428878665 Ry

     new trust radius        =       0.0340977244 bohr
     new conv_thr            =       0.0000099958 Ry

ATOMIC_POSITIONS (crystal)
Ga1      0.000000000  -0.000000000   0.411349187    0   0   0
Ga1      0.500000000   0.500000000   0.411349187    0   0   0
Rh1      0.500000000  -0.000000000   0.411349187    0   0   0
Rh1      0.000000000   0.500000000   0.411349187    0   0   0
Ga1      0.750292127   0.750292127   0.500000000    0   0   0
Ga1      0.250292127   0.250292127   0.500000000    0   0   0
Rh1      0.250292127   0.750292127   0.500000000    0   0   0
Rh1      0.750292127   0.250292127   0.500000000    0   0   0
Ga1      0.500577452   0.500578777   0.589264874
Ga1      0.000578806   0.000577376   0.589264779
Rh1      0.000578699   0.500578553   0.587908588
Rh1      0.500578751   0.000578769   0.587909436

     Writing output data file calc.save
     Check: negative starting charge=   -0.328621
     NEW-OLD atomic charge density approx. for the potential
     Check: negative starting charge=   -0.327219

[...]

     Total force =     0.051224     Total SCF correction =     0.002489

[...]

     energy   old            =   -3533.2428878665 Ry
     energy   new            =   -3533.2463452258 Ry

     CASE: energy  _new < energy  _old

     WARNING: bfgs curvature condition failed, Theta= 0.978
     new trust radius        =       0.0511465866 bohr
     new conv_thr            =       0.0000001000 Ry

[...]

     Total force =     0.006240     Total SCF correction =     0.000193

[...]

     number of scf cycles    =   8
     number of bfgs steps    =   7

     energy   old            =   -3533.2567472561 Ry
     energy   new            =   -3533.2569300158 Ry

     CASE: energy  _new < energy  _old

     new trust radius        =       0.0290617657 bohr
     new conv_thr            =       0.0000001000 Ry

ATOMIC_POSITIONS (crystal)
Ga1      0.000000000  -0.000000000   0.411349187    0   0   0
Ga1      0.500000000   0.500000000   0.411349187    0   0   0
Rh1      0.500000000  -0.000000000   0.411349187    0   0   0
Rh1      0.000000000   0.500000000   0.411349187    0   0   0
Ga1      0.750292127   0.750292127   0.500000000    0   0   0
Ga1      0.250292127   0.250292127   0.500000000    0   0   0
Rh1      0.250292127   0.750292127   0.500000000    0   0   0
Rh1      0.750292127   0.250292127   0.500000000    0   0   0
Ga1      0.500474142   0.500408730   0.594404511
Ga1      0.000408890   0.000474039   0.594404023
Rh1      0.000425969   0.500425986   0.584264975
Rh1      0.500424952   0.000424732   0.584269155

     Writing output data file calc.save
     Check: negative starting charge=   -0.325860
     NEW-OLD atomic charge density approx. for the potential
     Check: negative starting charge=   -0.326238

[...]

     Self-consistent Calculation

[...]

     total energy              =   -3533.25706322 Ry
     Harris-Foulkes estimate   =   -3533.25706346 Ry
     estimated scf accuracy    <       0.00000146 Ry

     iteration #  9     ecut=    36.75 Ry     beta=0.30
     Davidson diagonalization with overlap
     ethr =  6.61E-10,  avg # of iterations =  2.0

[...]

     negative rho (up, down):  3.330E-01 0.000E+00

     Adding external electric field

     Computed dipole along edir(3) :
        Dipole                0.0062 Ry au,          0.0158 Debye
        Dipole field          0.0000 Ry au

        Potential amp.       -0.0016 Ry
        Total length         44.7912 bohr

     End of self-consistent calculation

[...]

          k = 0.0631-0.0558 0.0000 ( 16235 PWs)   bands (ev):

[...]

          k =-0.0947-0.0670-0.0000 ( 16160 PWs)   bands (ev):

   -93.4359 -93.4357 -93.4321 -93.4307 -93.4163 -93.4162 -93.4065 -93.4064
   -93.3701 -93.3688 -93.3547 -93.3546 -93.3330 -93.3328 -93.3271 -93.3258
   -93.2985 -93.2983 -45.0803 -45.0406 -45.0311 -45.0298 -45.0206 -44.9962
   -44.9728 -44.9447 -44.9270 -44.9112 -44.9048 -44.8416 -44.8329 -44.8239
   -44.8039 -44.7963 -44.7190 -44.7102 -13.9146 -13.8683 -13.8608 -13.8469
   -13.8412 -13.8317 -13.8138 -13.8040 -13.7840 -13.7824 -13.7797 -13.7514
   -13.7359 -13.7334 -13.7271 -13.7128 -13.7084 -13.7061 -13.7034 -13.6978
   -13.6875 -13.6754 -13.6745 -13.6743 -13.6602 -13.6601 -13.6304 -13.6129
   -13.6033 -13.5661  -6.8410  -6.6602  -5.6077  -5.4724  -4.6683  -4.1942
    -4.0657  -3.3648  -3.2681  -3.2237  -2.7755  -2.4647  -2.3966  -2.3087
    -1.9531  -1.8411  -1.8353  -1.6933  -1.4854  -1.4554  -0.9999  -0.9973
    -0.9963  -0.9079  -0.8909  -0.4938  -0.4108  -0.0484   0.0083   0.1609
     0.2382   0.2660   0.3846   0.8000   0.9632   0.9834   1.3040   1.6313
     1.9711   2.3738   2.3908   3.4585   3.7628   3.9674   4.0910   5.4968

     the Fermi energy is     1.0996 ev

!    total energy              =   -3533.25706327 Ry
     Harris-Foulkes estimate   =   -3533.25706333 Ry
     estimated scf accuracy    <       0.00000006 Ry

     The total energy is the sum of the following terms:

     one-electron contribution =  -25542.60886792 Ry
     hartree contribution      =   12798.21885086 Ry
     xc contribution           =    -485.51189155 Ry
     ewald contribution        =    9696.68126305 Ry
     electric field correction =       0.00000011 Ry
     smearing contrib. (-TS)   =      -0.03641782 Ry

     convergence has been achieved in   9 iterations

 BEEF-vdW xc energy contributions
           1 :   -429.972966946316
           2 :    392.576480113981
           3 :   -329.061486482250
           4 :    256.801754170891
           5 :   -191.947138544788
           6 :    143.699493108463
           7 :   -112.641167610932
           8 :    93.2217242063649
           9 :   -78.3903812797781
          10 :    63.5718949577593
          11 :   -48.0750893302056
          12 :    33.8457160184719
          13 :   -23.0313660122182
          14 :    16.1888014929347
          15 :   -12.1208951374326
          16 :    9.02181705702412
          17 :   -5.79669591699746
          18 :    2.54859105431666
          19 :  -4.554628785865589E-002
          20 :   -1.22093330082794
          21 :    1.56451091401948
          22 :   -1.84718591260156
          23 :    2.73691203823557
          24 :   -4.14919847525647
          25 :    5.34330462082562
          26 :   -5.58001817614524
          27 :    4.78265644007854
          28 :   -3.65079729347462
          29 :    3.12875425918526
          30 :   -3.65543176421500
          31 :   -35.6976206653977
          32 :   -25.5016356968119

     Forces acting on atoms (Ry/au):

     negative rho (up, down):  3.330E-01 0.000E+00
     atom    1 type  1   force =     0.00004924    0.00005129   -0.01898676
     atom    2 type  1   force =     0.00006474    0.00002935   -0.01898689
     atom    3 type  2   force =     0.00010896    0.00007710    0.03146878
     atom    4 type  2   force =     0.00011047    0.00007817    0.03144996
     atom    5 type  1   force =    -0.00003786   -0.00006506   -0.01303523
     atom    6 type  1   force =    -0.00007367   -0.00001392   -0.01303527
     atom    7 type  2   force =    -0.00002681   -0.00001922    0.00064509
     atom    8 type  2   force =    -0.00001941   -0.00001350    0.00062508
     atom    9 type  1   force =    -0.00008238   -0.00001600    0.00129684
     atom   10 type  1   force =    -0.00004247   -0.00007228    0.00129780
     atom   11 type  2   force =    -0.00000822   -0.00000596   -0.00134745
     atom   12 type  2   force =    -0.00004259   -0.00002997   -0.00139195

     Total force =     0.002671     Total SCF correction =     0.000925
     SCF correction compared to forces is large: reduce conv_thr to get better values

     entering subroutine stress ...

     negative rho (up, down):  3.330E-01 0.000E+00
          total   stress  (Ry/bohr**3)                   (kbar)     P=  -30.28
  -0.00025443  -0.00000375  -0.00000043        -37.43     -0.55     -0.06
  -0.00000375  -0.00025178  -0.00000031         -0.55    -37.04     -0.04
  -0.00000043  -0.00000031  -0.00011133         -0.06     -0.04    -16.38

     bfgs converged in   9 scf cycles and   8 bfgs steps
     (criteria: energy <  1.0E+00, force <  1.9E-03)

     End of BFGS Geometry Optimization

     Final energy   =   -3533.2570632716 Ry
Begin final coordinates

ATOMIC_POSITIONS (crystal)
Ga1      0.000000000  -0.000000000   0.411349187    0   0   0
Ga1      0.500000000   0.500000000   0.411349187    0   0   0
Rh1      0.500000000  -0.000000000   0.411349187    0   0   0
Rh1      0.000000000   0.500000000   0.411349187    0   0   0
Ga1      0.750292127   0.750292127   0.500000000    0   0   0
Ga1      0.250292127   0.250292127   0.500000000    0   0   0
Rh1      0.250292127   0.750292127   0.500000000    0   0   0
Rh1      0.750292127   0.250292127   0.500000000    0   0   0
Ga1      0.500474142   0.500408730   0.594404511
Ga1      0.000408890   0.000474039   0.594404023
Rh1      0.000425969   0.500425986   0.584264975
Rh1      0.500424952   0.000424732   0.584269155
End final coordinates

     Writing output data file calc.save

     General routines

     Parallel routines

   This run was terminated on:   0:55:19  28Feb2018

   JOB DONE.