     Program PWSCF v.5.1rc2 starts on 15Nov2017 at  6:25:48

     Current dimensions of program PWSCF are:
     Max number of different atomic species (ntypx) = 10
     Max number of k-points (npk) =  40000
     Max angular momentum in pseudopotentials (lmaxx) =  3

     IMPORTANT: XC functional enforced from input :
     Exchange-correlation      = BEEF-VDW ( 1  4 27 13 2)
     Any further DFT definition will be discarded
     Please, verify this is what you really want

     Found symmetry operation: I + ( -0.5000 -0.5000  0.0000)
     This is a supercell, fractional translations are disabled

     bravais-lattice index     =            0
     lattice parameter (alat)  =       1.8897  a.u.
     unit-cell volume          =     621.4822 (a.u.)^3
     number of atoms/cell      =            4
     number of atomic types    =            2
     number of electrons       =        62.00
     number of Kohn-Sham states=           51
     kinetic-energy cutoff     =      58.7989  Ry
     charge density cutoff     =     587.9892  Ry
     convergence threshold     =      1.0E-06
     mixing beta               =       0.1000
     number of iterations used =           10  plain     mixing
     Exchange-correlation      = BEEF-VDW ( 1  4 27 13 2)

     celldm(1)=   1.889726  celldm(2)=   0.000000  celldm(3)=   0.000000
     celldm(4)=   0.000000  celldm(5)=   0.000000  celldm(6)=   0.000000

     crystal axes: (cart. coord. in units of alat)
               a(1) = (   5.068879   0.000000   0.000000 )
               a(2) = (   0.000000   5.068879   0.000000 )
               a(3) = (   0.000000   0.000000   3.584332 )

     reciprocal axes: (cart. coord. in units 2 pi/alat)
               b(1) = (  0.197282  0.000000  0.000000 )
               b(2) = (  0.000000  0.197282  0.000000 )
               b(3) = (  0.000000  0.000000  0.278992 )

     PseudoPot. # 1 for Zn read from file:
     /home/users/vossj/suncat/psp/gbrv1.5pbe/Zn.UPF
     MD5 check sum: df62231357ef9e81f77b2b3087fa5675
     Pseudo is Ultrasoft, Zval = 20.0
     Generated by new atomic code, or converted to UPF format
     Using radial grid of  943 points,  6 beta functions with:
                l(1) =   0
                l(2) =   0
                l(3) =   1
                l(4) =   1
                l(5) =   2
                l(6) =   2
     Q(r) pseudized with  8 coefficients,  rinner =    1.100   1.100   1.100
                                                       1.100   1.100

     PseudoPot. # 2 for Y  read from file:
     /home/users/vossj/suncat/psp/gbrv1.5pbe/Y.UPF
     MD5 check sum: d034151ed7554c50b6e82763ed42c788
     Pseudo is Ultrasoft + core correction, Zval = 11.0
     Generated by new atomic code, or converted to UPF format
     Using radial grid of  885 points,  6 beta functions with:
                l(1) =   0
                l(2) =   0
                l(3) =   1
                l(4) =   1
                l(5) =   2
                l(6) =   2
     Q(r) pseudized with  8 coefficients,  rinner =    1.200   1.200   1.200
                                                       1.200   1.200

     vdW kernel table read from file vdW_kernel_table
     MD5 check sum: 095c7af220d748ca6e76c0b4c6cfb241

     atomic species   valence    mass     pseudopotential
        Zn1           20.00    65.39000     Zn( 1.00)
        Y1            11.00    88.90590     Y ( 1.00)

     16 Sym. Ops., with inversion, found

   Cartesian axes

     site n.     atom                  positions (alat units)
         1           Zn1 tau(   1) = (   0.0000000   0.0000000   0.0000000  )
         2           Zn1 tau(   2) = (   2.5344395   2.5344395   0.0000000  )
         3           Y1  tau(   3) = (   2.5344395   0.0000000   1.7921660  )
         4           Y1  tau(   4) = (   0.0000000   2.5344395   1.7921660  )

     number of k points=    75  Fermi-Dirac smearing, width (Ry)=  0.0073
                       cart. coord. in units 2pi/alat
        k(    1) = (   0.0000000   0.0000000   0.0000000), wk =   0.0027435
        k(    2) = (   0.0000000   0.0000000   0.0309991), wk =   0.0054870
        k(    3) = (   0.0000000   0.0000000   0.0619982), wk =   0.0054870
        k(    4) = (   0.0000000   0.0000000   0.0929973), wk =   0.0054870
        k(    5) = (   0.0000000   0.0000000   0.1239964), wk =   0.0054870
        k(    6) = (   0.0000000   0.0219203   0.0000000), wk =   0.0109739
        k(    7) = (   0.0000000   0.0219203   0.0309991), wk =   0.0219479
        k(    8) = (   0.0000000   0.0219203   0.0619982), wk =   0.0219479
        k(    9) = (   0.0000000   0.0219203   0.0929973), wk =   0.0219479
        k(   10) = (   0.0000000   0.0219203   0.1239964), wk =   0.0219479
        k(   11) = (   0.0000000   0.0438405   0.0000000), wk =   0.0109739
        k(   12) = (   0.0000000   0.0438405   0.0309991), wk =   0.0219479
        k(   13) = (   0.0000000   0.0438405   0.0619982), wk =   0.0219479
        k(   14) = (   0.0000000   0.0438405   0.0929973), wk =   0.0219479
        k(   15) = (   0.0000000   0.0438405   0.1239964), wk =   0.0219479
        k(   16) = (   0.0000000   0.0657608   0.0000000), wk =   0.0109739
        k(   17) = (   0.0000000   0.0657608   0.0309991), wk =   0.0219479
        k(   18) = (   0.0000000   0.0657608   0.0619982), wk =   0.0219479
        k(   19) = (   0.0000000   0.0657608   0.0929973), wk =   0.0219479
        k(   20) = (   0.0000000   0.0657608   0.1239964), wk =   0.0219479
        k(   21) = (   0.0000000   0.0876810   0.0000000), wk =   0.0109739
        k(   22) = (   0.0000000   0.0876810   0.0309991), wk =   0.0219479
        k(   23) = (   0.0000000   0.0876810   0.0619982), wk =   0.0219479
        k(   24) = (   0.0000000   0.0876810   0.0929973), wk =   0.0219479
        k(   25) = (   0.0000000   0.0876810   0.1239964), wk =   0.0219479
        k(   26) = (   0.0219203   0.0219203   0.0000000), wk =   0.0109739
        k(   27) = (   0.0219203   0.0219203   0.0309991), wk =   0.0219479
        k(   28) = (   0.0219203   0.0219203   0.0619982), wk =   0.0219479
        k(   29) = (   0.0219203   0.0219203   0.0929973), wk =   0.0219479
        k(   30) = (   0.0219203   0.0219203   0.1239964), wk =   0.0219479
        k(   31) = (   0.0219203   0.0438405   0.0000000), wk =   0.0219479
        k(   32) = (   0.0219203   0.0438405   0.0309991), wk =   0.0438957
        k(   33) = (   0.0219203   0.0438405   0.0619982), wk =   0.0438957
        k(   34) = (   0.0219203   0.0438405   0.0929973), wk =   0.0438957
        k(   35) = (   0.0219203   0.0438405   0.1239964), wk =   0.0438957
        k(   36) = (   0.0219203   0.0657608   0.0000000), wk =   0.0219479
        k(   37) = (   0.0219203   0.0657608   0.0309991), wk =   0.0438957
        k(   38) = (   0.0219203   0.0657608   0.0619982), wk =   0.0438957
        k(   39) = (   0.0219203   0.0657608   0.0929973), wk =   0.0438957
        k(   40) = (   0.0219203   0.0657608   0.1239964), wk =   0.0438957
        k(   41) = (   0.0219203   0.0876810   0.0000000), wk =   0.0219479
        k(   42) = (   0.0219203   0.0876810   0.0309991), wk =   0.0438957
        k(   43) = (   0.0219203   0.0876810   0.0619982), wk =   0.0438957
        k(   44) = (   0.0219203   0.0876810   0.0929973), wk =   0.0438957
        k(   45) = (   0.0219203   0.0876810   0.1239964), wk =   0.0438957
        k(   46) = (   0.0438405   0.0438405   0.0000000), wk =   0.0109739
        k(   47) = (   0.0438405   0.0438405   0.0309991), wk =   0.0219479
        k(   48) = (   0.0438405   0.0438405   0.0619982), wk =   0.0219479
        k(   49) = (   0.0438405   0.0438405   0.0929973), wk =   0.0219479
        k(   50) = (   0.0438405   0.0438405   0.1239964), wk =   0.0219479
        k(   51) = (   0.0438405   0.0657608   0.0000000), wk =   0.0219479
        k(   52) = (   0.0438405   0.0657608   0.0309991), wk =   0.0438957
        k(   53) = (   0.0438405   0.0657608   0.0619982), wk =   0.0438957
        k(   54) = (   0.0438405   0.0657608   0.0929973), wk =   0.0438957
        k(   55) = (   0.0438405   0.0657608   0.1239964), wk =   0.0438957
        k(   56) = (   0.0438405   0.0876810   0.0000000), wk =   0.0219479
        k(   57) = (   0.0438405   0.0876810   0.0309991), wk =   0.0438957
        k(   58) = (   0.0438405   0.0876810   0.0619982), wk =   0.0438957
        k(   59) = (   0.0438405   0.0876810   0.0929973), wk =   0.0438957
        k(   60) = (   0.0438405   0.0876810   0.1239964), wk =   0.0438957
        k(   61) = (   0.0657608   0.0657608   0.0000000), wk =   0.0109739
        k(   62) = (   0.0657608   0.0657608   0.0309991), wk =   0.0219479
        k(   63) = (   0.0657608   0.0657608   0.0619982), wk =   0.0219479
        k(   64) = (   0.0657608   0.0657608   0.0929973), wk =   0.0219479
        k(   65) = (   0.0657608   0.0657608   0.1239964), wk =   0.0219479
        k(   66) = (   0.0657608   0.0876810   0.0000000), wk =   0.0219479
        k(   67) = (   0.0657608   0.0876810   0.0309991), wk =   0.0438957
        k(   68) = (   0.0657608   0.0876810   0.0619982), wk =   0.0438957
        k(   69) = (   0.0657608   0.0876810   0.0929973), wk =   0.0438957
        k(   70) = (   0.0657608   0.0876810   0.1239964), wk =   0.0438957
        k(   71) = (   0.0876810   0.0876810   0.0000000), wk =   0.0109739
        k(   72) = (   0.0876810   0.0876810   0.0309991), wk =   0.0219479
        k(   73) = (   0.0876810   0.0876810   0.0619982), wk =   0.0219479
        k(   74) = (   0.0876810   0.0876810   0.0929973), wk =   0.0219479
        k(   75) = (   0.0876810   0.0876810   0.1239964), wk =   0.0219479

     Largest allocated arrays     est. size (Mb)     dimensions
     Largest temporary arrays     est. size (Mb)     dimensions

     Initial potential from superposition of free atoms

     starting charge   61.99078, renormalised to   62.00000

     *
     * You are using vdW-DF for exchange-correlation in this calculation.
     * Please cite the following three references that made this development
     * possible:
     *
     *   M. Dion, H. Rydberg, E. Schroder, D. C. Langreth, and
     *   B. I. Lundqvist, Phys. Rev. Lett. 92, 246401 (2004).
     *
     *   T. Thonhauser, V. R. Cooper, S. Li, A. Puzder, P. Hyldgaard, and
     *   D. C. Langreth, Phys. Rev. B 76, 125112 (2007).
     *
     *   G. Roman-Perez and J. M. Soler, Phys. Rev. Lett. 103, 096102 (2009).
     *
     *
     * If you are using vdW-DF2, please also cite:
     *
     *   K. Lee, E. D. Murray, L. Kong, B. I. Lundqvist, and
     *   D. C. Langreth, Phys. Rev. B 82, 081101(R) (2010).
     *
     *
     * If you are calculating the stress with vdW-DF, please also cite:
     *
     *   R. Sabatini, E. Kucukbenli, B. Kolb, T. Thonhauser, and
     *   S. de Gironcoli, J. Phys.: Condens. Matter 24, 424209 (2012).
     *

     Carrying out vdW-DF run using the following parameters:

     Nqs =      20    Nr_points =    1024   r_max =   100.000
     q_mesh =
               0.00001000     0.04494208     0.09755937     0.15916263
               0.23128650     0.31572767     0.41458969     0.53033537
               0.66584808     0.82450364     1.01025438     1.22772762
               1.48234092     1.78043706     2.12944203     2.53805004
               3.01644009     3.57652955     4.23227104     5.00000000

     Gradients computed in reciprocal space

     Starting wfc are   52 randomized atomic wfcs

     Self-consistent Calculation

     iteration #  1     ecut=    58.80 Ry     beta=0.10
     Davidson diagonalization with overlap
     ethr =  1.00E-02,  avg # of iterations =  4.8

     Threshold (ethr) on eigenvalues was too large:
     Diagonalizing with lowered threshold

     Davidson diagonalization with overlap
     ethr =  1.58E-04,  avg # of iterations =  2.6

     total energy              =   -1113.12991314 Ry
     Harris-Foulkes estimate   =   -1113.14400429 Ry
     estimated scf accuracy    <       0.09445720 Ry

[...]

     total energy              =   -1113.12594583 Ry
     Harris-Foulkes estimate   =   -1113.12593934 Ry
     estimated scf accuracy    <       0.00000295 Ry

     iteration # 10     ecut=    58.80 Ry     beta=0.10
     Davidson diagonalization with overlap
     ethr =  4.76E-09,  avg # of iterations =  2.0

     End of self-consistent calculation

          k = 0.0000 0.0000 0.0000 (  4733 PWs)   bands (ev):

  -115.2235-115.2235 -69.3926 -69.3926 -69.3925 -69.3923 -69.3922 -69.3922
   -32.0131 -31.9699 -12.0875 -12.0875 -11.8213 -11.8213 -11.8210 -11.7653
     3.7544   3.7619   3.7620   3.8245   3.8674   3.8674   3.9469   3.9469
     3.9471   4.0673   4.0815   7.1127  10.8530  10.8530  10.9772  10.9775
    11.1924  13.7519  13.7519  15.1648  15.1649  15.1649  15.7173  15.7180
    15.7180  16.4051  17.1147  18.2166  18.2661  19.7758  21.5570  21.5570
    22.9218  22.9220  24.6098

[...]

          k = 0.0877 0.0877 0.1240 (  4748 PWs)   bands (ev):

  -115.2235-115.2235 -69.3928 -69.3925 -69.3925 -69.3925 -69.3921 -69.3921
   -31.9712 -31.9699 -12.0879 -12.0810 -12.0795 -12.0774 -11.7753 -11.7673
     3.7617   3.7625   3.8268   3.8336   3.8688   3.8698   3.8701   3.8737
     4.0579   4.0627   7.0877   7.1317  10.3459  10.4696  10.8145  10.8624
    11.5182  11.6593  13.6765  13.7852  13.7856  13.8602  16.3295  16.3794
    16.6842  17.1947  18.1750  18.1930  18.4622  18.7464  21.4767  21.6480
    21.7775  21.7977  24.7282

     the Fermi energy is    11.0208 ev

!    total energy              =   -1113.12597595 Ry
     Harris-Foulkes estimate   =   -1113.12594601 Ry
     estimated scf accuracy    <       0.00000065 Ry

     The total energy is the sum of the following terms:

     one-electron contribution =    -896.71604734 Ry
     hartree contribution      =     467.73749769 Ry
     xc contribution           =    -143.45950924 Ry
     ewald contribution        =    -540.67794198 Ry
     smearing contrib. (-TS)   =      -0.00997509 Ry

     convergence has been achieved in  10 iterations

     Forces acting on atoms (Ry/au):

     atom    1 type  1   force =     0.00000000    0.00000000    0.00000000
     atom    2 type  1   force =     0.00000000    0.00000000    0.00000000
     atom    3 type  2   force =     0.00000000    0.00000000    0.00000000
     atom    4 type  2   force =     0.00000000    0.00000000    0.00000000

     Total force =     0.000000     Total SCF correction =     0.000000

     General routines

     Parallel routines

   This run was terminated on:   6:26:37  15Nov2017

   JOB DONE.