     Program PWSCF v.5.1rc2 starts on 14Nov2017 at  9:43:47

     Current dimensions of program PWSCF are:
     Max number of different atomic species (ntypx) = 10
     Max number of k-points (npk) =  40000
     Max angular momentum in pseudopotentials (lmaxx) =  3

     IMPORTANT: XC functional enforced from input :
     Exchange-correlation      = BEEF-VDW ( 1  4 27 13 2)
     Any further DFT definition will be discarded
     Please, verify this is what you really want

     Found symmetry operation: I + (  0.5000  0.5000  0.0000)
     This is a supercell, fractional translations are disabled

     bravais-lattice index     =            0
     lattice parameter (alat)  =       1.8897  a.u.
     unit-cell volume          =     549.4155 (a.u.)^3
     number of atoms/cell      =            4
     number of atomic types    =            2
     number of electrons       =        52.00
     number of Kohn-Sham states=           46
     kinetic-energy cutoff     =      58.7989  Ry
     charge density cutoff     =     587.9892  Ry
     convergence threshold     =      1.0E-06
     mixing beta               =       0.1000
     number of iterations used =           10  plain     mixing
     Exchange-correlation      = BEEF-VDW ( 1  4 27 13 2)

     celldm(1)=   1.889726  celldm(2)=   0.000000  celldm(3)=   0.000000
     celldm(4)=   0.000000  celldm(5)=   0.000000  celldm(6)=   0.000000

     crystal axes: (cart. coord. in units of alat)
               a(1) = (   4.865452   0.000000   0.000000 )
               a(2) = (   0.000000   4.865452   0.000000 )
               a(3) = (   0.000000   0.000000   3.439204 )

     reciprocal axes: (cart. coord. in units 2 pi/alat)
               b(1) = (  0.205531  0.000000  0.000000 )
               b(2) = (  0.000000  0.205531  0.000000 )
               b(3) = (  0.000000  0.000000  0.290765 )

     PseudoPot. # 1 for Y  read from file:
     /home/users/vossj/suncat/psp/gbrv1.5pbe/Y.UPF
     MD5 check sum: d034151ed7554c50b6e82763ed42c788
     Pseudo is Ultrasoft + core correction, Zval = 11.0
     Generated by new atomic code, or converted to UPF format
     Using radial grid of  885 points,  6 beta functions with:
                l(1) =   0
                l(2) =   0
                l(3) =   1
                l(4) =   1
                l(5) =   2
                l(6) =   2
     Q(r) pseudized with  8 coefficients,  rinner =    1.200   1.200   1.200
                                                       1.200   1.200

     PseudoPot. # 2 for Ir read from file:
     /home/users/vossj/suncat/psp/gbrv1.5pbe/Ir.UPF
     MD5 check sum: 8836f839c3459d2b385c504ce6d91f2c
     Pseudo is Ultrasoft + core correction, Zval = 15.0
     Generated by new atomic code, or converted to UPF format
     Using radial grid of  983 points,  7 beta functions with:
                l(1) =   0
                l(2) =   0
                l(3) =   1
                l(4) =   1
                l(5) =   1
                l(6) =   2
                l(7) =   2
     Q(r) pseudized with  8 coefficients,  rinner =    1.400   1.400   1.400
                                                       1.400   1.400

     vdW kernel table read from file vdW_kernel_table
     MD5 check sum: 095c7af220d748ca6e76c0b4c6cfb241

     atomic species   valence    mass     pseudopotential
        Y1            11.00    88.90590     Y ( 1.00)
        Ir1           15.00   192.22000     Ir( 1.00)

     16 Sym. Ops., with inversion, found

   Cartesian axes

     site n.     atom                  positions (alat units)
         1           Y1  tau(   1) = (   0.0000000   0.0000000   0.0000000  )
         2           Y1  tau(   2) = (   2.4327260   2.4327260   0.0000000  )
         3           Ir1 tau(   3) = (   2.4327260   0.0000000   1.7196020  )
         4           Ir1 tau(   4) = (   0.0000000   2.4327260   1.7196020  )

     number of k points=    75  Fermi-Dirac smearing, width (Ry)=  0.0073
                       cart. coord. in units 2pi/alat
        k(    1) = (   0.0000000   0.0000000   0.0000000), wk =   0.0027435
        k(    2) = (   0.0000000   0.0000000   0.0323072), wk =   0.0054870
        k(    3) = (   0.0000000   0.0000000   0.0646144), wk =   0.0054870
        k(    4) = (   0.0000000   0.0000000   0.0969217), wk =   0.0054870
        k(    5) = (   0.0000000   0.0000000   0.1292289), wk =   0.0054870
        k(    6) = (   0.0000000   0.0228367   0.0000000), wk =   0.0109739
        k(    7) = (   0.0000000   0.0228367   0.0323072), wk =   0.0219479
        k(    8) = (   0.0000000   0.0228367   0.0646144), wk =   0.0219479
        k(    9) = (   0.0000000   0.0228367   0.0969217), wk =   0.0219479
        k(   10) = (   0.0000000   0.0228367   0.1292289), wk =   0.0219479
        k(   11) = (   0.0000000   0.0456735   0.0000000), wk =   0.0109739
        k(   12) = (   0.0000000   0.0456735   0.0323072), wk =   0.0219479
        k(   13) = (   0.0000000   0.0456735   0.0646144), wk =   0.0219479
        k(   14) = (   0.0000000   0.0456735   0.0969217), wk =   0.0219479
        k(   15) = (   0.0000000   0.0456735   0.1292289), wk =   0.0219479
        k(   16) = (   0.0000000   0.0685102   0.0000000), wk =   0.0109739
        k(   17) = (   0.0000000   0.0685102   0.0323072), wk =   0.0219479
        k(   18) = (   0.0000000   0.0685102   0.0646144), wk =   0.0219479
        k(   19) = (   0.0000000   0.0685102   0.0969217), wk =   0.0219479
        k(   20) = (   0.0000000   0.0685102   0.1292289), wk =   0.0219479
        k(   21) = (   0.0000000   0.0913470   0.0000000), wk =   0.0109739
        k(   22) = (   0.0000000   0.0913470   0.0323072), wk =   0.0219479
        k(   23) = (   0.0000000   0.0913470   0.0646144), wk =   0.0219479
        k(   24) = (   0.0000000   0.0913470   0.0969217), wk =   0.0219479
        k(   25) = (   0.0000000   0.0913470   0.1292289), wk =   0.0219479
        k(   26) = (   0.0228367   0.0228367   0.0000000), wk =   0.0109739
        k(   27) = (   0.0228367   0.0228367   0.0323072), wk =   0.0219479
        k(   28) = (   0.0228367   0.0228367   0.0646144), wk =   0.0219479
        k(   29) = (   0.0228367   0.0228367   0.0969217), wk =   0.0219479
        k(   30) = (   0.0228367   0.0228367   0.1292289), wk =   0.0219479
        k(   31) = (   0.0228367   0.0456735   0.0000000), wk =   0.0219479
        k(   32) = (   0.0228367   0.0456735   0.0323072), wk =   0.0438957
        k(   33) = (   0.0228367   0.0456735   0.0646144), wk =   0.0438957
        k(   34) = (   0.0228367   0.0456735   0.0969217), wk =   0.0438957
        k(   35) = (   0.0228367   0.0456735   0.1292289), wk =   0.0438957
        k(   36) = (   0.0228367   0.0685102   0.0000000), wk =   0.0219479
        k(   37) = (   0.0228367   0.0685102   0.0323072), wk =   0.0438957
        k(   38) = (   0.0228367   0.0685102   0.0646144), wk =   0.0438957
        k(   39) = (   0.0228367   0.0685102   0.0969217), wk =   0.0438957
        k(   40) = (   0.0228367   0.0685102   0.1292289), wk =   0.0438957
        k(   41) = (   0.0228367   0.0913470   0.0000000), wk =   0.0219479
        k(   42) = (   0.0228367   0.0913470   0.0323072), wk =   0.0438957
        k(   43) = (   0.0228367   0.0913470   0.0646144), wk =   0.0438957
        k(   44) = (   0.0228367   0.0913470   0.0969217), wk =   0.0438957
        k(   45) = (   0.0228367   0.0913470   0.1292289), wk =   0.0438957
        k(   46) = (   0.0456735   0.0456735   0.0000000), wk =   0.0109739
        k(   47) = (   0.0456735   0.0456735   0.0323072), wk =   0.0219479
        k(   48) = (   0.0456735   0.0456735   0.0646144), wk =   0.0219479
        k(   49) = (   0.0456735   0.0456735   0.0969217), wk =   0.0219479
        k(   50) = (   0.0456735   0.0456735   0.1292289), wk =   0.0219479
        k(   51) = (   0.0456735   0.0685102   0.0000000), wk =   0.0219479
        k(   52) = (   0.0456735   0.0685102   0.0323072), wk =   0.0438957
        k(   53) = (   0.0456735   0.0685102   0.0646144), wk =   0.0438957
        k(   54) = (   0.0456735   0.0685102   0.0969217), wk =   0.0438957
        k(   55) = (   0.0456735   0.0685102   0.1292289), wk =   0.0438957
        k(   56) = (   0.0456735   0.0913470   0.0000000), wk =   0.0219479
        k(   57) = (   0.0456735   0.0913470   0.0323072), wk =   0.0438957
        k(   58) = (   0.0456735   0.0913470   0.0646144), wk =   0.0438957
        k(   59) = (   0.0456735   0.0913470   0.0969217), wk =   0.0438957
        k(   60) = (   0.0456735   0.0913470   0.1292289), wk =   0.0438957
        k(   61) = (   0.0685102   0.0685102   0.0000000), wk =   0.0109739
        k(   62) = (   0.0685102   0.0685102   0.0323072), wk =   0.0219479
        k(   63) = (   0.0685102   0.0685102   0.0646144), wk =   0.0219479
        k(   64) = (   0.0685102   0.0685102   0.0969217), wk =   0.0219479
        k(   65) = (   0.0685102   0.0685102   0.1292289), wk =   0.0219479
        k(   66) = (   0.0685102   0.0913470   0.0000000), wk =   0.0219479
        k(   67) = (   0.0685102   0.0913470   0.0323072), wk =   0.0438957
        k(   68) = (   0.0685102   0.0913470   0.0646144), wk =   0.0438957
        k(   69) = (   0.0685102   0.0913470   0.0969217), wk =   0.0438957
        k(   70) = (   0.0685102   0.0913470   0.1292289), wk =   0.0438957
        k(   71) = (   0.0913470   0.0913470   0.0000000), wk =   0.0109739
        k(   72) = (   0.0913470   0.0913470   0.0323072), wk =   0.0219479
        k(   73) = (   0.0913470   0.0913470   0.0646144), wk =   0.0219479
        k(   74) = (   0.0913470   0.0913470   0.0969217), wk =   0.0219479
        k(   75) = (   0.0913470   0.0913470   0.1292289), wk =   0.0219479

     Largest allocated arrays     est. size (Mb)     dimensions
     Largest temporary arrays     est. size (Mb)     dimensions

     Initial potential from superposition of free atoms
     Check: negative starting charge=   -0.724295

     starting charge   50.99100, renormalised to   52.00000

     negative rho (up, down):  7.386E-01 0.000E+00

     *
     * You are using vdW-DF for exchange-correlation in this calculation.
     * Please cite the following three references that made this development
     * possible:
     *
     *   M. Dion, H. Rydberg, E. Schroder, D. C. Langreth, and
     *   B. I. Lundqvist, Phys. Rev. Lett. 92, 246401 (2004).
     *
     *   T. Thonhauser, V. R. Cooper, S. Li, A. Puzder, P. Hyldgaard, and
     *   D. C. Langreth, Phys. Rev. B 76, 125112 (2007).
     *
     *   G. Roman-Perez and J. M. Soler, Phys. Rev. Lett. 103, 096102 (2009).
     *
     *
     * If you are using vdW-DF2, please also cite:
     *
     *   K. Lee, E. D. Murray, L. Kong, B. I. Lundqvist, and
     *   D. C. Langreth, Phys. Rev. B 82, 081101(R) (2010).
     *
     *
     * If you are calculating the stress with vdW-DF, please also cite:
     *
     *   R. Sabatini, E. Kucukbenli, B. Kolb, T. Thonhauser, and
     *   S. de Gironcoli, J. Phys.: Condens. Matter 24, 424209 (2012).
     *

     Carrying out vdW-DF run using the following parameters:

     Nqs =      20    Nr_points =    1024   r_max =   100.000
     q_mesh =
               0.00001000     0.04494208     0.09755937     0.15916263
               0.23128650     0.31572767     0.41458969     0.53033537
               0.66584808     0.82450364     1.01025438     1.22772762
               1.48234092     1.78043706     2.12944203     2.53805004
               3.01644009     3.57652955     4.23227104     5.00000000

     Gradients computed in reciprocal space

     Starting wfc are   50 randomized atomic wfcs

     Self-consistent Calculation

     iteration #  1     ecut=    58.80 Ry     beta=0.10
     Davidson diagonalization with overlap
     ethr =  1.00E-02,  avg # of iterations =  4.5

[...]

     total energy              =    -554.38770115 Ry
     Harris-Foulkes estimate   =    -554.96049615 Ry
     estimated scf accuracy    <       3.54153449 Ry

[...]

     total energy              =    -554.40264201 Ry
     Harris-Foulkes estimate   =    -554.40262508 Ry
     estimated scf accuracy    <       0.00001503 Ry

     iteration #  9     ecut=    58.80 Ry     beta=0.10
     Davidson diagonalization with overlap
     ethr =  2.89E-08,  avg # of iterations =  2.0

     negative rho (up, down):  6.531E-01 0.000E+00

     End of self-consistent calculation

          k = 0.0000 0.0000 0.0000 (  4199 PWs)   bands (ev):

   -32.6915 -32.6915 -32.6656 -32.6656 -32.6645 -32.6597 -26.4730 -26.3984
    -6.6530  -6.6530  -6.2560  -6.2560  -6.2552  -6.1754   9.1532  11.2431
    11.8266  11.8286  11.9409  13.1822  13.1822  14.2827  14.2857  14.2857
    15.5434  15.9601  17.4201  17.4201  18.4666  18.4694  19.1509  21.6411
    21.6411  21.8833  21.8833  21.8834  22.3724  23.4985  23.4985  23.5064
    25.6324  26.8215  27.1239  27.1239  27.7120  27.7231

[...]

          k = 0.0913 0.0913 0.1292 (  4194 PWs)   bands (ev):

   -32.6916 -32.6908 -32.6898 -32.6896 -32.6617 -32.6609 -26.4000 -26.3980
    -6.6555  -6.6467  -6.6418  -6.6406  -6.1920  -6.1794  11.2948  11.3293
    11.9974  12.0121  13.2011  13.2085  13.2098  13.2594  15.2923  15.3824
    15.6846  15.8740  17.1700  17.3955  17.5347  17.6138  19.0706  19.1605
    21.3706  21.6365  21.6567  21.7031  22.3502  22.4095  25.3517  25.6986
    26.5625  26.6209  27.2441  27.3555  27.6548  27.7222

     the Fermi energy is    15.8111 ev

!    total energy              =    -554.40268909 Ry
     Harris-Foulkes estimate   =    -554.40264419 Ry
     estimated scf accuracy    <       0.00000057 Ry

     The total energy is the sum of the following terms:

     one-electron contribution =     -83.72198031 Ry
     hartree contribution      =      73.71282847 Ry
     xc contribution           =    -160.93788149 Ry
     ewald contribution        =    -383.45188577 Ry
     smearing contrib. (-TS)   =      -0.00376998 Ry

     convergence has been achieved in   9 iterations

     Forces acting on atoms (Ry/au):

     negative rho (up, down):  6.531E-01 0.000E+00
     atom    1 type  1   force =     0.00000000    0.00000000    0.00000000
     atom    2 type  1   force =     0.00000000    0.00000000    0.00000000
     atom    3 type  2   force =     0.00000000    0.00000000    0.00000000
     atom    4 type  2   force =     0.00000000    0.00000000    0.00000000

     Total force =     0.000000     Total SCF correction =     0.000000

     General routines

     Parallel routines

   This run was terminated on:   9:44:24  14Nov2017

   JOB DONE.