     Program PWSCF v.5.1rc2 starts on 15Nov2017 at  3:50:53

     Current dimensions of program PWSCF are:
     Max number of different atomic species (ntypx) = 10
     Max number of k-points (npk) =  40000
     Max angular momentum in pseudopotentials (lmaxx) =  3

     IMPORTANT: XC functional enforced from input :
     Exchange-correlation      = BEEF-VDW ( 1  4 27 13 2)
     Any further DFT definition will be discarded
     Please, verify this is what you really want

     Found symmetry operation: I + (  0.5000  0.5000  0.0000)
     This is a supercell, fractional translations are disabled

     bravais-lattice index     =            0
     lattice parameter (alat)  =       1.8897  a.u.
     unit-cell volume          =     406.4007 (a.u.)^3
     number of atoms/cell      =            4
     number of atomic types    =            2
     number of electrons       =        60.00
     number of Kohn-Sham states=           50
     kinetic-energy cutoff     =      58.7989  Ry
     charge density cutoff     =     587.9892  Ry
     convergence threshold     =      1.0E-06
     mixing beta               =       0.1000
     number of iterations used =           10  plain     mixing
     Exchange-correlation      = BEEF-VDW ( 1  4 27 13 2)

     celldm(1)=   1.889726  celldm(2)=   0.000000  celldm(3)=   0.000000
     celldm(4)=   0.000000  celldm(5)=   0.000000  celldm(6)=   0.000000

     crystal axes: (cart. coord. in units of alat)
               a(1) = (   3.959534   0.000000   0.000000 )
               a(2) = (   0.000000   3.959534   0.000000 )
               a(3) = (   0.000000   0.000000   3.841225 )

     reciprocal axes: (cart. coord. in units 2 pi/alat)
               b(1) = (  0.252555  0.000000  0.000000 )
               b(2) = (  0.000000  0.252555  0.000000 )
               b(3) = (  0.000000  0.000000  0.260334 )

     PseudoPot. # 1 for Ru read from file:
     /home/users/vossj/suncat/psp/gbrv1.5pbe/Ru.UPF
     MD5 check sum: 7158a806dd851261a58e6920c40ebe78
     Pseudo is Ultrasoft + core correction, Zval = 16.0
     Generated by new atomic code, or converted to UPF format
     Using radial grid of  967 points,  6 beta functions with:
                l(1) =   0
                l(2) =   0
                l(3) =   1
                l(4) =   1
                l(5) =   2
                l(6) =   2
     Q(r) pseudized with  8 coefficients,  rinner =    1.300   1.300   1.300
                                                       1.300   1.300

     PseudoPot. # 2 for W  read from file:
     /home/users/vossj/suncat/psp/gbrv1.5pbe/W.UPF
     MD5 check sum: 9c083fa34c2a2ea0f02f1f893e16e1c8
     Pseudo is Ultrasoft + core correction, Zval = 14.0
     Generated by new atomic code, or converted to UPF format
     Using radial grid of  923 points,  8 beta functions with:
                l(1) =   0
                l(2) =   0
                l(3) =   0
                l(4) =   1
                l(5) =   1
                l(6) =   2
                l(7) =   2
                l(8) =   3
     Q(r) pseudized with  6 coefficients,  rinner =    1.350   1.350   1.350
                                                       1.350   1.350   1.350
                                                       1.350

     vdW kernel table read from file vdW_kernel_table
     MD5 check sum: 095c7af220d748ca6e76c0b4c6cfb241

     atomic species   valence    mass     pseudopotential
        Ru1           16.00   101.07000     Ru( 1.00)
        W1            14.00   183.85000     W ( 1.00)

     16 Sym. Ops., with inversion, found

   Cartesian axes

     site n.     atom                  positions (alat units)
         1           Ru1 tau(   1) = (   0.0000000   0.0000000   0.0000000  )
         2           Ru1 tau(   2) = (   1.9797671   1.9797671   0.0000000  )
         3           W1  tau(   3) = (   1.9797671   0.0000000   1.9206123  )
         4           W1  tau(   4) = (   0.0000000   1.9797671   1.9206123  )

     number of k points=    75  Fermi-Dirac smearing, width (Ry)=  0.0073
                       cart. coord. in units 2pi/alat
        k(    1) = (   0.0000000   0.0000000   0.0000000), wk =   0.0027435
        k(    2) = (   0.0000000   0.0000000   0.0289260), wk =   0.0054870
        k(    3) = (   0.0000000   0.0000000   0.0578519), wk =   0.0054870
        k(    4) = (   0.0000000   0.0000000   0.0867779), wk =   0.0054870
        k(    5) = (   0.0000000   0.0000000   0.1157038), wk =   0.0054870
        k(    6) = (   0.0000000   0.0280617   0.0000000), wk =   0.0109739
        k(    7) = (   0.0000000   0.0280617   0.0289260), wk =   0.0219479
        k(    8) = (   0.0000000   0.0280617   0.0578519), wk =   0.0219479
        k(    9) = (   0.0000000   0.0280617   0.0867779), wk =   0.0219479
        k(   10) = (   0.0000000   0.0280617   0.1157038), wk =   0.0219479
        k(   11) = (   0.0000000   0.0561233   0.0000000), wk =   0.0109739
        k(   12) = (   0.0000000   0.0561233   0.0289260), wk =   0.0219479
        k(   13) = (   0.0000000   0.0561233   0.0578519), wk =   0.0219479
        k(   14) = (   0.0000000   0.0561233   0.0867779), wk =   0.0219479
        k(   15) = (   0.0000000   0.0561233   0.1157038), wk =   0.0219479
        k(   16) = (   0.0000000   0.0841850   0.0000000), wk =   0.0109739
        k(   17) = (   0.0000000   0.0841850   0.0289260), wk =   0.0219479
        k(   18) = (   0.0000000   0.0841850   0.0578519), wk =   0.0219479
        k(   19) = (   0.0000000   0.0841850   0.0867779), wk =   0.0219479
        k(   20) = (   0.0000000   0.0841850   0.1157038), wk =   0.0219479
        k(   21) = (   0.0000000   0.1122466   0.0000000), wk =   0.0109739
        k(   22) = (   0.0000000   0.1122466   0.0289260), wk =   0.0219479
        k(   23) = (   0.0000000   0.1122466   0.0578519), wk =   0.0219479
        k(   24) = (   0.0000000   0.1122466   0.0867779), wk =   0.0219479
        k(   25) = (   0.0000000   0.1122466   0.1157038), wk =   0.0219479
        k(   26) = (   0.0280617   0.0280617   0.0000000), wk =   0.0109739
        k(   27) = (   0.0280617   0.0280617   0.0289260), wk =   0.0219479
        k(   28) = (   0.0280617   0.0280617   0.0578519), wk =   0.0219479
        k(   29) = (   0.0280617   0.0280617   0.0867779), wk =   0.0219479
        k(   30) = (   0.0280617   0.0280617   0.1157038), wk =   0.0219479
        k(   31) = (   0.0280617   0.0561233   0.0000000), wk =   0.0219479
        k(   32) = (   0.0280617   0.0561233   0.0289260), wk =   0.0438957
        k(   33) = (   0.0280617   0.0561233   0.0578519), wk =   0.0438957
        k(   34) = (   0.0280617   0.0561233   0.0867779), wk =   0.0438957
        k(   35) = (   0.0280617   0.0561233   0.1157038), wk =   0.0438957
        k(   36) = (   0.0280617   0.0841850   0.0000000), wk =   0.0219479
        k(   37) = (   0.0280617   0.0841850   0.0289260), wk =   0.0438957
        k(   38) = (   0.0280617   0.0841850   0.0578519), wk =   0.0438957
        k(   39) = (   0.0280617   0.0841850   0.0867779), wk =   0.0438957
        k(   40) = (   0.0280617   0.0841850   0.1157038), wk =   0.0438957
        k(   41) = (   0.0280617   0.1122466   0.0000000), wk =   0.0219479
        k(   42) = (   0.0280617   0.1122466   0.0289260), wk =   0.0438957
        k(   43) = (   0.0280617   0.1122466   0.0578519), wk =   0.0438957
        k(   44) = (   0.0280617   0.1122466   0.0867779), wk =   0.0438957
        k(   45) = (   0.0280617   0.1122466   0.1157038), wk =   0.0438957
        k(   46) = (   0.0561233   0.0561233   0.0000000), wk =   0.0109739
        k(   47) = (   0.0561233   0.0561233   0.0289260), wk =   0.0219479
        k(   48) = (   0.0561233   0.0561233   0.0578519), wk =   0.0219479
        k(   49) = (   0.0561233   0.0561233   0.0867779), wk =   0.0219479
        k(   50) = (   0.0561233   0.0561233   0.1157038), wk =   0.0219479
        k(   51) = (   0.0561233   0.0841850   0.0000000), wk =   0.0219479
        k(   52) = (   0.0561233   0.0841850   0.0289260), wk =   0.0438957
        k(   53) = (   0.0561233   0.0841850   0.0578519), wk =   0.0438957
        k(   54) = (   0.0561233   0.0841850   0.0867779), wk =   0.0438957
        k(   55) = (   0.0561233   0.0841850   0.1157038), wk =   0.0438957
        k(   56) = (   0.0561233   0.1122466   0.0000000), wk =   0.0219479
        k(   57) = (   0.0561233   0.1122466   0.0289260), wk =   0.0438957
        k(   58) = (   0.0561233   0.1122466   0.0578519), wk =   0.0438957
        k(   59) = (   0.0561233   0.1122466   0.0867779), wk =   0.0438957
        k(   60) = (   0.0561233   0.1122466   0.1157038), wk =   0.0438957
        k(   61) = (   0.0841850   0.0841850   0.0000000), wk =   0.0109739
        k(   62) = (   0.0841850   0.0841850   0.0289260), wk =   0.0219479
        k(   63) = (   0.0841850   0.0841850   0.0578519), wk =   0.0219479
        k(   64) = (   0.0841850   0.0841850   0.0867779), wk =   0.0219479
        k(   65) = (   0.0841850   0.0841850   0.1157038), wk =   0.0219479
        k(   66) = (   0.0841850   0.1122466   0.0000000), wk =   0.0219479
        k(   67) = (   0.0841850   0.1122466   0.0289260), wk =   0.0438957
        k(   68) = (   0.0841850   0.1122466   0.0578519), wk =   0.0438957
        k(   69) = (   0.0841850   0.1122466   0.0867779), wk =   0.0438957
        k(   70) = (   0.0841850   0.1122466   0.1157038), wk =   0.0438957
        k(   71) = (   0.1122466   0.1122466   0.0000000), wk =   0.0109739
        k(   72) = (   0.1122466   0.1122466   0.0289260), wk =   0.0219479
        k(   73) = (   0.1122466   0.1122466   0.0578519), wk =   0.0219479
        k(   74) = (   0.1122466   0.1122466   0.0867779), wk =   0.0219479
        k(   75) = (   0.1122466   0.1122466   0.1157038), wk =   0.0219479

     Largest allocated arrays     est. size (Mb)     dimensions
     Largest temporary arrays     est. size (Mb)     dimensions

     Initial potential from superposition of free atoms
     Check: negative starting charge=   -0.273643

     starting charge   57.79929, renormalised to   60.00000

     negative rho (up, down):  2.841E-01 0.000E+00

     *
     * You are using vdW-DF for exchange-correlation in this calculation.
     * Please cite the following three references that made this development
     * possible:
     *
     *   M. Dion, H. Rydberg, E. Schroder, D. C. Langreth, and
     *   B. I. Lundqvist, Phys. Rev. Lett. 92, 246401 (2004).
     *
     *   T. Thonhauser, V. R. Cooper, S. Li, A. Puzder, P. Hyldgaard, and
     *   D. C. Langreth, Phys. Rev. B 76, 125112 (2007).
     *
     *   G. Roman-Perez and J. M. Soler, Phys. Rev. Lett. 103, 096102 (2009).
     *
     *
     * If you are using vdW-DF2, please also cite:
     *
     *   K. Lee, E. D. Murray, L. Kong, B. I. Lundqvist, and
     *   D. C. Langreth, Phys. Rev. B 82, 081101(R) (2010).
     *
     *
     * If you are calculating the stress with vdW-DF, please also cite:
     *
     *   R. Sabatini, E. Kucukbenli, B. Kolb, T. Thonhauser, and
     *   S. de Gironcoli, J. Phys.: Condens. Matter 24, 424209 (2012).
     *

     Carrying out vdW-DF run using the following parameters:

     Nqs =      20    Nr_points =    1024   r_max =   100.000
     q_mesh =
               0.00001000     0.04494208     0.09755937     0.15916263
               0.23128650     0.31572767     0.41458969     0.53033537
               0.66584808     0.82450364     1.01025438     1.22772762
               1.48234092     1.78043706     2.12944203     2.53805004
               3.01644009     3.57652955     4.23227104     5.00000000

     Gradients computed in reciprocal space

     Starting wfc are   52 randomized atomic wfcs

     Self-consistent Calculation

     iteration #  1     ecut=    58.80 Ry     beta=0.10
     Davidson diagonalization with overlap
     ethr =  1.00E-02,  avg # of iterations =  4.3

[...]

     total energy              =    -711.55436453 Ry
     Harris-Foulkes estimate   =    -711.73745372 Ry
     estimated scf accuracy    <       1.27889990 Ry

[...]

     total energy              =    -711.28282032 Ry
     Harris-Foulkes estimate   =    -711.28282048 Ry
     estimated scf accuracy    <       0.00000111 Ry

     iteration # 11     ecut=    58.80 Ry     beta=0.10
     Davidson diagonalization with overlap
     ethr =  1.85E-09,  avg # of iterations =  1.1

     negative rho (up, down):  2.907E-01 0.000E+00

     End of self-consistent calculation

          k = 0.0000 0.0000 0.0000 (  3085 PWs)   bands (ev):

   -52.4357 -52.3444 -50.7504 -50.6876 -20.8581 -20.8581 -20.7979 -20.6718
   -20.5209 -20.5209 -16.7390 -16.7390 -16.5082 -16.4237 -16.1405 -16.1405
    13.5378  16.1241  16.2163  16.2174  16.8435  16.8826  16.8826  20.1289
    20.1289  20.7060  22.2297  23.2670  23.8504  24.2160  25.1536  25.1536
    25.7623  25.9565  25.9689  25.9689  26.1141  26.1782  26.1782  27.7865
    34.1515  34.2214  34.2214  34.3705  34.5211  34.5211  35.7699  35.8738
    36.1694  36.3761

[...]

          k = 0.1122 0.1122 0.1157 (  3095 PWs)   bands (ev):

   -52.3882 -52.3856 -50.7221 -50.7200 -20.9131 -20.9037 -20.7624 -20.7603
   -20.4912 -20.4812 -16.7972 -16.7797 -16.4721 -16.4678 -16.1099 -16.0903
    16.0955  16.1631  16.6362  16.6679  19.7978  19.8583  19.9132  19.9305
    20.0452  20.0532  20.8695  20.9955  22.3043  22.3490  22.4755  22.5124
    24.0805  24.2810  25.1724  25.5796  25.9305  26.0596  26.2205  26.4051
    31.5193  31.6699  33.1180  33.3465  35.6663  35.7287  35.7629  35.8000
    40.9431  41.1570

     the Fermi energy is    21.9477 ev

!    total energy              =    -711.28282038 Ry
     Harris-Foulkes estimate   =    -711.28282055 Ry
     estimated scf accuracy    <       0.00000059 Ry

     The total energy is the sum of the following terms:

     one-electron contribution =    -108.12474381 Ry
     hartree contribution      =      94.26114932 Ry
     xc contribution           =    -139.08993353 Ry
     ewald contribution        =    -558.32001880 Ry
     smearing contrib. (-TS)   =      -0.00927356 Ry

     convergence has been achieved in  11 iterations

     Forces acting on atoms (Ry/au):

     negative rho (up, down):  2.907E-01 0.000E+00
     atom    1 type  1   force =     0.00000000    0.00000000    0.00000000
     atom    2 type  1   force =     0.00000000    0.00000000    0.00000000
     atom    3 type  2   force =     0.00000000    0.00000000    0.00000000
     atom    4 type  2   force =     0.00000000    0.00000000    0.00000000

     Total force =     0.000000     Total SCF correction =     0.000000

     General routines

     Parallel routines

   This run was terminated on:   3:51:30  15Nov2017

   JOB DONE.