     Program PWSCF v.5.1rc2 starts on  2Mar2018 at  0:22:42

     Current dimensions of program PWSCF are:
     Max number of different atomic species (ntypx) = 10
     Max number of k-points (npk) =  40000
     Max angular momentum in pseudopotentials (lmaxx) =  3
     Presently stress not available with electric field

     IMPORTANT: XC functional enforced from input :
     Exchange-correlation      = BEEF-VDW ( 1  4 27 13 2)
     Any further DFT definition will be discarded
     Please, verify this is what you really want

     Found symmetry operation: I + (  0.5000  0.5000  0.0000)
     This is a supercell, fractional translations are disabled

     Generating pointlists ...
     new r_m :   0.4125 (alat units)  0.7795 (a.u.) for type    1
     new r_m :   0.4125 (alat units)  0.7795 (a.u.) for type    2

     bravais-lattice index     =            0
     lattice parameter (alat)  =       1.8897  a.u.
     unit-cell volume          =    3705.7624 (a.u.)^3
     number of atoms/cell      =           12
     number of atomic types    =            2
     number of electrons       =       192.00
     number of Kohn-Sham states=          106
     kinetic-energy cutoff     =      36.7493  Ry
     charge density cutoff     =     367.4932  Ry
     convergence threshold     =      1.0E-05
     mixing beta               =       0.3000
     number of iterations used =           10  plain     mixing
     Exchange-correlation      = BEEF-VDW ( 1  4 27 13 2)
     nstep                     =           50

     celldm(1)=   1.889726  celldm(2)=   0.000000  celldm(3)=   0.000000
     celldm(4)=   0.000000  celldm(5)=   0.000000  celldm(6)=   0.000000

     crystal axes: (cart. coord. in units of alat)
               a(1) = (   4.933829   0.000000   0.000000 )
               a(2) = (   1.708444   4.628595   0.000000 )
               a(3) = (   0.000000   0.000000  24.046270 )

     reciprocal axes: (cart. coord. in units 2 pi/alat)
               b(1) = (  0.202682 -0.074811  0.000000 )
               b(2) = (  0.000000  0.216048  0.000000 )
               b(3) = (  0.000000  0.000000  0.041586 )

     PseudoPot. # 1 for Co read from file:
     /home/users/mamunm/src/pseudo/gbrv1.5pbe/Co.UPF
     MD5 check sum: 5f91765df6ddd3222702df6e7b74a16d
     Pseudo is Ultrasoft + core correction, Zval = 17.0
     Generated by new atomic code, or converted to UPF format
     Using radial grid of  863 points,  6 beta functions with:
                l(1) =   0
                l(2) =   0
                l(3) =   1
                l(4) =   1
                l(5) =   2
                l(6) =   2
     Q(r) pseudized with  8 coefficients,  rinner =    1.200   1.200   1.200
                                                       1.200   1.200

     PseudoPot. # 2 for Mn read from file:
     /home/users/mamunm/src/pseudo/gbrv1.5pbe/Mn.UPF
     MD5 check sum: 82ef2b46521d7a7d9e736dc3972e4928
     Pseudo is Ultrasoft + core correction, Zval = 15.0
     Generated by new atomic code, or converted to UPF format
     Using radial grid of  859 points,  6 beta functions with:
                l(1) =   0
                l(2) =   0
                l(3) =   1
                l(4) =   1
                l(5) =   2
                l(6) =   2
     Q(r) pseudized with  8 coefficients,  rinner =    0.950   0.950   0.950
                                                       0.950   0.950

     vdW kernel table read from file vdW_kernel_table
     MD5 check sum: 095c7af220d748ca6e76c0b4c6cfb241

     atomic species   valence    mass     pseudopotential
        Co1           17.00    58.93319     Co( 1.00)
        Mn1           15.00    54.93804     Mn( 1.00)

     Starting magnetic structure
     atomic species   magnetization
        Co1          0.000
        Mn1          0.000

     No symmetry found

   Cartesian axes

     site n.     atom                  positions (alat units)
         1           Co1 tau(   1) = (   0.0000000   0.0000000  10.0000000  )
         2           Co1 tau(   2) = (   3.3211367   2.3142973  10.0000000  )
         3           Mn1 tau(   3) = (   2.4669146   0.0000000  10.0000000  )
         4           Mn1 tau(   4) = (   0.8542222   2.3142973  10.0000000  )
         5           Co1 tau(   5) = (   4.9338291   3.4380841  12.0231350  )
         6           Co1 tau(   6) = (   1.6126924   1.1237868  12.0231350  )
         7           Mn1 tau(   7) = (   2.4669146   3.4380841  12.0231350  )
         8           Mn1 tau(   8) = (   4.0796070   1.1237868  12.0231350  )
         9           Co1 tau(   9) = (   3.2253848   2.2475736  14.0462700  )
        10           Co1 tau(  10) = (   6.5465215   4.5618709  14.0462700  )
        11           Mn1 tau(  11) = (   5.6922994   2.2475736  14.0462700  )
        12           Mn1 tau(  12) = (   4.0796070   4.5618709  14.0462700  )

     number of k points=    40  Fermi-Dirac smearing, width (Ry)=  0.0110
                       cart. coord. in units 2pi/alat
        k(    1) = (   0.0000000   0.0000000   0.0000000), wk =   0.0277778
        k(    2) = (   0.0000000   0.0360081   0.0000000), wk =   0.0555556
        k(    3) = (   0.0000000   0.0720161   0.0000000), wk =   0.0555556
        k(    4) = (   0.0000000  -0.1080242   0.0000000), wk =   0.0277778
        k(    5) = (   0.0337804  -0.0124686   0.0000000), wk =   0.0555556
        k(    6) = (   0.0337804   0.0235395   0.0000000), wk =   0.0555556
        k(    7) = (   0.0337804   0.0595475   0.0000000), wk =   0.0555556
        k(    8) = (   0.0337804  -0.1204927   0.0000000), wk =   0.0555556
        k(    9) = (   0.0337804  -0.0844847   0.0000000), wk =   0.0555556
        k(   10) = (   0.0337804  -0.0484766   0.0000000), wk =   0.0555556
        k(   11) = (   0.0675608  -0.0249371   0.0000000), wk =   0.0555556
        k(   12) = (   0.0675608   0.0110709   0.0000000), wk =   0.0555556
        k(   13) = (   0.0675608   0.0470790   0.0000000), wk =   0.0555556
        k(   14) = (   0.0675608  -0.1329613   0.0000000), wk =   0.0555556
        k(   15) = (   0.0675608  -0.0969532   0.0000000), wk =   0.0555556
        k(   16) = (   0.0675608  -0.0609452   0.0000000), wk =   0.0555556
        k(   17) = (  -0.1013412   0.0374057   0.0000000), wk =   0.0277778
        k(   18) = (  -0.1013412   0.0734137   0.0000000), wk =   0.0555556
        k(   19) = (  -0.1013412   0.1094218   0.0000000), wk =   0.0555556
        k(   20) = (  -0.1013412  -0.0706185   0.0000000), wk =   0.0277778
        k(   21) = (   0.0000000   0.0000000   0.0000000), wk =   0.0277778
        k(   22) = (   0.0000000   0.0360081   0.0000000), wk =   0.0555556
        k(   23) = (   0.0000000   0.0720161   0.0000000), wk =   0.0555556
        k(   24) = (   0.0000000  -0.1080242   0.0000000), wk =   0.0277778
        k(   25) = (   0.0337804  -0.0124686   0.0000000), wk =   0.0555556
        k(   26) = (   0.0337804   0.0235395   0.0000000), wk =   0.0555556
        k(   27) = (   0.0337804   0.0595475   0.0000000), wk =   0.0555556
        k(   28) = (   0.0337804  -0.1204927   0.0000000), wk =   0.0555556
        k(   29) = (   0.0337804  -0.0844847   0.0000000), wk =   0.0555556
        k(   30) = (   0.0337804  -0.0484766   0.0000000), wk =   0.0555556
        k(   31) = (   0.0675608  -0.0249371   0.0000000), wk =   0.0555556
        k(   32) = (   0.0675608   0.0110709   0.0000000), wk =   0.0555556
        k(   33) = (   0.0675608   0.0470790   0.0000000), wk =   0.0555556
        k(   34) = (   0.0675608  -0.1329613   0.0000000), wk =   0.0555556
        k(   35) = (   0.0675608  -0.0969532   0.0000000), wk =   0.0555556
        k(   36) = (   0.0675608  -0.0609452   0.0000000), wk =   0.0555556
        k(   37) = (  -0.1013412   0.0374057   0.0000000), wk =   0.0277778
        k(   38) = (  -0.1013412   0.0734137   0.0000000), wk =   0.0555556
        k(   39) = (  -0.1013412   0.1094218   0.0000000), wk =   0.0555556
        k(   40) = (  -0.1013412  -0.0706185   0.0000000), wk =   0.0277778

     Largest allocated arrays     est. size (Mb)     dimensions
     Largest temporary arrays     est. size (Mb)     dimensions

     Check: negative/imaginary core charge=   -0.000009    0.000000

     Initial potential from superposition of free atoms
     Check: negative starting charge=(component1):   -0.001125
     Check: negative starting charge=(component2):   -0.001125

     starting charge  182.99945, renormalised to  192.00000

     negative rho (up, down):  1.180E-03 1.180E-03

     *
     * You are using vdW-DF for exchange-correlation in this calculation.
     * Please cite the following three references that made this development
     * possible:
     *
     *   M. Dion, H. Rydberg, E. Schroder, D. C. Langreth, and
     *   B. I. Lundqvist, Phys. Rev. Lett. 92, 246401 (2004).
     *
     *   T. Thonhauser, V. R. Cooper, S. Li, A. Puzder, P. Hyldgaard, and
     *   D. C. Langreth, Phys. Rev. B 76, 125112 (2007).
     *
     *   G. Roman-Perez and J. M. Soler, Phys. Rev. Lett. 103, 096102 (2009).
     *
     *
     * If you are using vdW-DF2, please also cite:
     *
     *   K. Lee, E. D. Murray, L. Kong, B. I. Lundqvist, and
     *   D. C. Langreth, Phys. Rev. B 82, 081101(R) (2010).
     *
     *
     * If you are calculating the stress with vdW-DF, please also cite:
     *
     *   R. Sabatini, E. Kucukbenli, B. Kolb, T. Thonhauser, and
     *   S. de Gironcoli, J. Phys.: Condens. Matter 24, 424209 (2012).
     *

     Carrying out vdW-DF run using the following parameters:

     Nqs =      20    Nr_points =    1024   r_max =   100.000
     q_mesh =
               0.00001000     0.04494208     0.09755937     0.15916263
               0.23128650     0.31572767     0.41458969     0.53033537
               0.66584808     0.82450364     1.01025438     1.22772762
               1.48234092     1.78043706     2.12944203     2.53805004
               3.01644009     3.57652955     4.23227104     5.00000000

     Gradients computed in reciprocal space

     Adding external electric field

     Computed dipole along edir(3) :
        Dipole                0.0000 Ry au,          0.0000 Debye
        Dipole field          0.0000 Ry au

        Potential amp.       -0.0000 Ry
        Total length         44.3048 bohr

[...]

     Starting wfc are  156 randomized atomic wfcs

     Self-consistent Calculation

     iteration #  1     ecut=    36.75 Ry     beta=0.30
     Davidson diagonalization with overlap
     ethr =  1.00E-02,  avg # of iterations =  4.7

[...]

     Magnetic moment per site:
     atom:    1    charge:    7.8635    magn:    0.0002    constr:    0.0000
     atom:    2    charge:    7.8632    magn:    0.0004    constr:    0.0000
     atom:    3    charge:    6.0635    magn:    0.0000    constr:    0.0000
     atom:    4    charge:    6.0636    magn:    0.0001    constr:    0.0000
     atom:    5    charge:    7.8507    magn:   -0.0001    constr:    0.0000
     atom:    6    charge:    7.8507    magn:   -0.0002    constr:    0.0000
     atom:    7    charge:    6.0540    magn:   -0.0000    constr:    0.0000
     atom:    8    charge:    6.0540    magn:   -0.0001    constr:    0.0000
     atom:    9    charge:    7.8607    magn:    0.0004    constr:    0.0000
     atom:   10    charge:    7.8604    magn:    0.0001    constr:    0.0000
     atom:   11    charge:    6.0603    magn:    0.0001    constr:    0.0000
     atom:   12    charge:    6.0604    magn:    0.0001    constr:    0.0000

     total energy              =   -3030.74856121 Ry
     Harris-Foulkes estimate   =   -3081.24982398 Ry
     estimated scf accuracy    <     107.11077729 Ry

     total magnetization       =    -0.02 Bohr mag/cell
     absolute magnetization    =     0.11 Bohr mag/cell

[...]

     iteration # 63     ecut=    36.75 Ry     beta=0.30
     Davidson diagonalization with overlap
     c_bands:  2 eigenvalues not converged
     ethr =  5.09E-06,  avg # of iterations =  5.7

[...]

     iteration # 72     ecut=    36.75 Ry     beta=0.30
     Davidson diagonalization with overlap
     c_bands:  1 eigenvalues not converged
     ethr =  5.09E-06,  avg # of iterations =  5.1

[...]

     End of self-consistent calculation

 ------ SPIN UP ------------

          k = 0.0000 0.0000 0.0000 ( 13879 PWs)   bands (ev):

   -94.4559 -94.4525 -93.2746 -93.2709 -92.8250 -92.8210 -80.1158 -80.1063
   -76.6097 -76.5972 -75.9882 -75.9772 -57.8487 -57.8052 -57.7795 -57.7757
   -57.6278 -57.6234 -56.6692 -56.6647 -56.6116 -56.6029 -56.5981 -56.5634
   -56.2451 -56.2401 -56.1955 -56.1478 -56.1290 -56.1244 -48.9291 -48.9202
   -48.8167 -48.7501 -48.7425 -48.7174 -45.4471 -45.4439 -45.4314 -45.3423
   -45.3314 -45.3297 -44.8724 -44.8545 -44.8449 -44.7530 -44.6899 -44.6780
    -6.7142  -4.8182  -3.3742  -3.2676  -3.2511  -3.1777  -2.9704  -2.8425
    -2.7165  -2.4296  -2.1722  -2.0318  -1.8610  -1.6987  -1.6834  -1.6267
    -1.5545  -1.3540  -1.3449  -1.2717  -1.1537  -0.9206  -0.9096  -0.5851
    -0.4716  -0.4427  -0.3890  -0.3158  -0.0963  -0.0113   0.0417   0.1449
     0.1571   0.2240   0.2268   0.3879   0.4499   0.4661   0.5362   0.6536
     0.8874   0.9623   1.1070   1.2221   1.3327   1.7177   1.8412   1.8519
     1.9213   2.0492   2.0632   2.0821   2.3870   2.3898   2.4660   2.4954
     2.5105   2.6025

[...]

          k =-0.1013 0.0374 0.0000 ( 13928 PWs)   bands (ev):

[...]

 ------ SPIN DOWN ----------

[...]

     the Fermi energy is     0.8776 ev

!    total energy              =   -3069.76420606 Ry
     Harris-Foulkes estimate   =   -3069.76421489 Ry
     estimated scf accuracy    <       0.00000984 Ry

     The total energy is the sum of the following terms:

     one-electron contribution =  -26200.11171912 Ry
     hartree contribution      =   13101.83742983 Ry
     xc contribution           =    -368.56384185 Ry
     ewald contribution        =   10397.15823366 Ry
     electric field correction =       0.00000356 Ry
     smearing contrib. (-TS)   =      -0.08431214 Ry

[...]

     convergence has been achieved in 217 iterations

 BEEF-vdW xc energy contributions
           1 :   -323.359408501857
           2 :    292.683462062650
           3 :   -240.980246943017
           4 :    182.814976226398
           5 :   -131.255435148387
           6 :    93.2338851294190
           7 :   -68.6480587346769
           8 :    52.7944477516851
           9 :   -40.1801515623086
          10 :    27.5094264152744
          11 :   -14.6008631714790
          12 :    3.32230314473509
          13 :    4.31809347501729
          14 :   -7.63211380552684
          15 :    7.55428191440069
          16 :   -5.94355631047159
          17 :    4.52673759198933
          18 :   -4.14398887489108
          19 :    4.60750188215303
          20 :   -5.11784697038502
          21 :    4.90653570262003
          22 :   -3.73811987979013
          23 :    2.02631654675486
          24 :  -0.562976954381895
          25 :   4.002203960965289E-002
          26 :  -0.645650489403693
          27 :    1.95653501364228
          28 :   -3.19620596471941
          29 :    3.70009346381016
          30 :   -3.30222122807703
          31 :   -28.2049777046171
          32 :   -19.7487121357802

     Forces acting on atoms (Ry/au):

     negative rho (up, down):  1.400E-03 1.452E-03
     atom    1 type  1   force =     0.00078259    0.00053461    0.02233963
     atom    2 type  1   force =     0.00058553    0.00042138    0.02239120
     atom    3 type  2   force =     0.00005449    0.00008978   -0.02238070
     atom    4 type  2   force =     0.00011303    0.00001963   -0.02239515
     atom    5 type  1   force =    -0.00306326   -0.00204100    0.00150166
     atom    6 type  1   force =    -0.00257966   -0.00188630    0.00152157
     atom    7 type  2   force =    -0.00193242   -0.00146278    0.00031682
     atom    8 type  2   force =    -0.00206730   -0.00132593    0.00022405
     atom    9 type  1   force =     0.00070658    0.00050249   -0.01455563
     atom   10 type  1   force =     0.00087915    0.00060670   -0.01455947
     atom   11 type  2   force =     0.00328034    0.00222735    0.01279210
     atom   12 type  2   force =     0.00324092    0.00231406    0.01280392

     Total force =     0.028016     Total SCF correction =     0.011759
     SCF correction compared to forces is large: reduce conv_thr to get better values

     entering subroutine stress ...

     negative rho (up, down):  1.400E-03 1.452E-03
          total   stress  (Ry/bohr**3)                   (kbar)     P=   -9.08
  -0.00005992   0.00001167   0.00000672         -8.81      1.72      0.99
   0.00001167  -0.00006855   0.00000469          1.72    -10.08      0.69
   0.00000672   0.00000469  -0.00005673          0.99      0.69     -8.34

     BFGS Geometry Optimization

     number of scf cycles    =   1
     number of bfgs steps    =   0

     energy   new            =   -3069.7642060558 Ry

     new trust radius        =       0.0145986048 bohr
     new conv_thr            =       0.0000099958 Ry

ATOMIC_POSITIONS (crystal)
Co1      0.000000000   0.000000000   0.415864914    0   0   0
Co1      0.500000000   0.500000000   0.415864914    0   0   0
Mn1      0.500000000   0.000000000   0.415864914    0   0   0
Mn1      0.000000000   0.500000000   0.415864914    0   0   0
Co1      0.742792233   0.742792233   0.500000000    0   0   0
Co1      0.242792233   0.242792233   0.500000000    0   0   0
Mn1      0.242792233   0.742792233   0.500000000    0   0   0
Mn1      0.742792233   0.242792233   0.500000000    0   0   0
Co1      0.485640358   0.485641916   0.583814765
Co1      0.985654741   0.985653829   0.583814681
Mn1      0.985848121   0.485839115   0.584416596
Mn1      0.485840461   0.985849028   0.584416857

     Writing output data file calc.save
     Check: negative starting charge=(component1):   -0.002249
     NEW-OLD atomic charge density approx. for the potential

     Check: negative/imaginary core charge=   -0.000009    0.000000
     Check: negative starting charge=(component1):   -0.002242

[...]

     energy   old            =   -3069.7642060558 Ry
     energy   new            =   -3069.7649220131 Ry

     CASE: energy  _new < energy  _old

     WARNING: bfgs curvature condition failed, Theta= 0.914
     new trust radius        =       0.0160584653 bohr
     new conv_thr            =       0.0000001000 Ry

[...]

     Total force =     0.021575     Total SCF correction =     0.000637

[...]

     Total force =     0.012160     Total SCF correction =     0.000646

[...]

     number of scf cycles    =   7
     number of bfgs steps    =   6

     energy   old            =   -3069.7684118414 Ry
     energy   new            =   -3069.7684839718 Ry

     CASE: energy  _new < energy  _old

     new trust radius        =       0.0063318090 bohr
     new conv_thr            =       0.0000001000 Ry

ATOMIC_POSITIONS (crystal)
Co1      0.000000000   0.000000000   0.415864914    0   0   0
Co1      0.500000000   0.500000000   0.415864914    0   0   0
Mn1      0.500000000   0.000000000   0.415864914    0   0   0
Mn1      0.000000000   0.500000000   0.415864914    0   0   0
Co1      0.742792233   0.742792233   0.500000000    0   0   0
Co1      0.242792233   0.242792233   0.500000000    0   0   0
Mn1      0.242792233   0.742792233   0.500000000    0   0   0
Mn1      0.742792233   0.242792233   0.500000000    0   0   0
Co1      0.487855713   0.487837829   0.580499579
Co1      0.987839398   0.987856940   0.580498093
Mn1      0.988483747   0.488484668   0.587450555
Mn1      0.488478227   0.988476650   0.587450653

     Writing output data file calc.save
     Check: negative starting charge=(component1):   -0.002178
     NEW-OLD atomic charge density approx. for the potential

     Check: negative/imaginary core charge=   -0.000009    0.000000
     Check: negative starting charge=(component1):   -0.002178

[...]

     Self-consistent Calculation

[...]

     total energy              =   -3069.76849939 Ry
     Harris-Foulkes estimate   =   -3069.76849939 Ry
     estimated scf accuracy    <       0.00000011 Ry

[...]

     iteration # 19     ecut=    36.75 Ry     beta=0.30
     Davidson diagonalization with overlap
     ethr =  5.62E-11,  avg # of iterations =  3.9

[...]

     negative rho (up, down):  1.400E-03 1.433E-03

[...]

     Adding external electric field

     Computed dipole along edir(3) :
        Dipole                0.0470 Ry au,          0.1196 Debye
        Dipole field          0.0002 Ry au

        Potential amp.       -0.0141 Ry
        Total length         44.3048 bohr

     Magnetic moment per site:
     atom:    1    charge:    8.2908    magn:    0.5403    constr:    0.0000
     atom:    2    charge:    8.2907    magn:    0.5403    constr:    0.0000
     atom:    3    charge:    6.0061    magn:    1.3429    constr:    0.0000
     atom:    4    charge:    6.0061    magn:    1.3429    constr:    0.0000
     atom:    5    charge:    8.2700    magn:   -0.6678    constr:    0.0000
     atom:    6    charge:    8.2699    magn:   -0.6678    constr:    0.0000
     atom:    7    charge:    5.9802    magn:   -1.1424    constr:    0.0000
     atom:    8    charge:    5.9802    magn:   -1.1423    constr:    0.0000
     atom:    9    charge:    8.0552    magn:   -0.7133    constr:    0.0000
     atom:   10    charge:    8.0550    magn:   -0.7133    constr:    0.0000
     atom:   11    charge:    5.8252    magn:   -1.3523    constr:    0.0000
     atom:   12    charge:    5.8252    magn:   -1.3523    constr:    0.0000

     End of self-consistent calculation

 ------ SPIN UP ------------

[...]

 ------ SPIN DOWN ----------

[...]

          k = 0.0676-0.0609 0.0000 ( 13936 PWs)   bands (ev):

[...]

          k =-0.1013-0.0706 0.0000 ( 14012 PWs)   bands (ev):

   -94.9048 -94.9016 -94.6633 -94.6601 -93.1211 -93.1176 -79.8536 -79.8442
   -79.8171 -79.8073 -76.3242 -76.3132 -58.2118 -58.2080 -58.1879 -58.1841
   -58.1615 -58.1190 -58.0186 -57.9767 -57.9764 -57.9731 -57.8509 -57.8474
   -56.4935 -56.4806 -56.4768 -56.4479 -56.4366 -56.4325 -48.6124 -48.6036
   -48.5919 -48.5758 -48.5559 -48.5446 -48.5433 -48.5395 -48.4886 -48.4761
   -48.4665 -48.4378 -45.1706 -45.1691 -45.1561 -45.0629 -45.0517 -45.0505
    -4.6731  -4.5911  -3.3366  -3.3141  -3.2527  -3.1608  -2.8719  -2.7794
    -2.7115  -2.5065  -2.3102  -2.3084  -2.1166  -2.0231  -1.9470  -1.9254
    -1.8773  -1.8237  -1.6098  -1.4757  -1.4319  -1.4306  -1.3699  -1.3560
    -1.2860  -1.1361  -1.0444  -0.9573  -0.8758  -0.8130  -0.8106  -0.7575
    -0.6384  -0.6207  -0.4500  -0.4162  -0.3829  -0.2689  -0.2565  -0.2411
    -0.1083  -0.0772  -0.0039   0.0249   0.0651   0.0963   0.2245   0.2973
     0.5261   0.5546   0.5889   0.6278   0.6699   0.8289   0.8895   0.9796
     1.0116   1.3662

     the Fermi energy is     0.8985 ev

!    total energy              =   -3069.76849934 Ry
     Harris-Foulkes estimate   =   -3069.76849965 Ry
     estimated scf accuracy    <       0.00000009 Ry

     The total energy is the sum of the following terms:

     one-electron contribution =  -26227.83208523 Ry
     hartree contribution      =   13115.97588825 Ry
     xc contribution           =    -368.52433139 Ry
     ewald contribution        =   10410.69862627 Ry
     electric field correction =       0.00000750 Ry
     smearing contrib. (-TS)   =      -0.08660473 Ry

     total magnetization       =    -8.86 Bohr mag/cell
     absolute magnetization    =    27.13 Bohr mag/cell

     convergence has been achieved in  19 iterations

 BEEF-vdW xc energy contributions
           1 :   -323.319444080866
           2 :    292.648429869023
           3 :   -240.949430125106
           4 :    182.776537242434
           5 :   -131.191468199467
           6 :    93.1405969325075
           7 :   -68.5480069361774
           8 :    52.7190651145949
           9 :   -40.1378059679893
          10 :    27.4758717087905
          11 :   -14.5417022581547
          12 :    3.22318236767626
          13 :    4.43991018899681
          14 :   -7.74024762258693
          15 :    7.61925060575061
          16 :   -5.96465490815388
          17 :    4.53346883570970
          18 :   -4.17326070911884
          19 :    4.67437477856447
          20 :   -5.20457220943314
          21 :    4.97813790368122
          22 :   -3.76981273148635
          23 :    2.02170773624164
          24 :  -0.550755165666487
          25 :   5.135273108584215E-002
          26 :  -0.688404275702965
          27 :    2.00722366574877
          28 :   -3.21800800215391
          29 :    3.67329952184701
          30 :   -3.24163365069262
          31 :   -28.2088133834427
          32 :   -19.7522897957433

     Forces acting on atoms (Ry/au):

     negative rho (up, down):  1.400E-03 1.433E-03
     atom    1 type  1   force =     0.00071141    0.00049210    0.02006027
     atom    2 type  1   force =     0.00067096    0.00047117    0.02006155
     atom    3 type  2   force =     0.00002549    0.00002945   -0.02045786
     atom    4 type  2   force =     0.00003699    0.00001429   -0.02045715
     atom    5 type  1   force =    -0.00274437   -0.00188966    0.00730198
     atom    6 type  1   force =    -0.00266330   -0.00187915    0.00730262
     atom    7 type  2   force =    -0.00044041   -0.00032627   -0.00685569
     atom    8 type  2   force =    -0.00046214   -0.00030257   -0.00686580
     atom    9 type  1   force =     0.00173473    0.00122513    0.00054584
     atom   10 type  1   force =     0.00178648    0.00122841    0.00056625
     atom   11 type  2   force =     0.00067881    0.00046328   -0.00060063
     atom   12 type  2   force =     0.00066536    0.00047383   -0.00060139

     Total force =     0.003449     Total SCF correction =     0.000890
     SCF correction compared to forces is large: reduce conv_thr to get better values

     entering subroutine stress ...

     negative rho (up, down):  1.400E-03 1.433E-03
          total   stress  (Ry/bohr**3)                   (kbar)     P=   -6.01
  -0.00004238   0.00001156   0.00000331         -6.23      1.70      0.49
   0.00001156  -0.00005092   0.00000231          1.70     -7.49      0.34
   0.00000331   0.00000231  -0.00002926          0.49      0.34     -4.30

     bfgs converged in   8 scf cycles and   7 bfgs steps
     (criteria: energy <  1.0E+00, force <  1.9E-03)

     End of BFGS Geometry Optimization

     Final energy   =   -3069.7684993401 Ry
Begin final coordinates

ATOMIC_POSITIONS (crystal)
Co1      0.000000000   0.000000000   0.415864914    0   0   0
Co1      0.500000000   0.500000000   0.415864914    0   0   0
Mn1      0.500000000   0.000000000   0.415864914    0   0   0
Mn1      0.000000000   0.500000000   0.415864914    0   0   0
Co1      0.742792233   0.742792233   0.500000000    0   0   0
Co1      0.242792233   0.242792233   0.500000000    0   0   0
Mn1      0.242792233   0.742792233   0.500000000    0   0   0
Mn1      0.742792233   0.242792233   0.500000000    0   0   0
Co1      0.487855713   0.487837829   0.580499579
Co1      0.987839398   0.987856940   0.580498093
Mn1      0.988483747   0.488484668   0.587450555
Mn1      0.488478227   0.988476650   0.587450653
End final coordinates

     Writing output data file calc.save

     General routines

     Parallel routines

   This run was terminated on:   2:26:50   2Mar2018

   JOB DONE.