     Program PWSCF v.5.1rc2 starts on 15Nov2017 at  5:59: 6

     Current dimensions of program PWSCF are:
     Max number of different atomic species (ntypx) = 10
     Max number of k-points (npk) =  40000
     Max angular momentum in pseudopotentials (lmaxx) =  3

     IMPORTANT: XC functional enforced from input :
     Exchange-correlation      = BEEF-VDW ( 1  4 27 13 2)
     Any further DFT definition will be discarded
     Please, verify this is what you really want

     Found symmetry operation: I + ( -0.5000 -0.5000  0.0000)
     This is a supercell, fractional translations are disabled

     bravais-lattice index     =            0
     lattice parameter (alat)  =       1.8897  a.u.
     unit-cell volume          =     388.6622 (a.u.)^3
     number of atoms/cell      =            4
     number of atomic types    =            2
     number of electrons       =        58.00
     number of Kohn-Sham states=           49
     kinetic-energy cutoff     =      58.7989  Ry
     charge density cutoff     =     587.9892  Ry
     convergence threshold     =      1.0E-06
     mixing beta               =       0.1000
     number of iterations used =           10  plain     mixing
     Exchange-correlation      = BEEF-VDW ( 1  4 27 13 2)

     celldm(1)=   1.889726  celldm(2)=   0.000000  celldm(3)=   0.000000
     celldm(4)=   0.000000  celldm(5)=   0.000000  celldm(6)=   0.000000

     crystal axes: (cart. coord. in units of alat)
               a(1) = (   3.820337   0.000000   0.000000 )
               a(2) = (   0.000000   3.820337   0.000000 )
               a(3) = (   0.000000   0.000000   3.946139 )

     reciprocal axes: (cart. coord. in units 2 pi/alat)
               b(1) = (  0.261757  0.000000  0.000000 )
               b(2) = (  0.000000  0.261757  0.000000 )
               b(3) = (  0.000000  0.000000  0.253412 )

     PseudoPot. # 1 for V  read from file:
     /home/users/vossj/suncat/psp/gbrv1.5pbe/V.UPF
     MD5 check sum: 22b79981416ebb76fdaf5b1b8640f6fb
     Pseudo is Ultrasoft + core correction, Zval = 13.0
     Generated by new atomic code, or converted to UPF format
     Using radial grid of  853 points,  6 beta functions with:
                l(1) =   0
                l(2) =   0
                l(3) =   1
                l(4) =   1
                l(5) =   2
                l(6) =   2
     Q(r) pseudized with  8 coefficients,  rinner =    1.100   1.100   1.100
                                                       1.100   1.100

     PseudoPot. # 2 for Pd read from file:
     /home/users/vossj/suncat/psp/gbrv1.5pbe/Pd.UPF
     MD5 check sum: 2d733d2bc2cbfd217af676df1668a4bc
     Pseudo is Ultrasoft + core correction, Zval = 16.0
     Generated by new atomic code, or converted to UPF format
     Using radial grid of  887 points,  6 beta functions with:
                l(1) =   0
                l(2) =   0
                l(3) =   1
                l(4) =   1
                l(5) =   2
                l(6) =   2
     Q(r) pseudized with  8 coefficients,  rinner =    1.130   1.130   1.130
                                                       1.130   1.130

     vdW kernel table read from file vdW_kernel_table
     MD5 check sum: 095c7af220d748ca6e76c0b4c6cfb241

     atomic species   valence    mass     pseudopotential
        V1            13.00    50.94150     V ( 1.00)
        Pd1           16.00   106.42000     Pd( 1.00)

     16 Sym. Ops., with inversion, found

   Cartesian axes

     site n.     atom                  positions (alat units)
         1           V1  tau(   1) = (   0.0000000   0.0000000   0.0000000  )
         2           V1  tau(   2) = (   1.9101686   1.9101686   0.0000000  )
         3           Pd1 tau(   3) = (   1.9101686   0.0000000   1.9730694  )
         4           Pd1 tau(   4) = (   0.0000000   1.9101686   1.9730694  )

     number of k points=    75  Fermi-Dirac smearing, width (Ry)=  0.0073
                       cart. coord. in units 2pi/alat
        k(    1) = (   0.0000000   0.0000000   0.0000000), wk =   0.0027435
        k(    2) = (   0.0000000   0.0000000   0.0281569), wk =   0.0054870
        k(    3) = (   0.0000000   0.0000000   0.0563138), wk =   0.0054870
        k(    4) = (   0.0000000   0.0000000   0.0844708), wk =   0.0054870
        k(    5) = (   0.0000000   0.0000000   0.1126277), wk =   0.0054870
        k(    6) = (   0.0000000   0.0290841   0.0000000), wk =   0.0109739
        k(    7) = (   0.0000000   0.0290841   0.0281569), wk =   0.0219479
        k(    8) = (   0.0000000   0.0290841   0.0563138), wk =   0.0219479
        k(    9) = (   0.0000000   0.0290841   0.0844708), wk =   0.0219479
        k(   10) = (   0.0000000   0.0290841   0.1126277), wk =   0.0219479
        k(   11) = (   0.0000000   0.0581682   0.0000000), wk =   0.0109739
        k(   12) = (   0.0000000   0.0581682   0.0281569), wk =   0.0219479
        k(   13) = (   0.0000000   0.0581682   0.0563138), wk =   0.0219479
        k(   14) = (   0.0000000   0.0581682   0.0844708), wk =   0.0219479
        k(   15) = (   0.0000000   0.0581682   0.1126277), wk =   0.0219479
        k(   16) = (   0.0000000   0.0872523   0.0000000), wk =   0.0109739
        k(   17) = (   0.0000000   0.0872523   0.0281569), wk =   0.0219479
        k(   18) = (   0.0000000   0.0872523   0.0563138), wk =   0.0219479
        k(   19) = (   0.0000000   0.0872523   0.0844708), wk =   0.0219479
        k(   20) = (   0.0000000   0.0872523   0.1126277), wk =   0.0219479
        k(   21) = (   0.0000000   0.1163364   0.0000000), wk =   0.0109739
        k(   22) = (   0.0000000   0.1163364   0.0281569), wk =   0.0219479
        k(   23) = (   0.0000000   0.1163364   0.0563138), wk =   0.0219479
        k(   24) = (   0.0000000   0.1163364   0.0844708), wk =   0.0219479
        k(   25) = (   0.0000000   0.1163364   0.1126277), wk =   0.0219479
        k(   26) = (   0.0290841   0.0290841   0.0000000), wk =   0.0109739
        k(   27) = (   0.0290841   0.0290841   0.0281569), wk =   0.0219479
        k(   28) = (   0.0290841   0.0290841   0.0563138), wk =   0.0219479
        k(   29) = (   0.0290841   0.0290841   0.0844708), wk =   0.0219479
        k(   30) = (   0.0290841   0.0290841   0.1126277), wk =   0.0219479
        k(   31) = (   0.0290841   0.0581682   0.0000000), wk =   0.0219479
        k(   32) = (   0.0290841   0.0581682   0.0281569), wk =   0.0438957
        k(   33) = (   0.0290841   0.0581682   0.0563138), wk =   0.0438957
        k(   34) = (   0.0290841   0.0581682   0.0844708), wk =   0.0438957
        k(   35) = (   0.0290841   0.0581682   0.1126277), wk =   0.0438957
        k(   36) = (   0.0290841   0.0872523   0.0000000), wk =   0.0219479
        k(   37) = (   0.0290841   0.0872523   0.0281569), wk =   0.0438957
        k(   38) = (   0.0290841   0.0872523   0.0563138), wk =   0.0438957
        k(   39) = (   0.0290841   0.0872523   0.0844708), wk =   0.0438957
        k(   40) = (   0.0290841   0.0872523   0.1126277), wk =   0.0438957
        k(   41) = (   0.0290841   0.1163364   0.0000000), wk =   0.0219479
        k(   42) = (   0.0290841   0.1163364   0.0281569), wk =   0.0438957
        k(   43) = (   0.0290841   0.1163364   0.0563138), wk =   0.0438957
        k(   44) = (   0.0290841   0.1163364   0.0844708), wk =   0.0438957
        k(   45) = (   0.0290841   0.1163364   0.1126277), wk =   0.0438957
        k(   46) = (   0.0581682   0.0581682   0.0000000), wk =   0.0109739
        k(   47) = (   0.0581682   0.0581682   0.0281569), wk =   0.0219479
        k(   48) = (   0.0581682   0.0581682   0.0563138), wk =   0.0219479
        k(   49) = (   0.0581682   0.0581682   0.0844708), wk =   0.0219479
        k(   50) = (   0.0581682   0.0581682   0.1126277), wk =   0.0219479
        k(   51) = (   0.0581682   0.0872523   0.0000000), wk =   0.0219479
        k(   52) = (   0.0581682   0.0872523   0.0281569), wk =   0.0438957
        k(   53) = (   0.0581682   0.0872523   0.0563138), wk =   0.0438957
        k(   54) = (   0.0581682   0.0872523   0.0844708), wk =   0.0438957
        k(   55) = (   0.0581682   0.0872523   0.1126277), wk =   0.0438957
        k(   56) = (   0.0581682   0.1163364   0.0000000), wk =   0.0219479
        k(   57) = (   0.0581682   0.1163364   0.0281569), wk =   0.0438957
        k(   58) = (   0.0581682   0.1163364   0.0563138), wk =   0.0438957
        k(   59) = (   0.0581682   0.1163364   0.0844708), wk =   0.0438957
        k(   60) = (   0.0581682   0.1163364   0.1126277), wk =   0.0438957
        k(   61) = (   0.0872523   0.0872523   0.0000000), wk =   0.0109739
        k(   62) = (   0.0872523   0.0872523   0.0281569), wk =   0.0219479
        k(   63) = (   0.0872523   0.0872523   0.0563138), wk =   0.0219479
        k(   64) = (   0.0872523   0.0872523   0.0844708), wk =   0.0219479
        k(   65) = (   0.0872523   0.0872523   0.1126277), wk =   0.0219479
        k(   66) = (   0.0872523   0.1163364   0.0000000), wk =   0.0219479
        k(   67) = (   0.0872523   0.1163364   0.0281569), wk =   0.0438957
        k(   68) = (   0.0872523   0.1163364   0.0563138), wk =   0.0438957
        k(   69) = (   0.0872523   0.1163364   0.0844708), wk =   0.0438957
        k(   70) = (   0.0872523   0.1163364   0.1126277), wk =   0.0438957
        k(   71) = (   0.1163364   0.1163364   0.0000000), wk =   0.0109739
        k(   72) = (   0.1163364   0.1163364   0.0281569), wk =   0.0219479
        k(   73) = (   0.1163364   0.1163364   0.0563138), wk =   0.0219479
        k(   74) = (   0.1163364   0.1163364   0.0844708), wk =   0.0219479
        k(   75) = (   0.1163364   0.1163364   0.1126277), wk =   0.0219479

     Largest allocated arrays     est. size (Mb)     dimensions
     Largest temporary arrays     est. size (Mb)     dimensions

     Check: negative/imaginary core charge=   -0.000001    0.000000

     Initial potential from superposition of free atoms
     Check: negative starting charge=   -0.155147

     starting charge   56.99753, renormalised to   58.00000

     negative rho (up, down):  1.579E-01 0.000E+00

     *
     * You are using vdW-DF for exchange-correlation in this calculation.
     * Please cite the following three references that made this development
     * possible:
     *
     *   M. Dion, H. Rydberg, E. Schroder, D. C. Langreth, and
     *   B. I. Lundqvist, Phys. Rev. Lett. 92, 246401 (2004).
     *
     *   T. Thonhauser, V. R. Cooper, S. Li, A. Puzder, P. Hyldgaard, and
     *   D. C. Langreth, Phys. Rev. B 76, 125112 (2007).
     *
     *   G. Roman-Perez and J. M. Soler, Phys. Rev. Lett. 103, 096102 (2009).
     *
     *
     * If you are using vdW-DF2, please also cite:
     *
     *   K. Lee, E. D. Murray, L. Kong, B. I. Lundqvist, and
     *   D. C. Langreth, Phys. Rev. B 82, 081101(R) (2010).
     *
     *
     * If you are calculating the stress with vdW-DF, please also cite:
     *
     *   R. Sabatini, E. Kucukbenli, B. Kolb, T. Thonhauser, and
     *   S. de Gironcoli, J. Phys.: Condens. Matter 24, 424209 (2012).
     *

     Carrying out vdW-DF run using the following parameters:

     Nqs =      20    Nr_points =    1024   r_max =   100.000
     q_mesh =
               0.00001000     0.04494208     0.09755937     0.15916263
               0.23128650     0.31572767     0.41458969     0.53033537
               0.66584808     0.82450364     1.01025438     1.22772762
               1.48234092     1.78043706     2.12944203     2.53805004
               3.01644009     3.57652955     4.23227104     5.00000000

     Gradients computed in reciprocal space

     Starting wfc are   44 randomized atomic wfcs +    5 random wfc

     Self-consistent Calculation

     iteration #  1     ecut=    58.80 Ry     beta=0.10
     Davidson diagonalization with overlap
     ethr =  1.00E-02,  avg # of iterations =  4.1

[...]

     total energy              =    -690.34954765 Ry
     Harris-Foulkes estimate   =    -692.21758219 Ry
     estimated scf accuracy    <      10.60236508 Ry

[...]

     total energy              =    -691.24982176 Ry
     Harris-Foulkes estimate   =    -691.24982196 Ry
     estimated scf accuracy    <       0.00000586 Ry

     iteration # 14     ecut=    58.80 Ry     beta=0.10
     Davidson diagonalization with overlap
     ethr =  4.19E-09,  avg # of iterations =  1.9

     negative rho (up, down):  1.662E-01 0.000E+00

     End of self-consistent calculation

          k = 0.0000 0.0000 0.0000 (  2963 PWs)   bands (ev):

   -46.9088 -46.8064 -33.3918 -33.3918 -33.3673 -33.3139 -33.1619 -33.1619
   -20.8160 -20.7687 -20.7687 -20.7325 -20.4083 -20.4083  10.2754  11.8175
    12.2289  12.3703  12.7325  12.7325  13.0178  14.9421  14.9421  16.1510
    16.5159  17.2456  17.5729  17.9538  19.1629  19.1629  19.4931  19.5556
    19.5556  19.8865  20.1586  20.6006  20.8554  20.8554  27.8571  28.0873
    29.1731  30.2931  30.6316  30.7676  30.7676  31.2326  31.2326  35.0860
    37.3630

[...]

          k = 0.1163 0.1163 0.1126 (  2971 PWs)   bands (ev):

   -46.8582 -46.8550 -33.4197 -33.4129 -33.3437 -33.3422 -33.1477 -33.1407
   -20.8184 -20.8077 -20.7797 -20.7769 -20.3850 -20.3738  12.2371  12.2391
    12.5712  12.6632  14.2631  14.2829  14.5557  14.7042  15.0660  15.1345
    16.8365  16.9609  17.1553  17.5927  17.8690  17.9044  18.1065  18.5779
    19.1237  19.4677  19.5471  19.5815  19.8579  19.9508  24.8823  25.0847
    25.8539  26.1444  34.1339  34.1969  34.2422  34.2943  38.3586  38.4181
    38.4647

     the Fermi energy is    17.6518 ev

!    total energy              =    -691.24982540 Ry
     Harris-Foulkes estimate   =    -691.24982211 Ry
     estimated scf accuracy    <       0.00000060 Ry

     The total energy is the sum of the following terms:

     one-electron contribution =    -188.06553425 Ry
     hartree contribution      =     133.73219457 Ry
     xc contribution           =    -105.85273943 Ry
     ewald contribution        =    -531.05307781 Ry
     smearing contrib. (-TS)   =      -0.01066847 Ry

     convergence has been achieved in  14 iterations

     Forces acting on atoms (Ry/au):

     negative rho (up, down):  1.662E-01 0.000E+00
     atom    1 type  1   force =     0.00000000    0.00000000    0.00000000
     atom    2 type  1   force =     0.00000000    0.00000000    0.00000000
     atom    3 type  2   force =     0.00000000    0.00000000    0.00000000
     atom    4 type  2   force =     0.00000000    0.00000000    0.00000000

     Total force =     0.000000     Total SCF correction =     0.000000

     General routines

     Parallel routines

   This run was terminated on:   5:59:46  15Nov2017

   JOB DONE.