     Program PWSCF v.5.1rc2 starts on 15Nov2017 at  5:32:41

     Current dimensions of program PWSCF are:
     Max number of different atomic species (ntypx) = 10
     Max number of k-points (npk) =  40000
     Max angular momentum in pseudopotentials (lmaxx) =  3

     IMPORTANT: XC functional enforced from input :
     Exchange-correlation      = BEEF-VDW ( 1  4 27 13 2)
     Any further DFT definition will be discarded
     Please, verify this is what you really want

     Found symmetry operation: I + (  0.5000  0.5000  0.0000)
     This is a supercell, fractional translations are disabled

     bravais-lattice index     =            0
     lattice parameter (alat)  =       1.8897  a.u.
     unit-cell volume          =     764.3110 (a.u.)^3
     number of atoms/cell      =            4
     number of atomic types    =            2
     number of electrons       =        44.00
     number of Kohn-Sham states=           42
     kinetic-energy cutoff     =      58.7989  Ry
     charge density cutoff     =     587.9892  Ry
     convergence threshold     =      1.0E-06
     mixing beta               =       0.1000
     number of iterations used =           10  plain     mixing
     Exchange-correlation      = BEEF-VDW ( 1  4 27 13 2)

     celldm(1)=   1.889726  celldm(2)=   0.000000  celldm(3)=   0.000000
     celldm(4)=   0.000000  celldm(5)=   0.000000  celldm(6)=   0.000000

     crystal axes: (cart. coord. in units of alat)
               a(1) = (   4.936639   0.000000   0.000000 )
               a(2) = (   0.000000   4.936639   0.000000 )
               a(3) = (   0.000000   0.000000   4.647408 )

     reciprocal axes: (cart. coord. in units 2 pi/alat)
               b(1) = (  0.202567  0.000000  0.000000 )
               b(2) = (  0.000000  0.202567  0.000000 )
               b(3) = (  0.000000  0.000000  0.215174 )

     PseudoPot. # 1 for Sc read from file:
     /home/users/vossj/suncat/psp/gbrv1.5pbe/Sc.UPF
     MD5 check sum: db30a2753ba66ef00f23801d899b7e7f
     Pseudo is Ultrasoft + core correction, Zval = 11.0
     Generated by new atomic code, or converted to UPF format
     Using radial grid of  849 points,  6 beta functions with:
                l(1) =   0
                l(2) =   0
                l(3) =   1
                l(4) =   1
                l(5) =   2
                l(6) =   2
     Q(r) pseudized with  6 coefficients,  rinner =    1.200   1.200   1.200
                                                       1.200   1.200

     PseudoPot. # 2 for Y  read from file:
     /home/users/vossj/suncat/psp/gbrv1.5pbe/Y.UPF
     MD5 check sum: d034151ed7554c50b6e82763ed42c788
     Pseudo is Ultrasoft + core correction, Zval = 11.0
     Generated by new atomic code, or converted to UPF format
     Using radial grid of  885 points,  6 beta functions with:
                l(1) =   0
                l(2) =   0
                l(3) =   1
                l(4) =   1
                l(5) =   2
                l(6) =   2
     Q(r) pseudized with  8 coefficients,  rinner =    1.200   1.200   1.200
                                                       1.200   1.200

     vdW kernel table read from file vdW_kernel_table
     MD5 check sum: 095c7af220d748ca6e76c0b4c6cfb241

     atomic species   valence    mass     pseudopotential
        Sc1           11.00    44.95590     Sc( 1.00)
        Y1            11.00    88.90590     Y ( 1.00)

     16 Sym. Ops., with inversion, found

   Cartesian axes

     site n.     atom                  positions (alat units)
         1           Sc1 tau(   1) = (   0.0000000   0.0000000   0.0000000  )
         2           Sc1 tau(   2) = (   2.4683193   2.4683193   0.0000000  )
         3           Y1  tau(   3) = (   2.4683193   0.0000000   2.3237042  )
         4           Y1  tau(   4) = (   0.0000000   2.4683193   2.3237042  )

     number of k points=    75  Fermi-Dirac smearing, width (Ry)=  0.0073
                       cart. coord. in units 2pi/alat
        k(    1) = (   0.0000000   0.0000000   0.0000000), wk =   0.0027435
        k(    2) = (   0.0000000   0.0000000   0.0239082), wk =   0.0054870
        k(    3) = (   0.0000000   0.0000000   0.0478164), wk =   0.0054870
        k(    4) = (   0.0000000   0.0000000   0.0717246), wk =   0.0054870
        k(    5) = (   0.0000000   0.0000000   0.0956328), wk =   0.0054870
        k(    6) = (   0.0000000   0.0225074   0.0000000), wk =   0.0109739
        k(    7) = (   0.0000000   0.0225074   0.0239082), wk =   0.0219479
        k(    8) = (   0.0000000   0.0225074   0.0478164), wk =   0.0219479
        k(    9) = (   0.0000000   0.0225074   0.0717246), wk =   0.0219479
        k(   10) = (   0.0000000   0.0225074   0.0956328), wk =   0.0219479
        k(   11) = (   0.0000000   0.0450149   0.0000000), wk =   0.0109739
        k(   12) = (   0.0000000   0.0450149   0.0239082), wk =   0.0219479
        k(   13) = (   0.0000000   0.0450149   0.0478164), wk =   0.0219479
        k(   14) = (   0.0000000   0.0450149   0.0717246), wk =   0.0219479
        k(   15) = (   0.0000000   0.0450149   0.0956328), wk =   0.0219479
        k(   16) = (   0.0000000   0.0675223   0.0000000), wk =   0.0109739
        k(   17) = (   0.0000000   0.0675223   0.0239082), wk =   0.0219479
        k(   18) = (   0.0000000   0.0675223   0.0478164), wk =   0.0219479
        k(   19) = (   0.0000000   0.0675223   0.0717246), wk =   0.0219479
        k(   20) = (   0.0000000   0.0675223   0.0956328), wk =   0.0219479
        k(   21) = (   0.0000000   0.0900298   0.0000000), wk =   0.0109739
        k(   22) = (   0.0000000   0.0900298   0.0239082), wk =   0.0219479
        k(   23) = (   0.0000000   0.0900298   0.0478164), wk =   0.0219479
        k(   24) = (   0.0000000   0.0900298   0.0717246), wk =   0.0219479
        k(   25) = (   0.0000000   0.0900298   0.0956328), wk =   0.0219479
        k(   26) = (   0.0225074   0.0225074   0.0000000), wk =   0.0109739
        k(   27) = (   0.0225074   0.0225074   0.0239082), wk =   0.0219479
        k(   28) = (   0.0225074   0.0225074   0.0478164), wk =   0.0219479
        k(   29) = (   0.0225074   0.0225074   0.0717246), wk =   0.0219479
        k(   30) = (   0.0225074   0.0225074   0.0956328), wk =   0.0219479
        k(   31) = (   0.0225074   0.0450149   0.0000000), wk =   0.0219479
        k(   32) = (   0.0225074   0.0450149   0.0239082), wk =   0.0438957
        k(   33) = (   0.0225074   0.0450149   0.0478164), wk =   0.0438957
        k(   34) = (   0.0225074   0.0450149   0.0717246), wk =   0.0438957
        k(   35) = (   0.0225074   0.0450149   0.0956328), wk =   0.0438957
        k(   36) = (   0.0225074   0.0675223   0.0000000), wk =   0.0219479
        k(   37) = (   0.0225074   0.0675223   0.0239082), wk =   0.0438957
        k(   38) = (   0.0225074   0.0675223   0.0478164), wk =   0.0438957
        k(   39) = (   0.0225074   0.0675223   0.0717246), wk =   0.0438957
        k(   40) = (   0.0225074   0.0675223   0.0956328), wk =   0.0438957
        k(   41) = (   0.0225074   0.0900298   0.0000000), wk =   0.0219479
        k(   42) = (   0.0225074   0.0900298   0.0239082), wk =   0.0438957
        k(   43) = (   0.0225074   0.0900298   0.0478164), wk =   0.0438957
        k(   44) = (   0.0225074   0.0900298   0.0717246), wk =   0.0438957
        k(   45) = (   0.0225074   0.0900298   0.0956328), wk =   0.0438957
        k(   46) = (   0.0450149   0.0450149   0.0000000), wk =   0.0109739
        k(   47) = (   0.0450149   0.0450149   0.0239082), wk =   0.0219479
        k(   48) = (   0.0450149   0.0450149   0.0478164), wk =   0.0219479
        k(   49) = (   0.0450149   0.0450149   0.0717246), wk =   0.0219479
        k(   50) = (   0.0450149   0.0450149   0.0956328), wk =   0.0219479
        k(   51) = (   0.0450149   0.0675223   0.0000000), wk =   0.0219479
        k(   52) = (   0.0450149   0.0675223   0.0239082), wk =   0.0438957
        k(   53) = (   0.0450149   0.0675223   0.0478164), wk =   0.0438957
        k(   54) = (   0.0450149   0.0675223   0.0717246), wk =   0.0438957
        k(   55) = (   0.0450149   0.0675223   0.0956328), wk =   0.0438957
        k(   56) = (   0.0450149   0.0900298   0.0000000), wk =   0.0219479
        k(   57) = (   0.0450149   0.0900298   0.0239082), wk =   0.0438957
        k(   58) = (   0.0450149   0.0900298   0.0478164), wk =   0.0438957
        k(   59) = (   0.0450149   0.0900298   0.0717246), wk =   0.0438957
        k(   60) = (   0.0450149   0.0900298   0.0956328), wk =   0.0438957
        k(   61) = (   0.0675223   0.0675223   0.0000000), wk =   0.0109739
        k(   62) = (   0.0675223   0.0675223   0.0239082), wk =   0.0219479
        k(   63) = (   0.0675223   0.0675223   0.0478164), wk =   0.0219479
        k(   64) = (   0.0675223   0.0675223   0.0717246), wk =   0.0219479
        k(   65) = (   0.0675223   0.0675223   0.0956328), wk =   0.0219479
        k(   66) = (   0.0675223   0.0900298   0.0000000), wk =   0.0219479
        k(   67) = (   0.0675223   0.0900298   0.0239082), wk =   0.0438957
        k(   68) = (   0.0675223   0.0900298   0.0478164), wk =   0.0438957
        k(   69) = (   0.0675223   0.0900298   0.0717246), wk =   0.0438957
        k(   70) = (   0.0675223   0.0900298   0.0956328), wk =   0.0438957
        k(   71) = (   0.0900298   0.0900298   0.0000000), wk =   0.0109739
        k(   72) = (   0.0900298   0.0900298   0.0239082), wk =   0.0219479
        k(   73) = (   0.0900298   0.0900298   0.0478164), wk =   0.0219479
        k(   74) = (   0.0900298   0.0900298   0.0717246), wk =   0.0219479
        k(   75) = (   0.0900298   0.0900298   0.0956328), wk =   0.0219479

     Largest allocated arrays     est. size (Mb)     dimensions
     Largest temporary arrays     est. size (Mb)     dimensions

     Initial potential from superposition of free atoms

     starting charge   43.98626, renormalised to   44.00000

     *
     * You are using vdW-DF for exchange-correlation in this calculation.
     * Please cite the following three references that made this development
     * possible:
     *
     *   M. Dion, H. Rydberg, E. Schroder, D. C. Langreth, and
     *   B. I. Lundqvist, Phys. Rev. Lett. 92, 246401 (2004).
     *
     *   T. Thonhauser, V. R. Cooper, S. Li, A. Puzder, P. Hyldgaard, and
     *   D. C. Langreth, Phys. Rev. B 76, 125112 (2007).
     *
     *   G. Roman-Perez and J. M. Soler, Phys. Rev. Lett. 103, 096102 (2009).
     *
     *
     * If you are using vdW-DF2, please also cite:
     *
     *   K. Lee, E. D. Murray, L. Kong, B. I. Lundqvist, and
     *   D. C. Langreth, Phys. Rev. B 82, 081101(R) (2010).
     *
     *
     * If you are calculating the stress with vdW-DF, please also cite:
     *
     *   R. Sabatini, E. Kucukbenli, B. Kolb, T. Thonhauser, and
     *   S. de Gironcoli, J. Phys.: Condens. Matter 24, 424209 (2012).
     *

     Carrying out vdW-DF run using the following parameters:

     Nqs =      20    Nr_points =    1024   r_max =   100.000
     q_mesh =
               0.00001000     0.04494208     0.09755937     0.15916263
               0.23128650     0.31572767     0.41458969     0.53033537
               0.66584808     0.82450364     1.01025438     1.22772762
               1.48234092     1.78043706     2.12944203     2.53805004
               3.01644009     3.57652955     4.23227104     5.00000000

     Gradients computed in reciprocal space

     Starting wfc are   52 randomized atomic wfcs

     Self-consistent Calculation

     iteration #  1     ecut=    58.80 Ry     beta=0.10
     Davidson diagonalization with overlap
     ethr =  1.00E-02,  avg # of iterations =  2.8

     Threshold (ethr) on eigenvalues was too large:
     Diagonalizing with lowered threshold

     Davidson diagonalization with overlap
     ethr =  2.43E-05,  avg # of iterations =  5.0

     total energy              =    -377.09339745 Ry
     Harris-Foulkes estimate   =    -377.09352242 Ry
     estimated scf accuracy    <       0.01355965 Ry

[...]

     total energy              =    -377.09478728 Ry
     Harris-Foulkes estimate   =    -377.09478489 Ry
     estimated scf accuracy    <       0.00001237 Ry

     iteration # 10     ecut=    58.80 Ry     beta=0.10
     Davidson diagonalization with overlap
     ethr =  2.81E-08,  avg # of iterations =  2.6

     End of self-consistent calculation

          k = 0.0000 0.0000 0.0000 (  5841 PWs)   bands (ev):

   -40.5023 -40.4860 -33.2595 -33.2006 -19.1147 -19.1090 -19.1090 -19.0879
   -19.0138 -19.0138 -13.3695 -13.3695 -13.2129 -13.1373 -13.0405 -13.0405
     4.5098   7.4499   7.8043   7.9995   8.5205   8.7074   8.7074  10.8183
    10.8183  11.1595  11.1595  11.2679  11.9840  11.9959  12.6852  12.7132
    12.9392  14.0878  14.0878  14.1158  14.3083  14.3083  14.4594  15.4937
    17.0922  17.3443

[...]

          k = 0.0900 0.0900 0.0956 (  5806 PWs)   bands (ev):

   -40.4941 -40.4936 -33.2302 -33.2284 -19.1220 -19.1192 -19.1073 -19.1067
   -19.0068 -19.0039 -13.4133 -13.4037 -13.1919 -13.1892 -13.0188 -13.0084
     7.3180   7.3845   7.7343   7.8066   9.6784   9.6826   9.9326   9.9733
    10.5789  10.5909  10.6230  10.6628  10.8347  10.8715  11.3723  11.4219
    12.7584  12.7779  13.7239  13.8013  14.2471  14.2601  14.2759  14.3581
    16.9108  16.9186

     the Fermi energy is     9.3783 ev

!    total energy              =    -377.09483250 Ry
     Harris-Foulkes estimate   =    -377.09478914 Ry
     estimated scf accuracy    <       0.00000004 Ry

     The total energy is the sum of the following terms:

     one-electron contribution =    -119.91497271 Ry
     hartree contribution      =      69.86954063 Ry
     xc contribution           =     -84.33455811 Ry
     ewald contribution        =    -242.69756532 Ry
     smearing contrib. (-TS)   =      -0.01727700 Ry

     convergence has been achieved in  10 iterations

     Forces acting on atoms (Ry/au):

     atom    1 type  1   force =     0.00000000    0.00000000    0.00000000
     atom    2 type  1   force =     0.00000000    0.00000000    0.00000000
     atom    3 type  2   force =     0.00000000    0.00000000    0.00000000
     atom    4 type  2   force =     0.00000000    0.00000000    0.00000000

     Total force =     0.000000     Total SCF correction =     0.000000

     General routines

     Parallel routines

   This run was terminated on:   5:33:24  15Nov2017

   JOB DONE.