     Program PWSCF v.5.1rc2 starts on 15Nov2017 at  6:52:46

     Current dimensions of program PWSCF are:
     Max number of different atomic species (ntypx) = 10
     Max number of k-points (npk) =  40000
     Max angular momentum in pseudopotentials (lmaxx) =  3

     IMPORTANT: XC functional enforced from input :
     Exchange-correlation      = BEEF-VDW ( 1  4 27 13 2)
     Any further DFT definition will be discarded
     Please, verify this is what you really want

     Found symmetry operation: I + ( -0.5000 -0.5000  0.0000)
     This is a supercell, fractional translations are disabled

     bravais-lattice index     =            0
     lattice parameter (alat)  =       1.8897  a.u.
     unit-cell volume          =     344.4046 (a.u.)^3
     number of atoms/cell      =            4
     number of atomic types    =            2
     number of electrons       =        64.00
     number of Kohn-Sham states=           52
     kinetic-energy cutoff     =      58.7989  Ry
     charge density cutoff     =     587.9892  Ry
     convergence threshold     =      1.0E-06
     mixing beta               =       0.1000
     number of iterations used =           10  plain     mixing
     Exchange-correlation      = BEEF-VDW ( 1  4 27 13 2)

     celldm(1)=   1.889726  celldm(2)=   0.000000  celldm(3)=   0.000000
     celldm(4)=   0.000000  celldm(5)=   0.000000  celldm(6)=   0.000000

     crystal axes: (cart. coord. in units of alat)
               a(1) = (   3.522306   0.000000   0.000000 )
               a(2) = (   0.000000   3.522306   0.000000 )
               a(3) = (   0.000000   0.000000   4.113564 )

     reciprocal axes: (cart. coord. in units 2 pi/alat)
               b(1) = (  0.283905  0.000000  0.000000 )
               b(2) = (  0.000000  0.283905  0.000000 )
               b(3) = (  0.000000  0.000000  0.243098 )

     PseudoPot. # 1 for V  read from file:
     /home/users/vossj/suncat/psp/gbrv1.5pbe/V.UPF
     MD5 check sum: 22b79981416ebb76fdaf5b1b8640f6fb
     Pseudo is Ultrasoft + core correction, Zval = 13.0
     Generated by new atomic code, or converted to UPF format
     Using radial grid of  853 points,  6 beta functions with:
                l(1) =   0
                l(2) =   0
                l(3) =   1
                l(4) =   1
                l(5) =   2
                l(6) =   2
     Q(r) pseudized with  8 coefficients,  rinner =    1.100   1.100   1.100
                                                       1.100   1.100

     PseudoPot. # 2 for Cu read from file:
     /home/users/vossj/suncat/psp/gbrv1.5pbe/Cu.UPF
     MD5 check sum: 6e991ff952a84172a2a52a1c1e996048
     Pseudo is Ultrasoft + core correction, Zval = 19.0
     Generated by new atomic code, or converted to UPF format
     Using radial grid of  867 points,  6 beta functions with:
                l(1) =   0
                l(2) =   0
                l(3) =   1
                l(4) =   1
                l(5) =   2
                l(6) =   2
     Q(r) pseudized with  8 coefficients,  rinner =    1.150   1.150   1.150
                                                       1.150   1.150

     vdW kernel table read from file vdW_kernel_table
     MD5 check sum: 095c7af220d748ca6e76c0b4c6cfb241

     atomic species   valence    mass     pseudopotential
        V1            13.00    50.94150     V ( 1.00)
        Cu1           19.00    63.54600     Cu( 1.00)

     16 Sym. Ops., with inversion, found

   Cartesian axes

     site n.     atom                  positions (alat units)
         1           V1  tau(   1) = (   0.0000000   0.0000000   0.0000000  )
         2           V1  tau(   2) = (   1.7611529   1.7611529   0.0000000  )
         3           Cu1 tau(   3) = (   1.7611529   0.0000000   2.0567820  )
         4           Cu1 tau(   4) = (   0.0000000   1.7611529   2.0567820  )

     number of k points=    75  Fermi-Dirac smearing, width (Ry)=  0.0073
                       cart. coord. in units 2pi/alat
        k(    1) = (   0.0000000   0.0000000   0.0000000), wk =   0.0027435
        k(    2) = (   0.0000000   0.0000000   0.0270109), wk =   0.0054870
        k(    3) = (   0.0000000   0.0000000   0.0540218), wk =   0.0054870
        k(    4) = (   0.0000000   0.0000000   0.0810327), wk =   0.0054870
        k(    5) = (   0.0000000   0.0000000   0.1080436), wk =   0.0054870
        k(    6) = (   0.0000000   0.0315450   0.0000000), wk =   0.0109739
        k(    7) = (   0.0000000   0.0315450   0.0270109), wk =   0.0219479
        k(    8) = (   0.0000000   0.0315450   0.0540218), wk =   0.0219479
        k(    9) = (   0.0000000   0.0315450   0.0810327), wk =   0.0219479
        k(   10) = (   0.0000000   0.0315450   0.1080436), wk =   0.0219479
        k(   11) = (   0.0000000   0.0630900   0.0000000), wk =   0.0109739
        k(   12) = (   0.0000000   0.0630900   0.0270109), wk =   0.0219479
        k(   13) = (   0.0000000   0.0630900   0.0540218), wk =   0.0219479
        k(   14) = (   0.0000000   0.0630900   0.0810327), wk =   0.0219479
        k(   15) = (   0.0000000   0.0630900   0.1080436), wk =   0.0219479
        k(   16) = (   0.0000000   0.0946350   0.0000000), wk =   0.0109739
        k(   17) = (   0.0000000   0.0946350   0.0270109), wk =   0.0219479
        k(   18) = (   0.0000000   0.0946350   0.0540218), wk =   0.0219479
        k(   19) = (   0.0000000   0.0946350   0.0810327), wk =   0.0219479
        k(   20) = (   0.0000000   0.0946350   0.1080436), wk =   0.0219479
        k(   21) = (   0.0000000   0.1261800   0.0000000), wk =   0.0109739
        k(   22) = (   0.0000000   0.1261800   0.0270109), wk =   0.0219479
        k(   23) = (   0.0000000   0.1261800   0.0540218), wk =   0.0219479
        k(   24) = (   0.0000000   0.1261800   0.0810327), wk =   0.0219479
        k(   25) = (   0.0000000   0.1261800   0.1080436), wk =   0.0219479
        k(   26) = (   0.0315450   0.0315450   0.0000000), wk =   0.0109739
        k(   27) = (   0.0315450   0.0315450   0.0270109), wk =   0.0219479
        k(   28) = (   0.0315450   0.0315450   0.0540218), wk =   0.0219479
        k(   29) = (   0.0315450   0.0315450   0.0810327), wk =   0.0219479
        k(   30) = (   0.0315450   0.0315450   0.1080436), wk =   0.0219479
        k(   31) = (   0.0315450   0.0630900   0.0000000), wk =   0.0219479
        k(   32) = (   0.0315450   0.0630900   0.0270109), wk =   0.0438957
        k(   33) = (   0.0315450   0.0630900   0.0540218), wk =   0.0438957
        k(   34) = (   0.0315450   0.0630900   0.0810327), wk =   0.0438957
        k(   35) = (   0.0315450   0.0630900   0.1080436), wk =   0.0438957
        k(   36) = (   0.0315450   0.0946350   0.0000000), wk =   0.0219479
        k(   37) = (   0.0315450   0.0946350   0.0270109), wk =   0.0438957
        k(   38) = (   0.0315450   0.0946350   0.0540218), wk =   0.0438957
        k(   39) = (   0.0315450   0.0946350   0.0810327), wk =   0.0438957
        k(   40) = (   0.0315450   0.0946350   0.1080436), wk =   0.0438957
        k(   41) = (   0.0315450   0.1261800   0.0000000), wk =   0.0219479
        k(   42) = (   0.0315450   0.1261800   0.0270109), wk =   0.0438957
        k(   43) = (   0.0315450   0.1261800   0.0540218), wk =   0.0438957
        k(   44) = (   0.0315450   0.1261800   0.0810327), wk =   0.0438957
        k(   45) = (   0.0315450   0.1261800   0.1080436), wk =   0.0438957
        k(   46) = (   0.0630900   0.0630900   0.0000000), wk =   0.0109739
        k(   47) = (   0.0630900   0.0630900   0.0270109), wk =   0.0219479
        k(   48) = (   0.0630900   0.0630900   0.0540218), wk =   0.0219479
        k(   49) = (   0.0630900   0.0630900   0.0810327), wk =   0.0219479
        k(   50) = (   0.0630900   0.0630900   0.1080436), wk =   0.0219479
        k(   51) = (   0.0630900   0.0946350   0.0000000), wk =   0.0219479
        k(   52) = (   0.0630900   0.0946350   0.0270109), wk =   0.0438957
        k(   53) = (   0.0630900   0.0946350   0.0540218), wk =   0.0438957
        k(   54) = (   0.0630900   0.0946350   0.0810327), wk =   0.0438957
        k(   55) = (   0.0630900   0.0946350   0.1080436), wk =   0.0438957
        k(   56) = (   0.0630900   0.1261800   0.0000000), wk =   0.0219479
        k(   57) = (   0.0630900   0.1261800   0.0270109), wk =   0.0438957
        k(   58) = (   0.0630900   0.1261800   0.0540218), wk =   0.0438957
        k(   59) = (   0.0630900   0.1261800   0.0810327), wk =   0.0438957
        k(   60) = (   0.0630900   0.1261800   0.1080436), wk =   0.0438957
        k(   61) = (   0.0946350   0.0946350   0.0000000), wk =   0.0109739
        k(   62) = (   0.0946350   0.0946350   0.0270109), wk =   0.0219479
        k(   63) = (   0.0946350   0.0946350   0.0540218), wk =   0.0219479
        k(   64) = (   0.0946350   0.0946350   0.0810327), wk =   0.0219479
        k(   65) = (   0.0946350   0.0946350   0.1080436), wk =   0.0219479
        k(   66) = (   0.0946350   0.1261800   0.0000000), wk =   0.0219479
        k(   67) = (   0.0946350   0.1261800   0.0270109), wk =   0.0438957
        k(   68) = (   0.0946350   0.1261800   0.0540218), wk =   0.0438957
        k(   69) = (   0.0946350   0.1261800   0.0810327), wk =   0.0438957
        k(   70) = (   0.0946350   0.1261800   0.1080436), wk =   0.0438957
        k(   71) = (   0.1261800   0.1261800   0.0000000), wk =   0.0109739
        k(   72) = (   0.1261800   0.1261800   0.0270109), wk =   0.0219479
        k(   73) = (   0.1261800   0.1261800   0.0540218), wk =   0.0219479
        k(   74) = (   0.1261800   0.1261800   0.0810327), wk =   0.0219479
        k(   75) = (   0.1261800   0.1261800   0.1080436), wk =   0.0219479

     Largest allocated arrays     est. size (Mb)     dimensions
     Largest temporary arrays     est. size (Mb)     dimensions

     Check: negative/imaginary core charge=   -0.000002    0.000000

     Initial potential from superposition of free atoms
     Check: negative starting charge=   -0.000808

     starting charge   61.99754, renormalised to   64.00000

     negative rho (up, down):  8.340E-04 0.000E+00

     *
     * You are using vdW-DF for exchange-correlation in this calculation.
     * Please cite the following three references that made this development
     * possible:
     *
     *   M. Dion, H. Rydberg, E. Schroder, D. C. Langreth, and
     *   B. I. Lundqvist, Phys. Rev. Lett. 92, 246401 (2004).
     *
     *   T. Thonhauser, V. R. Cooper, S. Li, A. Puzder, P. Hyldgaard, and
     *   D. C. Langreth, Phys. Rev. B 76, 125112 (2007).
     *
     *   G. Roman-Perez and J. M. Soler, Phys. Rev. Lett. 103, 096102 (2009).
     *
     *
     * If you are using vdW-DF2, please also cite:
     *
     *   K. Lee, E. D. Murray, L. Kong, B. I. Lundqvist, and
     *   D. C. Langreth, Phys. Rev. B 82, 081101(R) (2010).
     *
     *
     * If you are calculating the stress with vdW-DF, please also cite:
     *
     *   R. Sabatini, E. Kucukbenli, B. Kolb, T. Thonhauser, and
     *   S. de Gironcoli, J. Phys.: Condens. Matter 24, 424209 (2012).
     *

     Carrying out vdW-DF run using the following parameters:

     Nqs =      20    Nr_points =    1024   r_max =   100.000
     q_mesh =
               0.00001000     0.04494208     0.09755937     0.15916263
               0.23128650     0.31572767     0.41458969     0.53033537
               0.66584808     0.82450364     1.01025438     1.22772762
               1.48234092     1.78043706     2.12944203     2.53805004
               3.01644009     3.57652955     4.23227104     5.00000000

     Gradients computed in reciprocal space

     Starting wfc are   46 randomized atomic wfcs +    6 random wfc

     Self-consistent Calculation

     iteration #  1     ecut=    58.80 Ry     beta=0.10
     Davidson diagonalization with overlap
     ethr =  1.00E-02,  avg # of iterations =  4.1

[...]

     total energy              =   -1101.69242127 Ry
     Harris-Foulkes estimate   =   -1102.14878111 Ry
     estimated scf accuracy    <       2.70826732 Ry

[...]

     total energy              =   -1101.47439039 Ry
     Harris-Foulkes estimate   =   -1101.47438898 Ry
     estimated scf accuracy    <       0.00000465 Ry

     iteration # 13     ecut=    58.80 Ry     beta=0.10
     Davidson diagonalization with overlap
     ethr =  7.26E-09,  avg # of iterations =  2.1

     negative rho (up, down):  1.237E-03 0.000E+00

     End of self-consistent calculation

          k = 0.0000 0.0000 0.0000 (  2639 PWs)   bands (ev):

   -97.0180 -97.0049 -54.4065 -54.4065 -54.4062 -54.3928 -54.3393 -54.3393
   -48.1334 -47.8777 -22.1564 -22.1564 -21.9951 -21.7913 -21.4205 -21.4205
     7.9148  11.3524  11.4679  11.7241  11.7935  11.9414  11.9414  13.3564
    13.3564  13.8748  14.3700  14.4493  14.8537  14.9120  16.5889  16.6723
    16.6723  17.9435  18.3175  18.3175  19.2709  19.5685  19.5685  20.3320
    23.7214  25.9076  26.5445  27.0615  29.5931  29.5931  30.6279  31.6555
    31.6555  34.0995  34.0995  35.3001

[...]

          k = 0.1262 0.1262 0.1080 (  2643 PWs)   bands (ev):

   -97.0116 -97.0112 -54.4136 -54.4116 -54.3997 -54.3992 -54.3356 -54.3336
   -48.0066 -47.9989 -22.2778 -22.2565 -21.8960 -21.8897 -21.3688 -21.3457
    11.2315  11.3198  11.6009  11.6137  12.5740  12.5971  13.1138  13.2185
    13.4508  13.4886  14.5340  14.9587  15.0956  15.1211  15.5508  15.8649
    16.2789  16.5898  17.6861  18.0625  18.1068  18.1481  18.4827  18.5574
    21.7841  22.0173  24.4872  24.7637  31.9607  32.1334  33.9042  34.1557
    36.9245  37.7267  38.1308  38.2991

     the Fermi energy is    16.1248 ev

!    total energy              =   -1101.47440414 Ry
     Harris-Foulkes estimate   =   -1101.47439117 Ry
     estimated scf accuracy    <       0.00000002 Ry

     The total energy is the sum of the following terms:

     one-electron contribution =    -674.76354505 Ry
     hartree contribution      =     373.09551861 Ry
     xc contribution           =    -120.86207540 Ry
     ewald contribution        =    -678.93275079 Ry
     smearing contrib. (-TS)   =      -0.01155151 Ry

     convergence has been achieved in  13 iterations

     Forces acting on atoms (Ry/au):

     negative rho (up, down):  1.237E-03 0.000E+00
     atom    1 type  1   force =     0.00000000    0.00000000    0.00000000
     atom    2 type  1   force =     0.00000000    0.00000000    0.00000000
     atom    3 type  2   force =     0.00000000    0.00000000    0.00000000
     atom    4 type  2   force =     0.00000000    0.00000000    0.00000000

     Total force =     0.000000     Total SCF correction =     0.000000

     General routines

     Parallel routines

   This run was terminated on:   6:53:23  15Nov2017

   JOB DONE.