     Program PWSCF v.5.1rc2 starts on 15Nov2017 at  3:53:30

     Current dimensions of program PWSCF are:
     Max number of different atomic species (ntypx) = 10
     Max number of k-points (npk) =  40000
     Max angular momentum in pseudopotentials (lmaxx) =  3

     IMPORTANT: XC functional enforced from input :
     Exchange-correlation      = BEEF-VDW ( 1  4 27 13 2)
     Any further DFT definition will be discarded
     Please, verify this is what you really want

     Found symmetry operation: I + (  0.5000  0.5000  0.0000)
     This is a supercell, fractional translations are disabled

     bravais-lattice index     =            0
     lattice parameter (alat)  =       1.8897  a.u.
     unit-cell volume          =     538.0288 (a.u.)^3
     number of atoms/cell      =            4
     number of atomic types    =            2
     number of electrons       =        54.00
     number of Kohn-Sham states=           47
     kinetic-energy cutoff     =      58.7989  Ry
     charge density cutoff     =     587.9892  Ry
     convergence threshold     =      1.0E-06
     mixing beta               =       0.1000
     number of iterations used =           10  plain     mixing
     Exchange-correlation      = BEEF-VDW ( 1  4 27 13 2)

     celldm(1)=   1.889726  celldm(2)=   0.000000  celldm(3)=   0.000000
     celldm(4)=   0.000000  celldm(5)=   0.000000  celldm(6)=   0.000000

     crystal axes: (cart. coord. in units of alat)
               a(1) = (   4.834623   0.000000   0.000000 )
               a(2) = (   0.000000   4.834623   0.000000 )
               a(3) = (   0.000000   0.000000   3.411016 )

     reciprocal axes: (cart. coord. in units 2 pi/alat)
               b(1) = (  0.206841  0.000000  0.000000 )
               b(2) = (  0.000000  0.206841  0.000000 )
               b(3) = (  0.000000  0.000000  0.293168 )

     PseudoPot. # 1 for Ru read from file:
     /home/users/vossj/suncat/psp/gbrv1.5pbe/Ru.UPF
     MD5 check sum: 7158a806dd851261a58e6920c40ebe78
     Pseudo is Ultrasoft + core correction, Zval = 16.0
     Generated by new atomic code, or converted to UPF format
     Using radial grid of  967 points,  6 beta functions with:
                l(1) =   0
                l(2) =   0
                l(3) =   1
                l(4) =   1
                l(5) =   2
                l(6) =   2
     Q(r) pseudized with  8 coefficients,  rinner =    1.300   1.300   1.300
                                                       1.300   1.300

     PseudoPot. # 2 for Y  read from file:
     /home/users/vossj/suncat/psp/gbrv1.5pbe/Y.UPF
     MD5 check sum: d034151ed7554c50b6e82763ed42c788
     Pseudo is Ultrasoft + core correction, Zval = 11.0
     Generated by new atomic code, or converted to UPF format
     Using radial grid of  885 points,  6 beta functions with:
                l(1) =   0
                l(2) =   0
                l(3) =   1
                l(4) =   1
                l(5) =   2
                l(6) =   2
     Q(r) pseudized with  8 coefficients,  rinner =    1.200   1.200   1.200
                                                       1.200   1.200

     vdW kernel table read from file vdW_kernel_table
     MD5 check sum: 095c7af220d748ca6e76c0b4c6cfb241

     atomic species   valence    mass     pseudopotential
        Ru1           16.00   101.07000     Ru( 1.00)
        Y1            11.00    88.90590     Y ( 1.00)

     16 Sym. Ops., with inversion, found

   Cartesian axes

     site n.     atom                  positions (alat units)
         1           Ru1 tau(   1) = (   0.0000000   0.0000000   0.0000000  )
         2           Ru1 tau(   2) = (   2.4173113   2.4173113   0.0000000  )
         3           Y1  tau(   3) = (   2.4173113   0.0000000   1.7055080  )
         4           Y1  tau(   4) = (   0.0000000   2.4173113   1.7055080  )

     number of k points=    75  Fermi-Dirac smearing, width (Ry)=  0.0073
                       cart. coord. in units 2pi/alat
        k(    1) = (   0.0000000   0.0000000   0.0000000), wk =   0.0027435
        k(    2) = (   0.0000000   0.0000000   0.0325742), wk =   0.0054870
        k(    3) = (   0.0000000   0.0000000   0.0651484), wk =   0.0054870
        k(    4) = (   0.0000000   0.0000000   0.0977226), wk =   0.0054870
        k(    5) = (   0.0000000   0.0000000   0.1302968), wk =   0.0054870
        k(    6) = (   0.0000000   0.0229824   0.0000000), wk =   0.0109739
        k(    7) = (   0.0000000   0.0229824   0.0325742), wk =   0.0219479
        k(    8) = (   0.0000000   0.0229824   0.0651484), wk =   0.0219479
        k(    9) = (   0.0000000   0.0229824   0.0977226), wk =   0.0219479
        k(   10) = (   0.0000000   0.0229824   0.1302968), wk =   0.0219479
        k(   11) = (   0.0000000   0.0459647   0.0000000), wk =   0.0109739
        k(   12) = (   0.0000000   0.0459647   0.0325742), wk =   0.0219479
        k(   13) = (   0.0000000   0.0459647   0.0651484), wk =   0.0219479
        k(   14) = (   0.0000000   0.0459647   0.0977226), wk =   0.0219479
        k(   15) = (   0.0000000   0.0459647   0.1302968), wk =   0.0219479
        k(   16) = (   0.0000000   0.0689471   0.0000000), wk =   0.0109739
        k(   17) = (   0.0000000   0.0689471   0.0325742), wk =   0.0219479
        k(   18) = (   0.0000000   0.0689471   0.0651484), wk =   0.0219479
        k(   19) = (   0.0000000   0.0689471   0.0977226), wk =   0.0219479
        k(   20) = (   0.0000000   0.0689471   0.1302968), wk =   0.0219479
        k(   21) = (   0.0000000   0.0919295   0.0000000), wk =   0.0109739
        k(   22) = (   0.0000000   0.0919295   0.0325742), wk =   0.0219479
        k(   23) = (   0.0000000   0.0919295   0.0651484), wk =   0.0219479
        k(   24) = (   0.0000000   0.0919295   0.0977226), wk =   0.0219479
        k(   25) = (   0.0000000   0.0919295   0.1302968), wk =   0.0219479
        k(   26) = (   0.0229824   0.0229824   0.0000000), wk =   0.0109739
        k(   27) = (   0.0229824   0.0229824   0.0325742), wk =   0.0219479
        k(   28) = (   0.0229824   0.0229824   0.0651484), wk =   0.0219479
        k(   29) = (   0.0229824   0.0229824   0.0977226), wk =   0.0219479
        k(   30) = (   0.0229824   0.0229824   0.1302968), wk =   0.0219479
        k(   31) = (   0.0229824   0.0459647   0.0000000), wk =   0.0219479
        k(   32) = (   0.0229824   0.0459647   0.0325742), wk =   0.0438957
        k(   33) = (   0.0229824   0.0459647   0.0651484), wk =   0.0438957
        k(   34) = (   0.0229824   0.0459647   0.0977226), wk =   0.0438957
        k(   35) = (   0.0229824   0.0459647   0.1302968), wk =   0.0438957
        k(   36) = (   0.0229824   0.0689471   0.0000000), wk =   0.0219479
        k(   37) = (   0.0229824   0.0689471   0.0325742), wk =   0.0438957
        k(   38) = (   0.0229824   0.0689471   0.0651484), wk =   0.0438957
        k(   39) = (   0.0229824   0.0689471   0.0977226), wk =   0.0438957
        k(   40) = (   0.0229824   0.0689471   0.1302968), wk =   0.0438957
        k(   41) = (   0.0229824   0.0919295   0.0000000), wk =   0.0219479
        k(   42) = (   0.0229824   0.0919295   0.0325742), wk =   0.0438957
        k(   43) = (   0.0229824   0.0919295   0.0651484), wk =   0.0438957
        k(   44) = (   0.0229824   0.0919295   0.0977226), wk =   0.0438957
        k(   45) = (   0.0229824   0.0919295   0.1302968), wk =   0.0438957
        k(   46) = (   0.0459647   0.0459647   0.0000000), wk =   0.0109739
        k(   47) = (   0.0459647   0.0459647   0.0325742), wk =   0.0219479
        k(   48) = (   0.0459647   0.0459647   0.0651484), wk =   0.0219479
        k(   49) = (   0.0459647   0.0459647   0.0977226), wk =   0.0219479
        k(   50) = (   0.0459647   0.0459647   0.1302968), wk =   0.0219479
        k(   51) = (   0.0459647   0.0689471   0.0000000), wk =   0.0219479
        k(   52) = (   0.0459647   0.0689471   0.0325742), wk =   0.0438957
        k(   53) = (   0.0459647   0.0689471   0.0651484), wk =   0.0438957
        k(   54) = (   0.0459647   0.0689471   0.0977226), wk =   0.0438957
        k(   55) = (   0.0459647   0.0689471   0.1302968), wk =   0.0438957
        k(   56) = (   0.0459647   0.0919295   0.0000000), wk =   0.0219479
        k(   57) = (   0.0459647   0.0919295   0.0325742), wk =   0.0438957
        k(   58) = (   0.0459647   0.0919295   0.0651484), wk =   0.0438957
        k(   59) = (   0.0459647   0.0919295   0.0977226), wk =   0.0438957
        k(   60) = (   0.0459647   0.0919295   0.1302968), wk =   0.0438957
        k(   61) = (   0.0689471   0.0689471   0.0000000), wk =   0.0109739
        k(   62) = (   0.0689471   0.0689471   0.0325742), wk =   0.0219479
        k(   63) = (   0.0689471   0.0689471   0.0651484), wk =   0.0219479
        k(   64) = (   0.0689471   0.0689471   0.0977226), wk =   0.0219479
        k(   65) = (   0.0689471   0.0689471   0.1302968), wk =   0.0219479
        k(   66) = (   0.0689471   0.0919295   0.0000000), wk =   0.0219479
        k(   67) = (   0.0689471   0.0919295   0.0325742), wk =   0.0438957
        k(   68) = (   0.0689471   0.0919295   0.0651484), wk =   0.0438957
        k(   69) = (   0.0689471   0.0919295   0.0977226), wk =   0.0438957
        k(   70) = (   0.0689471   0.0919295   0.1302968), wk =   0.0438957
        k(   71) = (   0.0919295   0.0919295   0.0000000), wk =   0.0109739
        k(   72) = (   0.0919295   0.0919295   0.0325742), wk =   0.0219479
        k(   73) = (   0.0919295   0.0919295   0.0651484), wk =   0.0219479
        k(   74) = (   0.0919295   0.0919295   0.0977226), wk =   0.0219479
        k(   75) = (   0.0919295   0.0919295   0.1302968), wk =   0.0219479

     Largest allocated arrays     est. size (Mb)     dimensions
     Largest temporary arrays     est. size (Mb)     dimensions

     Initial potential from superposition of free atoms
     Check: negative starting charge=   -0.149809

     starting charge   51.99103, renormalised to   54.00000

     negative rho (up, down):  1.556E-01 0.000E+00

     *
     * You are using vdW-DF for exchange-correlation in this calculation.
     * Please cite the following three references that made this development
     * possible:
     *
     *   M. Dion, H. Rydberg, E. Schroder, D. C. Langreth, and
     *   B. I. Lundqvist, Phys. Rev. Lett. 92, 246401 (2004).
     *
     *   T. Thonhauser, V. R. Cooper, S. Li, A. Puzder, P. Hyldgaard, and
     *   D. C. Langreth, Phys. Rev. B 76, 125112 (2007).
     *
     *   G. Roman-Perez and J. M. Soler, Phys. Rev. Lett. 103, 096102 (2009).
     *
     *
     * If you are using vdW-DF2, please also cite:
     *
     *   K. Lee, E. D. Murray, L. Kong, B. I. Lundqvist, and
     *   D. C. Langreth, Phys. Rev. B 82, 081101(R) (2010).
     *
     *
     * If you are calculating the stress with vdW-DF, please also cite:
     *
     *   R. Sabatini, E. Kucukbenli, B. Kolb, T. Thonhauser, and
     *   S. de Gironcoli, J. Phys.: Condens. Matter 24, 424209 (2012).
     *

     Carrying out vdW-DF run using the following parameters:

     Nqs =      20    Nr_points =    1024   r_max =   100.000
     q_mesh =
               0.00001000     0.04494208     0.09755937     0.15916263
               0.23128650     0.31572767     0.41458969     0.53033537
               0.66584808     0.82450364     1.01025438     1.22772762
               1.48234092     1.78043706     2.12944203     2.53805004
               3.01644009     3.57652955     4.23227104     5.00000000

     Gradients computed in reciprocal space

     Starting wfc are   52 randomized atomic wfcs

     Self-consistent Calculation

     iteration #  1     ecut=    58.80 Ry     beta=0.10
     Davidson diagonalization with overlap
     ethr =  1.00E-02,  avg # of iterations =  4.4

[...]

     total energy              =    -577.92414293 Ry
     Harris-Foulkes estimate   =    -578.20775528 Ry
     estimated scf accuracy    <       1.77344882 Ry

[...]

     total energy              =    -577.84093331 Ry
     Harris-Foulkes estimate   =    -577.84092909 Ry
     estimated scf accuracy    <       0.00000223 Ry

     iteration # 10     ecut=    58.80 Ry     beta=0.10
     Davidson diagonalization with overlap
     ethr =  4.13E-09,  avg # of iterations =  3.2

     negative rho (up, down):  1.505E-01 0.000E+00

     End of self-consistent calculation

          k = 0.0000 0.0000 0.0000 (  4119 PWs)   bands (ev):

   -56.4621 -56.4576 -26.5229 -26.4879 -26.4879 -26.4484 -26.4466 -26.4466
   -26.4430 -26.4400  -6.7270  -6.7270  -6.3062  -6.3062  -6.3022  -6.2207
    10.0542  11.9366  12.1313  12.1335  12.2787  13.5921  13.5921  14.7048
    14.7157  14.7157  15.9185  16.6788  17.6673  17.6673  18.3652  18.3882
    19.0237  21.4872  21.4872  21.8073  21.8101  21.8101  22.3662  23.8951
    23.8951  23.9459  26.6516  27.1466  27.1466  27.2707  28.8015

[...]

          k = 0.0919 0.0919 0.1303 (  4111 PWs)   bands (ev):

   -56.4577 -56.4575 -26.5254 -26.5100 -26.4893 -26.4880 -26.4395 -26.4383
   -26.4195 -26.4067  -6.7284  -6.7229  -6.7183  -6.7153  -6.2404  -6.2269
    11.9993  12.0251  12.3275  12.3475  13.6010  13.6030  13.6070  13.6584
    15.6715  15.7780  16.4211  16.5906  17.4074  17.6388  17.7699  17.8487
    18.9779  19.0606  21.2452  21.4811  21.5270  21.5552  22.3774  22.4229
    26.4182  26.4929  26.9501  27.2428  27.2771  27.3757  27.6686

     the Fermi energy is    15.1598 ev

!    total energy              =    -577.84095458 Ry
     Harris-Foulkes estimate   =    -577.84093402 Ry
     estimated scf accuracy    <       0.00000069 Ry

     The total energy is the sum of the following terms:

     one-electron contribution =    -151.65991827 Ry
     hartree contribution      =     103.42987575 Ry
     xc contribution           =    -110.74846980 Ry
     ewald contribution        =    -418.85432340 Ry
     smearing contrib. (-TS)   =      -0.00811886 Ry

     convergence has been achieved in  10 iterations

     Forces acting on atoms (Ry/au):

     negative rho (up, down):  1.505E-01 0.000E+00
     atom    1 type  1   force =     0.00000000    0.00000000    0.00000000
     atom    2 type  1   force =     0.00000000    0.00000000    0.00000000
     atom    3 type  2   force =     0.00000000    0.00000000    0.00000000
     atom    4 type  2   force =     0.00000000    0.00000000    0.00000000

     Total force =     0.000000     Total SCF correction =     0.000000

     General routines

     Parallel routines

   This run was terminated on:   3:54: 5  15Nov2017

   JOB DONE.