     Program PWSCF v.5.1rc2 starts on 15Nov2017 at  6:17:51

     Current dimensions of program PWSCF are:
     Max number of different atomic species (ntypx) = 10
     Max number of k-points (npk) =  40000
     Max angular momentum in pseudopotentials (lmaxx) =  3

     IMPORTANT: XC functional enforced from input :
     Exchange-correlation      = BEEF-VDW ( 1  4 27 13 2)
     Any further DFT definition will be discarded
     Please, verify this is what you really want

     Found symmetry operation: I + ( -0.5000 -0.5000  0.0000)
     This is a supercell, fractional translations are disabled

     bravais-lattice index     =            0
     lattice parameter (alat)  =       1.8897  a.u.
     unit-cell volume          =     508.3232 (a.u.)^3
     number of atoms/cell      =            4
     number of atomic types    =            2
     number of electrons       =        52.00
     number of Kohn-Sham states=           46
     kinetic-energy cutoff     =      58.7989  Ry
     charge density cutoff     =     587.9892  Ry
     convergence threshold     =      1.0E-06
     mixing beta               =       0.1000
     number of iterations used =           10  plain     mixing
     Exchange-correlation      = BEEF-VDW ( 1  4 27 13 2)

     celldm(1)=   1.889726  celldm(2)=   0.000000  celldm(3)=   0.000000
     celldm(4)=   0.000000  celldm(5)=   0.000000  celldm(6)=   0.000000

     crystal axes: (cart. coord. in units of alat)
               a(1) = (   4.211945   0.000000   0.000000 )
               a(2) = (   0.000000   4.211945   0.000000 )
               a(3) = (   0.000000   0.000000   4.245981 )

     reciprocal axes: (cart. coord. in units 2 pi/alat)
               b(1) = (  0.237420  0.000000  0.000000 )
               b(2) = (  0.000000  0.237420  0.000000 )
               b(3) = (  0.000000  0.000000  0.235517 )

     PseudoPot. # 1 for V  read from file:
     /home/users/vossj/suncat/psp/gbrv1.5pbe/V.UPF
     MD5 check sum: 22b79981416ebb76fdaf5b1b8640f6fb
     Pseudo is Ultrasoft + core correction, Zval = 13.0
     Generated by new atomic code, or converted to UPF format
     Using radial grid of  853 points,  6 beta functions with:
                l(1) =   0
                l(2) =   0
                l(3) =   1
                l(4) =   1
                l(5) =   2
                l(6) =   2
     Q(r) pseudized with  8 coefficients,  rinner =    1.100   1.100   1.100
                                                       1.100   1.100

     PseudoPot. # 2 for Tl read from file:
     /home/users/vossj/suncat/psp/gbrv1.5pbe/Tl.UPF
     MD5 check sum: b76cf1f7e72655a2b2c53cf6385d7059
     Pseudo is Ultrasoft + core correction, Zval = 13.0
     Generated by new atomic code, or converted to UPF format
     Using radial grid of  899 points,  6 beta functions with:
                l(1) =   0
                l(2) =   0
                l(3) =   1
                l(4) =   1
                l(5) =   2
                l(6) =   2
     Q(r) pseudized with  6 coefficients,  rinner =    1.100   1.100   1.100
                                                       1.100   1.100

     vdW kernel table read from file vdW_kernel_table
     MD5 check sum: 095c7af220d748ca6e76c0b4c6cfb241

     atomic species   valence    mass     pseudopotential
        V1            13.00    50.94150     V ( 1.00)
        Tl1           13.00   204.38300     Tl( 1.00)

     16 Sym. Ops., with inversion, found

   Cartesian axes

     site n.     atom                  positions (alat units)
         1           V1  tau(   1) = (   0.0000000   0.0000000   0.0000000  )
         2           V1  tau(   2) = (   2.1059723   2.1059723   0.0000000  )
         3           Tl1 tau(   3) = (   2.1059723   0.0000000   2.1229904  )
         4           Tl1 tau(   4) = (   0.0000000   2.1059723   2.1229904  )

     number of k points=    75  Fermi-Dirac smearing, width (Ry)=  0.0073
                       cart. coord. in units 2pi/alat
        k(    1) = (   0.0000000   0.0000000   0.0000000), wk =   0.0027435
        k(    2) = (   0.0000000   0.0000000   0.0261685), wk =   0.0054870
        k(    3) = (   0.0000000   0.0000000   0.0523371), wk =   0.0054870
        k(    4) = (   0.0000000   0.0000000   0.0785056), wk =   0.0054870
        k(    5) = (   0.0000000   0.0000000   0.1046742), wk =   0.0054870
        k(    6) = (   0.0000000   0.0263800   0.0000000), wk =   0.0109739
        k(    7) = (   0.0000000   0.0263800   0.0261685), wk =   0.0219479
        k(    8) = (   0.0000000   0.0263800   0.0523371), wk =   0.0219479
        k(    9) = (   0.0000000   0.0263800   0.0785056), wk =   0.0219479
        k(   10) = (   0.0000000   0.0263800   0.1046742), wk =   0.0219479
        k(   11) = (   0.0000000   0.0527600   0.0000000), wk =   0.0109739
        k(   12) = (   0.0000000   0.0527600   0.0261685), wk =   0.0219479
        k(   13) = (   0.0000000   0.0527600   0.0523371), wk =   0.0219479
        k(   14) = (   0.0000000   0.0527600   0.0785056), wk =   0.0219479
        k(   15) = (   0.0000000   0.0527600   0.1046742), wk =   0.0219479
        k(   16) = (   0.0000000   0.0791400   0.0000000), wk =   0.0109739
        k(   17) = (   0.0000000   0.0791400   0.0261685), wk =   0.0219479
        k(   18) = (   0.0000000   0.0791400   0.0523371), wk =   0.0219479
        k(   19) = (   0.0000000   0.0791400   0.0785056), wk =   0.0219479
        k(   20) = (   0.0000000   0.0791400   0.1046742), wk =   0.0219479
        k(   21) = (   0.0000000   0.1055200   0.0000000), wk =   0.0109739
        k(   22) = (   0.0000000   0.1055200   0.0261685), wk =   0.0219479
        k(   23) = (   0.0000000   0.1055200   0.0523371), wk =   0.0219479
        k(   24) = (   0.0000000   0.1055200   0.0785056), wk =   0.0219479
        k(   25) = (   0.0000000   0.1055200   0.1046742), wk =   0.0219479
        k(   26) = (   0.0263800   0.0263800   0.0000000), wk =   0.0109739
        k(   27) = (   0.0263800   0.0263800   0.0261685), wk =   0.0219479
        k(   28) = (   0.0263800   0.0263800   0.0523371), wk =   0.0219479
        k(   29) = (   0.0263800   0.0263800   0.0785056), wk =   0.0219479
        k(   30) = (   0.0263800   0.0263800   0.1046742), wk =   0.0219479
        k(   31) = (   0.0263800   0.0527600   0.0000000), wk =   0.0219479
        k(   32) = (   0.0263800   0.0527600   0.0261685), wk =   0.0438957
        k(   33) = (   0.0263800   0.0527600   0.0523371), wk =   0.0438957
        k(   34) = (   0.0263800   0.0527600   0.0785056), wk =   0.0438957
        k(   35) = (   0.0263800   0.0527600   0.1046742), wk =   0.0438957
        k(   36) = (   0.0263800   0.0791400   0.0000000), wk =   0.0219479
        k(   37) = (   0.0263800   0.0791400   0.0261685), wk =   0.0438957
        k(   38) = (   0.0263800   0.0791400   0.0523371), wk =   0.0438957
        k(   39) = (   0.0263800   0.0791400   0.0785056), wk =   0.0438957
        k(   40) = (   0.0263800   0.0791400   0.1046742), wk =   0.0438957
        k(   41) = (   0.0263800   0.1055200   0.0000000), wk =   0.0219479
        k(   42) = (   0.0263800   0.1055200   0.0261685), wk =   0.0438957
        k(   43) = (   0.0263800   0.1055200   0.0523371), wk =   0.0438957
        k(   44) = (   0.0263800   0.1055200   0.0785056), wk =   0.0438957
        k(   45) = (   0.0263800   0.1055200   0.1046742), wk =   0.0438957
        k(   46) = (   0.0527600   0.0527600   0.0000000), wk =   0.0109739
        k(   47) = (   0.0527600   0.0527600   0.0261685), wk =   0.0219479
        k(   48) = (   0.0527600   0.0527600   0.0523371), wk =   0.0219479
        k(   49) = (   0.0527600   0.0527600   0.0785056), wk =   0.0219479
        k(   50) = (   0.0527600   0.0527600   0.1046742), wk =   0.0219479
        k(   51) = (   0.0527600   0.0791400   0.0000000), wk =   0.0219479
        k(   52) = (   0.0527600   0.0791400   0.0261685), wk =   0.0438957
        k(   53) = (   0.0527600   0.0791400   0.0523371), wk =   0.0438957
        k(   54) = (   0.0527600   0.0791400   0.0785056), wk =   0.0438957
        k(   55) = (   0.0527600   0.0791400   0.1046742), wk =   0.0438957
        k(   56) = (   0.0527600   0.1055200   0.0000000), wk =   0.0219479
        k(   57) = (   0.0527600   0.1055200   0.0261685), wk =   0.0438957
        k(   58) = (   0.0527600   0.1055200   0.0523371), wk =   0.0438957
        k(   59) = (   0.0527600   0.1055200   0.0785056), wk =   0.0438957
        k(   60) = (   0.0527600   0.1055200   0.1046742), wk =   0.0438957
        k(   61) = (   0.0791400   0.0791400   0.0000000), wk =   0.0109739
        k(   62) = (   0.0791400   0.0791400   0.0261685), wk =   0.0219479
        k(   63) = (   0.0791400   0.0791400   0.0523371), wk =   0.0219479
        k(   64) = (   0.0791400   0.0791400   0.0785056), wk =   0.0219479
        k(   65) = (   0.0791400   0.0791400   0.1046742), wk =   0.0219479
        k(   66) = (   0.0791400   0.1055200   0.0000000), wk =   0.0219479
        k(   67) = (   0.0791400   0.1055200   0.0261685), wk =   0.0438957
        k(   68) = (   0.0791400   0.1055200   0.0523371), wk =   0.0438957
        k(   69) = (   0.0791400   0.1055200   0.0785056), wk =   0.0438957
        k(   70) = (   0.0791400   0.1055200   0.1046742), wk =   0.0438957
        k(   71) = (   0.1055200   0.1055200   0.0000000), wk =   0.0109739
        k(   72) = (   0.1055200   0.1055200   0.0261685), wk =   0.0219479
        k(   73) = (   0.1055200   0.1055200   0.0523371), wk =   0.0219479
        k(   74) = (   0.1055200   0.1055200   0.0785056), wk =   0.0219479
        k(   75) = (   0.1055200   0.1055200   0.1046742), wk =   0.0219479

     Largest allocated arrays     est. size (Mb)     dimensions
     Largest temporary arrays     est. size (Mb)     dimensions

     Check: negative/imaginary core charge=   -0.000002    0.000000

     Initial potential from superposition of free atoms
     Check: negative starting charge=   -0.098979

     starting charge   51.98781, renormalised to   52.00000

     negative rho (up, down):  9.900E-02 0.000E+00

     *
     * You are using vdW-DF for exchange-correlation in this calculation.
     * Please cite the following three references that made this development
     * possible:
     *
     *   M. Dion, H. Rydberg, E. Schroder, D. C. Langreth, and
     *   B. I. Lundqvist, Phys. Rev. Lett. 92, 246401 (2004).
     *
     *   T. Thonhauser, V. R. Cooper, S. Li, A. Puzder, P. Hyldgaard, and
     *   D. C. Langreth, Phys. Rev. B 76, 125112 (2007).
     *
     *   G. Roman-Perez and J. M. Soler, Phys. Rev. Lett. 103, 096102 (2009).
     *
     *
     * If you are using vdW-DF2, please also cite:
     *
     *   K. Lee, E. D. Murray, L. Kong, B. I. Lundqvist, and
     *   D. C. Langreth, Phys. Rev. B 82, 081101(R) (2010).
     *
     *
     * If you are calculating the stress with vdW-DF, please also cite:
     *
     *   R. Sabatini, E. Kucukbenli, B. Kolb, T. Thonhauser, and
     *   S. de Gironcoli, J. Phys.: Condens. Matter 24, 424209 (2012).
     *

     Carrying out vdW-DF run using the following parameters:

     Nqs =      20    Nr_points =    1024   r_max =   100.000
     q_mesh =
               0.00001000     0.04494208     0.09755937     0.15916263
               0.23128650     0.31572767     0.41458969     0.53033537
               0.66584808     0.82450364     1.01025438     1.22772762
               1.48234092     1.78043706     2.12944203     2.53805004
               3.01644009     3.57652955     4.23227104     5.00000000

     Gradients computed in reciprocal space

     Starting wfc are   38 randomized atomic wfcs +    8 random wfc

     Self-consistent Calculation

     iteration #  1     ecut=    58.80 Ry     beta=0.10
     Davidson diagonalization with overlap
     ethr =  1.00E-02,  avg # of iterations =  4.8

     Threshold (ethr) on eigenvalues was too large:
     Diagonalizing with lowered threshold

     Davidson diagonalization with overlap
     ethr =  7.80E-04,  avg # of iterations =  1.0

[...]

     total energy              =    -584.99857345 Ry
     Harris-Foulkes estimate   =    -585.06606659 Ry
     estimated scf accuracy    <       0.40407809 Ry

[...]

     total energy              =    -585.00106413 Ry
     Harris-Foulkes estimate   =    -585.00098914 Ry
     estimated scf accuracy    <       0.00000275 Ry

     iteration # 12     ecut=    58.80 Ry     beta=0.10
     Davidson diagonalization with overlap
     ethr =  5.28E-09,  avg # of iterations =  1.1

     negative rho (up, down):  1.096E-01 0.000E+00

     End of self-consistent calculation

          k = 0.0000 0.0000 0.0000 (  3887 PWs)   bands (ev):

   -49.8609 -49.8291 -23.7189 -23.7153 -23.7153 -23.6843 -23.5692 -23.5692
     1.6400   1.8462   2.0547   2.3406   2.3406   2.9272   2.9284   2.9284
     3.1504   3.6504   4.1033  11.0250  13.1861  13.4717  13.7320  13.7320
    13.8706  14.6035  14.6035  14.8129  15.5876  15.5876  16.1568  16.4703
    16.6470  19.0635  20.7836  21.1198  22.2201  22.2201  22.8977  22.8977
    23.7140  27.1771  27.8142  28.5042  28.5208  28.5208

[...]

          k = 0.1055 0.1055 0.1047 (  3885 PWs)   bands (ev):

   -49.8452 -49.8443 -23.7338 -23.7294 -23.7047 -23.7036 -23.5601 -23.5557
     1.9722   2.0215   2.1801   2.1942   2.6405   2.6805   2.9602   2.9792
     3.0812   3.1104   8.3535   8.7313  11.4072  11.7425  12.6175  12.8765
    13.5747  13.6481  15.3154  15.3315  15.3585  15.3988  15.6280  15.6586
    16.4013  16.4899  18.8297  19.0323  26.8183  26.8740  27.0329  27.2853
    27.2960  27.3963  28.8344  28.8944  28.9281  29.4245

     the Fermi energy is    14.7939 ev

!    total energy              =    -585.00138578 Ry
     Harris-Foulkes estimate   =    -585.00106430 Ry
     estimated scf accuracy    <       0.00000045 Ry

     The total energy is the sum of the following terms:

     one-electron contribution =    -129.64973652 Ry
     hartree contribution      =     102.04940999 Ry
     xc contribution           =    -169.03730020 Ry
     ewald contribution        =    -388.35229262 Ry
     smearing contrib. (-TS)   =      -0.01146642 Ry

     convergence has been achieved in  12 iterations

     Forces acting on atoms (Ry/au):

     negative rho (up, down):  1.096E-01 0.000E+00
     atom    1 type  1   force =     0.00000000    0.00000000    0.00000000
     atom    2 type  1   force =     0.00000000    0.00000000    0.00000000
     atom    3 type  2   force =     0.00000000    0.00000000    0.00000000
     atom    4 type  2   force =     0.00000000    0.00000000    0.00000000

     Total force =     0.000000     Total SCF correction =     0.000000

     General routines

     Parallel routines

   This run was terminated on:   6:18:32  15Nov2017

   JOB DONE.