     Program PWSCF v.5.1rc2 starts on 14Nov2017 at  8:15:26

     Current dimensions of program PWSCF are:
     Max number of different atomic species (ntypx) = 10
     Max number of k-points (npk) =  40000
     Max angular momentum in pseudopotentials (lmaxx) =  3

     IMPORTANT: XC functional enforced from input :
     Exchange-correlation      = BEEF-VDW ( 1  4 27 13 2)
     Any further DFT definition will be discarded
     Please, verify this is what you really want

     Found symmetry operation: I + (  0.5000  0.5000  0.0000)
     This is a supercell, fractional translations are disabled

     bravais-lattice index     =            0
     lattice parameter (alat)  =       1.8897  a.u.
     unit-cell volume          =     375.2462 (a.u.)^3
     number of atoms/cell      =            4
     number of atomic types    =            2
     number of electrons       =        56.00
     number of Kohn-Sham states=           48
     kinetic-energy cutoff     =      58.7989  Ry
     charge density cutoff     =     587.9892  Ry
     convergence threshold     =      1.0E-06
     mixing beta               =       0.1000
     number of iterations used =           10  plain     mixing
     Exchange-correlation      = BEEF-VDW ( 1  4 27 13 2)

     celldm(1)=   1.889726  celldm(2)=   0.000000  celldm(3)=   0.000000
     celldm(4)=   0.000000  celldm(5)=   0.000000  celldm(6)=   0.000000

     crystal axes: (cart. coord. in units of alat)
               a(1) = (   4.282677   0.000000   0.000000 )
               a(2) = (   0.000000   4.282677   0.000000 )
               a(3) = (   0.000000   0.000000   3.031720 )

     reciprocal axes: (cart. coord. in units 2 pi/alat)
               b(1) = (  0.233499  0.000000  0.000000 )
               b(2) = (  0.000000  0.233499  0.000000 )
               b(3) = (  0.000000  0.000000  0.329846 )

     PseudoPot. # 1 for Cr read from file:
     /home/users/vossj/suncat/psp/gbrv1.5pbe/Cr.UPF
     MD5 check sum: 0d52af634a40206e4dee301ad30da4bf
     Pseudo is Ultrasoft + core correction, Zval = 14.0
     Generated by new atomic code, or converted to UPF format
     Using radial grid of  857 points,  6 beta functions with:
                l(1) =   0
                l(2) =   0
                l(3) =   1
                l(4) =   1
                l(5) =   2
                l(6) =   2
     Q(r) pseudized with  8 coefficients,  rinner =    0.950   0.950   0.950
                                                       0.950   0.950

     PseudoPot. # 2 for W  read from file:
     /home/users/vossj/suncat/psp/gbrv1.5pbe/W.UPF
     MD5 check sum: 9c083fa34c2a2ea0f02f1f893e16e1c8
     Pseudo is Ultrasoft + core correction, Zval = 14.0
     Generated by new atomic code, or converted to UPF format
     Using radial grid of  923 points,  8 beta functions with:
                l(1) =   0
                l(2) =   0
                l(3) =   0
                l(4) =   1
                l(5) =   1
                l(6) =   2
                l(7) =   2
                l(8) =   3
     Q(r) pseudized with  6 coefficients,  rinner =    1.350   1.350   1.350
                                                       1.350   1.350   1.350
                                                       1.350

     vdW kernel table read from file vdW_kernel_table
     MD5 check sum: 095c7af220d748ca6e76c0b4c6cfb241

     atomic species   valence    mass     pseudopotential
        Cr1           14.00    51.99600     Cr( 1.00)
        W1            14.00   183.85000     W ( 1.00)

     16 Sym. Ops., with inversion, found

   Cartesian axes

     site n.     atom                  positions (alat units)
         1           Cr1 tau(   1) = (   0.0000000   0.0000000   0.0000000  )
         2           Cr1 tau(   2) = (   2.1413384   2.1413384   0.0000000  )
         3           W1  tau(   3) = (   2.1413384   0.0000000   1.5158599  )
         4           W1  tau(   4) = (   0.0000000   2.1413384   1.5158599  )

     number of k points=    75  Fermi-Dirac smearing, width (Ry)=  0.0073
                       cart. coord. in units 2pi/alat
        k(    1) = (   0.0000000   0.0000000   0.0000000), wk =   0.0027435
        k(    2) = (   0.0000000   0.0000000   0.0366495), wk =   0.0054870
        k(    3) = (   0.0000000   0.0000000   0.0732991), wk =   0.0054870
        k(    4) = (   0.0000000   0.0000000   0.1099486), wk =   0.0054870
        k(    5) = (   0.0000000   0.0000000   0.1465981), wk =   0.0054870
        k(    6) = (   0.0000000   0.0259443   0.0000000), wk =   0.0109739
        k(    7) = (   0.0000000   0.0259443   0.0366495), wk =   0.0219479
        k(    8) = (   0.0000000   0.0259443   0.0732991), wk =   0.0219479
        k(    9) = (   0.0000000   0.0259443   0.1099486), wk =   0.0219479
        k(   10) = (   0.0000000   0.0259443   0.1465981), wk =   0.0219479
        k(   11) = (   0.0000000   0.0518886   0.0000000), wk =   0.0109739
        k(   12) = (   0.0000000   0.0518886   0.0366495), wk =   0.0219479
        k(   13) = (   0.0000000   0.0518886   0.0732991), wk =   0.0219479
        k(   14) = (   0.0000000   0.0518886   0.1099486), wk =   0.0219479
        k(   15) = (   0.0000000   0.0518886   0.1465981), wk =   0.0219479
        k(   16) = (   0.0000000   0.0778329   0.0000000), wk =   0.0109739
        k(   17) = (   0.0000000   0.0778329   0.0366495), wk =   0.0219479
        k(   18) = (   0.0000000   0.0778329   0.0732991), wk =   0.0219479
        k(   19) = (   0.0000000   0.0778329   0.1099486), wk =   0.0219479
        k(   20) = (   0.0000000   0.0778329   0.1465981), wk =   0.0219479
        k(   21) = (   0.0000000   0.1037773   0.0000000), wk =   0.0109739
        k(   22) = (   0.0000000   0.1037773   0.0366495), wk =   0.0219479
        k(   23) = (   0.0000000   0.1037773   0.0732991), wk =   0.0219479
        k(   24) = (   0.0000000   0.1037773   0.1099486), wk =   0.0219479
        k(   25) = (   0.0000000   0.1037773   0.1465981), wk =   0.0219479
        k(   26) = (   0.0259443   0.0259443   0.0000000), wk =   0.0109739
        k(   27) = (   0.0259443   0.0259443   0.0366495), wk =   0.0219479
        k(   28) = (   0.0259443   0.0259443   0.0732991), wk =   0.0219479
        k(   29) = (   0.0259443   0.0259443   0.1099486), wk =   0.0219479
        k(   30) = (   0.0259443   0.0259443   0.1465981), wk =   0.0219479
        k(   31) = (   0.0259443   0.0518886   0.0000000), wk =   0.0219479
        k(   32) = (   0.0259443   0.0518886   0.0366495), wk =   0.0438957
        k(   33) = (   0.0259443   0.0518886   0.0732991), wk =   0.0438957
        k(   34) = (   0.0259443   0.0518886   0.1099486), wk =   0.0438957
        k(   35) = (   0.0259443   0.0518886   0.1465981), wk =   0.0438957
        k(   36) = (   0.0259443   0.0778329   0.0000000), wk =   0.0219479
        k(   37) = (   0.0259443   0.0778329   0.0366495), wk =   0.0438957
        k(   38) = (   0.0259443   0.0778329   0.0732991), wk =   0.0438957
        k(   39) = (   0.0259443   0.0778329   0.1099486), wk =   0.0438957
        k(   40) = (   0.0259443   0.0778329   0.1465981), wk =   0.0438957
        k(   41) = (   0.0259443   0.1037773   0.0000000), wk =   0.0219479
        k(   42) = (   0.0259443   0.1037773   0.0366495), wk =   0.0438957
        k(   43) = (   0.0259443   0.1037773   0.0732991), wk =   0.0438957
        k(   44) = (   0.0259443   0.1037773   0.1099486), wk =   0.0438957
        k(   45) = (   0.0259443   0.1037773   0.1465981), wk =   0.0438957
        k(   46) = (   0.0518886   0.0518886   0.0000000), wk =   0.0109739
        k(   47) = (   0.0518886   0.0518886   0.0366495), wk =   0.0219479
        k(   48) = (   0.0518886   0.0518886   0.0732991), wk =   0.0219479
        k(   49) = (   0.0518886   0.0518886   0.1099486), wk =   0.0219479
        k(   50) = (   0.0518886   0.0518886   0.1465981), wk =   0.0219479
        k(   51) = (   0.0518886   0.0778329   0.0000000), wk =   0.0219479
        k(   52) = (   0.0518886   0.0778329   0.0366495), wk =   0.0438957
        k(   53) = (   0.0518886   0.0778329   0.0732991), wk =   0.0438957
        k(   54) = (   0.0518886   0.0778329   0.1099486), wk =   0.0438957
        k(   55) = (   0.0518886   0.0778329   0.1465981), wk =   0.0438957
        k(   56) = (   0.0518886   0.1037773   0.0000000), wk =   0.0219479
        k(   57) = (   0.0518886   0.1037773   0.0366495), wk =   0.0438957
        k(   58) = (   0.0518886   0.1037773   0.0732991), wk =   0.0438957
        k(   59) = (   0.0518886   0.1037773   0.1099486), wk =   0.0438957
        k(   60) = (   0.0518886   0.1037773   0.1465981), wk =   0.0438957
        k(   61) = (   0.0778329   0.0778329   0.0000000), wk =   0.0109739
        k(   62) = (   0.0778329   0.0778329   0.0366495), wk =   0.0219479
        k(   63) = (   0.0778329   0.0778329   0.0732991), wk =   0.0219479
        k(   64) = (   0.0778329   0.0778329   0.1099486), wk =   0.0219479
        k(   65) = (   0.0778329   0.0778329   0.1465981), wk =   0.0219479
        k(   66) = (   0.0778329   0.1037773   0.0000000), wk =   0.0219479
        k(   67) = (   0.0778329   0.1037773   0.0366495), wk =   0.0438957
        k(   68) = (   0.0778329   0.1037773   0.0732991), wk =   0.0438957
        k(   69) = (   0.0778329   0.1037773   0.1099486), wk =   0.0438957
        k(   70) = (   0.0778329   0.1037773   0.1465981), wk =   0.0438957
        k(   71) = (   0.1037773   0.1037773   0.0000000), wk =   0.0109739
        k(   72) = (   0.1037773   0.1037773   0.0366495), wk =   0.0219479
        k(   73) = (   0.1037773   0.1037773   0.0732991), wk =   0.0219479
        k(   74) = (   0.1037773   0.1037773   0.1099486), wk =   0.0219479
        k(   75) = (   0.1037773   0.1037773   0.1465981), wk =   0.0219479

     Largest allocated arrays     est. size (Mb)     dimensions
     Largest temporary arrays     est. size (Mb)     dimensions

     Check: negative/imaginary core charge=   -0.000002    0.000000

     Initial potential from superposition of free atoms
     Check: negative starting charge=   -0.128041

     starting charge   53.79929, renormalised to   56.00000

     negative rho (up, down):  1.333E-01 0.000E+00

     *
     * You are using vdW-DF for exchange-correlation in this calculation.
     * Please cite the following three references that made this development
     * possible:
     *
     *   M. Dion, H. Rydberg, E. Schroder, D. C. Langreth, and
     *   B. I. Lundqvist, Phys. Rev. Lett. 92, 246401 (2004).
     *
     *   T. Thonhauser, V. R. Cooper, S. Li, A. Puzder, P. Hyldgaard, and
     *   D. C. Langreth, Phys. Rev. B 76, 125112 (2007).
     *
     *   G. Roman-Perez and J. M. Soler, Phys. Rev. Lett. 103, 096102 (2009).
     *
     *
     * If you are using vdW-DF2, please also cite:
     *
     *   K. Lee, E. D. Murray, L. Kong, B. I. Lundqvist, and
     *   D. C. Langreth, Phys. Rev. B 82, 081101(R) (2010).
     *
     *
     * If you are calculating the stress with vdW-DF, please also cite:
     *
     *   R. Sabatini, E. Kucukbenli, B. Kolb, T. Thonhauser, and
     *   S. de Gironcoli, J. Phys.: Condens. Matter 24, 424209 (2012).
     *

     Carrying out vdW-DF run using the following parameters:

     Nqs =      20    Nr_points =    1024   r_max =   100.000
     q_mesh =
               0.00001000     0.04494208     0.09755937     0.15916263
               0.23128650     0.31572767     0.41458969     0.53033537
               0.66584808     0.82450364     1.01025438     1.22772762
               1.48234092     1.78043706     2.12944203     2.53805004
               3.01644009     3.57652955     4.23227104     5.00000000

     Gradients computed in reciprocal space

     Starting wfc are   46 randomized atomic wfcs +    2 random wfc

     Self-consistent Calculation

     iteration #  1     ecut=    58.80 Ry     beta=0.10
     Davidson diagonalization with overlap
     ethr =  1.00E-02,  avg # of iterations =  3.9

[...]

     total energy              =    -673.87298642 Ry
     Harris-Foulkes estimate   =    -674.07875877 Ry
     estimated scf accuracy    <       1.37624367 Ry

[...]

     total energy              =    -673.60991146 Ry
     Harris-Foulkes estimate   =    -673.60991035 Ry
     estimated scf accuracy    <       0.00000297 Ry

     iteration # 13     ecut=    58.80 Ry     beta=0.10
     Davidson diagonalization with overlap
     ethr =  5.30E-09,  avg # of iterations =  1.1

     negative rho (up, down):  1.399E-01 0.000E+00

     End of self-consistent calculation

          k = 0.0000 0.0000 0.0000 (  2817 PWs)   bands (ev):

   -53.8336 -53.7964 -51.2415 -51.2337 -22.6353 -22.6353 -22.5334 -22.5318
   -22.5318 -22.4971 -18.0195 -18.0195 -17.7515 -17.7486 -17.7486 -17.7210
    11.8921  15.2667  15.5054  15.6669  15.6704  17.8494  17.8494  19.6722
    19.6722  19.6832  21.5077  21.5077  21.7465  21.7808  22.1216  22.1337
    22.4444  24.4855  24.4856  24.4856  24.5996  24.6529  24.6529  29.5754
    29.6989  29.7337  29.7337  33.5097  34.4064  34.4064  36.7493  38.3091

[...]

          k = 0.1038 0.1038 0.1466 (  2858 PWs)   bands (ev):

   -53.7976 -53.7967 -51.2343 -51.2339 -22.6331 -22.6325 -22.6306 -22.6292
   -22.4989 -22.4965 -18.0235 -18.0172 -18.0119 -18.0116 -17.7295 -17.7203
    15.3482  15.3642  15.5403  15.6029  17.8787  17.8908  17.9105  17.9836
    20.7673  20.9535  21.0514  21.0743  21.7621  21.7985  22.0441  22.1719
    22.3004  22.3891  24.4373  24.5209  24.6431  24.7997  24.8627  25.0120
    29.6855  29.8078  33.3909  33.5166  34.5185  34.6425  34.7119  34.8470

     the Fermi energy is    20.5952 ev

!    total energy              =    -673.60991845 Ry
     Harris-Foulkes estimate   =    -673.60991168 Ry
     estimated scf accuracy    <       0.00000004 Ry

     The total energy is the sum of the following terms:

     one-electron contribution =    -153.86506423 Ry
     hartree contribution      =     110.61111951 Ry
     xc contribution           =    -131.96643303 Ry
     ewald contribution        =    -498.38375878 Ry
     smearing contrib. (-TS)   =      -0.00578192 Ry

     convergence has been achieved in  13 iterations

     Forces acting on atoms (Ry/au):

     negative rho (up, down):  1.399E-01 0.000E+00
     atom    1 type  1   force =     0.00000000    0.00000000    0.00000000
     atom    2 type  1   force =     0.00000000    0.00000000    0.00000000
     atom    3 type  2   force =     0.00000000    0.00000000    0.00000000
     atom    4 type  2   force =     0.00000000    0.00000000    0.00000000

     Total force =     0.000000     Total SCF correction =     0.000000

     General routines

     Parallel routines

   This run was terminated on:   8:16: 0  14Nov2017

   JOB DONE.