     Program PWSCF v.5.1rc2 starts on 14Nov2017 at  3:20:40

     Current dimensions of program PWSCF are:
     Max number of different atomic species (ntypx) = 10
     Max number of k-points (npk) =  40000
     Max angular momentum in pseudopotentials (lmaxx) =  3

     IMPORTANT: XC functional enforced from input :
     Exchange-correlation      = BEEF-VDW ( 1  4 27 13 2)
     Any further DFT definition will be discarded
     Please, verify this is what you really want

     Found symmetry operation: I + (  0.5000  0.5000  0.0000)
     This is a supercell, fractional translations are disabled

     bravais-lattice index     =            0
     lattice parameter (alat)  =       1.8897  a.u.
     unit-cell volume          =     487.5793 (a.u.)^3
     number of atoms/cell      =            4
     number of atomic types    =            2
     number of electrons       =        52.00
     number of Kohn-Sham states=           46
     kinetic-energy cutoff     =      58.7989  Ry
     charge density cutoff     =     587.9892  Ry
     convergence threshold     =      1.0E-06
     mixing beta               =       0.1000
     number of iterations used =           10  plain     mixing
     Exchange-correlation      = BEEF-VDW ( 1  4 27 13 2)

     celldm(1)=   1.889726  celldm(2)=   0.000000  celldm(3)=   0.000000
     celldm(4)=   0.000000  celldm(5)=   0.000000  celldm(6)=   0.000000

     crystal axes: (cart. coord. in units of alat)
               a(1) = (   3.919468   0.000000   0.000000 )
               a(2) = (   0.000000   3.919468   0.000000 )
               a(3) = (   0.000000   0.000000   4.703211 )

     reciprocal axes: (cart. coord. in units 2 pi/alat)
               b(1) = (  0.255137  0.000000  0.000000 )
               b(2) = (  0.000000  0.255137  0.000000 )
               b(3) = (  0.000000  0.000000  0.212621 )

     PseudoPot. # 1 for Cd read from file:
     /home/users/vossj/suncat/psp/gbrv1.5pbe/Cd.UPF
     MD5 check sum: 17164a7926edb8e0dc231208abae86a6
     Pseudo is Ultrasoft + core correction, Zval = 12.0
     Generated by new atomic code, or converted to UPF format
     Using radial grid of  889 points,  6 beta functions with:
                l(1) =   0
                l(2) =   0
                l(3) =   1
                l(4) =   1
                l(5) =   2
                l(6) =   2
     Q(r) pseudized with  6 coefficients,  rinner =    1.000   1.000   1.000
                                                       1.000   1.000

     PseudoPot. # 2 for W  read from file:
     /home/users/vossj/suncat/psp/gbrv1.5pbe/W.UPF
     MD5 check sum: 9c083fa34c2a2ea0f02f1f893e16e1c8
     Pseudo is Ultrasoft + core correction, Zval = 14.0
     Generated by new atomic code, or converted to UPF format
     Using radial grid of  923 points,  8 beta functions with:
                l(1) =   0
                l(2) =   0
                l(3) =   0
                l(4) =   1
                l(5) =   1
                l(6) =   2
                l(7) =   2
                l(8) =   3
     Q(r) pseudized with  6 coefficients,  rinner =    1.350   1.350   1.350
                                                       1.350   1.350   1.350
                                                       1.350

     vdW kernel table read from file vdW_kernel_table
     MD5 check sum: 095c7af220d748ca6e76c0b4c6cfb241

     atomic species   valence    mass     pseudopotential
        Cd1           12.00   112.41000     Cd( 1.00)
        W1            14.00   183.85000     W ( 1.00)

     16 Sym. Ops., with inversion, found

   Cartesian axes

     site n.     atom                  positions (alat units)
         1           Cd1 tau(   1) = (   0.0000000   0.0000000   0.0000000  )
         2           Cd1 tau(   2) = (   1.9597341   1.9597341   0.0000000  )
         3           W1  tau(   3) = (   1.9597341   0.0000000   2.3516053  )
         4           W1  tau(   4) = (   0.0000000   1.9597341   2.3516053  )

     number of k points=    75  Fermi-Dirac smearing, width (Ry)=  0.0073
                       cart. coord. in units 2pi/alat
        k(    1) = (   0.0000000   0.0000000   0.0000000), wk =   0.0027435
        k(    2) = (   0.0000000   0.0000000   0.0236245), wk =   0.0054870
        k(    3) = (   0.0000000   0.0000000   0.0472490), wk =   0.0054870
        k(    4) = (   0.0000000   0.0000000   0.0708736), wk =   0.0054870
        k(    5) = (   0.0000000   0.0000000   0.0944981), wk =   0.0054870
        k(    6) = (   0.0000000   0.0283485   0.0000000), wk =   0.0109739
        k(    7) = (   0.0000000   0.0283485   0.0236245), wk =   0.0219479
        k(    8) = (   0.0000000   0.0283485   0.0472490), wk =   0.0219479
        k(    9) = (   0.0000000   0.0283485   0.0708736), wk =   0.0219479
        k(   10) = (   0.0000000   0.0283485   0.0944981), wk =   0.0219479
        k(   11) = (   0.0000000   0.0566970   0.0000000), wk =   0.0109739
        k(   12) = (   0.0000000   0.0566970   0.0236245), wk =   0.0219479
        k(   13) = (   0.0000000   0.0566970   0.0472490), wk =   0.0219479
        k(   14) = (   0.0000000   0.0566970   0.0708736), wk =   0.0219479
        k(   15) = (   0.0000000   0.0566970   0.0944981), wk =   0.0219479
        k(   16) = (   0.0000000   0.0850456   0.0000000), wk =   0.0109739
        k(   17) = (   0.0000000   0.0850456   0.0236245), wk =   0.0219479
        k(   18) = (   0.0000000   0.0850456   0.0472490), wk =   0.0219479
        k(   19) = (   0.0000000   0.0850456   0.0708736), wk =   0.0219479
        k(   20) = (   0.0000000   0.0850456   0.0944981), wk =   0.0219479
        k(   21) = (   0.0000000   0.1133941   0.0000000), wk =   0.0109739
        k(   22) = (   0.0000000   0.1133941   0.0236245), wk =   0.0219479
        k(   23) = (   0.0000000   0.1133941   0.0472490), wk =   0.0219479
        k(   24) = (   0.0000000   0.1133941   0.0708736), wk =   0.0219479
        k(   25) = (   0.0000000   0.1133941   0.0944981), wk =   0.0219479
        k(   26) = (   0.0283485   0.0283485   0.0000000), wk =   0.0109739
        k(   27) = (   0.0283485   0.0283485   0.0236245), wk =   0.0219479
        k(   28) = (   0.0283485   0.0283485   0.0472490), wk =   0.0219479
        k(   29) = (   0.0283485   0.0283485   0.0708736), wk =   0.0219479
        k(   30) = (   0.0283485   0.0283485   0.0944981), wk =   0.0219479
        k(   31) = (   0.0283485   0.0566970   0.0000000), wk =   0.0219479
        k(   32) = (   0.0283485   0.0566970   0.0236245), wk =   0.0438957
        k(   33) = (   0.0283485   0.0566970   0.0472490), wk =   0.0438957
        k(   34) = (   0.0283485   0.0566970   0.0708736), wk =   0.0438957
        k(   35) = (   0.0283485   0.0566970   0.0944981), wk =   0.0438957
        k(   36) = (   0.0283485   0.0850456   0.0000000), wk =   0.0219479
        k(   37) = (   0.0283485   0.0850456   0.0236245), wk =   0.0438957
        k(   38) = (   0.0283485   0.0850456   0.0472490), wk =   0.0438957
        k(   39) = (   0.0283485   0.0850456   0.0708736), wk =   0.0438957
        k(   40) = (   0.0283485   0.0850456   0.0944981), wk =   0.0438957
        k(   41) = (   0.0283485   0.1133941   0.0000000), wk =   0.0219479
        k(   42) = (   0.0283485   0.1133941   0.0236245), wk =   0.0438957
        k(   43) = (   0.0283485   0.1133941   0.0472490), wk =   0.0438957
        k(   44) = (   0.0283485   0.1133941   0.0708736), wk =   0.0438957
        k(   45) = (   0.0283485   0.1133941   0.0944981), wk =   0.0438957
        k(   46) = (   0.0566970   0.0566970   0.0000000), wk =   0.0109739
        k(   47) = (   0.0566970   0.0566970   0.0236245), wk =   0.0219479
        k(   48) = (   0.0566970   0.0566970   0.0472490), wk =   0.0219479
        k(   49) = (   0.0566970   0.0566970   0.0708736), wk =   0.0219479
        k(   50) = (   0.0566970   0.0566970   0.0944981), wk =   0.0219479
        k(   51) = (   0.0566970   0.0850456   0.0000000), wk =   0.0219479
        k(   52) = (   0.0566970   0.0850456   0.0236245), wk =   0.0438957
        k(   53) = (   0.0566970   0.0850456   0.0472490), wk =   0.0438957
        k(   54) = (   0.0566970   0.0850456   0.0708736), wk =   0.0438957
        k(   55) = (   0.0566970   0.0850456   0.0944981), wk =   0.0438957
        k(   56) = (   0.0566970   0.1133941   0.0000000), wk =   0.0219479
        k(   57) = (   0.0566970   0.1133941   0.0236245), wk =   0.0438957
        k(   58) = (   0.0566970   0.1133941   0.0472490), wk =   0.0438957
        k(   59) = (   0.0566970   0.1133941   0.0708736), wk =   0.0438957
        k(   60) = (   0.0566970   0.1133941   0.0944981), wk =   0.0438957
        k(   61) = (   0.0850456   0.0850456   0.0000000), wk =   0.0109739
        k(   62) = (   0.0850456   0.0850456   0.0236245), wk =   0.0219479
        k(   63) = (   0.0850456   0.0850456   0.0472490), wk =   0.0219479
        k(   64) = (   0.0850456   0.0850456   0.0708736), wk =   0.0219479
        k(   65) = (   0.0850456   0.0850456   0.0944981), wk =   0.0219479
        k(   66) = (   0.0850456   0.1133941   0.0000000), wk =   0.0219479
        k(   67) = (   0.0850456   0.1133941   0.0236245), wk =   0.0438957
        k(   68) = (   0.0850456   0.1133941   0.0472490), wk =   0.0438957
        k(   69) = (   0.0850456   0.1133941   0.0708736), wk =   0.0438957
        k(   70) = (   0.0850456   0.1133941   0.0944981), wk =   0.0438957
        k(   71) = (   0.1133941   0.1133941   0.0000000), wk =   0.0109739
        k(   72) = (   0.1133941   0.1133941   0.0236245), wk =   0.0219479
        k(   73) = (   0.1133941   0.1133941   0.0472490), wk =   0.0219479
        k(   74) = (   0.1133941   0.1133941   0.0708736), wk =   0.0219479
        k(   75) = (   0.1133941   0.1133941   0.0944981), wk =   0.0219479

     Largest allocated arrays     est. size (Mb)     dimensions
     Largest temporary arrays     est. size (Mb)     dimensions

     Initial potential from superposition of free atoms
     Check: negative starting charge=   -0.166045

     starting charge   50.79924, renormalised to   52.00000

     negative rho (up, down):  1.700E-01 0.000E+00

     *
     * You are using vdW-DF for exchange-correlation in this calculation.
     * Please cite the following three references that made this development
     * possible:
     *
     *   M. Dion, H. Rydberg, E. Schroder, D. C. Langreth, and
     *   B. I. Lundqvist, Phys. Rev. Lett. 92, 246401 (2004).
     *
     *   T. Thonhauser, V. R. Cooper, S. Li, A. Puzder, P. Hyldgaard, and
     *   D. C. Langreth, Phys. Rev. B 76, 125112 (2007).
     *
     *   G. Roman-Perez and J. M. Soler, Phys. Rev. Lett. 103, 096102 (2009).
     *
     *
     * If you are using vdW-DF2, please also cite:
     *
     *   K. Lee, E. D. Murray, L. Kong, B. I. Lundqvist, and
     *   D. C. Langreth, Phys. Rev. B 82, 081101(R) (2010).
     *
     *
     * If you are calculating the stress with vdW-DF, please also cite:
     *
     *   R. Sabatini, E. Kucukbenli, B. Kolb, T. Thonhauser, and
     *   S. de Gironcoli, J. Phys.: Condens. Matter 24, 424209 (2012).
     *

     Carrying out vdW-DF run using the following parameters:

     Nqs =      20    Nr_points =    1024   r_max =   100.000
     q_mesh =
               0.00001000     0.04494208     0.09755937     0.15916263
               0.23128650     0.31572767     0.41458969     0.53033537
               0.66584808     0.82450364     1.01025438     1.22772762
               1.48234092     1.78043706     2.12944203     2.53805004
               3.01644009     3.57652955     4.23227104     5.00000000

     Gradients computed in reciprocal space

     Starting wfc are   44 randomized atomic wfcs +    2 random wfc

     Self-consistent Calculation

     iteration #  1     ecut=    58.80 Ry     beta=0.10
     Davidson diagonalization with overlap
     ethr =  1.00E-02,  avg # of iterations =  4.4

     Threshold (ethr) on eigenvalues was too large:
     Diagonalizing with lowered threshold

     Davidson diagonalization with overlap
     ethr =  4.84E-04,  avg # of iterations =  1.2

[...]

     total energy              =    -553.01101752 Ry
     Harris-Foulkes estimate   =    -553.04233131 Ry
     estimated scf accuracy    <       0.25190361 Ry

[...]

     total energy              =    -552.96797861 Ry
     Harris-Foulkes estimate   =    -552.96797402 Ry
     estimated scf accuracy    <       0.00000116 Ry

     iteration # 11     ecut=    58.80 Ry     beta=0.10
     Davidson diagonalization with overlap
     ethr =  2.23E-09,  avg # of iterations =  2.7

     negative rho (up, down):  1.802E-01 0.000E+00

     End of self-consistent calculation

          k = 0.0000 0.0000 0.0000 (  3681 PWs)   bands (ev):

   -57.8891 -57.7921 -22.2141 -22.2141 -22.0565 -21.8916 -21.5486 -21.5486
     6.3469   6.4351   6.7690   7.0850   7.0850   7.3841   7.8426   8.0118
     8.0118   8.3423   8.9079  12.7797  13.0199  13.4572  15.4192  15.7555
    15.7555  17.2657  18.0120  18.0120  18.8015  18.8015  20.5904  21.5523
    22.6353  23.4525  23.6144  26.1068  26.1068  26.3374  26.3850  27.7430
    27.7430  30.3397  31.7224  32.6001  34.1763  34.1763

[...]

          k = 0.1134 0.1134 0.0945 (  3705 PWs)   bands (ev):

   -57.8416 -57.8387 -22.3062 -22.2872 -21.9755 -21.9705 -21.5053 -21.4842
     6.7718   6.8176   6.8305   6.8336   7.6573   7.7187   7.8857   7.9138
     8.0882   8.1158  12.3079  12.6431  13.4101  13.6603  14.5984  14.7616
    15.7031  15.8337  17.1972  17.2365  17.8342  18.0052  19.1264  19.1644
    20.6520  20.8473  24.2966  24.3561  27.5069  27.5129  28.6940  28.9634
    32.4391  32.6155  32.6722  32.7963  33.2286  33.2326

     the Fermi energy is    16.8293 ev

!    total energy              =    -552.96801394 Ry
     Harris-Foulkes estimate   =    -552.96797874 Ry
     estimated scf accuracy    <       0.00000015 Ry

     The total energy is the sum of the following terms:

     one-electron contribution =     -66.03194294 Ry
     hartree contribution      =      74.18410094 Ry
     xc contribution           =    -166.88991779 Ry
     ewald contribution        =    -394.22417324 Ry
     smearing contrib. (-TS)   =      -0.00608091 Ry

     convergence has been achieved in  11 iterations

     Forces acting on atoms (Ry/au):

     negative rho (up, down):  1.802E-01 0.000E+00
     atom    1 type  1   force =     0.00000000    0.00000000    0.00000000
     atom    2 type  1   force =     0.00000000    0.00000000    0.00000000
     atom    3 type  2   force =     0.00000000    0.00000000    0.00000000
     atom    4 type  2   force =     0.00000000    0.00000000    0.00000000

     Total force =     0.000000     Total SCF correction =     0.000000

     General routines

     Parallel routines

   This run was terminated on:   3:21:22  14Nov2017

   JOB DONE.