     Program PWSCF v.5.1rc2 starts on 14Nov2017 at  1: 2:13

     Current dimensions of program PWSCF are:
     Max number of different atomic species (ntypx) = 10
     Max number of k-points (npk) =  40000
     Max angular momentum in pseudopotentials (lmaxx) =  3

     IMPORTANT: XC functional enforced from input :
     Exchange-correlation      = BEEF-VDW ( 1  4 27 13 2)
     Any further DFT definition will be discarded
     Please, verify this is what you really want

     Found symmetry operation: I + ( -0.5000 -0.5000  0.0000)
     This is a supercell, fractional translations are disabled

     bravais-lattice index     =            0
     lattice parameter (alat)  =       1.8897  a.u.
     unit-cell volume          =     384.0392 (a.u.)^3
     number of atoms/cell      =            4
     number of atomic types    =            2
     number of electrons       =        32.00
     number of Kohn-Sham states=           36
     kinetic-energy cutoff     =      58.7989  Ry
     charge density cutoff     =     587.9892  Ry
     convergence threshold     =      1.0E-06
     mixing beta               =       0.1000
     number of iterations used =           10  plain     mixing
     Exchange-correlation      = BEEF-VDW ( 1  4 27 13 2)

     celldm(1)=   1.889726  celldm(2)=   0.000000  celldm(3)=   0.000000
     celldm(4)=   0.000000  celldm(5)=   0.000000  celldm(6)=   0.000000

     crystal axes: (cart. coord. in units of alat)
               a(1) = (   3.765133   0.000000   0.000000 )
               a(2) = (   0.000000   3.765133   0.000000 )
               a(3) = (   0.000000   0.000000   4.014379 )

     reciprocal axes: (cart. coord. in units 2 pi/alat)
               b(1) = (  0.265595  0.000000  0.000000 )
               b(2) = (  0.000000  0.265595  0.000000 )
               b(3) = (  0.000000  0.000000  0.249105 )

     PseudoPot. # 1 for Al read from file:
     /home/users/vossj/suncat/psp/gbrv1.5pbe/Al.UPF
     MD5 check sum: 0a6289f5291fc8f409219462bc851e1f
     Pseudo is Ultrasoft + core correction, Zval =  3.0
     Generated by new atomic code, or converted to UPF format
     Using radial grid of  893 points,  3 beta functions with:
                l(1) =   0
                l(2) =   1
                l(3) =   2
     Q(r) pseudized with  8 coefficients,  rinner =    0.900   0.900   0.900
                                                       0.900   0.900

     PseudoPot. # 2 for V  read from file:
     /home/users/vossj/suncat/psp/gbrv1.5pbe/V.UPF
     MD5 check sum: 22b79981416ebb76fdaf5b1b8640f6fb
     Pseudo is Ultrasoft + core correction, Zval = 13.0
     Generated by new atomic code, or converted to UPF format
     Using radial grid of  853 points,  6 beta functions with:
                l(1) =   0
                l(2) =   0
                l(3) =   1
                l(4) =   1
                l(5) =   2
                l(6) =   2
     Q(r) pseudized with  8 coefficients,  rinner =    1.100   1.100   1.100
                                                       1.100   1.100

     vdW kernel table read from file vdW_kernel_table
     MD5 check sum: 095c7af220d748ca6e76c0b4c6cfb241

     atomic species   valence    mass     pseudopotential
        Al1            3.00    26.98154     Al( 1.00)
        V1            13.00    50.94150     V ( 1.00)

     16 Sym. Ops., with inversion, found

   Cartesian axes

     site n.     atom                  positions (alat units)
         1           Al1 tau(   1) = (   0.0000000   0.0000000   0.0000000  )
         2           Al1 tau(   2) = (   1.8825664   1.8825664   0.0000000  )
         3           V1  tau(   3) = (   1.8825664   0.0000000   2.0071893  )
         4           V1  tau(   4) = (   0.0000000   1.8825664   2.0071893  )

     number of k points=    75  Fermi-Dirac smearing, width (Ry)=  0.0073
                       cart. coord. in units 2pi/alat
        k(    1) = (   0.0000000   0.0000000   0.0000000), wk =   0.0027435
        k(    2) = (   0.0000000   0.0000000   0.0276783), wk =   0.0054870
        k(    3) = (   0.0000000   0.0000000   0.0553566), wk =   0.0054870
        k(    4) = (   0.0000000   0.0000000   0.0830349), wk =   0.0054870
        k(    5) = (   0.0000000   0.0000000   0.1107131), wk =   0.0054870
        k(    6) = (   0.0000000   0.0295105   0.0000000), wk =   0.0109739
        k(    7) = (   0.0000000   0.0295105   0.0276783), wk =   0.0219479
        k(    8) = (   0.0000000   0.0295105   0.0553566), wk =   0.0219479
        k(    9) = (   0.0000000   0.0295105   0.0830349), wk =   0.0219479
        k(   10) = (   0.0000000   0.0295105   0.1107131), wk =   0.0219479
        k(   11) = (   0.0000000   0.0590211   0.0000000), wk =   0.0109739
        k(   12) = (   0.0000000   0.0590211   0.0276783), wk =   0.0219479
        k(   13) = (   0.0000000   0.0590211   0.0553566), wk =   0.0219479
        k(   14) = (   0.0000000   0.0590211   0.0830349), wk =   0.0219479
        k(   15) = (   0.0000000   0.0590211   0.1107131), wk =   0.0219479
        k(   16) = (   0.0000000   0.0885316   0.0000000), wk =   0.0109739
        k(   17) = (   0.0000000   0.0885316   0.0276783), wk =   0.0219479
        k(   18) = (   0.0000000   0.0885316   0.0553566), wk =   0.0219479
        k(   19) = (   0.0000000   0.0885316   0.0830349), wk =   0.0219479
        k(   20) = (   0.0000000   0.0885316   0.1107131), wk =   0.0219479
        k(   21) = (   0.0000000   0.1180422   0.0000000), wk =   0.0109739
        k(   22) = (   0.0000000   0.1180422   0.0276783), wk =   0.0219479
        k(   23) = (   0.0000000   0.1180422   0.0553566), wk =   0.0219479
        k(   24) = (   0.0000000   0.1180422   0.0830349), wk =   0.0219479
        k(   25) = (   0.0000000   0.1180422   0.1107131), wk =   0.0219479
        k(   26) = (   0.0295105   0.0295105   0.0000000), wk =   0.0109739
        k(   27) = (   0.0295105   0.0295105   0.0276783), wk =   0.0219479
        k(   28) = (   0.0295105   0.0295105   0.0553566), wk =   0.0219479
        k(   29) = (   0.0295105   0.0295105   0.0830349), wk =   0.0219479
        k(   30) = (   0.0295105   0.0295105   0.1107131), wk =   0.0219479
        k(   31) = (   0.0295105   0.0590211   0.0000000), wk =   0.0219479
        k(   32) = (   0.0295105   0.0590211   0.0276783), wk =   0.0438957
        k(   33) = (   0.0295105   0.0590211   0.0553566), wk =   0.0438957
        k(   34) = (   0.0295105   0.0590211   0.0830349), wk =   0.0438957
        k(   35) = (   0.0295105   0.0590211   0.1107131), wk =   0.0438957
        k(   36) = (   0.0295105   0.0885316   0.0000000), wk =   0.0219479
        k(   37) = (   0.0295105   0.0885316   0.0276783), wk =   0.0438957
        k(   38) = (   0.0295105   0.0885316   0.0553566), wk =   0.0438957
        k(   39) = (   0.0295105   0.0885316   0.0830349), wk =   0.0438957
        k(   40) = (   0.0295105   0.0885316   0.1107131), wk =   0.0438957
        k(   41) = (   0.0295105   0.1180422   0.0000000), wk =   0.0219479
        k(   42) = (   0.0295105   0.1180422   0.0276783), wk =   0.0438957
        k(   43) = (   0.0295105   0.1180422   0.0553566), wk =   0.0438957
        k(   44) = (   0.0295105   0.1180422   0.0830349), wk =   0.0438957
        k(   45) = (   0.0295105   0.1180422   0.1107131), wk =   0.0438957
        k(   46) = (   0.0590211   0.0590211   0.0000000), wk =   0.0109739
        k(   47) = (   0.0590211   0.0590211   0.0276783), wk =   0.0219479
        k(   48) = (   0.0590211   0.0590211   0.0553566), wk =   0.0219479
        k(   49) = (   0.0590211   0.0590211   0.0830349), wk =   0.0219479
        k(   50) = (   0.0590211   0.0590211   0.1107131), wk =   0.0219479
        k(   51) = (   0.0590211   0.0885316   0.0000000), wk =   0.0219479
        k(   52) = (   0.0590211   0.0885316   0.0276783), wk =   0.0438957
        k(   53) = (   0.0590211   0.0885316   0.0553566), wk =   0.0438957
        k(   54) = (   0.0590211   0.0885316   0.0830349), wk =   0.0438957
        k(   55) = (   0.0590211   0.0885316   0.1107131), wk =   0.0438957
        k(   56) = (   0.0590211   0.1180422   0.0000000), wk =   0.0219479
        k(   57) = (   0.0590211   0.1180422   0.0276783), wk =   0.0438957
        k(   58) = (   0.0590211   0.1180422   0.0553566), wk =   0.0438957
        k(   59) = (   0.0590211   0.1180422   0.0830349), wk =   0.0438957
        k(   60) = (   0.0590211   0.1180422   0.1107131), wk =   0.0438957
        k(   61) = (   0.0885316   0.0885316   0.0000000), wk =   0.0109739
        k(   62) = (   0.0885316   0.0885316   0.0276783), wk =   0.0219479
        k(   63) = (   0.0885316   0.0885316   0.0553566), wk =   0.0219479
        k(   64) = (   0.0885316   0.0885316   0.0830349), wk =   0.0219479
        k(   65) = (   0.0885316   0.0885316   0.1107131), wk =   0.0219479
        k(   66) = (   0.0885316   0.1180422   0.0000000), wk =   0.0219479
        k(   67) = (   0.0885316   0.1180422   0.0276783), wk =   0.0438957
        k(   68) = (   0.0885316   0.1180422   0.0553566), wk =   0.0438957
        k(   69) = (   0.0885316   0.1180422   0.0830349), wk =   0.0438957
        k(   70) = (   0.0885316   0.1180422   0.1107131), wk =   0.0438957
        k(   71) = (   0.1180422   0.1180422   0.0000000), wk =   0.0109739
        k(   72) = (   0.1180422   0.1180422   0.0276783), wk =   0.0219479
        k(   73) = (   0.1180422   0.1180422   0.0553566), wk =   0.0219479
        k(   74) = (   0.1180422   0.1180422   0.0830349), wk =   0.0219479
        k(   75) = (   0.1180422   0.1180422   0.1107131), wk =   0.0219479

     Largest allocated arrays     est. size (Mb)     dimensions
     Largest temporary arrays     est. size (Mb)     dimensions

     Check: negative/imaginary core charge=   -0.000001    0.000000

     Initial potential from superposition of free atoms
     Check: negative starting charge=   -0.000774

     starting charge   31.99261, renormalised to   32.00000

     negative rho (up, down):  7.738E-04 0.000E+00

     *
     * You are using vdW-DF for exchange-correlation in this calculation.
     * Please cite the following three references that made this development
     * possible:
     *
     *   M. Dion, H. Rydberg, E. Schroder, D. C. Langreth, and
     *   B. I. Lundqvist, Phys. Rev. Lett. 92, 246401 (2004).
     *
     *   T. Thonhauser, V. R. Cooper, S. Li, A. Puzder, P. Hyldgaard, and
     *   D. C. Langreth, Phys. Rev. B 76, 125112 (2007).
     *
     *   G. Roman-Perez and J. M. Soler, Phys. Rev. Lett. 103, 096102 (2009).
     *
     *
     * If you are using vdW-DF2, please also cite:
     *
     *   K. Lee, E. D. Murray, L. Kong, B. I. Lundqvist, and
     *   D. C. Langreth, Phys. Rev. B 82, 081101(R) (2010).
     *
     *
     * If you are calculating the stress with vdW-DF, please also cite:
     *
     *   R. Sabatini, E. Kucukbenli, B. Kolb, T. Thonhauser, and
     *   S. de Gironcoli, J. Phys.: Condens. Matter 24, 424209 (2012).
     *

     Carrying out vdW-DF run using the following parameters:

     Nqs =      20    Nr_points =    1024   r_max =   100.000
     q_mesh =
               0.00001000     0.04494208     0.09755937     0.15916263
               0.23128650     0.31572767     0.41458969     0.53033537
               0.66584808     0.82450364     1.01025438     1.22772762
               1.48234092     1.78043706     2.12944203     2.53805004
               3.01644009     3.57652955     4.23227104     5.00000000

     Gradients computed in reciprocal space

     Starting wfc are   28 randomized atomic wfcs +    8 random wfc

     Self-consistent Calculation

     iteration #  1     ecut=    58.80 Ry     beta=0.10
     Davidson diagonalization with overlap
     ethr =  1.00E-02,  avg # of iterations =  4.3

     Threshold (ethr) on eigenvalues was too large:
     Diagonalizing with lowered threshold

     Davidson diagonalization with overlap
     ethr =  2.57E-04,  avg # of iterations =  1.1

[...]

     total energy              =    -305.44547768 Ry
     Harris-Foulkes estimate   =    -305.45379751 Ry
     estimated scf accuracy    <       0.08215899 Ry

[...]

     total energy              =    -305.43481260 Ry
     Harris-Foulkes estimate   =    -305.43481212 Ry
     estimated scf accuracy    <       0.00000142 Ry

     iteration #  9     ecut=    58.80 Ry     beta=0.10
     Davidson diagonalization with overlap
     ethr =  4.45E-09,  avg # of iterations =  1.1

     negative rho (up, down):  1.317E-03 0.000E+00

     End of self-consistent calculation

          k = 0.0000 0.0000 0.0000 (  2955 PWs)   bands (ev):

   -52.0406 -51.9177 -25.9635 -25.9635 -25.9322 -25.8194 -25.5450 -25.5450
     2.3704   8.7064   9.6697  10.5962  11.2072  11.2749  11.2749  11.3621
    11.8251  11.8251  13.6268  13.6268  14.7250  15.5485  17.5979  17.6115
    18.0853  18.9069  21.7261  22.0110  22.0110  23.0753  23.0753  24.3425
    24.3425  25.0481  27.1463  28.0132

[...]

          k = 0.1180 0.1180 0.1107 (  2918 PWs)   bands (ev):

   -51.9797 -51.9760 -26.0270 -26.0147 -25.8823 -25.8788 -25.5165 -25.5036
     6.7278   7.0783   8.7008   8.9847  10.0981  10.6228  10.7671  11.1327
    12.7200  12.7304  13.3249  13.3723  13.7984  13.8024  15.4122  15.4786
    17.4613  17.6272  24.3963  24.8983  26.3198  26.4991  26.7981  27.0255
    27.9561  28.5858  29.2135  29.2903

     the Fermi energy is    12.2749 ev

!    total energy              =    -305.43481741 Ry
     Harris-Foulkes estimate   =    -305.43481283 Ry
     estimated scf accuracy    <       0.00000011 Ry

     The total energy is the sum of the following terms:

     one-electron contribution =    -154.83508611 Ry
     hartree contribution      =      90.00339239 Ry
     xc contribution           =     -49.95370508 Ry
     ewald contribution        =    -190.64220965 Ry
     smearing contrib. (-TS)   =      -0.00720896 Ry

     convergence has been achieved in   9 iterations

     Forces acting on atoms (Ry/au):

     negative rho (up, down):  1.317E-03 0.000E+00
     atom    1 type  1   force =     0.00000000    0.00000000    0.00000000
     atom    2 type  1   force =     0.00000000    0.00000000    0.00000000
     atom    3 type  2   force =     0.00000000    0.00000000    0.00000000
     atom    4 type  2   force =     0.00000000    0.00000000    0.00000000

     Total force =     0.000000     Total SCF correction =     0.000000

     General routines

     Parallel routines

   This run was terminated on:   1: 2:32  14Nov2017

   JOB DONE.