     Program PWSCF v.5.1rc2 starts on 15Nov2017 at  6:55:31

     Current dimensions of program PWSCF are:
     Max number of different atomic species (ntypx) = 10
     Max number of k-points (npk) =  40000
     Max angular momentum in pseudopotentials (lmaxx) =  3

     IMPORTANT: XC functional enforced from input :
     Exchange-correlation      = BEEF-VDW ( 1  4 27 13 2)
     Any further DFT definition will be discarded
     Please, verify this is what you really want

     Found symmetry operation: I + ( -0.5000 -0.5000  0.0000)
     This is a supercell, fractional translations are disabled

     bravais-lattice index     =            0
     lattice parameter (alat)  =       1.8897  a.u.
     unit-cell volume          =     321.1602 (a.u.)^3
     number of atoms/cell      =            4
     number of atomic types    =            2
     number of electrons       =        56.00
     number of Kohn-Sham states=           48
     kinetic-energy cutoff     =      58.7989  Ry
     charge density cutoff     =     587.9892  Ry
     convergence threshold     =      1.0E-06
     mixing beta               =       0.1000
     number of iterations used =           10  plain     mixing
     Exchange-correlation      = BEEF-VDW ( 1  4 27 13 2)

     celldm(1)=   1.889726  celldm(2)=   0.000000  celldm(3)=   0.000000
     celldm(4)=   0.000000  celldm(5)=   0.000000  celldm(6)=   0.000000

     crystal axes: (cart. coord. in units of alat)
               a(1) = (   4.067580   0.000000   0.000000 )
               a(2) = (   0.000000   4.067580   0.000000 )
               a(3) = (   0.000000   0.000000   2.876424 )

     reciprocal axes: (cart. coord. in units 2 pi/alat)
               b(1) = (  0.245846  0.000000  0.000000 )
               b(2) = (  0.000000  0.245846  0.000000 )
               b(3) = (  0.000000  0.000000  0.347654 )

     PseudoPot. # 1 for V  read from file:
     /home/users/vossj/suncat/psp/gbrv1.5pbe/V.UPF
     MD5 check sum: 22b79981416ebb76fdaf5b1b8640f6fb
     Pseudo is Ultrasoft + core correction, Zval = 13.0
     Generated by new atomic code, or converted to UPF format
     Using radial grid of  853 points,  6 beta functions with:
                l(1) =   0
                l(2) =   0
                l(3) =   1
                l(4) =   1
                l(5) =   2
                l(6) =   2
     Q(r) pseudized with  8 coefficients,  rinner =    1.100   1.100   1.100
                                                       1.100   1.100

     PseudoPot. # 2 for Mn read from file:
     /home/users/vossj/suncat/psp/gbrv1.5pbe/Mn.UPF
     MD5 check sum: 82ef2b46521d7a7d9e736dc3972e4928
     Pseudo is Ultrasoft + core correction, Zval = 15.0
     Generated by new atomic code, or converted to UPF format
     Using radial grid of  859 points,  6 beta functions with:
                l(1) =   0
                l(2) =   0
                l(3) =   1
                l(4) =   1
                l(5) =   2
                l(6) =   2
     Q(r) pseudized with  8 coefficients,  rinner =    0.950   0.950   0.950
                                                       0.950   0.950

     vdW kernel table read from file vdW_kernel_table
     MD5 check sum: 095c7af220d748ca6e76c0b4c6cfb241

     atomic species   valence    mass     pseudopotential
        V1            13.00    50.94150     V ( 1.00)
        Mn1           15.00    54.93800     Mn( 1.00)

     16 Sym. Ops., with inversion, found

   Cartesian axes

     site n.     atom                  positions (alat units)
         1           V1  tau(   1) = (   0.0000000   0.0000000   0.0000000  )
         2           V1  tau(   2) = (   2.0337900   2.0337900   0.0000000  )
         3           Mn1 tau(   3) = (   2.0337900   0.0000000   1.4382121  )
         4           Mn1 tau(   4) = (   0.0000000   2.0337900   1.4382121  )

     number of k points=    75  Fermi-Dirac smearing, width (Ry)=  0.0073
                       cart. coord. in units 2pi/alat
        k(    1) = (   0.0000000   0.0000000   0.0000000), wk =   0.0027435
        k(    2) = (   0.0000000   0.0000000   0.0386282), wk =   0.0054870
        k(    3) = (   0.0000000   0.0000000   0.0772564), wk =   0.0054870
        k(    4) = (   0.0000000   0.0000000   0.1158846), wk =   0.0054870
        k(    5) = (   0.0000000   0.0000000   0.1545128), wk =   0.0054870
        k(    6) = (   0.0000000   0.0273163   0.0000000), wk =   0.0109739
        k(    7) = (   0.0000000   0.0273163   0.0386282), wk =   0.0219479
        k(    8) = (   0.0000000   0.0273163   0.0772564), wk =   0.0219479
        k(    9) = (   0.0000000   0.0273163   0.1158846), wk =   0.0219479
        k(   10) = (   0.0000000   0.0273163   0.1545128), wk =   0.0219479
        k(   11) = (   0.0000000   0.0546325   0.0000000), wk =   0.0109739
        k(   12) = (   0.0000000   0.0546325   0.0386282), wk =   0.0219479
        k(   13) = (   0.0000000   0.0546325   0.0772564), wk =   0.0219479
        k(   14) = (   0.0000000   0.0546325   0.1158846), wk =   0.0219479
        k(   15) = (   0.0000000   0.0546325   0.1545128), wk =   0.0219479
        k(   16) = (   0.0000000   0.0819488   0.0000000), wk =   0.0109739
        k(   17) = (   0.0000000   0.0819488   0.0386282), wk =   0.0219479
        k(   18) = (   0.0000000   0.0819488   0.0772564), wk =   0.0219479
        k(   19) = (   0.0000000   0.0819488   0.1158846), wk =   0.0219479
        k(   20) = (   0.0000000   0.0819488   0.1545128), wk =   0.0219479
        k(   21) = (   0.0000000   0.1092651   0.0000000), wk =   0.0109739
        k(   22) = (   0.0000000   0.1092651   0.0386282), wk =   0.0219479
        k(   23) = (   0.0000000   0.1092651   0.0772564), wk =   0.0219479
        k(   24) = (   0.0000000   0.1092651   0.1158846), wk =   0.0219479
        k(   25) = (   0.0000000   0.1092651   0.1545128), wk =   0.0219479
        k(   26) = (   0.0273163   0.0273163   0.0000000), wk =   0.0109739
        k(   27) = (   0.0273163   0.0273163   0.0386282), wk =   0.0219479
        k(   28) = (   0.0273163   0.0273163   0.0772564), wk =   0.0219479
        k(   29) = (   0.0273163   0.0273163   0.1158846), wk =   0.0219479
        k(   30) = (   0.0273163   0.0273163   0.1545128), wk =   0.0219479
        k(   31) = (   0.0273163   0.0546325   0.0000000), wk =   0.0219479
        k(   32) = (   0.0273163   0.0546325   0.0386282), wk =   0.0438957
        k(   33) = (   0.0273163   0.0546325   0.0772564), wk =   0.0438957
        k(   34) = (   0.0273163   0.0546325   0.1158846), wk =   0.0438957
        k(   35) = (   0.0273163   0.0546325   0.1545128), wk =   0.0438957
        k(   36) = (   0.0273163   0.0819488   0.0000000), wk =   0.0219479
        k(   37) = (   0.0273163   0.0819488   0.0386282), wk =   0.0438957
        k(   38) = (   0.0273163   0.0819488   0.0772564), wk =   0.0438957
        k(   39) = (   0.0273163   0.0819488   0.1158846), wk =   0.0438957
        k(   40) = (   0.0273163   0.0819488   0.1545128), wk =   0.0438957
        k(   41) = (   0.0273163   0.1092651   0.0000000), wk =   0.0219479
        k(   42) = (   0.0273163   0.1092651   0.0386282), wk =   0.0438957
        k(   43) = (   0.0273163   0.1092651   0.0772564), wk =   0.0438957
        k(   44) = (   0.0273163   0.1092651   0.1158846), wk =   0.0438957
        k(   45) = (   0.0273163   0.1092651   0.1545128), wk =   0.0438957
        k(   46) = (   0.0546325   0.0546325   0.0000000), wk =   0.0109739
        k(   47) = (   0.0546325   0.0546325   0.0386282), wk =   0.0219479
        k(   48) = (   0.0546325   0.0546325   0.0772564), wk =   0.0219479
        k(   49) = (   0.0546325   0.0546325   0.1158846), wk =   0.0219479
        k(   50) = (   0.0546325   0.0546325   0.1545128), wk =   0.0219479
        k(   51) = (   0.0546325   0.0819488   0.0000000), wk =   0.0219479
        k(   52) = (   0.0546325   0.0819488   0.0386282), wk =   0.0438957
        k(   53) = (   0.0546325   0.0819488   0.0772564), wk =   0.0438957
        k(   54) = (   0.0546325   0.0819488   0.1158846), wk =   0.0438957
        k(   55) = (   0.0546325   0.0819488   0.1545128), wk =   0.0438957
        k(   56) = (   0.0546325   0.1092651   0.0000000), wk =   0.0219479
        k(   57) = (   0.0546325   0.1092651   0.0386282), wk =   0.0438957
        k(   58) = (   0.0546325   0.1092651   0.0772564), wk =   0.0438957
        k(   59) = (   0.0546325   0.1092651   0.1158846), wk =   0.0438957
        k(   60) = (   0.0546325   0.1092651   0.1545128), wk =   0.0438957
        k(   61) = (   0.0819488   0.0819488   0.0000000), wk =   0.0109739
        k(   62) = (   0.0819488   0.0819488   0.0386282), wk =   0.0219479
        k(   63) = (   0.0819488   0.0819488   0.0772564), wk =   0.0219479
        k(   64) = (   0.0819488   0.0819488   0.1158846), wk =   0.0219479
        k(   65) = (   0.0819488   0.0819488   0.1545128), wk =   0.0219479
        k(   66) = (   0.0819488   0.1092651   0.0000000), wk =   0.0219479
        k(   67) = (   0.0819488   0.1092651   0.0386282), wk =   0.0438957
        k(   68) = (   0.0819488   0.1092651   0.0772564), wk =   0.0438957
        k(   69) = (   0.0819488   0.1092651   0.1158846), wk =   0.0438957
        k(   70) = (   0.0819488   0.1092651   0.1545128), wk =   0.0438957
        k(   71) = (   0.1092651   0.1092651   0.0000000), wk =   0.0109739
        k(   72) = (   0.1092651   0.1092651   0.0386282), wk =   0.0219479
        k(   73) = (   0.1092651   0.1092651   0.0772564), wk =   0.0219479
        k(   74) = (   0.1092651   0.1092651   0.1158846), wk =   0.0219479
        k(   75) = (   0.1092651   0.1092651   0.1545128), wk =   0.0219479

     Largest allocated arrays     est. size (Mb)     dimensions
     Largest temporary arrays     est. size (Mb)     dimensions

     Check: negative/imaginary core charge=   -0.000040    0.000000

     Initial potential from superposition of free atoms
     Check: negative starting charge=   -0.000862

     starting charge   54.99737, renormalised to   56.00000

     negative rho (up, down):  8.772E-04 0.000E+00

     *
     * You are using vdW-DF for exchange-correlation in this calculation.
     * Please cite the following three references that made this development
     * possible:
     *
     *   M. Dion, H. Rydberg, E. Schroder, D. C. Langreth, and
     *   B. I. Lundqvist, Phys. Rev. Lett. 92, 246401 (2004).
     *
     *   T. Thonhauser, V. R. Cooper, S. Li, A. Puzder, P. Hyldgaard, and
     *   D. C. Langreth, Phys. Rev. B 76, 125112 (2007).
     *
     *   G. Roman-Perez and J. M. Soler, Phys. Rev. Lett. 103, 096102 (2009).
     *
     *
     * If you are using vdW-DF2, please also cite:
     *
     *   K. Lee, E. D. Murray, L. Kong, B. I. Lundqvist, and
     *   D. C. Langreth, Phys. Rev. B 82, 081101(R) (2010).
     *
     *
     * If you are calculating the stress with vdW-DF, please also cite:
     *
     *   R. Sabatini, E. Kucukbenli, B. Kolb, T. Thonhauser, and
     *   S. de Gironcoli, J. Phys.: Condens. Matter 24, 424209 (2012).
     *

     Carrying out vdW-DF run using the following parameters:

     Nqs =      20    Nr_points =    1024   r_max =   100.000
     q_mesh =
               0.00001000     0.04494208     0.09755937     0.15916263
               0.23128650     0.31572767     0.41458969     0.53033537
               0.66584808     0.82450364     1.01025438     1.22772762
               1.48234092     1.78043706     2.12944203     2.53805004
               3.01644009     3.57652955     4.23227104     5.00000000

     Gradients computed in reciprocal space

     Starting wfc are   46 randomized atomic wfcs +    2 random wfc

     Self-consistent Calculation

     iteration #  1     ecut=    58.80 Ry     beta=0.10
     Davidson diagonalization with overlap
     ethr =  1.00E-02,  avg # of iterations =  3.5

[...]

     total energy              =    -716.04656949 Ry
     Harris-Foulkes estimate   =    -716.37433580 Ry
     estimated scf accuracy    <       2.01794675 Ry

[...]

     total energy              =    -715.97881686 Ry
     Harris-Foulkes estimate   =    -715.97885707 Ry
     estimated scf accuracy    <       0.00020542 Ry

     iteration #  9     ecut=    58.80 Ry     beta=0.10
     Davidson diagonalization with overlap
     ethr =  3.67E-07,  avg # of iterations =  1.2

     negative rho (up, down):  1.579E-03 0.000E+00

     End of self-consistent calculation

          k = 0.0000 0.0000 0.0000 (  2465 PWs)   bands (ev):

   -60.8149 -60.7980 -46.0316 -45.9829 -29.5941 -29.5941 -29.5047 -29.5038
   -29.5038 -29.4830 -19.9017 -19.9017 -19.6987 -19.6987 -19.6975 -19.6658
    10.8786  14.1445  14.4415  14.4419  14.4467  16.1938  16.1938  17.6136
    17.6136  17.6145  19.3152  19.4014  19.6713  19.6713  19.7041  19.7051
    19.9211  20.8246  21.0863  21.0870  21.0870  21.3680  21.3680  28.1384
    28.4444  28.9697  28.9724  28.9724  35.3774  35.3793  35.4439  35.4439

[...]

          k = 0.1093 0.1093 0.1545 (  2440 PWs)   bands (ev):

   -60.7985 -60.7980 -45.9845 -45.9829 -29.5932 -29.5919 -29.5912 -29.5905
   -29.4852 -29.4827 -19.9034 -19.8979 -19.8949 -19.8941 -19.6749 -19.6684
    14.1938  14.2276  14.4932  14.5193  16.2182  16.2188  16.2336  16.2929
    18.6443  18.8263  19.0982  19.1922  19.3854  19.5662  19.8236  19.8424
    19.8970  19.9119  20.9173  21.2320  21.3050  21.3580  21.6277  21.6853
    28.2349  28.2605  28.5850  28.8705  35.2738  35.3378  35.5030  35.6087

     the Fermi energy is    18.4945 ev

!    total energy              =    -715.97885922 Ry
     Harris-Foulkes estimate   =    -715.97883640 Ry
     estimated scf accuracy    <       0.00000084 Ry

     The total energy is the sum of the following terms:

     one-electron contribution =    -252.06545345 Ry
     hartree contribution      =     158.45324173 Ry
     xc contribution           =     -95.94154262 Ry
     ewald contribution        =    -526.42062011 Ry
     smearing contrib. (-TS)   =      -0.00448478 Ry

     convergence has been achieved in   9 iterations

     Forces acting on atoms (Ry/au):

     negative rho (up, down):  1.579E-03 0.000E+00
     atom    1 type  1   force =     0.00000000    0.00000000    0.00000000
     atom    2 type  1   force =     0.00000000    0.00000000    0.00000000
     atom    3 type  2   force =     0.00000000    0.00000000    0.00000000
     atom    4 type  2   force =     0.00000000    0.00000000    0.00000000

     Total force =     0.000000     Total SCF correction =     0.000000

     General routines

     Parallel routines

   This run was terminated on:   6:55:54  15Nov2017

   JOB DONE.