     Program PWSCF v.5.1rc2 starts on 15Nov2017 at  5:48:48

     Current dimensions of program PWSCF are:
     Max number of different atomic species (ntypx) = 10
     Max number of k-points (npk) =  40000
     Max angular momentum in pseudopotentials (lmaxx) =  3

     IMPORTANT: XC functional enforced from input :
     Exchange-correlation      = BEEF-VDW ( 1  4 27 13 2)
     Any further DFT definition will be discarded
     Please, verify this is what you really want

     Found symmetry operation: I + ( -0.5000 -0.5000  0.0000)
     This is a supercell, fractional translations are disabled

     bravais-lattice index     =            0
     lattice parameter (alat)  =       1.8897  a.u.
     unit-cell volume          =     725.3852 (a.u.)^3
     number of atoms/cell      =            4
     number of atomic types    =            2
     number of electrons       =        50.00
     number of Kohn-Sham states=           45
     kinetic-energy cutoff     =      58.7989  Ry
     charge density cutoff     =     587.9892  Ry
     convergence threshold     =      1.0E-06
     mixing beta               =       0.1000
     number of iterations used =           10  plain     mixing
     Exchange-correlation      = BEEF-VDW ( 1  4 27 13 2)

     celldm(1)=   1.889726  celldm(2)=   0.000000  celldm(3)=   0.000000
     celldm(4)=   0.000000  celldm(5)=   0.000000  celldm(6)=   0.000000

     crystal axes: (cart. coord. in units of alat)
               a(1) = (   4.945269   0.000000   0.000000 )
               a(2) = (   0.000000   4.945269   0.000000 )
               a(3) = (   0.000000   0.000000   4.395337 )

     reciprocal axes: (cart. coord. in units 2 pi/alat)
               b(1) = (  0.202213  0.000000  0.000000 )
               b(2) = (  0.000000  0.202213  0.000000 )
               b(3) = (  0.000000  0.000000  0.227514 )

     PseudoPot. # 1 for Sn read from file:
     /home/users/vossj/suncat/psp/gbrv1.5pbe/Sn.UPF
     MD5 check sum: 469debedee59599fedebd795477fea03
     Pseudo is Ultrasoft + core correction, Zval = 14.0
     Generated by new atomic code, or converted to UPF format
     Using radial grid of  891 points,  6 beta functions with:
                l(1) =   0
                l(2) =   0
                l(3) =   1
                l(4) =   1
                l(5) =   2
                l(6) =   2
     Q(r) pseudized with  8 coefficients,  rinner =    1.350   1.350   1.350
                                                       1.350   1.350

     PseudoPot. # 2 for Y  read from file:
     /home/users/vossj/suncat/psp/gbrv1.5pbe/Y.UPF
     MD5 check sum: d034151ed7554c50b6e82763ed42c788
     Pseudo is Ultrasoft + core correction, Zval = 11.0
     Generated by new atomic code, or converted to UPF format
     Using radial grid of  885 points,  6 beta functions with:
                l(1) =   0
                l(2) =   0
                l(3) =   1
                l(4) =   1
                l(5) =   2
                l(6) =   2
     Q(r) pseudized with  8 coefficients,  rinner =    1.200   1.200   1.200
                                                       1.200   1.200

     vdW kernel table read from file vdW_kernel_table
     MD5 check sum: 095c7af220d748ca6e76c0b4c6cfb241

     atomic species   valence    mass     pseudopotential
        Sn1           14.00   118.71000     Sn( 1.00)
        Y1            11.00    88.90590     Y ( 1.00)

     16 Sym. Ops., with inversion, found

   Cartesian axes

     site n.     atom                  positions (alat units)
         1           Sn1 tau(   1) = (   0.0000000   0.0000000   0.0000000  )
         2           Sn1 tau(   2) = (   2.4726345   2.4726345   0.0000000  )
         3           Y1  tau(   3) = (   2.4726345   0.0000000   2.1976687  )
         4           Y1  tau(   4) = (   0.0000000   2.4726345   2.1976687  )

     number of k points=    75  Fermi-Dirac smearing, width (Ry)=  0.0073
                       cart. coord. in units 2pi/alat
        k(    1) = (   0.0000000   0.0000000   0.0000000), wk =   0.0027435
        k(    2) = (   0.0000000   0.0000000   0.0252793), wk =   0.0054870
        k(    3) = (   0.0000000   0.0000000   0.0505586), wk =   0.0054870
        k(    4) = (   0.0000000   0.0000000   0.0758379), wk =   0.0054870
        k(    5) = (   0.0000000   0.0000000   0.1011173), wk =   0.0054870
        k(    6) = (   0.0000000   0.0224682   0.0000000), wk =   0.0109739
        k(    7) = (   0.0000000   0.0224682   0.0252793), wk =   0.0219479
        k(    8) = (   0.0000000   0.0224682   0.0505586), wk =   0.0219479
        k(    9) = (   0.0000000   0.0224682   0.0758379), wk =   0.0219479
        k(   10) = (   0.0000000   0.0224682   0.1011173), wk =   0.0219479
        k(   11) = (   0.0000000   0.0449363   0.0000000), wk =   0.0109739
        k(   12) = (   0.0000000   0.0449363   0.0252793), wk =   0.0219479
        k(   13) = (   0.0000000   0.0449363   0.0505586), wk =   0.0219479
        k(   14) = (   0.0000000   0.0449363   0.0758379), wk =   0.0219479
        k(   15) = (   0.0000000   0.0449363   0.1011173), wk =   0.0219479
        k(   16) = (   0.0000000   0.0674045   0.0000000), wk =   0.0109739
        k(   17) = (   0.0000000   0.0674045   0.0252793), wk =   0.0219479
        k(   18) = (   0.0000000   0.0674045   0.0505586), wk =   0.0219479
        k(   19) = (   0.0000000   0.0674045   0.0758379), wk =   0.0219479
        k(   20) = (   0.0000000   0.0674045   0.1011173), wk =   0.0219479
        k(   21) = (   0.0000000   0.0898727   0.0000000), wk =   0.0109739
        k(   22) = (   0.0000000   0.0898727   0.0252793), wk =   0.0219479
        k(   23) = (   0.0000000   0.0898727   0.0505586), wk =   0.0219479
        k(   24) = (   0.0000000   0.0898727   0.0758379), wk =   0.0219479
        k(   25) = (   0.0000000   0.0898727   0.1011173), wk =   0.0219479
        k(   26) = (   0.0224682   0.0224682   0.0000000), wk =   0.0109739
        k(   27) = (   0.0224682   0.0224682   0.0252793), wk =   0.0219479
        k(   28) = (   0.0224682   0.0224682   0.0505586), wk =   0.0219479
        k(   29) = (   0.0224682   0.0224682   0.0758379), wk =   0.0219479
        k(   30) = (   0.0224682   0.0224682   0.1011173), wk =   0.0219479
        k(   31) = (   0.0224682   0.0449363   0.0000000), wk =   0.0219479
        k(   32) = (   0.0224682   0.0449363   0.0252793), wk =   0.0438957
        k(   33) = (   0.0224682   0.0449363   0.0505586), wk =   0.0438957
        k(   34) = (   0.0224682   0.0449363   0.0758379), wk =   0.0438957
        k(   35) = (   0.0224682   0.0449363   0.1011173), wk =   0.0438957
        k(   36) = (   0.0224682   0.0674045   0.0000000), wk =   0.0219479
        k(   37) = (   0.0224682   0.0674045   0.0252793), wk =   0.0438957
        k(   38) = (   0.0224682   0.0674045   0.0505586), wk =   0.0438957
        k(   39) = (   0.0224682   0.0674045   0.0758379), wk =   0.0438957
        k(   40) = (   0.0224682   0.0674045   0.1011173), wk =   0.0438957
        k(   41) = (   0.0224682   0.0898727   0.0000000), wk =   0.0219479
        k(   42) = (   0.0224682   0.0898727   0.0252793), wk =   0.0438957
        k(   43) = (   0.0224682   0.0898727   0.0505586), wk =   0.0438957
        k(   44) = (   0.0224682   0.0898727   0.0758379), wk =   0.0438957
        k(   45) = (   0.0224682   0.0898727   0.1011173), wk =   0.0438957
        k(   46) = (   0.0449363   0.0449363   0.0000000), wk =   0.0109739
        k(   47) = (   0.0449363   0.0449363   0.0252793), wk =   0.0219479
        k(   48) = (   0.0449363   0.0449363   0.0505586), wk =   0.0219479
        k(   49) = (   0.0449363   0.0449363   0.0758379), wk =   0.0219479
        k(   50) = (   0.0449363   0.0449363   0.1011173), wk =   0.0219479
        k(   51) = (   0.0449363   0.0674045   0.0000000), wk =   0.0219479
        k(   52) = (   0.0449363   0.0674045   0.0252793), wk =   0.0438957
        k(   53) = (   0.0449363   0.0674045   0.0505586), wk =   0.0438957
        k(   54) = (   0.0449363   0.0674045   0.0758379), wk =   0.0438957
        k(   55) = (   0.0449363   0.0674045   0.1011173), wk =   0.0438957
        k(   56) = (   0.0449363   0.0898727   0.0000000), wk =   0.0219479
        k(   57) = (   0.0449363   0.0898727   0.0252793), wk =   0.0438957
        k(   58) = (   0.0449363   0.0898727   0.0505586), wk =   0.0438957
        k(   59) = (   0.0449363   0.0898727   0.0758379), wk =   0.0438957
        k(   60) = (   0.0449363   0.0898727   0.1011173), wk =   0.0438957
        k(   61) = (   0.0674045   0.0674045   0.0000000), wk =   0.0109739
        k(   62) = (   0.0674045   0.0674045   0.0252793), wk =   0.0219479
        k(   63) = (   0.0674045   0.0674045   0.0505586), wk =   0.0219479
        k(   64) = (   0.0674045   0.0674045   0.0758379), wk =   0.0219479
        k(   65) = (   0.0674045   0.0674045   0.1011173), wk =   0.0219479
        k(   66) = (   0.0674045   0.0898727   0.0000000), wk =   0.0219479
        k(   67) = (   0.0674045   0.0898727   0.0252793), wk =   0.0438957
        k(   68) = (   0.0674045   0.0898727   0.0505586), wk =   0.0438957
        k(   69) = (   0.0674045   0.0898727   0.0758379), wk =   0.0438957
        k(   70) = (   0.0674045   0.0898727   0.1011173), wk =   0.0438957
        k(   71) = (   0.0898727   0.0898727   0.0000000), wk =   0.0109739
        k(   72) = (   0.0898727   0.0898727   0.0252793), wk =   0.0219479
        k(   73) = (   0.0898727   0.0898727   0.0505586), wk =   0.0219479
        k(   74) = (   0.0898727   0.0898727   0.0758379), wk =   0.0219479
        k(   75) = (   0.0898727   0.0898727   0.1011173), wk =   0.0219479

     Largest allocated arrays     est. size (Mb)     dimensions
     Largest temporary arrays     est. size (Mb)     dimensions

     Initial potential from superposition of free atoms

     starting charge   47.99097, renormalised to   50.00000

     *
     * You are using vdW-DF for exchange-correlation in this calculation.
     * Please cite the following three references that made this development
     * possible:
     *
     *   M. Dion, H. Rydberg, E. Schroder, D. C. Langreth, and
     *   B. I. Lundqvist, Phys. Rev. Lett. 92, 246401 (2004).
     *
     *   T. Thonhauser, V. R. Cooper, S. Li, A. Puzder, P. Hyldgaard, and
     *   D. C. Langreth, Phys. Rev. B 76, 125112 (2007).
     *
     *   G. Roman-Perez and J. M. Soler, Phys. Rev. Lett. 103, 096102 (2009).
     *
     *
     * If you are using vdW-DF2, please also cite:
     *
     *   K. Lee, E. D. Murray, L. Kong, B. I. Lundqvist, and
     *   D. C. Langreth, Phys. Rev. B 82, 081101(R) (2010).
     *
     *
     * If you are calculating the stress with vdW-DF, please also cite:
     *
     *   R. Sabatini, E. Kucukbenli, B. Kolb, T. Thonhauser, and
     *   S. de Gironcoli, J. Phys.: Condens. Matter 24, 424209 (2012).
     *

     Carrying out vdW-DF run using the following parameters:

     Nqs =      20    Nr_points =    1024   r_max =   100.000
     q_mesh =
               0.00001000     0.04494208     0.09755937     0.15916263
               0.23128650     0.31572767     0.41458969     0.53033537
               0.66584808     0.82450364     1.01025438     1.22772762
               1.48234092     1.78043706     2.12944203     2.53805004
               3.01644009     3.57652955     4.23227104     5.00000000

     Gradients computed in reciprocal space

     Starting wfc are   44 randomized atomic wfcs +    1 random wfc

     Self-consistent Calculation

     iteration #  1     ecut=    58.80 Ry     beta=0.10
     Davidson diagonalization with overlap
     ethr =  1.00E-02,  avg # of iterations =  4.8

     total energy              =    -509.29115523 Ry
     Harris-Foulkes estimate   =    -509.42029714 Ry
     estimated scf accuracy    <       0.81140027 Ry

[...]

     total energy              =    -509.05712266 Ry
     Harris-Foulkes estimate   =    -509.05709926 Ry
     estimated scf accuracy    <       0.00000372 Ry

     iteration # 11     ecut=    58.80 Ry     beta=0.10
     Davidson diagonalization with overlap
     ethr =  7.44E-09,  avg # of iterations =  2.0

     End of self-consistent calculation

          k = 0.0000 0.0000 0.0000 (  5545 PWs)   bands (ev):

   -31.6760 -31.6180 -11.7710 -11.7710 -11.6621 -11.5740 -11.4421 -11.4421
   -10.1165 -10.0993 -10.0307 -10.0202 -10.0202  -9.9899  -9.9871  -9.9871
    -9.9615  -9.9340   2.1521   5.5862   9.4746   9.4746  10.4551  10.9902
    11.0906  11.4693  12.3718  12.3718  13.4739  13.7188  14.5692  14.5692
    14.6654  14.6654  15.7830  16.4003  17.0687  18.6952  18.9554  18.9554
    20.3239  21.5948  22.2949  24.1085  24.1086

[...]

          k = 0.0899 0.0899 0.1011 (  5523 PWs)   bands (ev):

   -31.6461 -31.6444 -11.8180 -11.8082 -11.6608 -11.6584 -11.4174 -11.4065
   -10.0612 -10.0603 -10.0593 -10.0550 -10.0217 -10.0216  -9.9862  -9.9857
    -9.9338  -9.9317   4.2908   4.3825   8.3935   8.4949   9.4020   9.5831
    10.8151  10.9265  13.7948  13.8149  14.3340  14.3366  14.5180  14.6229
    14.8987  15.3177  16.6304  16.6366  17.5538  17.7076  20.3574  20.5846
    20.9382  21.1220  21.6106  21.7685  22.7474

     the Fermi energy is    11.5436 ev

!    total energy              =    -509.05722681 Ry
     Harris-Foulkes estimate   =    -509.05712314 Ry
     estimated scf accuracy    <       0.00000030 Ry

     The total energy is the sum of the following terms:

     one-electron contribution =    -141.90765710 Ry
     hartree contribution      =     100.02705863 Ry
     xc contribution           =    -145.83618193 Ry
     ewald contribution        =    -321.33195876 Ry
     smearing contrib. (-TS)   =      -0.00848764 Ry

     convergence has been achieved in  11 iterations

     Forces acting on atoms (Ry/au):

     atom    1 type  1   force =     0.00000000    0.00000000    0.00000000
     atom    2 type  1   force =     0.00000000    0.00000000    0.00000000
     atom    3 type  2   force =     0.00000000    0.00000000    0.00000000
     atom    4 type  2   force =     0.00000000    0.00000000    0.00000000

     Total force =     0.000000     Total SCF correction =     0.000000

     General routines

     Parallel routines

   This run was terminated on:   5:49:36  15Nov2017

   JOB DONE.