     Program PWSCF v.5.1rc2 starts on 15Nov2017 at  4:45:56

     Current dimensions of program PWSCF are:
     Max number of different atomic species (ntypx) = 10
     Max number of k-points (npk) =  40000
     Max angular momentum in pseudopotentials (lmaxx) =  3

     IMPORTANT: XC functional enforced from input :
     Exchange-correlation      = BEEF-VDW ( 1  4 27 13 2)
     Any further DFT definition will be discarded
     Please, verify this is what you really want

     Found symmetry operation: I + ( -0.5000 -0.5000  0.0000)
     This is a supercell, fractional translations are disabled

     bravais-lattice index     =            0
     lattice parameter (alat)  =       1.8897  a.u.
     unit-cell volume          =     405.5330 (a.u.)^3
     number of atoms/cell      =            4
     number of atomic types    =            2
     number of electrons       =        58.00
     number of Kohn-Sham states=           49
     kinetic-energy cutoff     =      58.7989  Ry
     charge density cutoff     =     587.9892  Ry
     convergence threshold     =      1.0E-06
     mixing beta               =       0.1000
     number of iterations used =           10  plain     mixing
     Exchange-correlation      = BEEF-VDW ( 1  4 27 13 2)

     celldm(1)=   1.889726  celldm(2)=   0.000000  celldm(3)=   0.000000
     celldm(4)=   0.000000  celldm(5)=   0.000000  celldm(6)=   0.000000

     crystal axes: (cart. coord. in units of alat)
               a(1) = (   3.903540   0.000000   0.000000 )
               a(2) = (   0.000000   3.903540   0.000000 )
               a(3) = (   0.000000   0.000000   3.943778 )

     reciprocal axes: (cart. coord. in units 2 pi/alat)
               b(1) = (  0.256178  0.000000  0.000000 )
               b(2) = (  0.000000  0.256178  0.000000 )
               b(3) = (  0.000000  0.000000  0.253564 )

     PseudoPot. # 1 for Rh read from file:
     /home/users/vossj/suncat/psp/gbrv1.5pbe/Rh.UPF
     MD5 check sum: 761627e959a2e3a1f56b0b5fe687810e
     Pseudo is Ultrasoft + core correction, Zval = 15.0
     Generated by new atomic code, or converted to UPF format
     Using radial grid of  969 points,  7 beta functions with:
                l(1) =   0
                l(2) =   0
                l(3) =   1
                l(4) =   1
                l(5) =   2
                l(6) =   2
                l(7) =   2
     Q(r) pseudized with  8 coefficients,  rinner =    1.200   1.200   1.200
                                                       1.200   1.200

     PseudoPot. # 2 for W  read from file:
     /home/users/vossj/suncat/psp/gbrv1.5pbe/W.UPF
     MD5 check sum: 9c083fa34c2a2ea0f02f1f893e16e1c8
     Pseudo is Ultrasoft + core correction, Zval = 14.0
     Generated by new atomic code, or converted to UPF format
     Using radial grid of  923 points,  8 beta functions with:
                l(1) =   0
                l(2) =   0
                l(3) =   0
                l(4) =   1
                l(5) =   1
                l(6) =   2
                l(7) =   2
                l(8) =   3
     Q(r) pseudized with  6 coefficients,  rinner =    1.350   1.350   1.350
                                                       1.350   1.350   1.350
                                                       1.350

     vdW kernel table read from file vdW_kernel_table
     MD5 check sum: 095c7af220d748ca6e76c0b4c6cfb241

     atomic species   valence    mass     pseudopotential
        Rh1           15.00   102.90550     Rh( 1.00)
        W1            14.00   183.85000     W ( 1.00)

     16 Sym. Ops., with inversion, found

   Cartesian axes

     site n.     atom                  positions (alat units)
         1           Rh1 tau(   1) = (   0.0000000   0.0000000   0.0000000  )
         2           Rh1 tau(   2) = (   1.9517699   1.9517699   0.0000000  )
         3           W1  tau(   3) = (   1.9517699   0.0000000   1.9718888  )
         4           W1  tau(   4) = (   0.0000000   1.9517699   1.9718888  )

     number of k points=    75  Fermi-Dirac smearing, width (Ry)=  0.0073
                       cart. coord. in units 2pi/alat
        k(    1) = (   0.0000000   0.0000000   0.0000000), wk =   0.0027435
        k(    2) = (   0.0000000   0.0000000   0.0281738), wk =   0.0054870
        k(    3) = (   0.0000000   0.0000000   0.0563476), wk =   0.0054870
        k(    4) = (   0.0000000   0.0000000   0.0845213), wk =   0.0054870
        k(    5) = (   0.0000000   0.0000000   0.1126951), wk =   0.0054870
        k(    6) = (   0.0000000   0.0284642   0.0000000), wk =   0.0109739
        k(    7) = (   0.0000000   0.0284642   0.0281738), wk =   0.0219479
        k(    8) = (   0.0000000   0.0284642   0.0563476), wk =   0.0219479
        k(    9) = (   0.0000000   0.0284642   0.0845213), wk =   0.0219479
        k(   10) = (   0.0000000   0.0284642   0.1126951), wk =   0.0219479
        k(   11) = (   0.0000000   0.0569284   0.0000000), wk =   0.0109739
        k(   12) = (   0.0000000   0.0569284   0.0281738), wk =   0.0219479
        k(   13) = (   0.0000000   0.0569284   0.0563476), wk =   0.0219479
        k(   14) = (   0.0000000   0.0569284   0.0845213), wk =   0.0219479
        k(   15) = (   0.0000000   0.0569284   0.1126951), wk =   0.0219479
        k(   16) = (   0.0000000   0.0853926   0.0000000), wk =   0.0109739
        k(   17) = (   0.0000000   0.0853926   0.0281738), wk =   0.0219479
        k(   18) = (   0.0000000   0.0853926   0.0563476), wk =   0.0219479
        k(   19) = (   0.0000000   0.0853926   0.0845213), wk =   0.0219479
        k(   20) = (   0.0000000   0.0853926   0.1126951), wk =   0.0219479
        k(   21) = (   0.0000000   0.1138568   0.0000000), wk =   0.0109739
        k(   22) = (   0.0000000   0.1138568   0.0281738), wk =   0.0219479
        k(   23) = (   0.0000000   0.1138568   0.0563476), wk =   0.0219479
        k(   24) = (   0.0000000   0.1138568   0.0845213), wk =   0.0219479
        k(   25) = (   0.0000000   0.1138568   0.1126951), wk =   0.0219479
        k(   26) = (   0.0284642   0.0284642   0.0000000), wk =   0.0109739
        k(   27) = (   0.0284642   0.0284642   0.0281738), wk =   0.0219479
        k(   28) = (   0.0284642   0.0284642   0.0563476), wk =   0.0219479
        k(   29) = (   0.0284642   0.0284642   0.0845213), wk =   0.0219479
        k(   30) = (   0.0284642   0.0284642   0.1126951), wk =   0.0219479
        k(   31) = (   0.0284642   0.0569284   0.0000000), wk =   0.0219479
        k(   32) = (   0.0284642   0.0569284   0.0281738), wk =   0.0438957
        k(   33) = (   0.0284642   0.0569284   0.0563476), wk =   0.0438957
        k(   34) = (   0.0284642   0.0569284   0.0845213), wk =   0.0438957
        k(   35) = (   0.0284642   0.0569284   0.1126951), wk =   0.0438957
        k(   36) = (   0.0284642   0.0853926   0.0000000), wk =   0.0219479
        k(   37) = (   0.0284642   0.0853926   0.0281738), wk =   0.0438957
        k(   38) = (   0.0284642   0.0853926   0.0563476), wk =   0.0438957
        k(   39) = (   0.0284642   0.0853926   0.0845213), wk =   0.0438957
        k(   40) = (   0.0284642   0.0853926   0.1126951), wk =   0.0438957
        k(   41) = (   0.0284642   0.1138568   0.0000000), wk =   0.0219479
        k(   42) = (   0.0284642   0.1138568   0.0281738), wk =   0.0438957
        k(   43) = (   0.0284642   0.1138568   0.0563476), wk =   0.0438957
        k(   44) = (   0.0284642   0.1138568   0.0845213), wk =   0.0438957
        k(   45) = (   0.0284642   0.1138568   0.1126951), wk =   0.0438957
        k(   46) = (   0.0569284   0.0569284   0.0000000), wk =   0.0109739
        k(   47) = (   0.0569284   0.0569284   0.0281738), wk =   0.0219479
        k(   48) = (   0.0569284   0.0569284   0.0563476), wk =   0.0219479
        k(   49) = (   0.0569284   0.0569284   0.0845213), wk =   0.0219479
        k(   50) = (   0.0569284   0.0569284   0.1126951), wk =   0.0219479
        k(   51) = (   0.0569284   0.0853926   0.0000000), wk =   0.0219479
        k(   52) = (   0.0569284   0.0853926   0.0281738), wk =   0.0438957
        k(   53) = (   0.0569284   0.0853926   0.0563476), wk =   0.0438957
        k(   54) = (   0.0569284   0.0853926   0.0845213), wk =   0.0438957
        k(   55) = (   0.0569284   0.0853926   0.1126951), wk =   0.0438957
        k(   56) = (   0.0569284   0.1138568   0.0000000), wk =   0.0219479
        k(   57) = (   0.0569284   0.1138568   0.0281738), wk =   0.0438957
        k(   58) = (   0.0569284   0.1138568   0.0563476), wk =   0.0438957
        k(   59) = (   0.0569284   0.1138568   0.0845213), wk =   0.0438957
        k(   60) = (   0.0569284   0.1138568   0.1126951), wk =   0.0438957
        k(   61) = (   0.0853926   0.0853926   0.0000000), wk =   0.0109739
        k(   62) = (   0.0853926   0.0853926   0.0281738), wk =   0.0219479
        k(   63) = (   0.0853926   0.0853926   0.0563476), wk =   0.0219479
        k(   64) = (   0.0853926   0.0853926   0.0845213), wk =   0.0219479
        k(   65) = (   0.0853926   0.0853926   0.1126951), wk =   0.0219479
        k(   66) = (   0.0853926   0.1138568   0.0000000), wk =   0.0219479
        k(   67) = (   0.0853926   0.1138568   0.0281738), wk =   0.0438957
        k(   68) = (   0.0853926   0.1138568   0.0563476), wk =   0.0438957
        k(   69) = (   0.0853926   0.1138568   0.0845213), wk =   0.0438957
        k(   70) = (   0.0853926   0.1138568   0.1126951), wk =   0.0438957
        k(   71) = (   0.1138568   0.1138568   0.0000000), wk =   0.0109739
        k(   72) = (   0.1138568   0.1138568   0.0281738), wk =   0.0219479
        k(   73) = (   0.1138568   0.1138568   0.0563476), wk =   0.0219479
        k(   74) = (   0.1138568   0.1138568   0.0845213), wk =   0.0219479
        k(   75) = (   0.1138568   0.1138568   0.1126951), wk =   0.0219479

     Largest allocated arrays     est. size (Mb)     dimensions
     Largest temporary arrays     est. size (Mb)     dimensions

     Initial potential from superposition of free atoms
     Check: negative starting charge=   -0.236899

     starting charge   56.79912, renormalised to   58.00000

     negative rho (up, down):  2.419E-01 0.000E+00

     *
     * You are using vdW-DF for exchange-correlation in this calculation.
     * Please cite the following three references that made this development
     * possible:
     *
     *   M. Dion, H. Rydberg, E. Schroder, D. C. Langreth, and
     *   B. I. Lundqvist, Phys. Rev. Lett. 92, 246401 (2004).
     *
     *   T. Thonhauser, V. R. Cooper, S. Li, A. Puzder, P. Hyldgaard, and
     *   D. C. Langreth, Phys. Rev. B 76, 125112 (2007).
     *
     *   G. Roman-Perez and J. M. Soler, Phys. Rev. Lett. 103, 096102 (2009).
     *
     *
     * If you are using vdW-DF2, please also cite:
     *
     *   K. Lee, E. D. Murray, L. Kong, B. I. Lundqvist, and
     *   D. C. Langreth, Phys. Rev. B 82, 081101(R) (2010).
     *
     *
     * If you are calculating the stress with vdW-DF, please also cite:
     *
     *   R. Sabatini, E. Kucukbenli, B. Kolb, T. Thonhauser, and
     *   S. de Gironcoli, J. Phys.: Condens. Matter 24, 424209 (2012).
     *

     Carrying out vdW-DF run using the following parameters:

     Nqs =      20    Nr_points =    1024   r_max =   100.000
     q_mesh =
               0.00001000     0.04494208     0.09755937     0.15916263
               0.23128650     0.31572767     0.41458969     0.53033537
               0.66584808     0.82450364     1.01025438     1.22772762
               1.48234092     1.78043706     2.12944203     2.53805004
               3.01644009     3.57652955     4.23227104     5.00000000

     Gradients computed in reciprocal space

     Starting wfc are   50 randomized atomic wfcs

     Self-consistent Calculation

     iteration #  1     ecut=    58.80 Ry     beta=0.10
     Davidson diagonalization with overlap
     ethr =  1.00E-02,  avg # of iterations =  4.3

[...]

     total energy              =    -665.60934208 Ry
     Harris-Foulkes estimate   =    -665.72284241 Ry
     estimated scf accuracy    <       0.78612272 Ry

[...]

     total energy              =    -665.50854002 Ry
     Harris-Foulkes estimate   =    -665.50853946 Ry
     estimated scf accuracy    <       0.00000112 Ry

     iteration #  9     ecut=    58.80 Ry     beta=0.10
     Davidson diagonalization with overlap
     ethr =  1.93E-09,  avg # of iterations =  2.2

     negative rho (up, down):  2.576E-01 0.000E+00

     End of self-consistent calculation

          k = 0.0000 0.0000 0.0000 (  3087 PWs)   bands (ev):

   -53.2826 -53.1798 -25.5761 -25.5761 -25.5610 -25.4853 -25.3110 -25.3110
   -17.6164 -17.6164 -17.4295 -17.2841 -16.9249 -16.9249  12.6663  15.2312
    15.3090  15.3253  15.8603  15.8603  15.9254  18.8954  18.8954  19.2686
    20.6891  21.5368  21.9797  22.3679  24.2090  24.2195  24.2195  24.4677
    24.4677  24.7039  24.9314  24.9314  25.3881  27.3425  32.4567  33.6842
    33.8942  33.8942  33.9215  33.9215  34.0684  34.9772  35.0023  35.7220
    40.9190

[...]

          k = 0.1139 0.1139 0.1127 (  3098 PWs)   bands (ev):

   -53.2321 -53.2290 -25.6128 -25.6051 -25.5312 -25.5294 -25.2925 -25.2844
   -17.7039 -17.6840 -17.3678 -17.3625 -16.8816 -16.8594  15.1974  15.2593
    15.6681  15.7003  18.2929  18.3395  18.6594  18.7979  18.9034  18.9847
    19.6114  19.7581  21.1407  21.3362  21.5353  21.5820  22.4259  22.7979
    23.7476  24.2238  24.7665  24.8616  25.0484  25.2585  30.6127  30.7171
    31.5483  31.8251  35.3526  35.3892  35.5520  35.6640  40.1407  40.4099
    40.4837

     the Fermi energy is    21.3387 ev

!    total energy              =    -665.50854164 Ry
     Harris-Foulkes estimate   =    -665.50854027 Ry
     estimated scf accuracy    <       0.00000038 Ry

     The total energy is the sum of the following terms:

     one-electron contribution =     -82.25196593 Ry
     hartree contribution      =      85.37951785 Ry
     xc contribution           =    -147.39844319 Ry
     ewald contribution        =    -521.23206484 Ry
     smearing contrib. (-TS)   =      -0.00558553 Ry

     convergence has been achieved in   9 iterations

     Forces acting on atoms (Ry/au):

     negative rho (up, down):  2.576E-01 0.000E+00
     atom    1 type  1   force =     0.00000000    0.00000000    0.00000000
     atom    2 type  1   force =     0.00000000    0.00000000    0.00000000
     atom    3 type  2   force =     0.00000000    0.00000000    0.00000000
     atom    4 type  2   force =     0.00000000    0.00000000    0.00000000

     Total force =     0.000000     Total SCF correction =     0.000000

     General routines

     Parallel routines

   This run was terminated on:   4:46:26  15Nov2017

   JOB DONE.