     Program PWSCF v.5.1rc2 starts on 15Nov2017 at  5:55:22

     Current dimensions of program PWSCF are:
     Max number of different atomic species (ntypx) = 10
     Max number of k-points (npk) =  40000
     Max angular momentum in pseudopotentials (lmaxx) =  3

     IMPORTANT: XC functional enforced from input :
     Exchange-correlation      = BEEF-VDW ( 1  4 27 13 2)
     Any further DFT definition will be discarded
     Please, verify this is what you really want

     Found symmetry operation: I + (  0.5000  0.5000  0.0000)
     This is a supercell, fractional translations are disabled

     bravais-lattice index     =            0
     lattice parameter (alat)  =       1.8897  a.u.
     unit-cell volume          =     387.6292 (a.u.)^3
     number of atoms/cell      =            4
     number of atomic types    =            2
     number of electrons       =        58.00
     number of Kohn-Sham states=           49
     kinetic-energy cutoff     =      58.7989  Ry
     charge density cutoff     =     587.9892  Ry
     convergence threshold     =      1.0E-06
     mixing beta               =       0.1000
     number of iterations used =           10  plain     mixing
     Exchange-correlation      = BEEF-VDW ( 1  4 27 13 2)

     celldm(1)=   1.889726  celldm(2)=   0.000000  celldm(3)=   0.000000
     celldm(4)=   0.000000  celldm(5)=   0.000000  celldm(6)=   0.000000

     crystal axes: (cart. coord. in units of alat)
               a(1) = (   3.830801   0.000000   0.000000 )
               a(2) = (   0.000000   3.830801   0.000000 )
               a(3) = (   0.000000   0.000000   3.914179 )

     reciprocal axes: (cart. coord. in units 2 pi/alat)
               b(1) = (  0.261042  0.000000  0.000000 )
               b(2) = (  0.000000  0.261042  0.000000 )
               b(3) = (  0.000000  0.000000  0.255481 )

     PseudoPot. # 1 for V  read from file:
     /home/users/vossj/suncat/psp/gbrv1.5pbe/V.UPF
     MD5 check sum: 22b79981416ebb76fdaf5b1b8640f6fb
     Pseudo is Ultrasoft + core correction, Zval = 13.0
     Generated by new atomic code, or converted to UPF format
     Using radial grid of  853 points,  6 beta functions with:
                l(1) =   0
                l(2) =   0
                l(3) =   1
                l(4) =   1
                l(5) =   2
                l(6) =   2
     Q(r) pseudized with  8 coefficients,  rinner =    1.100   1.100   1.100
                                                       1.100   1.100

     PseudoPot. # 2 for Pt read from file:
     /home/users/vossj/suncat/psp/gbrv1.5pbe/Pt.UPF
     MD5 check sum: f09d6de1a584b5a045c4fc126da2d0c4
     Pseudo is Ultrasoft + core correction, Zval = 16.0
     Generated by new atomic code, or converted to UPF format
     Using radial grid of  985 points,  6 beta functions with:
                l(1) =   0
                l(2) =   0
                l(3) =   1
                l(4) =   1
                l(5) =   2
                l(6) =   2
     Q(r) pseudized with  8 coefficients,  rinner =    1.300   1.300   1.300
                                                       1.300   1.300

     vdW kernel table read from file vdW_kernel_table
     MD5 check sum: 095c7af220d748ca6e76c0b4c6cfb241

     atomic species   valence    mass     pseudopotential
        V1            13.00    50.94150     V ( 1.00)
        Pt1           16.00   195.08000     Pt( 1.00)

     16 Sym. Ops., with inversion, found

   Cartesian axes

     site n.     atom                  positions (alat units)
         1           V1  tau(   1) = (   0.0000000   0.0000000   0.0000000  )
         2           V1  tau(   2) = (   1.9154004   1.9154004   0.0000000  )
         3           Pt1 tau(   3) = (   1.9154004   0.0000000   1.9570897  )
         4           Pt1 tau(   4) = (   0.0000000   1.9154004   1.9570897  )

     number of k points=    75  Fermi-Dirac smearing, width (Ry)=  0.0073
                       cart. coord. in units 2pi/alat
        k(    1) = (   0.0000000   0.0000000   0.0000000), wk =   0.0027435
        k(    2) = (   0.0000000   0.0000000   0.0283868), wk =   0.0054870
        k(    3) = (   0.0000000   0.0000000   0.0567736), wk =   0.0054870
        k(    4) = (   0.0000000   0.0000000   0.0851605), wk =   0.0054870
        k(    5) = (   0.0000000   0.0000000   0.1135473), wk =   0.0054870
        k(    6) = (   0.0000000   0.0290047   0.0000000), wk =   0.0109739
        k(    7) = (   0.0000000   0.0290047   0.0283868), wk =   0.0219479
        k(    8) = (   0.0000000   0.0290047   0.0567736), wk =   0.0219479
        k(    9) = (   0.0000000   0.0290047   0.0851605), wk =   0.0219479
        k(   10) = (   0.0000000   0.0290047   0.1135473), wk =   0.0219479
        k(   11) = (   0.0000000   0.0580093   0.0000000), wk =   0.0109739
        k(   12) = (   0.0000000   0.0580093   0.0283868), wk =   0.0219479
        k(   13) = (   0.0000000   0.0580093   0.0567736), wk =   0.0219479
        k(   14) = (   0.0000000   0.0580093   0.0851605), wk =   0.0219479
        k(   15) = (   0.0000000   0.0580093   0.1135473), wk =   0.0219479
        k(   16) = (   0.0000000   0.0870140   0.0000000), wk =   0.0109739
        k(   17) = (   0.0000000   0.0870140   0.0283868), wk =   0.0219479
        k(   18) = (   0.0000000   0.0870140   0.0567736), wk =   0.0219479
        k(   19) = (   0.0000000   0.0870140   0.0851605), wk =   0.0219479
        k(   20) = (   0.0000000   0.0870140   0.1135473), wk =   0.0219479
        k(   21) = (   0.0000000   0.1160187   0.0000000), wk =   0.0109739
        k(   22) = (   0.0000000   0.1160187   0.0283868), wk =   0.0219479
        k(   23) = (   0.0000000   0.1160187   0.0567736), wk =   0.0219479
        k(   24) = (   0.0000000   0.1160187   0.0851605), wk =   0.0219479
        k(   25) = (   0.0000000   0.1160187   0.1135473), wk =   0.0219479
        k(   26) = (   0.0290047   0.0290047   0.0000000), wk =   0.0109739
        k(   27) = (   0.0290047   0.0290047   0.0283868), wk =   0.0219479
        k(   28) = (   0.0290047   0.0290047   0.0567736), wk =   0.0219479
        k(   29) = (   0.0290047   0.0290047   0.0851605), wk =   0.0219479
        k(   30) = (   0.0290047   0.0290047   0.1135473), wk =   0.0219479
        k(   31) = (   0.0290047   0.0580093   0.0000000), wk =   0.0219479
        k(   32) = (   0.0290047   0.0580093   0.0283868), wk =   0.0438957
        k(   33) = (   0.0290047   0.0580093   0.0567736), wk =   0.0438957
        k(   34) = (   0.0290047   0.0580093   0.0851605), wk =   0.0438957
        k(   35) = (   0.0290047   0.0580093   0.1135473), wk =   0.0438957
        k(   36) = (   0.0290047   0.0870140   0.0000000), wk =   0.0219479
        k(   37) = (   0.0290047   0.0870140   0.0283868), wk =   0.0438957
        k(   38) = (   0.0290047   0.0870140   0.0567736), wk =   0.0438957
        k(   39) = (   0.0290047   0.0870140   0.0851605), wk =   0.0438957
        k(   40) = (   0.0290047   0.0870140   0.1135473), wk =   0.0438957
        k(   41) = (   0.0290047   0.1160187   0.0000000), wk =   0.0219479
        k(   42) = (   0.0290047   0.1160187   0.0283868), wk =   0.0438957
        k(   43) = (   0.0290047   0.1160187   0.0567736), wk =   0.0438957
        k(   44) = (   0.0290047   0.1160187   0.0851605), wk =   0.0438957
        k(   45) = (   0.0290047   0.1160187   0.1135473), wk =   0.0438957
        k(   46) = (   0.0580093   0.0580093   0.0000000), wk =   0.0109739
        k(   47) = (   0.0580093   0.0580093   0.0283868), wk =   0.0219479
        k(   48) = (   0.0580093   0.0580093   0.0567736), wk =   0.0219479
        k(   49) = (   0.0580093   0.0580093   0.0851605), wk =   0.0219479
        k(   50) = (   0.0580093   0.0580093   0.1135473), wk =   0.0219479
        k(   51) = (   0.0580093   0.0870140   0.0000000), wk =   0.0219479
        k(   52) = (   0.0580093   0.0870140   0.0283868), wk =   0.0438957
        k(   53) = (   0.0580093   0.0870140   0.0567736), wk =   0.0438957
        k(   54) = (   0.0580093   0.0870140   0.0851605), wk =   0.0438957
        k(   55) = (   0.0580093   0.0870140   0.1135473), wk =   0.0438957
        k(   56) = (   0.0580093   0.1160187   0.0000000), wk =   0.0219479
        k(   57) = (   0.0580093   0.1160187   0.0283868), wk =   0.0438957
        k(   58) = (   0.0580093   0.1160187   0.0567736), wk =   0.0438957
        k(   59) = (   0.0580093   0.1160187   0.0851605), wk =   0.0438957
        k(   60) = (   0.0580093   0.1160187   0.1135473), wk =   0.0438957
        k(   61) = (   0.0870140   0.0870140   0.0000000), wk =   0.0109739
        k(   62) = (   0.0870140   0.0870140   0.0283868), wk =   0.0219479
        k(   63) = (   0.0870140   0.0870140   0.0567736), wk =   0.0219479
        k(   64) = (   0.0870140   0.0870140   0.0851605), wk =   0.0219479
        k(   65) = (   0.0870140   0.0870140   0.1135473), wk =   0.0219479
        k(   66) = (   0.0870140   0.1160187   0.0000000), wk =   0.0219479
        k(   67) = (   0.0870140   0.1160187   0.0283868), wk =   0.0438957
        k(   68) = (   0.0870140   0.1160187   0.0567736), wk =   0.0438957
        k(   69) = (   0.0870140   0.1160187   0.0851605), wk =   0.0438957
        k(   70) = (   0.0870140   0.1160187   0.1135473), wk =   0.0438957
        k(   71) = (   0.1160187   0.1160187   0.0000000), wk =   0.0109739
        k(   72) = (   0.1160187   0.1160187   0.0283868), wk =   0.0219479
        k(   73) = (   0.1160187   0.1160187   0.0567736), wk =   0.0219479
        k(   74) = (   0.1160187   0.1160187   0.0851605), wk =   0.0219479
        k(   75) = (   0.1160187   0.1160187   0.1135473), wk =   0.0219479

     Largest allocated arrays     est. size (Mb)     dimensions
     Largest temporary arrays     est. size (Mb)     dimensions

     Check: negative/imaginary core charge=   -0.000001    0.000000

     Initial potential from superposition of free atoms
     Check: negative starting charge=   -0.367873

     starting charge   56.99752, renormalised to   58.00000

     negative rho (up, down):  3.743E-01 0.000E+00

     *
     * You are using vdW-DF for exchange-correlation in this calculation.
     * Please cite the following three references that made this development
     * possible:
     *
     *   M. Dion, H. Rydberg, E. Schroder, D. C. Langreth, and
     *   B. I. Lundqvist, Phys. Rev. Lett. 92, 246401 (2004).
     *
     *   T. Thonhauser, V. R. Cooper, S. Li, A. Puzder, P. Hyldgaard, and
     *   D. C. Langreth, Phys. Rev. B 76, 125112 (2007).
     *
     *   G. Roman-Perez and J. M. Soler, Phys. Rev. Lett. 103, 096102 (2009).
     *
     *
     * If you are using vdW-DF2, please also cite:
     *
     *   K. Lee, E. D. Murray, L. Kong, B. I. Lundqvist, and
     *   D. C. Langreth, Phys. Rev. B 82, 081101(R) (2010).
     *
     *
     * If you are calculating the stress with vdW-DF, please also cite:
     *
     *   R. Sabatini, E. Kucukbenli, B. Kolb, T. Thonhauser, and
     *   S. de Gironcoli, J. Phys.: Condens. Matter 24, 424209 (2012).
     *

     Carrying out vdW-DF run using the following parameters:

     Nqs =      20    Nr_points =    1024   r_max =   100.000
     q_mesh =
               0.00001000     0.04494208     0.09755937     0.15916263
               0.23128650     0.31572767     0.41458969     0.53033537
               0.66584808     0.82450364     1.01025438     1.22772762
               1.48234092     1.78043706     2.12944203     2.53805004
               3.01644009     3.57652955     4.23227104     5.00000000

     Gradients computed in reciprocal space

     Starting wfc are   44 randomized atomic wfcs +    5 random wfc

     Self-consistent Calculation

     iteration #  1     ecut=    58.80 Ry     beta=0.10
     Davidson diagonalization with overlap
     ethr =  1.00E-02,  avg # of iterations =  4.2

[...]

     total energy              =    -716.27271940 Ry
     Harris-Foulkes estimate   =    -717.26155995 Ry
     estimated scf accuracy    <       5.78582934 Ry

[...]

     total energy              =    -716.49400609 Ry
     Harris-Foulkes estimate   =    -716.49400484 Ry
     estimated scf accuracy    <       0.00000102 Ry

     iteration # 13     ecut=    58.80 Ry     beta=0.10
     Davidson diagonalization with overlap
     ethr =  1.76E-09,  avg # of iterations =  1.2

     negative rho (up, down):  3.542E-01 0.000E+00

     End of self-consistent calculation

          k = 0.0000 0.0000 0.0000 (  2955 PWs)   bands (ev):

   -44.8622 -44.7626 -33.9619 -33.9619 -33.8099 -33.7473 -33.6828 -33.6828
   -18.7844 -18.7145 -18.7145 -18.7028 -18.3615 -18.3615  10.6406  12.9165
    13.4710  13.5845  14.1640  14.1640  14.4698  16.9009  16.9009  18.4895
    18.6187  19.8746  20.0644  20.5959  21.6313  21.6313  21.7197  21.8314
    21.8314  21.8379  21.9617  22.2779  22.2779  22.6268  28.6842  30.0210
    31.8055  32.0602  32.1301  32.1301  32.2947  32.4267  32.4267  35.6208
    38.7814

[...]

          k = 0.1160 0.1160 0.1135 (  2971 PWs)   bands (ev):

   -44.8129 -44.8099 -33.9943 -33.9860 -33.7824 -33.7807 -33.6661 -33.6575
   -18.7630 -18.7526 -18.7499 -18.7472 -18.3387 -18.3277  13.2736  13.4041
    13.5738  13.5876  15.9991  16.0279  16.2655  16.4699  17.0508  17.1452
    18.7750  18.9149  19.0459  19.3433  19.5232  19.6667  20.5147  20.8123
    21.4015  21.6365  21.7665  21.7676  22.0233  22.0617  25.7569  26.0416
    28.6831  28.9264  34.9893  35.0082  35.1332  35.2095  39.0244  39.2020
    39.8674

     the Fermi energy is    19.7889 ev

!    total energy              =    -716.49401233 Ry
     Harris-Foulkes estimate   =    -716.49400618 Ry
     estimated scf accuracy    <       0.00000005 Ry

     The total energy is the sum of the following terms:

     one-electron contribution =    -136.34159802 Ry
     hartree contribution      =     109.57609918 Ry
     xc contribution           =    -158.16252120 Ry
     ewald contribution        =    -531.55796712 Ry
     smearing contrib. (-TS)   =      -0.00802517 Ry

     convergence has been achieved in  13 iterations

     Forces acting on atoms (Ry/au):

     negative rho (up, down):  3.542E-01 0.000E+00
     atom    1 type  1   force =     0.00000000    0.00000000    0.00000000
     atom    2 type  1   force =     0.00000000    0.00000000    0.00000000
     atom    3 type  2   force =     0.00000000    0.00000000    0.00000000
     atom    4 type  2   force =     0.00000000    0.00000000    0.00000000

     Total force =     0.000000     Total SCF correction =     0.000000

     General routines

     Parallel routines

   This run was terminated on:   5:55:58  15Nov2017

   JOB DONE.