     Program PWSCF v.5.1rc2 starts on 14Nov2017 at  8:52:52

     Current dimensions of program PWSCF are:
     Max number of different atomic species (ntypx) = 10
     Max number of k-points (npk) =  40000
     Max angular momentum in pseudopotentials (lmaxx) =  3

     IMPORTANT: XC functional enforced from input :
     Exchange-correlation      = BEEF-VDW ( 1  4 27 13 2)
     Any further DFT definition will be discarded
     Please, verify this is what you really want

     Found symmetry operation: I + ( -0.5000 -0.5000  0.0000)
     This is a supercell, fractional translations are disabled

     bravais-lattice index     =            0
     lattice parameter (alat)  =       1.8897  a.u.
     unit-cell volume          =     551.2752 (a.u.)^3
     number of atoms/cell      =            4
     number of atomic types    =            2
     number of electrons       =        50.00
     number of Kohn-Sham states=           45
     kinetic-energy cutoff     =      58.7989  Ry
     charge density cutoff     =     587.9892  Ry
     convergence threshold     =      1.0E-06
     mixing beta               =       0.1000
     number of iterations used =           10  plain     mixing
     Exchange-correlation      = BEEF-VDW ( 1  4 27 13 2)

     celldm(1)=   1.889726  celldm(2)=   0.000000  celldm(3)=   0.000000
     celldm(4)=   0.000000  celldm(5)=   0.000000  celldm(6)=   0.000000

     crystal axes: (cart. coord. in units of alat)
               a(1) = (   4.936277   0.000000   0.000000 )
               a(2) = (   0.000000   4.936277   0.000000 )
               a(3) = (   0.000000   0.000000   3.352531 )

     reciprocal axes: (cart. coord. in units 2 pi/alat)
               b(1) = (  0.202582  0.000000  0.000000 )
               b(2) = (  0.000000  0.202582  0.000000 )
               b(3) = (  0.000000  0.000000  0.298282 )

     PseudoPot. # 1 for Cr read from file:
     /home/users/vossj/suncat/psp/gbrv1.5pbe/Cr.UPF
     MD5 check sum: 0d52af634a40206e4dee301ad30da4bf
     Pseudo is Ultrasoft + core correction, Zval = 14.0
     Generated by new atomic code, or converted to UPF format
     Using radial grid of  857 points,  6 beta functions with:
                l(1) =   0
                l(2) =   0
                l(3) =   1
                l(4) =   1
                l(5) =   2
                l(6) =   2
     Q(r) pseudized with  8 coefficients,  rinner =    0.950   0.950   0.950
                                                       0.950   0.950

     PseudoPot. # 2 for Y  read from file:
     /home/users/vossj/suncat/psp/gbrv1.5pbe/Y.UPF
     MD5 check sum: d034151ed7554c50b6e82763ed42c788
     Pseudo is Ultrasoft + core correction, Zval = 11.0
     Generated by new atomic code, or converted to UPF format
     Using radial grid of  885 points,  6 beta functions with:
                l(1) =   0
                l(2) =   0
                l(3) =   1
                l(4) =   1
                l(5) =   2
                l(6) =   2
     Q(r) pseudized with  8 coefficients,  rinner =    1.200   1.200   1.200
                                                       1.200   1.200

     vdW kernel table read from file vdW_kernel_table
     MD5 check sum: 095c7af220d748ca6e76c0b4c6cfb241

     atomic species   valence    mass     pseudopotential
        Cr1           14.00    51.99600     Cr( 1.00)
        Y1            11.00    88.90590     Y ( 1.00)

     16 Sym. Ops., with inversion, found

   Cartesian axes

     site n.     atom                  positions (alat units)
         1           Cr1 tau(   1) = (   0.0000000   0.0000000   0.0000000  )
         2           Cr1 tau(   2) = (   2.4681385   2.4681385   0.0000000  )
         3           Y1  tau(   3) = (   2.4681385   0.0000000   1.6762655  )
         4           Y1  tau(   4) = (   0.0000000   2.4681385   1.6762655  )

     number of k points=    75  Fermi-Dirac smearing, width (Ry)=  0.0073
                       cart. coord. in units 2pi/alat
        k(    1) = (   0.0000000   0.0000000   0.0000000), wk =   0.0027435
        k(    2) = (   0.0000000   0.0000000   0.0331425), wk =   0.0054870
        k(    3) = (   0.0000000   0.0000000   0.0662849), wk =   0.0054870
        k(    4) = (   0.0000000   0.0000000   0.0994274), wk =   0.0054870
        k(    5) = (   0.0000000   0.0000000   0.1325698), wk =   0.0054870
        k(    6) = (   0.0000000   0.0225091   0.0000000), wk =   0.0109739
        k(    7) = (   0.0000000   0.0225091   0.0331425), wk =   0.0219479
        k(    8) = (   0.0000000   0.0225091   0.0662849), wk =   0.0219479
        k(    9) = (   0.0000000   0.0225091   0.0994274), wk =   0.0219479
        k(   10) = (   0.0000000   0.0225091   0.1325698), wk =   0.0219479
        k(   11) = (   0.0000000   0.0450182   0.0000000), wk =   0.0109739
        k(   12) = (   0.0000000   0.0450182   0.0331425), wk =   0.0219479
        k(   13) = (   0.0000000   0.0450182   0.0662849), wk =   0.0219479
        k(   14) = (   0.0000000   0.0450182   0.0994274), wk =   0.0219479
        k(   15) = (   0.0000000   0.0450182   0.1325698), wk =   0.0219479
        k(   16) = (   0.0000000   0.0675273   0.0000000), wk =   0.0109739
        k(   17) = (   0.0000000   0.0675273   0.0331425), wk =   0.0219479
        k(   18) = (   0.0000000   0.0675273   0.0662849), wk =   0.0219479
        k(   19) = (   0.0000000   0.0675273   0.0994274), wk =   0.0219479
        k(   20) = (   0.0000000   0.0675273   0.1325698), wk =   0.0219479
        k(   21) = (   0.0000000   0.0900364   0.0000000), wk =   0.0109739
        k(   22) = (   0.0000000   0.0900364   0.0331425), wk =   0.0219479
        k(   23) = (   0.0000000   0.0900364   0.0662849), wk =   0.0219479
        k(   24) = (   0.0000000   0.0900364   0.0994274), wk =   0.0219479
        k(   25) = (   0.0000000   0.0900364   0.1325698), wk =   0.0219479
        k(   26) = (   0.0225091   0.0225091   0.0000000), wk =   0.0109739
        k(   27) = (   0.0225091   0.0225091   0.0331425), wk =   0.0219479
        k(   28) = (   0.0225091   0.0225091   0.0662849), wk =   0.0219479
        k(   29) = (   0.0225091   0.0225091   0.0994274), wk =   0.0219479
        k(   30) = (   0.0225091   0.0225091   0.1325698), wk =   0.0219479
        k(   31) = (   0.0225091   0.0450182   0.0000000), wk =   0.0219479
        k(   32) = (   0.0225091   0.0450182   0.0331425), wk =   0.0438957
        k(   33) = (   0.0225091   0.0450182   0.0662849), wk =   0.0438957
        k(   34) = (   0.0225091   0.0450182   0.0994274), wk =   0.0438957
        k(   35) = (   0.0225091   0.0450182   0.1325698), wk =   0.0438957
        k(   36) = (   0.0225091   0.0675273   0.0000000), wk =   0.0219479
        k(   37) = (   0.0225091   0.0675273   0.0331425), wk =   0.0438957
        k(   38) = (   0.0225091   0.0675273   0.0662849), wk =   0.0438957
        k(   39) = (   0.0225091   0.0675273   0.0994274), wk =   0.0438957
        k(   40) = (   0.0225091   0.0675273   0.1325698), wk =   0.0438957
        k(   41) = (   0.0225091   0.0900364   0.0000000), wk =   0.0219479
        k(   42) = (   0.0225091   0.0900364   0.0331425), wk =   0.0438957
        k(   43) = (   0.0225091   0.0900364   0.0662849), wk =   0.0438957
        k(   44) = (   0.0225091   0.0900364   0.0994274), wk =   0.0438957
        k(   45) = (   0.0225091   0.0900364   0.1325698), wk =   0.0438957
        k(   46) = (   0.0450182   0.0450182   0.0000000), wk =   0.0109739
        k(   47) = (   0.0450182   0.0450182   0.0331425), wk =   0.0219479
        k(   48) = (   0.0450182   0.0450182   0.0662849), wk =   0.0219479
        k(   49) = (   0.0450182   0.0450182   0.0994274), wk =   0.0219479
        k(   50) = (   0.0450182   0.0450182   0.1325698), wk =   0.0219479
        k(   51) = (   0.0450182   0.0675273   0.0000000), wk =   0.0219479
        k(   52) = (   0.0450182   0.0675273   0.0331425), wk =   0.0438957
        k(   53) = (   0.0450182   0.0675273   0.0662849), wk =   0.0438957
        k(   54) = (   0.0450182   0.0675273   0.0994274), wk =   0.0438957
        k(   55) = (   0.0450182   0.0675273   0.1325698), wk =   0.0438957
        k(   56) = (   0.0450182   0.0900364   0.0000000), wk =   0.0219479
        k(   57) = (   0.0450182   0.0900364   0.0331425), wk =   0.0438957
        k(   58) = (   0.0450182   0.0900364   0.0662849), wk =   0.0438957
        k(   59) = (   0.0450182   0.0900364   0.0994274), wk =   0.0438957
        k(   60) = (   0.0450182   0.0900364   0.1325698), wk =   0.0438957
        k(   61) = (   0.0675273   0.0675273   0.0000000), wk =   0.0109739
        k(   62) = (   0.0675273   0.0675273   0.0331425), wk =   0.0219479
        k(   63) = (   0.0675273   0.0675273   0.0662849), wk =   0.0219479
        k(   64) = (   0.0675273   0.0675273   0.0994274), wk =   0.0219479
        k(   65) = (   0.0675273   0.0675273   0.1325698), wk =   0.0219479
        k(   66) = (   0.0675273   0.0900364   0.0000000), wk =   0.0219479
        k(   67) = (   0.0675273   0.0900364   0.0331425), wk =   0.0438957
        k(   68) = (   0.0675273   0.0900364   0.0662849), wk =   0.0438957
        k(   69) = (   0.0675273   0.0900364   0.0994274), wk =   0.0438957
        k(   70) = (   0.0675273   0.0900364   0.1325698), wk =   0.0438957
        k(   71) = (   0.0900364   0.0900364   0.0000000), wk =   0.0109739
        k(   72) = (   0.0900364   0.0900364   0.0331425), wk =   0.0219479
        k(   73) = (   0.0900364   0.0900364   0.0662849), wk =   0.0219479
        k(   74) = (   0.0900364   0.0900364   0.0994274), wk =   0.0219479
        k(   75) = (   0.0900364   0.0900364   0.1325698), wk =   0.0219479

     Largest allocated arrays     est. size (Mb)     dimensions
     Largest temporary arrays     est. size (Mb)     dimensions

     Check: negative/imaginary core charge=   -0.000004    0.000000

     Initial potential from superposition of free atoms
     Check: negative starting charge=   -0.001658

     starting charge   47.99103, renormalised to   50.00000

     negative rho (up, down):  1.727E-03 0.000E+00

     *
     * You are using vdW-DF for exchange-correlation in this calculation.
     * Please cite the following three references that made this development
     * possible:
     *
     *   M. Dion, H. Rydberg, E. Schroder, D. C. Langreth, and
     *   B. I. Lundqvist, Phys. Rev. Lett. 92, 246401 (2004).
     *
     *   T. Thonhauser, V. R. Cooper, S. Li, A. Puzder, P. Hyldgaard, and
     *   D. C. Langreth, Phys. Rev. B 76, 125112 (2007).
     *
     *   G. Roman-Perez and J. M. Soler, Phys. Rev. Lett. 103, 096102 (2009).
     *
     *
     * If you are using vdW-DF2, please also cite:
     *
     *   K. Lee, E. D. Murray, L. Kong, B. I. Lundqvist, and
     *   D. C. Langreth, Phys. Rev. B 82, 081101(R) (2010).
     *
     *
     * If you are calculating the stress with vdW-DF, please also cite:
     *
     *   R. Sabatini, E. Kucukbenli, B. Kolb, T. Thonhauser, and
     *   S. de Gironcoli, J. Phys.: Condens. Matter 24, 424209 (2012).
     *

     Carrying out vdW-DF run using the following parameters:

     Nqs =      20    Nr_points =    1024   r_max =   100.000
     q_mesh =
               0.00001000     0.04494208     0.09755937     0.15916263
               0.23128650     0.31572767     0.41458969     0.53033537
               0.66584808     0.82450364     1.01025438     1.22772762
               1.48234092     1.78043706     2.12944203     2.53805004
               3.01644009     3.57652955     4.23227104     5.00000000

     Gradients computed in reciprocal space

     Starting wfc are   46 randomized atomic wfcs

     Self-consistent Calculation

     iteration #  1     ecut=    58.80 Ry     beta=0.10
     Davidson diagonalization with overlap
     ethr =  1.00E-02,  avg # of iterations =  4.2

[...]

     total energy              =    -539.84769579 Ry
     Harris-Foulkes estimate   =    -540.17320141 Ry
     estimated scf accuracy    <       1.95763643 Ry

[...]

     total energy              =    -539.83400194 Ry
     Harris-Foulkes estimate   =    -539.83399893 Ry
     estimated scf accuracy    <       0.00000112 Ry

     iteration # 13     ecut=    58.80 Ry     beta=0.10
     Davidson diagonalization with overlap
     ethr =  2.24E-09,  avg # of iterations =  2.0

     negative rho (up, down):  1.425E-03 0.000E+00

     End of self-consistent calculation

          k = 0.0000 0.0000 0.0000 (  4179 PWs)   bands (ev):

   -58.6601 -58.6581 -29.9794 -29.9789 -29.9789 -29.9763 -29.9627 -29.9627
   -29.1129 -29.0494  -9.3003  -9.3003  -8.9381  -8.9381  -8.8810  -8.8112
     7.2983   9.8391  10.5898  10.6738  10.7288  12.1749  12.1749  12.7818
    12.9477  12.9477  13.6562  13.8528  14.1871  14.1871  15.2264  15.5321
    15.6162  18.0480  18.0480  18.6236  18.7459  18.7459  19.4423  20.0340
    20.0340  20.9947  22.3747  23.7361  24.7236

[...]

          k = 0.0900 0.0900 0.1326 (  4206 PWs)   bands (ev):

   -58.6579 -58.6571 -30.0056 -30.0047 -29.9785 -29.9780 -29.9591 -29.9586
   -29.0316 -29.0304  -9.3932  -9.3897  -9.2774  -9.2673  -8.8596  -8.8486
     9.9036   9.9158  10.7290  10.7675  11.9358  11.9388  11.9464  11.9860
    13.4433  13.5425  13.7468  13.9108  14.2378  14.5287  14.6228  14.6500
    16.0104  16.0599  17.6648  17.8914  17.9485  18.0248  19.6772  19.7063
    22.7150  22.7768  23.2281  23.8242  24.4221

     the Fermi energy is    12.5934 ev

!    total energy              =    -539.83401567 Ry
     Harris-Foulkes estimate   =    -539.83400208 Ry
     estimated scf accuracy    <       0.00000010 Ry

     The total energy is the sum of the following terms:

     one-electron contribution =    -207.84217905 Ry
     hartree contribution      =     123.66126362 Ry
     xc contribution           =    -103.32629210 Ry
     ewald contribution        =    -352.29521051 Ry
     smearing contrib. (-TS)   =      -0.03159762 Ry

     convergence has been achieved in  13 iterations

     Forces acting on atoms (Ry/au):

     negative rho (up, down):  1.425E-03 0.000E+00
     atom    1 type  1   force =     0.00000000    0.00000000    0.00000000
     atom    2 type  1   force =     0.00000000    0.00000000    0.00000000
     atom    3 type  2   force =     0.00000000    0.00000000    0.00000000
     atom    4 type  2   force =     0.00000000    0.00000000    0.00000000

     Total force =     0.000000     Total SCF correction =     0.000000

     General routines

     Parallel routines

   This run was terminated on:   8:53:34  14Nov2017

   JOB DONE.