     Program PWSCF v.5.1rc2 starts on 14Nov2017 at 14:19:22

     Current dimensions of program PWSCF are:
     Max number of different atomic species (ntypx) = 10
     Max number of k-points (npk) =  40000
     Max angular momentum in pseudopotentials (lmaxx) =  3

     IMPORTANT: XC functional enforced from input :
     Exchange-correlation      = BEEF-VDW ( 1  4 27 13 2)
     Any further DFT definition will be discarded
     Please, verify this is what you really want

     Found symmetry operation: I + ( -0.5000 -0.5000  0.0000)
     This is a supercell, fractional translations are disabled

     bravais-lattice index     =            0
     lattice parameter (alat)  =       1.8897  a.u.
     unit-cell volume          =     506.1310 (a.u.)^3
     number of atoms/cell      =            4
     number of atomic types    =            2
     number of electrons       =        52.00
     number of Kohn-Sham states=           46
     kinetic-energy cutoff     =      58.7989  Ry
     charge density cutoff     =     587.9892  Ry
     convergence threshold     =      1.0E-06
     mixing beta               =       0.1000
     number of iterations used =           10  plain     mixing
     Exchange-correlation      = BEEF-VDW ( 1  4 27 13 2)

     celldm(1)=   1.889726  celldm(2)=   0.000000  celldm(3)=   0.000000
     celldm(4)=   0.000000  celldm(5)=   0.000000  celldm(6)=   0.000000

     crystal axes: (cart. coord. in units of alat)
               a(1) = (   4.004521   0.000000   0.000000 )
               a(2) = (   0.000000   4.004521   0.000000 )
               a(3) = (   0.000000   0.000000   4.676977 )

     reciprocal axes: (cart. coord. in units 2 pi/alat)
               b(1) = (  0.249718  0.000000  0.000000 )
               b(2) = (  0.000000  0.249718  0.000000 )
               b(3) = (  0.000000  0.000000  0.213813 )

     PseudoPot. # 1 for Hf read from file:
     /home/users/vossj/suncat/psp/gbrv1.5pbe/Hf.UPF
     MD5 check sum: 8ee9378dfe14276e333edf04c5e4aa26
     Pseudo is Ultrasoft + core correction, Zval = 12.0
     Generated by new atomic code, or converted to UPF format
     Using radial grid of  921 points,  8 beta functions with:
                l(1) =   0
                l(2) =   0
                l(3) =   0
                l(4) =   1
                l(5) =   1
                l(6) =   2
                l(7) =   2
                l(8) =   3
     Q(r) pseudized with  6 coefficients,  rinner =    1.200   1.200   1.200
                                                       1.200   1.200   1.200
                                                       1.200

     PseudoPot. # 2 for W  read from file:
     /home/users/vossj/suncat/psp/gbrv1.5pbe/W.UPF
     MD5 check sum: 9c083fa34c2a2ea0f02f1f893e16e1c8
     Pseudo is Ultrasoft + core correction, Zval = 14.0
     Generated by new atomic code, or converted to UPF format
     Using radial grid of  923 points,  8 beta functions with:
                l(1) =   0
                l(2) =   0
                l(3) =   0
                l(4) =   1
                l(5) =   1
                l(6) =   2
                l(7) =   2
                l(8) =   3
     Q(r) pseudized with  6 coefficients,  rinner =    1.350   1.350   1.350
                                                       1.350   1.350   1.350
                                                       1.350

     vdW kernel table read from file vdW_kernel_table
     MD5 check sum: 095c7af220d748ca6e76c0b4c6cfb241

     atomic species   valence    mass     pseudopotential
        Hf1           12.00   178.49000     Hf( 1.00)
        W1            14.00   183.85000     W ( 1.00)

     16 Sym. Ops., with inversion, found

   Cartesian axes

     site n.     atom                  positions (alat units)
         1           Hf1 tau(   1) = (   0.0000000   0.0000000   0.0000000  )
         2           Hf1 tau(   2) = (   2.0022603   2.0022603   0.0000000  )
         3           W1  tau(   3) = (   2.0022603   0.0000000   2.3384887  )
         4           W1  tau(   4) = (   0.0000000   2.0022603   2.3384887  )

     number of k points=    75  Fermi-Dirac smearing, width (Ry)=  0.0073
                       cart. coord. in units 2pi/alat
        k(    1) = (   0.0000000   0.0000000   0.0000000), wk =   0.0027435
        k(    2) = (   0.0000000   0.0000000   0.0237570), wk =   0.0054870
        k(    3) = (   0.0000000   0.0000000   0.0475141), wk =   0.0054870
        k(    4) = (   0.0000000   0.0000000   0.0712711), wk =   0.0054870
        k(    5) = (   0.0000000   0.0000000   0.0950281), wk =   0.0054870
        k(    6) = (   0.0000000   0.0277464   0.0000000), wk =   0.0109739
        k(    7) = (   0.0000000   0.0277464   0.0237570), wk =   0.0219479
        k(    8) = (   0.0000000   0.0277464   0.0475141), wk =   0.0219479
        k(    9) = (   0.0000000   0.0277464   0.0712711), wk =   0.0219479
        k(   10) = (   0.0000000   0.0277464   0.0950281), wk =   0.0219479
        k(   11) = (   0.0000000   0.0554928   0.0000000), wk =   0.0109739
        k(   12) = (   0.0000000   0.0554928   0.0237570), wk =   0.0219479
        k(   13) = (   0.0000000   0.0554928   0.0475141), wk =   0.0219479
        k(   14) = (   0.0000000   0.0554928   0.0712711), wk =   0.0219479
        k(   15) = (   0.0000000   0.0554928   0.0950281), wk =   0.0219479
        k(   16) = (   0.0000000   0.0832393   0.0000000), wk =   0.0109739
        k(   17) = (   0.0000000   0.0832393   0.0237570), wk =   0.0219479
        k(   18) = (   0.0000000   0.0832393   0.0475141), wk =   0.0219479
        k(   19) = (   0.0000000   0.0832393   0.0712711), wk =   0.0219479
        k(   20) = (   0.0000000   0.0832393   0.0950281), wk =   0.0219479
        k(   21) = (   0.0000000   0.1109857   0.0000000), wk =   0.0109739
        k(   22) = (   0.0000000   0.1109857   0.0237570), wk =   0.0219479
        k(   23) = (   0.0000000   0.1109857   0.0475141), wk =   0.0219479
        k(   24) = (   0.0000000   0.1109857   0.0712711), wk =   0.0219479
        k(   25) = (   0.0000000   0.1109857   0.0950281), wk =   0.0219479
        k(   26) = (   0.0277464   0.0277464   0.0000000), wk =   0.0109739
        k(   27) = (   0.0277464   0.0277464   0.0237570), wk =   0.0219479
        k(   28) = (   0.0277464   0.0277464   0.0475141), wk =   0.0219479
        k(   29) = (   0.0277464   0.0277464   0.0712711), wk =   0.0219479
        k(   30) = (   0.0277464   0.0277464   0.0950281), wk =   0.0219479
        k(   31) = (   0.0277464   0.0554928   0.0000000), wk =   0.0219479
        k(   32) = (   0.0277464   0.0554928   0.0237570), wk =   0.0438957
        k(   33) = (   0.0277464   0.0554928   0.0475141), wk =   0.0438957
        k(   34) = (   0.0277464   0.0554928   0.0712711), wk =   0.0438957
        k(   35) = (   0.0277464   0.0554928   0.0950281), wk =   0.0438957
        k(   36) = (   0.0277464   0.0832393   0.0000000), wk =   0.0219479
        k(   37) = (   0.0277464   0.0832393   0.0237570), wk =   0.0438957
        k(   38) = (   0.0277464   0.0832393   0.0475141), wk =   0.0438957
        k(   39) = (   0.0277464   0.0832393   0.0712711), wk =   0.0438957
        k(   40) = (   0.0277464   0.0832393   0.0950281), wk =   0.0438957
        k(   41) = (   0.0277464   0.1109857   0.0000000), wk =   0.0219479
        k(   42) = (   0.0277464   0.1109857   0.0237570), wk =   0.0438957
        k(   43) = (   0.0277464   0.1109857   0.0475141), wk =   0.0438957
        k(   44) = (   0.0277464   0.1109857   0.0712711), wk =   0.0438957
        k(   45) = (   0.0277464   0.1109857   0.0950281), wk =   0.0438957
        k(   46) = (   0.0554928   0.0554928   0.0000000), wk =   0.0109739
        k(   47) = (   0.0554928   0.0554928   0.0237570), wk =   0.0219479
        k(   48) = (   0.0554928   0.0554928   0.0475141), wk =   0.0219479
        k(   49) = (   0.0554928   0.0554928   0.0712711), wk =   0.0219479
        k(   50) = (   0.0554928   0.0554928   0.0950281), wk =   0.0219479
        k(   51) = (   0.0554928   0.0832393   0.0000000), wk =   0.0219479
        k(   52) = (   0.0554928   0.0832393   0.0237570), wk =   0.0438957
        k(   53) = (   0.0554928   0.0832393   0.0475141), wk =   0.0438957
        k(   54) = (   0.0554928   0.0832393   0.0712711), wk =   0.0438957
        k(   55) = (   0.0554928   0.0832393   0.0950281), wk =   0.0438957
        k(   56) = (   0.0554928   0.1109857   0.0000000), wk =   0.0219479
        k(   57) = (   0.0554928   0.1109857   0.0237570), wk =   0.0438957
        k(   58) = (   0.0554928   0.1109857   0.0475141), wk =   0.0438957
        k(   59) = (   0.0554928   0.1109857   0.0712711), wk =   0.0438957
        k(   60) = (   0.0554928   0.1109857   0.0950281), wk =   0.0438957
        k(   61) = (   0.0832393   0.0832393   0.0000000), wk =   0.0109739
        k(   62) = (   0.0832393   0.0832393   0.0237570), wk =   0.0219479
        k(   63) = (   0.0832393   0.0832393   0.0475141), wk =   0.0219479
        k(   64) = (   0.0832393   0.0832393   0.0712711), wk =   0.0219479
        k(   65) = (   0.0832393   0.0832393   0.0950281), wk =   0.0219479
        k(   66) = (   0.0832393   0.1109857   0.0000000), wk =   0.0219479
        k(   67) = (   0.0832393   0.1109857   0.0237570), wk =   0.0438957
        k(   68) = (   0.0832393   0.1109857   0.0475141), wk =   0.0438957
        k(   69) = (   0.0832393   0.1109857   0.0712711), wk =   0.0438957
        k(   70) = (   0.0832393   0.1109857   0.0950281), wk =   0.0438957
        k(   71) = (   0.1109857   0.1109857   0.0000000), wk =   0.0109739
        k(   72) = (   0.1109857   0.1109857   0.0237570), wk =   0.0219479
        k(   73) = (   0.1109857   0.1109857   0.0475141), wk =   0.0219479
        k(   74) = (   0.1109857   0.1109857   0.0712711), wk =   0.0219479
        k(   75) = (   0.1109857   0.1109857   0.0950281), wk =   0.0219479

     Largest allocated arrays     est. size (Mb)     dimensions
     Largest temporary arrays     est. size (Mb)     dimensions

     Initial potential from superposition of free atoms
     Check: negative starting charge=   -0.340916

     starting charge   47.79932, renormalised to   52.00000

     negative rho (up, down):  3.709E-01 0.000E+00

     *
     * You are using vdW-DF for exchange-correlation in this calculation.
     * Please cite the following three references that made this development
     * possible:
     *
     *   M. Dion, H. Rydberg, E. Schroder, D. C. Langreth, and
     *   B. I. Lundqvist, Phys. Rev. Lett. 92, 246401 (2004).
     *
     *   T. Thonhauser, V. R. Cooper, S. Li, A. Puzder, P. Hyldgaard, and
     *   D. C. Langreth, Phys. Rev. B 76, 125112 (2007).
     *
     *   G. Roman-Perez and J. M. Soler, Phys. Rev. Lett. 103, 096102 (2009).
     *
     *
     * If you are using vdW-DF2, please also cite:
     *
     *   K. Lee, E. D. Murray, L. Kong, B. I. Lundqvist, and
     *   D. C. Langreth, Phys. Rev. B 82, 081101(R) (2010).
     *
     *
     * If you are calculating the stress with vdW-DF, please also cite:
     *
     *   R. Sabatini, E. Kucukbenli, B. Kolb, T. Thonhauser, and
     *   S. de Gironcoli, J. Phys.: Condens. Matter 24, 424209 (2012).
     *

     Carrying out vdW-DF run using the following parameters:

     Nqs =      20    Nr_points =    1024   r_max =   100.000
     q_mesh =
               0.00001000     0.04494208     0.09755937     0.15916263
               0.23128650     0.31572767     0.41458969     0.53033537
               0.66584808     0.82450364     1.01025438     1.22772762
               1.48234092     1.78043706     2.12944203     2.53805004
               3.01644009     3.57652955     4.23227104     5.00000000

     Gradients computed in reciprocal space

     Starting wfc are   52 randomized atomic wfcs

     Self-consistent Calculation

     iteration #  1     ecut=    58.80 Ry     beta=0.10
     Davidson diagonalization with overlap
     ethr =  1.00E-02,  avg # of iterations =  4.2

[...]

     total energy              =    -642.76732070 Ry
     Harris-Foulkes estimate   =    -644.04556622 Ry
     estimated scf accuracy    <       8.06559515 Ry

[...]

     total energy              =    -642.08824510 Ry
     Harris-Foulkes estimate   =    -642.08824862 Ry
     estimated scf accuracy    <       0.00001675 Ry

     iteration # 12     ecut=    58.80 Ry     beta=0.10
     Davidson diagonalization with overlap
     ethr =  3.22E-08,  avg # of iterations =  1.0

     negative rho (up, down):  3.714E-01 0.000E+00

     End of self-consistent calculation

          k = 0.0000 0.0000 0.0000 (  3841 PWs)   bands (ev):

   -56.4513 -56.3771 -44.0434 -43.8812 -20.7706 -20.7706 -20.5255 -20.3755
   -20.2205 -20.2205 -13.1133 -13.1133 -12.6016 -12.3520 -12.1309 -12.1309
     9.7420  13.2255  13.3136  13.5871  14.4270  14.4794  14.4794  17.2712
    18.7928  18.7928  19.0327  19.4877  21.4865  21.6485  21.6485  21.9623
    22.9273  22.9273  23.4980  23.8737  24.4863  24.4863  25.0842  26.6874
    27.4200  28.0074  28.2627  29.3853  29.3853  30.3767

[...]

          k = 0.1110 0.1110 0.0950 (  3852 PWs)   bands (ev):

   -56.4150 -56.4127 -43.9638 -43.9589 -20.8485 -20.8328 -20.4529 -20.4488
   -20.1843 -20.1670 -13.2625 -13.2352 -12.4821 -12.4735 -12.0622 -12.0298
    13.0882  13.1980  13.4050  13.4554  16.3594  16.4588  17.6796  17.7057
    17.8979  18.0748  18.5250  18.5296  18.7292  18.8359  19.0278  19.1787
    22.7707  22.9273  22.9950  23.1156  24.0821  24.0893  24.2946  24.3721
    27.3248  27.4786  29.2093  29.4142  29.4432  29.5112

     the Fermi energy is    17.7422 ev

!    total energy              =    -642.08824708 Ry
     Harris-Foulkes estimate   =    -642.08824686 Ry
     estimated scf accuracy    <       0.00000024 Ry

     The total energy is the sum of the following terms:

     one-electron contribution =     -74.87118285 Ry
     hartree contribution      =      62.47818325 Ry
     xc contribution           =    -240.13419949 Ry
     ewald contribution        =    -389.55104663 Ry
     smearing contrib. (-TS)   =      -0.01000135 Ry

     convergence has been achieved in  12 iterations

     Forces acting on atoms (Ry/au):

     negative rho (up, down):  3.714E-01 0.000E+00
     atom    1 type  1   force =     0.00000000    0.00000000    0.00000000
     atom    2 type  1   force =     0.00000000    0.00000000    0.00000000
     atom    3 type  2   force =     0.00000000    0.00000000    0.00000000
     atom    4 type  2   force =     0.00000000    0.00000000    0.00000000

     Total force =     0.000000     Total SCF correction =     0.000000

     General routines

     Parallel routines

   This run was terminated on:  14:20: 3  14Nov2017

   JOB DONE.