     Program PWSCF v.5.1rc2 starts on 15Nov2017 at 11:23: 8

     Current dimensions of program PWSCF are:
     Max number of different atomic species (ntypx) = 10
     Max number of k-points (npk) =  40000
     Max angular momentum in pseudopotentials (lmaxx) =  3

     IMPORTANT: XC functional enforced from input :
     Exchange-correlation      = BEEF-VDW ( 1  4 27 13 2)
     Any further DFT definition will be discarded
     Please, verify this is what you really want

     Found symmetry operation: I + ( -0.5000 -0.5000  0.0000)
     This is a supercell, fractional translations are disabled

     bravais-lattice index     =            0
     lattice parameter (alat)  =       1.8897  a.u.
     unit-cell volume          =     503.1765 (a.u.)^3
     number of atoms/cell      =            4
     number of atomic types    =            2
     number of electrons       =        54.00
     number of Kohn-Sham states=           37
     kinetic-energy cutoff     =      44.0992  Ry
     charge density cutoff     =     440.9919  Ry
     convergence threshold     =      1.0E-05
     mixing beta               =       0.2000
     number of iterations used =           10  plain     mixing
     Exchange-correlation      = BEEF-VDW ( 1  4 27 13 2)

     celldm(1)=   1.889726  celldm(2)=   0.000000  celldm(3)=   0.000000
     celldm(4)=   0.000000  celldm(5)=   0.000000  celldm(6)=   0.000000

     crystal axes: (cart. coord. in units of alat)
               a(1) = (   4.045021   0.000000   0.000000 )
               a(2) = (   0.000000   4.045021   0.000000 )
               a(3) = (   0.000000   0.000000   4.557034 )

     reciprocal axes: (cart. coord. in units 2 pi/alat)
               b(1) = (  0.247218  0.000000  0.000000 )
               b(2) = (  0.000000  0.247218  0.000000 )
               b(3) = (  0.000000  0.000000  0.219441 )

     PseudoPot. # 1 for In read from file:
     /home/users/vossj/suncat/psp/gbrv1.5pbe/In.UPF
     MD5 check sum: 90777abd96fbb83f2e67db2a40c566b9
     Pseudo is Ultrasoft + core correction, Zval = 13.0
     Generated by new atomic code, or converted to UPF format
     Using radial grid of  889 points,  6 beta functions with:
                l(1) =   0
                l(2) =   0
                l(3) =   1
                l(4) =   1
                l(5) =   2
                l(6) =   2
     Q(r) pseudized with  6 coefficients,  rinner =    1.400   1.400   1.400
                                                       1.400   1.400

     PseudoPot. # 2 for W  read from file:
     /home/users/vossj/suncat/psp/gbrv1.5pbe/W.UPF
     MD5 check sum: 9c083fa34c2a2ea0f02f1f893e16e1c8
     Pseudo is Ultrasoft + core correction, Zval = 14.0
     Generated by new atomic code, or converted to UPF format
     Using radial grid of  923 points,  8 beta functions with:
                l(1) =   0
                l(2) =   0
                l(3) =   0
                l(4) =   1
                l(5) =   1
                l(6) =   2
                l(7) =   2
                l(8) =   3
     Q(r) pseudized with  6 coefficients,  rinner =    1.350   1.350   1.350
                                                       1.350   1.350   1.350
                                                       1.350

     vdW kernel table read from file vdW_kernel_table
     MD5 check sum: 095c7af220d748ca6e76c0b4c6cfb241

     atomic species   valence    mass     pseudopotential
        In1           13.00   114.82000     In( 1.00)
        W1            14.00   183.85000     W ( 1.00)

     16 Sym. Ops., with inversion, found

   Cartesian axes

     site n.     atom                  positions (alat units)
         1           In1 tau(   1) = (   0.0000000   0.0000000   0.0000000  )
         2           In1 tau(   2) = (   2.0225103   2.0225103   0.0000000  )
         3           W1  tau(   3) = (   2.0225103   0.0000000   2.2785169  )
         4           W1  tau(   4) = (   0.0000000   2.0225103   2.2785169  )

     number of k points=    75  Fermi-Dirac smearing, width (Ry)=  0.0110
                       cart. coord. in units 2pi/alat
        k(    1) = (   0.0000000   0.0000000   0.0000000), wk =   0.0027435
        k(    2) = (   0.0000000   0.0000000   0.0243823), wk =   0.0054870
        k(    3) = (   0.0000000   0.0000000   0.0487647), wk =   0.0054870
        k(    4) = (   0.0000000   0.0000000   0.0731470), wk =   0.0054870
        k(    5) = (   0.0000000   0.0000000   0.0975293), wk =   0.0054870
        k(    6) = (   0.0000000   0.0274686   0.0000000), wk =   0.0109739
        k(    7) = (   0.0000000   0.0274686   0.0243823), wk =   0.0219479
        k(    8) = (   0.0000000   0.0274686   0.0487647), wk =   0.0219479
        k(    9) = (   0.0000000   0.0274686   0.0731470), wk =   0.0219479
        k(   10) = (   0.0000000   0.0274686   0.0975293), wk =   0.0219479
        k(   11) = (   0.0000000   0.0549372   0.0000000), wk =   0.0109739
        k(   12) = (   0.0000000   0.0549372   0.0243823), wk =   0.0219479
        k(   13) = (   0.0000000   0.0549372   0.0487647), wk =   0.0219479
        k(   14) = (   0.0000000   0.0549372   0.0731470), wk =   0.0219479
        k(   15) = (   0.0000000   0.0549372   0.0975293), wk =   0.0219479
        k(   16) = (   0.0000000   0.0824058   0.0000000), wk =   0.0109739
        k(   17) = (   0.0000000   0.0824058   0.0243823), wk =   0.0219479
        k(   18) = (   0.0000000   0.0824058   0.0487647), wk =   0.0219479
        k(   19) = (   0.0000000   0.0824058   0.0731470), wk =   0.0219479
        k(   20) = (   0.0000000   0.0824058   0.0975293), wk =   0.0219479
        k(   21) = (   0.0000000   0.1098745   0.0000000), wk =   0.0109739
        k(   22) = (   0.0000000   0.1098745   0.0243823), wk =   0.0219479
        k(   23) = (   0.0000000   0.1098745   0.0487647), wk =   0.0219479
        k(   24) = (   0.0000000   0.1098745   0.0731470), wk =   0.0219479
        k(   25) = (   0.0000000   0.1098745   0.0975293), wk =   0.0219479
        k(   26) = (   0.0274686   0.0274686   0.0000000), wk =   0.0109739
        k(   27) = (   0.0274686   0.0274686   0.0243823), wk =   0.0219479
        k(   28) = (   0.0274686   0.0274686   0.0487647), wk =   0.0219479
        k(   29) = (   0.0274686   0.0274686   0.0731470), wk =   0.0219479
        k(   30) = (   0.0274686   0.0274686   0.0975293), wk =   0.0219479
        k(   31) = (   0.0274686   0.0549372   0.0000000), wk =   0.0219479
        k(   32) = (   0.0274686   0.0549372   0.0243823), wk =   0.0438957
        k(   33) = (   0.0274686   0.0549372   0.0487647), wk =   0.0438957
        k(   34) = (   0.0274686   0.0549372   0.0731470), wk =   0.0438957
        k(   35) = (   0.0274686   0.0549372   0.0975293), wk =   0.0438957
        k(   36) = (   0.0274686   0.0824058   0.0000000), wk =   0.0219479
        k(   37) = (   0.0274686   0.0824058   0.0243823), wk =   0.0438957
        k(   38) = (   0.0274686   0.0824058   0.0487647), wk =   0.0438957
        k(   39) = (   0.0274686   0.0824058   0.0731470), wk =   0.0438957
        k(   40) = (   0.0274686   0.0824058   0.0975293), wk =   0.0438957
        k(   41) = (   0.0274686   0.1098745   0.0000000), wk =   0.0219479
        k(   42) = (   0.0274686   0.1098745   0.0243823), wk =   0.0438957
        k(   43) = (   0.0274686   0.1098745   0.0487647), wk =   0.0438957
        k(   44) = (   0.0274686   0.1098745   0.0731470), wk =   0.0438957
        k(   45) = (   0.0274686   0.1098745   0.0975293), wk =   0.0438957
        k(   46) = (   0.0549372   0.0549372   0.0000000), wk =   0.0109739
        k(   47) = (   0.0549372   0.0549372   0.0243823), wk =   0.0219479
        k(   48) = (   0.0549372   0.0549372   0.0487647), wk =   0.0219479
        k(   49) = (   0.0549372   0.0549372   0.0731470), wk =   0.0219479
        k(   50) = (   0.0549372   0.0549372   0.0975293), wk =   0.0219479
        k(   51) = (   0.0549372   0.0824058   0.0000000), wk =   0.0219479
        k(   52) = (   0.0549372   0.0824058   0.0243823), wk =   0.0438957
        k(   53) = (   0.0549372   0.0824058   0.0487647), wk =   0.0438957
        k(   54) = (   0.0549372   0.0824058   0.0731470), wk =   0.0438957
        k(   55) = (   0.0549372   0.0824058   0.0975293), wk =   0.0438957
        k(   56) = (   0.0549372   0.1098745   0.0000000), wk =   0.0219479
        k(   57) = (   0.0549372   0.1098745   0.0243823), wk =   0.0438957
        k(   58) = (   0.0549372   0.1098745   0.0487647), wk =   0.0438957
        k(   59) = (   0.0549372   0.1098745   0.0731470), wk =   0.0438957
        k(   60) = (   0.0549372   0.1098745   0.0975293), wk =   0.0438957
        k(   61) = (   0.0824058   0.0824058   0.0000000), wk =   0.0109739
        k(   62) = (   0.0824058   0.0824058   0.0243823), wk =   0.0219479
        k(   63) = (   0.0824058   0.0824058   0.0487647), wk =   0.0219479
        k(   64) = (   0.0824058   0.0824058   0.0731470), wk =   0.0219479
        k(   65) = (   0.0824058   0.0824058   0.0975293), wk =   0.0219479
        k(   66) = (   0.0824058   0.1098745   0.0000000), wk =   0.0219479
        k(   67) = (   0.0824058   0.1098745   0.0243823), wk =   0.0438957
        k(   68) = (   0.0824058   0.1098745   0.0487647), wk =   0.0438957
        k(   69) = (   0.0824058   0.1098745   0.0731470), wk =   0.0438957
        k(   70) = (   0.0824058   0.1098745   0.0975293), wk =   0.0438957
        k(   71) = (   0.1098745   0.1098745   0.0000000), wk =   0.0109739
        k(   72) = (   0.1098745   0.1098745   0.0243823), wk =   0.0219479
        k(   73) = (   0.1098745   0.1098745   0.0487647), wk =   0.0219479
        k(   74) = (   0.1098745   0.1098745   0.0731470), wk =   0.0219479
        k(   75) = (   0.1098745   0.1098745   0.0975293), wk =   0.0219479

     Largest allocated arrays     est. size (Mb)     dimensions
     Largest temporary arrays     est. size (Mb)     dimensions

     Initial potential from superposition of free atoms
     Check: negative starting charge=   -0.130819

     starting charge   50.79932, renormalised to   54.00000

     negative rho (up, down):  1.391E-01 0.000E+00

     *
     * You are using vdW-DF for exchange-correlation in this calculation.
     * Please cite the following three references that made this development
     * possible:
     *
     *   M. Dion, H. Rydberg, E. Schroder, D. C. Langreth, and
     *   B. I. Lundqvist, Phys. Rev. Lett. 92, 246401 (2004).
     *
     *   T. Thonhauser, V. R. Cooper, S. Li, A. Puzder, P. Hyldgaard, and
     *   D. C. Langreth, Phys. Rev. B 76, 125112 (2007).
     *
     *   G. Roman-Perez and J. M. Soler, Phys. Rev. Lett. 103, 096102 (2009).
     *
     *
     * If you are using vdW-DF2, please also cite:
     *
     *   K. Lee, E. D. Murray, L. Kong, B. I. Lundqvist, and
     *   D. C. Langreth, Phys. Rev. B 82, 081101(R) (2010).
     *
     *
     * If you are calculating the stress with vdW-DF, please also cite:
     *
     *   R. Sabatini, E. Kucukbenli, B. Kolb, T. Thonhauser, and
     *   S. de Gironcoli, J. Phys.: Condens. Matter 24, 424209 (2012).
     *

     Carrying out vdW-DF run using the following parameters:

     Nqs =      20    Nr_points =    1024   r_max =   100.000
     q_mesh =
               0.00001000     0.04494208     0.09755937     0.15916263
               0.23128650     0.31572767     0.41458969     0.53033537
               0.66584808     0.82450364     1.01025438     1.22772762
               1.48234092     1.78043706     2.12944203     2.53805004
               3.01644009     3.57652955     4.23227104     5.00000000

     Gradients computed in reciprocal space

     Starting wfc are   44 randomized atomic wfcs

     Self-consistent Calculation

     iteration #  1     ecut=    44.10 Ry     beta=0.20
     Davidson diagonalization with overlap
     ethr =  1.00E-02,  avg # of iterations =  3.1

[...]

     total energy              =    -590.54362295 Ry
     Harris-Foulkes estimate   =    -591.33018425 Ry
     estimated scf accuracy    <       2.71033440 Ry

[...]

     total energy              =    -590.32029541 Ry
     Harris-Foulkes estimate   =    -590.32030265 Ry
     estimated scf accuracy    <       0.00002221 Ry

     iteration # 10     ecut=    44.10 Ry     beta=0.20
     Davidson diagonalization with overlap
     ethr =  4.11E-08,  avg # of iterations =  2.0

     negative rho (up, down):  1.403E-01 0.000E+00

     End of self-consistent calculation

          k = 0.0000 0.0000 0.0000 (  2495 PWs)   bands (ev):

   -57.5156 -57.4505 -21.8075 -21.8075 -21.6347 -21.5115 -21.3081 -21.3081
     1.2216   1.4437   1.6808   1.7954   1.7954   2.2064   2.2064   2.2523
     2.3247   2.6529   6.3494  12.4350  13.0289  13.9431  14.9704  15.6530
    15.6530  16.1944  16.1944  16.4646  18.6747  18.6747  20.3327  20.5947
    21.2715  21.9720  22.1896  24.9899  25.2711

[...]

          k = 0.1099 0.1099 0.0975 (  2503 PWs)   bands (ev):

   -57.4837 -57.4818 -21.8756 -21.8609 -21.5759 -21.5721 -21.2755 -21.2599
     1.5381   1.5719   1.7056   1.7154   1.9808   2.0070   2.2386   2.2507
     2.2965   2.3207  10.6732  10.9798  13.1394  13.1923  13.8305  13.9768
    15.0752  15.2224  16.9805  17.0033  17.8442  17.8900  18.9569  18.9929
    19.6220  19.7484  23.4617  23.5364  27.2041

     the Fermi energy is    17.2123 ev

!    total energy              =    -590.32029850 Ry
     Harris-Foulkes estimate   =    -590.32029805 Ry
     estimated scf accuracy    <       0.00000097 Ry

     The total energy is the sum of the following terms:

     one-electron contribution =     -94.06166259 Ry
     hartree contribution      =      87.75675735 Ry
     xc contribution           =    -163.69350521 Ry
     ewald contribution        =    -420.30448565 Ry
     smearing contrib. (-TS)   =      -0.01740240 Ry

     convergence has been achieved in  10 iterations

     Forces acting on atoms (Ry/au):

     negative rho (up, down):  1.403E-01 0.000E+00
     atom    1 type  1   force =     0.00000000    0.00000000    0.00000000
     atom    2 type  1   force =     0.00000000    0.00000000    0.00000000
     atom    3 type  2   force =     0.00000000    0.00000000    0.00000000
     atom    4 type  2   force =     0.00000000    0.00000000    0.00000000

     Total force =     0.000000     Total SCF correction =     0.000000

     General routines

     Parallel routines

   This run was terminated on:  11:23:31  15Nov2017

   JOB DONE.