     Program PWSCF v.5.1rc2 starts on 14Nov2017 at  1: 9:59

     Current dimensions of program PWSCF are:
     Max number of different atomic species (ntypx) = 10
     Max number of k-points (npk) =  40000
     Max angular momentum in pseudopotentials (lmaxx) =  3

     IMPORTANT: XC functional enforced from input :
     Exchange-correlation      = BEEF-VDW ( 1  4 27 13 2)
     Any further DFT definition will be discarded
     Please, verify this is what you really want

     Found symmetry operation: I + ( -0.5000 -0.5000  0.0000)
     This is a supercell, fractional translations are disabled

     bravais-lattice index     =            0
     lattice parameter (alat)  =       1.8897  a.u.
     unit-cell volume          =     418.2303 (a.u.)^3
     number of atoms/cell      =            4
     number of atomic types    =            2
     number of electrons       =        34.00
     number of Kohn-Sham states=           37
     kinetic-energy cutoff     =      58.7989  Ry
     charge density cutoff     =     587.9892  Ry
     convergence threshold     =      1.0E-06
     mixing beta               =       0.1000
     number of iterations used =           10  plain     mixing
     Exchange-correlation      = BEEF-VDW ( 1  4 27 13 2)

     celldm(1)=   1.889726  celldm(2)=   0.000000  celldm(3)=   0.000000
     celldm(4)=   0.000000  celldm(5)=   0.000000  celldm(6)=   0.000000

     crystal axes: (cart. coord. in units of alat)
               a(1) = (   3.851131   0.000000   0.000000 )
               a(2) = (   0.000000   3.851131   0.000000 )
               a(3) = (   0.000000   0.000000   4.178710 )

     reciprocal axes: (cart. coord. in units 2 pi/alat)
               b(1) = (  0.259664  0.000000  0.000000 )
               b(2) = (  0.000000  0.259664  0.000000 )
               b(3) = (  0.000000  0.000000  0.239308 )

     PseudoPot. # 1 for Al read from file:
     /home/users/vossj/suncat/psp/gbrv1.5pbe/Al.UPF
     MD5 check sum: 0a6289f5291fc8f409219462bc851e1f
     Pseudo is Ultrasoft + core correction, Zval =  3.0
     Generated by new atomic code, or converted to UPF format
     Using radial grid of  893 points,  3 beta functions with:
                l(1) =   0
                l(2) =   1
                l(3) =   2
     Q(r) pseudized with  8 coefficients,  rinner =    0.900   0.900   0.900
                                                       0.900   0.900

     PseudoPot. # 2 for W  read from file:
     /home/users/vossj/suncat/psp/gbrv1.5pbe/W.UPF
     MD5 check sum: 9c083fa34c2a2ea0f02f1f893e16e1c8
     Pseudo is Ultrasoft + core correction, Zval = 14.0
     Generated by new atomic code, or converted to UPF format
     Using radial grid of  923 points,  8 beta functions with:
                l(1) =   0
                l(2) =   0
                l(3) =   0
                l(4) =   1
                l(5) =   1
                l(6) =   2
                l(7) =   2
                l(8) =   3
     Q(r) pseudized with  6 coefficients,  rinner =    1.350   1.350   1.350
                                                       1.350   1.350   1.350
                                                       1.350

     vdW kernel table read from file vdW_kernel_table
     MD5 check sum: 095c7af220d748ca6e76c0b4c6cfb241

     atomic species   valence    mass     pseudopotential
        Al1            3.00    26.98154     Al( 1.00)
        W1            14.00   183.85000     W ( 1.00)

     16 Sym. Ops., with inversion, found

   Cartesian axes

     site n.     atom                  positions (alat units)
         1           Al1 tau(   1) = (   0.0000000   0.0000000   0.0000000  )
         2           Al1 tau(   2) = (   1.9255657   1.9255657   0.0000000  )
         3           W1  tau(   3) = (   1.9255657   0.0000000   2.0893551  )
         4           W1  tau(   4) = (   0.0000000   1.9255657   2.0893551  )

     number of k points=    75  Fermi-Dirac smearing, width (Ry)=  0.0073
                       cart. coord. in units 2pi/alat
        k(    1) = (   0.0000000   0.0000000   0.0000000), wk =   0.0027435
        k(    2) = (   0.0000000   0.0000000   0.0265898), wk =   0.0054870
        k(    3) = (   0.0000000   0.0000000   0.0531796), wk =   0.0054870
        k(    4) = (   0.0000000   0.0000000   0.0797694), wk =   0.0054870
        k(    5) = (   0.0000000   0.0000000   0.1063592), wk =   0.0054870
        k(    6) = (   0.0000000   0.0288515   0.0000000), wk =   0.0109739
        k(    7) = (   0.0000000   0.0288515   0.0265898), wk =   0.0219479
        k(    8) = (   0.0000000   0.0288515   0.0531796), wk =   0.0219479
        k(    9) = (   0.0000000   0.0288515   0.0797694), wk =   0.0219479
        k(   10) = (   0.0000000   0.0288515   0.1063592), wk =   0.0219479
        k(   11) = (   0.0000000   0.0577031   0.0000000), wk =   0.0109739
        k(   12) = (   0.0000000   0.0577031   0.0265898), wk =   0.0219479
        k(   13) = (   0.0000000   0.0577031   0.0531796), wk =   0.0219479
        k(   14) = (   0.0000000   0.0577031   0.0797694), wk =   0.0219479
        k(   15) = (   0.0000000   0.0577031   0.1063592), wk =   0.0219479
        k(   16) = (   0.0000000   0.0865546   0.0000000), wk =   0.0109739
        k(   17) = (   0.0000000   0.0865546   0.0265898), wk =   0.0219479
        k(   18) = (   0.0000000   0.0865546   0.0531796), wk =   0.0219479
        k(   19) = (   0.0000000   0.0865546   0.0797694), wk =   0.0219479
        k(   20) = (   0.0000000   0.0865546   0.1063592), wk =   0.0219479
        k(   21) = (   0.0000000   0.1154062   0.0000000), wk =   0.0109739
        k(   22) = (   0.0000000   0.1154062   0.0265898), wk =   0.0219479
        k(   23) = (   0.0000000   0.1154062   0.0531796), wk =   0.0219479
        k(   24) = (   0.0000000   0.1154062   0.0797694), wk =   0.0219479
        k(   25) = (   0.0000000   0.1154062   0.1063592), wk =   0.0219479
        k(   26) = (   0.0288515   0.0288515   0.0000000), wk =   0.0109739
        k(   27) = (   0.0288515   0.0288515   0.0265898), wk =   0.0219479
        k(   28) = (   0.0288515   0.0288515   0.0531796), wk =   0.0219479
        k(   29) = (   0.0288515   0.0288515   0.0797694), wk =   0.0219479
        k(   30) = (   0.0288515   0.0288515   0.1063592), wk =   0.0219479
        k(   31) = (   0.0288515   0.0577031   0.0000000), wk =   0.0219479
        k(   32) = (   0.0288515   0.0577031   0.0265898), wk =   0.0438957
        k(   33) = (   0.0288515   0.0577031   0.0531796), wk =   0.0438957
        k(   34) = (   0.0288515   0.0577031   0.0797694), wk =   0.0438957
        k(   35) = (   0.0288515   0.0577031   0.1063592), wk =   0.0438957
        k(   36) = (   0.0288515   0.0865546   0.0000000), wk =   0.0219479
        k(   37) = (   0.0288515   0.0865546   0.0265898), wk =   0.0438957
        k(   38) = (   0.0288515   0.0865546   0.0531796), wk =   0.0438957
        k(   39) = (   0.0288515   0.0865546   0.0797694), wk =   0.0438957
        k(   40) = (   0.0288515   0.0865546   0.1063592), wk =   0.0438957
        k(   41) = (   0.0288515   0.1154062   0.0000000), wk =   0.0219479
        k(   42) = (   0.0288515   0.1154062   0.0265898), wk =   0.0438957
        k(   43) = (   0.0288515   0.1154062   0.0531796), wk =   0.0438957
        k(   44) = (   0.0288515   0.1154062   0.0797694), wk =   0.0438957
        k(   45) = (   0.0288515   0.1154062   0.1063592), wk =   0.0438957
        k(   46) = (   0.0577031   0.0577031   0.0000000), wk =   0.0109739
        k(   47) = (   0.0577031   0.0577031   0.0265898), wk =   0.0219479
        k(   48) = (   0.0577031   0.0577031   0.0531796), wk =   0.0219479
        k(   49) = (   0.0577031   0.0577031   0.0797694), wk =   0.0219479
        k(   50) = (   0.0577031   0.0577031   0.1063592), wk =   0.0219479
        k(   51) = (   0.0577031   0.0865546   0.0000000), wk =   0.0219479
        k(   52) = (   0.0577031   0.0865546   0.0265898), wk =   0.0438957
        k(   53) = (   0.0577031   0.0865546   0.0531796), wk =   0.0438957
        k(   54) = (   0.0577031   0.0865546   0.0797694), wk =   0.0438957
        k(   55) = (   0.0577031   0.0865546   0.1063592), wk =   0.0438957
        k(   56) = (   0.0577031   0.1154062   0.0000000), wk =   0.0219479
        k(   57) = (   0.0577031   0.1154062   0.0265898), wk =   0.0438957
        k(   58) = (   0.0577031   0.1154062   0.0531796), wk =   0.0438957
        k(   59) = (   0.0577031   0.1154062   0.0797694), wk =   0.0438957
        k(   60) = (   0.0577031   0.1154062   0.1063592), wk =   0.0438957
        k(   61) = (   0.0865546   0.0865546   0.0000000), wk =   0.0109739
        k(   62) = (   0.0865546   0.0865546   0.0265898), wk =   0.0219479
        k(   63) = (   0.0865546   0.0865546   0.0531796), wk =   0.0219479
        k(   64) = (   0.0865546   0.0865546   0.0797694), wk =   0.0219479
        k(   65) = (   0.0865546   0.0865546   0.1063592), wk =   0.0219479
        k(   66) = (   0.0865546   0.1154062   0.0000000), wk =   0.0219479
        k(   67) = (   0.0865546   0.1154062   0.0265898), wk =   0.0438957
        k(   68) = (   0.0865546   0.1154062   0.0531796), wk =   0.0438957
        k(   69) = (   0.0865546   0.1154062   0.0797694), wk =   0.0438957
        k(   70) = (   0.0865546   0.1154062   0.1063592), wk =   0.0438957
        k(   71) = (   0.1154062   0.1154062   0.0000000), wk =   0.0109739
        k(   72) = (   0.1154062   0.1154062   0.0265898), wk =   0.0219479
        k(   73) = (   0.1154062   0.1154062   0.0531796), wk =   0.0219479
        k(   74) = (   0.1154062   0.1154062   0.0797694), wk =   0.0219479
        k(   75) = (   0.1154062   0.1154062   0.1063592), wk =   0.0219479

     Largest allocated arrays     est. size (Mb)     dimensions
     Largest temporary arrays     est. size (Mb)     dimensions

     Initial potential from superposition of free atoms
     Check: negative starting charge=   -0.123923

     starting charge   33.79439, renormalised to   34.00000

     negative rho (up, down):  1.247E-01 0.000E+00

     *
     * You are using vdW-DF for exchange-correlation in this calculation.
     * Please cite the following three references that made this development
     * possible:
     *
     *   M. Dion, H. Rydberg, E. Schroder, D. C. Langreth, and
     *   B. I. Lundqvist, Phys. Rev. Lett. 92, 246401 (2004).
     *
     *   T. Thonhauser, V. R. Cooper, S. Li, A. Puzder, P. Hyldgaard, and
     *   D. C. Langreth, Phys. Rev. B 76, 125112 (2007).
     *
     *   G. Roman-Perez and J. M. Soler, Phys. Rev. Lett. 103, 096102 (2009).
     *
     *
     * If you are using vdW-DF2, please also cite:
     *
     *   K. Lee, E. D. Murray, L. Kong, B. I. Lundqvist, and
     *   D. C. Langreth, Phys. Rev. B 82, 081101(R) (2010).
     *
     *
     * If you are calculating the stress with vdW-DF, please also cite:
     *
     *   R. Sabatini, E. Kucukbenli, B. Kolb, T. Thonhauser, and
     *   S. de Gironcoli, J. Phys.: Condens. Matter 24, 424209 (2012).
     *

     Carrying out vdW-DF run using the following parameters:

     Nqs =      20    Nr_points =    1024   r_max =   100.000
     q_mesh =
               0.00001000     0.04494208     0.09755937     0.15916263
               0.23128650     0.31572767     0.41458969     0.53033537
               0.66584808     0.82450364     1.01025438     1.22772762
               1.48234092     1.78043706     2.12944203     2.53805004
               3.01644009     3.57652955     4.23227104     5.00000000

     Gradients computed in reciprocal space

     Starting wfc are   34 randomized atomic wfcs +    3 random wfc

     Self-consistent Calculation

     iteration #  1     ecut=    58.80 Ry     beta=0.10
     Davidson diagonalization with overlap
     ethr =  1.00E-02,  avg # of iterations =  4.3

     Threshold (ethr) on eigenvalues was too large:
     Diagonalizing with lowered threshold

     Davidson diagonalization with overlap
     ethr =  2.27E-04,  avg # of iterations =  1.2

[...]

     total energy              =    -334.74177401 Ry
     Harris-Foulkes estimate   =    -334.74787373 Ry
     estimated scf accuracy    <       0.07755945 Ry

[...]

     total energy              =    -334.73134228 Ry
     Harris-Foulkes estimate   =    -334.73134214 Ry
     estimated scf accuracy    <       0.00000113 Ry

     iteration #  9     ecut=    58.80 Ry     beta=0.10
     Davidson diagonalization with overlap
     ethr =  3.31E-09,  avg # of iterations =  2.2

     negative rho (up, down):  1.366E-01 0.000E+00

     End of self-consistent calculation

          k = 0.0000 0.0000 0.0000 (  3171 PWs)   bands (ev):

   -58.9364 -58.8128 -23.4072 -23.4072 -23.0736 -22.8648 -22.6104 -22.6104
     4.7894   9.8023  10.7828  11.7423  13.1771  13.1771  13.7173  13.9552
    14.7466  14.7466  17.3555  17.3555  19.5819  20.3581  20.7594  21.5738
    21.9031  23.9629  24.2164  24.2164  24.7205  25.7836  25.7836  28.1426
    29.5167  30.1557  30.5126  30.5126  33.2407

[...]

          k = 0.1154 0.1154 0.1064 (  3183 PWs)   bands (ev):

   -58.8757 -58.8720 -23.5234 -23.5008 -22.9780 -22.9715 -22.5563 -22.5308
     8.8133   8.9675  11.1213  11.3330  12.1186  12.1247  13.5823  13.7848
    15.3516  15.3624  16.3324  16.4204  17.7423  17.7881  19.2887  19.3679
    22.9992  23.1883  26.3869  27.0053  27.5135  28.1487  28.1739  29.4474
    29.9573  30.2364  30.9058  31.0284  31.4173

     the Fermi energy is    15.6082 ev

!    total energy              =    -334.73134440 Ry
     Harris-Foulkes estimate   =    -334.73134243 Ry
     estimated scf accuracy    <       0.00000020 Ry

     The total energy is the sum of the following terms:

     one-electron contribution =     -89.25011381 Ry
     hartree contribution      =      59.70661848 Ry
     xc contribution           =     -94.37721185 Ry
     ewald contribution        =    -210.80479982 Ry
     smearing contrib. (-TS)   =      -0.00583740 Ry

     convergence has been achieved in   9 iterations

     Forces acting on atoms (Ry/au):

     negative rho (up, down):  1.366E-01 0.000E+00
     atom    1 type  1   force =     0.00000000    0.00000000    0.00000000
     atom    2 type  1   force =     0.00000000    0.00000000    0.00000000
     atom    3 type  2   force =     0.00000000    0.00000000    0.00000000
     atom    4 type  2   force =     0.00000000    0.00000000    0.00000000

     Total force =     0.000000     Total SCF correction =     0.000000

     General routines

     Parallel routines

   This run was terminated on:   1:10:22  14Nov2017

   JOB DONE.