     Program PWSCF v.5.1rc2 starts on 15Nov2017 at  6: 1: 0

     Current dimensions of program PWSCF are:
     Max number of different atomic species (ntypx) = 10
     Max number of k-points (npk) =  40000
     Max angular momentum in pseudopotentials (lmaxx) =  3

     IMPORTANT: XC functional enforced from input :
     Exchange-correlation      = BEEF-VDW ( 1  4 27 13 2)
     Any further DFT definition will be discarded
     Please, verify this is what you really want

     Found symmetry operation: I + ( -0.5000 -0.5000  0.0000)
     This is a supercell, fractional translations are disabled

     bravais-lattice index     =            0
     lattice parameter (alat)  =       1.8897  a.u.
     unit-cell volume          =     377.9450 (a.u.)^3
     number of atoms/cell      =            4
     number of atomic types    =            2
     number of electrons       =        56.00
     number of Kohn-Sham states=           48
     kinetic-energy cutoff     =      58.7989  Ry
     charge density cutoff     =     587.9892  Ry
     convergence threshold     =      1.0E-06
     mixing beta               =       0.1000
     number of iterations used =           10  plain     mixing
     Exchange-correlation      = BEEF-VDW ( 1  4 27 13 2)

     celldm(1)=   1.889726  celldm(2)=   0.000000  celldm(3)=   0.000000
     celldm(4)=   0.000000  celldm(5)=   0.000000  celldm(6)=   0.000000

     crystal axes: (cart. coord. in units of alat)
               a(1) = (   4.291289   0.000000   0.000000 )
               a(2) = (   0.000000   4.291289   0.000000 )
               a(3) = (   0.000000   0.000000   3.041280 )

     reciprocal axes: (cart. coord. in units 2 pi/alat)
               b(1) = (  0.233030  0.000000  0.000000 )
               b(2) = (  0.000000  0.233030  0.000000 )
               b(3) = (  0.000000  0.000000  0.328809 )

     PseudoPot. # 1 for V  read from file:
     /home/users/vossj/suncat/psp/gbrv1.5pbe/V.UPF
     MD5 check sum: 22b79981416ebb76fdaf5b1b8640f6fb
     Pseudo is Ultrasoft + core correction, Zval = 13.0
     Generated by new atomic code, or converted to UPF format
     Using radial grid of  853 points,  6 beta functions with:
                l(1) =   0
                l(2) =   0
                l(3) =   1
                l(4) =   1
                l(5) =   2
                l(6) =   2
     Q(r) pseudized with  8 coefficients,  rinner =    1.100   1.100   1.100
                                                       1.100   1.100

     PseudoPot. # 2 for Re read from file:
     /home/users/vossj/suncat/psp/gbrv1.5pbe/Re.UPF
     MD5 check sum: 85f993410f3e006da9d71c142b4ad953
     Pseudo is Ultrasoft + core correction, Zval = 15.0
     Generated by new atomic code, or converted to UPF format
     Using radial grid of  981 points,  8 beta functions with:
                l(1) =   0
                l(2) =   0
                l(3) =   1
                l(4) =   1
                l(5) =   2
                l(6) =   2
                l(7) =   3
                l(8) =   3
     Q(r) pseudized with  8 coefficients,  rinner =    1.150   1.150   1.150
                                                       1.150   1.150   1.150
                                                       1.150

     vdW kernel table read from file vdW_kernel_table
     MD5 check sum: 095c7af220d748ca6e76c0b4c6cfb241

     atomic species   valence    mass     pseudopotential
        V1            13.00    50.94150     V ( 1.00)
        Re1           15.00   186.20700     Re( 1.00)

     16 Sym. Ops., with inversion, found

   Cartesian axes

     site n.     atom                  positions (alat units)
         1           V1  tau(   1) = (   0.0000000   0.0000000   0.0000000  )
         2           V1  tau(   2) = (   2.1456446   2.1456446   0.0000000  )
         3           Re1 tau(   3) = (   2.1456446   0.0000000   1.5206402  )
         4           Re1 tau(   4) = (   0.0000000   2.1456446   1.5206402  )

     number of k points=    75  Fermi-Dirac smearing, width (Ry)=  0.0073
                       cart. coord. in units 2pi/alat
        k(    1) = (   0.0000000   0.0000000   0.0000000), wk =   0.0027435
        k(    2) = (   0.0000000   0.0000000   0.0365343), wk =   0.0054870
        k(    3) = (   0.0000000   0.0000000   0.0730686), wk =   0.0054870
        k(    4) = (   0.0000000   0.0000000   0.1096030), wk =   0.0054870
        k(    5) = (   0.0000000   0.0000000   0.1461373), wk =   0.0054870
        k(    6) = (   0.0000000   0.0258922   0.0000000), wk =   0.0109739
        k(    7) = (   0.0000000   0.0258922   0.0365343), wk =   0.0219479
        k(    8) = (   0.0000000   0.0258922   0.0730686), wk =   0.0219479
        k(    9) = (   0.0000000   0.0258922   0.1096030), wk =   0.0219479
        k(   10) = (   0.0000000   0.0258922   0.1461373), wk =   0.0219479
        k(   11) = (   0.0000000   0.0517845   0.0000000), wk =   0.0109739
        k(   12) = (   0.0000000   0.0517845   0.0365343), wk =   0.0219479
        k(   13) = (   0.0000000   0.0517845   0.0730686), wk =   0.0219479
        k(   14) = (   0.0000000   0.0517845   0.1096030), wk =   0.0219479
        k(   15) = (   0.0000000   0.0517845   0.1461373), wk =   0.0219479
        k(   16) = (   0.0000000   0.0776767   0.0000000), wk =   0.0109739
        k(   17) = (   0.0000000   0.0776767   0.0365343), wk =   0.0219479
        k(   18) = (   0.0000000   0.0776767   0.0730686), wk =   0.0219479
        k(   19) = (   0.0000000   0.0776767   0.1096030), wk =   0.0219479
        k(   20) = (   0.0000000   0.0776767   0.1461373), wk =   0.0219479
        k(   21) = (   0.0000000   0.1035690   0.0000000), wk =   0.0109739
        k(   22) = (   0.0000000   0.1035690   0.0365343), wk =   0.0219479
        k(   23) = (   0.0000000   0.1035690   0.0730686), wk =   0.0219479
        k(   24) = (   0.0000000   0.1035690   0.1096030), wk =   0.0219479
        k(   25) = (   0.0000000   0.1035690   0.1461373), wk =   0.0219479
        k(   26) = (   0.0258922   0.0258922   0.0000000), wk =   0.0109739
        k(   27) = (   0.0258922   0.0258922   0.0365343), wk =   0.0219479
        k(   28) = (   0.0258922   0.0258922   0.0730686), wk =   0.0219479
        k(   29) = (   0.0258922   0.0258922   0.1096030), wk =   0.0219479
        k(   30) = (   0.0258922   0.0258922   0.1461373), wk =   0.0219479
        k(   31) = (   0.0258922   0.0517845   0.0000000), wk =   0.0219479
        k(   32) = (   0.0258922   0.0517845   0.0365343), wk =   0.0438957
        k(   33) = (   0.0258922   0.0517845   0.0730686), wk =   0.0438957
        k(   34) = (   0.0258922   0.0517845   0.1096030), wk =   0.0438957
        k(   35) = (   0.0258922   0.0517845   0.1461373), wk =   0.0438957
        k(   36) = (   0.0258922   0.0776767   0.0000000), wk =   0.0219479
        k(   37) = (   0.0258922   0.0776767   0.0365343), wk =   0.0438957
        k(   38) = (   0.0258922   0.0776767   0.0730686), wk =   0.0438957
        k(   39) = (   0.0258922   0.0776767   0.1096030), wk =   0.0438957
        k(   40) = (   0.0258922   0.0776767   0.1461373), wk =   0.0438957
        k(   41) = (   0.0258922   0.1035690   0.0000000), wk =   0.0219479
        k(   42) = (   0.0258922   0.1035690   0.0365343), wk =   0.0438957
        k(   43) = (   0.0258922   0.1035690   0.0730686), wk =   0.0438957
        k(   44) = (   0.0258922   0.1035690   0.1096030), wk =   0.0438957
        k(   45) = (   0.0258922   0.1035690   0.1461373), wk =   0.0438957
        k(   46) = (   0.0517845   0.0517845   0.0000000), wk =   0.0109739
        k(   47) = (   0.0517845   0.0517845   0.0365343), wk =   0.0219479
        k(   48) = (   0.0517845   0.0517845   0.0730686), wk =   0.0219479
        k(   49) = (   0.0517845   0.0517845   0.1096030), wk =   0.0219479
        k(   50) = (   0.0517845   0.0517845   0.1461373), wk =   0.0219479
        k(   51) = (   0.0517845   0.0776767   0.0000000), wk =   0.0219479
        k(   52) = (   0.0517845   0.0776767   0.0365343), wk =   0.0438957
        k(   53) = (   0.0517845   0.0776767   0.0730686), wk =   0.0438957
        k(   54) = (   0.0517845   0.0776767   0.1096030), wk =   0.0438957
        k(   55) = (   0.0517845   0.0776767   0.1461373), wk =   0.0438957
        k(   56) = (   0.0517845   0.1035690   0.0000000), wk =   0.0219479
        k(   57) = (   0.0517845   0.1035690   0.0365343), wk =   0.0438957
        k(   58) = (   0.0517845   0.1035690   0.0730686), wk =   0.0438957
        k(   59) = (   0.0517845   0.1035690   0.1096030), wk =   0.0438957
        k(   60) = (   0.0517845   0.1035690   0.1461373), wk =   0.0438957
        k(   61) = (   0.0776767   0.0776767   0.0000000), wk =   0.0109739
        k(   62) = (   0.0776767   0.0776767   0.0365343), wk =   0.0219479
        k(   63) = (   0.0776767   0.0776767   0.0730686), wk =   0.0219479
        k(   64) = (   0.0776767   0.0776767   0.1096030), wk =   0.0219479
        k(   65) = (   0.0776767   0.0776767   0.1461373), wk =   0.0219479
        k(   66) = (   0.0776767   0.1035690   0.0000000), wk =   0.0219479
        k(   67) = (   0.0776767   0.1035690   0.0365343), wk =   0.0438957
        k(   68) = (   0.0776767   0.1035690   0.0730686), wk =   0.0438957
        k(   69) = (   0.0776767   0.1035690   0.1096030), wk =   0.0438957
        k(   70) = (   0.0776767   0.1035690   0.1461373), wk =   0.0438957
        k(   71) = (   0.1035690   0.1035690   0.0000000), wk =   0.0109739
        k(   72) = (   0.1035690   0.1035690   0.0365343), wk =   0.0219479
        k(   73) = (   0.1035690   0.1035690   0.0730686), wk =   0.0219479
        k(   74) = (   0.1035690   0.1035690   0.1096030), wk =   0.0219479
        k(   75) = (   0.1035690   0.1035690   0.1461373), wk =   0.0219479

     Largest allocated arrays     est. size (Mb)     dimensions
     Largest temporary arrays     est. size (Mb)     dimensions

     Initial potential from superposition of free atoms
     Check: negative starting charge=   -0.254485

     starting charge   54.99746, renormalised to   56.00000

     negative rho (up, down):  2.591E-01 0.000E+00

     *
     * You are using vdW-DF for exchange-correlation in this calculation.
     * Please cite the following three references that made this development
     * possible:
     *
     *   M. Dion, H. Rydberg, E. Schroder, D. C. Langreth, and
     *   B. I. Lundqvist, Phys. Rev. Lett. 92, 246401 (2004).
     *
     *   T. Thonhauser, V. R. Cooper, S. Li, A. Puzder, P. Hyldgaard, and
     *   D. C. Langreth, Phys. Rev. B 76, 125112 (2007).
     *
     *   G. Roman-Perez and J. M. Soler, Phys. Rev. Lett. 103, 096102 (2009).
     *
     *
     * If you are using vdW-DF2, please also cite:
     *
     *   K. Lee, E. D. Murray, L. Kong, B. I. Lundqvist, and
     *   D. C. Langreth, Phys. Rev. B 82, 081101(R) (2010).
     *
     *
     * If you are calculating the stress with vdW-DF, please also cite:
     *
     *   R. Sabatini, E. Kucukbenli, B. Kolb, T. Thonhauser, and
     *   S. de Gironcoli, J. Phys.: Condens. Matter 24, 424209 (2012).
     *

     Carrying out vdW-DF run using the following parameters:

     Nqs =      20    Nr_points =    1024   r_max =   100.000
     q_mesh =
               0.00001000     0.04494208     0.09755937     0.15916263
               0.23128650     0.31572767     0.41458969     0.53033537
               0.66584808     0.82450364     1.01025438     1.22772762
               1.48234092     1.78043706     2.12944203     2.53805004
               3.01644009     3.57652955     4.23227104     5.00000000

     Gradients computed in reciprocal space

     Starting wfc are   46 randomized atomic wfcs +    2 random wfc

     Self-consistent Calculation

     iteration #  1     ecut=    58.80 Ry     beta=0.10
     Davidson diagonalization with overlap
     ethr =  1.00E-02,  avg # of iterations =  3.7

[...]

     total energy              =    -676.17178466 Ry
     Harris-Foulkes estimate   =    -676.34773141 Ry
     estimated scf accuracy    <       1.09296293 Ry

[...]

     total energy              =    -676.12145129 Ry
     Harris-Foulkes estimate   =    -676.12145131 Ry
     estimated scf accuracy    <       0.00000419 Ry

     iteration # 13     ecut=    58.80 Ry     beta=0.10
     Davidson diagonalization with overlap
     ethr =  3.69E-09,  avg # of iterations =  1.0

     negative rho (up, down):  2.775E-01 0.000E+00

     End of self-consistent calculation

          k = 0.0000 0.0000 0.0000 (  2851 PWs)   bands (ev):

   -59.6200 -59.5995 -43.7665 -43.7419 -21.4879 -21.4879 -21.2492 -21.2436
   -21.2436 -21.1779 -17.5511 -17.5511 -17.4758 -17.4617 -17.4605 -17.4605
    12.1651  15.4430  15.4440  15.6567  15.6628  17.8255  17.8255  19.7782
    19.7782  19.8025  21.7513  21.7513  22.4161  22.4183  22.4260  22.4521
    22.6796  23.4828  24.2964  24.3011  24.3011  24.7925  24.7925  29.3277
    29.9532  30.0230  30.0230  33.3696  34.5328  34.5328  37.8568  39.6476

[...]

          k = 0.1036 0.1036 0.1461 (  2888 PWs)   bands (ev):

   -59.6004 -59.5998 -43.7431 -43.7423 -21.4853 -21.4811 -21.4772 -21.4765
   -21.1813 -21.1747 -17.5558 -17.5548 -17.5498 -17.5477 -17.4793 -17.4754
    15.4470  15.5407  15.5428  15.5619  17.8677  17.8830  17.9020  17.9766
    21.0168  21.2071  21.2920  21.3212  22.2085  22.3646  22.3790  22.4246
    22.8319  22.8328  23.6304  24.0168  24.5688  24.7735  24.9455  24.9911
    29.4495  29.6025  33.3212  33.4317  34.6593  34.7513  34.7830  34.9100

     the Fermi energy is    20.8587 ev

!    total energy              =    -676.12145387 Ry
     Harris-Foulkes estimate   =    -676.12145155 Ry
     estimated scf accuracy    <       0.00000003 Ry

     The total energy is the sum of the following terms:

     one-electron contribution =    -123.55532999 Ry
     hartree contribution      =      95.27257962 Ry
     xc contribution           =    -149.21983179 Ry
     ewald contribution        =    -498.61331420 Ry
     smearing contrib. (-TS)   =      -0.00555752 Ry

     convergence has been achieved in  13 iterations

     Forces acting on atoms (Ry/au):

     negative rho (up, down):  2.775E-01 0.000E+00
     atom    1 type  1   force =     0.00000000    0.00000000    0.00000000
     atom    2 type  1   force =     0.00000000    0.00000000    0.00000000
     atom    3 type  2   force =     0.00000000    0.00000000    0.00000000
     atom    4 type  2   force =     0.00000000    0.00000000    0.00000000

     Total force =     0.000000     Total SCF correction =     0.000000

     General routines

     Parallel routines

   This run was terminated on:   6: 1:38  15Nov2017

   JOB DONE.