     Program PWSCF v.5.1rc2 starts on 15Nov2017 at  6:59: 2

     Current dimensions of program PWSCF are:
     Max number of different atomic species (ntypx) = 10
     Max number of k-points (npk) =  40000
     Max angular momentum in pseudopotentials (lmaxx) =  3

     IMPORTANT: XC functional enforced from input :
     Exchange-correlation      = BEEF-VDW ( 1  4 27 13 2)
     Any further DFT definition will be discarded
     Please, verify this is what you really want

     Found symmetry operation: I + (  0.5000  0.5000  0.0000)
     This is a supercell, fractional translations are disabled

     bravais-lattice index     =            0
     lattice parameter (alat)  =       1.8897  a.u.
     unit-cell volume          =     404.8434 (a.u.)^3
     number of atoms/cell      =            4
     number of atomic types    =            2
     number of electrons       =        54.00
     number of Kohn-Sham states=           47
     kinetic-energy cutoff     =      58.7989  Ry
     charge density cutoff     =     587.9892  Ry
     convergence threshold     =      1.0E-06
     mixing beta               =       0.1000
     number of iterations used =           10  plain     mixing
     Exchange-correlation      = BEEF-VDW ( 1  4 27 13 2)

     celldm(1)=   1.889726  celldm(2)=   0.000000  celldm(3)=   0.000000
     celldm(4)=   0.000000  celldm(5)=   0.000000  celldm(6)=   0.000000

     crystal axes: (cart. coord. in units of alat)
               a(1) = (   3.628400   0.000000   0.000000 )
               a(2) = (   0.000000   3.628400   0.000000 )
               a(3) = (   0.000000   0.000000   4.556802 )

     reciprocal axes: (cart. coord. in units 2 pi/alat)
               b(1) = (  0.275604  0.000000  0.000000 )
               b(2) = (  0.000000  0.275604  0.000000 )
               b(3) = (  0.000000  0.000000  0.219452 )

     PseudoPot. # 1 for V  read from file:
     /home/users/vossj/suncat/psp/gbrv1.5pbe/V.UPF
     MD5 check sum: 22b79981416ebb76fdaf5b1b8640f6fb
     Pseudo is Ultrasoft + core correction, Zval = 13.0
     Generated by new atomic code, or converted to UPF format
     Using radial grid of  853 points,  6 beta functions with:
                l(1) =   0
                l(2) =   0
                l(3) =   1
                l(4) =   1
                l(5) =   2
                l(6) =   2
     Q(r) pseudized with  8 coefficients,  rinner =    1.100   1.100   1.100
                                                       1.100   1.100

     PseudoPot. # 2 for Mo read from file:
     /home/users/vossj/suncat/psp/gbrv1.5pbe/Mo.UPF
     MD5 check sum: 30c4dcd161f5d35cd49bb5239c51a633
     Pseudo is Ultrasoft + core correction, Zval = 14.0
     Generated by new atomic code, or converted to UPF format
     Using radial grid of  889 points,  6 beta functions with:
                l(1) =   0
                l(2) =   0
                l(3) =   1
                l(4) =   1
                l(5) =   2
                l(6) =   2
     Q(r) pseudized with  6 coefficients,  rinner =    1.000   1.000   1.000
                                                       1.000   1.000

     vdW kernel table read from file vdW_kernel_table
     MD5 check sum: 095c7af220d748ca6e76c0b4c6cfb241

     atomic species   valence    mass     pseudopotential
        V1            13.00    50.94150     V ( 1.00)
        Mo1           14.00    95.94000     Mo( 1.00)

     16 Sym. Ops., with inversion, found

   Cartesian axes

     site n.     atom                  positions (alat units)
         1           V1  tau(   1) = (   0.0000000   0.0000000   0.0000000  )
         2           V1  tau(   2) = (   1.8141999   1.8141999   0.0000000  )
         3           Mo1 tau(   3) = (   1.8141999   0.0000000   2.2784010  )
         4           Mo1 tau(   4) = (   0.0000000   1.8141999   2.2784010  )

     number of k points=    75  Fermi-Dirac smearing, width (Ry)=  0.0073
                       cart. coord. in units 2pi/alat
        k(    1) = (   0.0000000   0.0000000   0.0000000), wk =   0.0027435
        k(    2) = (   0.0000000   0.0000000   0.0243836), wk =   0.0054870
        k(    3) = (   0.0000000   0.0000000   0.0487671), wk =   0.0054870
        k(    4) = (   0.0000000   0.0000000   0.0731507), wk =   0.0054870
        k(    5) = (   0.0000000   0.0000000   0.0975343), wk =   0.0054870
        k(    6) = (   0.0000000   0.0306226   0.0000000), wk =   0.0109739
        k(    7) = (   0.0000000   0.0306226   0.0243836), wk =   0.0219479
        k(    8) = (   0.0000000   0.0306226   0.0487671), wk =   0.0219479
        k(    9) = (   0.0000000   0.0306226   0.0731507), wk =   0.0219479
        k(   10) = (   0.0000000   0.0306226   0.0975343), wk =   0.0219479
        k(   11) = (   0.0000000   0.0612452   0.0000000), wk =   0.0109739
        k(   12) = (   0.0000000   0.0612452   0.0243836), wk =   0.0219479
        k(   13) = (   0.0000000   0.0612452   0.0487671), wk =   0.0219479
        k(   14) = (   0.0000000   0.0612452   0.0731507), wk =   0.0219479
        k(   15) = (   0.0000000   0.0612452   0.0975343), wk =   0.0219479
        k(   16) = (   0.0000000   0.0918679   0.0000000), wk =   0.0109739
        k(   17) = (   0.0000000   0.0918679   0.0243836), wk =   0.0219479
        k(   18) = (   0.0000000   0.0918679   0.0487671), wk =   0.0219479
        k(   19) = (   0.0000000   0.0918679   0.0731507), wk =   0.0219479
        k(   20) = (   0.0000000   0.0918679   0.0975343), wk =   0.0219479
        k(   21) = (   0.0000000   0.1224905   0.0000000), wk =   0.0109739
        k(   22) = (   0.0000000   0.1224905   0.0243836), wk =   0.0219479
        k(   23) = (   0.0000000   0.1224905   0.0487671), wk =   0.0219479
        k(   24) = (   0.0000000   0.1224905   0.0731507), wk =   0.0219479
        k(   25) = (   0.0000000   0.1224905   0.0975343), wk =   0.0219479
        k(   26) = (   0.0306226   0.0306226   0.0000000), wk =   0.0109739
        k(   27) = (   0.0306226   0.0306226   0.0243836), wk =   0.0219479
        k(   28) = (   0.0306226   0.0306226   0.0487671), wk =   0.0219479
        k(   29) = (   0.0306226   0.0306226   0.0731507), wk =   0.0219479
        k(   30) = (   0.0306226   0.0306226   0.0975343), wk =   0.0219479
        k(   31) = (   0.0306226   0.0612452   0.0000000), wk =   0.0219479
        k(   32) = (   0.0306226   0.0612452   0.0243836), wk =   0.0438957
        k(   33) = (   0.0306226   0.0612452   0.0487671), wk =   0.0438957
        k(   34) = (   0.0306226   0.0612452   0.0731507), wk =   0.0438957
        k(   35) = (   0.0306226   0.0612452   0.0975343), wk =   0.0438957
        k(   36) = (   0.0306226   0.0918679   0.0000000), wk =   0.0219479
        k(   37) = (   0.0306226   0.0918679   0.0243836), wk =   0.0438957
        k(   38) = (   0.0306226   0.0918679   0.0487671), wk =   0.0438957
        k(   39) = (   0.0306226   0.0918679   0.0731507), wk =   0.0438957
        k(   40) = (   0.0306226   0.0918679   0.0975343), wk =   0.0438957
        k(   41) = (   0.0306226   0.1224905   0.0000000), wk =   0.0219479
        k(   42) = (   0.0306226   0.1224905   0.0243836), wk =   0.0438957
        k(   43) = (   0.0306226   0.1224905   0.0487671), wk =   0.0438957
        k(   44) = (   0.0306226   0.1224905   0.0731507), wk =   0.0438957
        k(   45) = (   0.0306226   0.1224905   0.0975343), wk =   0.0438957
        k(   46) = (   0.0612452   0.0612452   0.0000000), wk =   0.0109739
        k(   47) = (   0.0612452   0.0612452   0.0243836), wk =   0.0219479
        k(   48) = (   0.0612452   0.0612452   0.0487671), wk =   0.0219479
        k(   49) = (   0.0612452   0.0612452   0.0731507), wk =   0.0219479
        k(   50) = (   0.0612452   0.0612452   0.0975343), wk =   0.0219479
        k(   51) = (   0.0612452   0.0918679   0.0000000), wk =   0.0219479
        k(   52) = (   0.0612452   0.0918679   0.0243836), wk =   0.0438957
        k(   53) = (   0.0612452   0.0918679   0.0487671), wk =   0.0438957
        k(   54) = (   0.0612452   0.0918679   0.0731507), wk =   0.0438957
        k(   55) = (   0.0612452   0.0918679   0.0975343), wk =   0.0438957
        k(   56) = (   0.0612452   0.1224905   0.0000000), wk =   0.0219479
        k(   57) = (   0.0612452   0.1224905   0.0243836), wk =   0.0438957
        k(   58) = (   0.0612452   0.1224905   0.0487671), wk =   0.0438957
        k(   59) = (   0.0612452   0.1224905   0.0731507), wk =   0.0438957
        k(   60) = (   0.0612452   0.1224905   0.0975343), wk =   0.0438957
        k(   61) = (   0.0918679   0.0918679   0.0000000), wk =   0.0109739
        k(   62) = (   0.0918679   0.0918679   0.0243836), wk =   0.0219479
        k(   63) = (   0.0918679   0.0918679   0.0487671), wk =   0.0219479
        k(   64) = (   0.0918679   0.0918679   0.0731507), wk =   0.0219479
        k(   65) = (   0.0918679   0.0918679   0.0975343), wk =   0.0219479
        k(   66) = (   0.0918679   0.1224905   0.0000000), wk =   0.0219479
        k(   67) = (   0.0918679   0.1224905   0.0243836), wk =   0.0438957
        k(   68) = (   0.0918679   0.1224905   0.0487671), wk =   0.0438957
        k(   69) = (   0.0918679   0.1224905   0.0731507), wk =   0.0438957
        k(   70) = (   0.0918679   0.1224905   0.0975343), wk =   0.0438957
        k(   71) = (   0.1224905   0.1224905   0.0000000), wk =   0.0109739
        k(   72) = (   0.1224905   0.1224905   0.0243836), wk =   0.0219479
        k(   73) = (   0.1224905   0.1224905   0.0487671), wk =   0.0219479
        k(   74) = (   0.1224905   0.1224905   0.0731507), wk =   0.0219479
        k(   75) = (   0.1224905   0.1224905   0.0975343), wk =   0.0219479

     Largest allocated arrays     est. size (Mb)     dimensions
     Largest temporary arrays     est. size (Mb)     dimensions

     Check: negative/imaginary core charge=   -0.000002    0.000000

     Initial potential from superposition of free atoms
     Check: negative starting charge=   -0.000836

     starting charge   53.99542, renormalised to   54.00000

     negative rho (up, down):  8.364E-04 0.000E+00

     *
     * You are using vdW-DF for exchange-correlation in this calculation.
     * Please cite the following three references that made this development
     * possible:
     *
     *   M. Dion, H. Rydberg, E. Schroder, D. C. Langreth, and
     *   B. I. Lundqvist, Phys. Rev. Lett. 92, 246401 (2004).
     *
     *   T. Thonhauser, V. R. Cooper, S. Li, A. Puzder, P. Hyldgaard, and
     *   D. C. Langreth, Phys. Rev. B 76, 125112 (2007).
     *
     *   G. Roman-Perez and J. M. Soler, Phys. Rev. Lett. 103, 096102 (2009).
     *
     *
     * If you are using vdW-DF2, please also cite:
     *
     *   K. Lee, E. D. Murray, L. Kong, B. I. Lundqvist, and
     *   D. C. Langreth, Phys. Rev. B 82, 081101(R) (2010).
     *
     *
     * If you are calculating the stress with vdW-DF, please also cite:
     *
     *   R. Sabatini, E. Kucukbenli, B. Kolb, T. Thonhauser, and
     *   S. de Gironcoli, J. Phys.: Condens. Matter 24, 424209 (2012).
     *

     Carrying out vdW-DF run using the following parameters:

     Nqs =      20    Nr_points =    1024   r_max =   100.000
     q_mesh =
               0.00001000     0.04494208     0.09755937     0.15916263
               0.23128650     0.31572767     0.41458969     0.53033537
               0.66584808     0.82450364     1.01025438     1.22772762
               1.48234092     1.78043706     2.12944203     2.53805004
               3.01644009     3.57652955     4.23227104     5.00000000

     Gradients computed in reciprocal space

     Starting wfc are   46 randomized atomic wfcs +    1 random wfc

     Self-consistent Calculation

     iteration #  1     ecut=    58.80 Ry     beta=0.10
     Davidson diagonalization with overlap
     ethr =  1.00E-02,  avg # of iterations =  3.4

     Threshold (ethr) on eigenvalues was too large:
     Diagonalizing with lowered threshold

     Davidson diagonalization with overlap
     ethr =  2.74E-04,  avg # of iterations =  1.3

[...]

     total energy              =    -571.58036155 Ry
     Harris-Foulkes estimate   =    -571.59984067 Ry
     estimated scf accuracy    <       0.14807892 Ry

[...]

     total energy              =    -571.57918409 Ry
     Harris-Foulkes estimate   =    -571.57918372 Ry
     estimated scf accuracy    <       0.00000205 Ry

     iteration # 12     ecut=    58.80 Ry     beta=0.10
     Davidson diagonalization with overlap
     ethr =  3.80E-09,  avg # of iterations =  1.0

     negative rho (up, down):  1.309E-03 0.000E+00

     End of self-consistent calculation

          k = 0.0000 0.0000 0.0000 (  3097 PWs)   bands (ev):

   -46.0731 -45.8879 -42.9652 -42.5349 -20.0515 -20.0515 -19.9373 -19.7432
   -19.4780 -19.4780 -17.4939 -17.4939 -16.8884 -16.5546 -16.1524 -16.1524
    11.4755  12.8824  13.8678  14.2185  14.7627  14.8450  14.8450  16.8367
    18.1814  18.9729  18.9729  19.1494  20.5033  20.5033  20.5896  21.0003
    21.4014  21.7782  21.7782  21.9749  22.5094  23.4808  23.4808  24.6998
    27.7840  27.9046  30.4151  32.0160  32.0160  32.1463  32.8967

[...]

          k = 0.1225 0.1225 0.0975 (  3086 PWs)   bands (ev):

   -45.9809 -45.9754 -42.7537 -42.7407 -20.1487 -20.1323 -19.8437 -19.8395
   -19.4377 -19.4200 -17.6954 -17.6583 -16.7285 -16.7170 -16.0555 -16.0115
    13.7173  13.7238  14.5425  14.6664  16.0971  16.2156  17.2841  17.4065
    18.2741  18.6248  18.8347  18.9389  19.1654  19.3156  19.4952  19.5855
    20.8296  21.1259  21.3454  21.5387  21.5928  21.6706  22.0101  22.1374
    27.8581  28.0766  29.2118  29.2870  31.2456  31.3347  32.3413

     the Fermi energy is    18.1855 ev

!    total energy              =    -571.57918592 Ry
     Harris-Foulkes estimate   =    -571.57918414 Ry
     estimated scf accuracy    <       0.00000049 Ry

     The total energy is the sum of the following terms:

     one-electron contribution =    -137.94565925 Ry
     hartree contribution      =      98.42467274 Ry
     xc contribution           =     -81.01423968 Ry
     ewald contribution        =    -451.03556296 Ry
     smearing contrib. (-TS)   =      -0.00839678 Ry

     convergence has been achieved in  12 iterations

     Forces acting on atoms (Ry/au):

     negative rho (up, down):  1.309E-03 0.000E+00
     atom    1 type  1   force =     0.00000000    0.00000000    0.00000000
     atom    2 type  1   force =     0.00000000    0.00000000    0.00000000
     atom    3 type  2   force =     0.00000000    0.00000000    0.00000000
     atom    4 type  2   force =     0.00000000    0.00000000    0.00000000

     Total force =     0.000000     Total SCF correction =     0.000000

     General routines

     Parallel routines

   This run was terminated on:   6:59:35  15Nov2017

   JOB DONE.