     Program PWSCF v.5.1rc2 starts on 15Nov2017 at  5: 3: 6

     Current dimensions of program PWSCF are:
     Max number of different atomic species (ntypx) = 10
     Max number of k-points (npk) =  40000
     Max angular momentum in pseudopotentials (lmaxx) =  3

     IMPORTANT: XC functional enforced from input :
     Exchange-correlation      = BEEF-VDW ( 1  4 27 13 2)
     Any further DFT definition will be discarded
     Please, verify this is what you really want

     Found symmetry operation: I + ( -0.5000 -0.5000  0.0000)
     This is a supercell, fractional translations are disabled

     bravais-lattice index     =            0
     lattice parameter (alat)  =       1.8897  a.u.
     unit-cell volume          =     497.1229 (a.u.)^3
     number of atoms/cell      =            4
     number of atomic types    =            2
     number of electrons       =        50.00
     number of Kohn-Sham states=           45
     kinetic-energy cutoff     =      58.7989  Ry
     charge density cutoff     =     587.9892  Ry
     convergence threshold     =      1.0E-06
     mixing beta               =       0.1000
     number of iterations used =           10  plain     mixing
     Exchange-correlation      = BEEF-VDW ( 1  4 27 13 2)

     celldm(1)=   1.889726  celldm(2)=   0.000000  celldm(3)=   0.000000
     celldm(4)=   0.000000  celldm(5)=   0.000000  celldm(6)=   0.000000

     crystal axes: (cart. coord. in units of alat)
               a(1) = (   3.937406   0.000000   0.000000 )
               a(2) = (   0.000000   3.937406   0.000000 )
               a(3) = (   0.000000   0.000000   4.751675 )

     reciprocal axes: (cart. coord. in units 2 pi/alat)
               b(1) = (  0.253974  0.000000  0.000000 )
               b(2) = (  0.000000  0.253974  0.000000 )
               b(3) = (  0.000000  0.000000  0.210452 )

     PseudoPot. # 1 for Sc read from file:
     /home/users/vossj/suncat/psp/gbrv1.5pbe/Sc.UPF
     MD5 check sum: db30a2753ba66ef00f23801d899b7e7f
     Pseudo is Ultrasoft + core correction, Zval = 11.0
     Generated by new atomic code, or converted to UPF format
     Using radial grid of  849 points,  6 beta functions with:
                l(1) =   0
                l(2) =   0
                l(3) =   1
                l(4) =   1
                l(5) =   2
                l(6) =   2
     Q(r) pseudized with  6 coefficients,  rinner =    1.200   1.200   1.200
                                                       1.200   1.200

     PseudoPot. # 2 for W  read from file:
     /home/users/vossj/suncat/psp/gbrv1.5pbe/W.UPF
     MD5 check sum: 9c083fa34c2a2ea0f02f1f893e16e1c8
     Pseudo is Ultrasoft + core correction, Zval = 14.0
     Generated by new atomic code, or converted to UPF format
     Using radial grid of  923 points,  8 beta functions with:
                l(1) =   0
                l(2) =   0
                l(3) =   0
                l(4) =   1
                l(5) =   1
                l(6) =   2
                l(7) =   2
                l(8) =   3
     Q(r) pseudized with  6 coefficients,  rinner =    1.350   1.350   1.350
                                                       1.350   1.350   1.350
                                                       1.350

     vdW kernel table read from file vdW_kernel_table
     MD5 check sum: 095c7af220d748ca6e76c0b4c6cfb241

     atomic species   valence    mass     pseudopotential
        Sc1           11.00    44.95590     Sc( 1.00)
        W1            14.00   183.85000     W ( 1.00)

     16 Sym. Ops., with inversion, found

   Cartesian axes

     site n.     atom                  positions (alat units)
         1           Sc1 tau(   1) = (   0.0000000   0.0000000   0.0000000  )
         2           Sc1 tau(   2) = (   1.9687031   1.9687031   0.0000000  )
         3           W1  tau(   3) = (   1.9687031   0.0000000   2.3758375  )
         4           W1  tau(   4) = (   0.0000000   1.9687031   2.3758375  )

     number of k points=    75  Fermi-Dirac smearing, width (Ry)=  0.0073
                       cart. coord. in units 2pi/alat
        k(    1) = (   0.0000000   0.0000000   0.0000000), wk =   0.0027435
        k(    2) = (   0.0000000   0.0000000   0.0233836), wk =   0.0054870
        k(    3) = (   0.0000000   0.0000000   0.0467671), wk =   0.0054870
        k(    4) = (   0.0000000   0.0000000   0.0701507), wk =   0.0054870
        k(    5) = (   0.0000000   0.0000000   0.0935343), wk =   0.0054870
        k(    6) = (   0.0000000   0.0282194   0.0000000), wk =   0.0109739
        k(    7) = (   0.0000000   0.0282194   0.0233836), wk =   0.0219479
        k(    8) = (   0.0000000   0.0282194   0.0467671), wk =   0.0219479
        k(    9) = (   0.0000000   0.0282194   0.0701507), wk =   0.0219479
        k(   10) = (   0.0000000   0.0282194   0.0935343), wk =   0.0219479
        k(   11) = (   0.0000000   0.0564387   0.0000000), wk =   0.0109739
        k(   12) = (   0.0000000   0.0564387   0.0233836), wk =   0.0219479
        k(   13) = (   0.0000000   0.0564387   0.0467671), wk =   0.0219479
        k(   14) = (   0.0000000   0.0564387   0.0701507), wk =   0.0219479
        k(   15) = (   0.0000000   0.0564387   0.0935343), wk =   0.0219479
        k(   16) = (   0.0000000   0.0846581   0.0000000), wk =   0.0109739
        k(   17) = (   0.0000000   0.0846581   0.0233836), wk =   0.0219479
        k(   18) = (   0.0000000   0.0846581   0.0467671), wk =   0.0219479
        k(   19) = (   0.0000000   0.0846581   0.0701507), wk =   0.0219479
        k(   20) = (   0.0000000   0.0846581   0.0935343), wk =   0.0219479
        k(   21) = (   0.0000000   0.1128775   0.0000000), wk =   0.0109739
        k(   22) = (   0.0000000   0.1128775   0.0233836), wk =   0.0219479
        k(   23) = (   0.0000000   0.1128775   0.0467671), wk =   0.0219479
        k(   24) = (   0.0000000   0.1128775   0.0701507), wk =   0.0219479
        k(   25) = (   0.0000000   0.1128775   0.0935343), wk =   0.0219479
        k(   26) = (   0.0282194   0.0282194   0.0000000), wk =   0.0109739
        k(   27) = (   0.0282194   0.0282194   0.0233836), wk =   0.0219479
        k(   28) = (   0.0282194   0.0282194   0.0467671), wk =   0.0219479
        k(   29) = (   0.0282194   0.0282194   0.0701507), wk =   0.0219479
        k(   30) = (   0.0282194   0.0282194   0.0935343), wk =   0.0219479
        k(   31) = (   0.0282194   0.0564387   0.0000000), wk =   0.0219479
        k(   32) = (   0.0282194   0.0564387   0.0233836), wk =   0.0438957
        k(   33) = (   0.0282194   0.0564387   0.0467671), wk =   0.0438957
        k(   34) = (   0.0282194   0.0564387   0.0701507), wk =   0.0438957
        k(   35) = (   0.0282194   0.0564387   0.0935343), wk =   0.0438957
        k(   36) = (   0.0282194   0.0846581   0.0000000), wk =   0.0219479
        k(   37) = (   0.0282194   0.0846581   0.0233836), wk =   0.0438957
        k(   38) = (   0.0282194   0.0846581   0.0467671), wk =   0.0438957
        k(   39) = (   0.0282194   0.0846581   0.0701507), wk =   0.0438957
        k(   40) = (   0.0282194   0.0846581   0.0935343), wk =   0.0438957
        k(   41) = (   0.0282194   0.1128775   0.0000000), wk =   0.0219479
        k(   42) = (   0.0282194   0.1128775   0.0233836), wk =   0.0438957
        k(   43) = (   0.0282194   0.1128775   0.0467671), wk =   0.0438957
        k(   44) = (   0.0282194   0.1128775   0.0701507), wk =   0.0438957
        k(   45) = (   0.0282194   0.1128775   0.0935343), wk =   0.0438957
        k(   46) = (   0.0564387   0.0564387   0.0000000), wk =   0.0109739
        k(   47) = (   0.0564387   0.0564387   0.0233836), wk =   0.0219479
        k(   48) = (   0.0564387   0.0564387   0.0467671), wk =   0.0219479
        k(   49) = (   0.0564387   0.0564387   0.0701507), wk =   0.0219479
        k(   50) = (   0.0564387   0.0564387   0.0935343), wk =   0.0219479
        k(   51) = (   0.0564387   0.0846581   0.0000000), wk =   0.0219479
        k(   52) = (   0.0564387   0.0846581   0.0233836), wk =   0.0438957
        k(   53) = (   0.0564387   0.0846581   0.0467671), wk =   0.0438957
        k(   54) = (   0.0564387   0.0846581   0.0701507), wk =   0.0438957
        k(   55) = (   0.0564387   0.0846581   0.0935343), wk =   0.0438957
        k(   56) = (   0.0564387   0.1128775   0.0000000), wk =   0.0219479
        k(   57) = (   0.0564387   0.1128775   0.0233836), wk =   0.0438957
        k(   58) = (   0.0564387   0.1128775   0.0467671), wk =   0.0438957
        k(   59) = (   0.0564387   0.1128775   0.0701507), wk =   0.0438957
        k(   60) = (   0.0564387   0.1128775   0.0935343), wk =   0.0438957
        k(   61) = (   0.0846581   0.0846581   0.0000000), wk =   0.0109739
        k(   62) = (   0.0846581   0.0846581   0.0233836), wk =   0.0219479
        k(   63) = (   0.0846581   0.0846581   0.0467671), wk =   0.0219479
        k(   64) = (   0.0846581   0.0846581   0.0701507), wk =   0.0219479
        k(   65) = (   0.0846581   0.0846581   0.0935343), wk =   0.0219479
        k(   66) = (   0.0846581   0.1128775   0.0000000), wk =   0.0219479
        k(   67) = (   0.0846581   0.1128775   0.0233836), wk =   0.0438957
        k(   68) = (   0.0846581   0.1128775   0.0467671), wk =   0.0438957
        k(   69) = (   0.0846581   0.1128775   0.0701507), wk =   0.0438957
        k(   70) = (   0.0846581   0.1128775   0.0935343), wk =   0.0438957
        k(   71) = (   0.1128775   0.1128775   0.0000000), wk =   0.0109739
        k(   72) = (   0.1128775   0.1128775   0.0233836), wk =   0.0219479
        k(   73) = (   0.1128775   0.1128775   0.0467671), wk =   0.0219479
        k(   74) = (   0.1128775   0.1128775   0.0701507), wk =   0.0219479
        k(   75) = (   0.1128775   0.1128775   0.0935343), wk =   0.0219479

     Largest allocated arrays     est. size (Mb)     dimensions
     Largest temporary arrays     est. size (Mb)     dimensions

     Initial potential from superposition of free atoms
     Check: negative starting charge=   -0.124128

     starting charge   49.79452, renormalised to   50.00000

     negative rho (up, down):  1.246E-01 0.000E+00

     *
     * You are using vdW-DF for exchange-correlation in this calculation.
     * Please cite the following three references that made this development
     * possible:
     *
     *   M. Dion, H. Rydberg, E. Schroder, D. C. Langreth, and
     *   B. I. Lundqvist, Phys. Rev. Lett. 92, 246401 (2004).
     *
     *   T. Thonhauser, V. R. Cooper, S. Li, A. Puzder, P. Hyldgaard, and
     *   D. C. Langreth, Phys. Rev. B 76, 125112 (2007).
     *
     *   G. Roman-Perez and J. M. Soler, Phys. Rev. Lett. 103, 096102 (2009).
     *
     *
     * If you are using vdW-DF2, please also cite:
     *
     *   K. Lee, E. D. Murray, L. Kong, B. I. Lundqvist, and
     *   D. C. Langreth, Phys. Rev. B 82, 081101(R) (2010).
     *
     *
     * If you are calculating the stress with vdW-DF, please also cite:
     *
     *   R. Sabatini, E. Kucukbenli, B. Kolb, T. Thonhauser, and
     *   S. de Gironcoli, J. Phys.: Condens. Matter 24, 424209 (2012).
     *

     Carrying out vdW-DF run using the following parameters:

     Nqs =      20    Nr_points =    1024   r_max =   100.000
     q_mesh =
               0.00001000     0.04494208     0.09755937     0.15916263
               0.23128650     0.31572767     0.41458969     0.53033537
               0.66584808     0.82450364     1.01025438     1.22772762
               1.48234092     1.78043706     2.12944203     2.53805004
               3.01644009     3.57652955     4.23227104     5.00000000

     Gradients computed in reciprocal space

     Starting wfc are   52 randomized atomic wfcs

     Self-consistent Calculation

     iteration #  1     ecut=    58.80 Ry     beta=0.10
     Davidson diagonalization with overlap
     ethr =  1.00E-02,  avg # of iterations =  3.8

     Threshold (ethr) on eigenvalues was too large:
     Diagonalizing with lowered threshold

     Davidson diagonalization with overlap
     ethr =  2.00E-04,  avg # of iterations =  2.9

[...]

     total energy              =    -510.57563984 Ry
     Harris-Foulkes estimate   =    -510.58575215 Ry
     estimated scf accuracy    <       0.10440953 Ry

[...]

     total energy              =    -510.56533318 Ry
     Harris-Foulkes estimate   =    -510.56533243 Ry
     estimated scf accuracy    <       0.00000179 Ry

     iteration # 10     ecut=    58.80 Ry     beta=0.10
     Davidson diagonalization with overlap
     ethr =  3.57E-09,  avg # of iterations =  2.0

     negative rho (up, down):  1.359E-01 0.000E+00

     End of self-consistent calculation

          k = 0.0000 0.0000 0.0000 (  3753 PWs)   bands (ev):

   -58.5404 -58.4483 -33.7509 -33.5102 -22.9057 -22.9057 -22.6070 -22.4413
   -22.2643 -22.2643 -12.6942 -12.6942 -12.2156 -12.0118 -11.9706 -11.9706
     8.3892  11.4231  11.9093  12.4923  12.5528  12.9969  12.9969  15.7255
    16.5163  17.0295  17.0295  17.1981  19.3859  19.5782  19.5782  19.6013
    19.7122  19.7122  20.1238  20.4573  20.5530  20.5530  21.4191  21.7965
    24.9505  25.2638  25.4098  27.1645  27.1645

[...]

          k = 0.1129 0.1129 0.0935 (  3803 PWs)   bands (ev):

   -58.4953 -58.4925 -33.6314 -33.6241 -22.9956 -22.9773 -22.5253 -22.5206
   -22.2224 -22.2021 -12.8195 -12.7987 -12.1162 -12.1094 -11.9178 -11.8947
    11.5367  11.6911  12.0809  12.0939  14.3197  14.4040  15.6798  16.0138
    16.1433  16.3015  16.3504  16.5234  16.6627  16.9675  17.2338  17.3812
    19.6648  19.8367  20.0659  20.1393  20.2461  20.3608  20.5977  20.6322
    24.3650  24.4567  25.8235  25.9996  27.8041

     the Fermi energy is    15.5283 ev

!    total energy              =    -510.56534056 Ry
     Harris-Foulkes estimate   =    -510.56533342 Ry
     estimated scf accuracy    <       0.00000010 Ry

     The total energy is the sum of the following terms:

     one-electron contribution =    -109.12897763 Ry
     hartree contribution      =      74.97956720 Ry
     xc contribution           =    -113.12222099 Ry
     ewald contribution        =    -363.28283286 Ry
     smearing contrib. (-TS)   =      -0.01087627 Ry

     convergence has been achieved in  10 iterations

     Forces acting on atoms (Ry/au):

     negative rho (up, down):  1.359E-01 0.000E+00
     atom    1 type  1   force =     0.00000000    0.00000000    0.00000000
     atom    2 type  1   force =     0.00000000    0.00000000    0.00000000
     atom    3 type  2   force =     0.00000000    0.00000000    0.00000000
     atom    4 type  2   force =     0.00000000    0.00000000    0.00000000

     Total force =     0.000000     Total SCF correction =     0.000000

     General routines

     Parallel routines

   This run was terminated on:   5: 3:41  15Nov2017

   JOB DONE.