     Program PWSCF v.5.1rc2 starts on 14Nov2017 at  9:44:48

     Current dimensions of program PWSCF are:
     Max number of different atomic species (ntypx) = 10
     Max number of k-points (npk) =  40000
     Max angular momentum in pseudopotentials (lmaxx) =  3

     IMPORTANT: XC functional enforced from input :
     Exchange-correlation      = BEEF-VDW ( 1  4 27 13 2)
     Any further DFT definition will be discarded
     Please, verify this is what you really want

     Found symmetry operation: I + ( -0.5000 -0.5000  0.0000)
     This is a supercell, fractional translations are disabled

     bravais-lattice index     =            0
     lattice parameter (alat)  =       1.8897  a.u.
     unit-cell volume          =     774.6387 (a.u.)^3
     number of atoms/cell      =            4
     number of atomic types    =            2
     number of electrons       =        50.00
     number of Kohn-Sham states=           45
     kinetic-energy cutoff     =      58.7989  Ry
     charge density cutoff     =     587.9892  Ry
     convergence threshold     =      1.0E-06
     mixing beta               =       0.1000
     number of iterations used =           10  plain     mixing
     Exchange-correlation      = BEEF-VDW ( 1  4 27 13 2)

     celldm(1)=   1.889726  celldm(2)=   0.000000  celldm(3)=   0.000000
     celldm(4)=   0.000000  celldm(5)=   0.000000  celldm(6)=   0.000000

     crystal axes: (cart. coord. in units of alat)
               a(1) = (   5.077132   0.000000   0.000000 )
               a(2) = (   0.000000   5.077132   0.000000 )
               a(3) = (   0.000000   0.000000   4.453133 )

     reciprocal axes: (cart. coord. in units 2 pi/alat)
               b(1) = (  0.196962  0.000000  0.000000 )
               b(2) = (  0.000000  0.196962  0.000000 )
               b(3) = (  0.000000  0.000000  0.224561 )

     PseudoPot. # 1 for Y  read from file:
     /home/users/vossj/suncat/psp/gbrv1.5pbe/Y.UPF
     MD5 check sum: d034151ed7554c50b6e82763ed42c788
     Pseudo is Ultrasoft + core correction, Zval = 11.0
     Generated by new atomic code, or converted to UPF format
     Using radial grid of  885 points,  6 beta functions with:
                l(1) =   0
                l(2) =   0
                l(3) =   1
                l(4) =   1
                l(5) =   2
                l(6) =   2
     Q(r) pseudized with  8 coefficients,  rinner =    1.200   1.200   1.200
                                                       1.200   1.200

     PseudoPot. # 2 for Pb read from file:
     /home/users/vossj/suncat/psp/gbrv1.5pbe/Pb.UPF
     MD5 check sum: 3d1c1779aa92214d1e8f3a7db79003e2
     Pseudo is Ultrasoft + core correction, Zval = 14.0
     Generated by new atomic code, or converted to UPF format
     Using radial grid of  899 points,  6 beta functions with:
                l(1) =   0
                l(2) =   0
                l(3) =   1
                l(4) =   1
                l(5) =   2
                l(6) =   2
     Q(r) pseudized with  6 coefficients,  rinner =    1.000   1.000   1.000
                                                       1.000   1.000

     vdW kernel table read from file vdW_kernel_table
     MD5 check sum: 095c7af220d748ca6e76c0b4c6cfb241

     atomic species   valence    mass     pseudopotential
        Y1            11.00    88.90590     Y ( 1.00)
        Pb1           14.00   207.20000     Pb( 1.00)

     16 Sym. Ops., with inversion, found

   Cartesian axes

     site n.     atom                  positions (alat units)
         1           Y1  tau(   1) = (   0.0000000   0.0000000   0.0000000  )
         2           Y1  tau(   2) = (   2.5385661   2.5385661   0.0000000  )
         3           Pb1 tau(   3) = (   2.5385661   0.0000000   2.2265663  )
         4           Pb1 tau(   4) = (   0.0000000   2.5385661   2.2265663  )

     number of k points=    75  Fermi-Dirac smearing, width (Ry)=  0.0073
                       cart. coord. in units 2pi/alat
        k(    1) = (   0.0000000   0.0000000   0.0000000), wk =   0.0027435
        k(    2) = (   0.0000000   0.0000000   0.0249512), wk =   0.0054870
        k(    3) = (   0.0000000   0.0000000   0.0499024), wk =   0.0054870
        k(    4) = (   0.0000000   0.0000000   0.0748537), wk =   0.0054870
        k(    5) = (   0.0000000   0.0000000   0.0998049), wk =   0.0054870
        k(    6) = (   0.0000000   0.0218846   0.0000000), wk =   0.0109739
        k(    7) = (   0.0000000   0.0218846   0.0249512), wk =   0.0219479
        k(    8) = (   0.0000000   0.0218846   0.0499024), wk =   0.0219479
        k(    9) = (   0.0000000   0.0218846   0.0748537), wk =   0.0219479
        k(   10) = (   0.0000000   0.0218846   0.0998049), wk =   0.0219479
        k(   11) = (   0.0000000   0.0437692   0.0000000), wk =   0.0109739
        k(   12) = (   0.0000000   0.0437692   0.0249512), wk =   0.0219479
        k(   13) = (   0.0000000   0.0437692   0.0499024), wk =   0.0219479
        k(   14) = (   0.0000000   0.0437692   0.0748537), wk =   0.0219479
        k(   15) = (   0.0000000   0.0437692   0.0998049), wk =   0.0219479
        k(   16) = (   0.0000000   0.0656539   0.0000000), wk =   0.0109739
        k(   17) = (   0.0000000   0.0656539   0.0249512), wk =   0.0219479
        k(   18) = (   0.0000000   0.0656539   0.0499024), wk =   0.0219479
        k(   19) = (   0.0000000   0.0656539   0.0748537), wk =   0.0219479
        k(   20) = (   0.0000000   0.0656539   0.0998049), wk =   0.0219479
        k(   21) = (   0.0000000   0.0875385   0.0000000), wk =   0.0109739
        k(   22) = (   0.0000000   0.0875385   0.0249512), wk =   0.0219479
        k(   23) = (   0.0000000   0.0875385   0.0499024), wk =   0.0219479
        k(   24) = (   0.0000000   0.0875385   0.0748537), wk =   0.0219479
        k(   25) = (   0.0000000   0.0875385   0.0998049), wk =   0.0219479
        k(   26) = (   0.0218846   0.0218846   0.0000000), wk =   0.0109739
        k(   27) = (   0.0218846   0.0218846   0.0249512), wk =   0.0219479
        k(   28) = (   0.0218846   0.0218846   0.0499024), wk =   0.0219479
        k(   29) = (   0.0218846   0.0218846   0.0748537), wk =   0.0219479
        k(   30) = (   0.0218846   0.0218846   0.0998049), wk =   0.0219479
        k(   31) = (   0.0218846   0.0437692   0.0000000), wk =   0.0219479
        k(   32) = (   0.0218846   0.0437692   0.0249512), wk =   0.0438957
        k(   33) = (   0.0218846   0.0437692   0.0499024), wk =   0.0438957
        k(   34) = (   0.0218846   0.0437692   0.0748537), wk =   0.0438957
        k(   35) = (   0.0218846   0.0437692   0.0998049), wk =   0.0438957
        k(   36) = (   0.0218846   0.0656539   0.0000000), wk =   0.0219479
        k(   37) = (   0.0218846   0.0656539   0.0249512), wk =   0.0438957
        k(   38) = (   0.0218846   0.0656539   0.0499024), wk =   0.0438957
        k(   39) = (   0.0218846   0.0656539   0.0748537), wk =   0.0438957
        k(   40) = (   0.0218846   0.0656539   0.0998049), wk =   0.0438957
        k(   41) = (   0.0218846   0.0875385   0.0000000), wk =   0.0219479
        k(   42) = (   0.0218846   0.0875385   0.0249512), wk =   0.0438957
        k(   43) = (   0.0218846   0.0875385   0.0499024), wk =   0.0438957
        k(   44) = (   0.0218846   0.0875385   0.0748537), wk =   0.0438957
        k(   45) = (   0.0218846   0.0875385   0.0998049), wk =   0.0438957
        k(   46) = (   0.0437692   0.0437692   0.0000000), wk =   0.0109739
        k(   47) = (   0.0437692   0.0437692   0.0249512), wk =   0.0219479
        k(   48) = (   0.0437692   0.0437692   0.0499024), wk =   0.0219479
        k(   49) = (   0.0437692   0.0437692   0.0748537), wk =   0.0219479
        k(   50) = (   0.0437692   0.0437692   0.0998049), wk =   0.0219479
        k(   51) = (   0.0437692   0.0656539   0.0000000), wk =   0.0219479
        k(   52) = (   0.0437692   0.0656539   0.0249512), wk =   0.0438957
        k(   53) = (   0.0437692   0.0656539   0.0499024), wk =   0.0438957
        k(   54) = (   0.0437692   0.0656539   0.0748537), wk =   0.0438957
        k(   55) = (   0.0437692   0.0656539   0.0998049), wk =   0.0438957
        k(   56) = (   0.0437692   0.0875385   0.0000000), wk =   0.0219479
        k(   57) = (   0.0437692   0.0875385   0.0249512), wk =   0.0438957
        k(   58) = (   0.0437692   0.0875385   0.0499024), wk =   0.0438957
        k(   59) = (   0.0437692   0.0875385   0.0748537), wk =   0.0438957
        k(   60) = (   0.0437692   0.0875385   0.0998049), wk =   0.0438957
        k(   61) = (   0.0656539   0.0656539   0.0000000), wk =   0.0109739
        k(   62) = (   0.0656539   0.0656539   0.0249512), wk =   0.0219479
        k(   63) = (   0.0656539   0.0656539   0.0499024), wk =   0.0219479
        k(   64) = (   0.0656539   0.0656539   0.0748537), wk =   0.0219479
        k(   65) = (   0.0656539   0.0656539   0.0998049), wk =   0.0219479
        k(   66) = (   0.0656539   0.0875385   0.0000000), wk =   0.0219479
        k(   67) = (   0.0656539   0.0875385   0.0249512), wk =   0.0438957
        k(   68) = (   0.0656539   0.0875385   0.0499024), wk =   0.0438957
        k(   69) = (   0.0656539   0.0875385   0.0748537), wk =   0.0438957
        k(   70) = (   0.0656539   0.0875385   0.0998049), wk =   0.0438957
        k(   71) = (   0.0875385   0.0875385   0.0000000), wk =   0.0109739
        k(   72) = (   0.0875385   0.0875385   0.0249512), wk =   0.0219479
        k(   73) = (   0.0875385   0.0875385   0.0499024), wk =   0.0219479
        k(   74) = (   0.0875385   0.0875385   0.0748537), wk =   0.0219479
        k(   75) = (   0.0875385   0.0875385   0.0998049), wk =   0.0219479

     Largest allocated arrays     est. size (Mb)     dimensions
     Largest temporary arrays     est. size (Mb)     dimensions

     Initial potential from superposition of free atoms
     Check: negative starting charge=   -0.031770

     starting charge   49.98636, renormalised to   50.00000

     negative rho (up, down):  3.178E-02 0.000E+00

     *
     * You are using vdW-DF for exchange-correlation in this calculation.
     * Please cite the following three references that made this development
     * possible:
     *
     *   M. Dion, H. Rydberg, E. Schroder, D. C. Langreth, and
     *   B. I. Lundqvist, Phys. Rev. Lett. 92, 246401 (2004).
     *
     *   T. Thonhauser, V. R. Cooper, S. Li, A. Puzder, P. Hyldgaard, and
     *   D. C. Langreth, Phys. Rev. B 76, 125112 (2007).
     *
     *   G. Roman-Perez and J. M. Soler, Phys. Rev. Lett. 103, 096102 (2009).
     *
     *
     * If you are using vdW-DF2, please also cite:
     *
     *   K. Lee, E. D. Murray, L. Kong, B. I. Lundqvist, and
     *   D. C. Langreth, Phys. Rev. B 82, 081101(R) (2010).
     *
     *
     * If you are calculating the stress with vdW-DF, please also cite:
     *
     *   R. Sabatini, E. Kucukbenli, B. Kolb, T. Thonhauser, and
     *   S. de Gironcoli, J. Phys.: Condens. Matter 24, 424209 (2012).
     *

     Carrying out vdW-DF run using the following parameters:

     Nqs =      20    Nr_points =    1024   r_max =   100.000
     q_mesh =
               0.00001000     0.04494208     0.09755937     0.15916263
               0.23128650     0.31572767     0.41458969     0.53033537
               0.66584808     0.82450364     1.01025438     1.22772762
               1.48234092     1.78043706     2.12944203     2.53805004
               3.01644009     3.57652955     4.23227104     5.00000000

     Gradients computed in reciprocal space

     Starting wfc are   44 randomized atomic wfcs +    1 random wfc

     Self-consistent Calculation

     iteration #  1     ecut=    58.80 Ry     beta=0.10
     Davidson diagonalization with overlap
     ethr =  1.00E-02,  avg # of iterations =  4.4

     Threshold (ethr) on eigenvalues was too large:
     Diagonalizing with lowered threshold

     Davidson diagonalization with overlap
     ethr =  3.46E-05,  avg # of iterations =  4.3

[...]

     total energy              =    -519.61270796 Ry
     Harris-Foulkes estimate   =    -519.61156752 Ry
     estimated scf accuracy    <       0.01768585 Ry

[...]

     total energy              =    -519.61841208 Ry
     Harris-Foulkes estimate   =    -519.61802144 Ry
     estimated scf accuracy    <       0.00000222 Ry

     iteration #  9     ecut=    58.80 Ry     beta=0.10
     Davidson diagonalization with overlap
     ethr =  4.44E-09,  avg # of iterations =  4.1

     negative rho (up, down):  3.743E-02 0.000E+00

     End of self-consistent calculation

          k = 0.0000 0.0000 0.0000 (  5961 PWs)   bands (ev):

   -31.7624 -31.7209 -11.8076 -11.8076 -11.7455 -11.6799 -11.5513 -11.5513
    -5.5177  -5.4795  -5.3959  -5.3959  -5.3798  -5.3275  -5.3234  -5.3234
    -5.2664  -5.2050   1.4215   4.2801   9.7137   9.7137  10.7404  11.2876
    11.2960  11.7969  12.6976  12.6976  13.0128  14.0669  14.6123  14.6123
    14.6419  14.6419  15.0848  15.5330  16.6647  18.2494  18.5879  18.5879
    21.1603  21.3858  21.5888  21.6137  22.3018

[...]

          k = 0.0875 0.0875 0.0998 (  5902 PWs)   bands (ev):

   -31.7409 -31.7397 -11.8417 -11.8342 -11.7475 -11.7452 -11.5316 -11.5236
    -5.4258  -5.4181  -5.4077  -5.4059  -5.3951  -5.3915  -5.3245  -5.3228
    -5.2370  -5.2320   3.2027   3.2795   8.7046   8.7975   9.5763   9.7435
    11.0275  11.1210  13.8243  13.8395  14.3111  14.3266  14.3457  14.5150
    14.6055  14.6703  16.7318  16.7694  17.1926  17.3009  20.1231  20.1980
    20.5390  20.7171  21.8883  21.9358  22.2832

     the Fermi energy is    11.6677 ev

!    total energy              =    -519.62000920 Ry
     Harris-Foulkes estimate   =    -519.61841241 Ry
     estimated scf accuracy    <       0.00000059 Ry

     The total energy is the sum of the following terms:

     one-electron contribution =     -95.12451497 Ry
     hartree contribution      =      77.31436051 Ry
     xc contribution           =    -187.41607468 Ry
     ewald contribution        =    -314.38458490 Ry
     smearing contrib. (-TS)   =      -0.00919517 Ry

     convergence has been achieved in   9 iterations

     Forces acting on atoms (Ry/au):

     negative rho (up, down):  3.743E-02 0.000E+00
     atom    1 type  1   force =     0.00000000    0.00000000    0.00000000
     atom    2 type  1   force =     0.00000000    0.00000000    0.00000000
     atom    3 type  2   force =     0.00000000    0.00000000    0.00000000
     atom    4 type  2   force =     0.00000000    0.00000000    0.00000000

     Total force =     0.000000     Total SCF correction =     0.000000

     General routines

     Parallel routines

   This run was terminated on:   9:45:40  14Nov2017

   JOB DONE.