     Program PWSCF v.5.1rc2 starts on 15Nov2017 at  6:14:23

     Current dimensions of program PWSCF are:
     Max number of different atomic species (ntypx) = 10
     Max number of k-points (npk) =  40000
     Max angular momentum in pseudopotentials (lmaxx) =  3

     IMPORTANT: XC functional enforced from input :
     Exchange-correlation      = BEEF-VDW ( 1  4 27 13 2)
     Any further DFT definition will be discarded
     Please, verify this is what you really want

     Found symmetry operation: I + ( -0.5000 -0.5000  0.0000)
     This is a supercell, fractional translations are disabled

     bravais-lattice index     =            0
     lattice parameter (alat)  =       1.8897  a.u.
     unit-cell volume          =     372.2856 (a.u.)^3
     number of atoms/cell      =            4
     number of atomic types    =            2
     number of electrons       =        58.00
     number of Kohn-Sham states=           49
     kinetic-energy cutoff     =      58.7989  Ry
     charge density cutoff     =     587.9892  Ry
     convergence threshold     =      1.0E-06
     mixing beta               =       0.1000
     number of iterations used =           10  plain     mixing
     Exchange-correlation      = BEEF-VDW ( 1  4 27 13 2)

     celldm(1)=   1.889726  celldm(2)=   0.000000  celldm(3)=   0.000000
     celldm(4)=   0.000000  celldm(5)=   0.000000  celldm(6)=   0.000000

     crystal axes: (cart. coord. in units of alat)
               a(1) = (   4.270830   0.000000   0.000000 )
               a(2) = (   0.000000   4.270830   0.000000 )
               a(3) = (   0.000000   0.000000   3.024510 )

     reciprocal axes: (cart. coord. in units 2 pi/alat)
               b(1) = (  0.234147  0.000000  0.000000 )
               b(2) = (  0.000000  0.234147  0.000000 )
               b(3) = (  0.000000  0.000000  0.330632 )

     PseudoPot. # 1 for V  read from file:
     /home/users/vossj/suncat/psp/gbrv1.5pbe/V.UPF
     MD5 check sum: 22b79981416ebb76fdaf5b1b8640f6fb
     Pseudo is Ultrasoft + core correction, Zval = 13.0
     Generated by new atomic code, or converted to UPF format
     Using radial grid of  853 points,  6 beta functions with:
                l(1) =   0
                l(2) =   0
                l(3) =   1
                l(4) =   1
                l(5) =   2
                l(6) =   2
     Q(r) pseudized with  8 coefficients,  rinner =    1.100   1.100   1.100
                                                       1.100   1.100

     PseudoPot. # 2 for Os read from file:
     /home/users/vossj/suncat/psp/gbrv1.5pbe/Os.UPF
     MD5 check sum: a3fb40a04f0c37c25c34bbc47164c9a8
     Pseudo is Ultrasoft + core correction, Zval = 16.0
     Generated by new atomic code, or converted to UPF format
     Using radial grid of  983 points,  8 beta functions with:
                l(1) =   0
                l(2) =   0
                l(3) =   1
                l(4) =   1
                l(5) =   2
                l(6) =   2
                l(7) =   3
                l(8) =   3
     Q(r) pseudized with  8 coefficients,  rinner =    1.150   1.150   1.150
                                                       1.150   1.150   1.150
                                                       1.150

     vdW kernel table read from file vdW_kernel_table
     MD5 check sum: 095c7af220d748ca6e76c0b4c6cfb241

     atomic species   valence    mass     pseudopotential
        V1            13.00    50.94150     V ( 1.00)
        Os1           16.00   190.20000     Os( 1.00)

     16 Sym. Ops., with inversion, found

   Cartesian axes

     site n.     atom                  positions (alat units)
         1           V1  tau(   1) = (   0.0000000   0.0000000   0.0000000  )
         2           V1  tau(   2) = (   2.1354151   2.1354151   0.0000000  )
         3           Os1 tau(   3) = (   2.1354151   0.0000000   1.5122552  )
         4           Os1 tau(   4) = (   0.0000000   2.1354151   1.5122552  )

     number of k points=    75  Fermi-Dirac smearing, width (Ry)=  0.0073
                       cart. coord. in units 2pi/alat
        k(    1) = (   0.0000000   0.0000000   0.0000000), wk =   0.0027435
        k(    2) = (   0.0000000   0.0000000   0.0367369), wk =   0.0054870
        k(    3) = (   0.0000000   0.0000000   0.0734738), wk =   0.0054870
        k(    4) = (   0.0000000   0.0000000   0.1102107), wk =   0.0054870
        k(    5) = (   0.0000000   0.0000000   0.1469476), wk =   0.0054870
        k(    6) = (   0.0000000   0.0260163   0.0000000), wk =   0.0109739
        k(    7) = (   0.0000000   0.0260163   0.0367369), wk =   0.0219479
        k(    8) = (   0.0000000   0.0260163   0.0734738), wk =   0.0219479
        k(    9) = (   0.0000000   0.0260163   0.1102107), wk =   0.0219479
        k(   10) = (   0.0000000   0.0260163   0.1469476), wk =   0.0219479
        k(   11) = (   0.0000000   0.0520326   0.0000000), wk =   0.0109739
        k(   12) = (   0.0000000   0.0520326   0.0367369), wk =   0.0219479
        k(   13) = (   0.0000000   0.0520326   0.0734738), wk =   0.0219479
        k(   14) = (   0.0000000   0.0520326   0.1102107), wk =   0.0219479
        k(   15) = (   0.0000000   0.0520326   0.1469476), wk =   0.0219479
        k(   16) = (   0.0000000   0.0780488   0.0000000), wk =   0.0109739
        k(   17) = (   0.0000000   0.0780488   0.0367369), wk =   0.0219479
        k(   18) = (   0.0000000   0.0780488   0.0734738), wk =   0.0219479
        k(   19) = (   0.0000000   0.0780488   0.1102107), wk =   0.0219479
        k(   20) = (   0.0000000   0.0780488   0.1469476), wk =   0.0219479
        k(   21) = (   0.0000000   0.1040651   0.0000000), wk =   0.0109739
        k(   22) = (   0.0000000   0.1040651   0.0367369), wk =   0.0219479
        k(   23) = (   0.0000000   0.1040651   0.0734738), wk =   0.0219479
        k(   24) = (   0.0000000   0.1040651   0.1102107), wk =   0.0219479
        k(   25) = (   0.0000000   0.1040651   0.1469476), wk =   0.0219479
        k(   26) = (   0.0260163   0.0260163   0.0000000), wk =   0.0109739
        k(   27) = (   0.0260163   0.0260163   0.0367369), wk =   0.0219479
        k(   28) = (   0.0260163   0.0260163   0.0734738), wk =   0.0219479
        k(   29) = (   0.0260163   0.0260163   0.1102107), wk =   0.0219479
        k(   30) = (   0.0260163   0.0260163   0.1469476), wk =   0.0219479
        k(   31) = (   0.0260163   0.0520326   0.0000000), wk =   0.0219479
        k(   32) = (   0.0260163   0.0520326   0.0367369), wk =   0.0438957
        k(   33) = (   0.0260163   0.0520326   0.0734738), wk =   0.0438957
        k(   34) = (   0.0260163   0.0520326   0.1102107), wk =   0.0438957
        k(   35) = (   0.0260163   0.0520326   0.1469476), wk =   0.0438957
        k(   36) = (   0.0260163   0.0780488   0.0000000), wk =   0.0219479
        k(   37) = (   0.0260163   0.0780488   0.0367369), wk =   0.0438957
        k(   38) = (   0.0260163   0.0780488   0.0734738), wk =   0.0438957
        k(   39) = (   0.0260163   0.0780488   0.1102107), wk =   0.0438957
        k(   40) = (   0.0260163   0.0780488   0.1469476), wk =   0.0438957
        k(   41) = (   0.0260163   0.1040651   0.0000000), wk =   0.0219479
        k(   42) = (   0.0260163   0.1040651   0.0367369), wk =   0.0438957
        k(   43) = (   0.0260163   0.1040651   0.0734738), wk =   0.0438957
        k(   44) = (   0.0260163   0.1040651   0.1102107), wk =   0.0438957
        k(   45) = (   0.0260163   0.1040651   0.1469476), wk =   0.0438957
        k(   46) = (   0.0520326   0.0520326   0.0000000), wk =   0.0109739
        k(   47) = (   0.0520326   0.0520326   0.0367369), wk =   0.0219479
        k(   48) = (   0.0520326   0.0520326   0.0734738), wk =   0.0219479
        k(   49) = (   0.0520326   0.0520326   0.1102107), wk =   0.0219479
        k(   50) = (   0.0520326   0.0520326   0.1469476), wk =   0.0219479
        k(   51) = (   0.0520326   0.0780488   0.0000000), wk =   0.0219479
        k(   52) = (   0.0520326   0.0780488   0.0367369), wk =   0.0438957
        k(   53) = (   0.0520326   0.0780488   0.0734738), wk =   0.0438957
        k(   54) = (   0.0520326   0.0780488   0.1102107), wk =   0.0438957
        k(   55) = (   0.0520326   0.0780488   0.1469476), wk =   0.0438957
        k(   56) = (   0.0520326   0.1040651   0.0000000), wk =   0.0219479
        k(   57) = (   0.0520326   0.1040651   0.0367369), wk =   0.0438957
        k(   58) = (   0.0520326   0.1040651   0.0734738), wk =   0.0438957
        k(   59) = (   0.0520326   0.1040651   0.1102107), wk =   0.0438957
        k(   60) = (   0.0520326   0.1040651   0.1469476), wk =   0.0438957
        k(   61) = (   0.0780488   0.0780488   0.0000000), wk =   0.0109739
        k(   62) = (   0.0780488   0.0780488   0.0367369), wk =   0.0219479
        k(   63) = (   0.0780488   0.0780488   0.0734738), wk =   0.0219479
        k(   64) = (   0.0780488   0.0780488   0.1102107), wk =   0.0219479
        k(   65) = (   0.0780488   0.0780488   0.1469476), wk =   0.0219479
        k(   66) = (   0.0780488   0.1040651   0.0000000), wk =   0.0219479
        k(   67) = (   0.0780488   0.1040651   0.0367369), wk =   0.0438957
        k(   68) = (   0.0780488   0.1040651   0.0734738), wk =   0.0438957
        k(   69) = (   0.0780488   0.1040651   0.1102107), wk =   0.0438957
        k(   70) = (   0.0780488   0.1040651   0.1469476), wk =   0.0438957
        k(   71) = (   0.1040651   0.1040651   0.0000000), wk =   0.0109739
        k(   72) = (   0.1040651   0.1040651   0.0367369), wk =   0.0219479
        k(   73) = (   0.1040651   0.1040651   0.0734738), wk =   0.0219479
        k(   74) = (   0.1040651   0.1040651   0.1102107), wk =   0.0219479
        k(   75) = (   0.1040651   0.1040651   0.1469476), wk =   0.0219479

     Largest allocated arrays     est. size (Mb)     dimensions
     Largest temporary arrays     est. size (Mb)     dimensions

     Check: negative/imaginary core charge=   -0.000001    0.000000

     Initial potential from superposition of free atoms
     Check: negative starting charge=   -0.247208

     starting charge   56.99747, renormalised to   58.00000

     negative rho (up, down):  2.516E-01 0.000E+00

     *
     * You are using vdW-DF for exchange-correlation in this calculation.
     * Please cite the following three references that made this development
     * possible:
     *
     *   M. Dion, H. Rydberg, E. Schroder, D. C. Langreth, and
     *   B. I. Lundqvist, Phys. Rev. Lett. 92, 246401 (2004).
     *
     *   T. Thonhauser, V. R. Cooper, S. Li, A. Puzder, P. Hyldgaard, and
     *   D. C. Langreth, Phys. Rev. B 76, 125112 (2007).
     *
     *   G. Roman-Perez and J. M. Soler, Phys. Rev. Lett. 103, 096102 (2009).
     *
     *
     * If you are using vdW-DF2, please also cite:
     *
     *   K. Lee, E. D. Murray, L. Kong, B. I. Lundqvist, and
     *   D. C. Langreth, Phys. Rev. B 82, 081101(R) (2010).
     *
     *
     * If you are calculating the stress with vdW-DF, please also cite:
     *
     *   R. Sabatini, E. Kucukbenli, B. Kolb, T. Thonhauser, and
     *   S. de Gironcoli, J. Phys.: Condens. Matter 24, 424209 (2012).
     *

     Carrying out vdW-DF run using the following parameters:

     Nqs =      20    Nr_points =    1024   r_max =   100.000
     q_mesh =
               0.00001000     0.04494208     0.09755937     0.15916263
               0.23128650     0.31572767     0.41458969     0.53033537
               0.66584808     0.82450364     1.01025438     1.22772762
               1.48234092     1.78043706     2.12944203     2.53805004
               3.01644009     3.57652955     4.23227104     5.00000000

     Gradients computed in reciprocal space

     Starting wfc are   46 randomized atomic wfcs +    3 random wfc

     Self-consistent Calculation

     iteration #  1     ecut=    58.80 Ry     beta=0.10
     Davidson diagonalization with overlap
     ethr =  1.00E-02,  avg # of iterations =  3.5

[...]

     total energy              =    -691.39977755 Ry
     Harris-Foulkes estimate   =    -691.53269002 Ry
     estimated scf accuracy    <       0.83354938 Ry

[...]

     total energy              =    -691.33803649 Ry
     Harris-Foulkes estimate   =    -691.33803975 Ry
     estimated scf accuracy    <       0.00002176 Ry

     iteration # 12     ecut=    58.80 Ry     beta=0.10
     Davidson diagonalization with overlap
     ethr =  3.75E-08,  avg # of iterations =  1.0

     negative rho (up, down):  2.510E-01 0.000E+00

     End of self-consistent calculation

          k = 0.0000 0.0000 0.0000 (  2817 PWs)   bands (ev):

   -65.3867 -65.3726 -43.3477 -43.3209 -24.7638 -24.7638 -24.5899 -24.5890
   -24.5890 -24.5484 -17.1740 -17.1740 -17.0607 -17.0577 -17.0577 -17.0530
    12.3725  15.5178  15.5195  15.6916  15.6931  17.7693  17.7693  19.6293
    19.6293  19.6446  22.0053  22.0053  22.1392  22.4880  22.5043  22.5675
    22.6375  23.1242  24.1447  24.1481  24.1481  24.6803  24.6803  29.1974
    30.3216  30.3697  30.3697  33.0866  35.1571  35.1571  38.6548  39.8607
    39.8863

[...]

          k = 0.1041 0.1041 0.1469 (  2834 PWs)   bands (ev):

   -65.3731 -65.3727 -43.3221 -43.3212 -24.7628 -24.7583 -24.7554 -24.7548
   -24.5538 -24.5488 -17.1767 -17.1751 -17.1727 -17.1711 -17.0553 -17.0511
    15.5214  15.6127  15.6134  15.6335  17.7964  17.8162  17.8340  17.9046
    21.0636  21.2459  21.4040  21.5926  22.1401  22.1708  22.5632  22.5983
    22.8697  22.9147  23.2484  23.7527  24.4711  24.6615  24.8670  24.8829
    29.3427  29.5036  33.0971  33.2217  35.2515  35.3571  35.3593  35.4646
    38.5281

     the Fermi energy is    21.6699 ev

!    total energy              =    -691.33804186 Ry
     Harris-Foulkes estimate   =    -691.33803843 Ry
     estimated scf accuracy    <       0.00000002 Ry

     The total energy is the sum of the following terms:

     one-electron contribution =    -137.83737985 Ry
     hartree contribution      =     104.16191390 Ry
     xc contribution           =    -118.40984592 Ry
     ewald contribution        =    -539.23993052 Ry
     smearing contrib. (-TS)   =      -0.01279948 Ry

     convergence has been achieved in  12 iterations

     Forces acting on atoms (Ry/au):

     negative rho (up, down):  2.510E-01 0.000E+00
     atom    1 type  1   force =     0.00000000    0.00000000    0.00000000
     atom    2 type  1   force =     0.00000000    0.00000000    0.00000000
     atom    3 type  2   force =     0.00000000    0.00000000    0.00000000
     atom    4 type  2   force =     0.00000000    0.00000000    0.00000000

     Total force =     0.000000     Total SCF correction =     0.000000

     General routines

     Parallel routines

   This run was terminated on:   6:14:58  15Nov2017

   JOB DONE.