     Program PWSCF v.5.1rc2 starts on 14Nov2017 at  9:49:21

     Current dimensions of program PWSCF are:
     Max number of different atomic species (ntypx) = 10
     Max number of k-points (npk) =  40000
     Max angular momentum in pseudopotentials (lmaxx) =  3

     IMPORTANT: XC functional enforced from input :
     Exchange-correlation      = BEEF-VDW ( 1  4 27 13 2)
     Any further DFT definition will be discarded
     Please, verify this is what you really want

     Found symmetry operation: I + ( -0.5000 -0.5000  0.0000)
     This is a supercell, fractional translations are disabled

     bravais-lattice index     =            0
     lattice parameter (alat)  =       1.8897  a.u.
     unit-cell volume          =     541.9168 (a.u.)^3
     number of atoms/cell      =            4
     number of atomic types    =            2
     number of electrons       =        54.00
     number of Kohn-Sham states=           47
     kinetic-energy cutoff     =      58.7989  Ry
     charge density cutoff     =     587.9892  Ry
     convergence threshold     =      1.0E-06
     mixing beta               =       0.1000
     number of iterations used =           10  plain     mixing
     Exchange-correlation      = BEEF-VDW ( 1  4 27 13 2)

     celldm(1)=   1.889726  celldm(2)=   0.000000  celldm(3)=   0.000000
     celldm(4)=   0.000000  celldm(5)=   0.000000  celldm(6)=   0.000000

     crystal axes: (cart. coord. in units of alat)
               a(1) = (   4.840037   0.000000   0.000000 )
               a(2) = (   0.000000   4.840037   0.000000 )
               a(3) = (   0.000000   0.000000   3.427982 )

     reciprocal axes: (cart. coord. in units 2 pi/alat)
               b(1) = (  0.206610  0.000000  0.000000 )
               b(2) = (  0.000000  0.206610  0.000000 )
               b(3) = (  0.000000  0.000000  0.291717 )

     PseudoPot. # 1 for Y  read from file:
     /home/users/vossj/suncat/psp/gbrv1.5pbe/Y.UPF
     MD5 check sum: d034151ed7554c50b6e82763ed42c788
     Pseudo is Ultrasoft + core correction, Zval = 11.0
     Generated by new atomic code, or converted to UPF format
     Using radial grid of  885 points,  6 beta functions with:
                l(1) =   0
                l(2) =   0
                l(3) =   1
                l(4) =   1
                l(5) =   2
                l(6) =   2
     Q(r) pseudized with  8 coefficients,  rinner =    1.200   1.200   1.200
                                                       1.200   1.200

     PseudoPot. # 2 for Os read from file:
     /home/users/vossj/suncat/psp/gbrv1.5pbe/Os.UPF
     MD5 check sum: a3fb40a04f0c37c25c34bbc47164c9a8
     Pseudo is Ultrasoft + core correction, Zval = 16.0
     Generated by new atomic code, or converted to UPF format
     Using radial grid of  983 points,  8 beta functions with:
                l(1) =   0
                l(2) =   0
                l(3) =   1
                l(4) =   1
                l(5) =   2
                l(6) =   2
                l(7) =   3
                l(8) =   3
     Q(r) pseudized with  8 coefficients,  rinner =    1.150   1.150   1.150
                                                       1.150   1.150   1.150
                                                       1.150

     vdW kernel table read from file vdW_kernel_table
     MD5 check sum: 095c7af220d748ca6e76c0b4c6cfb241

     atomic species   valence    mass     pseudopotential
        Y1            11.00    88.90590     Y ( 1.00)
        Os1           16.00   190.20000     Os( 1.00)

     16 Sym. Ops., with inversion, found

   Cartesian axes

     site n.     atom                  positions (alat units)
         1           Y1  tau(   1) = (   0.0000000   0.0000000   0.0000000  )
         2           Y1  tau(   2) = (   2.4200187   2.4200187   0.0000000  )
         3           Os1 tau(   3) = (   2.4200187   0.0000000   1.7139910  )
         4           Os1 tau(   4) = (   0.0000000   2.4200187   1.7139910  )

     number of k points=    75  Fermi-Dirac smearing, width (Ry)=  0.0073
                       cart. coord. in units 2pi/alat
        k(    1) = (   0.0000000   0.0000000   0.0000000), wk =   0.0027435
        k(    2) = (   0.0000000   0.0000000   0.0324130), wk =   0.0054870
        k(    3) = (   0.0000000   0.0000000   0.0648260), wk =   0.0054870
        k(    4) = (   0.0000000   0.0000000   0.0972389), wk =   0.0054870
        k(    5) = (   0.0000000   0.0000000   0.1296519), wk =   0.0054870
        k(    6) = (   0.0000000   0.0229567   0.0000000), wk =   0.0109739
        k(    7) = (   0.0000000   0.0229567   0.0324130), wk =   0.0219479
        k(    8) = (   0.0000000   0.0229567   0.0648260), wk =   0.0219479
        k(    9) = (   0.0000000   0.0229567   0.0972389), wk =   0.0219479
        k(   10) = (   0.0000000   0.0229567   0.1296519), wk =   0.0219479
        k(   11) = (   0.0000000   0.0459133   0.0000000), wk =   0.0109739
        k(   12) = (   0.0000000   0.0459133   0.0324130), wk =   0.0219479
        k(   13) = (   0.0000000   0.0459133   0.0648260), wk =   0.0219479
        k(   14) = (   0.0000000   0.0459133   0.0972389), wk =   0.0219479
        k(   15) = (   0.0000000   0.0459133   0.1296519), wk =   0.0219479
        k(   16) = (   0.0000000   0.0688700   0.0000000), wk =   0.0109739
        k(   17) = (   0.0000000   0.0688700   0.0324130), wk =   0.0219479
        k(   18) = (   0.0000000   0.0688700   0.0648260), wk =   0.0219479
        k(   19) = (   0.0000000   0.0688700   0.0972389), wk =   0.0219479
        k(   20) = (   0.0000000   0.0688700   0.1296519), wk =   0.0219479
        k(   21) = (   0.0000000   0.0918267   0.0000000), wk =   0.0109739
        k(   22) = (   0.0000000   0.0918267   0.0324130), wk =   0.0219479
        k(   23) = (   0.0000000   0.0918267   0.0648260), wk =   0.0219479
        k(   24) = (   0.0000000   0.0918267   0.0972389), wk =   0.0219479
        k(   25) = (   0.0000000   0.0918267   0.1296519), wk =   0.0219479
        k(   26) = (   0.0229567   0.0229567   0.0000000), wk =   0.0109739
        k(   27) = (   0.0229567   0.0229567   0.0324130), wk =   0.0219479
        k(   28) = (   0.0229567   0.0229567   0.0648260), wk =   0.0219479
        k(   29) = (   0.0229567   0.0229567   0.0972389), wk =   0.0219479
        k(   30) = (   0.0229567   0.0229567   0.1296519), wk =   0.0219479
        k(   31) = (   0.0229567   0.0459133   0.0000000), wk =   0.0219479
        k(   32) = (   0.0229567   0.0459133   0.0324130), wk =   0.0438957
        k(   33) = (   0.0229567   0.0459133   0.0648260), wk =   0.0438957
        k(   34) = (   0.0229567   0.0459133   0.0972389), wk =   0.0438957
        k(   35) = (   0.0229567   0.0459133   0.1296519), wk =   0.0438957
        k(   36) = (   0.0229567   0.0688700   0.0000000), wk =   0.0219479
        k(   37) = (   0.0229567   0.0688700   0.0324130), wk =   0.0438957
        k(   38) = (   0.0229567   0.0688700   0.0648260), wk =   0.0438957
        k(   39) = (   0.0229567   0.0688700   0.0972389), wk =   0.0438957
        k(   40) = (   0.0229567   0.0688700   0.1296519), wk =   0.0438957
        k(   41) = (   0.0229567   0.0918267   0.0000000), wk =   0.0219479
        k(   42) = (   0.0229567   0.0918267   0.0324130), wk =   0.0438957
        k(   43) = (   0.0229567   0.0918267   0.0648260), wk =   0.0438957
        k(   44) = (   0.0229567   0.0918267   0.0972389), wk =   0.0438957
        k(   45) = (   0.0229567   0.0918267   0.1296519), wk =   0.0438957
        k(   46) = (   0.0459133   0.0459133   0.0000000), wk =   0.0109739
        k(   47) = (   0.0459133   0.0459133   0.0324130), wk =   0.0219479
        k(   48) = (   0.0459133   0.0459133   0.0648260), wk =   0.0219479
        k(   49) = (   0.0459133   0.0459133   0.0972389), wk =   0.0219479
        k(   50) = (   0.0459133   0.0459133   0.1296519), wk =   0.0219479
        k(   51) = (   0.0459133   0.0688700   0.0000000), wk =   0.0219479
        k(   52) = (   0.0459133   0.0688700   0.0324130), wk =   0.0438957
        k(   53) = (   0.0459133   0.0688700   0.0648260), wk =   0.0438957
        k(   54) = (   0.0459133   0.0688700   0.0972389), wk =   0.0438957
        k(   55) = (   0.0459133   0.0688700   0.1296519), wk =   0.0438957
        k(   56) = (   0.0459133   0.0918267   0.0000000), wk =   0.0219479
        k(   57) = (   0.0459133   0.0918267   0.0324130), wk =   0.0438957
        k(   58) = (   0.0459133   0.0918267   0.0648260), wk =   0.0438957
        k(   59) = (   0.0459133   0.0918267   0.0972389), wk =   0.0438957
        k(   60) = (   0.0459133   0.0918267   0.1296519), wk =   0.0438957
        k(   61) = (   0.0688700   0.0688700   0.0000000), wk =   0.0109739
        k(   62) = (   0.0688700   0.0688700   0.0324130), wk =   0.0219479
        k(   63) = (   0.0688700   0.0688700   0.0648260), wk =   0.0219479
        k(   64) = (   0.0688700   0.0688700   0.0972389), wk =   0.0219479
        k(   65) = (   0.0688700   0.0688700   0.1296519), wk =   0.0219479
        k(   66) = (   0.0688700   0.0918267   0.0000000), wk =   0.0219479
        k(   67) = (   0.0688700   0.0918267   0.0324130), wk =   0.0438957
        k(   68) = (   0.0688700   0.0918267   0.0648260), wk =   0.0438957
        k(   69) = (   0.0688700   0.0918267   0.0972389), wk =   0.0438957
        k(   70) = (   0.0688700   0.0918267   0.1296519), wk =   0.0438957
        k(   71) = (   0.0918267   0.0918267   0.0000000), wk =   0.0109739
        k(   72) = (   0.0918267   0.0918267   0.0324130), wk =   0.0219479
        k(   73) = (   0.0918267   0.0918267   0.0648260), wk =   0.0219479
        k(   74) = (   0.0918267   0.0918267   0.0972389), wk =   0.0219479
        k(   75) = (   0.0918267   0.0918267   0.1296519), wk =   0.0219479

     Largest allocated arrays     est. size (Mb)     dimensions
     Largest temporary arrays     est. size (Mb)     dimensions

     Initial potential from superposition of free atoms
     Check: negative starting charge=   -0.246203

     starting charge   52.99099, renormalised to   54.00000

     negative rho (up, down):  2.509E-01 0.000E+00

     *
     * You are using vdW-DF for exchange-correlation in this calculation.
     * Please cite the following three references that made this development
     * possible:
     *
     *   M. Dion, H. Rydberg, E. Schroder, D. C. Langreth, and
     *   B. I. Lundqvist, Phys. Rev. Lett. 92, 246401 (2004).
     *
     *   T. Thonhauser, V. R. Cooper, S. Li, A. Puzder, P. Hyldgaard, and
     *   D. C. Langreth, Phys. Rev. B 76, 125112 (2007).
     *
     *   G. Roman-Perez and J. M. Soler, Phys. Rev. Lett. 103, 096102 (2009).
     *
     *
     * If you are using vdW-DF2, please also cite:
     *
     *   K. Lee, E. D. Murray, L. Kong, B. I. Lundqvist, and
     *   D. C. Langreth, Phys. Rev. B 82, 081101(R) (2010).
     *
     *
     * If you are calculating the stress with vdW-DF, please also cite:
     *
     *   R. Sabatini, E. Kucukbenli, B. Kolb, T. Thonhauser, and
     *   S. de Gironcoli, J. Phys.: Condens. Matter 24, 424209 (2012).
     *

     Carrying out vdW-DF run using the following parameters:

     Nqs =      20    Nr_points =    1024   r_max =   100.000
     q_mesh =
               0.00001000     0.04494208     0.09755937     0.15916263
               0.23128650     0.31572767     0.41458969     0.53033537
               0.66584808     0.82450364     1.01025438     1.22772762
               1.48234092     1.78043706     2.12944203     2.53805004
               3.01644009     3.57652955     4.23227104     5.00000000

     Gradients computed in reciprocal space

     Starting wfc are   52 randomized atomic wfcs

     Self-consistent Calculation

     iteration #  1     ecut=    58.80 Ry     beta=0.10
     Davidson diagonalization with overlap
     ethr =  1.00E-02,  avg # of iterations =  4.7

     Threshold (ethr) on eigenvalues was too large:
     Diagonalizing with lowered threshold

     Davidson diagonalization with overlap
     ethr =  2.20E-04,  avg # of iterations =  3.1

[...]

     total energy              =    -587.14711030 Ry
     Harris-Foulkes estimate   =    -587.16131441 Ry
     estimated scf accuracy    <       0.12250157 Ry

[...]

     total energy              =    -587.11941339 Ry
     Harris-Foulkes estimate   =    -587.11940800 Ry
     estimated scf accuracy    <       0.00000410 Ry

     iteration #  9     ecut=    58.80 Ry     beta=0.10
     Davidson diagonalization with overlap
     ethr =  7.58E-09,  avg # of iterations =  2.1

     negative rho (up, down):  2.326E-01 0.000E+00

     End of self-consistent calculation

          k = 0.0000 0.0000 0.0000 (  4151 PWs)   bands (ev):

   -69.2436 -69.2415 -28.5833 -28.5833 -28.5484 -28.5428 -28.5428 -28.5405
   -25.4322 -25.3506  -5.6646  -5.6646  -5.2392  -5.2378  -5.2378  -5.1544
     9.7955  11.9772  12.6719  12.6785  12.8419  14.2621  14.2621  15.5997
    15.5997  15.6142  17.1542  17.3860  18.1970  18.1970  19.6625  19.6816
    20.3952  22.9809  22.9809  23.0239  23.0250  23.0250  23.3798  24.3562
    24.3942  24.3942  26.9280  27.7152  27.7152  28.1925  29.1567

[...]

          k = 0.0918 0.0918 0.1297 (  4136 PWs)   bands (ev):

   -69.2417 -69.2416 -28.5874 -28.5867 -28.5837 -28.5825 -28.5363 -28.5352
   -25.3526 -25.3508  -5.6689  -5.6577  -5.6491  -5.6460  -5.1714  -5.1576
    12.0395  12.0750  12.8991  12.9191  14.3044  14.3075  14.3128  14.3702
    16.7146  16.7975  16.9411  17.3076  17.9565  18.3244  18.4497  18.5449
    20.2302  20.3425  22.6649  22.9657  22.9718  23.0006  23.3281  23.4299
    26.6186  26.9793  27.5867  27.6653  27.8733  27.9670  28.5640

     the Fermi energy is    15.9168 ev

!    total energy              =    -587.11944376 Ry
     Harris-Foulkes estimate   =    -587.11941408 Ry
     estimated scf accuracy    <       0.00000025 Ry

     The total energy is the sum of the following terms:

     one-electron contribution =    -121.67322568 Ry
     hartree contribution      =      86.83589421 Ry
     xc contribution           =    -134.42189161 Ry
     ewald contribution        =    -417.85026751 Ry
     smearing contrib. (-TS)   =      -0.00995315 Ry

     convergence has been achieved in   9 iterations

     Forces acting on atoms (Ry/au):

     negative rho (up, down):  2.326E-01 0.000E+00
     atom    1 type  1   force =     0.00000000    0.00000000    0.00000000
     atom    2 type  1   force =     0.00000000    0.00000000    0.00000000
     atom    3 type  2   force =     0.00000000    0.00000000    0.00000000
     atom    4 type  2   force =     0.00000000    0.00000000    0.00000000

     Total force =     0.000000     Total SCF correction =     0.000000

     General routines

     Parallel routines

   This run was terminated on:   9:50: 2  14Nov2017

   JOB DONE.