     Program PWSCF v.5.1rc2 starts on 29Nov2017 at 15:41: 0

     Current dimensions of program PWSCF are:
     Max number of different atomic species (ntypx) = 10
     Max number of k-points (npk) =  40000
     Max angular momentum in pseudopotentials (lmaxx) =  3

     IMPORTANT: XC functional enforced from input :
     Exchange-correlation      = BEEF-VDW ( 1  4 27 13 2)
     Any further DFT definition will be discarded
     Please, verify this is what you really want

     Generating pointlists ...
     new r_m :   0.4125 (alat units)  0.7795 (a.u.) for type    1
     new r_m :   0.4125 (alat units)  0.7795 (a.u.) for type    2

     bravais-lattice index     =            0
     lattice parameter (alat)  =       1.8897  a.u.
     unit-cell volume          =     317.5778 (a.u.)^3
     number of atoms/cell      =            4
     number of atomic types    =            2
     number of electrons       =        62.00
     number of Kohn-Sham states=           41
     kinetic-energy cutoff     =      36.7493  Ry
     charge density cutoff     =     367.4932  Ry
     convergence threshold     =      1.0E-03
     mixing beta               =       0.4000
     number of iterations used =           10  plain     mixing
     Exchange-correlation      = BEEF-VDW ( 1  4 27 13 2)

     celldm(1)=   1.889726  celldm(2)=   0.000000  celldm(3)=   0.000000
     celldm(4)=   0.000000  celldm(5)=   0.000000  celldm(6)=   0.000000

     crystal axes: (cart. coord. in units of alat)
               a(1) = (   3.610366   0.000000   0.000000 )
               a(2) = (   0.000000   3.610366   0.000000 )
               a(3) = (   0.000000   0.000000   3.610366 )

     reciprocal axes: (cart. coord. in units 2 pi/alat)
               b(1) = (  0.276980  0.000000  0.000000 )
               b(2) = (  0.000000  0.276980  0.000000 )
               b(3) = (  0.000000  0.000000  0.276980 )

     PseudoPot. # 1 for Fe read from file:
     /home/users/vossj/suncat/psp/gbrv1.5pbe/Fe.UPF
     MD5 check sum: a130daea23fe5165f5d574ae7f82ed95
     Pseudo is Ultrasoft + core correction, Zval = 16.0
     Generated by new atomic code, or converted to UPF format
     Using radial grid of  861 points,  6 beta functions with:
                l(1) =   0
                l(2) =   0
                l(3) =   1
                l(4) =   1
                l(5) =   2
                l(6) =   2
     Q(r) pseudized with  8 coefficients,  rinner =    1.000   1.000   1.000
                                                       1.000   1.000

     PseudoPot. # 2 for Cr read from file:
     /home/users/vossj/suncat/psp/gbrv1.5pbe/Cr.UPF
     MD5 check sum: 0d52af634a40206e4dee301ad30da4bf
     Pseudo is Ultrasoft + core correction, Zval = 14.0
     Generated by new atomic code, or converted to UPF format
     Using radial grid of  857 points,  6 beta functions with:
                l(1) =   0
                l(2) =   0
                l(3) =   1
                l(4) =   1
                l(5) =   2
                l(6) =   2
     Q(r) pseudized with  8 coefficients,  rinner =    0.950   0.950   0.950
                                                       0.950   0.950

     vdW kernel table read from file vdW_kernel_table
     MD5 check sum: 095c7af220d748ca6e76c0b4c6cfb241

     atomic species   valence    mass     pseudopotential
        Fe1           16.00    55.84700     Fe( 1.00)
        Cr1           14.00    51.99600     Cr( 1.00)

     Starting magnetic structure
     atomic species   magnetization
        Fe1          0.163
        Cr1          0.186

     16 Sym. Ops., with inversion, found
          (note: 32 additional sym.ops. were found but ignored
           their fractional translations are incommensurate with FFT grid)

   Cartesian axes

     site n.     atom                  positions (alat units)
         1           Fe1 tau(   1) = (   0.0000000   0.0000000   0.0000000  )
         2           Fe1 tau(   2) = (   0.0000000   1.8051829   1.8051829  )
         3           Fe1 tau(   3) = (   1.8051829   0.0000000   1.8051829  )
         4           Cr1 tau(   4) = (   1.8051829   1.8051829   0.0000000  )

     number of k points=   150  Fermi-Dirac smearing, width (Ry)=  0.0073

     Number of k-points >= 100: set verbosity='high' to print them.

     Largest allocated arrays     est. size (Mb)     dimensions
     Largest temporary arrays     est. size (Mb)     dimensions

     Check: negative/imaginary core charge=   -0.000022    0.000000

     Initial potential from superposition of free atoms
     Check: negative starting charge=(component1):   -0.000403
     Check: negative starting charge=(component2):   -0.000276

     starting charge   57.99997, renormalised to   62.00000

     negative rho (up, down):  4.307E-04 2.949E-04

     *
     * You are using vdW-DF for exchange-correlation in this calculation.
     * Please cite the following three references that made this development
     * possible:
     *
     *   M. Dion, H. Rydberg, E. Schroder, D. C. Langreth, and
     *   B. I. Lundqvist, Phys. Rev. Lett. 92, 246401 (2004).
     *
     *   T. Thonhauser, V. R. Cooper, S. Li, A. Puzder, P. Hyldgaard, and
     *   D. C. Langreth, Phys. Rev. B 76, 125112 (2007).
     *
     *   G. Roman-Perez and J. M. Soler, Phys. Rev. Lett. 103, 096102 (2009).
     *
     *
     * If you are using vdW-DF2, please also cite:
     *
     *   K. Lee, E. D. Murray, L. Kong, B. I. Lundqvist, and
     *   D. C. Langreth, Phys. Rev. B 82, 081101(R) (2010).
     *
     *
     * If you are calculating the stress with vdW-DF, please also cite:
     *
     *   R. Sabatini, E. Kucukbenli, B. Kolb, T. Thonhauser, and
     *   S. de Gironcoli, J. Phys.: Condens. Matter 24, 424209 (2012).
     *

     Carrying out vdW-DF run using the following parameters:

     Nqs =      20    Nr_points =    1024   r_max =   100.000
     q_mesh =
               0.00001000     0.04494208     0.09755937     0.15916263
               0.23128650     0.31572767     0.41458969     0.53033537
               0.66584808     0.82450364     1.01025438     1.22772762
               1.48234092     1.78043706     2.12944203     2.53805004
               3.01644009     3.57652955     4.23227104     5.00000000

     Gradients computed in reciprocal space

     Starting wfc are   49 randomized atomic wfcs

     Self-consistent Calculation

     iteration #  1     ecut=    36.75 Ry     beta=0.40
     Davidson diagonalization with overlap
     ethr =  1.00E-02,  avg # of iterations =  2.9

[...]

     Magnetic moment per site:
     atom:    1    charge:    6.9014    magn:    0.9504    constr:    0.0000
     atom:    2    charge:    6.8851    magn:    0.9482    constr:    0.0000
     atom:    3    charge:    6.8851    magn:    0.9482    constr:    0.0000
     atom:    4    charge:    4.9547    magn:    0.7143    constr:    0.0000

     total energy              =    -927.17431451 Ry
     Harris-Foulkes estimate   =    -932.42791728 Ry
     estimated scf accuracy    <       9.68575699 Ry

     total magnetization       =     4.78 Bohr mag/cell
     absolute magnetization    =     4.85 Bohr mag/cell

[...]

     total energy              =    -930.40661891 Ry
     Harris-Foulkes estimate   =    -930.40668482 Ry
     estimated scf accuracy    <       0.00113858 Ry

[...]

     iteration # 21     ecut=    36.75 Ry     beta=0.40
     Davidson diagonalization with overlap
     ethr =  1.84E-06,  avg # of iterations =  1.5

     negative rho (up, down):  2.859E-03 0.000E+00

     Magnetic moment per site:
     atom:    1    charge:    7.0874    magn:    1.0229    constr:    0.0000
     atom:    2    charge:    7.0714    magn:    1.0218    constr:    0.0000
     atom:    3    charge:    7.0714    magn:    1.0218    constr:    0.0000
     atom:    4    charge:    4.9520    magn:   -0.8227    constr:    0.0000

     End of self-consistent calculation

     Number of k-points >= 100: set verbosity='high' to print the bands.

     the Fermi energy is    17.7230 ev

!    total energy              =    -930.40693000 Ry
     Harris-Foulkes estimate   =    -930.40692324 Ry
     estimated scf accuracy    <       0.00001974 Ry

     The total energy is the sum of the following terms:

     one-electron contribution =    -412.37072380 Ry
     hartree contribution      =     243.06872036 Ry
     xc contribution           =    -114.30217191 Ry
     ewald contribution        =    -646.79377681 Ry
     smearing contrib. (-TS)   =      -0.00897784 Ry

     total magnetization       =     3.67 Bohr mag/cell
     absolute magnetization    =     9.09 Bohr mag/cell

     convergence has been achieved in  21 iterations

     Forces acting on atoms (Ry/au):

     negative rho (up, down):  2.859E-03 0.000E+00
     atom    1 type  1   force =     0.00000000    0.00000000    0.00000000
     atom    2 type  1   force =     0.00000000    0.00000000    0.00000000
     atom    3 type  1   force =     0.00000000    0.00000000    0.00000000
     atom    4 type  2   force =     0.00000000    0.00000000    0.00000000

     Total force =     0.000000     Total SCF correction =     0.000000

     General routines

     Parallel routines

   This run was terminated on:  15:41:56  29Nov2017

   JOB DONE.