     Program PWSCF v.5.1rc2 starts on 15Nov2017 at  6:32:42

     Current dimensions of program PWSCF are:
     Max number of different atomic species (ntypx) = 10
     Max number of k-points (npk) =  40000
     Max angular momentum in pseudopotentials (lmaxx) =  3

     IMPORTANT: XC functional enforced from input :
     Exchange-correlation      = BEEF-VDW ( 1  4 27 13 2)
     Any further DFT definition will be discarded
     Please, verify this is what you really want

     Found symmetry operation: I + ( -0.5000 -0.5000  0.0000)
     This is a supercell, fractional translations are disabled

     bravais-lattice index     =            0
     lattice parameter (alat)  =       1.8897  a.u.
     unit-cell volume          =     424.4038 (a.u.)^3
     number of atoms/cell      =            4
     number of atomic types    =            2
     number of electrons       =        48.00
     number of Kohn-Sham states=           44
     kinetic-energy cutoff     =      58.7989  Ry
     charge density cutoff     =     587.9892  Ry
     convergence threshold     =      1.0E-06
     mixing beta               =       0.1000
     number of iterations used =           10  plain     mixing
     Exchange-correlation      = BEEF-VDW ( 1  4 27 13 2)

     celldm(1)=   1.889726  celldm(2)=   0.000000  celldm(3)=   0.000000
     celldm(4)=   0.000000  celldm(5)=   0.000000  celldm(6)=   0.000000

     crystal axes: (cart. coord. in units of alat)
               a(1) = (   3.907464   0.000000   0.000000 )
               a(2) = (   0.000000   3.907464   0.000000 )
               a(3) = (   0.000000   0.000000   4.119009 )

     reciprocal axes: (cart. coord. in units 2 pi/alat)
               b(1) = (  0.255920  0.000000  0.000000 )
               b(2) = (  0.000000  0.255920  0.000000 )
               b(3) = (  0.000000  0.000000  0.242777 )

     PseudoPot. # 1 for V  read from file:
     /home/users/vossj/suncat/psp/gbrv1.5pbe/V.UPF
     MD5 check sum: 22b79981416ebb76fdaf5b1b8640f6fb
     Pseudo is Ultrasoft + core correction, Zval = 13.0
     Generated by new atomic code, or converted to UPF format
     Using radial grid of  853 points,  6 beta functions with:
                l(1) =   0
                l(2) =   0
                l(3) =   1
                l(4) =   1
                l(5) =   2
                l(6) =   2
     Q(r) pseudized with  8 coefficients,  rinner =    1.100   1.100   1.100
                                                       1.100   1.100

     PseudoPot. # 2 for Au read from file:
     /home/users/vossj/suncat/psp/gbrv1.5pbe/Au.UPF
     MD5 check sum: 9d7f43293ad2c663164586bc4b293ffc
     Pseudo is Ultrasoft + core correction, Zval = 11.0
     Generated by new atomic code, or converted to UPF format
     Using radial grid of  985 points,  7 beta functions with:
                l(1) =   0
                l(2) =   0
                l(3) =   1
                l(4) =   1
                l(5) =   2
                l(6) =   2
                l(7) =   3
     Q(r) pseudized with  6 coefficients,  rinner =    1.900   1.900   1.900
                                                       1.900   1.900   1.900
                                                       1.900

     vdW kernel table read from file vdW_kernel_table
     MD5 check sum: 095c7af220d748ca6e76c0b4c6cfb241

     atomic species   valence    mass     pseudopotential
        V1            13.00    50.94150     V ( 1.00)
        Au1           11.00   196.96650     Au( 1.00)

     16 Sym. Ops., with inversion, found

   Cartesian axes

     site n.     atom                  positions (alat units)
         1           V1  tau(   1) = (   0.0000000   0.0000000   0.0000000  )
         2           V1  tau(   2) = (   1.9537319   1.9537319   0.0000000  )
         3           Au1 tau(   3) = (   1.9537319   0.0000000   2.0595045  )
         4           Au1 tau(   4) = (   0.0000000   1.9537319   2.0595045  )

     number of k points=    75  Fermi-Dirac smearing, width (Ry)=  0.0073
                       cart. coord. in units 2pi/alat
        k(    1) = (   0.0000000   0.0000000   0.0000000), wk =   0.0027435
        k(    2) = (   0.0000000   0.0000000   0.0269752), wk =   0.0054870
        k(    3) = (   0.0000000   0.0000000   0.0539504), wk =   0.0054870
        k(    4) = (   0.0000000   0.0000000   0.0809256), wk =   0.0054870
        k(    5) = (   0.0000000   0.0000000   0.1079008), wk =   0.0054870
        k(    6) = (   0.0000000   0.0284356   0.0000000), wk =   0.0109739
        k(    7) = (   0.0000000   0.0284356   0.0269752), wk =   0.0219479
        k(    8) = (   0.0000000   0.0284356   0.0539504), wk =   0.0219479
        k(    9) = (   0.0000000   0.0284356   0.0809256), wk =   0.0219479
        k(   10) = (   0.0000000   0.0284356   0.1079008), wk =   0.0219479
        k(   11) = (   0.0000000   0.0568712   0.0000000), wk =   0.0109739
        k(   12) = (   0.0000000   0.0568712   0.0269752), wk =   0.0219479
        k(   13) = (   0.0000000   0.0568712   0.0539504), wk =   0.0219479
        k(   14) = (   0.0000000   0.0568712   0.0809256), wk =   0.0219479
        k(   15) = (   0.0000000   0.0568712   0.1079008), wk =   0.0219479
        k(   16) = (   0.0000000   0.0853068   0.0000000), wk =   0.0109739
        k(   17) = (   0.0000000   0.0853068   0.0269752), wk =   0.0219479
        k(   18) = (   0.0000000   0.0853068   0.0539504), wk =   0.0219479
        k(   19) = (   0.0000000   0.0853068   0.0809256), wk =   0.0219479
        k(   20) = (   0.0000000   0.0853068   0.1079008), wk =   0.0219479
        k(   21) = (   0.0000000   0.1137424   0.0000000), wk =   0.0109739
        k(   22) = (   0.0000000   0.1137424   0.0269752), wk =   0.0219479
        k(   23) = (   0.0000000   0.1137424   0.0539504), wk =   0.0219479
        k(   24) = (   0.0000000   0.1137424   0.0809256), wk =   0.0219479
        k(   25) = (   0.0000000   0.1137424   0.1079008), wk =   0.0219479
        k(   26) = (   0.0284356   0.0284356   0.0000000), wk =   0.0109739
        k(   27) = (   0.0284356   0.0284356   0.0269752), wk =   0.0219479
        k(   28) = (   0.0284356   0.0284356   0.0539504), wk =   0.0219479
        k(   29) = (   0.0284356   0.0284356   0.0809256), wk =   0.0219479
        k(   30) = (   0.0284356   0.0284356   0.1079008), wk =   0.0219479
        k(   31) = (   0.0284356   0.0568712   0.0000000), wk =   0.0219479
        k(   32) = (   0.0284356   0.0568712   0.0269752), wk =   0.0438957
        k(   33) = (   0.0284356   0.0568712   0.0539504), wk =   0.0438957
        k(   34) = (   0.0284356   0.0568712   0.0809256), wk =   0.0438957
        k(   35) = (   0.0284356   0.0568712   0.1079008), wk =   0.0438957
        k(   36) = (   0.0284356   0.0853068   0.0000000), wk =   0.0219479
        k(   37) = (   0.0284356   0.0853068   0.0269752), wk =   0.0438957
        k(   38) = (   0.0284356   0.0853068   0.0539504), wk =   0.0438957
        k(   39) = (   0.0284356   0.0853068   0.0809256), wk =   0.0438957
        k(   40) = (   0.0284356   0.0853068   0.1079008), wk =   0.0438957
        k(   41) = (   0.0284356   0.1137424   0.0000000), wk =   0.0219479
        k(   42) = (   0.0284356   0.1137424   0.0269752), wk =   0.0438957
        k(   43) = (   0.0284356   0.1137424   0.0539504), wk =   0.0438957
        k(   44) = (   0.0284356   0.1137424   0.0809256), wk =   0.0438957
        k(   45) = (   0.0284356   0.1137424   0.1079008), wk =   0.0438957
        k(   46) = (   0.0568712   0.0568712   0.0000000), wk =   0.0109739
        k(   47) = (   0.0568712   0.0568712   0.0269752), wk =   0.0219479
        k(   48) = (   0.0568712   0.0568712   0.0539504), wk =   0.0219479
        k(   49) = (   0.0568712   0.0568712   0.0809256), wk =   0.0219479
        k(   50) = (   0.0568712   0.0568712   0.1079008), wk =   0.0219479
        k(   51) = (   0.0568712   0.0853068   0.0000000), wk =   0.0219479
        k(   52) = (   0.0568712   0.0853068   0.0269752), wk =   0.0438957
        k(   53) = (   0.0568712   0.0853068   0.0539504), wk =   0.0438957
        k(   54) = (   0.0568712   0.0853068   0.0809256), wk =   0.0438957
        k(   55) = (   0.0568712   0.0853068   0.1079008), wk =   0.0438957
        k(   56) = (   0.0568712   0.1137424   0.0000000), wk =   0.0219479
        k(   57) = (   0.0568712   0.1137424   0.0269752), wk =   0.0438957
        k(   58) = (   0.0568712   0.1137424   0.0539504), wk =   0.0438957
        k(   59) = (   0.0568712   0.1137424   0.0809256), wk =   0.0438957
        k(   60) = (   0.0568712   0.1137424   0.1079008), wk =   0.0438957
        k(   61) = (   0.0853068   0.0853068   0.0000000), wk =   0.0109739
        k(   62) = (   0.0853068   0.0853068   0.0269752), wk =   0.0219479
        k(   63) = (   0.0853068   0.0853068   0.0539504), wk =   0.0219479
        k(   64) = (   0.0853068   0.0853068   0.0809256), wk =   0.0219479
        k(   65) = (   0.0853068   0.0853068   0.1079008), wk =   0.0219479
        k(   66) = (   0.0853068   0.1137424   0.0000000), wk =   0.0219479
        k(   67) = (   0.0853068   0.1137424   0.0269752), wk =   0.0438957
        k(   68) = (   0.0853068   0.1137424   0.0539504), wk =   0.0438957
        k(   69) = (   0.0853068   0.1137424   0.0809256), wk =   0.0438957
        k(   70) = (   0.0853068   0.1137424   0.1079008), wk =   0.0438957
        k(   71) = (   0.1137424   0.1137424   0.0000000), wk =   0.0109739
        k(   72) = (   0.1137424   0.1137424   0.0269752), wk =   0.0219479
        k(   73) = (   0.1137424   0.1137424   0.0539504), wk =   0.0219479
        k(   74) = (   0.1137424   0.1137424   0.0809256), wk =   0.0219479
        k(   75) = (   0.1137424   0.1137424   0.1079008), wk =   0.0219479

     Largest allocated arrays     est. size (Mb)     dimensions
     Largest temporary arrays     est. size (Mb)     dimensions

     Check: negative/imaginary core charge=   -0.000001    0.000000

     Initial potential from superposition of free atoms
     Check: negative starting charge=   -0.000812

     starting charge   47.99730, renormalised to   48.00000

     negative rho (up, down):  8.121E-04 0.000E+00

     *
     * You are using vdW-DF for exchange-correlation in this calculation.
     * Please cite the following three references that made this development
     * possible:
     *
     *   M. Dion, H. Rydberg, E. Schroder, D. C. Langreth, and
     *   B. I. Lundqvist, Phys. Rev. Lett. 92, 246401 (2004).
     *
     *   T. Thonhauser, V. R. Cooper, S. Li, A. Puzder, P. Hyldgaard, and
     *   D. C. Langreth, Phys. Rev. B 76, 125112 (2007).
     *
     *   G. Roman-Perez and J. M. Soler, Phys. Rev. Lett. 103, 096102 (2009).
     *
     *
     * If you are using vdW-DF2, please also cite:
     *
     *   K. Lee, E. D. Murray, L. Kong, B. I. Lundqvist, and
     *   D. C. Langreth, Phys. Rev. B 82, 081101(R) (2010).
     *
     *
     * If you are calculating the stress with vdW-DF, please also cite:
     *
     *   R. Sabatini, E. Kucukbenli, B. Kolb, T. Thonhauser, and
     *   S. de Gironcoli, J. Phys.: Condens. Matter 24, 424209 (2012).
     *

     Carrying out vdW-DF run using the following parameters:

     Nqs =      20    Nr_points =    1024   r_max =   100.000
     q_mesh =
               0.00001000     0.04494208     0.09755937     0.15916263
               0.23128650     0.31572767     0.41458969     0.53033537
               0.66584808     0.82450364     1.01025438     1.22772762
               1.48234092     1.78043706     2.12944203     2.53805004
               3.01644009     3.57652955     4.23227104     5.00000000

     Gradients computed in reciprocal space

     Starting wfc are   38 randomized atomic wfcs +    6 random wfc

     Self-consistent Calculation

     iteration #  1     ecut=    58.80 Ry     beta=0.10
     Davidson diagonalization with overlap
     ethr =  1.00E-02,  avg # of iterations =  4.5

[...]

     total energy              =    -524.74413388 Ry
     Harris-Foulkes estimate   =    -525.32455133 Ry
     estimated scf accuracy    <       3.24430541 Ry

[...]

     iteration #  5     ecut=    58.80 Ry     beta=0.10
     Davidson diagonalization with overlap
     c_bands:  1 eigenvalues not converged
     ethr =  1.16E-05,  avg # of iterations =  5.2

[...]

     total energy              =    -524.99728198 Ry
     Harris-Foulkes estimate   =    -524.99728251 Ry
     estimated scf accuracy    <       0.00000373 Ry

     iteration # 12     ecut=    58.80 Ry     beta=0.10
     Davidson diagonalization with overlap
     ethr =  7.77E-09,  avg # of iterations =  1.0

     negative rho (up, down):  1.043E-03 0.000E+00

     End of self-consistent calculation

          k = 0.0000 0.0000 0.0000 (  3215 PWs)   bands (ev):

   -48.8005 -48.7219 -22.7449 -22.6723 -22.6354 -22.6354 -22.3407 -22.3407
     6.6284   8.4584   8.7751   9.1488   9.5572   9.5572  10.2046  11.6008
    11.6008  12.6452  13.8602  14.5752  15.2171  15.2984  16.8087  16.8087
    16.8168  17.2361  17.3489  17.3489  17.7846  17.7846  17.8118  18.4748
    22.7630  23.6156  26.3094  26.4567  26.8190  26.9440  26.9440  27.6263
    27.6263  31.3676  32.4772  34.4100

[...]

          k = 0.1137 0.1137 0.1079 (  3236 PWs)   bands (ev):

   -48.7617 -48.7594 -22.7127 -22.7104 -22.6767 -22.6679 -22.3215 -22.3124
     8.7985   8.9190   9.0187   9.0360  10.8931  10.9132  11.0558  11.2108
    11.7418  11.8165  13.8710  14.7872  14.8332  14.8850  15.0181  15.3584
    15.4284  15.8267  16.9940  17.2374  17.2989  17.3563  17.5167  17.5969
    20.1543  20.4177  23.0390  23.2921  30.4530  30.5329  30.6035  30.6324
    33.5745  33.7356  34.1078  34.4195

     the Fermi energy is    15.7732 ev

!    total energy              =    -524.99728385 Ry
     Harris-Foulkes estimate   =    -524.99728238 Ry
     estimated scf accuracy    <       0.00000016 Ry

     The total energy is the sum of the following terms:

     one-electron contribution =     -85.70242700 Ry
     hartree contribution      =      82.08805800 Ry
     xc contribution           =    -168.83076428 Ry
     ewald contribution        =    -352.53913604 Ry
     smearing contrib. (-TS)   =      -0.01301454 Ry

     convergence has been achieved in  12 iterations

     Forces acting on atoms (Ry/au):

     negative rho (up, down):  1.043E-03 0.000E+00
     atom    1 type  1   force =     0.00000000    0.00000000    0.00000000
     atom    2 type  1   force =     0.00000000    0.00000000    0.00000000
     atom    3 type  2   force =     0.00000000    0.00000000    0.00000000
     atom    4 type  2   force =     0.00000000    0.00000000    0.00000000

     Total force =     0.000000     Total SCF correction =     0.000000

     General routines

     Parallel routines

   This run was terminated on:   6:33:17  15Nov2017

   JOB DONE.