     Program PWSCF v.5.1rc2 starts on 14Nov2017 at 20:59: 8

     Current dimensions of program PWSCF are:
     Max number of different atomic species (ntypx) = 10
     Max number of k-points (npk) =  40000
     Max angular momentum in pseudopotentials (lmaxx) =  3

     IMPORTANT: XC functional enforced from input :
     Exchange-correlation      = BEEF-VDW ( 1  4 27 13 2)
     Any further DFT definition will be discarded
     Please, verify this is what you really want

     Found symmetry operation: I + (  0.5000  0.5000  0.0000)
     This is a supercell, fractional translations are disabled

     bravais-lattice index     =            0
     lattice parameter (alat)  =       1.8897  a.u.
     unit-cell volume          =     470.3022 (a.u.)^3
     number of atoms/cell      =            4
     number of atomic types    =            2
     number of electrons       =        54.00
     number of Kohn-Sham states=           47
     kinetic-energy cutoff     =      58.7989  Ry
     charge density cutoff     =     587.9892  Ry
     convergence threshold     =      1.0E-06
     mixing beta               =       0.1000
     number of iterations used =           10  plain     mixing
     Exchange-correlation      = BEEF-VDW ( 1  4 27 13 2)

     celldm(1)=   1.889726  celldm(2)=   0.000000  celldm(3)=   0.000000
     celldm(4)=   0.000000  celldm(5)=   0.000000  celldm(6)=   0.000000

     crystal axes: (cart. coord. in units of alat)
               a(1) = (   3.823827   0.000000   0.000000 )
               a(2) = (   0.000000   3.823827   0.000000 )
               a(3) = (   0.000000   0.000000   4.766329 )

     reciprocal axes: (cart. coord. in units 2 pi/alat)
               b(1) = (  0.261518  0.000000  0.000000 )
               b(2) = (  0.000000  0.261518  0.000000 )
               b(3) = (  0.000000  0.000000  0.209805 )

     PseudoPot. # 1 for Nb read from file:
     /home/users/vossj/suncat/psp/gbrv1.5pbe/Nb.UPF
     MD5 check sum: 573aab8a2fa660278ed4a62cd769473f
     Pseudo is Ultrasoft + core correction, Zval = 13.0
     Generated by new atomic code, or converted to UPF format
     Using radial grid of  887 points,  6 beta functions with:
                l(1) =   0
                l(2) =   0
                l(3) =   1
                l(4) =   1
                l(5) =   2
                l(6) =   2
     Q(r) pseudized with  6 coefficients,  rinner =    1.000   1.000   1.000
                                                       1.000   1.000

     PseudoPot. # 2 for W  read from file:
     /home/users/vossj/suncat/psp/gbrv1.5pbe/W.UPF
     MD5 check sum: 9c083fa34c2a2ea0f02f1f893e16e1c8
     Pseudo is Ultrasoft + core correction, Zval = 14.0
     Generated by new atomic code, or converted to UPF format
     Using radial grid of  923 points,  8 beta functions with:
                l(1) =   0
                l(2) =   0
                l(3) =   0
                l(4) =   1
                l(5) =   1
                l(6) =   2
                l(7) =   2
                l(8) =   3
     Q(r) pseudized with  6 coefficients,  rinner =    1.350   1.350   1.350
                                                       1.350   1.350   1.350
                                                       1.350

     vdW kernel table read from file vdW_kernel_table
     MD5 check sum: 095c7af220d748ca6e76c0b4c6cfb241

     atomic species   valence    mass     pseudopotential
        Nb1           13.00    92.90640     Nb( 1.00)
        W1            14.00   183.85000     W ( 1.00)

     16 Sym. Ops., with inversion, found

   Cartesian axes

     site n.     atom                  positions (alat units)
         1           Nb1 tau(   1) = (   0.0000000   0.0000000   0.0000000  )
         2           Nb1 tau(   2) = (   1.9119134   1.9119134   0.0000000  )
         3           W1  tau(   3) = (   1.9119134   0.0000000   2.3831643  )
         4           W1  tau(   4) = (   0.0000000   1.9119134   2.3831643  )

     number of k points=    75  Fermi-Dirac smearing, width (Ry)=  0.0073
                       cart. coord. in units 2pi/alat
        k(    1) = (   0.0000000   0.0000000   0.0000000), wk =   0.0027435
        k(    2) = (   0.0000000   0.0000000   0.0233117), wk =   0.0054870
        k(    3) = (   0.0000000   0.0000000   0.0466234), wk =   0.0054870
        k(    4) = (   0.0000000   0.0000000   0.0699350), wk =   0.0054870
        k(    5) = (   0.0000000   0.0000000   0.0932467), wk =   0.0054870
        k(    6) = (   0.0000000   0.0290576   0.0000000), wk =   0.0109739
        k(    7) = (   0.0000000   0.0290576   0.0233117), wk =   0.0219479
        k(    8) = (   0.0000000   0.0290576   0.0466234), wk =   0.0219479
        k(    9) = (   0.0000000   0.0290576   0.0699350), wk =   0.0219479
        k(   10) = (   0.0000000   0.0290576   0.0932467), wk =   0.0219479
        k(   11) = (   0.0000000   0.0581151   0.0000000), wk =   0.0109739
        k(   12) = (   0.0000000   0.0581151   0.0233117), wk =   0.0219479
        k(   13) = (   0.0000000   0.0581151   0.0466234), wk =   0.0219479
        k(   14) = (   0.0000000   0.0581151   0.0699350), wk =   0.0219479
        k(   15) = (   0.0000000   0.0581151   0.0932467), wk =   0.0219479
        k(   16) = (   0.0000000   0.0871727   0.0000000), wk =   0.0109739
        k(   17) = (   0.0000000   0.0871727   0.0233117), wk =   0.0219479
        k(   18) = (   0.0000000   0.0871727   0.0466234), wk =   0.0219479
        k(   19) = (   0.0000000   0.0871727   0.0699350), wk =   0.0219479
        k(   20) = (   0.0000000   0.0871727   0.0932467), wk =   0.0219479
        k(   21) = (   0.0000000   0.1162303   0.0000000), wk =   0.0109739
        k(   22) = (   0.0000000   0.1162303   0.0233117), wk =   0.0219479
        k(   23) = (   0.0000000   0.1162303   0.0466234), wk =   0.0219479
        k(   24) = (   0.0000000   0.1162303   0.0699350), wk =   0.0219479
        k(   25) = (   0.0000000   0.1162303   0.0932467), wk =   0.0219479
        k(   26) = (   0.0290576   0.0290576   0.0000000), wk =   0.0109739
        k(   27) = (   0.0290576   0.0290576   0.0233117), wk =   0.0219479
        k(   28) = (   0.0290576   0.0290576   0.0466234), wk =   0.0219479
        k(   29) = (   0.0290576   0.0290576   0.0699350), wk =   0.0219479
        k(   30) = (   0.0290576   0.0290576   0.0932467), wk =   0.0219479
        k(   31) = (   0.0290576   0.0581151   0.0000000), wk =   0.0219479
        k(   32) = (   0.0290576   0.0581151   0.0233117), wk =   0.0438957
        k(   33) = (   0.0290576   0.0581151   0.0466234), wk =   0.0438957
        k(   34) = (   0.0290576   0.0581151   0.0699350), wk =   0.0438957
        k(   35) = (   0.0290576   0.0581151   0.0932467), wk =   0.0438957
        k(   36) = (   0.0290576   0.0871727   0.0000000), wk =   0.0219479
        k(   37) = (   0.0290576   0.0871727   0.0233117), wk =   0.0438957
        k(   38) = (   0.0290576   0.0871727   0.0466234), wk =   0.0438957
        k(   39) = (   0.0290576   0.0871727   0.0699350), wk =   0.0438957
        k(   40) = (   0.0290576   0.0871727   0.0932467), wk =   0.0438957
        k(   41) = (   0.0290576   0.1162303   0.0000000), wk =   0.0219479
        k(   42) = (   0.0290576   0.1162303   0.0233117), wk =   0.0438957
        k(   43) = (   0.0290576   0.1162303   0.0466234), wk =   0.0438957
        k(   44) = (   0.0290576   0.1162303   0.0699350), wk =   0.0438957
        k(   45) = (   0.0290576   0.1162303   0.0932467), wk =   0.0438957
        k(   46) = (   0.0581151   0.0581151   0.0000000), wk =   0.0109739
        k(   47) = (   0.0581151   0.0581151   0.0233117), wk =   0.0219479
        k(   48) = (   0.0581151   0.0581151   0.0466234), wk =   0.0219479
        k(   49) = (   0.0581151   0.0581151   0.0699350), wk =   0.0219479
        k(   50) = (   0.0581151   0.0581151   0.0932467), wk =   0.0219479
        k(   51) = (   0.0581151   0.0871727   0.0000000), wk =   0.0219479
        k(   52) = (   0.0581151   0.0871727   0.0233117), wk =   0.0438957
        k(   53) = (   0.0581151   0.0871727   0.0466234), wk =   0.0438957
        k(   54) = (   0.0581151   0.0871727   0.0699350), wk =   0.0438957
        k(   55) = (   0.0581151   0.0871727   0.0932467), wk =   0.0438957
        k(   56) = (   0.0581151   0.1162303   0.0000000), wk =   0.0219479
        k(   57) = (   0.0581151   0.1162303   0.0233117), wk =   0.0438957
        k(   58) = (   0.0581151   0.1162303   0.0466234), wk =   0.0438957
        k(   59) = (   0.0581151   0.1162303   0.0699350), wk =   0.0438957
        k(   60) = (   0.0581151   0.1162303   0.0932467), wk =   0.0438957
        k(   61) = (   0.0871727   0.0871727   0.0000000), wk =   0.0109739
        k(   62) = (   0.0871727   0.0871727   0.0233117), wk =   0.0219479
        k(   63) = (   0.0871727   0.0871727   0.0466234), wk =   0.0219479
        k(   64) = (   0.0871727   0.0871727   0.0699350), wk =   0.0219479
        k(   65) = (   0.0871727   0.0871727   0.0932467), wk =   0.0219479
        k(   66) = (   0.0871727   0.1162303   0.0000000), wk =   0.0219479
        k(   67) = (   0.0871727   0.1162303   0.0233117), wk =   0.0438957
        k(   68) = (   0.0871727   0.1162303   0.0466234), wk =   0.0438957
        k(   69) = (   0.0871727   0.1162303   0.0699350), wk =   0.0438957
        k(   70) = (   0.0871727   0.1162303   0.0932467), wk =   0.0438957
        k(   71) = (   0.1162303   0.1162303   0.0000000), wk =   0.0109739
        k(   72) = (   0.1162303   0.1162303   0.0233117), wk =   0.0219479
        k(   73) = (   0.1162303   0.1162303   0.0466234), wk =   0.0219479
        k(   74) = (   0.1162303   0.1162303   0.0699350), wk =   0.0219479
        k(   75) = (   0.1162303   0.1162303   0.0932467), wk =   0.0219479

     Largest allocated arrays     est. size (Mb)     dimensions
     Largest temporary arrays     est. size (Mb)     dimensions

     Initial potential from superposition of free atoms
     Check: negative starting charge=   -0.123998

     starting charge   53.79385, renormalised to   54.00000

     negative rho (up, down):  1.245E-01 0.000E+00

     *
     * You are using vdW-DF for exchange-correlation in this calculation.
     * Please cite the following three references that made this development
     * possible:
     *
     *   M. Dion, H. Rydberg, E. Schroder, D. C. Langreth, and
     *   B. I. Lundqvist, Phys. Rev. Lett. 92, 246401 (2004).
     *
     *   T. Thonhauser, V. R. Cooper, S. Li, A. Puzder, P. Hyldgaard, and
     *   D. C. Langreth, Phys. Rev. B 76, 125112 (2007).
     *
     *   G. Roman-Perez and J. M. Soler, Phys. Rev. Lett. 103, 096102 (2009).
     *
     *
     * If you are using vdW-DF2, please also cite:
     *
     *   K. Lee, E. D. Murray, L. Kong, B. I. Lundqvist, and
     *   D. C. Langreth, Phys. Rev. B 82, 081101(R) (2010).
     *
     *
     * If you are calculating the stress with vdW-DF, please also cite:
     *
     *   R. Sabatini, E. Kucukbenli, B. Kolb, T. Thonhauser, and
     *   S. de Gironcoli, J. Phys.: Condens. Matter 24, 424209 (2012).
     *

     Carrying out vdW-DF run using the following parameters:

     Nqs =      20    Nr_points =    1024   r_max =   100.000
     q_mesh =
               0.00001000     0.04494208     0.09755937     0.15916263
               0.23128650     0.31572767     0.41458969     0.53033537
               0.66584808     0.82450364     1.01025438     1.22772762
               1.48234092     1.78043706     2.12944203     2.53805004
               3.01644009     3.57652955     4.23227104     5.00000000

     Gradients computed in reciprocal space

     Starting wfc are   52 randomized atomic wfcs

     Self-consistent Calculation

     iteration #  1     ecut=    58.80 Ry     beta=0.10
     Davidson diagonalization with overlap
     ethr =  1.00E-02,  avg # of iterations =  4.6

[...]

     total energy              =    -558.09087443 Ry
     Harris-Foulkes estimate   =    -558.18200867 Ry
     estimated scf accuracy    <       0.60474081 Ry

[...]

     total energy              =    -558.08193479 Ry
     Harris-Foulkes estimate   =    -558.08193441 Ry
     estimated scf accuracy    <       0.00000107 Ry

     iteration # 11     ecut=    58.80 Ry     beta=0.10
     Davidson diagonalization with overlap
     ethr =  1.98E-09,  avg # of iterations =  1.9

     negative rho (up, down):  1.368E-01 0.000E+00

     End of self-consistent calculation

          k = 0.0000 0.0000 0.0000 (  3581 PWs)   bands (ev):

   -55.0382 -54.9049 -35.7074 -35.3319 -19.4838 -19.4838 -19.1644 -18.9319
   -18.6454 -18.6454 -12.1838 -12.1838 -11.7028 -11.3782 -10.9590 -10.9590
    11.4877  14.2788  14.5493  14.6062  15.3658  15.4975  15.4975  17.3302
    19.4018  20.1394  20.2559  20.2559  22.6964  22.6964  22.8389  23.4282
    23.5915  23.9949  23.9949  24.3922  24.3922  24.6239  26.0851  26.5170
    28.2157  29.1531  29.3661  31.8015  31.8015  32.2208  33.0095

[...]

          k = 0.1162 0.1162 0.0932 (  3593 PWs)   bands (ev):

   -54.9729 -54.9689 -35.5222 -35.5108 -19.6086 -19.5850 -19.0484 -19.0420
   -18.5888 -18.5620 -12.3794 -12.3454 -11.5452 -11.5342 -10.8699 -10.8297
    14.2156  14.3092  14.9113  14.9348  17.1804  17.3165  17.9225  18.0941
    19.2634  19.7591  19.8931  20.1304  20.4560  20.4937  20.4966  20.7052
    23.2909  23.5604  23.6508  23.7627  23.9613  24.1496  24.3682  24.4453
    29.1722  29.2332  30.7597  30.9307  30.9865  31.1074  31.3817

     the Fermi energy is    19.2018 ev

!    total energy              =    -558.08193752 Ry
     Harris-Foulkes estimate   =    -558.08193493 Ry
     estimated scf accuracy    <       0.00000001 Ry

     The total energy is the sum of the following terms:

     one-electron contribution =     -70.34217371 Ry
     hartree contribution      =      64.90891723 Ry
     xc contribution           =    -123.49798999 Ry
     ewald contribution        =    -429.14341750 Ry
     smearing contrib. (-TS)   =      -0.00727354 Ry

     convergence has been achieved in  11 iterations

     Forces acting on atoms (Ry/au):

     negative rho (up, down):  1.368E-01 0.000E+00
     atom    1 type  1   force =     0.00000000    0.00000000    0.00000000
     atom    2 type  1   force =     0.00000000    0.00000000    0.00000000
     atom    3 type  2   force =     0.00000000    0.00000000    0.00000000
     atom    4 type  2   force =     0.00000000    0.00000000    0.00000000

     Total force =     0.000000     Total SCF correction =     0.000000

     General routines

     Parallel routines

   This run was terminated on:  20:59:45  14Nov2017

   JOB DONE.