     Program PWSCF v.5.1rc2 starts on 14Nov2017 at  9:32:28

     Current dimensions of program PWSCF are:
     Max number of different atomic species (ntypx) = 10
     Max number of k-points (npk) =  40000
     Max angular momentum in pseudopotentials (lmaxx) =  3

     IMPORTANT: XC functional enforced from input :
     Exchange-correlation      = BEEF-VDW ( 1  4 27 13 2)
     Any further DFT definition will be discarded
     Please, verify this is what you really want

     Found symmetry operation: I + ( -0.5000 -0.5000  0.0000)
     This is a supercell, fractional translations are disabled

     bravais-lattice index     =            0
     lattice parameter (alat)  =       1.8897  a.u.
     unit-cell volume          =     496.4021 (a.u.)^3
     number of atoms/cell      =            4
     number of atomic types    =            2
     number of electrons       =        52.00
     number of Kohn-Sham states=           46
     kinetic-energy cutoff     =      58.7989  Ry
     charge density cutoff     =     587.9892  Ry
     convergence threshold     =      1.0E-06
     mixing beta               =       0.1000
     number of iterations used =           10  plain     mixing
     Exchange-correlation      = BEEF-VDW ( 1  4 27 13 2)

     celldm(1)=   1.889726  celldm(2)=   0.000000  celldm(3)=   0.000000
     celldm(4)=   0.000000  celldm(5)=   0.000000  celldm(6)=   0.000000

     crystal axes: (cart. coord. in units of alat)
               a(1) = (   4.005261   0.000000   0.000000 )
               a(2) = (   0.000000   4.005261   0.000000 )
               a(3) = (   0.000000   0.000000   4.585379 )

     reciprocal axes: (cart. coord. in units 2 pi/alat)
               b(1) = (  0.249672  0.000000  0.000000 )
               b(2) = (  0.000000  0.249672  0.000000 )
               b(3) = (  0.000000  0.000000  0.218084 )

     PseudoPot. # 1 for W  read from file:
     /home/users/vossj/suncat/psp/gbrv1.5pbe/W.UPF
     MD5 check sum: 9c083fa34c2a2ea0f02f1f893e16e1c8
     Pseudo is Ultrasoft + core correction, Zval = 14.0
     Generated by new atomic code, or converted to UPF format
     Using radial grid of  923 points,  8 beta functions with:
                l(1) =   0
                l(2) =   0
                l(3) =   0
                l(4) =   1
                l(5) =   1
                l(6) =   2
                l(7) =   2
                l(8) =   3
     Q(r) pseudized with  6 coefficients,  rinner =    1.350   1.350   1.350
                                                       1.350   1.350   1.350
                                                       1.350

     PseudoPot. # 2 for Hg read from file:
     /home/users/vossj/suncat/psp/gbrv1.5pbe/Hg.UPF
     MD5 check sum: 8f42caffe07f7fd9c0a564347f8c5498
     Pseudo is Ultrasoft + core correction, Zval = 12.0
     Generated by new atomic code, or converted to UPF format
     Using radial grid of  985 points,  6 beta functions with:
                l(1) =   0
                l(2) =   0
                l(3) =   1
                l(4) =   1
                l(5) =   2
                l(6) =   2
     Q(r) pseudized with  8 coefficients,  rinner =    2.000   2.000   2.000
                                                       2.000   2.000

     vdW kernel table read from file vdW_kernel_table
     MD5 check sum: 095c7af220d748ca6e76c0b4c6cfb241

     atomic species   valence    mass     pseudopotential
        W1            14.00   183.85000     W ( 1.00)
        Hg1           12.00   200.59000     Hg( 1.00)

     16 Sym. Ops., with inversion, found

   Cartesian axes

     site n.     atom                  positions (alat units)
         1           W1  tau(   1) = (   0.0000000   0.0000000   0.0000000  )
         2           W1  tau(   2) = (   2.0026307   2.0026307   0.0000000  )
         3           Hg1 tau(   3) = (   2.0026307   0.0000000   2.2926897  )
         4           Hg1 tau(   4) = (   0.0000000   2.0026307   2.2926897  )

     number of k points=    75  Fermi-Dirac smearing, width (Ry)=  0.0073
                       cart. coord. in units 2pi/alat
        k(    1) = (   0.0000000   0.0000000   0.0000000), wk =   0.0027435
        k(    2) = (   0.0000000   0.0000000   0.0242316), wk =   0.0054870
        k(    3) = (   0.0000000   0.0000000   0.0484632), wk =   0.0054870
        k(    4) = (   0.0000000   0.0000000   0.0726948), wk =   0.0054870
        k(    5) = (   0.0000000   0.0000000   0.0969264), wk =   0.0054870
        k(    6) = (   0.0000000   0.0277413   0.0000000), wk =   0.0109739
        k(    7) = (   0.0000000   0.0277413   0.0242316), wk =   0.0219479
        k(    8) = (   0.0000000   0.0277413   0.0484632), wk =   0.0219479
        k(    9) = (   0.0000000   0.0277413   0.0726948), wk =   0.0219479
        k(   10) = (   0.0000000   0.0277413   0.0969264), wk =   0.0219479
        k(   11) = (   0.0000000   0.0554826   0.0000000), wk =   0.0109739
        k(   12) = (   0.0000000   0.0554826   0.0242316), wk =   0.0219479
        k(   13) = (   0.0000000   0.0554826   0.0484632), wk =   0.0219479
        k(   14) = (   0.0000000   0.0554826   0.0726948), wk =   0.0219479
        k(   15) = (   0.0000000   0.0554826   0.0969264), wk =   0.0219479
        k(   16) = (   0.0000000   0.0832239   0.0000000), wk =   0.0109739
        k(   17) = (   0.0000000   0.0832239   0.0242316), wk =   0.0219479
        k(   18) = (   0.0000000   0.0832239   0.0484632), wk =   0.0219479
        k(   19) = (   0.0000000   0.0832239   0.0726948), wk =   0.0219479
        k(   20) = (   0.0000000   0.0832239   0.0969264), wk =   0.0219479
        k(   21) = (   0.0000000   0.1109652   0.0000000), wk =   0.0109739
        k(   22) = (   0.0000000   0.1109652   0.0242316), wk =   0.0219479
        k(   23) = (   0.0000000   0.1109652   0.0484632), wk =   0.0219479
        k(   24) = (   0.0000000   0.1109652   0.0726948), wk =   0.0219479
        k(   25) = (   0.0000000   0.1109652   0.0969264), wk =   0.0219479
        k(   26) = (   0.0277413   0.0277413   0.0000000), wk =   0.0109739
        k(   27) = (   0.0277413   0.0277413   0.0242316), wk =   0.0219479
        k(   28) = (   0.0277413   0.0277413   0.0484632), wk =   0.0219479
        k(   29) = (   0.0277413   0.0277413   0.0726948), wk =   0.0219479
        k(   30) = (   0.0277413   0.0277413   0.0969264), wk =   0.0219479
        k(   31) = (   0.0277413   0.0554826   0.0000000), wk =   0.0219479
        k(   32) = (   0.0277413   0.0554826   0.0242316), wk =   0.0438957
        k(   33) = (   0.0277413   0.0554826   0.0484632), wk =   0.0438957
        k(   34) = (   0.0277413   0.0554826   0.0726948), wk =   0.0438957
        k(   35) = (   0.0277413   0.0554826   0.0969264), wk =   0.0438957
        k(   36) = (   0.0277413   0.0832239   0.0000000), wk =   0.0219479
        k(   37) = (   0.0277413   0.0832239   0.0242316), wk =   0.0438957
        k(   38) = (   0.0277413   0.0832239   0.0484632), wk =   0.0438957
        k(   39) = (   0.0277413   0.0832239   0.0726948), wk =   0.0438957
        k(   40) = (   0.0277413   0.0832239   0.0969264), wk =   0.0438957
        k(   41) = (   0.0277413   0.1109652   0.0000000), wk =   0.0219479
        k(   42) = (   0.0277413   0.1109652   0.0242316), wk =   0.0438957
        k(   43) = (   0.0277413   0.1109652   0.0484632), wk =   0.0438957
        k(   44) = (   0.0277413   0.1109652   0.0726948), wk =   0.0438957
        k(   45) = (   0.0277413   0.1109652   0.0969264), wk =   0.0438957
        k(   46) = (   0.0554826   0.0554826   0.0000000), wk =   0.0109739
        k(   47) = (   0.0554826   0.0554826   0.0242316), wk =   0.0219479
        k(   48) = (   0.0554826   0.0554826   0.0484632), wk =   0.0219479
        k(   49) = (   0.0554826   0.0554826   0.0726948), wk =   0.0219479
        k(   50) = (   0.0554826   0.0554826   0.0969264), wk =   0.0219479
        k(   51) = (   0.0554826   0.0832239   0.0000000), wk =   0.0219479
        k(   52) = (   0.0554826   0.0832239   0.0242316), wk =   0.0438957
        k(   53) = (   0.0554826   0.0832239   0.0484632), wk =   0.0438957
        k(   54) = (   0.0554826   0.0832239   0.0726948), wk =   0.0438957
        k(   55) = (   0.0554826   0.0832239   0.0969264), wk =   0.0438957
        k(   56) = (   0.0554826   0.1109652   0.0000000), wk =   0.0219479
        k(   57) = (   0.0554826   0.1109652   0.0242316), wk =   0.0438957
        k(   58) = (   0.0554826   0.1109652   0.0484632), wk =   0.0438957
        k(   59) = (   0.0554826   0.1109652   0.0726948), wk =   0.0438957
        k(   60) = (   0.0554826   0.1109652   0.0969264), wk =   0.0438957
        k(   61) = (   0.0832239   0.0832239   0.0000000), wk =   0.0109739
        k(   62) = (   0.0832239   0.0832239   0.0242316), wk =   0.0219479
        k(   63) = (   0.0832239   0.0832239   0.0484632), wk =   0.0219479
        k(   64) = (   0.0832239   0.0832239   0.0726948), wk =   0.0219479
        k(   65) = (   0.0832239   0.0832239   0.0969264), wk =   0.0219479
        k(   66) = (   0.0832239   0.1109652   0.0000000), wk =   0.0219479
        k(   67) = (   0.0832239   0.1109652   0.0242316), wk =   0.0438957
        k(   68) = (   0.0832239   0.1109652   0.0484632), wk =   0.0438957
        k(   69) = (   0.0832239   0.1109652   0.0726948), wk =   0.0438957
        k(   70) = (   0.0832239   0.1109652   0.0969264), wk =   0.0438957
        k(   71) = (   0.1109652   0.1109652   0.0000000), wk =   0.0109739
        k(   72) = (   0.1109652   0.1109652   0.0242316), wk =   0.0219479
        k(   73) = (   0.1109652   0.1109652   0.0484632), wk =   0.0219479
        k(   74) = (   0.1109652   0.1109652   0.0726948), wk =   0.0219479
        k(   75) = (   0.1109652   0.1109652   0.0969264), wk =   0.0219479

     Largest allocated arrays     est. size (Mb)     dimensions
     Largest temporary arrays     est. size (Mb)     dimensions

     Initial potential from superposition of free atoms
     Check: negative starting charge=   -0.125213

     starting charge   51.79920, renormalised to   52.00000

     negative rho (up, down):  1.257E-01 0.000E+00

     *
     * You are using vdW-DF for exchange-correlation in this calculation.
     * Please cite the following three references that made this development
     * possible:
     *
     *   M. Dion, H. Rydberg, E. Schroder, D. C. Langreth, and
     *   B. I. Lundqvist, Phys. Rev. Lett. 92, 246401 (2004).
     *
     *   T. Thonhauser, V. R. Cooper, S. Li, A. Puzder, P. Hyldgaard, and
     *   D. C. Langreth, Phys. Rev. B 76, 125112 (2007).
     *
     *   G. Roman-Perez and J. M. Soler, Phys. Rev. Lett. 103, 096102 (2009).
     *
     *
     * If you are using vdW-DF2, please also cite:
     *
     *   K. Lee, E. D. Murray, L. Kong, B. I. Lundqvist, and
     *   D. C. Langreth, Phys. Rev. B 82, 081101(R) (2010).
     *
     *
     * If you are calculating the stress with vdW-DF, please also cite:
     *
     *   R. Sabatini, E. Kucukbenli, B. Kolb, T. Thonhauser, and
     *   S. de Gironcoli, J. Phys.: Condens. Matter 24, 424209 (2012).
     *

     Carrying out vdW-DF run using the following parameters:

     Nqs =      20    Nr_points =    1024   r_max =   100.000
     q_mesh =
               0.00001000     0.04494208     0.09755937     0.15916263
               0.23128650     0.31572767     0.41458969     0.53033537
               0.66584808     0.82450364     1.01025438     1.22772762
               1.48234092     1.78043706     2.12944203     2.53805004
               3.01644009     3.57652955     4.23227104     5.00000000

     Gradients computed in reciprocal space

     Starting wfc are   44 randomized atomic wfcs +    2 random wfc

     Self-consistent Calculation

     iteration #  1     ecut=    58.80 Ry     beta=0.10
     Davidson diagonalization with overlap
     ethr =  1.00E-02,  avg # of iterations =  4.9

[...]

     total energy              =    -538.93152862 Ry
     Harris-Foulkes estimate   =    -539.02493963 Ry
     estimated scf accuracy    <       0.56545652 Ry

[...]

     total energy              =    -538.90147794 Ry
     Harris-Foulkes estimate   =    -538.90147850 Ry
     estimated scf accuracy    <       0.00000131 Ry

     iteration # 11     ecut=    58.80 Ry     beta=0.10
     Davidson diagonalization with overlap
     ethr =  2.52E-09,  avg # of iterations =  2.0

     negative rho (up, down):  1.377E-01 0.000E+00

     End of self-consistent calculation

          k = 0.0000 0.0000 0.0000 (  3761 PWs)   bands (ev):

   -57.2175 -57.1441 -21.4858 -21.4858 -21.3757 -21.2436 -20.9413 -20.9413
     7.0162   8.0330   8.0449   8.5470   8.8008   8.8008   9.5823  10.2246
    10.2246  10.8645  11.7293  14.1863  14.3561  14.4203  16.4682  17.1483
    17.1483  18.4115  18.4115  18.4216  19.4610  19.4610  20.9154  21.9489
    22.3262  22.7899  24.2222  26.5858  26.5858  26.8998  27.2359  27.6757
    27.6757  30.2785  32.4710  33.7104  34.5643  35.2574

[...]

          k = 0.1110 0.1110 0.0969 (  3756 PWs)   bands (ev):

   -57.1816 -57.1794 -21.5589 -21.5432 -21.3120 -21.3079 -20.9065 -20.8893
     8.2946   8.3865   8.4106   8.4231   9.7069   9.7222   9.8186   9.9125
    10.3469  10.3907  13.1224  13.6610  14.4775  14.6936  15.3529  15.6489
    16.2667  16.4308  18.4899  18.4998  18.5074  18.6797  19.6708  19.6806
    20.7035  20.9218  24.6222  24.6553  28.5102  28.5561  29.3553  29.5530
    32.7194  32.7435  32.8227  32.9048  33.1940  33.2843

     the Fermi energy is    17.7635 ev

!    total energy              =    -538.90147879 Ry
     Harris-Foulkes estimate   =    -538.90147828 Ry
     estimated scf accuracy    <       0.00000030 Ry

     The total energy is the sum of the following terms:

     one-electron contribution =     -44.61534701 Ry
     hartree contribution      =      64.07129846 Ry
     xc contribution           =    -166.14917577 Ry
     ewald contribution        =    -392.20083165 Ry
     smearing contrib. (-TS)   =      -0.00742282 Ry

     convergence has been achieved in  11 iterations

     Forces acting on atoms (Ry/au):

     negative rho (up, down):  1.377E-01 0.000E+00
     atom    1 type  1   force =     0.00000000    0.00000000    0.00000000
     atom    2 type  1   force =     0.00000000    0.00000000    0.00000000
     atom    3 type  2   force =     0.00000000    0.00000000    0.00000000
     atom    4 type  2   force =     0.00000000    0.00000000    0.00000000

     Total force =     0.000000     Total SCF correction =     0.000000

     General routines

     Parallel routines

   This run was terminated on:   9:33: 5  14Nov2017

   JOB DONE.