     Program PWSCF v.5.1rc2 starts on 14Nov2017 at 21:30:56

     Current dimensions of program PWSCF are:
     Max number of different atomic species (ntypx) = 10
     Max number of k-points (npk) =  40000
     Max angular momentum in pseudopotentials (lmaxx) =  3

     IMPORTANT: XC functional enforced from input :
     Exchange-correlation      = BEEF-VDW ( 1  4 27 13 2)
     Any further DFT definition will be discarded
     Please, verify this is what you really want

     Found symmetry operation: I + (  0.5000  0.5000  0.0000)
     This is a supercell, fractional translations are disabled

     bravais-lattice index     =            0
     lattice parameter (alat)  =       1.8897  a.u.
     unit-cell volume          =     629.8274 (a.u.)^3
     number of atoms/cell      =            4
     number of atomic types    =            2
     number of electrons       =        48.00
     number of Kohn-Sham states=           44
     kinetic-energy cutoff     =      58.7989  Ry
     charge density cutoff     =     587.9892  Ry
     convergence threshold     =      1.0E-06
     mixing beta               =       0.1000
     number of iterations used =           10  plain     mixing
     Exchange-correlation      = BEEF-VDW ( 1  4 27 13 2)

     celldm(1)=   1.889726  celldm(2)=   0.000000  celldm(3)=   0.000000
     celldm(4)=   0.000000  celldm(5)=   0.000000  celldm(6)=   0.000000

     crystal axes: (cart. coord. in units of alat)
               a(1) = (   4.305585   0.000000   0.000000 )
               a(2) = (   0.000000   4.305585   0.000000 )
               a(3) = (   0.000000   0.000000   5.034549 )

     reciprocal axes: (cart. coord. in units 2 pi/alat)
               b(1) = (  0.232256  0.000000  0.000000 )
               b(2) = (  0.000000  0.232256  0.000000 )
               b(3) = (  0.000000  0.000000  0.198628 )

     PseudoPot. # 1 for Nb read from file:
     /home/users/vossj/suncat/psp/gbrv1.5pbe/Nb.UPF
     MD5 check sum: 573aab8a2fa660278ed4a62cd769473f
     Pseudo is Ultrasoft + core correction, Zval = 13.0
     Generated by new atomic code, or converted to UPF format
     Using radial grid of  887 points,  6 beta functions with:
                l(1) =   0
                l(2) =   0
                l(3) =   1
                l(4) =   1
                l(5) =   2
                l(6) =   2
     Q(r) pseudized with  6 coefficients,  rinner =    1.000   1.000   1.000
                                                       1.000   1.000

     PseudoPot. # 2 for Y  read from file:
     /home/users/vossj/suncat/psp/gbrv1.5pbe/Y.UPF
     MD5 check sum: d034151ed7554c50b6e82763ed42c788
     Pseudo is Ultrasoft + core correction, Zval = 11.0
     Generated by new atomic code, or converted to UPF format
     Using radial grid of  885 points,  6 beta functions with:
                l(1) =   0
                l(2) =   0
                l(3) =   1
                l(4) =   1
                l(5) =   2
                l(6) =   2
     Q(r) pseudized with  8 coefficients,  rinner =    1.200   1.200   1.200
                                                       1.200   1.200

     vdW kernel table read from file vdW_kernel_table
     MD5 check sum: 095c7af220d748ca6e76c0b4c6cfb241

     atomic species   valence    mass     pseudopotential
        Nb1           13.00    92.90640     Nb( 1.00)
        Y1            11.00    88.90590     Y ( 1.00)

     16 Sym. Ops., with inversion, found

   Cartesian axes

     site n.     atom                  positions (alat units)
         1           Nb1 tau(   1) = (   0.0000000   0.0000000   0.0000000  )
         2           Nb1 tau(   2) = (   2.1527926   2.1527926   0.0000000  )
         3           Y1  tau(   3) = (   2.1527926   0.0000000   2.5172743  )
         4           Y1  tau(   4) = (   0.0000000   2.1527926   2.5172743  )

     number of k points=    75  Fermi-Dirac smearing, width (Ry)=  0.0073
                       cart. coord. in units 2pi/alat
        k(    1) = (   0.0000000   0.0000000   0.0000000), wk =   0.0027435
        k(    2) = (   0.0000000   0.0000000   0.0220697), wk =   0.0054870
        k(    3) = (   0.0000000   0.0000000   0.0441395), wk =   0.0054870
        k(    4) = (   0.0000000   0.0000000   0.0662092), wk =   0.0054870
        k(    5) = (   0.0000000   0.0000000   0.0882789), wk =   0.0054870
        k(    6) = (   0.0000000   0.0258063   0.0000000), wk =   0.0109739
        k(    7) = (   0.0000000   0.0258063   0.0220697), wk =   0.0219479
        k(    8) = (   0.0000000   0.0258063   0.0441395), wk =   0.0219479
        k(    9) = (   0.0000000   0.0258063   0.0662092), wk =   0.0219479
        k(   10) = (   0.0000000   0.0258063   0.0882789), wk =   0.0219479
        k(   11) = (   0.0000000   0.0516125   0.0000000), wk =   0.0109739
        k(   12) = (   0.0000000   0.0516125   0.0220697), wk =   0.0219479
        k(   13) = (   0.0000000   0.0516125   0.0441395), wk =   0.0219479
        k(   14) = (   0.0000000   0.0516125   0.0662092), wk =   0.0219479
        k(   15) = (   0.0000000   0.0516125   0.0882789), wk =   0.0219479
        k(   16) = (   0.0000000   0.0774188   0.0000000), wk =   0.0109739
        k(   17) = (   0.0000000   0.0774188   0.0220697), wk =   0.0219479
        k(   18) = (   0.0000000   0.0774188   0.0441395), wk =   0.0219479
        k(   19) = (   0.0000000   0.0774188   0.0662092), wk =   0.0219479
        k(   20) = (   0.0000000   0.0774188   0.0882789), wk =   0.0219479
        k(   21) = (   0.0000000   0.1032251   0.0000000), wk =   0.0109739
        k(   22) = (   0.0000000   0.1032251   0.0220697), wk =   0.0219479
        k(   23) = (   0.0000000   0.1032251   0.0441395), wk =   0.0219479
        k(   24) = (   0.0000000   0.1032251   0.0662092), wk =   0.0219479
        k(   25) = (   0.0000000   0.1032251   0.0882789), wk =   0.0219479
        k(   26) = (   0.0258063   0.0258063   0.0000000), wk =   0.0109739
        k(   27) = (   0.0258063   0.0258063   0.0220697), wk =   0.0219479
        k(   28) = (   0.0258063   0.0258063   0.0441395), wk =   0.0219479
        k(   29) = (   0.0258063   0.0258063   0.0662092), wk =   0.0219479
        k(   30) = (   0.0258063   0.0258063   0.0882789), wk =   0.0219479
        k(   31) = (   0.0258063   0.0516125   0.0000000), wk =   0.0219479
        k(   32) = (   0.0258063   0.0516125   0.0220697), wk =   0.0438957
        k(   33) = (   0.0258063   0.0516125   0.0441395), wk =   0.0438957
        k(   34) = (   0.0258063   0.0516125   0.0662092), wk =   0.0438957
        k(   35) = (   0.0258063   0.0516125   0.0882789), wk =   0.0438957
        k(   36) = (   0.0258063   0.0774188   0.0000000), wk =   0.0219479
        k(   37) = (   0.0258063   0.0774188   0.0220697), wk =   0.0438957
        k(   38) = (   0.0258063   0.0774188   0.0441395), wk =   0.0438957
        k(   39) = (   0.0258063   0.0774188   0.0662092), wk =   0.0438957
        k(   40) = (   0.0258063   0.0774188   0.0882789), wk =   0.0438957
        k(   41) = (   0.0258063   0.1032251   0.0000000), wk =   0.0219479
        k(   42) = (   0.0258063   0.1032251   0.0220697), wk =   0.0438957
        k(   43) = (   0.0258063   0.1032251   0.0441395), wk =   0.0438957
        k(   44) = (   0.0258063   0.1032251   0.0662092), wk =   0.0438957
        k(   45) = (   0.0258063   0.1032251   0.0882789), wk =   0.0438957
        k(   46) = (   0.0516125   0.0516125   0.0000000), wk =   0.0109739
        k(   47) = (   0.0516125   0.0516125   0.0220697), wk =   0.0219479
        k(   48) = (   0.0516125   0.0516125   0.0441395), wk =   0.0219479
        k(   49) = (   0.0516125   0.0516125   0.0662092), wk =   0.0219479
        k(   50) = (   0.0516125   0.0516125   0.0882789), wk =   0.0219479
        k(   51) = (   0.0516125   0.0774188   0.0000000), wk =   0.0219479
        k(   52) = (   0.0516125   0.0774188   0.0220697), wk =   0.0438957
        k(   53) = (   0.0516125   0.0774188   0.0441395), wk =   0.0438957
        k(   54) = (   0.0516125   0.0774188   0.0662092), wk =   0.0438957
        k(   55) = (   0.0516125   0.0774188   0.0882789), wk =   0.0438957
        k(   56) = (   0.0516125   0.1032251   0.0000000), wk =   0.0219479
        k(   57) = (   0.0516125   0.1032251   0.0220697), wk =   0.0438957
        k(   58) = (   0.0516125   0.1032251   0.0441395), wk =   0.0438957
        k(   59) = (   0.0516125   0.1032251   0.0662092), wk =   0.0438957
        k(   60) = (   0.0516125   0.1032251   0.0882789), wk =   0.0438957
        k(   61) = (   0.0774188   0.0774188   0.0000000), wk =   0.0109739
        k(   62) = (   0.0774188   0.0774188   0.0220697), wk =   0.0219479
        k(   63) = (   0.0774188   0.0774188   0.0441395), wk =   0.0219479
        k(   64) = (   0.0774188   0.0774188   0.0662092), wk =   0.0219479
        k(   65) = (   0.0774188   0.0774188   0.0882789), wk =   0.0219479
        k(   66) = (   0.0774188   0.1032251   0.0000000), wk =   0.0219479
        k(   67) = (   0.0774188   0.1032251   0.0220697), wk =   0.0438957
        k(   68) = (   0.0774188   0.1032251   0.0441395), wk =   0.0438957
        k(   69) = (   0.0774188   0.1032251   0.0662092), wk =   0.0438957
        k(   70) = (   0.0774188   0.1032251   0.0882789), wk =   0.0438957
        k(   71) = (   0.1032251   0.1032251   0.0000000), wk =   0.0109739
        k(   72) = (   0.1032251   0.1032251   0.0220697), wk =   0.0219479
        k(   73) = (   0.1032251   0.1032251   0.0441395), wk =   0.0219479
        k(   74) = (   0.1032251   0.1032251   0.0662092), wk =   0.0219479
        k(   75) = (   0.1032251   0.1032251   0.0882789), wk =   0.0219479

     Largest allocated arrays     est. size (Mb)     dimensions
     Largest temporary arrays     est. size (Mb)     dimensions

     Initial potential from superposition of free atoms

     starting charge   47.98560, renormalised to   48.00000

     *
     * You are using vdW-DF for exchange-correlation in this calculation.
     * Please cite the following three references that made this development
     * possible:
     *
     *   M. Dion, H. Rydberg, E. Schroder, D. C. Langreth, and
     *   B. I. Lundqvist, Phys. Rev. Lett. 92, 246401 (2004).
     *
     *   T. Thonhauser, V. R. Cooper, S. Li, A. Puzder, P. Hyldgaard, and
     *   D. C. Langreth, Phys. Rev. B 76, 125112 (2007).
     *
     *   G. Roman-Perez and J. M. Soler, Phys. Rev. Lett. 103, 096102 (2009).
     *
     *
     * If you are using vdW-DF2, please also cite:
     *
     *   K. Lee, E. D. Murray, L. Kong, B. I. Lundqvist, and
     *   D. C. Langreth, Phys. Rev. B 82, 081101(R) (2010).
     *
     *
     * If you are calculating the stress with vdW-DF, please also cite:
     *
     *   R. Sabatini, E. Kucukbenli, B. Kolb, T. Thonhauser, and
     *   S. de Gironcoli, J. Phys.: Condens. Matter 24, 424209 (2012).
     *

     Carrying out vdW-DF run using the following parameters:

     Nqs =      20    Nr_points =    1024   r_max =   100.000
     q_mesh =
               0.00001000     0.04494208     0.09755937     0.15916263
               0.23128650     0.31572767     0.41458969     0.53033537
               0.66584808     0.82450364     1.01025438     1.22772762
               1.48234092     1.78043706     2.12944203     2.53805004
               3.01644009     3.57652955     4.23227104     5.00000000

     Gradients computed in reciprocal space

     Starting wfc are   52 randomized atomic wfcs

     Self-consistent Calculation

     iteration #  1     ecut=    58.80 Ry     beta=0.10
     Davidson diagonalization with overlap
     ethr =  1.00E-02,  avg # of iterations =  4.1

     total energy              =    -424.41678960 Ry
     Harris-Foulkes estimate   =    -424.61049144 Ry
     estimated scf accuracy    <       1.15282950 Ry

[...]

     total energy              =    -424.47926337 Ry
     Harris-Foulkes estimate   =    -424.47925769 Ry
     estimated scf accuracy    <       0.00000133 Ry

     iteration # 10     ecut=    58.80 Ry     beta=0.10
     Davidson diagonalization with overlap
     ethr =  2.78E-09,  avg # of iterations =  1.5

     End of self-consistent calculation

          k = 0.0000 0.0000 0.0000 (  4767 PWs)   bands (ev):

   -41.4217 -41.3254 -28.8879 -28.6039 -17.6013 -17.6013 -17.4252 -17.3029
   -17.1614 -17.1614  -9.3608  -9.3608  -8.7503  -8.4552  -8.3300  -8.3300
     8.3187  10.6743  10.7675  10.7778  11.5729  11.5729  11.6014  13.9359
    15.0170  15.0170  15.3965  15.6911  16.9568  17.3440  17.6103  17.6103
    18.3038  18.3507  18.3507  19.4866  19.7363  19.7363  20.3639  21.3765
    22.2759  23.2911  23.9705  24.3059

[...]

          k = 0.1032 0.1032 0.0883 (  4804 PWs)   bands (ev):

   -41.3744 -41.3715 -28.7477 -28.7391 -17.6654 -17.6526 -17.3660 -17.3627
   -17.1320 -17.1183  -9.5385  -9.5102  -8.6088  -8.5989  -8.2519  -8.2176
    10.7259  10.7901  11.0175  11.0510  13.0971  13.1778  14.2340  14.3831
    14.5642  14.5852  14.8419  14.9308  15.1442  15.1547  15.1972  15.2997
    18.1680  18.1836  18.2304  18.4528  19.5573  19.5732  19.6866  19.7867
    22.7679  22.8885  23.7687  23.8669

     the Fermi energy is    13.5542 ev

!    total energy              =    -424.47928785 Ry
     Harris-Foulkes estimate   =    -424.47926352 Ry
     estimated scf accuracy    <       0.00000071 Ry

     The total energy is the sum of the following terms:

     one-electron contribution =     -80.38143742 Ry
     hartree contribution      =      59.50232729 Ry
     xc contribution           =     -94.87092329 Ry
     ewald contribution        =    -308.71739954 Ry
     smearing contrib. (-TS)   =      -0.01185488 Ry

     convergence has been achieved in  10 iterations

     Forces acting on atoms (Ry/au):

     atom    1 type  1   force =     0.00000000    0.00000000    0.00000000
     atom    2 type  1   force =     0.00000000    0.00000000    0.00000000
     atom    3 type  2   force =     0.00000000    0.00000000    0.00000000
     atom    4 type  2   force =     0.00000000    0.00000000    0.00000000

     Total force =     0.000000     Total SCF correction =     0.000000

     General routines

     Parallel routines

   This run was terminated on:  21:31:31  14Nov2017

   JOB DONE.