     Program PWSCF v.5.1rc2 starts on 15Nov2017 at  6:45:50

     Current dimensions of program PWSCF are:
     Max number of different atomic species (ntypx) = 10
     Max number of k-points (npk) =  40000
     Max angular momentum in pseudopotentials (lmaxx) =  3

     IMPORTANT: XC functional enforced from input :
     Exchange-correlation      = BEEF-VDW ( 1  4 27 13 2)
     Any further DFT definition will be discarded
     Please, verify this is what you really want

     Found symmetry operation: I + ( -0.5000 -0.5000  0.0000)
     This is a supercell, fractional translations are disabled

     bravais-lattice index     =            0
     lattice parameter (alat)  =       1.8897  a.u.
     unit-cell volume          =     342.4370 (a.u.)^3
     number of atoms/cell      =            4
     number of atomic types    =            2
     number of electrons       =        54.00
     number of Kohn-Sham states=           47
     kinetic-energy cutoff     =      58.7989  Ry
     charge density cutoff     =     587.9892  Ry
     convergence threshold     =      1.0E-06
     mixing beta               =       0.1000
     number of iterations used =           10  plain     mixing
     Exchange-correlation      = BEEF-VDW ( 1  4 27 13 2)

     celldm(1)=   1.889726  celldm(2)=   0.000000  celldm(3)=   0.000000
     celldm(4)=   0.000000  celldm(5)=   0.000000  celldm(6)=   0.000000

     crystal axes: (cart. coord. in units of alat)
               a(1) = (   3.400687   0.000000   0.000000 )
               a(2) = (   0.000000   3.400687   0.000000 )
               a(3) = (   0.000000   0.000000   4.387840 )

     reciprocal axes: (cart. coord. in units 2 pi/alat)
               b(1) = (  0.294058  0.000000  0.000000 )
               b(2) = (  0.000000  0.294058  0.000000 )
               b(3) = (  0.000000  0.000000  0.227903 )

     PseudoPot. # 1 for V  read from file:
     /home/users/vossj/suncat/psp/gbrv1.5pbe/V.UPF
     MD5 check sum: 22b79981416ebb76fdaf5b1b8640f6fb
     Pseudo is Ultrasoft + core correction, Zval = 13.0
     Generated by new atomic code, or converted to UPF format
     Using radial grid of  853 points,  6 beta functions with:
                l(1) =   0
                l(2) =   0
                l(3) =   1
                l(4) =   1
                l(5) =   2
                l(6) =   2
     Q(r) pseudized with  8 coefficients,  rinner =    1.100   1.100   1.100
                                                       1.100   1.100

     PseudoPot. # 2 for Cr read from file:
     /home/users/vossj/suncat/psp/gbrv1.5pbe/Cr.UPF
     MD5 check sum: 0d52af634a40206e4dee301ad30da4bf
     Pseudo is Ultrasoft + core correction, Zval = 14.0
     Generated by new atomic code, or converted to UPF format
     Using radial grid of  857 points,  6 beta functions with:
                l(1) =   0
                l(2) =   0
                l(3) =   1
                l(4) =   1
                l(5) =   2
                l(6) =   2
     Q(r) pseudized with  8 coefficients,  rinner =    0.950   0.950   0.950
                                                       0.950   0.950

     vdW kernel table read from file vdW_kernel_table
     MD5 check sum: 095c7af220d748ca6e76c0b4c6cfb241

     atomic species   valence    mass     pseudopotential
        V1            13.00    50.94150     V ( 1.00)
        Cr1           14.00    51.99600     Cr( 1.00)

     16 Sym. Ops., with inversion, found

   Cartesian axes

     site n.     atom                  positions (alat units)
         1           V1  tau(   1) = (   0.0000000   0.0000000   0.0000000  )
         2           V1  tau(   2) = (   1.7003435   1.7003435   0.0000000  )
         3           Cr1 tau(   3) = (   1.7003435   0.0000000   2.1939200  )
         4           Cr1 tau(   4) = (   0.0000000   1.7003435   2.1939200  )

     number of k points=    75  Fermi-Dirac smearing, width (Ry)=  0.0073
                       cart. coord. in units 2pi/alat
        k(    1) = (   0.0000000   0.0000000   0.0000000), wk =   0.0027435
        k(    2) = (   0.0000000   0.0000000   0.0253225), wk =   0.0054870
        k(    3) = (   0.0000000   0.0000000   0.0506450), wk =   0.0054870
        k(    4) = (   0.0000000   0.0000000   0.0759675), wk =   0.0054870
        k(    5) = (   0.0000000   0.0000000   0.1012900), wk =   0.0054870
        k(    6) = (   0.0000000   0.0326731   0.0000000), wk =   0.0109739
        k(    7) = (   0.0000000   0.0326731   0.0253225), wk =   0.0219479
        k(    8) = (   0.0000000   0.0326731   0.0506450), wk =   0.0219479
        k(    9) = (   0.0000000   0.0326731   0.0759675), wk =   0.0219479
        k(   10) = (   0.0000000   0.0326731   0.1012900), wk =   0.0219479
        k(   11) = (   0.0000000   0.0653463   0.0000000), wk =   0.0109739
        k(   12) = (   0.0000000   0.0653463   0.0253225), wk =   0.0219479
        k(   13) = (   0.0000000   0.0653463   0.0506450), wk =   0.0219479
        k(   14) = (   0.0000000   0.0653463   0.0759675), wk =   0.0219479
        k(   15) = (   0.0000000   0.0653463   0.1012900), wk =   0.0219479
        k(   16) = (   0.0000000   0.0980194   0.0000000), wk =   0.0109739
        k(   17) = (   0.0000000   0.0980194   0.0253225), wk =   0.0219479
        k(   18) = (   0.0000000   0.0980194   0.0506450), wk =   0.0219479
        k(   19) = (   0.0000000   0.0980194   0.0759675), wk =   0.0219479
        k(   20) = (   0.0000000   0.0980194   0.1012900), wk =   0.0219479
        k(   21) = (   0.0000000   0.1306925   0.0000000), wk =   0.0109739
        k(   22) = (   0.0000000   0.1306925   0.0253225), wk =   0.0219479
        k(   23) = (   0.0000000   0.1306925   0.0506450), wk =   0.0219479
        k(   24) = (   0.0000000   0.1306925   0.0759675), wk =   0.0219479
        k(   25) = (   0.0000000   0.1306925   0.1012900), wk =   0.0219479
        k(   26) = (   0.0326731   0.0326731   0.0000000), wk =   0.0109739
        k(   27) = (   0.0326731   0.0326731   0.0253225), wk =   0.0219479
        k(   28) = (   0.0326731   0.0326731   0.0506450), wk =   0.0219479
        k(   29) = (   0.0326731   0.0326731   0.0759675), wk =   0.0219479
        k(   30) = (   0.0326731   0.0326731   0.1012900), wk =   0.0219479
        k(   31) = (   0.0326731   0.0653463   0.0000000), wk =   0.0219479
        k(   32) = (   0.0326731   0.0653463   0.0253225), wk =   0.0438957
        k(   33) = (   0.0326731   0.0653463   0.0506450), wk =   0.0438957
        k(   34) = (   0.0326731   0.0653463   0.0759675), wk =   0.0438957
        k(   35) = (   0.0326731   0.0653463   0.1012900), wk =   0.0438957
        k(   36) = (   0.0326731   0.0980194   0.0000000), wk =   0.0219479
        k(   37) = (   0.0326731   0.0980194   0.0253225), wk =   0.0438957
        k(   38) = (   0.0326731   0.0980194   0.0506450), wk =   0.0438957
        k(   39) = (   0.0326731   0.0980194   0.0759675), wk =   0.0438957
        k(   40) = (   0.0326731   0.0980194   0.1012900), wk =   0.0438957
        k(   41) = (   0.0326731   0.1306925   0.0000000), wk =   0.0219479
        k(   42) = (   0.0326731   0.1306925   0.0253225), wk =   0.0438957
        k(   43) = (   0.0326731   0.1306925   0.0506450), wk =   0.0438957
        k(   44) = (   0.0326731   0.1306925   0.0759675), wk =   0.0438957
        k(   45) = (   0.0326731   0.1306925   0.1012900), wk =   0.0438957
        k(   46) = (   0.0653463   0.0653463   0.0000000), wk =   0.0109739
        k(   47) = (   0.0653463   0.0653463   0.0253225), wk =   0.0219479
        k(   48) = (   0.0653463   0.0653463   0.0506450), wk =   0.0219479
        k(   49) = (   0.0653463   0.0653463   0.0759675), wk =   0.0219479
        k(   50) = (   0.0653463   0.0653463   0.1012900), wk =   0.0219479
        k(   51) = (   0.0653463   0.0980194   0.0000000), wk =   0.0219479
        k(   52) = (   0.0653463   0.0980194   0.0253225), wk =   0.0438957
        k(   53) = (   0.0653463   0.0980194   0.0506450), wk =   0.0438957
        k(   54) = (   0.0653463   0.0980194   0.0759675), wk =   0.0438957
        k(   55) = (   0.0653463   0.0980194   0.1012900), wk =   0.0438957
        k(   56) = (   0.0653463   0.1306925   0.0000000), wk =   0.0219479
        k(   57) = (   0.0653463   0.1306925   0.0253225), wk =   0.0438957
        k(   58) = (   0.0653463   0.1306925   0.0506450), wk =   0.0438957
        k(   59) = (   0.0653463   0.1306925   0.0759675), wk =   0.0438957
        k(   60) = (   0.0653463   0.1306925   0.1012900), wk =   0.0438957
        k(   61) = (   0.0980194   0.0980194   0.0000000), wk =   0.0109739
        k(   62) = (   0.0980194   0.0980194   0.0253225), wk =   0.0219479
        k(   63) = (   0.0980194   0.0980194   0.0506450), wk =   0.0219479
        k(   64) = (   0.0980194   0.0980194   0.0759675), wk =   0.0219479
        k(   65) = (   0.0980194   0.0980194   0.1012900), wk =   0.0219479
        k(   66) = (   0.0980194   0.1306925   0.0000000), wk =   0.0219479
        k(   67) = (   0.0980194   0.1306925   0.0253225), wk =   0.0438957
        k(   68) = (   0.0980194   0.1306925   0.0506450), wk =   0.0438957
        k(   69) = (   0.0980194   0.1306925   0.0759675), wk =   0.0438957
        k(   70) = (   0.0980194   0.1306925   0.1012900), wk =   0.0438957
        k(   71) = (   0.1306925   0.1306925   0.0000000), wk =   0.0109739
        k(   72) = (   0.1306925   0.1306925   0.0253225), wk =   0.0219479
        k(   73) = (   0.1306925   0.1306925   0.0506450), wk =   0.0219479
        k(   74) = (   0.1306925   0.1306925   0.0759675), wk =   0.0219479
        k(   75) = (   0.1306925   0.1306925   0.1012900), wk =   0.0219479

     Largest allocated arrays     est. size (Mb)     dimensions
     Largest temporary arrays     est. size (Mb)     dimensions

     Check: negative/imaginary core charge=   -0.000007    0.000000

     Initial potential from superposition of free atoms
     Check: negative starting charge=   -0.002146

     starting charge   51.99751, renormalised to   54.00000

     negative rho (up, down):  2.229E-03 0.000E+00

     *
     * You are using vdW-DF for exchange-correlation in this calculation.
     * Please cite the following three references that made this development
     * possible:
     *
     *   M. Dion, H. Rydberg, E. Schroder, D. C. Langreth, and
     *   B. I. Lundqvist, Phys. Rev. Lett. 92, 246401 (2004).
     *
     *   T. Thonhauser, V. R. Cooper, S. Li, A. Puzder, P. Hyldgaard, and
     *   D. C. Langreth, Phys. Rev. B 76, 125112 (2007).
     *
     *   G. Roman-Perez and J. M. Soler, Phys. Rev. Lett. 103, 096102 (2009).
     *
     *
     * If you are using vdW-DF2, please also cite:
     *
     *   K. Lee, E. D. Murray, L. Kong, B. I. Lundqvist, and
     *   D. C. Langreth, Phys. Rev. B 82, 081101(R) (2010).
     *
     *
     * If you are calculating the stress with vdW-DF, please also cite:
     *
     *   R. Sabatini, E. Kucukbenli, B. Kolb, T. Thonhauser, and
     *   S. de Gironcoli, J. Phys.: Condens. Matter 24, 424209 (2012).
     *

     Carrying out vdW-DF run using the following parameters:

     Nqs =      20    Nr_points =    1024   r_max =   100.000
     q_mesh =
               0.00001000     0.04494208     0.09755937     0.15916263
               0.23128650     0.31572767     0.41458969     0.53033537
               0.66584808     0.82450364     1.01025438     1.22772762
               1.48234092     1.78043706     2.12944203     2.53805004
               3.01644009     3.57652955     4.23227104     5.00000000

     Gradients computed in reciprocal space

     Starting wfc are   40 randomized atomic wfcs +    7 random wfc

     Self-consistent Calculation

     iteration #  1     ecut=    58.80 Ry     beta=0.10
     Davidson diagonalization with overlap
     ethr =  1.00E-02,  avg # of iterations =  3.6

[...]

     total energy              =    -643.59407626 Ry
     Harris-Foulkes estimate   =    -645.24344340 Ry
     estimated scf accuracy    <       9.23904500 Ry

[...]

     total energy              =    -644.17674409 Ry
     Harris-Foulkes estimate   =    -644.17674408 Ry
     estimated scf accuracy    <       0.00000247 Ry

     iteration # 20     ecut=    58.80 Ry     beta=0.10
     Davidson diagonalization with overlap
     ethr =  4.58E-09,  avg # of iterations =  1.7

     negative rho (up, down):  2.762E-03 0.000E+00

     End of self-consistent calculation

          k = 0.0000 0.0000 0.0000 (  2565 PWs)   bands (ev):

   -54.4362 -54.2081 -46.7686 -46.3978 -25.9616 -25.9616 -25.6980 -25.5042
   -25.2973 -25.2973 -20.8957 -20.8957 -20.5238 -20.2598 -19.9172 -19.9172
    10.2900  13.4665  13.4952  13.5922  14.5022  14.6154  14.6154  15.7955
    17.1909  17.7999  18.1381  18.1381  19.2669  19.2669  19.2908  19.6606
    20.1418  20.4339  20.4339  20.7132  21.0140  22.2158  23.2149  23.2149
    26.1246  29.4869  30.3464  31.1390  31.3056  32.2075  32.2075

[...]

          k = 0.1307 0.1307 0.1013 (  2610 PWs)   bands (ev):

   -54.3232 -54.3163 -46.5847 -46.5735 -26.0696 -26.0503 -25.6000 -25.5947
   -25.2514 -25.2308 -21.0601 -21.0320 -20.3936 -20.3851 -19.8471 -19.8161
    13.6973  13.7773  13.8464  13.8919  15.8329  15.9398  16.3394  16.4818
    17.3762  17.9329  17.9539  18.0092  18.3855  18.4071  18.4151  18.5234
    19.6680  19.8802  20.0577  20.3196  20.3699  20.4077  20.6514  20.7568
    26.6340  26.8734  27.3565  27.6484  32.7896  33.0905  33.4694

     the Fermi energy is    17.3532 ev

!    total energy              =    -644.17674535 Ry
     Harris-Foulkes estimate   =    -644.17674423 Ry
     estimated scf accuracy    <       0.00000031 Ry

     The total energy is the sum of the following terms:

     one-electron contribution =    -217.40854589 Ry
     hartree contribution      =     137.32245126 Ry
     xc contribution           =     -87.56302341 Ry
     ewald contribution        =    -476.51910828 Ry
     smearing contrib. (-TS)   =      -0.00851904 Ry

     convergence has been achieved in  20 iterations

     Forces acting on atoms (Ry/au):

     negative rho (up, down):  2.762E-03 0.000E+00
     atom    1 type  1   force =     0.00000000    0.00000000    0.00000000
     atom    2 type  1   force =     0.00000000    0.00000000    0.00000000
     atom    3 type  2   force =     0.00000000    0.00000000    0.00000000
     atom    4 type  2   force =     0.00000000    0.00000000    0.00000000

     Total force =     0.000000     Total SCF correction =     0.000000

     General routines

     Parallel routines

   This run was terminated on:   6:46:34  15Nov2017

   JOB DONE.