     Program PWSCF v.5.1rc2 starts on 14Nov2017 at  9:57:59

     Current dimensions of program PWSCF are:
     Max number of different atomic species (ntypx) = 10
     Max number of k-points (npk) =  40000
     Max angular momentum in pseudopotentials (lmaxx) =  3

     IMPORTANT: XC functional enforced from input :
     Exchange-correlation      = BEEF-VDW ( 1  4 27 13 2)
     Any further DFT definition will be discarded
     Please, verify this is what you really want

     Found symmetry operation: I + ( -0.5000 -0.5000  0.0000)
     This is a supercell, fractional translations are disabled

     bravais-lattice index     =            0
     lattice parameter (alat)  =       1.8897  a.u.
     unit-cell volume          =     702.3592 (a.u.)^3
     number of atoms/cell      =            4
     number of atomic types    =            2
     number of electrons       =        46.00
     number of Kohn-Sham states=           43
     kinetic-energy cutoff     =      58.7989  Ry
     charge density cutoff     =     587.9892  Ry
     convergence threshold     =      1.0E-06
     mixing beta               =       0.1000
     number of iterations used =           10  plain     mixing
     Exchange-correlation      = BEEF-VDW ( 1  4 27 13 2)

     celldm(1)=   1.889726  celldm(2)=   0.000000  celldm(3)=   0.000000
     celldm(4)=   0.000000  celldm(5)=   0.000000  celldm(6)=   0.000000

     crystal axes: (cart. coord. in units of alat)
               a(1) = (   5.210417   0.000000   0.000000 )
               a(2) = (   0.000000   5.210417   0.000000 )
               a(3) = (   0.000000   0.000000   3.833697 )

     reciprocal axes: (cart. coord. in units 2 pi/alat)
               b(1) = (  0.191923  0.000000  0.000000 )
               b(2) = (  0.000000  0.191923  0.000000 )
               b(3) = (  0.000000  0.000000  0.260845 )

     PseudoPot. # 1 for Y  read from file:
     /home/users/vossj/suncat/psp/gbrv1.5pbe/Y.UPF
     MD5 check sum: d034151ed7554c50b6e82763ed42c788
     Pseudo is Ultrasoft + core correction, Zval = 11.0
     Generated by new atomic code, or converted to UPF format
     Using radial grid of  885 points,  6 beta functions with:
                l(1) =   0
                l(2) =   0
                l(3) =   1
                l(4) =   1
                l(5) =   2
                l(6) =   2
     Q(r) pseudized with  8 coefficients,  rinner =    1.200   1.200   1.200
                                                       1.200   1.200

     PseudoPot. # 2 for Hg read from file:
     /home/users/vossj/suncat/psp/gbrv1.5pbe/Hg.UPF
     MD5 check sum: 8f42caffe07f7fd9c0a564347f8c5498
     Pseudo is Ultrasoft + core correction, Zval = 12.0
     Generated by new atomic code, or converted to UPF format
     Using radial grid of  985 points,  6 beta functions with:
                l(1) =   0
                l(2) =   0
                l(3) =   1
                l(4) =   1
                l(5) =   2
                l(6) =   2
     Q(r) pseudized with  8 coefficients,  rinner =    2.000   2.000   2.000
                                                       2.000   2.000

     vdW kernel table read from file vdW_kernel_table
     MD5 check sum: 095c7af220d748ca6e76c0b4c6cfb241

     atomic species   valence    mass     pseudopotential
        Y1            11.00    88.90590     Y ( 1.00)
        Hg1           12.00   200.59000     Hg( 1.00)

     16 Sym. Ops., with inversion, found

   Cartesian axes

     site n.     atom                  positions (alat units)
         1           Y1  tau(   1) = (   0.0000000   0.0000000   0.0000000  )
         2           Y1  tau(   2) = (   2.6052084   2.6052084   0.0000000  )
         3           Hg1 tau(   3) = (   2.6052084   0.0000000   1.9168483  )
         4           Hg1 tau(   4) = (   0.0000000   2.6052084   1.9168483  )

     number of k points=    75  Fermi-Dirac smearing, width (Ry)=  0.0073
                       cart. coord. in units 2pi/alat
        k(    1) = (   0.0000000   0.0000000   0.0000000), wk =   0.0027435
        k(    2) = (   0.0000000   0.0000000   0.0289828), wk =   0.0054870
        k(    3) = (   0.0000000   0.0000000   0.0579655), wk =   0.0054870
        k(    4) = (   0.0000000   0.0000000   0.0869483), wk =   0.0054870
        k(    5) = (   0.0000000   0.0000000   0.1159310), wk =   0.0054870
        k(    6) = (   0.0000000   0.0213248   0.0000000), wk =   0.0109739
        k(    7) = (   0.0000000   0.0213248   0.0289828), wk =   0.0219479
        k(    8) = (   0.0000000   0.0213248   0.0579655), wk =   0.0219479
        k(    9) = (   0.0000000   0.0213248   0.0869483), wk =   0.0219479
        k(   10) = (   0.0000000   0.0213248   0.1159310), wk =   0.0219479
        k(   11) = (   0.0000000   0.0426496   0.0000000), wk =   0.0109739
        k(   12) = (   0.0000000   0.0426496   0.0289828), wk =   0.0219479
        k(   13) = (   0.0000000   0.0426496   0.0579655), wk =   0.0219479
        k(   14) = (   0.0000000   0.0426496   0.0869483), wk =   0.0219479
        k(   15) = (   0.0000000   0.0426496   0.1159310), wk =   0.0219479
        k(   16) = (   0.0000000   0.0639744   0.0000000), wk =   0.0109739
        k(   17) = (   0.0000000   0.0639744   0.0289828), wk =   0.0219479
        k(   18) = (   0.0000000   0.0639744   0.0579655), wk =   0.0219479
        k(   19) = (   0.0000000   0.0639744   0.0869483), wk =   0.0219479
        k(   20) = (   0.0000000   0.0639744   0.1159310), wk =   0.0219479
        k(   21) = (   0.0000000   0.0852992   0.0000000), wk =   0.0109739
        k(   22) = (   0.0000000   0.0852992   0.0289828), wk =   0.0219479
        k(   23) = (   0.0000000   0.0852992   0.0579655), wk =   0.0219479
        k(   24) = (   0.0000000   0.0852992   0.0869483), wk =   0.0219479
        k(   25) = (   0.0000000   0.0852992   0.1159310), wk =   0.0219479
        k(   26) = (   0.0213248   0.0213248   0.0000000), wk =   0.0109739
        k(   27) = (   0.0213248   0.0213248   0.0289828), wk =   0.0219479
        k(   28) = (   0.0213248   0.0213248   0.0579655), wk =   0.0219479
        k(   29) = (   0.0213248   0.0213248   0.0869483), wk =   0.0219479
        k(   30) = (   0.0213248   0.0213248   0.1159310), wk =   0.0219479
        k(   31) = (   0.0213248   0.0426496   0.0000000), wk =   0.0219479
        k(   32) = (   0.0213248   0.0426496   0.0289828), wk =   0.0438957
        k(   33) = (   0.0213248   0.0426496   0.0579655), wk =   0.0438957
        k(   34) = (   0.0213248   0.0426496   0.0869483), wk =   0.0438957
        k(   35) = (   0.0213248   0.0426496   0.1159310), wk =   0.0438957
        k(   36) = (   0.0213248   0.0639744   0.0000000), wk =   0.0219479
        k(   37) = (   0.0213248   0.0639744   0.0289828), wk =   0.0438957
        k(   38) = (   0.0213248   0.0639744   0.0579655), wk =   0.0438957
        k(   39) = (   0.0213248   0.0639744   0.0869483), wk =   0.0438957
        k(   40) = (   0.0213248   0.0639744   0.1159310), wk =   0.0438957
        k(   41) = (   0.0213248   0.0852992   0.0000000), wk =   0.0219479
        k(   42) = (   0.0213248   0.0852992   0.0289828), wk =   0.0438957
        k(   43) = (   0.0213248   0.0852992   0.0579655), wk =   0.0438957
        k(   44) = (   0.0213248   0.0852992   0.0869483), wk =   0.0438957
        k(   45) = (   0.0213248   0.0852992   0.1159310), wk =   0.0438957
        k(   46) = (   0.0426496   0.0426496   0.0000000), wk =   0.0109739
        k(   47) = (   0.0426496   0.0426496   0.0289828), wk =   0.0219479
        k(   48) = (   0.0426496   0.0426496   0.0579655), wk =   0.0219479
        k(   49) = (   0.0426496   0.0426496   0.0869483), wk =   0.0219479
        k(   50) = (   0.0426496   0.0426496   0.1159310), wk =   0.0219479
        k(   51) = (   0.0426496   0.0639744   0.0000000), wk =   0.0219479
        k(   52) = (   0.0426496   0.0639744   0.0289828), wk =   0.0438957
        k(   53) = (   0.0426496   0.0639744   0.0579655), wk =   0.0438957
        k(   54) = (   0.0426496   0.0639744   0.0869483), wk =   0.0438957
        k(   55) = (   0.0426496   0.0639744   0.1159310), wk =   0.0438957
        k(   56) = (   0.0426496   0.0852992   0.0000000), wk =   0.0219479
        k(   57) = (   0.0426496   0.0852992   0.0289828), wk =   0.0438957
        k(   58) = (   0.0426496   0.0852992   0.0579655), wk =   0.0438957
        k(   59) = (   0.0426496   0.0852992   0.0869483), wk =   0.0438957
        k(   60) = (   0.0426496   0.0852992   0.1159310), wk =   0.0438957
        k(   61) = (   0.0639744   0.0639744   0.0000000), wk =   0.0109739
        k(   62) = (   0.0639744   0.0639744   0.0289828), wk =   0.0219479
        k(   63) = (   0.0639744   0.0639744   0.0579655), wk =   0.0219479
        k(   64) = (   0.0639744   0.0639744   0.0869483), wk =   0.0219479
        k(   65) = (   0.0639744   0.0639744   0.1159310), wk =   0.0219479
        k(   66) = (   0.0639744   0.0852992   0.0000000), wk =   0.0219479
        k(   67) = (   0.0639744   0.0852992   0.0289828), wk =   0.0438957
        k(   68) = (   0.0639744   0.0852992   0.0579655), wk =   0.0438957
        k(   69) = (   0.0639744   0.0852992   0.0869483), wk =   0.0438957
        k(   70) = (   0.0639744   0.0852992   0.1159310), wk =   0.0438957
        k(   71) = (   0.0852992   0.0852992   0.0000000), wk =   0.0109739
        k(   72) = (   0.0852992   0.0852992   0.0289828), wk =   0.0219479
        k(   73) = (   0.0852992   0.0852992   0.0579655), wk =   0.0219479
        k(   74) = (   0.0852992   0.0852992   0.0869483), wk =   0.0219479
        k(   75) = (   0.0852992   0.0852992   0.1159310), wk =   0.0219479

     Largest allocated arrays     est. size (Mb)     dimensions
     Largest temporary arrays     est. size (Mb)     dimensions

     Initial potential from superposition of free atoms

     starting charge   45.99095, renormalised to   46.00000

     *
     * You are using vdW-DF for exchange-correlation in this calculation.
     * Please cite the following three references that made this development
     * possible:
     *
     *   M. Dion, H. Rydberg, E. Schroder, D. C. Langreth, and
     *   B. I. Lundqvist, Phys. Rev. Lett. 92, 246401 (2004).
     *
     *   T. Thonhauser, V. R. Cooper, S. Li, A. Puzder, P. Hyldgaard, and
     *   D. C. Langreth, Phys. Rev. B 76, 125112 (2007).
     *
     *   G. Roman-Perez and J. M. Soler, Phys. Rev. Lett. 103, 096102 (2009).
     *
     *
     * If you are using vdW-DF2, please also cite:
     *
     *   K. Lee, E. D. Murray, L. Kong, B. I. Lundqvist, and
     *   D. C. Langreth, Phys. Rev. B 82, 081101(R) (2010).
     *
     *
     * If you are calculating the stress with vdW-DF, please also cite:
     *
     *   R. Sabatini, E. Kucukbenli, B. Kolb, T. Thonhauser, and
     *   S. de Gironcoli, J. Phys.: Condens. Matter 24, 424209 (2012).
     *

     Carrying out vdW-DF run using the following parameters:

     Nqs =      20    Nr_points =    1024   r_max =   100.000
     q_mesh =
               0.00001000     0.04494208     0.09755937     0.15916263
               0.23128650     0.31572767     0.41458969     0.53033537
               0.66584808     0.82450364     1.01025438     1.22772762
               1.48234092     1.78043706     2.12944203     2.53805004
               3.01644009     3.57652955     4.23227104     5.00000000

     Gradients computed in reciprocal space

     Starting wfc are   44 randomized atomic wfcs

     Self-consistent Calculation

     iteration #  1     ecut=    58.80 Ry     beta=0.10
     Davidson diagonalization with overlap
     ethr =  1.00E-02,  avg # of iterations =  5.2

     Threshold (ethr) on eigenvalues was too large:
     Diagonalizing with lowered threshold

     Davidson diagonalization with overlap
     ethr =  1.68E-04,  avg # of iterations =  3.3

     total energy              =    -405.79923353 Ry
     Harris-Foulkes estimate   =    -405.80997338 Ry
     estimated scf accuracy    <       0.07904001 Ry

[...]

     total energy              =    -405.79049829 Ry
     Harris-Foulkes estimate   =    -405.79049077 Ry
     estimated scf accuracy    <       0.00000136 Ry

     iteration # 10     ecut=    58.80 Ry     beta=0.10
     Davidson diagonalization with overlap
     ethr =  2.95E-09,  avg # of iterations =  1.4

     End of self-consistent calculation

          k = 0.0000 0.0000 0.0000 (  5329 PWs)   bands (ev):

   -31.9455 -31.9156 -11.9678 -11.9678 -11.8100 -11.7673 -11.7671 -11.7671
     3.7686   3.7975   3.8118   3.9099   3.9890   4.0511   4.0511   4.3034
     4.3034   4.3541   4.7017   7.3273  11.2420  11.2420  11.7715  11.8532
    12.2635  14.1590  14.1590  15.1394  15.1394  15.2844  15.4847  16.2027
    16.2774  16.2774  16.4832  18.2119  18.7649  18.8831  20.6291  20.6291
    23.4840  24.0020  24.0020

[...]

          k = 0.0853 0.0853 0.1159 (  5355 PWs)   bands (ev):

   -31.9223 -31.9213 -11.9774 -11.9716 -11.9369 -11.9351 -11.7408 -11.7347
     3.8062   3.8097   3.9343   3.9554   4.1129   4.1235   4.1341   4.1416
     4.6184   4.6330   7.0219   7.0929  10.7824  10.7885  11.1175  11.1372
    12.1222  12.1856  14.2262  14.3055  14.4234  14.5116  15.9091  15.9528
    16.4886  16.7750  17.8545  17.8886  19.5867  19.5915  21.0047  21.0841
    21.1076  21.1767  25.3673

     the Fermi energy is    11.5965 ev

!    total energy              =    -405.79053135 Ry
     Harris-Foulkes estimate   =    -405.79049835 Ry
     estimated scf accuracy    <       0.00000050 Ry

     The total energy is the sum of the following terms:

     one-electron contribution =     -53.21125435 Ry
     hartree contribution      =      58.10337514 Ry
     xc contribution           =    -137.52039980 Ry
     ewald contribution        =    -273.15180954 Ry
     smearing contrib. (-TS)   =      -0.01044279 Ry

     convergence has been achieved in  10 iterations

     Forces acting on atoms (Ry/au):

     atom    1 type  1   force =     0.00000000    0.00000000    0.00000000
     atom    2 type  1   force =     0.00000000    0.00000000    0.00000000
     atom    3 type  2   force =     0.00000000    0.00000000    0.00000000
     atom    4 type  2   force =     0.00000000    0.00000000    0.00000000

     Total force =     0.000000     Total SCF correction =     0.000000

     General routines

     Parallel routines

   This run was terminated on:   9:58:47  14Nov2017

   JOB DONE.