     Program PWSCF v.5.1rc2 (svn rev. ) starts on 18Feb2018 at 17:50:38

     Current dimensions of program PWSCF are:
     Max number of different atomic species (ntypx) = 10
     Max number of k-points (npk) =  40000
     Max angular momentum in pseudopotentials (lmaxx) =  3

     IMPORTANT: XC functional enforced from input :
     Exchange-correlation      = BEEF-VDW ( 1  4 27 13 2)
     Any further DFT definition will be discarded
     Please, verify this is what you really want

     Subspace diagonalization in iterative solution of the eigenvalue problem:
     a serial algorithm will be used

     Found symmetry operation: I + ( -0.5000 -0.5000  0.0000)
     This is a supercell, fractional translations are disabled

     bravais-lattice index     =            0
     lattice parameter (alat)  =       1.8897  a.u.
     unit-cell volume          =     556.1131 (a.u.)^3
     number of atoms/cell      =            4
     number of atomic types    =            2
     number of electrons       =        56.00
     number of Kohn-Sham states=           48
     kinetic-energy cutoff     =      58.7989  Ry
     charge density cutoff     =     587.9892  Ry
     convergence threshold     =      1.0E-06
     mixing beta               =       0.1000
     number of iterations used =           10  plain     mixing
     Exchange-correlation      = BEEF-VDW ( 1  4 27 13 2)

     celldm(1)=   1.889726  celldm(2)=   0.000000  celldm(3)=   0.000000
     celldm(4)=   0.000000  celldm(5)=   0.000000  celldm(6)=   0.000000

     crystal axes: (cart. coord. in units of alat)
               a(1) = (   4.936269   0.000000   0.000000 )
               a(2) = (   0.000000   4.936269   0.000000 )
               a(3) = (   0.000000   0.000000   3.381964 )

     reciprocal axes: (cart. coord. in units 2 pi/alat)
               b(1) = (  0.202582  0.000000  0.000000 )
               b(2) = (  0.000000  0.202582  0.000000 )
               b(3) = (  0.000000  0.000000  0.295686 )

     PseudoPot. # 1 for V  read from file:
     /home/mamunm/src/pseudo/gbrv1.5pbe/V.UPF
     MD5 check sum: 22b79981416ebb76fdaf5b1b8640f6fb
     Pseudo is Ultrasoft + core correction, Zval = 13.0
     Generated by new atomic code, or converted to UPF format
     Using radial grid of  853 points,  6 beta functions with:
                l(1) =   0
                l(2) =   0
                l(3) =   1
                l(4) =   1
                l(5) =   2
                l(6) =   2
     Q(r) pseudized with  8 coefficients,  rinner =    1.100   1.100   1.100
                                                       1.100   1.100

     PseudoPot. # 2 for Bi read from file:
     /home/mamunm/src/pseudo/gbrv1.5pbe/Bi.UPF
     MD5 check sum: 81103212dc04adf40945787f699eab19
     Pseudo is Ultrasoft + core correction, Zval = 15.0
     Generated by new atomic code, or converted to UPF format
     Using radial grid of  899 points,  6 beta functions with:
                l(1) =   0
                l(2) =   0
                l(3) =   1
                l(4) =   1
                l(5) =   2
                l(6) =   2
     Q(r) pseudized with  6 coefficients,  rinner =    1.000   1.000   1.000
                                                       1.000   1.000

     vdW kernel table read from file vdW_kernel_table
     MD5 check sum: 095c7af220d748ca6e76c0b4c6cfb241

     atomic species   valence    mass     pseudopotential
        V1            13.00    50.94150     V ( 1.00)
        Bi1           15.00   208.98040     Bi( 1.00)

     16 Sym. Ops., with inversion, found

   Cartesian axes

     site n.     atom                  positions (alat units)
         1           V1  tau(   1) = (   0.0000000   0.0000000   0.0000000  )
         2           V1  tau(   2) = (   2.4681345   2.4681345   0.0000000  )
         3           Bi1 tau(   3) = (   2.4681345   0.0000000   1.6909818  )
         4           Bi1 tau(   4) = (   0.0000000   2.4681345   1.6909818  )

     number of k points=    75  Fermi-Dirac smearing, width (Ry)=  0.0073
                       cart. coord. in units 2pi/alat
        k(    1) = (   0.0000000   0.0000000   0.0000000), wk =   0.0027435
        k(    2) = (   0.0000000   0.0000000   0.0328540), wk =   0.0054870
        k(    3) = (   0.0000000   0.0000000   0.0657080), wk =   0.0054870
        k(    4) = (   0.0000000   0.0000000   0.0985621), wk =   0.0054870
        k(    5) = (   0.0000000   0.0000000   0.1314161), wk =   0.0054870
        k(    6) = (   0.0000000   0.0225091   0.0000000), wk =   0.0109739
        k(    7) = (   0.0000000   0.0225091   0.0328540), wk =   0.0219479
        k(    8) = (   0.0000000   0.0225091   0.0657080), wk =   0.0219479
        k(    9) = (   0.0000000   0.0225091   0.0985621), wk =   0.0219479
        k(   10) = (   0.0000000   0.0225091   0.1314161), wk =   0.0219479
        k(   11) = (   0.0000000   0.0450183   0.0000000), wk =   0.0109739
        k(   12) = (   0.0000000   0.0450183   0.0328540), wk =   0.0219479
        k(   13) = (   0.0000000   0.0450183   0.0657080), wk =   0.0219479
        k(   14) = (   0.0000000   0.0450183   0.0985621), wk =   0.0219479
        k(   15) = (   0.0000000   0.0450183   0.1314161), wk =   0.0219479
        k(   16) = (   0.0000000   0.0675274   0.0000000), wk =   0.0109739
        k(   17) = (   0.0000000   0.0675274   0.0328540), wk =   0.0219479
        k(   18) = (   0.0000000   0.0675274   0.0657080), wk =   0.0219479
        k(   19) = (   0.0000000   0.0675274   0.0985621), wk =   0.0219479
        k(   20) = (   0.0000000   0.0675274   0.1314161), wk =   0.0219479
        k(   21) = (   0.0000000   0.0900365   0.0000000), wk =   0.0109739
        k(   22) = (   0.0000000   0.0900365   0.0328540), wk =   0.0219479
        k(   23) = (   0.0000000   0.0900365   0.0657080), wk =   0.0219479
        k(   24) = (   0.0000000   0.0900365   0.0985621), wk =   0.0219479
        k(   25) = (   0.0000000   0.0900365   0.1314161), wk =   0.0219479
        k(   26) = (   0.0225091   0.0225091   0.0000000), wk =   0.0109739
        k(   27) = (   0.0225091   0.0225091   0.0328540), wk =   0.0219479
        k(   28) = (   0.0225091   0.0225091   0.0657080), wk =   0.0219479
        k(   29) = (   0.0225091   0.0225091   0.0985621), wk =   0.0219479
        k(   30) = (   0.0225091   0.0225091   0.1314161), wk =   0.0219479
        k(   31) = (   0.0225091   0.0450183   0.0000000), wk =   0.0219479
        k(   32) = (   0.0225091   0.0450183   0.0328540), wk =   0.0438957
        k(   33) = (   0.0225091   0.0450183   0.0657080), wk =   0.0438957
        k(   34) = (   0.0225091   0.0450183   0.0985621), wk =   0.0438957
        k(   35) = (   0.0225091   0.0450183   0.1314161), wk =   0.0438957
        k(   36) = (   0.0225091   0.0675274   0.0000000), wk =   0.0219479
        k(   37) = (   0.0225091   0.0675274   0.0328540), wk =   0.0438957
        k(   38) = (   0.0225091   0.0675274   0.0657080), wk =   0.0438957
        k(   39) = (   0.0225091   0.0675274   0.0985621), wk =   0.0438957
        k(   40) = (   0.0225091   0.0675274   0.1314161), wk =   0.0438957
        k(   41) = (   0.0225091   0.0900365   0.0000000), wk =   0.0219479
        k(   42) = (   0.0225091   0.0900365   0.0328540), wk =   0.0438957
        k(   43) = (   0.0225091   0.0900365   0.0657080), wk =   0.0438957
        k(   44) = (   0.0225091   0.0900365   0.0985621), wk =   0.0438957
        k(   45) = (   0.0225091   0.0900365   0.1314161), wk =   0.0438957
        k(   46) = (   0.0450183   0.0450183   0.0000000), wk =   0.0109739
        k(   47) = (   0.0450183   0.0450183   0.0328540), wk =   0.0219479
        k(   48) = (   0.0450183   0.0450183   0.0657080), wk =   0.0219479
        k(   49) = (   0.0450183   0.0450183   0.0985621), wk =   0.0219479
        k(   50) = (   0.0450183   0.0450183   0.1314161), wk =   0.0219479
        k(   51) = (   0.0450183   0.0675274   0.0000000), wk =   0.0219479
        k(   52) = (   0.0450183   0.0675274   0.0328540), wk =   0.0438957
        k(   53) = (   0.0450183   0.0675274   0.0657080), wk =   0.0438957
        k(   54) = (   0.0450183   0.0675274   0.0985621), wk =   0.0438957
        k(   55) = (   0.0450183   0.0675274   0.1314161), wk =   0.0438957
        k(   56) = (   0.0450183   0.0900365   0.0000000), wk =   0.0219479
        k(   57) = (   0.0450183   0.0900365   0.0328540), wk =   0.0438957
        k(   58) = (   0.0450183   0.0900365   0.0657080), wk =   0.0438957
        k(   59) = (   0.0450183   0.0900365   0.0985621), wk =   0.0438957
        k(   60) = (   0.0450183   0.0900365   0.1314161), wk =   0.0438957
        k(   61) = (   0.0675274   0.0675274   0.0000000), wk =   0.0109739
        k(   62) = (   0.0675274   0.0675274   0.0328540), wk =   0.0219479
        k(   63) = (   0.0675274   0.0675274   0.0657080), wk =   0.0219479
        k(   64) = (   0.0675274   0.0675274   0.0985621), wk =   0.0219479
        k(   65) = (   0.0675274   0.0675274   0.1314161), wk =   0.0219479
        k(   66) = (   0.0675274   0.0900365   0.0000000), wk =   0.0219479
        k(   67) = (   0.0675274   0.0900365   0.0328540), wk =   0.0438957
        k(   68) = (   0.0675274   0.0900365   0.0657080), wk =   0.0438957
        k(   69) = (   0.0675274   0.0900365   0.0985621), wk =   0.0438957
        k(   70) = (   0.0675274   0.0900365   0.1314161), wk =   0.0438957
        k(   71) = (   0.0900365   0.0900365   0.0000000), wk =   0.0109739
        k(   72) = (   0.0900365   0.0900365   0.0328540), wk =   0.0219479
        k(   73) = (   0.0900365   0.0900365   0.0657080), wk =   0.0219479
        k(   74) = (   0.0900365   0.0900365   0.0985621), wk =   0.0219479
        k(   75) = (   0.0900365   0.0900365   0.1314161), wk =   0.0219479

     Largest allocated arrays     est. size (Mb)     dimensions
     Largest temporary arrays     est. size (Mb)     dimensions

     Check: negative/imaginary core charge=   -0.000002    0.000000

     Initial potential from superposition of free atoms
     Check: negative starting charge=   -0.085034

     starting charge   53.99746, renormalised to   56.00000

     negative rho (up, down):  8.819E-02 0.000E+00

     *
     * You are using vdW-DF for exchange-correlation in this calculation.
     * Please cite the following three references that made this development
     * possible:
     *
     *   M. Dion, H. Rydberg, E. Schroder, D. C. Langreth, and
     *   B. I. Lundqvist, Phys. Rev. Lett. 92, 246401 (2004).
     *
     *   T. Thonhauser, V. R. Cooper, S. Li, A. Puzder, P. Hyldgaard, and
     *   D. C. Langreth, Phys. Rev. B 76, 125112 (2007).
     *
     *   G. Roman-Perez and J. M. Soler, Phys. Rev. Lett. 103, 096102 (2009).
     *
     *
     * If you are using vdW-DF2, please also cite:
     *
     *   K. Lee, E. D. Murray, L. Kong, B. I. Lundqvist, and
     *   D. C. Langreth, Phys. Rev. B 82, 081101(R) (2010).
     *
     *
     * If you are calculating the stress with vdW-DF, please also cite:
     *
     *   R. Sabatini, E. Kucukbenli, B. Kolb, T. Thonhauser, and
     *   S. de Gironcoli, J. Phys.: Condens. Matter 24, 424209 (2012).
     *

     Carrying out vdW-DF run using the following parameters:

     Nqs =      20    Nr_points =    1024   r_max =   100.000
     q_mesh =
               0.00001000     0.04494208     0.09755937     0.15916263
               0.23128650     0.31572767     0.41458969     0.53033537
               0.66584808     0.82450364     1.01025438     1.22772762
               1.48234092     1.78043706     2.12944203     2.53805004
               3.01644009     3.57652955     4.23227104     5.00000000

     Gradients computed in reciprocal space

     Starting wfc are   38 randomized atomic wfcs +   10 random wfc

     Self-consistent Calculation

     iteration #  1     ecut=    58.80 Ry     beta=0.10
     Davidson diagonalization with overlap
     ethr =  1.00E-02,  avg # of iterations =  5.0

[...]

     total energy              =    -665.93943740 Ry
     Harris-Foulkes estimate   =    -666.22507726 Ry
     estimated scf accuracy    <       1.75986998 Ry

[...]

     total energy              =    -665.77285993 Ry
     Harris-Foulkes estimate   =    -665.77285499 Ry
     estimated scf accuracy    <       0.00003799 Ry

     iteration # 12     ecut=    58.80 Ry     beta=0.10
     Davidson diagonalization with overlap
     ethr =  6.78E-08,  avg # of iterations =  1.5

     negative rho (up, down):  9.370E-02 0.000E+00

     End of self-consistent calculation

          k = 0.0000 0.0000 0.0000 (  4227 PWs)   bands (ev):

   -49.7553 -49.7515 -23.6043 -23.6043 -23.5751 -23.5751 -23.5478 -23.5424
    -8.5018  -8.4597  -8.4265  -8.4206  -8.3593  -8.3593  -8.3180  -8.3180
    -8.3178  -8.2294   1.4487   4.1589  10.5035  10.5035  13.2460  13.5112
    13.5426  14.9246  14.9246  15.2957  15.3923  15.3923  15.5595  15.5595
    15.7260  15.8032  16.2936  17.2006  18.3603  19.4015  22.6713  22.9667
    23.9811  23.9811  25.8318  26.6691  28.1975  28.1976  28.4196  28.4197

[...]

          k = 0.0900 0.0900 0.1314 (  4238 PWs)   bands (ev):

   -49.7506 -49.7505 -23.6030 -23.6021 -23.5887 -23.5885 -23.5694 -23.5685
    -8.4364  -8.4349  -8.3814  -8.3778  -8.3764  -8.3756  -8.3598  -8.3570
    -8.2311  -8.2274   4.3157   4.3954  10.4749  10.5891  10.6098  10.7169
    13.4752  13.5147  14.7171  14.7812  14.8090  14.8201  15.5235  15.6958
    15.8743  15.8777  17.5299  17.5919  18.8389  18.9772  23.1276  23.1956
    23.3540  23.6263  25.6371  25.6387  25.8524  25.9029  27.9107  28.1638

     the Fermi energy is    14.7489 ev

!    total energy              =    -665.77292063 Ry
     Harris-Foulkes estimate   =    -665.77286350 Ry
     estimated scf accuracy    <       0.00000046 Ry

     The total energy is the sum of the following terms:

     one-electron contribution =    -176.04321106 Ry
     hartree contribution      =     122.86373281 Ry
     xc contribution           =    -174.20796462 Ry
     ewald contribution        =    -438.37125169 Ry
     smearing contrib. (-TS)   =      -0.01422608 Ry

     convergence has been achieved in  12 iterations

     Forces acting on atoms (Ry/au):

     negative rho (up, down):  9.370E-02 0.000E+00
     atom    1 type  1   force =     0.00000000    0.00000000    0.00000000
     atom    2 type  1   force =     0.00000000    0.00000000    0.00000000
     atom    3 type  2   force =     0.00000000    0.00000000    0.00000000
     atom    4 type  2   force =     0.00000000    0.00000000    0.00000000

     Total force =     0.000000     Total SCF correction =     0.000000

     General routines

     Parallel routines

   This run was terminated on:  17:51:31  18Feb2018

   JOB DONE.