     Program PWSCF v.5.1rc2 starts on 14Nov2017 at 14:49:17

     Current dimensions of program PWSCF are:
     Max number of different atomic species (ntypx) = 10
     Max number of k-points (npk) =  40000
     Max angular momentum in pseudopotentials (lmaxx) =  3

     IMPORTANT: XC functional enforced from input :
     Exchange-correlation      = BEEF-VDW ( 1  4 27 13 2)
     Any further DFT definition will be discarded
     Please, verify this is what you really want

     Found symmetry operation: I + ( -0.5000 -0.5000  0.0000)
     This is a supercell, fractional translations are disabled

     bravais-lattice index     =            0
     lattice parameter (alat)  =       1.8897  a.u.
     unit-cell volume          =     714.7103 (a.u.)^3
     number of atoms/cell      =            4
     number of atomic types    =            2
     number of electrons       =        46.00
     number of Kohn-Sham states=           43
     kinetic-energy cutoff     =      58.7989  Ry
     charge density cutoff     =     587.9892  Ry
     convergence threshold     =      1.0E-06
     mixing beta               =       0.1000
     number of iterations used =           10  plain     mixing
     Exchange-correlation      = BEEF-VDW ( 1  4 27 13 2)

     celldm(1)=   1.889726  celldm(2)=   0.000000  celldm(3)=   0.000000
     celldm(4)=   0.000000  celldm(5)=   0.000000  celldm(6)=   0.000000

     crystal axes: (cart. coord. in units of alat)
               a(1) = (   4.631881   0.000000   0.000000 )
               a(2) = (   0.000000   4.631881   0.000000 )
               a(3) = (   0.000000   0.000000   4.936494 )

     reciprocal axes: (cart. coord. in units 2 pi/alat)
               b(1) = (  0.215895  0.000000  0.000000 )
               b(2) = (  0.000000  0.215895  0.000000 )
               b(3) = (  0.000000  0.000000  0.202573 )

     PseudoPot. # 1 for Hf read from file:
     /home/users/vossj/suncat/psp/gbrv1.5pbe/Hf.UPF
     MD5 check sum: 8ee9378dfe14276e333edf04c5e4aa26
     Pseudo is Ultrasoft + core correction, Zval = 12.0
     Generated by new atomic code, or converted to UPF format
     Using radial grid of  921 points,  8 beta functions with:
                l(1) =   0
                l(2) =   0
                l(3) =   0
                l(4) =   1
                l(5) =   1
                l(6) =   2
                l(7) =   2
                l(8) =   3
     Q(r) pseudized with  6 coefficients,  rinner =    1.200   1.200   1.200
                                                       1.200   1.200   1.200
                                                       1.200

     PseudoPot. # 2 for Y  read from file:
     /home/users/vossj/suncat/psp/gbrv1.5pbe/Y.UPF
     MD5 check sum: d034151ed7554c50b6e82763ed42c788
     Pseudo is Ultrasoft + core correction, Zval = 11.0
     Generated by new atomic code, or converted to UPF format
     Using radial grid of  885 points,  6 beta functions with:
                l(1) =   0
                l(2) =   0
                l(3) =   1
                l(4) =   1
                l(5) =   2
                l(6) =   2
     Q(r) pseudized with  8 coefficients,  rinner =    1.200   1.200   1.200
                                                       1.200   1.200

     vdW kernel table read from file vdW_kernel_table
     MD5 check sum: 095c7af220d748ca6e76c0b4c6cfb241

     atomic species   valence    mass     pseudopotential
        Hf1           12.00   178.49000     Hf( 1.00)
        Y1            11.00    88.90590     Y ( 1.00)

     16 Sym. Ops., with inversion, found

   Cartesian axes

     site n.     atom                  positions (alat units)
         1           Hf1 tau(   1) = (   0.0000000   0.0000000   0.0000000  )
         2           Hf1 tau(   2) = (   2.3159407   2.3159407   0.0000000  )
         3           Y1  tau(   3) = (   2.3159407   0.0000000   2.4682469  )
         4           Y1  tau(   4) = (   0.0000000   2.3159407   2.4682469  )

     number of k points=    75  Fermi-Dirac smearing, width (Ry)=  0.0073
                       cart. coord. in units 2pi/alat
        k(    1) = (   0.0000000   0.0000000   0.0000000), wk =   0.0027435
        k(    2) = (   0.0000000   0.0000000   0.0225081), wk =   0.0054870
        k(    3) = (   0.0000000   0.0000000   0.0450162), wk =   0.0054870
        k(    4) = (   0.0000000   0.0000000   0.0675243), wk =   0.0054870
        k(    5) = (   0.0000000   0.0000000   0.0900324), wk =   0.0054870
        k(    6) = (   0.0000000   0.0239883   0.0000000), wk =   0.0109739
        k(    7) = (   0.0000000   0.0239883   0.0225081), wk =   0.0219479
        k(    8) = (   0.0000000   0.0239883   0.0450162), wk =   0.0219479
        k(    9) = (   0.0000000   0.0239883   0.0675243), wk =   0.0219479
        k(   10) = (   0.0000000   0.0239883   0.0900324), wk =   0.0219479
        k(   11) = (   0.0000000   0.0479767   0.0000000), wk =   0.0109739
        k(   12) = (   0.0000000   0.0479767   0.0225081), wk =   0.0219479
        k(   13) = (   0.0000000   0.0479767   0.0450162), wk =   0.0219479
        k(   14) = (   0.0000000   0.0479767   0.0675243), wk =   0.0219479
        k(   15) = (   0.0000000   0.0479767   0.0900324), wk =   0.0219479
        k(   16) = (   0.0000000   0.0719650   0.0000000), wk =   0.0109739
        k(   17) = (   0.0000000   0.0719650   0.0225081), wk =   0.0219479
        k(   18) = (   0.0000000   0.0719650   0.0450162), wk =   0.0219479
        k(   19) = (   0.0000000   0.0719650   0.0675243), wk =   0.0219479
        k(   20) = (   0.0000000   0.0719650   0.0900324), wk =   0.0219479
        k(   21) = (   0.0000000   0.0959533   0.0000000), wk =   0.0109739
        k(   22) = (   0.0000000   0.0959533   0.0225081), wk =   0.0219479
        k(   23) = (   0.0000000   0.0959533   0.0450162), wk =   0.0219479
        k(   24) = (   0.0000000   0.0959533   0.0675243), wk =   0.0219479
        k(   25) = (   0.0000000   0.0959533   0.0900324), wk =   0.0219479
        k(   26) = (   0.0239883   0.0239883   0.0000000), wk =   0.0109739
        k(   27) = (   0.0239883   0.0239883   0.0225081), wk =   0.0219479
        k(   28) = (   0.0239883   0.0239883   0.0450162), wk =   0.0219479
        k(   29) = (   0.0239883   0.0239883   0.0675243), wk =   0.0219479
        k(   30) = (   0.0239883   0.0239883   0.0900324), wk =   0.0219479
        k(   31) = (   0.0239883   0.0479767   0.0000000), wk =   0.0219479
        k(   32) = (   0.0239883   0.0479767   0.0225081), wk =   0.0438957
        k(   33) = (   0.0239883   0.0479767   0.0450162), wk =   0.0438957
        k(   34) = (   0.0239883   0.0479767   0.0675243), wk =   0.0438957
        k(   35) = (   0.0239883   0.0479767   0.0900324), wk =   0.0438957
        k(   36) = (   0.0239883   0.0719650   0.0000000), wk =   0.0219479
        k(   37) = (   0.0239883   0.0719650   0.0225081), wk =   0.0438957
        k(   38) = (   0.0239883   0.0719650   0.0450162), wk =   0.0438957
        k(   39) = (   0.0239883   0.0719650   0.0675243), wk =   0.0438957
        k(   40) = (   0.0239883   0.0719650   0.0900324), wk =   0.0438957
        k(   41) = (   0.0239883   0.0959533   0.0000000), wk =   0.0219479
        k(   42) = (   0.0239883   0.0959533   0.0225081), wk =   0.0438957
        k(   43) = (   0.0239883   0.0959533   0.0450162), wk =   0.0438957
        k(   44) = (   0.0239883   0.0959533   0.0675243), wk =   0.0438957
        k(   45) = (   0.0239883   0.0959533   0.0900324), wk =   0.0438957
        k(   46) = (   0.0479767   0.0479767   0.0000000), wk =   0.0109739
        k(   47) = (   0.0479767   0.0479767   0.0225081), wk =   0.0219479
        k(   48) = (   0.0479767   0.0479767   0.0450162), wk =   0.0219479
        k(   49) = (   0.0479767   0.0479767   0.0675243), wk =   0.0219479
        k(   50) = (   0.0479767   0.0479767   0.0900324), wk =   0.0219479
        k(   51) = (   0.0479767   0.0719650   0.0000000), wk =   0.0219479
        k(   52) = (   0.0479767   0.0719650   0.0225081), wk =   0.0438957
        k(   53) = (   0.0479767   0.0719650   0.0450162), wk =   0.0438957
        k(   54) = (   0.0479767   0.0719650   0.0675243), wk =   0.0438957
        k(   55) = (   0.0479767   0.0719650   0.0900324), wk =   0.0438957
        k(   56) = (   0.0479767   0.0959533   0.0000000), wk =   0.0219479
        k(   57) = (   0.0479767   0.0959533   0.0225081), wk =   0.0438957
        k(   58) = (   0.0479767   0.0959533   0.0450162), wk =   0.0438957
        k(   59) = (   0.0479767   0.0959533   0.0675243), wk =   0.0438957
        k(   60) = (   0.0479767   0.0959533   0.0900324), wk =   0.0438957
        k(   61) = (   0.0719650   0.0719650   0.0000000), wk =   0.0109739
        k(   62) = (   0.0719650   0.0719650   0.0225081), wk =   0.0219479
        k(   63) = (   0.0719650   0.0719650   0.0450162), wk =   0.0219479
        k(   64) = (   0.0719650   0.0719650   0.0675243), wk =   0.0219479
        k(   65) = (   0.0719650   0.0719650   0.0900324), wk =   0.0219479
        k(   66) = (   0.0719650   0.0959533   0.0000000), wk =   0.0219479
        k(   67) = (   0.0719650   0.0959533   0.0225081), wk =   0.0438957
        k(   68) = (   0.0719650   0.0959533   0.0450162), wk =   0.0438957
        k(   69) = (   0.0719650   0.0959533   0.0675243), wk =   0.0438957
        k(   70) = (   0.0719650   0.0959533   0.0900324), wk =   0.0438957
        k(   71) = (   0.0959533   0.0959533   0.0000000), wk =   0.0109739
        k(   72) = (   0.0959533   0.0959533   0.0225081), wk =   0.0219479
        k(   73) = (   0.0959533   0.0959533   0.0450162), wk =   0.0219479
        k(   74) = (   0.0959533   0.0959533   0.0675243), wk =   0.0219479
        k(   75) = (   0.0959533   0.0959533   0.0900324), wk =   0.0219479

     Largest allocated arrays     est. size (Mb)     dimensions
     Largest temporary arrays     est. size (Mb)     dimensions

     Check: negative/imaginary core charge=   -0.000002    0.000000

     Initial potential from superposition of free atoms
     Check: negative starting charge=   -0.214496

     starting charge   41.99106, renormalised to   46.00000

     negative rho (up, down):  2.350E-01 0.000E+00

     *
     * You are using vdW-DF for exchange-correlation in this calculation.
     * Please cite the following three references that made this development
     * possible:
     *
     *   M. Dion, H. Rydberg, E. Schroder, D. C. Langreth, and
     *   B. I. Lundqvist, Phys. Rev. Lett. 92, 246401 (2004).
     *
     *   T. Thonhauser, V. R. Cooper, S. Li, A. Puzder, P. Hyldgaard, and
     *   D. C. Langreth, Phys. Rev. B 76, 125112 (2007).
     *
     *   G. Roman-Perez and J. M. Soler, Phys. Rev. Lett. 103, 096102 (2009).
     *
     *
     * If you are using vdW-DF2, please also cite:
     *
     *   K. Lee, E. D. Murray, L. Kong, B. I. Lundqvist, and
     *   D. C. Langreth, Phys. Rev. B 82, 081101(R) (2010).
     *
     *
     * If you are calculating the stress with vdW-DF, please also cite:
     *
     *   R. Sabatini, E. Kucukbenli, B. Kolb, T. Thonhauser, and
     *   S. de Gironcoli, J. Phys.: Condens. Matter 24, 424209 (2012).
     *

     Carrying out vdW-DF run using the following parameters:

     Nqs =      20    Nr_points =    1024   r_max =   100.000
     q_mesh =
               0.00001000     0.04494208     0.09755937     0.15916263
               0.23128650     0.31572767     0.41458969     0.53033537
               0.66584808     0.82450364     1.01025438     1.22772762
               1.48234092     1.78043706     2.12944203     2.53805004
               3.01644009     3.57652955     4.23227104     5.00000000

     Gradients computed in reciprocal space

     Starting wfc are   52 randomized atomic wfcs

     Self-consistent Calculation

     iteration #  1     ecut=    58.80 Ry     beta=0.10
     Davidson diagonalization with overlap
     ethr =  1.00E-02,  avg # of iterations =  3.6

[...]

     total energy              =    -509.42277995 Ry
     Harris-Foulkes estimate   =    -509.76897584 Ry
     estimated scf accuracy    <       2.63726395 Ry

[...]

     iteration #  8     ecut=    58.80 Ry     beta=0.10
     Davidson diagonalization with overlap
     c_bands:  1 eigenvalues not converged
     ethr =  5.01E-06,  avg # of iterations =  3.2

[...]

     total energy              =    -508.57740603 Ry
     Harris-Foulkes estimate   =    -508.57740867 Ry
     estimated scf accuracy    <       0.00000149 Ry

     iteration # 13     ecut=    58.80 Ry     beta=0.10
     Davidson diagonalization with overlap
     ethr =  3.24E-09,  avg # of iterations =  1.0

     negative rho (up, down):  2.343E-01 0.000E+00

     End of self-consistent calculation

          k = 0.0000 0.0000 0.0000 (  5483 PWs)   bands (ev):

   -50.6274 -50.6032 -30.5196 -30.3923 -19.2244 -19.2244 -19.1922 -19.1254
   -18.9670 -18.9670 -10.7836 -10.7836 -10.4422 -10.2922 -10.2069 -10.2069
     6.0172   9.3006   9.4635   9.6677  10.4176  10.4176  10.5346  13.2106
    13.7148  13.7148  13.7318  14.5666  14.5666  15.4243  16.1640  17.1603
    17.8245  17.8245  17.8770  17.9590  18.0129  18.2341  18.2341  19.1719
    19.4826  20.8201  21.0725

[...]

          k = 0.0960 0.0960 0.0900 (  5458 PWs)   bands (ev):

   -50.6156 -50.6148 -30.4568 -30.4529 -19.2588 -19.2513 -19.1621 -19.1603
   -18.9504 -18.9424 -10.8728 -10.8563 -10.3754 -10.3701 -10.1662 -10.1476
     8.7275   8.8163   9.6605   9.7184  12.2766  12.2822  12.6079  12.6084
    12.7847  12.7934  13.3825  13.4144  13.6026  13.6562  13.6586  13.7554
    17.2495  17.3666  17.4153  17.4923  17.7476  17.7943  18.0818  18.1722
    19.6821  19.8258  21.3731

     the Fermi energy is    11.9075 ev

!    total energy              =    -508.57742515 Ry
     Harris-Foulkes estimate   =    -508.57740612 Ry
     estimated scf accuracy    <       0.00000023 Ry

     The total energy is the sum of the following terms:

     one-electron contribution =     -80.25210245 Ry
     hartree contribution      =      54.52215185 Ry
     xc contribution           =    -211.34799606 Ry
     ewald contribution        =    -271.48550128 Ry
     smearing contrib. (-TS)   =      -0.01397721 Ry

     convergence has been achieved in  13 iterations

     Forces acting on atoms (Ry/au):

     negative rho (up, down):  2.343E-01 0.000E+00
     atom    1 type  1   force =     0.00000000    0.00000000    0.00000000
     atom    2 type  1   force =     0.00000000    0.00000000    0.00000000
     atom    3 type  2   force =     0.00000000    0.00000000    0.00000000
     atom    4 type  2   force =     0.00000000    0.00000000    0.00000000

     Total force =     0.000000     Total SCF correction =     0.000000

     General routines

     Parallel routines

   This run was terminated on:  14:50: 9  14Nov2017

   JOB DONE.