     Program PWSCF v.5.1rc2 starts on 14Nov2017 at  9:55:49

     Current dimensions of program PWSCF are:
     Max number of different atomic species (ntypx) = 10
     Max number of k-points (npk) =  40000
     Max angular momentum in pseudopotentials (lmaxx) =  3

     IMPORTANT: XC functional enforced from input :
     Exchange-correlation      = BEEF-VDW ( 1  4 27 13 2)
     Any further DFT definition will be discarded
     Please, verify this is what you really want

     Found symmetry operation: I + ( -0.5000 -0.5000  0.0000)
     This is a supercell, fractional translations are disabled

     bravais-lattice index     =            0
     lattice parameter (alat)  =       1.8897  a.u.
     unit-cell volume          =     556.8809 (a.u.)^3
     number of atoms/cell      =            4
     number of atomic types    =            2
     number of electrons       =        52.00
     number of Kohn-Sham states=           46
     kinetic-energy cutoff     =      58.7989  Ry
     charge density cutoff     =     587.9892  Ry
     convergence threshold     =      1.0E-06
     mixing beta               =       0.1000
     number of iterations used =           10  plain     mixing
     Exchange-correlation      = BEEF-VDW ( 1  4 27 13 2)

     celldm(1)=   1.889726  celldm(2)=   0.000000  celldm(3)=   0.000000
     celldm(4)=   0.000000  celldm(5)=   0.000000  celldm(6)=   0.000000

     crystal axes: (cart. coord. in units of alat)
               a(1) = (   4.936305   0.000000   0.000000 )
               a(2) = (   0.000000   4.936305   0.000000 )
               a(3) = (   0.000000   0.000000   3.386583 )

     reciprocal axes: (cart. coord. in units 2 pi/alat)
               b(1) = (  0.202581  0.000000  0.000000 )
               b(2) = (  0.000000  0.202581  0.000000 )
               b(3) = (  0.000000  0.000000  0.295283 )

     PseudoPot. # 1 for Y  read from file:
     /home/users/vossj/suncat/psp/gbrv1.5pbe/Y.UPF
     MD5 check sum: d034151ed7554c50b6e82763ed42c788
     Pseudo is Ultrasoft + core correction, Zval = 11.0
     Generated by new atomic code, or converted to UPF format
     Using radial grid of  885 points,  6 beta functions with:
                l(1) =   0
                l(2) =   0
                l(3) =   1
                l(4) =   1
                l(5) =   2
                l(6) =   2
     Q(r) pseudized with  8 coefficients,  rinner =    1.200   1.200   1.200
                                                       1.200   1.200

     PseudoPot. # 2 for Re read from file:
     /home/users/vossj/suncat/psp/gbrv1.5pbe/Re.UPF
     MD5 check sum: 85f993410f3e006da9d71c142b4ad953
     Pseudo is Ultrasoft + core correction, Zval = 15.0
     Generated by new atomic code, or converted to UPF format
     Using radial grid of  981 points,  8 beta functions with:
                l(1) =   0
                l(2) =   0
                l(3) =   1
                l(4) =   1
                l(5) =   2
                l(6) =   2
                l(7) =   3
                l(8) =   3
     Q(r) pseudized with  8 coefficients,  rinner =    1.150   1.150   1.150
                                                       1.150   1.150   1.150
                                                       1.150

     vdW kernel table read from file vdW_kernel_table
     MD5 check sum: 095c7af220d748ca6e76c0b4c6cfb241

     atomic species   valence    mass     pseudopotential
        Y1            11.00    88.90590     Y ( 1.00)
        Re1           15.00   186.20700     Re( 1.00)

     16 Sym. Ops., with inversion, found

   Cartesian axes

     site n.     atom                  positions (alat units)
         1           Y1  tau(   1) = (   0.0000000   0.0000000   0.0000000  )
         2           Y1  tau(   2) = (   2.4681524   2.4681524   0.0000000  )
         3           Re1 tau(   3) = (   2.4681524   0.0000000   1.6932916  )
         4           Re1 tau(   4) = (   0.0000000   2.4681524   1.6932916  )

     number of k points=    75  Fermi-Dirac smearing, width (Ry)=  0.0073
                       cart. coord. in units 2pi/alat
        k(    1) = (   0.0000000   0.0000000   0.0000000), wk =   0.0027435
        k(    2) = (   0.0000000   0.0000000   0.0328092), wk =   0.0054870
        k(    3) = (   0.0000000   0.0000000   0.0656184), wk =   0.0054870
        k(    4) = (   0.0000000   0.0000000   0.0984276), wk =   0.0054870
        k(    5) = (   0.0000000   0.0000000   0.1312368), wk =   0.0054870
        k(    6) = (   0.0000000   0.0225090   0.0000000), wk =   0.0109739
        k(    7) = (   0.0000000   0.0225090   0.0328092), wk =   0.0219479
        k(    8) = (   0.0000000   0.0225090   0.0656184), wk =   0.0219479
        k(    9) = (   0.0000000   0.0225090   0.0984276), wk =   0.0219479
        k(   10) = (   0.0000000   0.0225090   0.1312368), wk =   0.0219479
        k(   11) = (   0.0000000   0.0450179   0.0000000), wk =   0.0109739
        k(   12) = (   0.0000000   0.0450179   0.0328092), wk =   0.0219479
        k(   13) = (   0.0000000   0.0450179   0.0656184), wk =   0.0219479
        k(   14) = (   0.0000000   0.0450179   0.0984276), wk =   0.0219479
        k(   15) = (   0.0000000   0.0450179   0.1312368), wk =   0.0219479
        k(   16) = (   0.0000000   0.0675269   0.0000000), wk =   0.0109739
        k(   17) = (   0.0000000   0.0675269   0.0328092), wk =   0.0219479
        k(   18) = (   0.0000000   0.0675269   0.0656184), wk =   0.0219479
        k(   19) = (   0.0000000   0.0675269   0.0984276), wk =   0.0219479
        k(   20) = (   0.0000000   0.0675269   0.1312368), wk =   0.0219479
        k(   21) = (   0.0000000   0.0900359   0.0000000), wk =   0.0109739
        k(   22) = (   0.0000000   0.0900359   0.0328092), wk =   0.0219479
        k(   23) = (   0.0000000   0.0900359   0.0656184), wk =   0.0219479
        k(   24) = (   0.0000000   0.0900359   0.0984276), wk =   0.0219479
        k(   25) = (   0.0000000   0.0900359   0.1312368), wk =   0.0219479
        k(   26) = (   0.0225090   0.0225090   0.0000000), wk =   0.0109739
        k(   27) = (   0.0225090   0.0225090   0.0328092), wk =   0.0219479
        k(   28) = (   0.0225090   0.0225090   0.0656184), wk =   0.0219479
        k(   29) = (   0.0225090   0.0225090   0.0984276), wk =   0.0219479
        k(   30) = (   0.0225090   0.0225090   0.1312368), wk =   0.0219479
        k(   31) = (   0.0225090   0.0450179   0.0000000), wk =   0.0219479
        k(   32) = (   0.0225090   0.0450179   0.0328092), wk =   0.0438957
        k(   33) = (   0.0225090   0.0450179   0.0656184), wk =   0.0438957
        k(   34) = (   0.0225090   0.0450179   0.0984276), wk =   0.0438957
        k(   35) = (   0.0225090   0.0450179   0.1312368), wk =   0.0438957
        k(   36) = (   0.0225090   0.0675269   0.0000000), wk =   0.0219479
        k(   37) = (   0.0225090   0.0675269   0.0328092), wk =   0.0438957
        k(   38) = (   0.0225090   0.0675269   0.0656184), wk =   0.0438957
        k(   39) = (   0.0225090   0.0675269   0.0984276), wk =   0.0438957
        k(   40) = (   0.0225090   0.0675269   0.1312368), wk =   0.0438957
        k(   41) = (   0.0225090   0.0900359   0.0000000), wk =   0.0219479
        k(   42) = (   0.0225090   0.0900359   0.0328092), wk =   0.0438957
        k(   43) = (   0.0225090   0.0900359   0.0656184), wk =   0.0438957
        k(   44) = (   0.0225090   0.0900359   0.0984276), wk =   0.0438957
        k(   45) = (   0.0225090   0.0900359   0.1312368), wk =   0.0438957
        k(   46) = (   0.0450179   0.0450179   0.0000000), wk =   0.0109739
        k(   47) = (   0.0450179   0.0450179   0.0328092), wk =   0.0219479
        k(   48) = (   0.0450179   0.0450179   0.0656184), wk =   0.0219479
        k(   49) = (   0.0450179   0.0450179   0.0984276), wk =   0.0219479
        k(   50) = (   0.0450179   0.0450179   0.1312368), wk =   0.0219479
        k(   51) = (   0.0450179   0.0675269   0.0000000), wk =   0.0219479
        k(   52) = (   0.0450179   0.0675269   0.0328092), wk =   0.0438957
        k(   53) = (   0.0450179   0.0675269   0.0656184), wk =   0.0438957
        k(   54) = (   0.0450179   0.0675269   0.0984276), wk =   0.0438957
        k(   55) = (   0.0450179   0.0675269   0.1312368), wk =   0.0438957
        k(   56) = (   0.0450179   0.0900359   0.0000000), wk =   0.0219479
        k(   57) = (   0.0450179   0.0900359   0.0328092), wk =   0.0438957
        k(   58) = (   0.0450179   0.0900359   0.0656184), wk =   0.0438957
        k(   59) = (   0.0450179   0.0900359   0.0984276), wk =   0.0438957
        k(   60) = (   0.0450179   0.0900359   0.1312368), wk =   0.0438957
        k(   61) = (   0.0675269   0.0675269   0.0000000), wk =   0.0109739
        k(   62) = (   0.0675269   0.0675269   0.0328092), wk =   0.0219479
        k(   63) = (   0.0675269   0.0675269   0.0656184), wk =   0.0219479
        k(   64) = (   0.0675269   0.0675269   0.0984276), wk =   0.0219479
        k(   65) = (   0.0675269   0.0675269   0.1312368), wk =   0.0219479
        k(   66) = (   0.0675269   0.0900359   0.0000000), wk =   0.0219479
        k(   67) = (   0.0675269   0.0900359   0.0328092), wk =   0.0438957
        k(   68) = (   0.0675269   0.0900359   0.0656184), wk =   0.0438957
        k(   69) = (   0.0675269   0.0900359   0.0984276), wk =   0.0438957
        k(   70) = (   0.0675269   0.0900359   0.1312368), wk =   0.0438957
        k(   71) = (   0.0900359   0.0900359   0.0000000), wk =   0.0109739
        k(   72) = (   0.0900359   0.0900359   0.0328092), wk =   0.0219479
        k(   73) = (   0.0900359   0.0900359   0.0656184), wk =   0.0219479
        k(   74) = (   0.0900359   0.0900359   0.0984276), wk =   0.0219479
        k(   75) = (   0.0900359   0.0900359   0.1312368), wk =   0.0219479

     Largest allocated arrays     est. size (Mb)     dimensions
     Largest temporary arrays     est. size (Mb)     dimensions

     Initial potential from superposition of free atoms
     Check: negative starting charge=   -0.254741

     starting charge   50.99097, renormalised to   52.00000

     negative rho (up, down):  2.598E-01 0.000E+00

     *
     * You are using vdW-DF for exchange-correlation in this calculation.
     * Please cite the following three references that made this development
     * possible:
     *
     *   M. Dion, H. Rydberg, E. Schroder, D. C. Langreth, and
     *   B. I. Lundqvist, Phys. Rev. Lett. 92, 246401 (2004).
     *
     *   T. Thonhauser, V. R. Cooper, S. Li, A. Puzder, P. Hyldgaard, and
     *   D. C. Langreth, Phys. Rev. B 76, 125112 (2007).
     *
     *   G. Roman-Perez and J. M. Soler, Phys. Rev. Lett. 103, 096102 (2009).
     *
     *
     * If you are using vdW-DF2, please also cite:
     *
     *   K. Lee, E. D. Murray, L. Kong, B. I. Lundqvist, and
     *   D. C. Langreth, Phys. Rev. B 82, 081101(R) (2010).
     *
     *
     * If you are calculating the stress with vdW-DF, please also cite:
     *
     *   R. Sabatini, E. Kucukbenli, B. Kolb, T. Thonhauser, and
     *   S. de Gironcoli, J. Phys.: Condens. Matter 24, 424209 (2012).
     *

     Carrying out vdW-DF run using the following parameters:

     Nqs =      20    Nr_points =    1024   r_max =   100.000
     q_mesh =
               0.00001000     0.04494208     0.09755937     0.15916263
               0.23128650     0.31572767     0.41458969     0.53033537
               0.66584808     0.82450364     1.01025438     1.22772762
               1.48234092     1.78043706     2.12944203     2.53805004
               3.01644009     3.57652955     4.23227104     5.00000000

     Gradients computed in reciprocal space

     Starting wfc are   52 randomized atomic wfcs

     Self-consistent Calculation

     iteration #  1     ecut=    58.80 Ry     beta=0.10
     Davidson diagonalization with overlap
     ethr =  1.00E-02,  avg # of iterations =  5.3

     Threshold (ethr) on eigenvalues was too large:
     Diagonalizing with lowered threshold

     Davidson diagonalization with overlap
     ethr =  2.52E-04,  avg # of iterations =  3.1

[...]

     total energy              =    -571.73792225 Ry
     Harris-Foulkes estimate   =    -571.75572109 Ry
     estimated scf accuracy    <       0.13873023 Ry

[...]

     total energy              =    -571.70943149 Ry
     Harris-Foulkes estimate   =    -571.70943640 Ry
     estimated scf accuracy    <       0.00002222 Ry

     iteration # 10     ecut=    58.80 Ry     beta=0.10
     Davidson diagonalization with overlap
     ethr =  3.84E-08,  avg # of iterations =  2.0

     negative rho (up, down):  2.591E-01 0.000E+00

     End of self-consistent calculation

          k = 0.0000 0.0000 0.0000 (  4243 PWs)   bands (ev):

   -64.0046 -64.0023 -25.7508 -25.7482 -25.7482 -25.7021 -25.7012 -25.7012
   -25.6931 -25.6853  -5.9678  -5.9678  -5.6024  -5.6024  -5.5599  -5.4928
     9.3901  11.6598  12.4416  12.4962  12.6451  14.3977  14.3977  15.5335
    15.7695  15.7695  17.2473  17.3358  17.5221  17.5221  19.3110  19.7120
    19.8964  22.6654  22.6654  22.6907  22.6940  22.8053  22.8053  23.5569
    23.5569  24.2446  26.4937  26.9980  26.9980  27.5281

[...]

          k = 0.0900 0.0900 0.1312 (  4240 PWs)   bands (ev):

   -64.0016 -64.0015 -25.7893 -25.7672 -25.7650 -25.7535 -25.6915 -25.6901
   -25.6527 -25.6427  -6.0340  -6.0302  -5.9543  -5.9434  -5.5350  -5.5232
    11.7782  11.8124  12.6461  12.6674  14.1346  14.1478  14.1528  14.2128
    16.7402  16.8796  16.9052  17.3721  17.5338  18.1036  18.3666  18.4027
    20.1651  20.2995  22.4343  22.6888  22.8054  22.8436  22.8974  23.0148
    26.2026  26.5593  26.9738  26.9860  27.0262  27.1519

     the Fermi energy is    15.4754 ev

!    total energy              =    -571.70945840 Ry
     Harris-Foulkes estimate   =    -571.70943598 Ry
     estimated scf accuracy    <       0.00000040 Ry

     The total energy is the sum of the following terms:

     one-electron contribution =     -98.13706003 Ry
     hartree contribution      =      73.28589933 Ry
     xc contribution           =    -165.12252394 Ry
     ewald contribution        =    -381.71927171 Ry
     smearing contrib. (-TS)   =      -0.01650205 Ry

     convergence has been achieved in  10 iterations

     Forces acting on atoms (Ry/au):

     negative rho (up, down):  2.591E-01 0.000E+00
     atom    1 type  1   force =     0.00000000    0.00000000    0.00000000
     atom    2 type  1   force =     0.00000000    0.00000000    0.00000000
     atom    3 type  2   force =     0.00000000    0.00000000    0.00000000
     atom    4 type  2   force =     0.00000000    0.00000000    0.00000000

     Total force =     0.000000     Total SCF correction =     0.000000

     General routines

     Parallel routines

   This run was terminated on:   9:56:32  14Nov2017

   JOB DONE.