     Program PWSCF v.5.1rc2 starts on 15Nov2017 at  5:30: 8

     Current dimensions of program PWSCF are:
     Max number of different atomic species (ntypx) = 10
     Max number of k-points (npk) =  40000
     Max angular momentum in pseudopotentials (lmaxx) =  3

     IMPORTANT: XC functional enforced from input :
     Exchange-correlation      = BEEF-VDW ( 1  4 27 13 2)
     Any further DFT definition will be discarded
     Please, verify this is what you really want

     Found symmetry operation: I + ( -0.5000 -0.5000  0.0000)
     This is a supercell, fractional translations are disabled

     bravais-lattice index     =            0
     lattice parameter (alat)  =       1.8897  a.u.
     unit-cell volume          =     470.8892 (a.u.)^3
     number of atoms/cell      =            4
     number of atomic types    =            2
     number of electrons       =        54.00
     number of Kohn-Sham states=           47
     kinetic-energy cutoff     =      58.7989  Ry
     charge density cutoff     =     587.9892  Ry
     convergence threshold     =      1.0E-06
     mixing beta               =       0.1000
     number of iterations used =           10  plain     mixing
     Exchange-correlation      = BEEF-VDW ( 1  4 27 13 2)

     celldm(1)=   1.889726  celldm(2)=   0.000000  celldm(3)=   0.000000
     celldm(4)=   0.000000  celldm(5)=   0.000000  celldm(6)=   0.000000

     crystal axes: (cart. coord. in units of alat)
               a(1) = (   3.852935   0.000000   0.000000 )
               a(2) = (   0.000000   3.852935   0.000000 )
               a(3) = (   0.000000   0.000000   4.700442 )

     reciprocal axes: (cart. coord. in units 2 pi/alat)
               b(1) = (  0.259542  0.000000  0.000000 )
               b(2) = (  0.000000  0.259542  0.000000 )
               b(3) = (  0.000000  0.000000  0.212746 )

     PseudoPot. # 1 for Ta read from file:
     /home/users/vossj/suncat/psp/gbrv1.5pbe/Ta.UPF
     MD5 check sum: f8bbe9446314a3b8ea5d9f3e3836c939
     Pseudo is Ultrasoft + core correction, Zval = 13.0
     Generated by new atomic code, or converted to UPF format
     Using radial grid of  921 points,  7 beta functions with:
                l(1) =   0
                l(2) =   0
                l(3) =   1
                l(4) =   1
                l(5) =   2
                l(6) =   2
                l(7) =   3
     Q(r) pseudized with  6 coefficients,  rinner =    1.300   1.300   1.300
                                                       1.300   1.300   1.300
                                                       1.300

     PseudoPot. # 2 for W  read from file:
     /home/users/vossj/suncat/psp/gbrv1.5pbe/W.UPF
     MD5 check sum: 9c083fa34c2a2ea0f02f1f893e16e1c8
     Pseudo is Ultrasoft + core correction, Zval = 14.0
     Generated by new atomic code, or converted to UPF format
     Using radial grid of  923 points,  8 beta functions with:
                l(1) =   0
                l(2) =   0
                l(3) =   0
                l(4) =   1
                l(5) =   1
                l(6) =   2
                l(7) =   2
                l(8) =   3
     Q(r) pseudized with  6 coefficients,  rinner =    1.350   1.350   1.350
                                                       1.350   1.350   1.350
                                                       1.350

     vdW kernel table read from file vdW_kernel_table
     MD5 check sum: 095c7af220d748ca6e76c0b4c6cfb241

     atomic species   valence    mass     pseudopotential
        Ta1           13.00   180.94790     Ta( 1.00)
        W1            14.00   183.85000     W ( 1.00)

     16 Sym. Ops., with inversion, found

   Cartesian axes

     site n.     atom                  positions (alat units)
         1           Ta1 tau(   1) = (   0.0000000   0.0000000   0.0000000  )
         2           Ta1 tau(   2) = (   1.9264675   1.9264675   0.0000000  )
         3           W1  tau(   3) = (   1.9264675   0.0000000   2.3502212  )
         4           W1  tau(   4) = (   0.0000000   1.9264675   2.3502212  )

     number of k points=    75  Fermi-Dirac smearing, width (Ry)=  0.0073
                       cart. coord. in units 2pi/alat
        k(    1) = (   0.0000000   0.0000000   0.0000000), wk =   0.0027435
        k(    2) = (   0.0000000   0.0000000   0.0236384), wk =   0.0054870
        k(    3) = (   0.0000000   0.0000000   0.0472769), wk =   0.0054870
        k(    4) = (   0.0000000   0.0000000   0.0709153), wk =   0.0054870
        k(    5) = (   0.0000000   0.0000000   0.0945537), wk =   0.0054870
        k(    6) = (   0.0000000   0.0288380   0.0000000), wk =   0.0109739
        k(    7) = (   0.0000000   0.0288380   0.0236384), wk =   0.0219479
        k(    8) = (   0.0000000   0.0288380   0.0472769), wk =   0.0219479
        k(    9) = (   0.0000000   0.0288380   0.0709153), wk =   0.0219479
        k(   10) = (   0.0000000   0.0288380   0.0945537), wk =   0.0219479
        k(   11) = (   0.0000000   0.0576761   0.0000000), wk =   0.0109739
        k(   12) = (   0.0000000   0.0576761   0.0236384), wk =   0.0219479
        k(   13) = (   0.0000000   0.0576761   0.0472769), wk =   0.0219479
        k(   14) = (   0.0000000   0.0576761   0.0709153), wk =   0.0219479
        k(   15) = (   0.0000000   0.0576761   0.0945537), wk =   0.0219479
        k(   16) = (   0.0000000   0.0865141   0.0000000), wk =   0.0109739
        k(   17) = (   0.0000000   0.0865141   0.0236384), wk =   0.0219479
        k(   18) = (   0.0000000   0.0865141   0.0472769), wk =   0.0219479
        k(   19) = (   0.0000000   0.0865141   0.0709153), wk =   0.0219479
        k(   20) = (   0.0000000   0.0865141   0.0945537), wk =   0.0219479
        k(   21) = (   0.0000000   0.1153522   0.0000000), wk =   0.0109739
        k(   22) = (   0.0000000   0.1153522   0.0236384), wk =   0.0219479
        k(   23) = (   0.0000000   0.1153522   0.0472769), wk =   0.0219479
        k(   24) = (   0.0000000   0.1153522   0.0709153), wk =   0.0219479
        k(   25) = (   0.0000000   0.1153522   0.0945537), wk =   0.0219479
        k(   26) = (   0.0288380   0.0288380   0.0000000), wk =   0.0109739
        k(   27) = (   0.0288380   0.0288380   0.0236384), wk =   0.0219479
        k(   28) = (   0.0288380   0.0288380   0.0472769), wk =   0.0219479
        k(   29) = (   0.0288380   0.0288380   0.0709153), wk =   0.0219479
        k(   30) = (   0.0288380   0.0288380   0.0945537), wk =   0.0219479
        k(   31) = (   0.0288380   0.0576761   0.0000000), wk =   0.0219479
        k(   32) = (   0.0288380   0.0576761   0.0236384), wk =   0.0438957
        k(   33) = (   0.0288380   0.0576761   0.0472769), wk =   0.0438957
        k(   34) = (   0.0288380   0.0576761   0.0709153), wk =   0.0438957
        k(   35) = (   0.0288380   0.0576761   0.0945537), wk =   0.0438957
        k(   36) = (   0.0288380   0.0865141   0.0000000), wk =   0.0219479
        k(   37) = (   0.0288380   0.0865141   0.0236384), wk =   0.0438957
        k(   38) = (   0.0288380   0.0865141   0.0472769), wk =   0.0438957
        k(   39) = (   0.0288380   0.0865141   0.0709153), wk =   0.0438957
        k(   40) = (   0.0288380   0.0865141   0.0945537), wk =   0.0438957
        k(   41) = (   0.0288380   0.1153522   0.0000000), wk =   0.0219479
        k(   42) = (   0.0288380   0.1153522   0.0236384), wk =   0.0438957
        k(   43) = (   0.0288380   0.1153522   0.0472769), wk =   0.0438957
        k(   44) = (   0.0288380   0.1153522   0.0709153), wk =   0.0438957
        k(   45) = (   0.0288380   0.1153522   0.0945537), wk =   0.0438957
        k(   46) = (   0.0576761   0.0576761   0.0000000), wk =   0.0109739
        k(   47) = (   0.0576761   0.0576761   0.0236384), wk =   0.0219479
        k(   48) = (   0.0576761   0.0576761   0.0472769), wk =   0.0219479
        k(   49) = (   0.0576761   0.0576761   0.0709153), wk =   0.0219479
        k(   50) = (   0.0576761   0.0576761   0.0945537), wk =   0.0219479
        k(   51) = (   0.0576761   0.0865141   0.0000000), wk =   0.0219479
        k(   52) = (   0.0576761   0.0865141   0.0236384), wk =   0.0438957
        k(   53) = (   0.0576761   0.0865141   0.0472769), wk =   0.0438957
        k(   54) = (   0.0576761   0.0865141   0.0709153), wk =   0.0438957
        k(   55) = (   0.0576761   0.0865141   0.0945537), wk =   0.0438957
        k(   56) = (   0.0576761   0.1153522   0.0000000), wk =   0.0219479
        k(   57) = (   0.0576761   0.1153522   0.0236384), wk =   0.0438957
        k(   58) = (   0.0576761   0.1153522   0.0472769), wk =   0.0438957
        k(   59) = (   0.0576761   0.1153522   0.0709153), wk =   0.0438957
        k(   60) = (   0.0576761   0.1153522   0.0945537), wk =   0.0438957
        k(   61) = (   0.0865141   0.0865141   0.0000000), wk =   0.0109739
        k(   62) = (   0.0865141   0.0865141   0.0236384), wk =   0.0219479
        k(   63) = (   0.0865141   0.0865141   0.0472769), wk =   0.0219479
        k(   64) = (   0.0865141   0.0865141   0.0709153), wk =   0.0219479
        k(   65) = (   0.0865141   0.0865141   0.0945537), wk =   0.0219479
        k(   66) = (   0.0865141   0.1153522   0.0000000), wk =   0.0219479
        k(   67) = (   0.0865141   0.1153522   0.0236384), wk =   0.0438957
        k(   68) = (   0.0865141   0.1153522   0.0472769), wk =   0.0438957
        k(   69) = (   0.0865141   0.1153522   0.0709153), wk =   0.0438957
        k(   70) = (   0.0865141   0.1153522   0.0945537), wk =   0.0438957
        k(   71) = (   0.1153522   0.1153522   0.0000000), wk =   0.0109739
        k(   72) = (   0.1153522   0.1153522   0.0236384), wk =   0.0219479
        k(   73) = (   0.1153522   0.1153522   0.0472769), wk =   0.0219479
        k(   74) = (   0.1153522   0.1153522   0.0709153), wk =   0.0219479
        k(   75) = (   0.1153522   0.1153522   0.0945537), wk =   0.0219479

     Largest allocated arrays     est. size (Mb)     dimensions
     Largest temporary arrays     est. size (Mb)     dimensions

     Initial potential from superposition of free atoms
     Check: negative starting charge=   -0.312618

     starting charge   53.79710, renormalised to   54.00000

     negative rho (up, down):  3.138E-01 0.000E+00

     *
     * You are using vdW-DF for exchange-correlation in this calculation.
     * Please cite the following three references that made this development
     * possible:
     *
     *   M. Dion, H. Rydberg, E. Schroder, D. C. Langreth, and
     *   B. I. Lundqvist, Phys. Rev. Lett. 92, 246401 (2004).
     *
     *   T. Thonhauser, V. R. Cooper, S. Li, A. Puzder, P. Hyldgaard, and
     *   D. C. Langreth, Phys. Rev. B 76, 125112 (2007).
     *
     *   G. Roman-Perez and J. M. Soler, Phys. Rev. Lett. 103, 096102 (2009).
     *
     *
     * If you are using vdW-DF2, please also cite:
     *
     *   K. Lee, E. D. Murray, L. Kong, B. I. Lundqvist, and
     *   D. C. Langreth, Phys. Rev. B 82, 081101(R) (2010).
     *
     *
     * If you are calculating the stress with vdW-DF, please also cite:
     *
     *   R. Sabatini, E. Kucukbenli, B. Kolb, T. Thonhauser, and
     *   S. de Gironcoli, J. Phys.: Condens. Matter 24, 424209 (2012).
     *

     Carrying out vdW-DF run using the following parameters:

     Nqs =      20    Nr_points =    1024   r_max =   100.000
     q_mesh =
               0.00001000     0.04494208     0.09755937     0.15916263
               0.23128650     0.31572767     0.41458969     0.53033537
               0.66584808     0.82450364     1.01025438     1.22772762
               1.48234092     1.78043706     2.12944203     2.53805004
               3.01644009     3.57652955     4.23227104     5.00000000

     Gradients computed in reciprocal space

     Starting wfc are   52 randomized atomic wfcs

     Self-consistent Calculation

     iteration #  1     ecut=    58.80 Ry     beta=0.10
     Davidson diagonalization with overlap
     ethr =  1.00E-02,  avg # of iterations =  4.1

     Threshold (ethr) on eigenvalues was too large:
     Diagonalizing with lowered threshold

     Davidson diagonalization with overlap
     ethr =  2.00E-04,  avg # of iterations =  2.3

[...]

     total energy              =    -607.46692068 Ry
     Harris-Foulkes estimate   =    -607.47504854 Ry
     estimated scf accuracy    <       0.10976599 Ry

[...]

     total energy              =    -607.45196183 Ry
     Harris-Foulkes estimate   =    -607.45196298 Ry
     estimated scf accuracy    <       0.00000545 Ry

     iteration #  9     ecut=    58.80 Ry     beta=0.10
     Davidson diagonalization with overlap
     ethr =  1.01E-08,  avg # of iterations =  1.2

     negative rho (up, down):  3.396E-01 0.000E+00

     End of self-consistent calculation

          k = 0.0000 0.0000 0.0000 (  3557 PWs)   bands (ev):

   -54.7021 -54.5806 -48.3240 -48.1483 -19.1278 -19.1278 -18.8381 -18.6027
   -18.3418 -18.3418 -15.1422 -15.1422 -14.7161 -14.4829 -14.1140 -14.1140
    11.0205  14.3860  14.5062  14.7775  15.7013  15.7517  15.7517  17.9514
    20.1859  20.2719  20.5906  20.5906  23.4905  23.7510  23.7510  23.8422
    23.8422  23.8576  24.5108  25.5110  25.5110  25.9983  26.2123  28.3760
    28.7406  29.3131  29.4931  31.6754  31.6754  32.6117  33.0707

[...]

          k = 0.1154 0.1154 0.0946 (  3575 PWs)   bands (ev):

   -54.6425 -54.6388 -48.2378 -48.2325 -19.2475 -19.2254 -18.7227 -18.7167
   -18.2881 -18.2631 -15.2856 -15.2571 -14.6066 -14.5981 -14.0441 -14.0103
    14.4389  14.5538  14.6073  14.6525  17.6314  17.7631  18.3800  18.5615
    19.4576  19.8748  20.0185  20.2854  20.4044  20.6871  20.8559  20.9502
    24.0399  24.2708  24.7067  24.8494  24.8810  24.9419  25.3585  25.4297
    29.6843  29.7494  30.9085  30.9808  31.3450  31.4947  31.5546

     the Fermi energy is    19.5323 ev

!    total energy              =    -607.45196339 Ry
     Harris-Foulkes estimate   =    -607.45196219 Ry
     estimated scf accuracy    <       0.00000075 Ry

     The total energy is the sum of the following terms:

     one-electron contribution =     -68.90207286 Ry
     hartree contribution      =      63.27970309 Ry
     xc contribution           =    -172.63584796 Ry
     ewald contribution        =    -429.18625618 Ry
     smearing contrib. (-TS)   =      -0.00748949 Ry

     convergence has been achieved in   9 iterations

     Forces acting on atoms (Ry/au):

     negative rho (up, down):  3.396E-01 0.000E+00
     atom    1 type  1   force =     0.00000000    0.00000000    0.00000000
     atom    2 type  1   force =     0.00000000    0.00000000    0.00000000
     atom    3 type  2   force =     0.00000000    0.00000000    0.00000000
     atom    4 type  2   force =     0.00000000    0.00000000    0.00000000

     Total force =     0.000000     Total SCF correction =     0.000000

     General routines

     Parallel routines

   This run was terminated on:   5:30:42  15Nov2017

   JOB DONE.