     Program PWSCF v.5.1rc2 starts on 14Nov2017 at  9:42:10

     Current dimensions of program PWSCF are:
     Max number of different atomic species (ntypx) = 10
     Max number of k-points (npk) =  40000
     Max angular momentum in pseudopotentials (lmaxx) =  3

     IMPORTANT: XC functional enforced from input :
     Exchange-correlation      = BEEF-VDW ( 1  4 27 13 2)
     Any further DFT definition will be discarded
     Please, verify this is what you really want

     Found symmetry operation: I + (  0.5000  0.5000  0.0000)
     This is a supercell, fractional translations are disabled

     bravais-lattice index     =            0
     lattice parameter (alat)  =       1.8897  a.u.
     unit-cell volume          =     584.0945 (a.u.)^3
     number of atoms/cell      =            4
     number of atomic types    =            2
     number of electrons       =        54.00
     number of Kohn-Sham states=           47
     kinetic-energy cutoff     =      58.7989  Ry
     charge density cutoff     =     587.9892  Ry
     convergence threshold     =      1.0E-06
     mixing beta               =       0.1000
     number of iterations used =           10  plain     mixing
     Exchange-correlation      = BEEF-VDW ( 1  4 27 13 2)

     celldm(1)=   1.889726  celldm(2)=   0.000000  celldm(3)=   0.000000
     celldm(4)=   0.000000  celldm(5)=   0.000000  celldm(6)=   0.000000

     crystal axes: (cart. coord. in units of alat)
               a(1) = (   4.965266   0.000000   0.000000 )
               a(2) = (   0.000000   4.965266   0.000000 )
               a(3) = (   0.000000   0.000000   3.510762 )

     reciprocal axes: (cart. coord. in units 2 pi/alat)
               b(1) = (  0.201399  0.000000  0.000000 )
               b(2) = (  0.000000  0.201399  0.000000 )
               b(3) = (  0.000000  0.000000  0.284838 )

     PseudoPot. # 1 for Y  read from file:
     /home/users/vossj/suncat/psp/gbrv1.5pbe/Y.UPF
     MD5 check sum: d034151ed7554c50b6e82763ed42c788
     Pseudo is Ultrasoft + core correction, Zval = 11.0
     Generated by new atomic code, or converted to UPF format
     Using radial grid of  885 points,  6 beta functions with:
                l(1) =   0
                l(2) =   0
                l(3) =   1
                l(4) =   1
                l(5) =   2
                l(6) =   2
     Q(r) pseudized with  8 coefficients,  rinner =    1.200   1.200   1.200
                                                       1.200   1.200

     PseudoPot. # 2 for Pt read from file:
     /home/users/vossj/suncat/psp/gbrv1.5pbe/Pt.UPF
     MD5 check sum: f09d6de1a584b5a045c4fc126da2d0c4
     Pseudo is Ultrasoft + core correction, Zval = 16.0
     Generated by new atomic code, or converted to UPF format
     Using radial grid of  985 points,  6 beta functions with:
                l(1) =   0
                l(2) =   0
                l(3) =   1
                l(4) =   1
                l(5) =   2
                l(6) =   2
     Q(r) pseudized with  8 coefficients,  rinner =    1.300   1.300   1.300
                                                       1.300   1.300

     vdW kernel table read from file vdW_kernel_table
     MD5 check sum: 095c7af220d748ca6e76c0b4c6cfb241

     atomic species   valence    mass     pseudopotential
        Y1            11.00    88.90590     Y ( 1.00)
        Pt1           16.00   195.08000     Pt( 1.00)

     16 Sym. Ops., with inversion, found

   Cartesian axes

     site n.     atom                  positions (alat units)
         1           Y1  tau(   1) = (   0.0000000   0.0000000   0.0000000  )
         2           Y1  tau(   2) = (   2.4826331   2.4826331   0.0000000  )
         3           Pt1 tau(   3) = (   2.4826331   0.0000000   1.7553811  )
         4           Pt1 tau(   4) = (   0.0000000   2.4826331   1.7553811  )

     number of k points=    75  Fermi-Dirac smearing, width (Ry)=  0.0073
                       cart. coord. in units 2pi/alat
        k(    1) = (   0.0000000   0.0000000   0.0000000), wk =   0.0027435
        k(    2) = (   0.0000000   0.0000000   0.0316487), wk =   0.0054870
        k(    3) = (   0.0000000   0.0000000   0.0632974), wk =   0.0054870
        k(    4) = (   0.0000000   0.0000000   0.0949461), wk =   0.0054870
        k(    5) = (   0.0000000   0.0000000   0.1265949), wk =   0.0054870
        k(    6) = (   0.0000000   0.0223777   0.0000000), wk =   0.0109739
        k(    7) = (   0.0000000   0.0223777   0.0316487), wk =   0.0219479
        k(    8) = (   0.0000000   0.0223777   0.0632974), wk =   0.0219479
        k(    9) = (   0.0000000   0.0223777   0.0949461), wk =   0.0219479
        k(   10) = (   0.0000000   0.0223777   0.1265949), wk =   0.0219479
        k(   11) = (   0.0000000   0.0447553   0.0000000), wk =   0.0109739
        k(   12) = (   0.0000000   0.0447553   0.0316487), wk =   0.0219479
        k(   13) = (   0.0000000   0.0447553   0.0632974), wk =   0.0219479
        k(   14) = (   0.0000000   0.0447553   0.0949461), wk =   0.0219479
        k(   15) = (   0.0000000   0.0447553   0.1265949), wk =   0.0219479
        k(   16) = (   0.0000000   0.0671330   0.0000000), wk =   0.0109739
        k(   17) = (   0.0000000   0.0671330   0.0316487), wk =   0.0219479
        k(   18) = (   0.0000000   0.0671330   0.0632974), wk =   0.0219479
        k(   19) = (   0.0000000   0.0671330   0.0949461), wk =   0.0219479
        k(   20) = (   0.0000000   0.0671330   0.1265949), wk =   0.0219479
        k(   21) = (   0.0000000   0.0895107   0.0000000), wk =   0.0109739
        k(   22) = (   0.0000000   0.0895107   0.0316487), wk =   0.0219479
        k(   23) = (   0.0000000   0.0895107   0.0632974), wk =   0.0219479
        k(   24) = (   0.0000000   0.0895107   0.0949461), wk =   0.0219479
        k(   25) = (   0.0000000   0.0895107   0.1265949), wk =   0.0219479
        k(   26) = (   0.0223777   0.0223777   0.0000000), wk =   0.0109739
        k(   27) = (   0.0223777   0.0223777   0.0316487), wk =   0.0219479
        k(   28) = (   0.0223777   0.0223777   0.0632974), wk =   0.0219479
        k(   29) = (   0.0223777   0.0223777   0.0949461), wk =   0.0219479
        k(   30) = (   0.0223777   0.0223777   0.1265949), wk =   0.0219479
        k(   31) = (   0.0223777   0.0447553   0.0000000), wk =   0.0219479
        k(   32) = (   0.0223777   0.0447553   0.0316487), wk =   0.0438957
        k(   33) = (   0.0223777   0.0447553   0.0632974), wk =   0.0438957
        k(   34) = (   0.0223777   0.0447553   0.0949461), wk =   0.0438957
        k(   35) = (   0.0223777   0.0447553   0.1265949), wk =   0.0438957
        k(   36) = (   0.0223777   0.0671330   0.0000000), wk =   0.0219479
        k(   37) = (   0.0223777   0.0671330   0.0316487), wk =   0.0438957
        k(   38) = (   0.0223777   0.0671330   0.0632974), wk =   0.0438957
        k(   39) = (   0.0223777   0.0671330   0.0949461), wk =   0.0438957
        k(   40) = (   0.0223777   0.0671330   0.1265949), wk =   0.0438957
        k(   41) = (   0.0223777   0.0895107   0.0000000), wk =   0.0219479
        k(   42) = (   0.0223777   0.0895107   0.0316487), wk =   0.0438957
        k(   43) = (   0.0223777   0.0895107   0.0632974), wk =   0.0438957
        k(   44) = (   0.0223777   0.0895107   0.0949461), wk =   0.0438957
        k(   45) = (   0.0223777   0.0895107   0.1265949), wk =   0.0438957
        k(   46) = (   0.0447553   0.0447553   0.0000000), wk =   0.0109739
        k(   47) = (   0.0447553   0.0447553   0.0316487), wk =   0.0219479
        k(   48) = (   0.0447553   0.0447553   0.0632974), wk =   0.0219479
        k(   49) = (   0.0447553   0.0447553   0.0949461), wk =   0.0219479
        k(   50) = (   0.0447553   0.0447553   0.1265949), wk =   0.0219479
        k(   51) = (   0.0447553   0.0671330   0.0000000), wk =   0.0219479
        k(   52) = (   0.0447553   0.0671330   0.0316487), wk =   0.0438957
        k(   53) = (   0.0447553   0.0671330   0.0632974), wk =   0.0438957
        k(   54) = (   0.0447553   0.0671330   0.0949461), wk =   0.0438957
        k(   55) = (   0.0447553   0.0671330   0.1265949), wk =   0.0438957
        k(   56) = (   0.0447553   0.0895107   0.0000000), wk =   0.0219479
        k(   57) = (   0.0447553   0.0895107   0.0316487), wk =   0.0438957
        k(   58) = (   0.0447553   0.0895107   0.0632974), wk =   0.0438957
        k(   59) = (   0.0447553   0.0895107   0.0949461), wk =   0.0438957
        k(   60) = (   0.0447553   0.0895107   0.1265949), wk =   0.0438957
        k(   61) = (   0.0671330   0.0671330   0.0000000), wk =   0.0109739
        k(   62) = (   0.0671330   0.0671330   0.0316487), wk =   0.0219479
        k(   63) = (   0.0671330   0.0671330   0.0632974), wk =   0.0219479
        k(   64) = (   0.0671330   0.0671330   0.0949461), wk =   0.0219479
        k(   65) = (   0.0671330   0.0671330   0.1265949), wk =   0.0219479
        k(   66) = (   0.0671330   0.0895107   0.0000000), wk =   0.0219479
        k(   67) = (   0.0671330   0.0895107   0.0316487), wk =   0.0438957
        k(   68) = (   0.0671330   0.0895107   0.0632974), wk =   0.0438957
        k(   69) = (   0.0671330   0.0895107   0.0949461), wk =   0.0438957
        k(   70) = (   0.0671330   0.0895107   0.1265949), wk =   0.0438957
        k(   71) = (   0.0895107   0.0895107   0.0000000), wk =   0.0109739
        k(   72) = (   0.0895107   0.0895107   0.0316487), wk =   0.0219479
        k(   73) = (   0.0895107   0.0895107   0.0632974), wk =   0.0219479
        k(   74) = (   0.0895107   0.0895107   0.0949461), wk =   0.0219479
        k(   75) = (   0.0895107   0.0895107   0.1265949), wk =   0.0219479

     Largest allocated arrays     est. size (Mb)     dimensions
     Largest temporary arrays     est. size (Mb)     dimensions

     Initial potential from superposition of free atoms
     Check: negative starting charge=   -0.365349

     starting charge   52.99104, renormalised to   54.00000

     negative rho (up, down):  3.723E-01 0.000E+00

     *
     * You are using vdW-DF for exchange-correlation in this calculation.
     * Please cite the following three references that made this development
     * possible:
     *
     *   M. Dion, H. Rydberg, E. Schroder, D. C. Langreth, and
     *   B. I. Lundqvist, Phys. Rev. Lett. 92, 246401 (2004).
     *
     *   T. Thonhauser, V. R. Cooper, S. Li, A. Puzder, P. Hyldgaard, and
     *   D. C. Langreth, Phys. Rev. B 76, 125112 (2007).
     *
     *   G. Roman-Perez and J. M. Soler, Phys. Rev. Lett. 103, 096102 (2009).
     *
     *
     * If you are using vdW-DF2, please also cite:
     *
     *   K. Lee, E. D. Murray, L. Kong, B. I. Lundqvist, and
     *   D. C. Langreth, Phys. Rev. B 82, 081101(R) (2010).
     *
     *
     * If you are calculating the stress with vdW-DF, please also cite:
     *
     *   R. Sabatini, E. Kucukbenli, B. Kolb, T. Thonhauser, and
     *   S. de Gironcoli, J. Phys.: Condens. Matter 24, 424209 (2012).
     *

     Carrying out vdW-DF run using the following parameters:

     Nqs =      20    Nr_points =    1024   r_max =   100.000
     q_mesh =
               0.00001000     0.04494208     0.09755937     0.15916263
               0.23128650     0.31572767     0.41458969     0.53033537
               0.66584808     0.82450364     1.01025438     1.22772762
               1.48234092     1.78043706     2.12944203     2.53805004
               3.01644009     3.57652955     4.23227104     5.00000000

     Gradients computed in reciprocal space

     Starting wfc are   50 randomized atomic wfcs

     Self-consistent Calculation

     iteration #  1     ecut=    58.80 Ry     beta=0.10
     Davidson diagonalization with overlap
     ethr =  1.00E-02,  avg # of iterations =  4.4

[...]

     total energy              =    -612.52323617 Ry
     Harris-Foulkes estimate   =    -613.07949718 Ry
     estimated scf accuracy    <       3.36553601 Ry

[...]

     total energy              =    -612.54884194 Ry
     Harris-Foulkes estimate   =    -612.54883689 Ry
     estimated scf accuracy    <       0.00000200 Ry

     iteration # 12     ecut=    58.80 Ry     beta=0.10
     Davidson diagonalization with overlap
     ethr =  2.54E-09,  avg # of iterations =  1.5

     negative rho (up, down):  3.469E-01 0.000E+00

     End of self-consistent calculation

          k = 0.0000 0.0000 0.0000 (  4421 PWs)   bands (ev):

   -37.5964 -37.5964 -37.5834 -37.5834 -37.5831 -37.5809 -27.9209 -27.8645
    -8.0225  -8.0225  -7.7034  -7.7021  -7.7021  -7.6387   8.1589  10.1786
    10.6524  10.6528  10.6532  11.6574  11.6574  12.4726  12.4733  12.4733
    13.4314  14.0005  16.0617  16.0617  16.8006  16.8025  17.4126  19.7009
    19.7009  20.1411  20.1411  20.1418  20.7612  21.8249  21.8249  21.8268
    23.3465  24.4904  25.8585  25.8585  26.0384  27.3025  28.5934

[...]

          k = 0.0895 0.0895 0.1266 (  4428 PWs)   bands (ev):

   -37.5964 -37.5960 -37.5957 -37.5956 -37.5816 -37.5812 -27.8660 -27.8644
    -8.0240  -8.0174  -8.0138  -8.0133  -7.6498  -7.6398  10.2181  10.2532
    10.7037  10.7111  11.6718  11.6791  11.6803  11.7177  13.2848  13.3476
    13.8152  13.9296  15.8018  15.9249  16.0943  16.1616  17.4068  17.4601
    19.4892  19.7037  19.7329  19.7868  20.7459  20.7825  23.1115  23.4243
    24.4505  24.4727  25.9237  26.0666  26.2008  26.2624  26.3037

     the Fermi energy is    15.1869 ev

!    total energy              =    -612.54886645 Ry
     Harris-Foulkes estimate   =    -612.54884222 Ry
     estimated scf accuracy    <          7.8E-09 Ry

     The total energy is the sum of the following terms:

     one-electron contribution =    -125.04092055 Ry
     hartree contribution      =      94.13426101 Ry
     xc contribution           =    -174.09662782 Ry
     ewald contribution        =    -407.54028932 Ry
     smearing contrib. (-TS)   =      -0.00528977 Ry

     convergence has been achieved in  12 iterations

     Forces acting on atoms (Ry/au):

     negative rho (up, down):  3.469E-01 0.000E+00
     atom    1 type  1   force =     0.00000000    0.00000000    0.00000000
     atom    2 type  1   force =     0.00000000    0.00000000    0.00000000
     atom    3 type  2   force =     0.00000000    0.00000000    0.00000000
     atom    4 type  2   force =     0.00000000    0.00000000    0.00000000

     Total force =     0.000000     Total SCF correction =     0.000000

     General routines

     Parallel routines

   This run was terminated on:   9:42:58  14Nov2017

   JOB DONE.