     Program PWSCF v.5.1rc2 starts on 14Nov2017 at 15:44: 7

     Current dimensions of program PWSCF are:
     Max number of different atomic species (ntypx) = 10
     Max number of k-points (npk) =  40000
     Max angular momentum in pseudopotentials (lmaxx) =  3

     IMPORTANT: XC functional enforced from input :
     Exchange-correlation      = BEEF-VDW ( 1  4 27 13 2)
     Any further DFT definition will be discarded
     Please, verify this is what you really want

     Found symmetry operation: I + (  0.5000  0.5000  0.0000)
     This is a supercell, fractional translations are disabled

     bravais-lattice index     =            0
     lattice parameter (alat)  =       1.8897  a.u.
     unit-cell volume          =     581.1199 (a.u.)^3
     number of atoms/cell      =            4
     number of atomic types    =            2
     number of electrons       =        50.00
     number of Kohn-Sham states=           45
     kinetic-energy cutoff     =      58.7989  Ry
     charge density cutoff     =     587.9892  Ry
     convergence threshold     =      1.0E-06
     mixing beta               =       0.1000
     number of iterations used =           10  plain     mixing
     Exchange-correlation      = BEEF-VDW ( 1  4 27 13 2)

     celldm(1)=   1.889726  celldm(2)=   0.000000  celldm(3)=   0.000000
     celldm(4)=   0.000000  celldm(5)=   0.000000  celldm(6)=   0.000000

     crystal axes: (cart. coord. in units of alat)
               a(1) = (   4.176672   0.000000   0.000000 )
               a(2) = (   0.000000   4.176672   0.000000 )
               a(3) = (   0.000000   0.000000   4.936378 )

     reciprocal axes: (cart. coord. in units 2 pi/alat)
               b(1) = (  0.239425  0.000000  0.000000 )
               b(2) = (  0.000000  0.239425  0.000000 )
               b(3) = (  0.000000  0.000000  0.202578 )

     PseudoPot. # 1 for Mo read from file:
     /home/users/vossj/suncat/psp/gbrv1.5pbe/Mo.UPF
     MD5 check sum: 30c4dcd161f5d35cd49bb5239c51a633
     Pseudo is Ultrasoft + core correction, Zval = 14.0
     Generated by new atomic code, or converted to UPF format
     Using radial grid of  889 points,  6 beta functions with:
                l(1) =   0
                l(2) =   0
                l(3) =   1
                l(4) =   1
                l(5) =   2
                l(6) =   2
     Q(r) pseudized with  6 coefficients,  rinner =    1.000   1.000   1.000
                                                       1.000   1.000

     PseudoPot. # 2 for Y  read from file:
     /home/users/vossj/suncat/psp/gbrv1.5pbe/Y.UPF
     MD5 check sum: d034151ed7554c50b6e82763ed42c788
     Pseudo is Ultrasoft + core correction, Zval = 11.0
     Generated by new atomic code, or converted to UPF format
     Using radial grid of  885 points,  6 beta functions with:
                l(1) =   0
                l(2) =   0
                l(3) =   1
                l(4) =   1
                l(5) =   2
                l(6) =   2
     Q(r) pseudized with  8 coefficients,  rinner =    1.200   1.200   1.200
                                                       1.200   1.200

     vdW kernel table read from file vdW_kernel_table
     MD5 check sum: 095c7af220d748ca6e76c0b4c6cfb241

     atomic species   valence    mass     pseudopotential
        Mo1           14.00    95.94000     Mo( 1.00)
        Y1            11.00    88.90590     Y ( 1.00)

     16 Sym. Ops., with inversion, found

   Cartesian axes

     site n.     atom                  positions (alat units)
         1           Mo1 tau(   1) = (   0.0000000   0.0000000   0.0000000  )
         2           Mo1 tau(   2) = (   2.0883359   2.0883359   0.0000000  )
         3           Y1  tau(   3) = (   2.0883359   0.0000000   2.4681891  )
         4           Y1  tau(   4) = (   0.0000000   2.0883359   2.4681891  )

     number of k points=    75  Fermi-Dirac smearing, width (Ry)=  0.0073
                       cart. coord. in units 2pi/alat
        k(    1) = (   0.0000000   0.0000000   0.0000000), wk =   0.0027435
        k(    2) = (   0.0000000   0.0000000   0.0225086), wk =   0.0054870
        k(    3) = (   0.0000000   0.0000000   0.0450173), wk =   0.0054870
        k(    4) = (   0.0000000   0.0000000   0.0675259), wk =   0.0054870
        k(    5) = (   0.0000000   0.0000000   0.0900345), wk =   0.0054870
        k(    6) = (   0.0000000   0.0266028   0.0000000), wk =   0.0109739
        k(    7) = (   0.0000000   0.0266028   0.0225086), wk =   0.0219479
        k(    8) = (   0.0000000   0.0266028   0.0450173), wk =   0.0219479
        k(    9) = (   0.0000000   0.0266028   0.0675259), wk =   0.0219479
        k(   10) = (   0.0000000   0.0266028   0.0900345), wk =   0.0219479
        k(   11) = (   0.0000000   0.0532056   0.0000000), wk =   0.0109739
        k(   12) = (   0.0000000   0.0532056   0.0225086), wk =   0.0219479
        k(   13) = (   0.0000000   0.0532056   0.0450173), wk =   0.0219479
        k(   14) = (   0.0000000   0.0532056   0.0675259), wk =   0.0219479
        k(   15) = (   0.0000000   0.0532056   0.0900345), wk =   0.0219479
        k(   16) = (   0.0000000   0.0798084   0.0000000), wk =   0.0109739
        k(   17) = (   0.0000000   0.0798084   0.0225086), wk =   0.0219479
        k(   18) = (   0.0000000   0.0798084   0.0450173), wk =   0.0219479
        k(   19) = (   0.0000000   0.0798084   0.0675259), wk =   0.0219479
        k(   20) = (   0.0000000   0.0798084   0.0900345), wk =   0.0219479
        k(   21) = (   0.0000000   0.1064111   0.0000000), wk =   0.0109739
        k(   22) = (   0.0000000   0.1064111   0.0225086), wk =   0.0219479
        k(   23) = (   0.0000000   0.1064111   0.0450173), wk =   0.0219479
        k(   24) = (   0.0000000   0.1064111   0.0675259), wk =   0.0219479
        k(   25) = (   0.0000000   0.1064111   0.0900345), wk =   0.0219479
        k(   26) = (   0.0266028   0.0266028   0.0000000), wk =   0.0109739
        k(   27) = (   0.0266028   0.0266028   0.0225086), wk =   0.0219479
        k(   28) = (   0.0266028   0.0266028   0.0450173), wk =   0.0219479
        k(   29) = (   0.0266028   0.0266028   0.0675259), wk =   0.0219479
        k(   30) = (   0.0266028   0.0266028   0.0900345), wk =   0.0219479
        k(   31) = (   0.0266028   0.0532056   0.0000000), wk =   0.0219479
        k(   32) = (   0.0266028   0.0532056   0.0225086), wk =   0.0438957
        k(   33) = (   0.0266028   0.0532056   0.0450173), wk =   0.0438957
        k(   34) = (   0.0266028   0.0532056   0.0675259), wk =   0.0438957
        k(   35) = (   0.0266028   0.0532056   0.0900345), wk =   0.0438957
        k(   36) = (   0.0266028   0.0798084   0.0000000), wk =   0.0219479
        k(   37) = (   0.0266028   0.0798084   0.0225086), wk =   0.0438957
        k(   38) = (   0.0266028   0.0798084   0.0450173), wk =   0.0438957
        k(   39) = (   0.0266028   0.0798084   0.0675259), wk =   0.0438957
        k(   40) = (   0.0266028   0.0798084   0.0900345), wk =   0.0438957
        k(   41) = (   0.0266028   0.1064111   0.0000000), wk =   0.0219479
        k(   42) = (   0.0266028   0.1064111   0.0225086), wk =   0.0438957
        k(   43) = (   0.0266028   0.1064111   0.0450173), wk =   0.0438957
        k(   44) = (   0.0266028   0.1064111   0.0675259), wk =   0.0438957
        k(   45) = (   0.0266028   0.1064111   0.0900345), wk =   0.0438957
        k(   46) = (   0.0532056   0.0532056   0.0000000), wk =   0.0109739
        k(   47) = (   0.0532056   0.0532056   0.0225086), wk =   0.0219479
        k(   48) = (   0.0532056   0.0532056   0.0450173), wk =   0.0219479
        k(   49) = (   0.0532056   0.0532056   0.0675259), wk =   0.0219479
        k(   50) = (   0.0532056   0.0532056   0.0900345), wk =   0.0219479
        k(   51) = (   0.0532056   0.0798084   0.0000000), wk =   0.0219479
        k(   52) = (   0.0532056   0.0798084   0.0225086), wk =   0.0438957
        k(   53) = (   0.0532056   0.0798084   0.0450173), wk =   0.0438957
        k(   54) = (   0.0532056   0.0798084   0.0675259), wk =   0.0438957
        k(   55) = (   0.0532056   0.0798084   0.0900345), wk =   0.0438957
        k(   56) = (   0.0532056   0.1064111   0.0000000), wk =   0.0219479
        k(   57) = (   0.0532056   0.1064111   0.0225086), wk =   0.0438957
        k(   58) = (   0.0532056   0.1064111   0.0450173), wk =   0.0438957
        k(   59) = (   0.0532056   0.1064111   0.0675259), wk =   0.0438957
        k(   60) = (   0.0532056   0.1064111   0.0900345), wk =   0.0438957
        k(   61) = (   0.0798084   0.0798084   0.0000000), wk =   0.0109739
        k(   62) = (   0.0798084   0.0798084   0.0225086), wk =   0.0219479
        k(   63) = (   0.0798084   0.0798084   0.0450173), wk =   0.0219479
        k(   64) = (   0.0798084   0.0798084   0.0675259), wk =   0.0219479
        k(   65) = (   0.0798084   0.0798084   0.0900345), wk =   0.0219479
        k(   66) = (   0.0798084   0.1064111   0.0000000), wk =   0.0219479
        k(   67) = (   0.0798084   0.1064111   0.0225086), wk =   0.0438957
        k(   68) = (   0.0798084   0.1064111   0.0450173), wk =   0.0438957
        k(   69) = (   0.0798084   0.1064111   0.0675259), wk =   0.0438957
        k(   70) = (   0.0798084   0.1064111   0.0900345), wk =   0.0438957
        k(   71) = (   0.1064111   0.1064111   0.0000000), wk =   0.0109739
        k(   72) = (   0.1064111   0.1064111   0.0225086), wk =   0.0219479
        k(   73) = (   0.1064111   0.1064111   0.0450173), wk =   0.0219479
        k(   74) = (   0.1064111   0.1064111   0.0675259), wk =   0.0219479
        k(   75) = (   0.1064111   0.1064111   0.0900345), wk =   0.0219479

     Largest allocated arrays     est. size (Mb)     dimensions
     Largest temporary arrays     est. size (Mb)     dimensions

     Initial potential from superposition of free atoms

     starting charge   49.98893, renormalised to   50.00000

     *
     * You are using vdW-DF for exchange-correlation in this calculation.
     * Please cite the following three references that made this development
     * possible:
     *
     *   M. Dion, H. Rydberg, E. Schroder, D. C. Langreth, and
     *   B. I. Lundqvist, Phys. Rev. Lett. 92, 246401 (2004).
     *
     *   T. Thonhauser, V. R. Cooper, S. Li, A. Puzder, P. Hyldgaard, and
     *   D. C. Langreth, Phys. Rev. B 76, 125112 (2007).
     *
     *   G. Roman-Perez and J. M. Soler, Phys. Rev. Lett. 103, 096102 (2009).
     *
     *
     * If you are using vdW-DF2, please also cite:
     *
     *   K. Lee, E. D. Murray, L. Kong, B. I. Lundqvist, and
     *   D. C. Langreth, Phys. Rev. B 82, 081101(R) (2010).
     *
     *
     * If you are calculating the stress with vdW-DF, please also cite:
     *
     *   R. Sabatini, E. Kucukbenli, B. Kolb, T. Thonhauser, and
     *   S. de Gironcoli, J. Phys.: Condens. Matter 24, 424209 (2012).
     *

     Carrying out vdW-DF run using the following parameters:

     Nqs =      20    Nr_points =    1024   r_max =   100.000
     q_mesh =
               0.00001000     0.04494208     0.09755937     0.15916263
               0.23128650     0.31572767     0.41458969     0.53033537
               0.66584808     0.82450364     1.01025438     1.22772762
               1.48234092     1.78043706     2.12944203     2.53805004
               3.01644009     3.57652955     4.23227104     5.00000000

     Gradients computed in reciprocal space

     Starting wfc are   52 randomized atomic wfcs

     Self-consistent Calculation

     iteration #  1     ecut=    58.80 Ry     beta=0.10
     Davidson diagonalization with overlap
     ethr =  1.00E-02,  avg # of iterations =  4.7

     Threshold (ethr) on eigenvalues was too large:
     Diagonalizing with lowered threshold

     Davidson diagonalization with overlap
     ethr =  1.91E-04,  avg # of iterations =  3.8

     total energy              =    -467.28679342 Ry
     Harris-Foulkes estimate   =    -467.29911478 Ry
     estimated scf accuracy    <       0.09498960 Ry

[...]

     total energy              =    -467.28839824 Ry
     Harris-Foulkes estimate   =    -467.28839326 Ry
     estimated scf accuracy    <       0.00000251 Ry

     iteration #  9     ecut=    58.80 Ry     beta=0.10
     Davidson diagonalization with overlap
     ethr =  5.03E-09,  avg # of iterations =  1.8

     End of self-consistent calculation

          k = 0.0000 0.0000 0.0000 (  4459 PWs)   bands (ev):

   -46.2706 -46.1859 -27.7750 -27.3837 -20.4470 -20.4470 -20.2471 -20.1452
   -20.0577 -20.0577  -8.3562  -8.3562  -7.6262  -7.2284  -7.0561  -7.0561
     9.2588  11.3840  11.4394  11.5308  12.1490  12.2333  12.2333  14.7478
    15.4739  15.4739  16.3114  16.6433  17.1056  17.6440  18.3778  19.0250
    19.0250  19.0992  19.0992  20.6609  20.9677  20.9677  21.9866  22.5565
    24.1473  25.2731  25.4006  26.2913  26.2913

[...]

          k = 0.1064 0.1064 0.0900 (  4404 PWs)   bands (ev):

   -46.2290 -46.2264 -27.5814 -27.5695 -20.5005 -20.4891 -20.1972 -20.1945
   -20.0325 -20.0204  -8.5940  -8.5589  -7.4343  -7.4212  -6.9539  -6.9100
    11.4828  11.5428  11.8102  11.8326  13.5335  13.6043  14.8647  15.2304
    15.3696  15.5882  15.6581  15.6730  15.7887  16.0874  16.2872  16.5291
    18.5564  18.6390  19.2426  19.5034  20.7687  20.8544  20.9677  20.9954
    23.9482  24.1067  25.3114  25.3779  25.9784

     the Fermi energy is    14.7024 ev

!    total energy              =    -467.28842284 Ry
     Harris-Foulkes estimate   =    -467.28839857 Ry
     estimated scf accuracy    <       0.00000083 Ry

     The total energy is the sum of the following terms:

     one-electron contribution =     -95.11358645 Ry
     hartree contribution      =      69.71044983 Ry
     xc contribution           =     -96.82156238 Ry
     ewald contribution        =    -345.05171331 Ry
     smearing contrib. (-TS)   =      -0.01201052 Ry

     convergence has been achieved in   9 iterations

     Forces acting on atoms (Ry/au):

     atom    1 type  1   force =     0.00000000    0.00000000    0.00000000
     atom    2 type  1   force =     0.00000000    0.00000000    0.00000000
     atom    3 type  2   force =     0.00000000    0.00000000    0.00000000
     atom    4 type  2   force =     0.00000000    0.00000000    0.00000000

     Total force =     0.000000     Total SCF correction =     0.000000

     General routines

     Parallel routines

   This run was terminated on:  15:44:42  14Nov2017

   JOB DONE.