     Program PWSCF v.5.1rc2 starts on 15Nov2017 at  5: 2:40

     Current dimensions of program PWSCF are:
     Max number of different atomic species (ntypx) = 10
     Max number of k-points (npk) =  40000
     Max angular momentum in pseudopotentials (lmaxx) =  3

     IMPORTANT: XC functional enforced from input :
     Exchange-correlation      = BEEF-VDW ( 1  4 27 13 2)
     Any further DFT definition will be discarded
     Please, verify this is what you really want

     Found symmetry operation: I + ( -0.5000 -0.5000  0.0000)
     This is a supercell, fractional translations are disabled

     bravais-lattice index     =            0
     lattice parameter (alat)  =       1.8897  a.u.
     unit-cell volume          =     480.4884 (a.u.)^3
     number of atoms/cell      =            4
     number of atomic types    =            2
     number of electrons       =        48.00
     number of Kohn-Sham states=           44
     kinetic-energy cutoff     =      58.7989  Ry
     charge density cutoff     =     587.9892  Ry
     convergence threshold     =      1.0E-06
     mixing beta               =       0.1000
     number of iterations used =           10  plain     mixing
     Exchange-correlation      = BEEF-VDW ( 1  4 27 13 2)

     celldm(1)=   1.889726  celldm(2)=   0.000000  celldm(3)=   0.000000
     celldm(4)=   0.000000  celldm(5)=   0.000000  celldm(6)=   0.000000

     crystal axes: (cart. coord. in units of alat)
               a(1) = (   3.941203   0.000000   0.000000 )
               a(2) = (   0.000000   3.941203   0.000000 )
               a(3) = (   0.000000   0.000000   4.583832 )

     reciprocal axes: (cart. coord. in units 2 pi/alat)
               b(1) = (  0.253730  0.000000  0.000000 )
               b(2) = (  0.000000  0.253730  0.000000 )
               b(3) = (  0.000000  0.000000  0.218158 )

     PseudoPot. # 1 for Sc read from file:
     /home/users/vossj/suncat/psp/gbrv1.5pbe/Sc.UPF
     MD5 check sum: db30a2753ba66ef00f23801d899b7e7f
     Pseudo is Ultrasoft + core correction, Zval = 11.0
     Generated by new atomic code, or converted to UPF format
     Using radial grid of  849 points,  6 beta functions with:
                l(1) =   0
                l(2) =   0
                l(3) =   1
                l(4) =   1
                l(5) =   2
                l(6) =   2
     Q(r) pseudized with  6 coefficients,  rinner =    1.200   1.200   1.200
                                                       1.200   1.200

     PseudoPot. # 2 for V  read from file:
     /home/users/vossj/suncat/psp/gbrv1.5pbe/V.UPF
     MD5 check sum: 22b79981416ebb76fdaf5b1b8640f6fb
     Pseudo is Ultrasoft + core correction, Zval = 13.0
     Generated by new atomic code, or converted to UPF format
     Using radial grid of  853 points,  6 beta functions with:
                l(1) =   0
                l(2) =   0
                l(3) =   1
                l(4) =   1
                l(5) =   2
                l(6) =   2
     Q(r) pseudized with  8 coefficients,  rinner =    1.100   1.100   1.100
                                                       1.100   1.100

     vdW kernel table read from file vdW_kernel_table
     MD5 check sum: 095c7af220d748ca6e76c0b4c6cfb241

     atomic species   valence    mass     pseudopotential
        Sc1           11.00    44.95590     Sc( 1.00)
        V1            13.00    50.94150     V ( 1.00)

     16 Sym. Ops., with inversion, found

   Cartesian axes

     site n.     atom                  positions (alat units)
         1           Sc1 tau(   1) = (   0.0000000   0.0000000   0.0000000  )
         2           Sc1 tau(   2) = (   1.9706015   1.9706015   0.0000000  )
         3           V1  tau(   3) = (   1.9706015   0.0000000   2.2919161  )
         4           V1  tau(   4) = (   0.0000000   1.9706015   2.2919161  )

     number of k points=    75  Fermi-Dirac smearing, width (Ry)=  0.0073
                       cart. coord. in units 2pi/alat
        k(    1) = (   0.0000000   0.0000000   0.0000000), wk =   0.0027435
        k(    2) = (   0.0000000   0.0000000   0.0242398), wk =   0.0054870
        k(    3) = (   0.0000000   0.0000000   0.0484796), wk =   0.0054870
        k(    4) = (   0.0000000   0.0000000   0.0727194), wk =   0.0054870
        k(    5) = (   0.0000000   0.0000000   0.0969591), wk =   0.0054870
        k(    6) = (   0.0000000   0.0281922   0.0000000), wk =   0.0109739
        k(    7) = (   0.0000000   0.0281922   0.0242398), wk =   0.0219479
        k(    8) = (   0.0000000   0.0281922   0.0484796), wk =   0.0219479
        k(    9) = (   0.0000000   0.0281922   0.0727194), wk =   0.0219479
        k(   10) = (   0.0000000   0.0281922   0.0969591), wk =   0.0219479
        k(   11) = (   0.0000000   0.0563844   0.0000000), wk =   0.0109739
        k(   12) = (   0.0000000   0.0563844   0.0242398), wk =   0.0219479
        k(   13) = (   0.0000000   0.0563844   0.0484796), wk =   0.0219479
        k(   14) = (   0.0000000   0.0563844   0.0727194), wk =   0.0219479
        k(   15) = (   0.0000000   0.0563844   0.0969591), wk =   0.0219479
        k(   16) = (   0.0000000   0.0845765   0.0000000), wk =   0.0109739
        k(   17) = (   0.0000000   0.0845765   0.0242398), wk =   0.0219479
        k(   18) = (   0.0000000   0.0845765   0.0484796), wk =   0.0219479
        k(   19) = (   0.0000000   0.0845765   0.0727194), wk =   0.0219479
        k(   20) = (   0.0000000   0.0845765   0.0969591), wk =   0.0219479
        k(   21) = (   0.0000000   0.1127687   0.0000000), wk =   0.0109739
        k(   22) = (   0.0000000   0.1127687   0.0242398), wk =   0.0219479
        k(   23) = (   0.0000000   0.1127687   0.0484796), wk =   0.0219479
        k(   24) = (   0.0000000   0.1127687   0.0727194), wk =   0.0219479
        k(   25) = (   0.0000000   0.1127687   0.0969591), wk =   0.0219479
        k(   26) = (   0.0281922   0.0281922   0.0000000), wk =   0.0109739
        k(   27) = (   0.0281922   0.0281922   0.0242398), wk =   0.0219479
        k(   28) = (   0.0281922   0.0281922   0.0484796), wk =   0.0219479
        k(   29) = (   0.0281922   0.0281922   0.0727194), wk =   0.0219479
        k(   30) = (   0.0281922   0.0281922   0.0969591), wk =   0.0219479
        k(   31) = (   0.0281922   0.0563844   0.0000000), wk =   0.0219479
        k(   32) = (   0.0281922   0.0563844   0.0242398), wk =   0.0438957
        k(   33) = (   0.0281922   0.0563844   0.0484796), wk =   0.0438957
        k(   34) = (   0.0281922   0.0563844   0.0727194), wk =   0.0438957
        k(   35) = (   0.0281922   0.0563844   0.0969591), wk =   0.0438957
        k(   36) = (   0.0281922   0.0845765   0.0000000), wk =   0.0219479
        k(   37) = (   0.0281922   0.0845765   0.0242398), wk =   0.0438957
        k(   38) = (   0.0281922   0.0845765   0.0484796), wk =   0.0438957
        k(   39) = (   0.0281922   0.0845765   0.0727194), wk =   0.0438957
        k(   40) = (   0.0281922   0.0845765   0.0969591), wk =   0.0438957
        k(   41) = (   0.0281922   0.1127687   0.0000000), wk =   0.0219479
        k(   42) = (   0.0281922   0.1127687   0.0242398), wk =   0.0438957
        k(   43) = (   0.0281922   0.1127687   0.0484796), wk =   0.0438957
        k(   44) = (   0.0281922   0.1127687   0.0727194), wk =   0.0438957
        k(   45) = (   0.0281922   0.1127687   0.0969591), wk =   0.0438957
        k(   46) = (   0.0563844   0.0563844   0.0000000), wk =   0.0109739
        k(   47) = (   0.0563844   0.0563844   0.0242398), wk =   0.0219479
        k(   48) = (   0.0563844   0.0563844   0.0484796), wk =   0.0219479
        k(   49) = (   0.0563844   0.0563844   0.0727194), wk =   0.0219479
        k(   50) = (   0.0563844   0.0563844   0.0969591), wk =   0.0219479
        k(   51) = (   0.0563844   0.0845765   0.0000000), wk =   0.0219479
        k(   52) = (   0.0563844   0.0845765   0.0242398), wk =   0.0438957
        k(   53) = (   0.0563844   0.0845765   0.0484796), wk =   0.0438957
        k(   54) = (   0.0563844   0.0845765   0.0727194), wk =   0.0438957
        k(   55) = (   0.0563844   0.0845765   0.0969591), wk =   0.0438957
        k(   56) = (   0.0563844   0.1127687   0.0000000), wk =   0.0219479
        k(   57) = (   0.0563844   0.1127687   0.0242398), wk =   0.0438957
        k(   58) = (   0.0563844   0.1127687   0.0484796), wk =   0.0438957
        k(   59) = (   0.0563844   0.1127687   0.0727194), wk =   0.0438957
        k(   60) = (   0.0563844   0.1127687   0.0969591), wk =   0.0438957
        k(   61) = (   0.0845765   0.0845765   0.0000000), wk =   0.0109739
        k(   62) = (   0.0845765   0.0845765   0.0242398), wk =   0.0219479
        k(   63) = (   0.0845765   0.0845765   0.0484796), wk =   0.0219479
        k(   64) = (   0.0845765   0.0845765   0.0727194), wk =   0.0219479
        k(   65) = (   0.0845765   0.0845765   0.0969591), wk =   0.0219479
        k(   66) = (   0.0845765   0.1127687   0.0000000), wk =   0.0219479
        k(   67) = (   0.0845765   0.1127687   0.0242398), wk =   0.0438957
        k(   68) = (   0.0845765   0.1127687   0.0484796), wk =   0.0438957
        k(   69) = (   0.0845765   0.1127687   0.0727194), wk =   0.0438957
        k(   70) = (   0.0845765   0.1127687   0.0969591), wk =   0.0438957
        k(   71) = (   0.1127687   0.1127687   0.0000000), wk =   0.0109739
        k(   72) = (   0.1127687   0.1127687   0.0242398), wk =   0.0219479
        k(   73) = (   0.1127687   0.1127687   0.0484796), wk =   0.0219479
        k(   74) = (   0.1127687   0.1127687   0.0727194), wk =   0.0219479
        k(   75) = (   0.1127687   0.1127687   0.0969591), wk =   0.0219479

     Largest allocated arrays     est. size (Mb)     dimensions
     Largest temporary arrays     est. size (Mb)     dimensions

     Check: negative/imaginary core charge=   -0.000002    0.000000

     Initial potential from superposition of free atoms
     Check: negative starting charge=   -0.000810

     starting charge   47.99274, renormalised to   48.00000

     negative rho (up, down):  8.103E-04 0.000E+00

     *
     * You are using vdW-DF for exchange-correlation in this calculation.
     * Please cite the following three references that made this development
     * possible:
     *
     *   M. Dion, H. Rydberg, E. Schroder, D. C. Langreth, and
     *   B. I. Lundqvist, Phys. Rev. Lett. 92, 246401 (2004).
     *
     *   T. Thonhauser, V. R. Cooper, S. Li, A. Puzder, P. Hyldgaard, and
     *   D. C. Langreth, Phys. Rev. B 76, 125112 (2007).
     *
     *   G. Roman-Perez and J. M. Soler, Phys. Rev. Lett. 103, 096102 (2009).
     *
     *
     * If you are using vdW-DF2, please also cite:
     *
     *   K. Lee, E. D. Murray, L. Kong, B. I. Lundqvist, and
     *   D. C. Langreth, Phys. Rev. B 82, 081101(R) (2010).
     *
     *
     * If you are calculating the stress with vdW-DF, please also cite:
     *
     *   R. Sabatini, E. Kucukbenli, B. Kolb, T. Thonhauser, and
     *   S. de Gironcoli, J. Phys.: Condens. Matter 24, 424209 (2012).
     *

     Carrying out vdW-DF run using the following parameters:

     Nqs =      20    Nr_points =    1024   r_max =   100.000
     q_mesh =
               0.00001000     0.04494208     0.09755937     0.15916263
               0.23128650     0.31572767     0.41458969     0.53033537
               0.66584808     0.82450364     1.01025438     1.22772762
               1.48234092     1.78043706     2.12944203     2.53805004
               3.01644009     3.57652955     4.23227104     5.00000000

     Gradients computed in reciprocal space

     Starting wfc are   46 randomized atomic wfcs

     Self-consistent Calculation

     iteration #  1     ecut=    58.80 Ry     beta=0.10
     Davidson diagonalization with overlap
     ethr =  1.00E-02,  avg # of iterations =  3.4

     Threshold (ethr) on eigenvalues was too large:
     Diagonalizing with lowered threshold

     Davidson diagonalization with overlap
     ethr =  1.13E-04,  avg # of iterations =  2.2

[...]

     total energy              =    -481.16046405 Ry
     Harris-Foulkes estimate   =    -481.16612904 Ry
     estimated scf accuracy    <       0.05463385 Ry

[...]

     total energy              =    -481.15881549 Ry
     Harris-Foulkes estimate   =    -481.15881899 Ry
     estimated scf accuracy    <       0.00000219 Ry

     iteration # 11     ecut=    58.80 Ry     beta=0.10
     Davidson diagonalization with overlap
     ethr =  4.55E-09,  avg # of iterations =  2.0

     negative rho (up, down):  1.145E-03 0.000E+00

     End of self-consistent calculation

          k = 0.0000 0.0000 0.0000 (  3617 PWs)   bands (ev):

   -51.5973 -51.5262 -36.6734 -36.4346 -25.5038 -25.5038 -25.3742 -25.3027
   -25.2324 -25.2324 -15.6191 -15.6191 -15.1527 -14.9453 -14.8984 -14.8984
     6.7539  10.0296  10.1420  10.2921  11.0399  11.0399  11.0994  12.9602
    13.6797  13.6797  13.9011  14.2775  14.7957  15.1548  15.4976  15.9803
    15.9803  16.4685  16.4685  16.8781  16.9207  16.9207  17.3625  18.4802
    21.5496  22.1737  23.8621  23.9811

[...]

          k = 0.1128 0.1128 0.0970 (  3643 PWs)   bands (ev):

   -51.5623 -51.5602 -36.5549 -36.5476 -25.5422 -25.5342 -25.3394 -25.3375
   -25.2148 -25.2065 -15.7455 -15.7248 -15.0525 -15.0458 -14.8455 -14.8225
     9.9890  10.0806  10.3698  10.4272  12.3360  12.3950  12.9021  13.0486
    13.2728  13.3841  13.5103  13.5569  13.6308  13.7468  13.7994  13.8763
    15.6209  15.6869  15.9865  16.1742  16.9152  16.9284  17.0083  17.0973
    20.5190  20.6807  21.5532  21.7137

     the Fermi energy is    12.5173 ev

!    total energy              =    -481.15882945 Ry
     Harris-Foulkes estimate   =    -481.15881575 Ry
     estimated scf accuracy    <       0.00000002 Ry

     The total energy is the sum of the following terms:

     one-electron contribution =    -181.54311493 Ry
     hartree contribution      =     106.98109835 Ry
     xc contribution           =     -68.68637240 Ry
     ewald contribution        =    -337.89459084 Ry
     smearing contrib. (-TS)   =      -0.01584964 Ry

     convergence has been achieved in  11 iterations

     Forces acting on atoms (Ry/au):

     negative rho (up, down):  1.145E-03 0.000E+00
     atom    1 type  1   force =     0.00000000    0.00000000    0.00000000
     atom    2 type  1   force =     0.00000000    0.00000000    0.00000000
     atom    3 type  2   force =     0.00000000    0.00000000    0.00000000
     atom    4 type  2   force =     0.00000000    0.00000000    0.00000000

     Total force =     0.000000     Total SCF correction =     0.000000

     General routines

     Parallel routines

   This run was terminated on:   5: 3:13  15Nov2017

   JOB DONE.