     Program PWSCF v.5.1rc2 starts on 15Nov2017 at  5:26:40

     Current dimensions of program PWSCF are:
     Max number of different atomic species (ntypx) = 10
     Max number of k-points (npk) =  40000
     Max angular momentum in pseudopotentials (lmaxx) =  3

     IMPORTANT: XC functional enforced from input :
     Exchange-correlation      = BEEF-VDW ( 1  4 27 13 2)
     Any further DFT definition will be discarded
     Please, verify this is what you really want

     Found symmetry operation: I + ( -0.5000 -0.5000  0.0000)
     This is a supercell, fractional translations are disabled

     bravais-lattice index     =            0
     lattice parameter (alat)  =       1.8897  a.u.
     unit-cell volume          =     445.8429 (a.u.)^3
     number of atoms/cell      =            4
     number of atomic types    =            2
     number of electrons       =        52.00
     number of Kohn-Sham states=           46
     kinetic-energy cutoff     =      58.7989  Ry
     charge density cutoff     =     587.9892  Ry
     convergence threshold     =      1.0E-06
     mixing beta               =       0.1000
     number of iterations used =           10  plain     mixing
     Exchange-correlation      = BEEF-VDW ( 1  4 27 13 2)

     celldm(1)=   1.889726  celldm(2)=   0.000000  celldm(3)=   0.000000
     celldm(4)=   0.000000  celldm(5)=   0.000000  celldm(6)=   0.000000

     crystal axes: (cart. coord. in units of alat)
               a(1) = (   3.793125   0.000000   0.000000 )
               a(2) = (   0.000000   3.793125   0.000000 )
               a(3) = (   0.000000   0.000000   4.591885 )

     reciprocal axes: (cart. coord. in units 2 pi/alat)
               b(1) = (  0.263635  0.000000  0.000000 )
               b(2) = (  0.000000  0.263635  0.000000 )
               b(3) = (  0.000000  0.000000  0.217775 )

     PseudoPot. # 1 for Ti read from file:
     /home/users/vossj/suncat/psp/gbrv1.5pbe/Ti.UPF
     MD5 check sum: 88a00a6731bd790ddea75d31a80cb452
     Pseudo is Ultrasoft + core correction, Zval = 12.0
     Generated by new atomic code, or converted to UPF format
     Using radial grid of  851 points,  6 beta functions with:
                l(1) =   0
                l(2) =   0
                l(3) =   1
                l(4) =   1
                l(5) =   2
                l(6) =   2
     Q(r) pseudized with  6 coefficients,  rinner =    1.000   1.000   1.000
                                                       1.000   1.000

     PseudoPot. # 2 for W  read from file:
     /home/users/vossj/suncat/psp/gbrv1.5pbe/W.UPF
     MD5 check sum: 9c083fa34c2a2ea0f02f1f893e16e1c8
     Pseudo is Ultrasoft + core correction, Zval = 14.0
     Generated by new atomic code, or converted to UPF format
     Using radial grid of  923 points,  8 beta functions with:
                l(1) =   0
                l(2) =   0
                l(3) =   0
                l(4) =   1
                l(5) =   1
                l(6) =   2
                l(7) =   2
                l(8) =   3
     Q(r) pseudized with  6 coefficients,  rinner =    1.350   1.350   1.350
                                                       1.350   1.350   1.350
                                                       1.350

     vdW kernel table read from file vdW_kernel_table
     MD5 check sum: 095c7af220d748ca6e76c0b4c6cfb241

     atomic species   valence    mass     pseudopotential
        Ti1           12.00    47.88000     Ti( 1.00)
        W1            14.00   183.85000     W ( 1.00)

     16 Sym. Ops., with inversion, found

   Cartesian axes

     site n.     atom                  positions (alat units)
         1           Ti1 tau(   1) = (   0.0000000   0.0000000   0.0000000  )
         2           Ti1 tau(   2) = (   1.8965625   1.8965625   0.0000000  )
         3           W1  tau(   3) = (   1.8965625   0.0000000   2.2959424  )
         4           W1  tau(   4) = (   0.0000000   1.8965625   2.2959424  )

     number of k points=    75  Fermi-Dirac smearing, width (Ry)=  0.0073
                       cart. coord. in units 2pi/alat
        k(    1) = (   0.0000000   0.0000000   0.0000000), wk =   0.0027435
        k(    2) = (   0.0000000   0.0000000   0.0241973), wk =   0.0054870
        k(    3) = (   0.0000000   0.0000000   0.0483946), wk =   0.0054870
        k(    4) = (   0.0000000   0.0000000   0.0725918), wk =   0.0054870
        k(    5) = (   0.0000000   0.0000000   0.0967891), wk =   0.0054870
        k(    6) = (   0.0000000   0.0292928   0.0000000), wk =   0.0109739
        k(    7) = (   0.0000000   0.0292928   0.0241973), wk =   0.0219479
        k(    8) = (   0.0000000   0.0292928   0.0483946), wk =   0.0219479
        k(    9) = (   0.0000000   0.0292928   0.0725918), wk =   0.0219479
        k(   10) = (   0.0000000   0.0292928   0.0967891), wk =   0.0219479
        k(   11) = (   0.0000000   0.0585855   0.0000000), wk =   0.0109739
        k(   12) = (   0.0000000   0.0585855   0.0241973), wk =   0.0219479
        k(   13) = (   0.0000000   0.0585855   0.0483946), wk =   0.0219479
        k(   14) = (   0.0000000   0.0585855   0.0725918), wk =   0.0219479
        k(   15) = (   0.0000000   0.0585855   0.0967891), wk =   0.0219479
        k(   16) = (   0.0000000   0.0878783   0.0000000), wk =   0.0109739
        k(   17) = (   0.0000000   0.0878783   0.0241973), wk =   0.0219479
        k(   18) = (   0.0000000   0.0878783   0.0483946), wk =   0.0219479
        k(   19) = (   0.0000000   0.0878783   0.0725918), wk =   0.0219479
        k(   20) = (   0.0000000   0.0878783   0.0967891), wk =   0.0219479
        k(   21) = (   0.0000000   0.1171711   0.0000000), wk =   0.0109739
        k(   22) = (   0.0000000   0.1171711   0.0241973), wk =   0.0219479
        k(   23) = (   0.0000000   0.1171711   0.0483946), wk =   0.0219479
        k(   24) = (   0.0000000   0.1171711   0.0725918), wk =   0.0219479
        k(   25) = (   0.0000000   0.1171711   0.0967891), wk =   0.0219479
        k(   26) = (   0.0292928   0.0292928   0.0000000), wk =   0.0109739
        k(   27) = (   0.0292928   0.0292928   0.0241973), wk =   0.0219479
        k(   28) = (   0.0292928   0.0292928   0.0483946), wk =   0.0219479
        k(   29) = (   0.0292928   0.0292928   0.0725918), wk =   0.0219479
        k(   30) = (   0.0292928   0.0292928   0.0967891), wk =   0.0219479
        k(   31) = (   0.0292928   0.0585855   0.0000000), wk =   0.0219479
        k(   32) = (   0.0292928   0.0585855   0.0241973), wk =   0.0438957
        k(   33) = (   0.0292928   0.0585855   0.0483946), wk =   0.0438957
        k(   34) = (   0.0292928   0.0585855   0.0725918), wk =   0.0438957
        k(   35) = (   0.0292928   0.0585855   0.0967891), wk =   0.0438957
        k(   36) = (   0.0292928   0.0878783   0.0000000), wk =   0.0219479
        k(   37) = (   0.0292928   0.0878783   0.0241973), wk =   0.0438957
        k(   38) = (   0.0292928   0.0878783   0.0483946), wk =   0.0438957
        k(   39) = (   0.0292928   0.0878783   0.0725918), wk =   0.0438957
        k(   40) = (   0.0292928   0.0878783   0.0967891), wk =   0.0438957
        k(   41) = (   0.0292928   0.1171711   0.0000000), wk =   0.0219479
        k(   42) = (   0.0292928   0.1171711   0.0241973), wk =   0.0438957
        k(   43) = (   0.0292928   0.1171711   0.0483946), wk =   0.0438957
        k(   44) = (   0.0292928   0.1171711   0.0725918), wk =   0.0438957
        k(   45) = (   0.0292928   0.1171711   0.0967891), wk =   0.0438957
        k(   46) = (   0.0585855   0.0585855   0.0000000), wk =   0.0109739
        k(   47) = (   0.0585855   0.0585855   0.0241973), wk =   0.0219479
        k(   48) = (   0.0585855   0.0585855   0.0483946), wk =   0.0219479
        k(   49) = (   0.0585855   0.0585855   0.0725918), wk =   0.0219479
        k(   50) = (   0.0585855   0.0585855   0.0967891), wk =   0.0219479
        k(   51) = (   0.0585855   0.0878783   0.0000000), wk =   0.0219479
        k(   52) = (   0.0585855   0.0878783   0.0241973), wk =   0.0438957
        k(   53) = (   0.0585855   0.0878783   0.0483946), wk =   0.0438957
        k(   54) = (   0.0585855   0.0878783   0.0725918), wk =   0.0438957
        k(   55) = (   0.0585855   0.0878783   0.0967891), wk =   0.0438957
        k(   56) = (   0.0585855   0.1171711   0.0000000), wk =   0.0219479
        k(   57) = (   0.0585855   0.1171711   0.0241973), wk =   0.0438957
        k(   58) = (   0.0585855   0.1171711   0.0483946), wk =   0.0438957
        k(   59) = (   0.0585855   0.1171711   0.0725918), wk =   0.0438957
        k(   60) = (   0.0585855   0.1171711   0.0967891), wk =   0.0438957
        k(   61) = (   0.0878783   0.0878783   0.0000000), wk =   0.0109739
        k(   62) = (   0.0878783   0.0878783   0.0241973), wk =   0.0219479
        k(   63) = (   0.0878783   0.0878783   0.0483946), wk =   0.0219479
        k(   64) = (   0.0878783   0.0878783   0.0725918), wk =   0.0219479
        k(   65) = (   0.0878783   0.0878783   0.0967891), wk =   0.0219479
        k(   66) = (   0.0878783   0.1171711   0.0000000), wk =   0.0219479
        k(   67) = (   0.0878783   0.1171711   0.0241973), wk =   0.0438957
        k(   68) = (   0.0878783   0.1171711   0.0483946), wk =   0.0438957
        k(   69) = (   0.0878783   0.1171711   0.0725918), wk =   0.0438957
        k(   70) = (   0.0878783   0.1171711   0.0967891), wk =   0.0438957
        k(   71) = (   0.1171711   0.1171711   0.0000000), wk =   0.0109739
        k(   72) = (   0.1171711   0.1171711   0.0241973), wk =   0.0219479
        k(   73) = (   0.1171711   0.1171711   0.0483946), wk =   0.0219479
        k(   74) = (   0.1171711   0.1171711   0.0725918), wk =   0.0219479
        k(   75) = (   0.1171711   0.1171711   0.0967891), wk =   0.0219479

     Largest allocated arrays     est. size (Mb)     dimensions
     Largest temporary arrays     est. size (Mb)     dimensions

     Check: negative/imaginary core charge=   -0.000001    0.000000

     Initial potential from superposition of free atoms
     Check: negative starting charge=   -0.127425

     starting charge   49.79923, renormalised to   52.00000

     negative rho (up, down):  1.331E-01 0.000E+00

     *
     * You are using vdW-DF for exchange-correlation in this calculation.
     * Please cite the following three references that made this development
     * possible:
     *
     *   M. Dion, H. Rydberg, E. Schroder, D. C. Langreth, and
     *   B. I. Lundqvist, Phys. Rev. Lett. 92, 246401 (2004).
     *
     *   T. Thonhauser, V. R. Cooper, S. Li, A. Puzder, P. Hyldgaard, and
     *   D. C. Langreth, Phys. Rev. B 76, 125112 (2007).
     *
     *   G. Roman-Perez and J. M. Soler, Phys. Rev. Lett. 103, 096102 (2009).
     *
     *
     * If you are using vdW-DF2, please also cite:
     *
     *   K. Lee, E. D. Murray, L. Kong, B. I. Lundqvist, and
     *   D. C. Langreth, Phys. Rev. B 82, 081101(R) (2010).
     *
     *
     * If you are calculating the stress with vdW-DF, please also cite:
     *
     *   R. Sabatini, E. Kucukbenli, B. Kolb, T. Thonhauser, and
     *   S. de Gironcoli, J. Phys.: Condens. Matter 24, 424209 (2012).
     *

     Carrying out vdW-DF run using the following parameters:

     Nqs =      20    Nr_points =    1024   r_max =   100.000
     q_mesh =
               0.00001000     0.04494208     0.09755937     0.15916263
               0.23128650     0.31572767     0.41458969     0.53033537
               0.66584808     0.82450364     1.01025438     1.22772762
               1.48234092     1.78043706     2.12944203     2.53805004
               3.01644009     3.57652955     4.23227104     5.00000000

     Gradients computed in reciprocal space

     Starting wfc are   46 randomized atomic wfcs

     Self-consistent Calculation

     iteration #  1     ecut=    58.80 Ry     beta=0.10
     Davidson diagonalization with overlap
     ethr =  1.00E-02,  avg # of iterations =  3.6

[...]

     total energy              =    -559.83871945 Ry
     Harris-Foulkes estimate   =    -562.10451265 Ry
     estimated scf accuracy    <      12.62654537 Ry

[...]

     total energy              =    -560.78640685 Ry
     Harris-Foulkes estimate   =    -560.78640969 Ry
     estimated scf accuracy    <       0.00000737 Ry

     iteration # 11     ecut=    58.80 Ry     beta=0.10
     Davidson diagonalization with overlap
     ethr =  1.42E-08,  avg # of iterations =  2.0

     negative rho (up, down):  1.382E-01 0.000E+00

     End of self-consistent calculation

          k = 0.0000 0.0000 0.0000 (  3413 PWs)   bands (ev):

   -56.7723 -56.6243 -39.4872 -39.2905 -21.2759 -21.2759 -20.8893 -20.6354
   -20.3712 -20.3712 -15.9329 -15.9329 -15.6537 -15.5109 -15.3259 -15.3259
     9.6243  12.4511  13.1439  13.7423  14.0021  14.2677  14.2677  16.7300
    18.2100  18.3124  18.5093  18.5093  20.7142  20.7142  20.7823  20.8773
    21.2116  21.7431  21.7431  21.8089  21.8089  21.9553  22.2528  24.5287
    26.9618  27.0803  28.2684  29.7124  29.7124  30.3951

[...]

          k = 0.1172 0.1172 0.0968 (  3391 PWs)   bands (ev):

   -56.6997 -56.6952 -39.3899 -39.3840 -21.4127 -21.3873 -20.7640 -20.7570
   -20.3094 -20.2803 -16.0237 -16.0061 -15.5861 -15.5809 -15.2845 -15.2654
    12.9714  13.1413  13.2414  13.2470  15.7606  15.8607  17.1492  17.2868
    17.3916  17.8576  17.8792  18.0182  18.3150  18.6135  18.6974  18.7589
    20.8831  21.0693  21.3651  21.3787  21.4551  21.5006  21.8477  21.9224
    27.1233  27.1514  27.5622  27.8155  30.1191  30.2020

     the Fermi energy is    17.2657 ev

!    total energy              =    -560.78640897 Ry
     Harris-Foulkes estimate   =    -560.78640818 Ry
     estimated scf accuracy    <       0.00000047 Ry

     The total energy is the sum of the following terms:

     one-electron contribution =    -113.30256388 Ry
     hartree contribution      =      81.45208498 Ry
     xc contribution           =    -122.84369458 Ry
     ewald contribution        =    -406.07980061 Ry
     smearing contrib. (-TS)   =      -0.01243488 Ry

     convergence has been achieved in  11 iterations

     Forces acting on atoms (Ry/au):

     negative rho (up, down):  1.382E-01 0.000E+00
     atom    1 type  1   force =     0.00000000    0.00000000    0.00000000
     atom    2 type  1   force =     0.00000000    0.00000000    0.00000000
     atom    3 type  2   force =     0.00000000    0.00000000    0.00000000
     atom    4 type  2   force =     0.00000000    0.00000000    0.00000000

     Total force =     0.000000     Total SCF correction =     0.000000

     General routines

     Parallel routines

   This run was terminated on:   5:27:14  15Nov2017

   JOB DONE.