     Program PWSCF v.5.1rc2 starts on 15Nov2017 at  6:47:32

     Current dimensions of program PWSCF are:
     Max number of different atomic species (ntypx) = 10
     Max number of k-points (npk) =  40000
     Max angular momentum in pseudopotentials (lmaxx) =  3

     IMPORTANT: XC functional enforced from input :
     Exchange-correlation      = BEEF-VDW ( 1  4 27 13 2)
     Any further DFT definition will be discarded
     Please, verify this is what you really want

     Found symmetry operation: I + ( -0.5000 -0.5000  0.0000)
     This is a supercell, fractional translations are disabled

     bravais-lattice index     =            0
     lattice parameter (alat)  =       1.8897  a.u.
     unit-cell volume          =     377.8513 (a.u.)^3
     number of atoms/cell      =            4
     number of atomic types    =            2
     number of electrons       =        56.00
     number of Kohn-Sham states=           48
     kinetic-energy cutoff     =      58.7989  Ry
     charge density cutoff     =     587.9892  Ry
     convergence threshold     =      1.0E-06
     mixing beta               =       0.1000
     number of iterations used =           10  plain     mixing
     Exchange-correlation      = BEEF-VDW ( 1  4 27 13 2)

     celldm(1)=   1.889726  celldm(2)=   0.000000  celldm(3)=   0.000000
     celldm(4)=   0.000000  celldm(5)=   0.000000  celldm(6)=   0.000000

     crystal axes: (cart. coord. in units of alat)
               a(1) = (   3.888901   0.000000   0.000000 )
               a(2) = (   0.000000   3.888901   0.000000 )
               a(3) = (   0.000000   0.000000   3.702291 )

     reciprocal axes: (cart. coord. in units 2 pi/alat)
               b(1) = (  0.257142  0.000000  0.000000 )
               b(2) = (  0.000000  0.257142  0.000000 )
               b(3) = (  0.000000  0.000000  0.270103 )

     PseudoPot. # 1 for V  read from file:
     /home/users/vossj/suncat/psp/gbrv1.5pbe/V.UPF
     MD5 check sum: 22b79981416ebb76fdaf5b1b8640f6fb
     Pseudo is Ultrasoft + core correction, Zval = 13.0
     Generated by new atomic code, or converted to UPF format
     Using radial grid of  853 points,  6 beta functions with:
                l(1) =   0
                l(2) =   0
                l(3) =   1
                l(4) =   1
                l(5) =   2
                l(6) =   2
     Q(r) pseudized with  8 coefficients,  rinner =    1.100   1.100   1.100
                                                       1.100   1.100

     PseudoPot. # 2 for Ir read from file:
     /home/users/vossj/suncat/psp/gbrv1.5pbe/Ir.UPF
     MD5 check sum: 8836f839c3459d2b385c504ce6d91f2c
     Pseudo is Ultrasoft + core correction, Zval = 15.0
     Generated by new atomic code, or converted to UPF format
     Using radial grid of  983 points,  7 beta functions with:
                l(1) =   0
                l(2) =   0
                l(3) =   1
                l(4) =   1
                l(5) =   1
                l(6) =   2
                l(7) =   2
     Q(r) pseudized with  8 coefficients,  rinner =    1.400   1.400   1.400
                                                       1.400   1.400

     vdW kernel table read from file vdW_kernel_table
     MD5 check sum: 095c7af220d748ca6e76c0b4c6cfb241

     atomic species   valence    mass     pseudopotential
        V1            13.00    50.94150     V ( 1.00)
        Ir1           15.00   192.22000     Ir( 1.00)

     16 Sym. Ops., with inversion, found

   Cartesian axes

     site n.     atom                  positions (alat units)
         1           V1  tau(   1) = (   0.0000000   0.0000000   0.0000000  )
         2           V1  tau(   2) = (   1.9444505   1.9444505   0.0000000  )
         3           Ir1 tau(   3) = (   1.9444505   0.0000000   1.8511457  )
         4           Ir1 tau(   4) = (   0.0000000   1.9444505   1.8511457  )

     number of k points=    75  Fermi-Dirac smearing, width (Ry)=  0.0073
                       cart. coord. in units 2pi/alat
        k(    1) = (   0.0000000   0.0000000   0.0000000), wk =   0.0027435
        k(    2) = (   0.0000000   0.0000000   0.0300114), wk =   0.0054870
        k(    3) = (   0.0000000   0.0000000   0.0600229), wk =   0.0054870
        k(    4) = (   0.0000000   0.0000000   0.0900343), wk =   0.0054870
        k(    5) = (   0.0000000   0.0000000   0.1200458), wk =   0.0054870
        k(    6) = (   0.0000000   0.0285713   0.0000000), wk =   0.0109739
        k(    7) = (   0.0000000   0.0285713   0.0300114), wk =   0.0219479
        k(    8) = (   0.0000000   0.0285713   0.0600229), wk =   0.0219479
        k(    9) = (   0.0000000   0.0285713   0.0900343), wk =   0.0219479
        k(   10) = (   0.0000000   0.0285713   0.1200458), wk =   0.0219479
        k(   11) = (   0.0000000   0.0571427   0.0000000), wk =   0.0109739
        k(   12) = (   0.0000000   0.0571427   0.0300114), wk =   0.0219479
        k(   13) = (   0.0000000   0.0571427   0.0600229), wk =   0.0219479
        k(   14) = (   0.0000000   0.0571427   0.0900343), wk =   0.0219479
        k(   15) = (   0.0000000   0.0571427   0.1200458), wk =   0.0219479
        k(   16) = (   0.0000000   0.0857140   0.0000000), wk =   0.0109739
        k(   17) = (   0.0000000   0.0857140   0.0300114), wk =   0.0219479
        k(   18) = (   0.0000000   0.0857140   0.0600229), wk =   0.0219479
        k(   19) = (   0.0000000   0.0857140   0.0900343), wk =   0.0219479
        k(   20) = (   0.0000000   0.0857140   0.1200458), wk =   0.0219479
        k(   21) = (   0.0000000   0.1142854   0.0000000), wk =   0.0109739
        k(   22) = (   0.0000000   0.1142854   0.0300114), wk =   0.0219479
        k(   23) = (   0.0000000   0.1142854   0.0600229), wk =   0.0219479
        k(   24) = (   0.0000000   0.1142854   0.0900343), wk =   0.0219479
        k(   25) = (   0.0000000   0.1142854   0.1200458), wk =   0.0219479
        k(   26) = (   0.0285713   0.0285713   0.0000000), wk =   0.0109739
        k(   27) = (   0.0285713   0.0285713   0.0300114), wk =   0.0219479
        k(   28) = (   0.0285713   0.0285713   0.0600229), wk =   0.0219479
        k(   29) = (   0.0285713   0.0285713   0.0900343), wk =   0.0219479
        k(   30) = (   0.0285713   0.0285713   0.1200458), wk =   0.0219479
        k(   31) = (   0.0285713   0.0571427   0.0000000), wk =   0.0219479
        k(   32) = (   0.0285713   0.0571427   0.0300114), wk =   0.0438957
        k(   33) = (   0.0285713   0.0571427   0.0600229), wk =   0.0438957
        k(   34) = (   0.0285713   0.0571427   0.0900343), wk =   0.0438957
        k(   35) = (   0.0285713   0.0571427   0.1200458), wk =   0.0438957
        k(   36) = (   0.0285713   0.0857140   0.0000000), wk =   0.0219479
        k(   37) = (   0.0285713   0.0857140   0.0300114), wk =   0.0438957
        k(   38) = (   0.0285713   0.0857140   0.0600229), wk =   0.0438957
        k(   39) = (   0.0285713   0.0857140   0.0900343), wk =   0.0438957
        k(   40) = (   0.0285713   0.0857140   0.1200458), wk =   0.0438957
        k(   41) = (   0.0285713   0.1142854   0.0000000), wk =   0.0219479
        k(   42) = (   0.0285713   0.1142854   0.0300114), wk =   0.0438957
        k(   43) = (   0.0285713   0.1142854   0.0600229), wk =   0.0438957
        k(   44) = (   0.0285713   0.1142854   0.0900343), wk =   0.0438957
        k(   45) = (   0.0285713   0.1142854   0.1200458), wk =   0.0438957
        k(   46) = (   0.0571427   0.0571427   0.0000000), wk =   0.0109739
        k(   47) = (   0.0571427   0.0571427   0.0300114), wk =   0.0219479
        k(   48) = (   0.0571427   0.0571427   0.0600229), wk =   0.0219479
        k(   49) = (   0.0571427   0.0571427   0.0900343), wk =   0.0219479
        k(   50) = (   0.0571427   0.0571427   0.1200458), wk =   0.0219479
        k(   51) = (   0.0571427   0.0857140   0.0000000), wk =   0.0219479
        k(   52) = (   0.0571427   0.0857140   0.0300114), wk =   0.0438957
        k(   53) = (   0.0571427   0.0857140   0.0600229), wk =   0.0438957
        k(   54) = (   0.0571427   0.0857140   0.0900343), wk =   0.0438957
        k(   55) = (   0.0571427   0.0857140   0.1200458), wk =   0.0438957
        k(   56) = (   0.0571427   0.1142854   0.0000000), wk =   0.0219479
        k(   57) = (   0.0571427   0.1142854   0.0300114), wk =   0.0438957
        k(   58) = (   0.0571427   0.1142854   0.0600229), wk =   0.0438957
        k(   59) = (   0.0571427   0.1142854   0.0900343), wk =   0.0438957
        k(   60) = (   0.0571427   0.1142854   0.1200458), wk =   0.0438957
        k(   61) = (   0.0857140   0.0857140   0.0000000), wk =   0.0109739
        k(   62) = (   0.0857140   0.0857140   0.0300114), wk =   0.0219479
        k(   63) = (   0.0857140   0.0857140   0.0600229), wk =   0.0219479
        k(   64) = (   0.0857140   0.0857140   0.0900343), wk =   0.0219479
        k(   65) = (   0.0857140   0.0857140   0.1200458), wk =   0.0219479
        k(   66) = (   0.0857140   0.1142854   0.0000000), wk =   0.0219479
        k(   67) = (   0.0857140   0.1142854   0.0300114), wk =   0.0438957
        k(   68) = (   0.0857140   0.1142854   0.0600229), wk =   0.0438957
        k(   69) = (   0.0857140   0.1142854   0.0900343), wk =   0.0438957
        k(   70) = (   0.0857140   0.1142854   0.1200458), wk =   0.0438957
        k(   71) = (   0.1142854   0.1142854   0.0000000), wk =   0.0109739
        k(   72) = (   0.1142854   0.1142854   0.0300114), wk =   0.0219479
        k(   73) = (   0.1142854   0.1142854   0.0600229), wk =   0.0219479
        k(   74) = (   0.1142854   0.1142854   0.0900343), wk =   0.0219479
        k(   75) = (   0.1142854   0.1142854   0.1200458), wk =   0.0219479

     Largest allocated arrays     est. size (Mb)     dimensions
     Largest temporary arrays     est. size (Mb)     dimensions

     Check: negative/imaginary core charge=   -0.000001    0.000000

     Initial potential from superposition of free atoms
     Check: negative starting charge=   -0.726593

     starting charge   54.99748, renormalised to   56.00000

     negative rho (up, down):  7.398E-01 0.000E+00

     *
     * You are using vdW-DF for exchange-correlation in this calculation.
     * Please cite the following three references that made this development
     * possible:
     *
     *   M. Dion, H. Rydberg, E. Schroder, D. C. Langreth, and
     *   B. I. Lundqvist, Phys. Rev. Lett. 92, 246401 (2004).
     *
     *   T. Thonhauser, V. R. Cooper, S. Li, A. Puzder, P. Hyldgaard, and
     *   D. C. Langreth, Phys. Rev. B 76, 125112 (2007).
     *
     *   G. Roman-Perez and J. M. Soler, Phys. Rev. Lett. 103, 096102 (2009).
     *
     *
     * If you are using vdW-DF2, please also cite:
     *
     *   K. Lee, E. D. Murray, L. Kong, B. I. Lundqvist, and
     *   D. C. Langreth, Phys. Rev. B 82, 081101(R) (2010).
     *
     *
     * If you are calculating the stress with vdW-DF, please also cite:
     *
     *   R. Sabatini, E. Kucukbenli, B. Kolb, T. Thonhauser, and
     *   S. de Gironcoli, J. Phys.: Condens. Matter 24, 424209 (2012).
     *

     Carrying out vdW-DF run using the following parameters:

     Nqs =      20    Nr_points =    1024   r_max =   100.000
     q_mesh =
               0.00001000     0.04494208     0.09755937     0.15916263
               0.23128650     0.31572767     0.41458969     0.53033537
               0.66584808     0.82450364     1.01025438     1.22772762
               1.48234092     1.78043706     2.12944203     2.53805004
               3.01644009     3.57652955     4.23227104     5.00000000

     Gradients computed in reciprocal space

     Starting wfc are   44 randomized atomic wfcs +    4 random wfc

     Self-consistent Calculation

     iteration #  1     ecut=    58.80 Ry     beta=0.10
     Davidson diagonalization with overlap
     ethr =  1.00E-02,  avg # of iterations =  3.9

[...]

     total energy              =    -658.34069919 Ry
     Harris-Foulkes estimate   =    -659.14077670 Ry
     estimated scf accuracy    <       4.79678003 Ry

[...]

     total energy              =    -658.45558334 Ry
     Harris-Foulkes estimate   =    -658.45558195 Ry
     estimated scf accuracy    <       0.00000127 Ry

     iteration # 14     ecut=    58.80 Ry     beta=0.10
     Davidson diagonalization with overlap
     ethr =  2.26E-09,  avg # of iterations =  1.0

     negative rho (up, down):  6.419E-01 0.000E+00

     End of self-consistent calculation

          k = 0.0000 0.0000 0.0000 (  2873 PWs)   bands (ev):

   -44.4480 -44.3637 -29.2536 -29.2536 -29.1209 -29.0418 -28.9309 -28.9309
   -18.3141 -18.3141 -18.2903 -18.2299 -18.0072 -18.0072  11.3600  13.9226
    14.4216  14.6231  15.0089  15.1847  15.1847  18.0813  18.0813  19.4781
    19.9801  21.1805  21.9527  22.0702  22.4707  22.4895  22.6909  22.6909
    22.7787  22.7787  22.8623  22.9250  22.9250  23.7534  29.7921  31.5446
    31.5646  32.5295  32.5295  32.8725  33.1517  33.1517  33.1978  33.3862

[...]

          k = 0.1143 0.1143 0.1200 (  2892 PWs)   bands (ev):

   -44.4059 -44.4033 -29.2935 -29.2841 -29.0946 -29.0925 -28.9093 -28.8995
   -18.3517 -18.3424 -18.2704 -18.2680 -17.9890 -17.9794  14.2375  14.3584
    14.5294  14.5379  17.4358  17.6190  17.6952  17.7216  18.0320  18.1090
    19.6904  19.8073  19.8691  20.1862  20.2051  20.3178  21.9012  21.9971
    22.4221  22.5165  22.5402  22.7158  22.8316  22.8455  27.2861  27.5507
    30.1976  30.4141  31.5567  31.5568  35.4447  35.5136  35.5979  35.6239

     the Fermi energy is    20.1010 ev

!    total energy              =    -658.45559000 Ry
     Harris-Foulkes estimate   =    -658.45558340 Ry
     estimated scf accuracy    <       0.00000011 Ry

     The total energy is the sum of the following terms:

     one-electron contribution =    -110.66379743 Ry
     hartree contribution      =      95.65985792 Ry
     xc contribution           =    -144.95453252 Ry
     ewald contribution        =    -498.48604927 Ry
     smearing contrib. (-TS)   =      -0.01106870 Ry

     convergence has been achieved in  14 iterations

     Forces acting on atoms (Ry/au):

     negative rho (up, down):  6.419E-01 0.000E+00
     atom    1 type  1   force =     0.00000000    0.00000000    0.00000000
     atom    2 type  1   force =     0.00000000    0.00000000    0.00000000
     atom    3 type  2   force =     0.00000000    0.00000000    0.00000000
     atom    4 type  2   force =     0.00000000    0.00000000    0.00000000

     Total force =     0.000000     Total SCF correction =     0.000000

     General routines

     Parallel routines

   This run was terminated on:   6:48:10  15Nov2017

   JOB DONE.