     Program PWSCF v.5.1rc2 starts on 15Nov2017 at  7:34:45

     Current dimensions of program PWSCF are:
     Max number of different atomic species (ntypx) = 10
     Max number of k-points (npk) =  40000
     Max angular momentum in pseudopotentials (lmaxx) =  3

     IMPORTANT: XC functional enforced from input :
     Exchange-correlation      = BEEF-VDW ( 1  4 27 13 2)
     Any further DFT definition will be discarded
     Please, verify this is what you really want

     Found symmetry operation: I + ( -0.5000 -0.5000  0.0000)
     This is a supercell, fractional translations are disabled

     bravais-lattice index     =            0
     lattice parameter (alat)  =       1.8897  a.u.
     unit-cell volume          =     516.1564 (a.u.)^3
     number of atoms/cell      =            4
     number of atomic types    =            2
     number of electrons       =        52.00
     number of Kohn-Sham states=           46
     kinetic-energy cutoff     =      58.7989  Ry
     charge density cutoff     =     587.9892  Ry
     convergence threshold     =      1.0E-06
     mixing beta               =       0.1000
     number of iterations used =           10  plain     mixing
     Exchange-correlation      = BEEF-VDW ( 1  4 27 13 2)

     celldm(1)=   1.889726  celldm(2)=   0.000000  celldm(3)=   0.000000
     celldm(4)=   0.000000  celldm(5)=   0.000000  celldm(6)=   0.000000

     crystal axes: (cart. coord. in units of alat)
               a(1) = (   3.936343   0.000000   0.000000 )
               a(2) = (   0.000000   3.936343   0.000000 )
               a(3) = (   0.000000   0.000000   4.936270 )

     reciprocal axes: (cart. coord. in units 2 pi/alat)
               b(1) = (  0.254043  0.000000  0.000000 )
               b(2) = (  0.000000  0.254043  0.000000 )
               b(3) = (  0.000000  0.000000  0.202582 )

     PseudoPot. # 1 for Zr read from file:
     /home/users/vossj/suncat/psp/gbrv1.5pbe/Zr.UPF
     MD5 check sum: 5db81b1e868ab7776c4564c113de050b
     Pseudo is Ultrasoft + core correction, Zval = 12.0
     Generated by new atomic code, or converted to UPF format
     Using radial grid of  887 points,  6 beta functions with:
                l(1) =   0
                l(2) =   0
                l(3) =   1
                l(4) =   1
                l(5) =   2
                l(6) =   2
     Q(r) pseudized with  6 coefficients,  rinner =    1.200   1.200   1.200
                                                       1.200   1.200

     PseudoPot. # 2 for W  read from file:
     /home/users/vossj/suncat/psp/gbrv1.5pbe/W.UPF
     MD5 check sum: 9c083fa34c2a2ea0f02f1f893e16e1c8
     Pseudo is Ultrasoft + core correction, Zval = 14.0
     Generated by new atomic code, or converted to UPF format
     Using radial grid of  923 points,  8 beta functions with:
                l(1) =   0
                l(2) =   0
                l(3) =   0
                l(4) =   1
                l(5) =   1
                l(6) =   2
                l(7) =   2
                l(8) =   3
     Q(r) pseudized with  6 coefficients,  rinner =    1.350   1.350   1.350
                                                       1.350   1.350   1.350
                                                       1.350

     vdW kernel table read from file vdW_kernel_table
     MD5 check sum: 095c7af220d748ca6e76c0b4c6cfb241

     atomic species   valence    mass     pseudopotential
        Zr1           12.00    91.22400     Zr( 1.00)
        W1            14.00   183.85000     W ( 1.00)

     16 Sym. Ops., with inversion, found

   Cartesian axes

     site n.     atom                  positions (alat units)
         1           Zr1 tau(   1) = (   0.0000000   0.0000000   0.0000000  )
         2           Zr1 tau(   2) = (   1.9681715   1.9681715   0.0000000  )
         3           W1  tau(   3) = (   1.9681715   0.0000000   2.4681349  )
         4           W1  tau(   4) = (   0.0000000   1.9681715   2.4681349  )

     number of k points=    75  Fermi-Dirac smearing, width (Ry)=  0.0073
                       cart. coord. in units 2pi/alat
        k(    1) = (   0.0000000   0.0000000   0.0000000), wk =   0.0027435
        k(    2) = (   0.0000000   0.0000000   0.0225091), wk =   0.0054870
        k(    3) = (   0.0000000   0.0000000   0.0450182), wk =   0.0054870
        k(    4) = (   0.0000000   0.0000000   0.0675274), wk =   0.0054870
        k(    5) = (   0.0000000   0.0000000   0.0900365), wk =   0.0054870
        k(    6) = (   0.0000000   0.0282270   0.0000000), wk =   0.0109739
        k(    7) = (   0.0000000   0.0282270   0.0225091), wk =   0.0219479
        k(    8) = (   0.0000000   0.0282270   0.0450182), wk =   0.0219479
        k(    9) = (   0.0000000   0.0282270   0.0675274), wk =   0.0219479
        k(   10) = (   0.0000000   0.0282270   0.0900365), wk =   0.0219479
        k(   11) = (   0.0000000   0.0564540   0.0000000), wk =   0.0109739
        k(   12) = (   0.0000000   0.0564540   0.0225091), wk =   0.0219479
        k(   13) = (   0.0000000   0.0564540   0.0450182), wk =   0.0219479
        k(   14) = (   0.0000000   0.0564540   0.0675274), wk =   0.0219479
        k(   15) = (   0.0000000   0.0564540   0.0900365), wk =   0.0219479
        k(   16) = (   0.0000000   0.0846810   0.0000000), wk =   0.0109739
        k(   17) = (   0.0000000   0.0846810   0.0225091), wk =   0.0219479
        k(   18) = (   0.0000000   0.0846810   0.0450182), wk =   0.0219479
        k(   19) = (   0.0000000   0.0846810   0.0675274), wk =   0.0219479
        k(   20) = (   0.0000000   0.0846810   0.0900365), wk =   0.0219479
        k(   21) = (   0.0000000   0.1129080   0.0000000), wk =   0.0109739
        k(   22) = (   0.0000000   0.1129080   0.0225091), wk =   0.0219479
        k(   23) = (   0.0000000   0.1129080   0.0450182), wk =   0.0219479
        k(   24) = (   0.0000000   0.1129080   0.0675274), wk =   0.0219479
        k(   25) = (   0.0000000   0.1129080   0.0900365), wk =   0.0219479
        k(   26) = (   0.0282270   0.0282270   0.0000000), wk =   0.0109739
        k(   27) = (   0.0282270   0.0282270   0.0225091), wk =   0.0219479
        k(   28) = (   0.0282270   0.0282270   0.0450182), wk =   0.0219479
        k(   29) = (   0.0282270   0.0282270   0.0675274), wk =   0.0219479
        k(   30) = (   0.0282270   0.0282270   0.0900365), wk =   0.0219479
        k(   31) = (   0.0282270   0.0564540   0.0000000), wk =   0.0219479
        k(   32) = (   0.0282270   0.0564540   0.0225091), wk =   0.0438957
        k(   33) = (   0.0282270   0.0564540   0.0450182), wk =   0.0438957
        k(   34) = (   0.0282270   0.0564540   0.0675274), wk =   0.0438957
        k(   35) = (   0.0282270   0.0564540   0.0900365), wk =   0.0438957
        k(   36) = (   0.0282270   0.0846810   0.0000000), wk =   0.0219479
        k(   37) = (   0.0282270   0.0846810   0.0225091), wk =   0.0438957
        k(   38) = (   0.0282270   0.0846810   0.0450182), wk =   0.0438957
        k(   39) = (   0.0282270   0.0846810   0.0675274), wk =   0.0438957
        k(   40) = (   0.0282270   0.0846810   0.0900365), wk =   0.0438957
        k(   41) = (   0.0282270   0.1129080   0.0000000), wk =   0.0219479
        k(   42) = (   0.0282270   0.1129080   0.0225091), wk =   0.0438957
        k(   43) = (   0.0282270   0.1129080   0.0450182), wk =   0.0438957
        k(   44) = (   0.0282270   0.1129080   0.0675274), wk =   0.0438957
        k(   45) = (   0.0282270   0.1129080   0.0900365), wk =   0.0438957
        k(   46) = (   0.0564540   0.0564540   0.0000000), wk =   0.0109739
        k(   47) = (   0.0564540   0.0564540   0.0225091), wk =   0.0219479
        k(   48) = (   0.0564540   0.0564540   0.0450182), wk =   0.0219479
        k(   49) = (   0.0564540   0.0564540   0.0675274), wk =   0.0219479
        k(   50) = (   0.0564540   0.0564540   0.0900365), wk =   0.0219479
        k(   51) = (   0.0564540   0.0846810   0.0000000), wk =   0.0219479
        k(   52) = (   0.0564540   0.0846810   0.0225091), wk =   0.0438957
        k(   53) = (   0.0564540   0.0846810   0.0450182), wk =   0.0438957
        k(   54) = (   0.0564540   0.0846810   0.0675274), wk =   0.0438957
        k(   55) = (   0.0564540   0.0846810   0.0900365), wk =   0.0438957
        k(   56) = (   0.0564540   0.1129080   0.0000000), wk =   0.0219479
        k(   57) = (   0.0564540   0.1129080   0.0225091), wk =   0.0438957
        k(   58) = (   0.0564540   0.1129080   0.0450182), wk =   0.0438957
        k(   59) = (   0.0564540   0.1129080   0.0675274), wk =   0.0438957
        k(   60) = (   0.0564540   0.1129080   0.0900365), wk =   0.0438957
        k(   61) = (   0.0846810   0.0846810   0.0000000), wk =   0.0109739
        k(   62) = (   0.0846810   0.0846810   0.0225091), wk =   0.0219479
        k(   63) = (   0.0846810   0.0846810   0.0450182), wk =   0.0219479
        k(   64) = (   0.0846810   0.0846810   0.0675274), wk =   0.0219479
        k(   65) = (   0.0846810   0.0846810   0.0900365), wk =   0.0219479
        k(   66) = (   0.0846810   0.1129080   0.0000000), wk =   0.0219479
        k(   67) = (   0.0846810   0.1129080   0.0225091), wk =   0.0438957
        k(   68) = (   0.0846810   0.1129080   0.0450182), wk =   0.0438957
        k(   69) = (   0.0846810   0.1129080   0.0675274), wk =   0.0438957
        k(   70) = (   0.0846810   0.1129080   0.0900365), wk =   0.0438957
        k(   71) = (   0.1129080   0.1129080   0.0000000), wk =   0.0109739
        k(   72) = (   0.1129080   0.1129080   0.0225091), wk =   0.0219479
        k(   73) = (   0.1129080   0.1129080   0.0450182), wk =   0.0219479
        k(   74) = (   0.1129080   0.1129080   0.0675274), wk =   0.0219479
        k(   75) = (   0.1129080   0.1129080   0.0900365), wk =   0.0219479

     Largest allocated arrays     est. size (Mb)     dimensions
     Largest temporary arrays     est. size (Mb)     dimensions

     Initial potential from superposition of free atoms
     Check: negative starting charge=   -0.245853

     starting charge   51.79502, renormalised to   52.00000

     negative rho (up, down):  2.468E-01 0.000E+00

     *
     * You are using vdW-DF for exchange-correlation in this calculation.
     * Please cite the following three references that made this development
     * possible:
     *
     *   M. Dion, H. Rydberg, E. Schroder, D. C. Langreth, and
     *   B. I. Lundqvist, Phys. Rev. Lett. 92, 246401 (2004).
     *
     *   T. Thonhauser, V. R. Cooper, S. Li, A. Puzder, P. Hyldgaard, and
     *   D. C. Langreth, Phys. Rev. B 76, 125112 (2007).
     *
     *   G. Roman-Perez and J. M. Soler, Phys. Rev. Lett. 103, 096102 (2009).
     *
     *
     * If you are using vdW-DF2, please also cite:
     *
     *   K. Lee, E. D. Murray, L. Kong, B. I. Lundqvist, and
     *   D. C. Langreth, Phys. Rev. B 82, 081101(R) (2010).
     *
     *
     * If you are calculating the stress with vdW-DF, please also cite:
     *
     *   R. Sabatini, E. Kucukbenli, B. Kolb, T. Thonhauser, and
     *   S. de Gironcoli, J. Phys.: Condens. Matter 24, 424209 (2012).
     *

     Carrying out vdW-DF run using the following parameters:

     Nqs =      20    Nr_points =    1024   r_max =   100.000
     q_mesh =
               0.00001000     0.04494208     0.09755937     0.15916263
               0.23128650     0.31572767     0.41458969     0.53033537
               0.66584808     0.82450364     1.01025438     1.22772762
               1.48234092     1.78043706     2.12944203     2.53805004
               3.01644009     3.57652955     4.23227104     5.00000000

     Gradients computed in reciprocal space

     Starting wfc are   52 randomized atomic wfcs

     Self-consistent Calculation

     iteration #  1     ecut=    58.80 Ry     beta=0.10
     Davidson diagonalization with overlap
     ethr =  1.00E-02,  avg # of iterations =  4.0

     Threshold (ethr) on eigenvalues was too large:
     Diagonalizing with lowered threshold

     Davidson diagonalization with overlap
     ethr =  5.56E-04,  avg # of iterations =  1.5

[...]

     total energy              =    -520.44953402 Ry
     Harris-Foulkes estimate   =    -520.49365223 Ry
     estimated scf accuracy    <       0.29151212 Ry

[...]

     total energy              =    -520.45311492 Ry
     Harris-Foulkes estimate   =    -520.45311714 Ry
     estimated scf accuracy    <       0.00001260 Ry

     iteration #  8     ecut=    58.80 Ry     beta=0.10
     Davidson diagonalization with overlap
     ethr =  2.42E-08,  avg # of iterations =  2.0

     negative rho (up, down):  2.608E-01 0.000E+00

     End of self-consistent calculation

          k = 0.0000 0.0000 0.0000 (  3931 PWs)   bands (ev):

   -56.8395 -56.7475 -31.2856 -30.8469 -21.1774 -21.1774 -20.9250 -20.7592
   -20.5371 -20.5371  -9.8497  -9.8497  -9.2049  -8.7942  -8.4557  -8.4557
    10.1718  13.1247  13.3341  13.4086  14.1179  14.3197  14.3197  16.3032
    18.1289  18.3983  18.7737  18.7737  20.8608  21.3488  21.3488  21.4781
    21.9684  21.9684  22.6437  23.2618  23.2618  23.5520  24.0037  25.5563
    26.1735  27.3054  27.3645  29.5883  29.5883  29.9976

[...]

          k = 0.1129 0.1129 0.0900 (  3942 PWs)   bands (ev):

   -56.7944 -56.7917 -31.0688 -31.0555 -21.2672 -21.2488 -20.8424 -20.8377
   -20.4953 -20.4750 -10.0932 -10.0553  -9.0025  -8.9891  -8.3496  -8.3029
    12.8737  12.9734  13.7054  13.7284  15.6967  15.8070  17.0330  17.2294
    17.5328  17.9307  18.4614  18.5924  18.7940  18.9351  19.0802  19.1831
    21.7209  21.9687  22.2686  22.4124  22.9358  22.9414  23.2553  23.3799
    26.5657  26.6884  28.2747  28.3984  28.9023  29.1321

     the Fermi energy is    17.3225 ev

!    total energy              =    -520.45312590 Ry
     Harris-Foulkes estimate   =    -520.45311665 Ry
     estimated scf accuracy    <       0.00000054 Ry

     The total energy is the sum of the following terms:

     one-electron contribution =     -74.84831450 Ry
     hartree contribution      =      62.97304569 Ry
     xc contribution           =    -122.20259139 Ry
     ewald contribution        =    -386.36407484 Ry
     smearing contrib. (-TS)   =      -0.01119086 Ry

     convergence has been achieved in   8 iterations

     Forces acting on atoms (Ry/au):

     negative rho (up, down):  2.608E-01 0.000E+00
     atom    1 type  1   force =     0.00000000    0.00000000    0.00000000
     atom    2 type  1   force =     0.00000000    0.00000000    0.00000000
     atom    3 type  2   force =     0.00000000    0.00000000    0.00000000
     atom    4 type  2   force =     0.00000000    0.00000000    0.00000000

     Total force =     0.000000     Total SCF correction =     0.000000

     General routines

     Parallel routines

   This run was terminated on:   7:35:16  15Nov2017

   JOB DONE.