     Program PWSCF v.5.1rc2 starts on 14Nov2017 at  4:11:26

     Current dimensions of program PWSCF are:
     Max number of different atomic species (ntypx) = 10
     Max number of k-points (npk) =  40000
     Max angular momentum in pseudopotentials (lmaxx) =  3

     IMPORTANT: XC functional enforced from input :
     Exchange-correlation      = BEEF-VDW ( 1  4 27 13 2)
     Any further DFT definition will be discarded
     Please, verify this is what you really want

     Found symmetry operation: I + ( -0.5000 -0.5000  0.0000)
     This is a supercell, fractional translations are disabled

     bravais-lattice index     =            0
     lattice parameter (alat)  =       1.8897  a.u.
     unit-cell volume          =     711.6919 (a.u.)^3
     number of atoms/cell      =            4
     number of atomic types    =            2
     number of electrons       =        46.00
     number of Kohn-Sham states=           43
     kinetic-energy cutoff     =      58.7989  Ry
     charge density cutoff     =     587.9892  Ry
     convergence threshold     =      1.0E-06
     mixing beta               =       0.1000
     number of iterations used =           10  plain     mixing
     Exchange-correlation      = BEEF-VDW ( 1  4 27 13 2)

     celldm(1)=   1.889726  celldm(2)=   0.000000  celldm(3)=   0.000000
     celldm(4)=   0.000000  celldm(5)=   0.000000  celldm(6)=   0.000000

     crystal axes: (cart. coord. in units of alat)
               a(1) = (   5.210485   0.000000   0.000000 )
               a(2) = (   0.000000   5.210485   0.000000 )
               a(3) = (   0.000000   0.000000   3.884535 )

     reciprocal axes: (cart. coord. in units 2 pi/alat)
               b(1) = (  0.191921  0.000000  0.000000 )
               b(2) = (  0.000000  0.191921  0.000000 )
               b(3) = (  0.000000  0.000000  0.257431 )

     PseudoPot. # 1 for Cd read from file:
     /home/users/vossj/suncat/psp/gbrv1.5pbe/Cd.UPF
     MD5 check sum: 17164a7926edb8e0dc231208abae86a6
     Pseudo is Ultrasoft + core correction, Zval = 12.0
     Generated by new atomic code, or converted to UPF format
     Using radial grid of  889 points,  6 beta functions with:
                l(1) =   0
                l(2) =   0
                l(3) =   1
                l(4) =   1
                l(5) =   2
                l(6) =   2
     Q(r) pseudized with  6 coefficients,  rinner =    1.000   1.000   1.000
                                                       1.000   1.000

     PseudoPot. # 2 for Y  read from file:
     /home/users/vossj/suncat/psp/gbrv1.5pbe/Y.UPF
     MD5 check sum: d034151ed7554c50b6e82763ed42c788
     Pseudo is Ultrasoft + core correction, Zval = 11.0
     Generated by new atomic code, or converted to UPF format
     Using radial grid of  885 points,  6 beta functions with:
                l(1) =   0
                l(2) =   0
                l(3) =   1
                l(4) =   1
                l(5) =   2
                l(6) =   2
     Q(r) pseudized with  8 coefficients,  rinner =    1.200   1.200   1.200
                                                       1.200   1.200

     vdW kernel table read from file vdW_kernel_table
     MD5 check sum: 095c7af220d748ca6e76c0b4c6cfb241

     atomic species   valence    mass     pseudopotential
        Cd1           12.00   112.41000     Cd( 1.00)
        Y1            11.00    88.90590     Y ( 1.00)

     16 Sym. Ops., with inversion, found

   Cartesian axes

     site n.     atom                  positions (alat units)
         1           Cd1 tau(   1) = (   0.0000000   0.0000000   0.0000000  )
         2           Cd1 tau(   2) = (   2.6052427   2.6052427   0.0000000  )
         3           Y1  tau(   3) = (   2.6052427   0.0000000   1.9422676  )
         4           Y1  tau(   4) = (   0.0000000   2.6052427   1.9422676  )

     number of k points=    75  Fermi-Dirac smearing, width (Ry)=  0.0073
                       cart. coord. in units 2pi/alat
        k(    1) = (   0.0000000   0.0000000   0.0000000), wk =   0.0027435
        k(    2) = (   0.0000000   0.0000000   0.0286035), wk =   0.0054870
        k(    3) = (   0.0000000   0.0000000   0.0572069), wk =   0.0054870
        k(    4) = (   0.0000000   0.0000000   0.0858104), wk =   0.0054870
        k(    5) = (   0.0000000   0.0000000   0.1144138), wk =   0.0054870
        k(    6) = (   0.0000000   0.0213245   0.0000000), wk =   0.0109739
        k(    7) = (   0.0000000   0.0213245   0.0286035), wk =   0.0219479
        k(    8) = (   0.0000000   0.0213245   0.0572069), wk =   0.0219479
        k(    9) = (   0.0000000   0.0213245   0.0858104), wk =   0.0219479
        k(   10) = (   0.0000000   0.0213245   0.1144138), wk =   0.0219479
        k(   11) = (   0.0000000   0.0426490   0.0000000), wk =   0.0109739
        k(   12) = (   0.0000000   0.0426490   0.0286035), wk =   0.0219479
        k(   13) = (   0.0000000   0.0426490   0.0572069), wk =   0.0219479
        k(   14) = (   0.0000000   0.0426490   0.0858104), wk =   0.0219479
        k(   15) = (   0.0000000   0.0426490   0.1144138), wk =   0.0219479
        k(   16) = (   0.0000000   0.0639736   0.0000000), wk =   0.0109739
        k(   17) = (   0.0000000   0.0639736   0.0286035), wk =   0.0219479
        k(   18) = (   0.0000000   0.0639736   0.0572069), wk =   0.0219479
        k(   19) = (   0.0000000   0.0639736   0.0858104), wk =   0.0219479
        k(   20) = (   0.0000000   0.0639736   0.1144138), wk =   0.0219479
        k(   21) = (   0.0000000   0.0852981   0.0000000), wk =   0.0109739
        k(   22) = (   0.0000000   0.0852981   0.0286035), wk =   0.0219479
        k(   23) = (   0.0000000   0.0852981   0.0572069), wk =   0.0219479
        k(   24) = (   0.0000000   0.0852981   0.0858104), wk =   0.0219479
        k(   25) = (   0.0000000   0.0852981   0.1144138), wk =   0.0219479
        k(   26) = (   0.0213245   0.0213245   0.0000000), wk =   0.0109739
        k(   27) = (   0.0213245   0.0213245   0.0286035), wk =   0.0219479
        k(   28) = (   0.0213245   0.0213245   0.0572069), wk =   0.0219479
        k(   29) = (   0.0213245   0.0213245   0.0858104), wk =   0.0219479
        k(   30) = (   0.0213245   0.0213245   0.1144138), wk =   0.0219479
        k(   31) = (   0.0213245   0.0426490   0.0000000), wk =   0.0219479
        k(   32) = (   0.0213245   0.0426490   0.0286035), wk =   0.0438957
        k(   33) = (   0.0213245   0.0426490   0.0572069), wk =   0.0438957
        k(   34) = (   0.0213245   0.0426490   0.0858104), wk =   0.0438957
        k(   35) = (   0.0213245   0.0426490   0.1144138), wk =   0.0438957
        k(   36) = (   0.0213245   0.0639736   0.0000000), wk =   0.0219479
        k(   37) = (   0.0213245   0.0639736   0.0286035), wk =   0.0438957
        k(   38) = (   0.0213245   0.0639736   0.0572069), wk =   0.0438957
        k(   39) = (   0.0213245   0.0639736   0.0858104), wk =   0.0438957
        k(   40) = (   0.0213245   0.0639736   0.1144138), wk =   0.0438957
        k(   41) = (   0.0213245   0.0852981   0.0000000), wk =   0.0219479
        k(   42) = (   0.0213245   0.0852981   0.0286035), wk =   0.0438957
        k(   43) = (   0.0213245   0.0852981   0.0572069), wk =   0.0438957
        k(   44) = (   0.0213245   0.0852981   0.0858104), wk =   0.0438957
        k(   45) = (   0.0213245   0.0852981   0.1144138), wk =   0.0438957
        k(   46) = (   0.0426490   0.0426490   0.0000000), wk =   0.0109739
        k(   47) = (   0.0426490   0.0426490   0.0286035), wk =   0.0219479
        k(   48) = (   0.0426490   0.0426490   0.0572069), wk =   0.0219479
        k(   49) = (   0.0426490   0.0426490   0.0858104), wk =   0.0219479
        k(   50) = (   0.0426490   0.0426490   0.1144138), wk =   0.0219479
        k(   51) = (   0.0426490   0.0639736   0.0000000), wk =   0.0219479
        k(   52) = (   0.0426490   0.0639736   0.0286035), wk =   0.0438957
        k(   53) = (   0.0426490   0.0639736   0.0572069), wk =   0.0438957
        k(   54) = (   0.0426490   0.0639736   0.0858104), wk =   0.0438957
        k(   55) = (   0.0426490   0.0639736   0.1144138), wk =   0.0438957
        k(   56) = (   0.0426490   0.0852981   0.0000000), wk =   0.0219479
        k(   57) = (   0.0426490   0.0852981   0.0286035), wk =   0.0438957
        k(   58) = (   0.0426490   0.0852981   0.0572069), wk =   0.0438957
        k(   59) = (   0.0426490   0.0852981   0.0858104), wk =   0.0438957
        k(   60) = (   0.0426490   0.0852981   0.1144138), wk =   0.0438957
        k(   61) = (   0.0639736   0.0639736   0.0000000), wk =   0.0109739
        k(   62) = (   0.0639736   0.0639736   0.0286035), wk =   0.0219479
        k(   63) = (   0.0639736   0.0639736   0.0572069), wk =   0.0219479
        k(   64) = (   0.0639736   0.0639736   0.0858104), wk =   0.0219479
        k(   65) = (   0.0639736   0.0639736   0.1144138), wk =   0.0219479
        k(   66) = (   0.0639736   0.0852981   0.0000000), wk =   0.0219479
        k(   67) = (   0.0639736   0.0852981   0.0286035), wk =   0.0438957
        k(   68) = (   0.0639736   0.0852981   0.0572069), wk =   0.0438957
        k(   69) = (   0.0639736   0.0852981   0.0858104), wk =   0.0438957
        k(   70) = (   0.0639736   0.0852981   0.1144138), wk =   0.0438957
        k(   71) = (   0.0852981   0.0852981   0.0000000), wk =   0.0109739
        k(   72) = (   0.0852981   0.0852981   0.0286035), wk =   0.0219479
        k(   73) = (   0.0852981   0.0852981   0.0572069), wk =   0.0219479
        k(   74) = (   0.0852981   0.0852981   0.0858104), wk =   0.0219479
        k(   75) = (   0.0852981   0.0852981   0.1144138), wk =   0.0219479

     Largest allocated arrays     est. size (Mb)     dimensions
     Largest temporary arrays     est. size (Mb)     dimensions

     Initial potential from superposition of free atoms
     Check: negative starting charge=   -0.042707

     starting charge   44.99098, renormalised to   46.00000

     negative rho (up, down):  4.366E-02 0.000E+00

     *
     * You are using vdW-DF for exchange-correlation in this calculation.
     * Please cite the following three references that made this development
     * possible:
     *
     *   M. Dion, H. Rydberg, E. Schroder, D. C. Langreth, and
     *   B. I. Lundqvist, Phys. Rev. Lett. 92, 246401 (2004).
     *
     *   T. Thonhauser, V. R. Cooper, S. Li, A. Puzder, P. Hyldgaard, and
     *   D. C. Langreth, Phys. Rev. B 76, 125112 (2007).
     *
     *   G. Roman-Perez and J. M. Soler, Phys. Rev. Lett. 103, 096102 (2009).
     *
     *
     * If you are using vdW-DF2, please also cite:
     *
     *   K. Lee, E. D. Murray, L. Kong, B. I. Lundqvist, and
     *   D. C. Langreth, Phys. Rev. B 82, 081101(R) (2010).
     *
     *
     * If you are calculating the stress with vdW-DF, please also cite:
     *
     *   R. Sabatini, E. Kucukbenli, B. Kolb, T. Thonhauser, and
     *   S. de Gironcoli, J. Phys.: Condens. Matter 24, 424209 (2012).
     *

     Carrying out vdW-DF run using the following parameters:

     Nqs =      20    Nr_points =    1024   r_max =   100.000
     q_mesh =
               0.00001000     0.04494208     0.09755937     0.15916263
               0.23128650     0.31572767     0.41458969     0.53033537
               0.66584808     0.82450364     1.01025438     1.22772762
               1.48234092     1.78043706     2.12944203     2.53805004
               3.01644009     3.57652955     4.23227104     5.00000000

     Gradients computed in reciprocal space

     Starting wfc are   44 randomized atomic wfcs

     Self-consistent Calculation

     iteration #  1     ecut=    58.80 Ry     beta=0.10
     Davidson diagonalization with overlap
     ethr =  1.00E-02,  avg # of iterations =  4.5

     Threshold (ethr) on eigenvalues was too large:
     Diagonalizing with lowered threshold

     Davidson diagonalization with overlap
     ethr =  2.87E-04,  avg # of iterations =  1.7

[...]

     total energy              =    -419.76652532 Ry
     Harris-Foulkes estimate   =    -419.78266104 Ry
     estimated scf accuracy    <       0.12740240 Ry

[...]

     total energy              =    -419.74085548 Ry
     Harris-Foulkes estimate   =    -419.74082938 Ry
     estimated scf accuracy    <       0.00000871 Ry

     iteration # 10     ecut=    58.80 Ry     beta=0.10
     Davidson diagonalization with overlap
     ethr =  1.89E-08,  avg # of iterations =  2.0

     negative rho (up, down):  4.481E-02 0.000E+00

     End of self-consistent calculation

          k = 0.0000 0.0000 0.0000 (  5353 PWs)   bands (ev):

   -32.7819 -32.7521 -12.8090 -12.8090 -12.6555 -12.6119 -12.6082 -12.6082
     1.6630   1.6801   1.7074   1.8016   1.8016   1.8583   1.9371   1.9371
     1.9732   2.1785   3.9051   7.3038  10.3548  10.3548  10.6152  10.6456
    10.9699  12.8629  12.8629  14.0959  14.0959  14.3190  14.3496  15.3577
    15.3893  15.3893  16.2935  17.0533  17.5469  19.0070  19.6745  19.6745
    22.1223  22.1290  22.6382

[...]

          k = 0.0853 0.0853 0.1144 (  5407 PWs)   bands (ev):

   -32.7601 -32.7592 -12.8209 -12.8151 -12.7645 -12.7628 -12.5834 -12.5773
     1.6861   1.6885   1.8091   1.8205   1.8447   1.8507   1.8591   1.8628
     2.1269   2.1351   6.9983   7.0657   9.7411   9.7940  10.1672  10.2070
    10.8659  10.9955  13.0696  13.1220  13.2861  13.3610  14.9546  14.9968
    16.2610  16.4505  16.5858  16.7084  18.5409  18.5524  20.1523  20.2112
    20.2539  20.3282  24.0563

     the Fermi energy is    10.5693 ev

!    total energy              =    -419.74098851 Ry
     Harris-Foulkes estimate   =    -419.74085718 Ry
     estimated scf accuracy    <       0.00000022 Ry

     The total energy is the sum of the following terms:

     one-electron contribution =     -80.67360089 Ry
     hartree contribution      =      71.11251385 Ry
     xc contribution           =    -138.22113264 Ry
     ewald contribution        =    -271.94826571 Ry
     smearing contrib. (-TS)   =      -0.01050312 Ry

     convergence has been achieved in  10 iterations

     Forces acting on atoms (Ry/au):

     negative rho (up, down):  4.481E-02 0.000E+00
     atom    1 type  1   force =     0.00000000    0.00000000    0.00000000
     atom    2 type  1   force =     0.00000000    0.00000000    0.00000000
     atom    3 type  2   force =     0.00000000    0.00000000    0.00000000
     atom    4 type  2   force =     0.00000000    0.00000000    0.00000000

     Total force =     0.000000     Total SCF correction =     0.000000

     General routines

     Parallel routines

   This run was terminated on:   4:12:14  14Nov2017

   JOB DONE.