     Program PWSCF v.5.1rc2 starts on 15Nov2017 at  5:16:47

     Current dimensions of program PWSCF are:
     Max number of different atomic species (ntypx) = 10
     Max number of k-points (npk) =  40000
     Max angular momentum in pseudopotentials (lmaxx) =  3

     IMPORTANT: XC functional enforced from input :
     Exchange-correlation      = BEEF-VDW ( 1  4 27 13 2)
     Any further DFT definition will be discarded
     Please, verify this is what you really want

     Found symmetry operation: I + ( -0.5000 -0.5000  0.0000)
     This is a supercell, fractional translations are disabled

     bravais-lattice index     =            0
     lattice parameter (alat)  =       1.8897  a.u.
     unit-cell volume          =     560.6057 (a.u.)^3
     number of atoms/cell      =            4
     number of atomic types    =            2
     number of electrons       =        52.00
     number of Kohn-Sham states=           46
     kinetic-energy cutoff     =      58.7989  Ry
     charge density cutoff     =     587.9892  Ry
     convergence threshold     =      1.0E-06
     mixing beta               =       0.1000
     number of iterations used =           10  plain     mixing
     Exchange-correlation      = BEEF-VDW ( 1  4 27 13 2)

     celldm(1)=   1.889726  celldm(2)=   0.000000  celldm(3)=   0.000000
     celldm(4)=   0.000000  celldm(5)=   0.000000  celldm(6)=   0.000000

     crystal axes: (cart. coord. in units of alat)
               a(1) = (   4.936270   0.000000   0.000000 )
               a(2) = (   0.000000   4.936270   0.000000 )
               a(3) = (   0.000000   0.000000   3.409283 )

     reciprocal axes: (cart. coord. in units 2 pi/alat)
               b(1) = (  0.202582  0.000000  0.000000 )
               b(2) = (  0.000000  0.202582  0.000000 )
               b(3) = (  0.000000  0.000000  0.293317 )

     PseudoPot. # 1 for Rh read from file:
     /home/users/vossj/suncat/psp/gbrv1.5pbe/Rh.UPF
     MD5 check sum: 761627e959a2e3a1f56b0b5fe687810e
     Pseudo is Ultrasoft + core correction, Zval = 15.0
     Generated by new atomic code, or converted to UPF format
     Using radial grid of  969 points,  7 beta functions with:
                l(1) =   0
                l(2) =   0
                l(3) =   1
                l(4) =   1
                l(5) =   2
                l(6) =   2
                l(7) =   2
     Q(r) pseudized with  8 coefficients,  rinner =    1.200   1.200   1.200
                                                       1.200   1.200

     PseudoPot. # 2 for Y  read from file:
     /home/users/vossj/suncat/psp/gbrv1.5pbe/Y.UPF
     MD5 check sum: d034151ed7554c50b6e82763ed42c788
     Pseudo is Ultrasoft + core correction, Zval = 11.0
     Generated by new atomic code, or converted to UPF format
     Using radial grid of  885 points,  6 beta functions with:
                l(1) =   0
                l(2) =   0
                l(3) =   1
                l(4) =   1
                l(5) =   2
                l(6) =   2
     Q(r) pseudized with  8 coefficients,  rinner =    1.200   1.200   1.200
                                                       1.200   1.200

     vdW kernel table read from file vdW_kernel_table
     MD5 check sum: 095c7af220d748ca6e76c0b4c6cfb241

     atomic species   valence    mass     pseudopotential
        Rh1           15.00   102.90550     Rh( 1.00)
        Y1            11.00    88.90590     Y ( 1.00)

     16 Sym. Ops., with inversion, found

   Cartesian axes

     site n.     atom                  positions (alat units)
         1           Rh1 tau(   1) = (   0.0000000   0.0000000   0.0000000  )
         2           Rh1 tau(   2) = (   2.4681352   2.4681352   0.0000000  )
         3           Y1  tau(   3) = (   2.4681352   0.0000000   1.7046413  )
         4           Y1  tau(   4) = (   0.0000000   2.4681352   1.7046413  )

     number of k points=    75  Fermi-Dirac smearing, width (Ry)=  0.0073
                       cart. coord. in units 2pi/alat
        k(    1) = (   0.0000000   0.0000000   0.0000000), wk =   0.0027435
        k(    2) = (   0.0000000   0.0000000   0.0325908), wk =   0.0054870
        k(    3) = (   0.0000000   0.0000000   0.0651815), wk =   0.0054870
        k(    4) = (   0.0000000   0.0000000   0.0977723), wk =   0.0054870
        k(    5) = (   0.0000000   0.0000000   0.1303630), wk =   0.0054870
        k(    6) = (   0.0000000   0.0225091   0.0000000), wk =   0.0109739
        k(    7) = (   0.0000000   0.0225091   0.0325908), wk =   0.0219479
        k(    8) = (   0.0000000   0.0225091   0.0651815), wk =   0.0219479
        k(    9) = (   0.0000000   0.0225091   0.0977723), wk =   0.0219479
        k(   10) = (   0.0000000   0.0225091   0.1303630), wk =   0.0219479
        k(   11) = (   0.0000000   0.0450182   0.0000000), wk =   0.0109739
        k(   12) = (   0.0000000   0.0450182   0.0325908), wk =   0.0219479
        k(   13) = (   0.0000000   0.0450182   0.0651815), wk =   0.0219479
        k(   14) = (   0.0000000   0.0450182   0.0977723), wk =   0.0219479
        k(   15) = (   0.0000000   0.0450182   0.1303630), wk =   0.0219479
        k(   16) = (   0.0000000   0.0675274   0.0000000), wk =   0.0109739
        k(   17) = (   0.0000000   0.0675274   0.0325908), wk =   0.0219479
        k(   18) = (   0.0000000   0.0675274   0.0651815), wk =   0.0219479
        k(   19) = (   0.0000000   0.0675274   0.0977723), wk =   0.0219479
        k(   20) = (   0.0000000   0.0675274   0.1303630), wk =   0.0219479
        k(   21) = (   0.0000000   0.0900365   0.0000000), wk =   0.0109739
        k(   22) = (   0.0000000   0.0900365   0.0325908), wk =   0.0219479
        k(   23) = (   0.0000000   0.0900365   0.0651815), wk =   0.0219479
        k(   24) = (   0.0000000   0.0900365   0.0977723), wk =   0.0219479
        k(   25) = (   0.0000000   0.0900365   0.1303630), wk =   0.0219479
        k(   26) = (   0.0225091   0.0225091   0.0000000), wk =   0.0109739
        k(   27) = (   0.0225091   0.0225091   0.0325908), wk =   0.0219479
        k(   28) = (   0.0225091   0.0225091   0.0651815), wk =   0.0219479
        k(   29) = (   0.0225091   0.0225091   0.0977723), wk =   0.0219479
        k(   30) = (   0.0225091   0.0225091   0.1303630), wk =   0.0219479
        k(   31) = (   0.0225091   0.0450182   0.0000000), wk =   0.0219479
        k(   32) = (   0.0225091   0.0450182   0.0325908), wk =   0.0438957
        k(   33) = (   0.0225091   0.0450182   0.0651815), wk =   0.0438957
        k(   34) = (   0.0225091   0.0450182   0.0977723), wk =   0.0438957
        k(   35) = (   0.0225091   0.0450182   0.1303630), wk =   0.0438957
        k(   36) = (   0.0225091   0.0675274   0.0000000), wk =   0.0219479
        k(   37) = (   0.0225091   0.0675274   0.0325908), wk =   0.0438957
        k(   38) = (   0.0225091   0.0675274   0.0651815), wk =   0.0438957
        k(   39) = (   0.0225091   0.0675274   0.0977723), wk =   0.0438957
        k(   40) = (   0.0225091   0.0675274   0.1303630), wk =   0.0438957
        k(   41) = (   0.0225091   0.0900365   0.0000000), wk =   0.0219479
        k(   42) = (   0.0225091   0.0900365   0.0325908), wk =   0.0438957
        k(   43) = (   0.0225091   0.0900365   0.0651815), wk =   0.0438957
        k(   44) = (   0.0225091   0.0900365   0.0977723), wk =   0.0438957
        k(   45) = (   0.0225091   0.0900365   0.1303630), wk =   0.0438957
        k(   46) = (   0.0450182   0.0450182   0.0000000), wk =   0.0109739
        k(   47) = (   0.0450182   0.0450182   0.0325908), wk =   0.0219479
        k(   48) = (   0.0450182   0.0450182   0.0651815), wk =   0.0219479
        k(   49) = (   0.0450182   0.0450182   0.0977723), wk =   0.0219479
        k(   50) = (   0.0450182   0.0450182   0.1303630), wk =   0.0219479
        k(   51) = (   0.0450182   0.0675274   0.0000000), wk =   0.0219479
        k(   52) = (   0.0450182   0.0675274   0.0325908), wk =   0.0438957
        k(   53) = (   0.0450182   0.0675274   0.0651815), wk =   0.0438957
        k(   54) = (   0.0450182   0.0675274   0.0977723), wk =   0.0438957
        k(   55) = (   0.0450182   0.0675274   0.1303630), wk =   0.0438957
        k(   56) = (   0.0450182   0.0900365   0.0000000), wk =   0.0219479
        k(   57) = (   0.0450182   0.0900365   0.0325908), wk =   0.0438957
        k(   58) = (   0.0450182   0.0900365   0.0651815), wk =   0.0438957
        k(   59) = (   0.0450182   0.0900365   0.0977723), wk =   0.0438957
        k(   60) = (   0.0450182   0.0900365   0.1303630), wk =   0.0438957
        k(   61) = (   0.0675274   0.0675274   0.0000000), wk =   0.0109739
        k(   62) = (   0.0675274   0.0675274   0.0325908), wk =   0.0219479
        k(   63) = (   0.0675274   0.0675274   0.0651815), wk =   0.0219479
        k(   64) = (   0.0675274   0.0675274   0.0977723), wk =   0.0219479
        k(   65) = (   0.0675274   0.0675274   0.1303630), wk =   0.0219479
        k(   66) = (   0.0675274   0.0900365   0.0000000), wk =   0.0219479
        k(   67) = (   0.0675274   0.0900365   0.0325908), wk =   0.0438957
        k(   68) = (   0.0675274   0.0900365   0.0651815), wk =   0.0438957
        k(   69) = (   0.0675274   0.0900365   0.0977723), wk =   0.0438957
        k(   70) = (   0.0675274   0.0900365   0.1303630), wk =   0.0438957
        k(   71) = (   0.0900365   0.0900365   0.0000000), wk =   0.0109739
        k(   72) = (   0.0900365   0.0900365   0.0325908), wk =   0.0219479
        k(   73) = (   0.0900365   0.0900365   0.0651815), wk =   0.0219479
        k(   74) = (   0.0900365   0.0900365   0.0977723), wk =   0.0219479
        k(   75) = (   0.0900365   0.0900365   0.1303630), wk =   0.0219479

     Largest allocated arrays     est. size (Mb)     dimensions
     Largest temporary arrays     est. size (Mb)     dimensions

     Initial potential from superposition of free atoms
     Check: negative starting charge=   -0.109417

     starting charge   50.99086, renormalised to   52.00000

     negative rho (up, down):  1.116E-01 0.000E+00

     *
     * You are using vdW-DF for exchange-correlation in this calculation.
     * Please cite the following three references that made this development
     * possible:
     *
     *   M. Dion, H. Rydberg, E. Schroder, D. C. Langreth, and
     *   B. I. Lundqvist, Phys. Rev. Lett. 92, 246401 (2004).
     *
     *   T. Thonhauser, V. R. Cooper, S. Li, A. Puzder, P. Hyldgaard, and
     *   D. C. Langreth, Phys. Rev. B 76, 125112 (2007).
     *
     *   G. Roman-Perez and J. M. Soler, Phys. Rev. Lett. 103, 096102 (2009).
     *
     *
     * If you are using vdW-DF2, please also cite:
     *
     *   K. Lee, E. D. Murray, L. Kong, B. I. Lundqvist, and
     *   D. C. Langreth, Phys. Rev. B 82, 081101(R) (2010).
     *
     *
     * If you are calculating the stress with vdW-DF, please also cite:
     *
     *   R. Sabatini, E. Kucukbenli, B. Kolb, T. Thonhauser, and
     *   S. de Gironcoli, J. Phys.: Condens. Matter 24, 424209 (2012).
     *

     Carrying out vdW-DF run using the following parameters:

     Nqs =      20    Nr_points =    1024   r_max =   100.000
     q_mesh =
               0.00001000     0.04494208     0.09755937     0.15916263
               0.23128650     0.31572767     0.41458969     0.53033537
               0.66584808     0.82450364     1.01025438     1.22772762
               1.48234092     1.78043706     2.12944203     2.53805004
               3.01644009     3.57652955     4.23227104     5.00000000

     Gradients computed in reciprocal space

     Starting wfc are   50 randomized atomic wfcs

     Self-consistent Calculation

     iteration #  1     ecut=    58.80 Ry     beta=0.10
     Davidson diagonalization with overlap
     ethr =  1.00E-02,  avg # of iterations =  4.2

     Threshold (ethr) on eigenvalues was too large:
     Diagonalizing with lowered threshold

     Davidson diagonalization with overlap
     ethr =  8.60E-04,  avg # of iterations =  1.0

[...]

     total energy              =    -532.21825833 Ry
     Harris-Foulkes estimate   =    -532.28671237 Ry
     estimated scf accuracy    <       0.45955891 Ry

[...]

     total energy              =    -532.17668522 Ry
     Harris-Foulkes estimate   =    -532.17668021 Ry
     estimated scf accuracy    <       0.00000671 Ry

     iteration #  9     ecut=    58.80 Ry     beta=0.10
     Davidson diagonalization with overlap
     ethr =  1.29E-08,  avg # of iterations =  2.0

     negative rho (up, down):  1.120E-01 0.000E+00

     End of self-consistent calculation

          k = 0.0000 0.0000 0.0000 (  4259 PWs)   bands (ev):

   -31.6266 -31.6266 -31.6067 -31.6067 -31.5910 -31.5872 -28.2389 -28.1781
    -8.3581  -8.3581  -8.0163  -8.0163  -7.9966  -7.9312   8.7480  10.6372
    10.7682  10.8087  10.8461  12.0377  12.0377  12.7318  12.8479  12.8479
    13.6816  14.5028  16.0003  16.0003  16.3546  16.5670  16.8761  19.4249
    19.4249  19.8771  19.9106  19.9106  20.4741  21.9544  21.9544  22.5103
    24.1727  24.8833  25.9221  25.9221  27.0117  29.4872

[...]

          k = 0.0900 0.0900 0.1304 (  4277 PWs)   bands (ev):

   -31.6261 -31.6255 -31.6173 -31.6167 -31.6030 -31.6024 -28.1698 -28.1683
    -8.4158  -8.4126  -8.3474  -8.3375  -7.9529  -7.9423  10.6617  10.6860
    10.8915  10.9045  11.9052  11.9128  11.9155  11.9546  13.5942  13.6760
    14.5089  14.5870  15.8490  15.9742  16.1603  16.2297  17.1875  17.2349
    19.1401  19.3861  19.3957  19.4847  20.6379  20.6501  24.3431  24.3715
    24.6550  24.9976  25.8674  26.0240  26.2145  26.3244

     the Fermi energy is    14.3533 ev

!    total energy              =    -532.17671706 Ry
     Harris-Foulkes estimate   =    -532.17668618 Ry
     estimated scf accuracy    <       0.00000023 Ry

     The total energy is the sum of the following terms:

     one-electron contribution =    -126.83669854 Ry
     hartree contribution      =      94.50260412 Ry
     xc contribution           =    -118.96137583 Ry
     ewald contribution        =    -380.87660486 Ry
     smearing contrib. (-TS)   =      -0.00464194 Ry

     convergence has been achieved in   9 iterations

     Forces acting on atoms (Ry/au):

     negative rho (up, down):  1.120E-01 0.000E+00
     atom    1 type  1   force =     0.00000000    0.00000000    0.00000000
     atom    2 type  1   force =     0.00000000    0.00000000    0.00000000
     atom    3 type  2   force =     0.00000000    0.00000000    0.00000000
     atom    4 type  2   force =     0.00000000    0.00000000    0.00000000

     Total force =     0.000000     Total SCF correction =     0.000000

     General routines

     Parallel routines

   This run was terminated on:   5:17:22  15Nov2017

   JOB DONE.