     Program PWSCF v.5.1rc2 (svn rev. 11289) starts on 30Apr2018 at 14:56: 4

     Current dimensions of program PWSCF are:
     Max number of different atomic species (ntypx) = 10
     Max number of k-points (npk) =  40000
     Max angular momentum in pseudopotentials (lmaxx) =  3
     Presently stress not available with electric field

     IMPORTANT: XC functional enforced from input :
     Exchange-correlation      = BEEF-VDW ( 1  4 27 13 2)
     Any further DFT definition will be discarded
     Please, verify this is what you really want

     Subspace diagonalization in iterative solution of the eigenvalue problem:
     a serial algorithm will be used

     Found symmetry operation: I + (  0.5000  0.0000  0.0000)
     This is a supercell, fractional translations are disabled

     bravais-lattice index     =            0
     lattice parameter (alat)  =       1.8897  a.u.
     unit-cell volume          =    4650.5773 (a.u.)^3
     number of atoms/cell      =           12
     number of atomic types    =            1
     number of electrons       =        36.00
     number of Kohn-Sham states=           28
     kinetic-energy cutoff     =      36.7493  Ry
     charge density cutoff     =     367.4932  Ry
     convergence threshold     =      1.0E-05
     mixing beta               =       0.3000
     number of iterations used =           10  plain     mixing
     Exchange-correlation      = BEEF-VDW ( 1  4 27 13 2)
     nstep                     =           50

     celldm(1)=   1.889726  celldm(2)=   0.000000  celldm(3)=   0.000000
     celldm(4)=   0.000000  celldm(5)=   0.000000  celldm(6)=   0.000000

     crystal axes: (cart. coord. in units of alat)
               a(1) = (   5.682886   0.000000   0.000000 )
               a(2) = (   2.841443   4.921524   0.000000 )
               a(3) = (   0.000000   0.000000  24.640057 )

     reciprocal axes: (cart. coord. in units 2 pi/alat)
               b(1) = (  0.175967 -0.101595  0.000000 )
               b(2) = (  0.000000  0.203189  0.000000 )
               b(3) = (  0.000000  0.000000  0.040584 )

     PseudoPot. # 1 for Al read from file:
     /u/if/mamunm/psp/gbrv1.5pbe/Al.UPF
     MD5 check sum: 0a6289f5291fc8f409219462bc851e1f
     Pseudo is Ultrasoft + core correction, Zval =  3.0
     Generated by new atomic code, or converted to UPF format
     Using radial grid of  893 points,  3 beta functions with:
                l(1) =   0
                l(2) =   1
                l(3) =   2
     Q(r) pseudized with  8 coefficients,  rinner =    0.900   0.900   0.900
                                                       0.900   0.900

     vdW kernel table read from file vdW_kernel_table
     MD5 check sum: 095c7af220d748ca6e76c0b4c6cfb241

     atomic species   valence    mass     pseudopotential
        Al1            3.00    26.98154     Al( 1.00)

     No symmetry found

   Cartesian axes

     site n.     atom                  positions (alat units)
         1           Al1 tau(   1) = (   1.4207216   0.8202540  10.0000000  )
         2           Al1 tau(   2) = (   4.2621647   0.8202540  10.0000000  )
         3           Al1 tau(   3) = (   2.8414431   3.2810159  10.0000000  )
         4           Al1 tau(   4) = (   5.6828862   3.2810159  10.0000000  )
         5           Al1 tau(   5) = (   5.6828862   1.6405079  12.3200286  )
         6           Al1 tau(   6) = (   2.8414431   1.6405079  12.3200286  )
         7           Al1 tau(   7) = (   7.1036078   4.1012699  12.3200286  )
         8           Al1 tau(   8) = (   4.2621647   4.1012699  12.3200286  )
         9           Al1 tau(   9) = (   0.0000000   0.0000000  14.6400572  )
        10           Al1 tau(  10) = (   2.8414431   0.0000000  14.6400572  )
        11           Al1 tau(  11) = (   1.4207216   2.4607619  14.6400572  )
        12           Al1 tau(  12) = (   4.2621647   2.4607619  14.6400572  )

     number of k points=    20  Fermi-Dirac smearing, width (Ry)=  0.0110
                       cart. coord. in units 2pi/alat
        k(    1) = (   0.0000000   0.0000000   0.0000000), wk =   0.0555556
        k(    2) = (   0.0000000   0.0338648   0.0000000), wk =   0.1111111
        k(    3) = (   0.0000000   0.0677297   0.0000000), wk =   0.1111111
        k(    4) = (   0.0000000  -0.1015945   0.0000000), wk =   0.0555556
        k(    5) = (   0.0293278  -0.0169324   0.0000000), wk =   0.1111111
        k(    6) = (   0.0293278   0.0169324   0.0000000), wk =   0.1111111
        k(    7) = (   0.0293278   0.0507973   0.0000000), wk =   0.1111111
        k(    8) = (   0.0293278  -0.1185270   0.0000000), wk =   0.1111111
        k(    9) = (   0.0293278  -0.0846621   0.0000000), wk =   0.1111111
        k(   10) = (   0.0293278  -0.0507973   0.0000000), wk =   0.1111111
        k(   11) = (   0.0586556  -0.0338648   0.0000000), wk =   0.1111111
        k(   12) = (   0.0586556   0.0000000   0.0000000), wk =   0.1111111
        k(   13) = (   0.0586556   0.0338648   0.0000000), wk =   0.1111111
        k(   14) = (   0.0586556  -0.1354594   0.0000000), wk =   0.1111111
        k(   15) = (   0.0586556  -0.1015945   0.0000000), wk =   0.1111111
        k(   16) = (   0.0586556  -0.0677297   0.0000000), wk =   0.1111111
        k(   17) = (  -0.0879835   0.0507973   0.0000000), wk =   0.0555556
        k(   18) = (  -0.0879835   0.0846621   0.0000000), wk =   0.1111111
        k(   19) = (  -0.0879835   0.1185270   0.0000000), wk =   0.1111111
        k(   20) = (  -0.0879835  -0.0507973   0.0000000), wk =   0.0555556

     Largest allocated arrays     est. size (Mb)     dimensions
     Largest temporary arrays     est. size (Mb)     dimensions

     Initial potential from superposition of free atoms
     Check: negative starting charge=   -0.000173

     starting charge   35.97042, renormalised to   36.00000

     negative rho (up, down):  1.730E-04 0.000E+00

     *
     * You are using vdW-DF for exchange-correlation in this calculation.
     * Please cite the following three references that made this development
     * possible:
     *
     *   M. Dion, H. Rydberg, E. Schroder, D. C. Langreth, and
     *   B. I. Lundqvist, Phys. Rev. Lett. 92, 246401 (2004).
     *
     *   T. Thonhauser, V. R. Cooper, S. Li, A. Puzder, P. Hyldgaard, and
     *   D. C. Langreth, Phys. Rev. B 76, 125112 (2007).
     *
     *   G. Roman-Perez and J. M. Soler, Phys. Rev. Lett. 103, 096102 (2009).
     *
     *
     * If you are using vdW-DF2, please also cite:
     *
     *   K. Lee, E. D. Murray, L. Kong, B. I. Lundqvist, and
     *   D. C. Langreth, Phys. Rev. B 82, 081101(R) (2010).
     *
     *
     * If you are calculating the stress with vdW-DF, please also cite:
     *
     *   R. Sabatini, E. Kucukbenli, B. Kolb, T. Thonhauser, and
     *   S. de Gironcoli, J. Phys.: Condens. Matter 24, 424209 (2012).
     *

     Carrying out vdW-DF run using the following parameters:

     Nqs =      20    Nr_points =    1024   r_max =   100.000
     q_mesh =
               0.00001000     0.04494208     0.09755937     0.15916263
               0.23128650     0.31572767     0.41458969     0.53033537
               0.66584808     0.82450364     1.01025438     1.22772762
               1.48234092     1.78043706     2.12944203     2.53805004
               3.01644009     3.57652955     4.23227104     5.00000000

     Gradients computed in reciprocal space

     Adding external electric field

     Computed dipole along edir(3) :
        Dipole               -0.0000 Ry au,         -0.0000 Debye
        Dipole field         -0.0000 Ry au

        Potential amp.        0.0000 Ry
        Total length         45.3989 bohr

     Starting wfc are   48 randomized atomic wfcs

     Self-consistent Calculation

     iteration #  1     ecut=    36.75 Ry     beta=0.30
     Davidson diagonalization with overlap
     ethr =  1.00E-02,  avg # of iterations =  3.0

[...]

     total energy              =     -82.15352119 Ry
     Harris-Foulkes estimate   =     -82.52323469 Ry
     estimated scf accuracy    <       0.85763090 Ry

[...]

     total energy              =     -82.37346782 Ry
     Harris-Foulkes estimate   =     -82.37348664 Ry
     estimated scf accuracy    <       0.00005587 Ry

     iteration #  9     ecut=    36.75 Ry     beta=0.30
     Davidson diagonalization with overlap
     ethr =  1.16E-07,  avg # of iterations =  2.2

[...]

     negative rho (up, down):  3.956E-04 0.000E+00

     Adding external electric field

     Computed dipole along edir(3) :
        Dipole               -0.0026 Ry au,         -0.0067 Debye
        Dipole field         -0.0000 Ry au

        Potential amp.        0.0006 Ry
        Total length         45.3989 bohr

     End of self-consistent calculation

          k = 0.0000 0.0000 0.0000 ( 17579 PWs)   bands (ev):

   -11.3236  -9.6245  -6.9505  -5.3929  -5.3928  -5.3928  -5.3235  -5.3235
    -5.3235  -3.9948  -3.9947  -3.9947  -3.8345  -3.4058  -3.4058  -3.4058
    -1.1097  -1.1097  -1.1097  -0.8656  -0.8656  -0.8656  -0.3215   1.9128
     1.9128   1.9476   1.9479   1.9479

[...]

          k = 0.0587-0.0677 0.0000 ( 17495 PWs)   bands (ev):

[...]

          k =-0.0880 0.0508 0.0000 ( 17464 PWs)   bands (ev):

[...]

          k =-0.0880-0.0508 0.0000 ( 17464 PWs)   bands (ev):

    -9.8075  -9.8075  -8.1203  -8.1203  -6.8209  -6.8209  -5.4615  -5.4615
    -5.1685  -5.1685  -2.6552  -2.6552  -2.3952  -2.3952  -1.1302  -1.1302
    -0.8323  -0.8323   0.2960   0.2960   0.6253   0.6253   0.9673   0.9673
     1.0191   1.0191   2.0206   2.0206

     the Fermi energy is    -0.6642 ev

!    total energy              =     -82.37347525 Ry
     Harris-Foulkes estimate   =     -82.37347781 Ry
     estimated scf accuracy    <       0.00000276 Ry

     The total energy is the sum of the following terms:

     one-electron contribution =    -622.30672772 Ry
     hartree contribution      =     318.14584434 Ry
     xc contribution           =     -53.08228909 Ry
     ewald contribution        =     274.90042720 Ry
     electric field correction =       0.00000002 Ry
     smearing contrib. (-TS)   =      -0.03072999 Ry

     convergence has been achieved in   9 iterations

 BEEF-vdW xc energy contributions
           1 :   -43.5442918100310
           2 :    37.3730986485806
           3 :   -27.9268657860425
           4 :    19.0029455460449
           5 :   -13.0356695669632
           6 :    10.1296426206142
           7 :   -8.78029407243914
           8 :    7.44634188888396
           9 :   -5.66846830578351
          10 :    4.00697180761034
          11 :   -3.14619535916858
          12 :    3.11633194962059
          13 :   -3.29546270300031
          14 :    3.04124968771497
          15 :   -2.26130597120065
          16 :    1.39741780470546
          17 :  -0.920912537830581
          18 :   0.879813564202372
          19 :  -0.917932532085516
          20 :   0.679012977847819
          21 :  -0.156774092615407
          22 :  -0.338840818191919
          23 :   0.518002756658944
          24 :  -0.392038431267252
          25 :   0.234419772232286
          26 :  -0.291804136751097
          27 :   0.549029963636244
          28 :  -0.770833361635731
          29 :   0.753615104991582
          30 :  -0.525490078173206
          31 :   -6.52209295285812
          32 :   -4.77366804049186

     Forces acting on atoms (Ry/au):

     negative rho (up, down):  3.956E-04 0.000E+00
     atom    1 type  1   force =     0.00000050    0.00000014    0.00150436
     atom    2 type  1   force =    -0.00000029   -0.00000040    0.00150412
     atom    3 type  1   force =    -0.00000055   -0.00000022    0.00150451
     atom    4 type  1   force =     0.00000048   -0.00000007    0.00150414
     atom    5 type  1   force =     0.00000014   -0.00000001    0.00000352
     atom    6 type  1   force =    -0.00000004   -0.00000034    0.00000324
     atom    7 type  1   force =     0.00000013   -0.00000001    0.00000312
     atom    8 type  1   force =    -0.00000008    0.00000062    0.00000394
     atom    9 type  1   force =     0.00000102    0.00000030   -0.00150757
     atom   10 type  1   force =    -0.00000107    0.00000050   -0.00150794
     atom   11 type  1   force =    -0.00000012   -0.00000072   -0.00150756
     atom   12 type  1   force =    -0.00000014    0.00000021   -0.00150787

     Total force =     0.003015     Total SCF correction =     0.001419
     SCF correction compared to forces is large: reduce conv_thr to get better values

     entering subroutine stress ...

     negative rho (up, down):  3.956E-04 0.000E+00
          total   stress  (Ry/bohr**3)                   (kbar)     P=   -5.90
  -0.00005486  -0.00000000  -0.00000000         -8.07     -0.00     -0.00
  -0.00000000  -0.00005486  -0.00000000         -0.00     -8.07     -0.00
  -0.00000000  -0.00000000  -0.00001051         -0.00     -0.00     -1.55

     BFGS Geometry Optimization

     bfgs converged in   1 scf cycles and   0 bfgs steps
     (criteria: energy <  1.0E+00, force <  1.9E-03)

     End of BFGS Geometry Optimization

     Final energy   =     -82.3734752527 Ry
Begin final coordinates

ATOMIC_POSITIONS (crystal)
Al1      0.166666667   0.166666667   0.405843214    0   0   0
Al1      0.666666667   0.166666667   0.405843214    0   0   0
Al1      0.166666667   0.666666667   0.405843214    0   0   0
Al1      0.666666667   0.666666667   0.405843214    0   0   0
Al1      0.833333333   0.333333333   0.500000000    0   0   0
Al1      0.333333333   0.333333333   0.500000000    0   0   0
Al1      0.833333333   0.833333333   0.500000000    0   0   0
Al1      0.333333333   0.833333333   0.500000000    0   0   0
Al1      0.000000000   0.000000000   0.594156786
Al1      0.500000000   0.000000000   0.594156786
Al1     -0.000000000   0.500000000   0.594156786
Al1      0.500000000   0.500000000   0.594156786
End final coordinates

     Writing output data file calc.save

     General routines

     Parallel routines

   This run was terminated on:  14:58:10  30Apr2018

   JOB DONE.
Job  /afs/slac/g/suncat/bin/suncat-tsmpirun -x LD_LIBRARY_PATH -wdir /scratch/qe470482_JHp8W pw.x -npool 4 -in pw.inp

TID   HOST_NAME   COMMAND_LINE            STATUS            TERMINATION_TIME
00000 suncat0088 pw.x -npool 4 -i  Done                     04/30/2018 14:58:10
00001 suncat0088 pw.x -npool 4 -i  Done                     04/30/2018 14:58:10
00002 suncat0088 pw.x -npool 4 -i  Done                     04/30/2018 14:58:10
00003 suncat0088 pw.x -npool 4 -i  Done                     04/30/2018 14:58:10
00004 suncat0088 pw.x -npool 4 -i  Done                     04/30/2018 14:58:10
00005 suncat0088 pw.x -npool 4 -i  Done                     04/30/2018 14:58:10
00006 suncat0088 pw.x -npool 4 -i  Done                     04/30/2018 14:58:10
00007 suncat0088 pw.x -npool 4 -i  Done                     04/30/2018 14:58:10
00008 suncat0086 pw.x -npool 4 -i  Done                     04/30/2018 14:58:10
00009 suncat0086 pw.x -npool 4 -i  Done                     04/30/2018 14:58:10
00010 suncat0086 pw.x -npool 4 -i  Done                     04/30/2018 14:58:10
00011 suncat0086 pw.x -npool 4 -i  Done                     04/30/2018 14:58:10
00012 suncat0086 pw.x -npool 4 -i  Done                     04/30/2018 14:58:10
00013 suncat0086 pw.x -npool 4 -i  Done                     04/30/2018 14:58:10
00014 suncat0086 pw.x -npool 4 -i  Done                     04/30/2018 14:58:10
00015 suncat0086 pw.x -npool 4 -i  Done                     04/30/2018 14:58:10
00016 suncat0077 pw.x -npool 4 -i  Done                     04/30/2018 14:58:10
00017 suncat0077 pw.x -npool 4 -i  Done                     04/30/2018 14:58:10
00018 suncat0077 pw.x -npool 4 -i  Done                     04/30/2018 14:58:10
00019 suncat0077 pw.x -npool 4 -i  Done                     04/30/2018 14:58:10
00020 suncat0077 pw.x -npool 4 -i  Done                     04/30/2018 14:58:10
00021 suncat0077 pw.x -npool 4 -i  Done                     04/30/2018 14:58:10
00022 suncat0077 pw.x -npool 4 -i  Done                     04/30/2018 14:58:10
00023 suncat0077 pw.x -npool 4 -i  Done                     04/30/2018 14:58:10
00024 suncat0252 pw.x -npool 4 -i  Done                     04/30/2018 14:58:10
00025 suncat0252 pw.x -npool 4 -i  Done                     04/30/2018 14:58:10
00026 suncat0252 pw.x -npool 4 -i  Done                     04/30/2018 14:58:10
00027 suncat0252 pw.x -npool 4 -i  Done                     04/30/2018 14:58:10
00028 suncat0252 pw.x -npool 4 -i  Done                     04/30/2018 14:58:10
00029 suncat0252 pw.x -npool 4 -i  Done                     04/30/2018 14:58:10
00030 suncat0252 pw.x -npool 4 -i  Done                     04/30/2018 14:58:10
00031 suncat0252 pw.x -npool 4 -i  Done                     04/30/2018 14:58:10