     Program PWSCF v.5.1rc2 (svn rev. 11289) starts on 30Apr2018 at 15:28:43

     Current dimensions of program PWSCF are:
     Max number of different atomic species (ntypx) = 10
     Max number of k-points (npk) =  40000
     Max angular momentum in pseudopotentials (lmaxx) =  3
     Presently stress not available with electric field

     IMPORTANT: XC functional enforced from input :
     Exchange-correlation      = BEEF-VDW ( 1  4 27 13 2)
     Any further DFT definition will be discarded
     Please, verify this is what you really want

     Subspace diagonalization in iterative solution of the eigenvalue problem:
     a serial algorithm will be used

     Found symmetry operation: I + ( -0.5000  0.0000  0.0000)
     This is a supercell, fractional translations are disabled

     bravais-lattice index     =            0
     lattice parameter (alat)  =       1.8897  a.u.
     unit-cell volume          =    7725.1200 (a.u.)^3
     number of atoms/cell      =           12
     number of atomic types    =            1
     number of electrons       =       132.00
     number of Kohn-Sham states=           76
     kinetic-energy cutoff     =      36.7493  Ry
     charge density cutoff     =     367.4932  Ry
     convergence threshold     =      1.0E-05
     mixing beta               =       0.3000
     number of iterations used =           10  plain     mixing
     Exchange-correlation      = BEEF-VDW ( 1  4 27 13 2)
     nstep                     =           50

     celldm(1)=   1.889726  celldm(2)=   0.000000  celldm(3)=   0.000000
     celldm(4)=   0.000000  celldm(5)=   0.000000  celldm(6)=   0.000000

     crystal axes: (cart. coord. in units of alat)
               a(1) = (   7.152277   0.000000   0.000000 )
               a(2) = (   3.576139   6.194054   0.000000 )
               a(3) = (   0.000000   0.000000  25.839810 )

     reciprocal axes: (cart. coord. in units 2 pi/alat)
               b(1) = (  0.139816 -0.080723  0.000000 )
               b(2) = (  0.000000  0.161445  0.000000 )
               b(3) = (  0.000000  0.000000  0.038700 )

     PseudoPot. # 1 for Y  read from file:
     /u/if/mamunm/psp/gbrv1.5pbe/Y.UPF
     MD5 check sum: d034151ed7554c50b6e82763ed42c788
     Pseudo is Ultrasoft + core correction, Zval = 11.0
     Generated by new atomic code, or converted to UPF format
     Using radial grid of  885 points,  6 beta functions with:
                l(1) =   0
                l(2) =   0
                l(3) =   1
                l(4) =   1
                l(5) =   2
                l(6) =   2
     Q(r) pseudized with  8 coefficients,  rinner =    1.200   1.200   1.200
                                                       1.200   1.200

     vdW kernel table read from file vdW_kernel_table
     MD5 check sum: 095c7af220d748ca6e76c0b4c6cfb241

     atomic species   valence    mass     pseudopotential
        Y1            11.00    88.90584     Y ( 1.00)

     No symmetry found

   Cartesian axes

     site n.     atom                  positions (alat units)
         1           Y1  tau(   1) = (   1.7880693   1.0323423  10.0000000  )
         2           Y1  tau(   2) = (   5.3642080   1.0323423  10.0000000  )
         3           Y1  tau(   3) = (   3.5761386   4.1293692  10.0000000  )
         4           Y1  tau(   4) = (   7.1522773   4.1293692  10.0000000  )
         5           Y1  tau(   5) = (   7.1522773   2.0646846  12.9199050  )
         6           Y1  tau(   6) = (   3.5761386   2.0646846  12.9199050  )
         7           Y1  tau(   7) = (   8.9403466   5.1617115  12.9199050  )
         8           Y1  tau(   8) = (   5.3642080   5.1617115  12.9199050  )
         9           Y1  tau(   9) = (   0.0000000   0.0000000  15.8398100  )
        10           Y1  tau(  10) = (   3.5761386   0.0000000  15.8398100  )
        11           Y1  tau(  11) = (   1.7880693   3.0970269  15.8398100  )
        12           Y1  tau(  12) = (   5.3642080   3.0970269  15.8398100  )

     number of k points=    20  Fermi-Dirac smearing, width (Ry)=  0.0110
                       cart. coord. in units 2pi/alat
        k(    1) = (   0.0000000   0.0000000   0.0000000), wk =   0.0555556
        k(    2) = (   0.0000000   0.0269075   0.0000000), wk =   0.1111111
        k(    3) = (   0.0000000   0.0538151   0.0000000), wk =   0.1111111
        k(    4) = (   0.0000000  -0.0807226   0.0000000), wk =   0.0555556
        k(    5) = (   0.0233026  -0.0134538   0.0000000), wk =   0.1111111
        k(    6) = (   0.0233026   0.0134538   0.0000000), wk =   0.1111111
        k(    7) = (   0.0233026   0.0403613   0.0000000), wk =   0.1111111
        k(    8) = (   0.0233026  -0.0941763   0.0000000), wk =   0.1111111
        k(    9) = (   0.0233026  -0.0672688   0.0000000), wk =   0.1111111
        k(   10) = (   0.0233026  -0.0403613   0.0000000), wk =   0.1111111
        k(   11) = (   0.0466052  -0.0269075   0.0000000), wk =   0.1111111
        k(   12) = (   0.0466052   0.0000000   0.0000000), wk =   0.1111111
        k(   13) = (   0.0466052   0.0269075   0.0000000), wk =   0.1111111
        k(   14) = (   0.0466052  -0.1076301   0.0000000), wk =   0.1111111
        k(   15) = (   0.0466052  -0.0807226   0.0000000), wk =   0.1111111
        k(   16) = (   0.0466052  -0.0538151   0.0000000), wk =   0.1111111
        k(   17) = (  -0.0699078   0.0403613   0.0000000), wk =   0.0555556
        k(   18) = (  -0.0699078   0.0672688   0.0000000), wk =   0.1111111
        k(   19) = (  -0.0699078   0.0941763   0.0000000), wk =   0.1111111
        k(   20) = (  -0.0699078  -0.0403613   0.0000000), wk =   0.0555556

     Largest allocated arrays     est. size (Mb)     dimensions
     Largest temporary arrays     est. size (Mb)     dimensions

     Initial potential from superposition of free atoms
     Check: negative starting charge=   -0.000607

     starting charge  131.94637, renormalised to  132.00000

     negative rho (up, down):  6.072E-04 0.000E+00

     *
     * You are using vdW-DF for exchange-correlation in this calculation.
     * Please cite the following three references that made this development
     * possible:
     *
     *   M. Dion, H. Rydberg, E. Schroder, D. C. Langreth, and
     *   B. I. Lundqvist, Phys. Rev. Lett. 92, 246401 (2004).
     *
     *   T. Thonhauser, V. R. Cooper, S. Li, A. Puzder, P. Hyldgaard, and
     *   D. C. Langreth, Phys. Rev. B 76, 125112 (2007).
     *
     *   G. Roman-Perez and J. M. Soler, Phys. Rev. Lett. 103, 096102 (2009).
     *
     *
     * If you are using vdW-DF2, please also cite:
     *
     *   K. Lee, E. D. Murray, L. Kong, B. I. Lundqvist, and
     *   D. C. Langreth, Phys. Rev. B 82, 081101(R) (2010).
     *
     *
     * If you are calculating the stress with vdW-DF, please also cite:
     *
     *   R. Sabatini, E. Kucukbenli, B. Kolb, T. Thonhauser, and
     *   S. de Gironcoli, J. Phys.: Condens. Matter 24, 424209 (2012).
     *

     Carrying out vdW-DF run using the following parameters:

     Nqs =      20    Nr_points =    1024   r_max =   100.000
     q_mesh =
               0.00001000     0.04494208     0.09755937     0.15916263
               0.23128650     0.31572767     0.41458969     0.53033537
               0.66584808     0.82450364     1.01025438     1.22772762
               1.48234092     1.78043706     2.12944203     2.53805004
               3.01644009     3.57652955     4.23227104     5.00000000

     Gradients computed in reciprocal space

     Adding external electric field

     Computed dipole along edir(3) :
        Dipole               -0.0000 Ry au,         -0.0000 Debye
        Dipole field         -0.0000 Ry au

        Potential amp.        0.0000 Ry
        Total length         47.6094 bohr

     Starting wfc are  156 randomized atomic wfcs

     Self-consistent Calculation

     iteration #  1     ecut=    36.75 Ry     beta=0.30
     Davidson diagonalization with overlap
     ethr =  1.00E-02,  avg # of iterations =  2.0

[...]

     total energy              =   -1122.13877427 Ry
     Harris-Foulkes estimate   =   -1124.67673448 Ry
     estimated scf accuracy    <       5.37868306 Ry

[...]

     End of self-consistent calculation

          k = 0.0000 0.0000 0.0000 ( 28997 PWs)   bands (ev):

   -42.3391 -42.3382 -42.2963 -42.2962 -42.2960 -42.2959 -42.2958 -42.2953
   -41.7823 -41.7402 -41.7398 -41.7396 -22.4506 -22.4504 -22.4503 -22.4354
   -22.4352 -22.4351 -22.3976 -22.3436 -22.3154 -22.3153 -22.3149 -22.2823
   -22.2821 -22.2817 -22.1209 -22.1207 -22.1206 -22.1175 -22.1173 -22.1172
   -22.0206 -22.0205 -22.0194 -22.0194 -21.8990 -21.8989 -21.8987 -21.6911
   -21.6638 -21.6633 -21.6631 -21.6011 -21.6010 -21.6008 -21.5036 -21.5036
    -3.2887  -2.4045  -1.3442  -0.6141  -0.6140  -0.6140  -0.4863  -0.4862
    -0.4862  -0.2210  -0.2210  -0.2209   0.3237   0.3237   0.3237   0.7312
     0.7313   0.7314   1.1519   1.2485   1.6005   1.6407   1.6408   1.6408
     1.7601   1.7601   1.7602   2.3546

[...]

          k =-0.0699 0.0404 0.0000 ( 29048 PWs)   bands (ev):

[...]

     the Fermi energy is     1.0054 ev

!    total energy              =   -1124.22386498 Ry
     Harris-Foulkes estimate   =   -1124.22386451 Ry
     estimated scf accuracy    <       0.00000216 Ry

     The total energy is the sum of the following terms:

     one-electron contribution =   -5365.20815050 Ry
     hartree contribution      =    2674.44522548 Ry
     xc contribution           =    -338.76464045 Ry
     ewald contribution        =    1905.43716394 Ry
     electric field correction =       0.00000005 Ry
     smearing contrib. (-TS)   =      -0.13346350 Ry

     convergence has been achieved in  16 iterations

 BEEF-vdW xc energy contributions
           1 :   -295.226102203030
           2 :    265.223770355411
           3 :   -213.474126188553
           4 :    152.623092009866
           5 :   -94.5397690452710
           6 :    46.7323819046047
           7 :   -11.7525241644649
           8 :   -11.0735388396321
           9 :    23.3869162591899
          10 :   -26.5499781663499
          11 :    21.7937064771947
          12 :   -11.0761918583142
          13 :   -2.39868651444232
          14 :    14.6389214104734
          15 :   -22.1415893000317
          16 :    23.1942212363514
          17 :   -18.3702291116685
          18 :    9.94426732200662
          19 :  -0.676439289509801
          20 :   -7.25861209441814
          21 :    12.6809152230022
          22 :   -15.2050201160013
          23 :    14.8654564258421
          24 :   -11.9559101145122
          25 :    7.12728012834316
          26 :   -1.49488259969627
          27 :   -3.52006300857983
          28 :    6.65039222709044
          29 :   -7.29978895246347
          30 :    5.77571716431385
          31 :   -28.1849202344717
          32 :   -19.2822948483001

     Forces acting on atoms (Ry/au):

     negative rho (up, down):  1.379E-05 0.000E+00
     atom    1 type  1   force =     0.00003666   -0.00002698    0.00448593
     atom    2 type  1   force =    -0.00002967   -0.00003592    0.00446826
     atom    3 type  1   force =    -0.00004787    0.00002433    0.00456167
     atom    4 type  1   force =     0.00004363    0.00005589    0.00451360
     atom    5 type  1   force =     0.00001164    0.00003601   -0.00001712
     atom    6 type  1   force =    -0.00001989    0.00008018   -0.00002275
     atom    7 type  1   force =     0.00004666   -0.00008128   -0.00002787
     atom    8 type  1   force =    -0.00005838   -0.00004723   -0.00001980
     atom    9 type  1   force =    -0.00002654   -0.00008541   -0.00448469
     atom   10 type  1   force =     0.00002566   -0.00001435   -0.00448952
     atom   11 type  1   force =     0.00006239    0.00007213   -0.00448531
     atom   12 type  1   force =    -0.00004428    0.00002265   -0.00448241

     Total force =     0.008972     Total SCF correction =     0.005973
     SCF correction compared to forces is large: reduce conv_thr to get better values

     entering subroutine stress ...

     negative rho (up, down):  1.379E-05 0.000E+00
          total   stress  (Ry/bohr**3)                   (kbar)     P=   -3.81
  -0.00002267  -0.00000001   0.00000001         -3.33     -0.00      0.00
  -0.00000001  -0.00002266  -0.00000001         -0.00     -3.33     -0.00
   0.00000001  -0.00000001  -0.00003237          0.00     -0.00     -4.76

     BFGS Geometry Optimization

     number of scf cycles    =   1
     number of bfgs steps    =   0

     energy   new            =   -1124.2238649798 Ry

     new trust radius        =       0.0044896161 bohr
     new conv_thr            =       0.0000099958 Ry

ATOMIC_POSITIONS (crystal)
Y1       0.166666667   0.166666667   0.386999750    0   0   0
Y1       0.666666667   0.166666667   0.386999750    0   0   0
Y1       0.166666667   0.666666667   0.386999750    0   0   0
Y1       0.666666667   0.666666667   0.386999750    0   0   0
Y1       0.833333333   0.333333333   0.500000000    0   0   0
Y1       0.333333333   0.333333333   0.500000000    0   0   0
Y1       0.833333333   0.833333333   0.500000000    0   0   0
Y1       0.333333333   0.833333333   0.500000000    0   0   0
Y1       0.000001685  -0.000007297   0.612908407
Y1       0.500002511  -0.000001226   0.612908308
Y1       0.000001535   0.500006162   0.612908394
Y1       0.499995756   0.500001935   0.612908454

     Writing output data file calc.save
     Check: negative starting charge=   -0.000607
     NEW-OLD atomic charge density approx. for the potential
     Check: negative starting charge=   -0.000607

[...]

     energy   old            =   -1124.2238649798 Ry
     energy   new            =   -1124.2239486588 Ry

     CASE: energy  _new < energy  _old

     WARNING: bfgs curvature condition failed, Theta= 0.645
     uphill step: resetting bfgs history

[...]

     Total force =     0.009048     Total SCF correction =     0.000872

[...]

     WARNING: bfgs curvature condition failed, Theta= 0.984
     new trust radius        =       0.0061265562 bohr
     new conv_thr            =       0.0000001000 Ry

[...]

     WARNING: bfgs curvature condition failed, Theta= 0.844
     new trust radius        =       0.0091898343 bohr
     new conv_thr            =       0.0000001000 Ry

[...]

     Threshold (ethr) on eigenvalues was too large:
     Diagonalizing with lowered threshold

     Davidson diagonalization with overlap
     ethr =  9.56E-08,  avg # of iterations =  2.0

[...]

     Total force =     0.005673     Total SCF correction =     0.000321

[...]

     number of scf cycles    =   7
     number of bfgs steps    =   6

     energy   old            =   -1124.2372032928 Ry
     energy   new            =   -1124.2374661291 Ry

     CASE: energy  _new < energy  _old

     new trust radius        =       0.0310156909 bohr
     new conv_thr            =       0.0000001000 Ry

ATOMIC_POSITIONS (crystal)
Y1       0.166666667   0.166666667   0.386999750    0   0   0
Y1       0.666666667   0.166666667   0.386999750    0   0   0
Y1       0.166666667   0.666666667   0.386999750    0   0   0
Y1       0.666666667   0.666666667   0.386999750    0   0   0
Y1       0.833333333   0.333333333   0.500000000    0   0   0
Y1       0.333333333   0.333333333   0.500000000    0   0   0
Y1       0.833333333   0.833333333   0.500000000    0   0   0
Y1       0.333333333   0.833333333   0.500000000    0   0   0
Y1       0.000004336   0.000004448   0.611140132
Y1       0.499998503   0.000002888   0.611140251
Y1       0.000005004   0.499993929   0.611140348
Y1       0.500004382   0.499998272   0.611139927

     Writing output data file calc.save
     Check: negative starting charge=   -0.000612
     NEW-OLD atomic charge density approx. for the potential
     Check: negative starting charge=   -0.000615

[...]

     Self-consistent Calculation

[...]

     total energy              =   -1124.23775413 Ry
     Harris-Foulkes estimate   =   -1124.23775415 Ry
     estimated scf accuracy    <       0.00000021 Ry

     iteration # 12     ecut=    36.75 Ry     beta=0.30
     Davidson diagonalization with overlap
     ethr =  1.48E-10,  avg # of iterations =  1.9

[...]

     negative rho (up, down):  1.435E-05 0.000E+00

     Adding external electric field

     Computed dipole along edir(3) :
        Dipole                0.0037 Ry au,          0.0095 Debye
        Dipole field          0.0000 Ry au

        Potential amp.       -0.0006 Ry
        Total length         47.6094 bohr

     End of self-consistent calculation

[...]

          k = 0.0466-0.0538 0.0000 ( 29098 PWs)   bands (ev):

[...]

          k =-0.0699-0.0404 0.0000 ( 29048 PWs)   bands (ev):

   -42.3252 -42.3252 -42.3038 -42.3038 -42.2866 -42.2866 -42.2650 -42.2650
   -41.7300 -41.7300 -41.7087 -41.7087 -22.3730 -22.3730 -22.3473 -22.3473
   -22.3382 -22.3382 -22.3071 -22.3071 -22.3046 -22.3046 -22.2724 -22.2724
   -22.2425 -22.2425 -22.2093 -22.2093 -22.2092 -22.2092 -22.1765 -22.1765
   -22.0770 -22.0770 -22.0424 -22.0424 -21.7983 -21.7983 -21.6809 -21.6809
   -21.6522 -21.6522 -21.6451 -21.6451 -21.6329 -21.6329 -21.5234 -21.5234
    -2.0876  -2.0875  -1.2685  -1.2685  -0.3918  -0.3918  -0.2686  -0.2686
     0.0325   0.0325   0.7012   0.7012   0.7544   0.7544   0.8324   0.8324
     0.9220   0.9220   1.0711   1.0712   1.1135   1.1135   1.1844   1.1844
     1.3890   1.3890   1.5191   1.5191

     the Fermi energy is     1.0039 ev

!    total energy              =   -1124.23775404 Ry
     Harris-Foulkes estimate   =   -1124.23775415 Ry
     estimated scf accuracy    <       0.00000009 Ry

     The total energy is the sum of the following terms:

     one-electron contribution =   -5402.16145080 Ry
     hartree contribution      =    2693.04213369 Ry
     xc contribution           =    -338.82455811 Ry
     ewald contribution        =    1923.83896596 Ry
     electric field correction =       0.00000002 Ry
     smearing contrib. (-TS)   =      -0.13284480 Ry

     convergence has been achieved in  12 iterations

 BEEF-vdW xc energy contributions
           1 :   -295.649878810214
           2 :    265.661940646423
           3 :   -213.921584862522
           4 :    153.055813318910
           5 :   -94.9351252331253
           6 :    47.0896202436359
           7 :   -12.0950136523991
           8 :   -10.7155899998696
           9 :    22.9988837788640
          10 :   -26.1432560632967
          11 :    21.3964527053091
          12 :   -10.7110330483918
          13 :   -2.73373297209815
          14 :    14.9707383433361
          15 :   -22.5008844796111
          16 :    23.5897112122289
          17 :   -18.7808692746558
          18 :    10.3371361042912
          19 :   -1.03484645218742
          20 :   -6.92139455805903
          21 :    12.3335383673243
          22 :   -14.8244430775845
          23 :    14.4551821500979
          24 :   -11.5422172288357
          25 :    6.73762389254972
          26 :   -1.13663764708775
          27 :   -3.86302557904861
          28 :    7.00085884892229
          29 :   -7.66422173123209
          30 :    6.13471424203709
          31 :   -28.2109174649894
          32 :   -19.3104762276589

     Forces acting on atoms (Ry/au):

     negative rho (up, down):  1.435E-05 0.000E+00
     atom    1 type  1   force =    -0.00000126    0.00000047    0.00438848
     atom    2 type  1   force =    -0.00000252    0.00000060    0.00438974
     atom    3 type  1   force =    -0.00000147   -0.00000052    0.00439055
     atom    4 type  1   force =    -0.00000225   -0.00000007    0.00439157
     atom    5 type  1   force =     0.00000124    0.00000023   -0.00278017
     atom    6 type  1   force =    -0.00000024    0.00000029   -0.00278071
     atom    7 type  1   force =     0.00000142   -0.00000047   -0.00277728
     atom    8 type  1   force =     0.00000131    0.00000037   -0.00278014
     atom    9 type  1   force =    -0.00000172   -0.00000489   -0.00161038
     atom   10 type  1   force =     0.00000358   -0.00000077   -0.00161056
     atom   11 type  1   force =     0.00000313    0.00000398   -0.00160982
     atom   12 type  1   force =    -0.00000123    0.00000077   -0.00161128

     Total force =     0.003221     Total SCF correction =     0.000546
     SCF correction compared to forces is large: reduce conv_thr to get better values

     entering subroutine stress ...

     negative rho (up, down):  1.435E-05 0.000E+00
          total   stress  (Ry/bohr**3)                   (kbar)     P=   -2.66
  -0.00001745  -0.00000002   0.00000001         -2.57     -0.00      0.00
  -0.00000002  -0.00001745   0.00000000         -0.00     -2.57      0.00
   0.00000001   0.00000000  -0.00001926          0.00      0.00     -2.83

     bfgs converged in   8 scf cycles and   7 bfgs steps
     (criteria: energy <  1.0E+00, force <  1.9E-03)

     End of BFGS Geometry Optimization

     Final energy   =   -1124.2377540360 Ry
Begin final coordinates

ATOMIC_POSITIONS (crystal)
Y1       0.166666667   0.166666667   0.386999750    0   0   0
Y1       0.666666667   0.166666667   0.386999750    0   0   0
Y1       0.166666667   0.666666667   0.386999750    0   0   0
Y1       0.666666667   0.666666667   0.386999750    0   0   0
Y1       0.833333333   0.333333333   0.500000000    0   0   0
Y1       0.333333333   0.333333333   0.500000000    0   0   0
Y1       0.833333333   0.833333333   0.500000000    0   0   0
Y1       0.333333333   0.833333333   0.500000000    0   0   0
Y1       0.000004336   0.000004448   0.611140132
Y1       0.499998503   0.000002888   0.611140251
Y1       0.000005004   0.499993929   0.611140348
Y1       0.500004382   0.499998272   0.611139927
End final coordinates

     Writing output data file calc.save

     General routines

     Parallel routines

   This run was terminated on:  16:39:39  30Apr2018

   JOB DONE.
Job  /afs/slac/g/suncat/bin/suncat-tsmpirun -x LD_LIBRARY_PATH -wdir /scratch/qe494147_4JnMk pw.x -npool 4 -in pw.inp

TID   HOST_NAME   COMMAND_LINE            STATUS            TERMINATION_TIME
00000 suncat0057 pw.x -npool 4 -i  Done                     04/30/2018 16:39:39
00001 suncat0057 pw.x -npool 4 -i  Done                     04/30/2018 16:39:39
00002 suncat0057 pw.x -npool 4 -i  Done                     04/30/2018 16:39:39
00003 suncat0057 pw.x -npool 4 -i  Done                     04/30/2018 16:39:39
00004 suncat0057 pw.x -npool 4 -i  Done                     04/30/2018 16:39:39
00005 suncat0057 pw.x -npool 4 -i  Done                     04/30/2018 16:39:39
00006 suncat0057 pw.x -npool 4 -i  Done                     04/30/2018 16:39:39
00007 suncat0057 pw.x -npool 4 -i  Done                     04/30/2018 16:39:39
00008 suncat0036 pw.x -npool 4 -i  Done                     04/30/2018 16:39:39
00009 suncat0036 pw.x -npool 4 -i  Done                     04/30/2018 16:39:39
00010 suncat0036 pw.x -npool 4 -i  Done                     04/30/2018 16:39:39
00011 suncat0036 pw.x -npool 4 -i  Done                     04/30/2018 16:39:39
00012 suncat0036 pw.x -npool 4 -i  Done                     04/30/2018 16:39:39
00013 suncat0036 pw.x -npool 4 -i  Done                     04/30/2018 16:39:39
00014 suncat0036 pw.x -npool 4 -i  Done                     04/30/2018 16:39:39
00015 suncat0036 pw.x -npool 4 -i  Done                     04/30/2018 16:39:39
00016 suncat0182 pw.x -npool 4 -i  Done                     04/30/2018 16:39:39
00017 suncat0182 pw.x -npool 4 -i  Done                     04/30/2018 16:39:39
00018 suncat0182 pw.x -npool 4 -i  Done                     04/30/2018 16:39:39
00019 suncat0182 pw.x -npool 4 -i  Done                     04/30/2018 16:39:39
00020 suncat0182 pw.x -npool 4 -i  Done                     04/30/2018 16:39:39
00021 suncat0182 pw.x -npool 4 -i  Done                     04/30/2018 16:39:39
00022 suncat0182 pw.x -npool 4 -i  Done                     04/30/2018 16:39:39
00023 suncat0182 pw.x -npool 4 -i  Done                     04/30/2018 16:39:39
00024 suncat0173 pw.x -npool 4 -i  Done                     04/30/2018 16:39:39
00025 suncat0173 pw.x -npool 4 -i  Done                     04/30/2018 16:39:39
00026 suncat0173 pw.x -npool 4 -i  Done                     04/30/2018 16:39:39
00027 suncat0173 pw.x -npool 4 -i  Done                     04/30/2018 16:39:39
00028 suncat0173 pw.x -npool 4 -i  Done                     04/30/2018 16:39:39
00029 suncat0173 pw.x -npool 4 -i  Done                     04/30/2018 16:39:39
00030 suncat0173 pw.x -npool 4 -i  Done                     04/30/2018 16:39:39
00031 suncat0173 pw.x -npool 4 -i  Done                     04/30/2018 16:39:39