     Program PWSCF v.5.1rc2 (svn rev. 11289) starts on 30Apr2018 at 15:42:53

     Current dimensions of program PWSCF are:
     Max number of different atomic species (ntypx) = 10
     Max number of k-points (npk) =  40000
     Max angular momentum in pseudopotentials (lmaxx) =  3
     Presently stress not available with electric field

     IMPORTANT: XC functional enforced from input :
     Exchange-correlation      = BEEF-VDW ( 1  4 27 13 2)
     Any further DFT definition will be discarded
     Please, verify this is what you really want

     Subspace diagonalization in iterative solution of the eigenvalue problem:
     a serial algorithm will be used

     Found symmetry operation: I + ( -0.5000  0.0000  0.0000)
     This is a supercell, fractional translations are disabled

     bravais-lattice index     =            0
     lattice parameter (alat)  =       1.8897  a.u.
     unit-cell volume          =    4704.3541 (a.u.)^3
     number of atoms/cell      =           12
     number of atomic types    =            1
     number of electrons       =       168.00
     number of Kohn-Sham states=           94
     kinetic-energy cutoff     =      36.7493  Ry
     charge density cutoff     =     367.4932  Ry
     convergence threshold     =      1.0E-05
     mixing beta               =       0.3000
     number of iterations used =           10  plain     mixing
     Exchange-correlation      = BEEF-VDW ( 1  4 27 13 2)
     nstep                     =           50

     celldm(1)=   1.889726  celldm(2)=   0.000000  celldm(3)=   0.000000
     celldm(4)=   0.000000  celldm(5)=   0.000000  celldm(6)=   0.000000

     crystal axes: (cart. coord. in units of alat)
               a(1) = (   5.712816   0.000000   0.000000 )
               a(2) = (   2.856408   4.947444   0.000000 )
               a(3) = (   0.000000   0.000000  24.664495 )

     reciprocal axes: (cart. coord. in units 2 pi/alat)
               b(1) = (  0.175045 -0.101062  0.000000 )
               b(2) = (  0.000000  0.202125  0.000000 )
               b(3) = (  0.000000  0.000000  0.040544 )

     PseudoPot. # 1 for W  read from file:
     /u/if/mamunm/psp/gbrv1.5pbe/W.UPF
     MD5 check sum: 9c083fa34c2a2ea0f02f1f893e16e1c8
     Pseudo is Ultrasoft + core correction, Zval = 14.0
     Generated by new atomic code, or converted to UPF format
     Using radial grid of  923 points,  8 beta functions with:
                l(1) =   0
                l(2) =   0
                l(3) =   0
                l(4) =   1
                l(5) =   1
                l(6) =   2
                l(7) =   2
                l(8) =   3
     Q(r) pseudized with  6 coefficients,  rinner =    1.350   1.350   1.350
                                                       1.350   1.350   1.350
                                                       1.350

     vdW kernel table read from file vdW_kernel_table
     MD5 check sum: 095c7af220d748ca6e76c0b4c6cfb241

     atomic species   valence    mass     pseudopotential
        W1            14.00   183.84000     W ( 1.00)

     No symmetry found

   Cartesian axes

     site n.     atom                  positions (alat units)
         1           W1  tau(   1) = (   1.4282041   0.8245740  10.0000000  )
         2           W1  tau(   2) = (   4.2846123   0.8245740  10.0000000  )
         3           W1  tau(   3) = (   2.8564082   3.2982961  10.0000000  )
         4           W1  tau(   4) = (   5.7128165   3.2982961  10.0000000  )
         5           W1  tau(   5) = (   5.7128165   1.6491481  12.3322476  )
         6           W1  tau(   6) = (   2.8564082   1.6491481  12.3322476  )
         7           W1  tau(   7) = (   7.1410206   4.1228701  12.3322476  )
         8           W1  tau(   8) = (   4.2846123   4.1228701  12.3322476  )
         9           W1  tau(   9) = (   0.0000000   0.0000000  14.6644951  )
        10           W1  tau(  10) = (   2.8564082   0.0000000  14.6644951  )
        11           W1  tau(  11) = (   1.4282041   2.4737221  14.6644951  )
        12           W1  tau(  12) = (   4.2846123   2.4737221  14.6644951  )

     number of k points=    20  Fermi-Dirac smearing, width (Ry)=  0.0110
                       cart. coord. in units 2pi/alat
        k(    1) = (   0.0000000   0.0000000   0.0000000), wk =   0.0555556
        k(    2) = (   0.0000000   0.0336874   0.0000000), wk =   0.1111111
        k(    3) = (   0.0000000   0.0673749   0.0000000), wk =   0.1111111
        k(    4) = (   0.0000000  -0.1010623   0.0000000), wk =   0.0555556
        k(    5) = (   0.0291742  -0.0168437   0.0000000), wk =   0.1111111
        k(    6) = (   0.0291742   0.0168437   0.0000000), wk =   0.1111111
        k(    7) = (   0.0291742   0.0505311   0.0000000), wk =   0.1111111
        k(    8) = (   0.0291742  -0.1179060   0.0000000), wk =   0.1111111
        k(    9) = (   0.0291742  -0.0842186   0.0000000), wk =   0.1111111
        k(   10) = (   0.0291742  -0.0505311   0.0000000), wk =   0.1111111
        k(   11) = (   0.0583483  -0.0336874   0.0000000), wk =   0.1111111
        k(   12) = (   0.0583483  -0.0000000   0.0000000), wk =   0.1111111
        k(   13) = (   0.0583483   0.0336874   0.0000000), wk =   0.1111111
        k(   14) = (   0.0583483  -0.1347497   0.0000000), wk =   0.1111111
        k(   15) = (   0.0583483  -0.1010623   0.0000000), wk =   0.1111111
        k(   16) = (   0.0583483  -0.0673749   0.0000000), wk =   0.1111111
        k(   17) = (  -0.0875225   0.0505311   0.0000000), wk =   0.0555556
        k(   18) = (  -0.0875225   0.0842186   0.0000000), wk =   0.1111111
        k(   19) = (  -0.0875225   0.1179060   0.0000000), wk =   0.1111111
        k(   20) = (  -0.0875225  -0.0505311   0.0000000), wk =   0.0555556

     Largest allocated arrays     est. size (Mb)     dimensions
     Largest temporary arrays     est. size (Mb)     dimensions

     Initial potential from superposition of free atoms
     Check: negative starting charge=   -0.760568

     starting charge  166.79592, renormalised to  168.00000

     negative rho (up, down):  7.661E-01 0.000E+00

     *
     * You are using vdW-DF for exchange-correlation in this calculation.
     * Please cite the following three references that made this development
     * possible:
     *
     *   M. Dion, H. Rydberg, E. Schroder, D. C. Langreth, and
     *   B. I. Lundqvist, Phys. Rev. Lett. 92, 246401 (2004).
     *
     *   T. Thonhauser, V. R. Cooper, S. Li, A. Puzder, P. Hyldgaard, and
     *   D. C. Langreth, Phys. Rev. B 76, 125112 (2007).
     *
     *   G. Roman-Perez and J. M. Soler, Phys. Rev. Lett. 103, 096102 (2009).
     *
     *
     * If you are using vdW-DF2, please also cite:
     *
     *   K. Lee, E. D. Murray, L. Kong, B. I. Lundqvist, and
     *   D. C. Langreth, Phys. Rev. B 82, 081101(R) (2010).
     *
     *
     * If you are calculating the stress with vdW-DF, please also cite:
     *
     *   R. Sabatini, E. Kucukbenli, B. Kolb, T. Thonhauser, and
     *   S. de Gironcoli, J. Phys.: Condens. Matter 24, 424209 (2012).
     *

     Carrying out vdW-DF run using the following parameters:

     Nqs =      20    Nr_points =    1024   r_max =   100.000
     q_mesh =
               0.00001000     0.04494208     0.09755937     0.15916263
               0.23128650     0.31572767     0.41458969     0.53033537
               0.66584808     0.82450364     1.01025438     1.22772762
               1.48234092     1.78043706     2.12944203     2.53805004
               3.01644009     3.57652955     4.23227104     5.00000000

     Gradients computed in reciprocal space

     Adding external electric field

     Computed dipole along edir(3) :
        Dipole                0.0000 Ry au,          0.0000 Debye
        Dipole field          0.0000 Ry au

        Potential amp.       -0.0000 Ry
        Total length         45.4439 bohr

     Starting wfc are  156 randomized atomic wfcs

     Self-consistent Calculation

     iteration #  1     ecut=    36.75 Ry     beta=0.30
     Davidson diagonalization with overlap
     ethr =  1.00E-02,  avg # of iterations =  2.0

[...]

     total energy              =   -1923.65374662 Ry
     Harris-Foulkes estimate   =   -1925.02104623 Ry
     estimated scf accuracy    <       3.03624750 Ry

[...]

     End of self-consistent calculation

          k = 0.0000 0.0000 0.0000 ( 17753 PWs)   bands (ev):

   -71.8707 -71.8029 -71.7886 -71.7878 -71.7873 -71.7843 -71.7376 -71.7370
   -71.7362 -71.7349 -71.7343 -71.7336 -36.4422 -36.4419 -36.4416 -36.3742
   -36.3082 -36.3079 -36.3076 -36.2122 -36.2119 -36.2116 -36.0124 -35.8934
   -35.8929 -35.8922 -35.8722 -35.8720 -35.8719 -35.7609 -35.7607 -35.7604
   -35.6764 -35.6762 -35.6761 -35.6044 -35.5883 -35.5879 -35.5876 -35.5422
   -35.5420 -35.5418 -35.5349 -35.5348 -35.3913 -35.3913 -35.3721 -35.3721
    -5.8210  -4.0290  -3.2066  -2.6557  -2.6556  -2.6556  -2.4200  -2.4200
    -2.4199  -1.6208  -1.6208  -1.6207  -1.6108  -1.6107  -1.6106  -0.1361
    -0.1359  -0.1357   0.9580   1.0377   1.0377   1.0377   1.3616   1.7817
     1.7817   1.8874   1.8877   1.8880   1.9335   2.1529   2.1529   2.1997
     2.1997   2.1998   2.4108   2.4108   2.8862   3.1652   3.1654   3.1656
     4.0465   4.0467   4.0469   4.2391   4.2392   4.2393

[...]

          k =-0.0875 0.0505 0.0000 ( 17668 PWs)   bands (ev):

[...]

     the Fermi energy is     2.3708 ev

!    total energy              =   -1924.69576657 Ry
     Harris-Foulkes estimate   =   -1924.70205172 Ry
     estimated scf accuracy    <       0.00000163 Ry

     The total energy is the sum of the following terms:

     one-electron contribution =  -14596.65449005 Ry
     hartree contribution      =    7281.03382802 Ry
     xc contribution           =    -510.19542893 Ry
     ewald contribution        =    5901.21773394 Ry
     electric field correction =       0.00000000 Ry
     smearing contrib. (-TS)   =      -0.09740956 Ry

     convergence has been achieved in  13 iterations

 BEEF-vdW xc energy contributions
           1 :   -448.827097433457
           2 :    415.351816887642
           3 :   -356.323091122538
           4 :    284.632877971661
           5 :   -213.782936807906
           6 :    153.922439969686
           7 :   -109.640573075650
           8 :    80.0597420797754
           9 :   -60.7966075152352
          10 :    46.6743893629268
          11 :   -33.9581041680019
          12 :    21.3246812062888
          13 :   -9.49085513766670
          14 :   1.875757063987749E-002
          15 :    5.94680506271891
          16 :   -8.40593502641934
          17 :    8.47227329027118
          18 :   -7.75477527517717
          19 :    7.56303990086815
          20 :   -8.36158644269995
          21 :    9.72225509594750
          22 :   -10.7450570114943
          23 :    10.6751873771335
          24 :   -9.36714715940832
          25 :    7.36158643329526
          26 :   -5.56627181008912
          27 :    4.74473543619706
          28 :   -5.10646375326701
          29 :    6.21874435828533
          30 :   -7.27224342571924
          31 :   -40.5509845079101
          32 :   -30.3800633921359

     Forces acting on atoms (Ry/au):

     negative rho (up, down):  7.918E-01 0.000E+00
     atom    1 type  1   force =     0.00001259   -0.00006162   -0.00299516
     atom    2 type  1   force =    -0.00001626    0.00003452   -0.00302010
     atom    3 type  1   force =     0.00008488    0.00000951   -0.00304824
     atom    4 type  1   force =    -0.00008485    0.00002341   -0.00307858
     atom    5 type  1   force =    -0.00004817   -0.00009632   -0.00002609
     atom    6 type  1   force =     0.00004725   -0.00006053   -0.00006930
     atom    7 type  1   force =     0.00003325    0.00010464    0.00000916
     atom    8 type  1   force =    -0.00003376    0.00005056    0.00005862
     atom    9 type  1   force =     0.00006572   -0.00000760    0.00300184
     atom   10 type  1   force =    -0.00006296    0.00000828    0.00303596
     atom   11 type  1   force =     0.00002178   -0.00003807    0.00310071
     atom   12 type  1   force =    -0.00001950    0.00003323    0.00303118

     Total force =     0.006086     Total SCF correction =     0.001471
     SCF correction compared to forces is large: reduce conv_thr to get better values

     entering subroutine stress ...

     negative rho (up, down):  7.918E-01 0.000E+00
          total   stress  (Ry/bohr**3)                   (kbar)     P=  -49.63
  -0.00047593  -0.00000000   0.00000000        -70.01     -0.00      0.00
  -0.00000000  -0.00047594   0.00000000         -0.00    -70.01      0.00
   0.00000000   0.00000000  -0.00006020          0.00      0.00     -8.86

     BFGS Geometry Optimization

     number of scf cycles    =   1
     number of bfgs steps    =   0

     energy   new            =   -1924.6957665725 Ry

     new trust radius        =       0.0031010179 bohr
     new conv_thr            =       0.0000099958 Ry

ATOMIC_POSITIONS (crystal)
W1       0.166666667   0.166666667   0.405441099    0   0   0
W1       0.666666667   0.166666667   0.405441099    0   0   0
W1       0.166666667   0.666666667   0.405441099    0   0   0
W1       0.666666667   0.666666667   0.405441099    0   0   0
W1       0.833333333   0.333333333   0.500000000    0   0   0
W1       0.333333333   0.333333333   0.500000000    0   0   0
W1       0.833333333   0.833333333   0.500000000    0   0   0
W1       0.333333333   0.833333333   0.500000000    0   0   0
W1       0.000006494  -0.000000813   0.594623306
W1       0.499993725   0.000000885   0.594624038
W1       0.000004054   0.499995928   0.594625427
W1       0.499996417   0.500003554   0.594623935

     Writing output data file calc.save
     Check: negative starting charge=   -0.760568
     NEW-OLD atomic charge density approx. for the potential
     Check: negative starting charge=   -0.760391

[...]

     energy   old            =   -1924.6957665725 Ry
     energy   new            =   -1924.7021165898 Ry

     CASE: energy  _new < energy  _old

     WARNING: bfgs curvature condition failed, Theta= 0.874
     new trust radius        =       0.0046515268 bohr
     new conv_thr            =       0.0000001000 Ry

[...]

     number of scf cycles    =   3
     number of bfgs steps    =   2

     energy   old            =   -1924.7021165898 Ry
     energy   new            =   -1924.7021654884 Ry

     CASE: energy  _new < energy  _old

     new trust radius        =       0.0069772902 bohr
     new conv_thr            =       0.0000001000 Ry

ATOMIC_POSITIONS (crystal)
W1       0.166666667   0.166666667   0.405441099    0   0   0
W1       0.666666667   0.166666667   0.405441099    0   0   0
W1       0.166666667   0.666666667   0.405441099    0   0   0
W1       0.666666667   0.666666667   0.405441099    0   0   0
W1       0.833333333   0.333333333   0.500000000    0   0   0
W1       0.333333333   0.333333333   0.500000000    0   0   0
W1       0.833333333   0.833333333   0.500000000    0   0   0
W1       0.333333333   0.833333333   0.500000000    0   0   0
W1       0.000008314  -0.000001193   0.594872519
W1       0.499992376   0.000000507   0.594873423
W1       0.000002973   0.499997782   0.594873611
W1       0.499997116   0.500003624   0.594872535

     Writing output data file calc.save
     Check: negative starting charge=   -0.760456
     NEW-OLD atomic charge density approx. for the potential
     Check: negative starting charge=   -0.760770

[...]

     Self-consistent Calculation

[...]

     total energy              =   -1924.70220448 Ry
     Harris-Foulkes estimate   =   -1924.70220447 Ry
     estimated scf accuracy    <       0.00000024 Ry

     iteration #  8     ecut=    36.75 Ry     beta=0.30
     Davidson diagonalization with overlap
     ethr =  1.44E-10,  avg # of iterations =  2.5

[...]

     negative rho (up, down):  7.924E-01 0.000E+00

     Adding external electric field

     Computed dipole along edir(3) :
        Dipole               -0.0023 Ry au,         -0.0058 Debye
        Dipole field         -0.0000 Ry au

        Potential amp.        0.0006 Ry
        Total length         45.4439 bohr

     End of self-consistent calculation

[...]

          k = 0.0583-0.0674 0.0000 ( 17692 PWs)   bands (ev):

[...]

          k =-0.0875-0.0505 0.0000 ( 17668 PWs)   bands (ev):

   -71.8388 -71.8387 -71.7967 -71.7967 -71.7786 -71.7785 -71.7649 -71.7648
   -71.7473 -71.7472 -71.7386 -71.7385 -36.2937 -36.2936 -36.2518 -36.2517
   -36.1948 -36.1948 -36.1054 -36.1054 -36.0643 -36.0643 -36.0430 -36.0430
   -35.8717 -35.8717 -35.8255 -35.8255 -35.8242 -35.8241 -35.8082 -35.8082
   -35.7921 -35.7921 -35.7708 -35.7707 -35.7385 -35.7385 -35.6561 -35.6561
   -35.6258 -35.6258 -35.5955 -35.5954 -35.4967 -35.4967 -35.4633 -35.4632
    -3.8851  -3.8850  -2.3611  -2.3611  -1.6532  -1.6532  -1.4822  -1.4822
    -1.4749  -1.4749  -0.6265  -0.6265  -0.3301  -0.3300  -0.2253  -0.2253
     0.1476   0.1476   0.2502   0.2502   0.5302   0.5303   0.9762   0.9762
     1.1715   1.1716   1.3087   1.3087   1.3866   1.3867   1.4044   1.4045
     1.8582   1.8582   1.9638   1.9639   1.9858   1.9859   2.7364   2.7365
     3.1599   3.1599   3.5407   3.5407   3.5516   3.5516

     the Fermi energy is     2.3682 ev

!    total energy              =   -1924.70220454 Ry
     Harris-Foulkes estimate   =   -1924.70220450 Ry
     estimated scf accuracy    <       0.00000004 Ry

     The total energy is the sum of the following terms:

     one-electron contribution =  -14580.31038054 Ry
     hartree contribution      =    7272.81002684 Ry
     xc contribution           =    -510.18095075 Ry
     ewald contribution        =    5893.07618430 Ry
     electric field correction =       0.00000001 Ry
     smearing contrib. (-TS)   =      -0.09708440 Ry

     convergence has been achieved in   8 iterations

 BEEF-vdW xc energy contributions
           1 :   -448.994260671617
           2 :    415.513104590281
           3 :   -356.476941423989
           4 :    284.783809291867
           5 :   -213.939542274558
           6 :    154.092555717630
           7 :   -109.826388384061
           8 :    80.2558939375717
           9 :   -60.9926107628713
          10 :    46.8602096383734
          11 :   -34.1297255042954
          12 :    21.4863933803651
          13 :   -9.65281872762898
          14 :   0.191221843380276
          15 :    5.75927256765624
          16 :   -8.20685657696475
          17 :    8.27100091005207
          18 :   -7.56097517636641
          19 :    7.38123017063253
          20 :   -8.18884964878225
          21 :    9.55023707658722
          22 :   -10.5649263616669
          23 :    10.4826380328764
          24 :   -9.16468184224431
          25 :    7.15695090695260
          26 :   -5.36804619348800
          27 :    4.55759487684259
          28 :   -4.92869991479637
          29 :    6.04335264354779
          30 :   -7.09089616648316
          31 :   -40.5614298677069
          32 :   -30.3893239831656

     Forces acting on atoms (Ry/au):

     negative rho (up, down):  7.924E-01 0.000E+00
     atom    1 type  1   force =     0.00000285   -0.00001156   -0.00348014
     atom    2 type  1   force =    -0.00000294   -0.00000176   -0.00348081
     atom    3 type  1   force =     0.00000797    0.00000475   -0.00347914
     atom    4 type  1   force =    -0.00000850    0.00000846   -0.00347795
     atom    5 type  1   force =     0.00000256   -0.00000045    0.00267670
     atom    6 type  1   force =    -0.00000246   -0.00000058    0.00267594
     atom    7 type  1   force =     0.00000048   -0.00000072    0.00268531
     atom    8 type  1   force =     0.00000021    0.00000134    0.00265210
     atom    9 type  1   force =    -0.00001223   -0.00000350    0.00080915
     atom   10 type  1   force =     0.00001249   -0.00000384    0.00080244
     atom   11 type  1   force =    -0.00000078    0.00001082    0.00080654
     atom   12 type  1   force =     0.00000036   -0.00000294    0.00080984

     Total force =     0.001614     Total SCF correction =     0.000643
     SCF correction compared to forces is large: reduce conv_thr to get better values

     entering subroutine stress ...

     negative rho (up, down):  7.924E-01 0.000E+00
          total   stress  (Ry/bohr**3)                   (kbar)     P=  -50.29
  -0.00047986   0.00000000   0.00000000        -70.59      0.00      0.00
   0.00000000  -0.00047986  -0.00000000          0.00    -70.59     -0.00
   0.00000000  -0.00000000  -0.00006578          0.00     -0.00     -9.68

     bfgs converged in   4 scf cycles and   3 bfgs steps
     (criteria: energy <  1.0E+00, force <  1.9E-03)

     End of BFGS Geometry Optimization

     Final energy   =   -1924.7022045432 Ry
Begin final coordinates

ATOMIC_POSITIONS (crystal)
W1       0.166666667   0.166666667   0.405441099    0   0   0
W1       0.666666667   0.166666667   0.405441099    0   0   0
W1       0.166666667   0.666666667   0.405441099    0   0   0
W1       0.666666667   0.666666667   0.405441099    0   0   0
W1       0.833333333   0.333333333   0.500000000    0   0   0
W1       0.333333333   0.333333333   0.500000000    0   0   0
W1       0.833333333   0.833333333   0.500000000    0   0   0
W1       0.333333333   0.833333333   0.500000000    0   0   0
W1       0.000008314  -0.000001193   0.594872519
W1       0.499992376   0.000000507   0.594873423
W1       0.000002973   0.499997782   0.594873611
W1       0.499997116   0.500003624   0.594872535
End final coordinates

     Writing output data file calc.save

     General routines

     Parallel routines

   This run was terminated on:  16:10:25  30Apr2018

   JOB DONE.
Job  /afs/slac/g/suncat/bin/suncat-tsmpirun -x LD_LIBRARY_PATH -wdir /scratch/qe495002_D1wsf pw.x -npool 4 -in pw.inp

TID   HOST_NAME   COMMAND_LINE            STATUS            TERMINATION_TIME
00000 suncat0030 pw.x -npool 4 -i  Done                     04/30/2018 16:10:25
00001 suncat0030 pw.x -npool 4 -i  Done                     04/30/2018 16:10:25
00002 suncat0030 pw.x -npool 4 -i  Done                     04/30/2018 16:10:25
00003 suncat0030 pw.x -npool 4 -i  Done                     04/30/2018 16:10:25
00004 suncat0030 pw.x -npool 4 -i  Done                     04/30/2018 16:10:25
00005 suncat0030 pw.x -npool 4 -i  Done                     04/30/2018 16:10:25
00006 suncat0030 pw.x -npool 4 -i  Done                     04/30/2018 16:10:25
00007 suncat0030 pw.x -npool 4 -i  Done                     04/30/2018 16:10:25
00008 suncat0017 pw.x -npool 4 -i  Done                     04/30/2018 16:10:25
00009 suncat0017 pw.x -npool 4 -i  Done                     04/30/2018 16:10:25
00010 suncat0017 pw.x -npool 4 -i  Done                     04/30/2018 16:10:25
00011 suncat0017 pw.x -npool 4 -i  Done                     04/30/2018 16:10:25
00012 suncat0017 pw.x -npool 4 -i  Done                     04/30/2018 16:10:25
00013 suncat0017 pw.x -npool 4 -i  Done                     04/30/2018 16:10:25
00014 suncat0017 pw.x -npool 4 -i  Done                     04/30/2018 16:10:25
00015 suncat0017 pw.x -npool 4 -i  Done                     04/30/2018 16:10:25
00016 suncat0012 pw.x -npool 4 -i  Done                     04/30/2018 16:10:25
00017 suncat0012 pw.x -npool 4 -i  Done                     04/30/2018 16:10:25
00018 suncat0012 pw.x -npool 4 -i  Done                     04/30/2018 16:10:25
00019 suncat0012 pw.x -npool 4 -i  Done                     04/30/2018 16:10:25
00020 suncat0012 pw.x -npool 4 -i  Done                     04/30/2018 16:10:25
00021 suncat0012 pw.x -npool 4 -i  Done                     04/30/2018 16:10:25
00022 suncat0012 pw.x -npool 4 -i  Done                     04/30/2018 16:10:25
00023 suncat0012 pw.x -npool 4 -i  Done                     04/30/2018 16:10:25
00024 suncat0170 pw.x -npool 4 -i  Done                     04/30/2018 16:10:25
00025 suncat0170 pw.x -npool 4 -i  Done                     04/30/2018 16:10:25
00026 suncat0170 pw.x -npool 4 -i  Done                     04/30/2018 16:10:25
00027 suncat0170 pw.x -npool 4 -i  Done                     04/30/2018 16:10:25
00028 suncat0170 pw.x -npool 4 -i  Done                     04/30/2018 16:10:25
00029 suncat0170 pw.x -npool 4 -i  Done                     04/30/2018 16:10:25
00030 suncat0170 pw.x -npool 4 -i  Done                     04/30/2018 16:10:25
00031 suncat0170 pw.x -npool 4 -i  Done                     04/30/2018 16:10:25