     Program PWSCF v.5.1rc2 (svn rev. 11289) starts on 30Apr2018 at 15: 6:17

     Current dimensions of program PWSCF are:
     Max number of different atomic species (ntypx) = 10
     Max number of k-points (npk) =  40000
     Max angular momentum in pseudopotentials (lmaxx) =  3
     Presently stress not available with electric field

     IMPORTANT: XC functional enforced from input :
     Exchange-correlation      = BEEF-VDW ( 1  4 27 13 2)
     Any further DFT definition will be discarded
     Please, verify this is what you really want

     Subspace diagonalization in iterative solution of the eigenvalue problem:
     a serial algorithm will be used

     Found symmetry operation: I + (  0.5000  0.0000  0.0000)
     This is a supercell, fractional translations are disabled

     bravais-lattice index     =            0
     lattice parameter (alat)  =       1.8897  a.u.
     unit-cell volume          =    3724.3394 (a.u.)^3
     number of atoms/cell      =           12
     number of atomic types    =            1
     number of electrons       =       168.00
     number of Kohn-Sham states=           94
     kinetic-energy cutoff     =      36.7493  Ry
     charge density cutoff     =     367.4932  Ry
     convergence threshold     =      1.0E-05
     mixing beta               =       0.3000
     number of iterations used =           10  plain     mixing
     Exchange-correlation      = BEEF-VDW ( 1  4 27 13 2)
     nstep                     =           50

     celldm(1)=   1.889726  celldm(2)=   0.000000  celldm(3)=   0.000000
     celldm(4)=   0.000000  celldm(5)=   0.000000  celldm(6)=   0.000000

     crystal axes: (cart. coord. in units of alat)
               a(1) = (   5.132588   0.000000   0.000000 )
               a(2) = (   2.566294   4.444952   0.000000 )
               a(3) = (   0.000000   0.000000  24.190741 )

     reciprocal axes: (cart. coord. in units 2 pi/alat)
               b(1) = (  0.194833 -0.112487  0.000000 )
               b(2) = (  0.000000  0.224974  0.000000 )
               b(3) = (  0.000000  0.000000  0.041338 )

     PseudoPot. # 1 for Cr read from file:
     /u/if/mamunm/psp/gbrv1.5pbe/Cr.UPF
     MD5 check sum: 0d52af634a40206e4dee301ad30da4bf
     Pseudo is Ultrasoft + core correction, Zval = 14.0
     Generated by new atomic code, or converted to UPF format
     Using radial grid of  857 points,  6 beta functions with:
                l(1) =   0
                l(2) =   0
                l(3) =   1
                l(4) =   1
                l(5) =   2
                l(6) =   2
     Q(r) pseudized with  8 coefficients,  rinner =    0.950   0.950   0.950
                                                       0.950   0.950

     vdW kernel table read from file vdW_kernel_table
     MD5 check sum: 095c7af220d748ca6e76c0b4c6cfb241

     atomic species   valence    mass     pseudopotential
        Cr1           14.00    51.99610     Cr( 1.00)

     No symmetry found

   Cartesian axes

     site n.     atom                  positions (alat units)
         1           Cr1 tau(   1) = (   1.2831471   0.7408253  10.0000000  )
         2           Cr1 tau(   2) = (   3.8494412   0.7408253  10.0000000  )
         3           Cr1 tau(   3) = (   2.5662941   2.9633012  10.0000000  )
         4           Cr1 tau(   4) = (   5.1325882   2.9633012  10.0000000  )
         5           Cr1 tau(   5) = (   5.1325882   1.4816506  12.0953704  )
         6           Cr1 tau(   6) = (   2.5662941   1.4816506  12.0953704  )
         7           Cr1 tau(   7) = (   6.4157353   3.7041265  12.0953704  )
         8           Cr1 tau(   8) = (   3.8494412   3.7041265  12.0953704  )
         9           Cr1 tau(   9) = (   0.0000000   0.0000000  14.1907408  )
        10           Cr1 tau(  10) = (   2.5662941   0.0000000  14.1907408  )
        11           Cr1 tau(  11) = (   1.2831471   2.2224759  14.1907408  )
        12           Cr1 tau(  12) = (   3.8494412   2.2224759  14.1907408  )

     number of k points=    20  Fermi-Dirac smearing, width (Ry)=  0.0110
                       cart. coord. in units 2pi/alat
        k(    1) = (   0.0000000   0.0000000   0.0000000), wk =   0.0555556
        k(    2) = (   0.0000000   0.0374957   0.0000000), wk =   0.1111111
        k(    3) = (   0.0000000   0.0749914   0.0000000), wk =   0.1111111
        k(    4) = (   0.0000000  -0.1124872   0.0000000), wk =   0.0555556
        k(    5) = (   0.0324722  -0.0187479   0.0000000), wk =   0.1111111
        k(    6) = (   0.0324722   0.0187479   0.0000000), wk =   0.1111111
        k(    7) = (   0.0324722   0.0562436   0.0000000), wk =   0.1111111
        k(    8) = (   0.0324722  -0.1312350   0.0000000), wk =   0.1111111
        k(    9) = (   0.0324722  -0.0937393   0.0000000), wk =   0.1111111
        k(   10) = (   0.0324722  -0.0562436   0.0000000), wk =   0.1111111
        k(   11) = (   0.0649445  -0.0374957   0.0000000), wk =   0.1111111
        k(   12) = (   0.0649445   0.0000000   0.0000000), wk =   0.1111111
        k(   13) = (   0.0649445   0.0374957   0.0000000), wk =   0.1111111
        k(   14) = (   0.0649445  -0.1499829   0.0000000), wk =   0.1111111
        k(   15) = (   0.0649445  -0.1124872   0.0000000), wk =   0.1111111
        k(   16) = (   0.0649445  -0.0749914   0.0000000), wk =   0.1111111
        k(   17) = (  -0.0974167   0.0562436   0.0000000), wk =   0.0555556
        k(   18) = (  -0.0974167   0.0937393   0.0000000), wk =   0.1111111
        k(   19) = (  -0.0974167   0.1312350   0.0000000), wk =   0.1111111
        k(   20) = (  -0.0974167  -0.0562436   0.0000000), wk =   0.0555556

     Largest allocated arrays     est. size (Mb)     dimensions
     Largest temporary arrays     est. size (Mb)     dimensions

     Check: negative/imaginary core charge=   -0.000004    0.000000

     Initial potential from superposition of free atoms
     Check: negative starting charge=   -0.015096

     starting charge  155.99982, renormalised to  168.00000

     negative rho (up, down):  1.626E-02 0.000E+00

     *
     * You are using vdW-DF for exchange-correlation in this calculation.
     * Please cite the following three references that made this development
     * possible:
     *
     *   M. Dion, H. Rydberg, E. Schroder, D. C. Langreth, and
     *   B. I. Lundqvist, Phys. Rev. Lett. 92, 246401 (2004).
     *
     *   T. Thonhauser, V. R. Cooper, S. Li, A. Puzder, P. Hyldgaard, and
     *   D. C. Langreth, Phys. Rev. B 76, 125112 (2007).
     *
     *   G. Roman-Perez and J. M. Soler, Phys. Rev. Lett. 103, 096102 (2009).
     *
     *
     * If you are using vdW-DF2, please also cite:
     *
     *   K. Lee, E. D. Murray, L. Kong, B. I. Lundqvist, and
     *   D. C. Langreth, Phys. Rev. B 82, 081101(R) (2010).
     *
     *
     * If you are calculating the stress with vdW-DF, please also cite:
     *
     *   R. Sabatini, E. Kucukbenli, B. Kolb, T. Thonhauser, and
     *   S. de Gironcoli, J. Phys.: Condens. Matter 24, 424209 (2012).
     *

     Carrying out vdW-DF run using the following parameters:

     Nqs =      20    Nr_points =    1024   r_max =   100.000
     q_mesh =
               0.00001000     0.04494208     0.09755937     0.15916263
               0.23128650     0.31572767     0.41458969     0.53033537
               0.66584808     0.82450364     1.01025438     1.22772762
               1.48234092     1.78043706     2.12944203     2.53805004
               3.01644009     3.57652955     4.23227104     5.00000000

     Gradients computed in reciprocal space

     Adding external electric field

     Computed dipole along edir(3) :
        Dipole                0.0000 Ry au,          0.0000 Debye
        Dipole field          0.0000 Ry au

        Potential amp.       -0.0000 Ry
        Total length         44.5710 bohr

     Starting wfc are  120 randomized atomic wfcs

     Self-consistent Calculation

     iteration #  1     ecut=    36.75 Ry     beta=0.30
     Davidson diagonalization with overlap
     ethr =  1.00E-02,  avg # of iterations =  5.6

[...]

     total energy              =   -2108.64017443 Ry
     Harris-Foulkes estimate   =   -2122.35135682 Ry
     estimated scf accuracy    <      30.89290031 Ry

[...]

     total energy              =   -2114.84912640 Ry
     Harris-Foulkes estimate   =   -2114.84912720 Ry
     estimated scf accuracy    <       0.00001951 Ry

     iteration # 30     ecut=    36.75 Ry     beta=0.30
     Davidson diagonalization with overlap
     ethr =  1.16E-08,  avg # of iterations =  4.4

[...]

     negative rho (up, down):  1.456E-02 0.000E+00

     Adding external electric field

     Computed dipole along edir(3) :
        Dipole               -0.0039 Ry au,         -0.0100 Debye
        Dipole field         -0.0000 Ry au

        Potential amp.        0.0012 Ry
        Total length         44.5710 bohr

     End of self-consistent calculation

          k = 0.0000 0.0000 0.0000 ( 14081 PWs)   bands (ev):

   -70.6497 -70.5183 -70.5180 -70.5175 -70.5033 -70.4791 -70.3932 -70.3929
   -70.3923 -70.3901 -70.3898 -70.3893 -42.2429 -42.2427 -42.2426 -42.1759
   -42.1118 -42.1116 -42.1115 -42.0244 -42.0242 -42.0240 -41.8687 -41.7883
   -41.7881 -41.7879 -41.7763 -41.7759 -41.7754 -41.7314 -41.7312 -41.7310
   -41.6519 -41.6516 -41.6513 -41.6003 -41.5733 -41.5732 -41.5523 -41.5520
   -41.5519 -41.5290 -41.5287 -41.5286 -41.4087 -41.4087 -41.4002 -41.4001
    -5.6198  -3.8864  -2.8431  -2.5640  -2.5640  -2.5639  -2.2502  -2.2502
    -2.2502  -1.8012  -1.8012  -1.8012  -1.6968  -1.6966  -1.6966  -0.8161
    -0.8159  -0.8159   0.0747   0.1648   0.1648   0.1648   0.3765   0.6583
     0.6583   0.7471   0.8763   0.8763   0.9239   0.9240   0.9242   0.9249
     0.9250   0.9253   1.0443   1.0443   1.6759   1.7119   1.7119   1.7121
     2.0216   2.0218   2.0220   2.2903   2.2903   2.5762

[...]

          k = 0.0649-0.0750 0.0000 ( 13990 PWs)   bands (ev):

[...]

          k =-0.0974 0.0562 0.0000 ( 14010 PWs)   bands (ev):

[...]

          k =-0.0974-0.0562 0.0000 ( 14010 PWs)   bands (ev):

   -70.5851 -70.5847 -70.5183 -70.5180 -70.4485 -70.4481 -70.4341 -70.4338
   -70.3929 -70.3927 -70.3898 -70.3896 -42.1244 -42.1241 -42.0787 -42.0784
   -42.0275 -42.0272 -41.9675 -41.9673 -41.9168 -41.9167 -41.9067 -41.9066
   -41.7664 -41.7663 -41.7416 -41.7414 -41.7278 -41.7276 -41.7261 -41.7258
   -41.7143 -41.7142 -41.7019 -41.7019 -41.6623 -41.6622 -41.6531 -41.6528
   -41.6004 -41.6003 -41.5811 -41.5809 -41.4809 -41.4806 -41.4646 -41.4644
    -3.7687  -3.7686  -2.4010  -2.4009  -1.7784  -1.7783  -1.7539  -1.7537
    -1.5372  -1.5370  -1.0769  -1.0767  -0.8879  -0.8877  -0.8068  -0.8067
    -0.4209  -0.4208  -0.3122  -0.3121  -0.2788  -0.2786   0.0648   0.0648
     0.2823   0.2823   0.3476   0.3476   0.4249   0.4250   0.5194   0.5195
     0.7191   0.7191   0.7998   0.7999   0.8442   0.8443   1.2460   1.2462
     1.6048   1.6049   1.7554   1.7556   1.7782   1.7783

     the Fermi energy is     1.0819 ev

!    total energy              =   -2114.84786651 Ry
     Harris-Foulkes estimate   =   -2114.84912764 Ry
     estimated scf accuracy    <       0.00000397 Ry

     The total energy is the sum of the following terms:

     one-electron contribution =  -19391.52082574 Ry
     hartree contribution      =    9686.16380946 Ry
     xc contribution           =    -279.03387720 Ry
     ewald contribution        =    7869.67940006 Ry
     electric field correction =       0.00000005 Ry
     smearing contrib. (-TS)   =      -0.13637313 Ry

     convergence has been achieved in  30 iterations

 BEEF-vdW xc energy contributions
           1 :   -241.603244445367
           2 :    217.562440523431
           3 :   -177.396390595931
           4 :    133.205090451475
           5 :   -96.0229471704009
           6 :    71.7433010440627
           7 :   -59.9927641281226
           8 :    55.9994648064720
           9 :   -54.0037258939161
          10 :    50.2342275129755
          11 :   -44.0875269143177
          12 :    37.3464495130294
          13 :   -32.3263654114716
          14 :    30.1982671389577
          15 :   -30.3812476009128
          16 :    31.1329201209077
          17 :   -30.7750878066378
          18 :    28.7132730774046
          19 :   -25.6519088818672
          20 :    22.9654767047409
          21 :   -21.7145639684084
          22 :    21.9696096492530
          23 :   -22.8495205602645
          24 :    23.1805717898488
          25 :   -22.2870126073718
          26 :    20.3831015349000
          27 :   -18.3511435583858
          28 :    17.1078960528493
          29 :   -17.0061045183631
          30 :    17.6494750637140
          31 :   -23.8238370063294
          32 :   -17.1243412563759

     Forces acting on atoms (Ry/au):

     negative rho (up, down):  1.456E-02 0.000E+00
     atom    1 type  1   force =     0.00000089    0.00000739    0.00102738
     atom    2 type  1   force =    -0.00000190   -0.00001443    0.00107988
     atom    3 type  1   force =    -0.00002741   -0.00000021    0.00106038
     atom    4 type  1   force =     0.00003088    0.00001297    0.00104644
     atom    5 type  1   force =     0.00001369    0.00000859   -0.00001624
     atom    6 type  1   force =    -0.00001162   -0.00000519    0.00000991
     atom    7 type  1   force =    -0.00000777   -0.00000655   -0.00000770
     atom    8 type  1   force =     0.00000325    0.00000254    0.00000256
     atom    9 type  1   force =    -0.00001656   -0.00000745   -0.00105004
     atom   10 type  1   force =     0.00001242   -0.00000578   -0.00102981
     atom   11 type  1   force =     0.00000991    0.00001645   -0.00108949
     atom   12 type  1   force =    -0.00000580   -0.00000832   -0.00103327

     Total force =     0.002102     Total SCF correction =     0.004299
     SCF correction compared to forces is large: reduce conv_thr to get better values

     entering subroutine stress ...

     negative rho (up, down):  1.456E-02 0.000E+00
          total   stress  (Ry/bohr**3)                   (kbar)     P=  -27.41
  -0.00027019  -0.00000000   0.00000001        -39.75     -0.00      0.00
  -0.00000000  -0.00027022  -0.00000001         -0.00    -39.75     -0.00
   0.00000001  -0.00000001  -0.00001851          0.00     -0.00     -2.72

     BFGS Geometry Optimization

     bfgs converged in   1 scf cycles and   0 bfgs steps
     (criteria: energy <  1.0E+00, force <  1.9E-03)

     End of BFGS Geometry Optimization

     Final energy   =   -2114.8478665067 Ry
Begin final coordinates

ATOMIC_POSITIONS (crystal)
Cr1      0.166666667   0.166666667   0.413381306    0   0   0
Cr1      0.666666667   0.166666667   0.413381306    0   0   0
Cr1      0.166666667   0.666666667   0.413381306    0   0   0
Cr1      0.666666667   0.666666667   0.413381306    0   0   0
Cr1      0.833333333   0.333333333   0.500000000    0   0   0
Cr1      0.333333333   0.333333333   0.500000000    0   0   0
Cr1      0.833333333   0.833333333   0.500000000    0   0   0
Cr1      0.333333333   0.833333333   0.500000000    0   0   0
Cr1      0.000000000   0.000000000   0.586618694
Cr1      0.500000000   0.000000000   0.586618694
Cr1      0.000000000   0.500000000   0.586618694
Cr1      0.500000000   0.500000000   0.586618694
End final coordinates

     Writing output data file calc.save

     General routines

     Parallel routines

   This run was terminated on:  15:14:14  30Apr2018

   JOB DONE.
Job  /afs/slac/g/suncat/bin/suncat-tsmpirun -x LD_LIBRARY_PATH -wdir /scratch/qe480742_mVfjX pw.x -npool 4 -in pw.inp

TID   HOST_NAME   COMMAND_LINE            STATUS            TERMINATION_TIME
00000 suncat0054 pw.x -npool 4 -i  Done                     04/30/2018 15:14:14
00001 suncat0054 pw.x -npool 4 -i  Done                     04/30/2018 15:14:14
00002 suncat0054 pw.x -npool 4 -i  Done                     04/30/2018 15:14:14
00003 suncat0054 pw.x -npool 4 -i  Done                     04/30/2018 15:14:14
00004 suncat0054 pw.x -npool 4 -i  Done                     04/30/2018 15:14:14
00005 suncat0054 pw.x -npool 4 -i  Done                     04/30/2018 15:14:14
00006 suncat0054 pw.x -npool 4 -i  Done                     04/30/2018 15:14:14
00007 suncat0054 pw.x -npool 4 -i  Done                     04/30/2018 15:14:14
00008 suncat0013 pw.x -npool 4 -i  Done                     04/30/2018 15:14:14
00009 suncat0013 pw.x -npool 4 -i  Done                     04/30/2018 15:14:14
00010 suncat0013 pw.x -npool 4 -i  Done                     04/30/2018 15:14:14
00011 suncat0013 pw.x -npool 4 -i  Done                     04/30/2018 15:14:14
00012 suncat0013 pw.x -npool 4 -i  Done                     04/30/2018 15:14:14
00013 suncat0013 pw.x -npool 4 -i  Done                     04/30/2018 15:14:14
00014 suncat0013 pw.x -npool 4 -i  Done                     04/30/2018 15:14:14
00015 suncat0013 pw.x -npool 4 -i  Done                     04/30/2018 15:14:14
00016 suncat0186 pw.x -npool 4 -i  Done                     04/30/2018 15:14:14
00017 suncat0186 pw.x -npool 4 -i  Done                     04/30/2018 15:14:14
00018 suncat0186 pw.x -npool 4 -i  Done                     04/30/2018 15:14:14
00019 suncat0186 pw.x -npool 4 -i  Done                     04/30/2018 15:14:14
00020 suncat0186 pw.x -npool 4 -i  Done                     04/30/2018 15:14:14
00021 suncat0186 pw.x -npool 4 -i  Done                     04/30/2018 15:14:14
00022 suncat0186 pw.x -npool 4 -i  Done                     04/30/2018 15:14:14
00023 suncat0186 pw.x -npool 4 -i  Done                     04/30/2018 15:14:14
00024 suncat0161 pw.x -npool 4 -i  Done                     04/30/2018 15:14:14
00025 suncat0161 pw.x -npool 4 -i  Done                     04/30/2018 15:14:14
00026 suncat0161 pw.x -npool 4 -i  Done                     04/30/2018 15:14:14
00027 suncat0161 pw.x -npool 4 -i  Done                     04/30/2018 15:14:14
00028 suncat0161 pw.x -npool 4 -i  Done                     04/30/2018 15:14:14
00029 suncat0161 pw.x -npool 4 -i  Done                     04/30/2018 15:14:14
00030 suncat0161 pw.x -npool 4 -i  Done                     04/30/2018 15:14:14
00031 suncat0161 pw.x -npool 4 -i  Done                     04/30/2018 15:14:14