     Program PWSCF v.5.1rc2 (svn rev. 11289) starts on 30Apr2018 at 15:49:27

     Current dimensions of program PWSCF are:
     Max number of different atomic species (ntypx) = 10
     Max number of k-points (npk) =  40000
     Max angular momentum in pseudopotentials (lmaxx) =  3
     Presently stress not available with electric field

     IMPORTANT: XC functional enforced from input :
     Exchange-correlation      = BEEF-VDW ( 1  4 27 13 2)
     Any further DFT definition will be discarded
     Please, verify this is what you really want

     Subspace diagonalization in iterative solution of the eigenvalue problem:
     a serial algorithm will be used

     Found symmetry operation: I + (  0.5000  0.0000  0.0000)
     This is a supercell, fractional translations are disabled

     bravais-lattice index     =            0
     lattice parameter (alat)  =       1.8897  a.u.
     unit-cell volume          =    5185.0501 (a.u.)^3
     number of atoms/cell      =           12
     number of atomic types    =            1
     number of electrons       =       156.00
     number of Kohn-Sham states=           88
     kinetic-energy cutoff     =      36.7493  Ry
     charge density cutoff     =     367.4932  Ry
     convergence threshold     =      1.0E-05
     mixing beta               =       0.3000
     number of iterations used =           10  plain     mixing
     Exchange-correlation      = BEEF-VDW ( 1  4 27 13 2)
     nstep                     =           50

     celldm(1)=   1.889726  celldm(2)=   0.000000  celldm(3)=   0.000000
     celldm(4)=   0.000000  celldm(5)=   0.000000  celldm(6)=   0.000000

     crystal axes: (cart. coord. in units of alat)
               a(1) = (   5.972022   0.000000   0.000000 )
               a(2) = (   2.986011   5.171923   0.000000 )
               a(3) = (   0.000000   0.000000  24.876136 )

     reciprocal axes: (cart. coord. in units 2 pi/alat)
               b(1) = (  0.167447 -0.096676  0.000000 )
               b(2) = (  0.000000  0.193352  0.000000 )
               b(3) = (  0.000000  0.000000  0.040199 )

     PseudoPot. # 1 for Ta read from file:
     /u/if/mamunm/psp/gbrv1.5pbe/Ta.UPF
     MD5 check sum: f8bbe9446314a3b8ea5d9f3e3836c939
     Pseudo is Ultrasoft + core correction, Zval = 13.0
     Generated by new atomic code, or converted to UPF format
     Using radial grid of  921 points,  7 beta functions with:
                l(1) =   0
                l(2) =   0
                l(3) =   1
                l(4) =   1
                l(5) =   2
                l(6) =   2
                l(7) =   3
     Q(r) pseudized with  6 coefficients,  rinner =    1.300   1.300   1.300
                                                       1.300   1.300   1.300
                                                       1.300

     vdW kernel table read from file vdW_kernel_table
     MD5 check sum: 095c7af220d748ca6e76c0b4c6cfb241

     atomic species   valence    mass     pseudopotential
        Ta1           13.00   180.94788     Ta( 1.00)

     No symmetry found

   Cartesian axes

     site n.     atom                  positions (alat units)
         1           Ta1 tau(   1) = (   1.4930055   0.8619871  10.0000000  )
         2           Ta1 tau(   2) = (   4.4790165   0.8619871  10.0000000  )
         3           Ta1 tau(   3) = (   2.9860110   3.4479485  10.0000000  )
         4           Ta1 tau(   4) = (   5.9720221   3.4479485  10.0000000  )
         5           Ta1 tau(   5) = (   5.9720221   1.7239743  12.4380678  )
         6           Ta1 tau(   6) = (   2.9860110   1.7239743  12.4380678  )
         7           Ta1 tau(   7) = (   7.4650276   4.3099357  12.4380678  )
         8           Ta1 tau(   8) = (   4.4790165   4.3099357  12.4380678  )
         9           Ta1 tau(   9) = (   0.0000000   0.0000000  14.8761356  )
        10           Ta1 tau(  10) = (   2.9860110   0.0000000  14.8761356  )
        11           Ta1 tau(  11) = (   1.4930055   2.5859614  14.8761356  )
        12           Ta1 tau(  12) = (   4.4790165   2.5859614  14.8761356  )

     number of k points=    20  Fermi-Dirac smearing, width (Ry)=  0.0110
                       cart. coord. in units 2pi/alat
        k(    1) = (   0.0000000   0.0000000   0.0000000), wk =   0.0555556
        k(    2) = (   0.0000000   0.0322253   0.0000000), wk =   0.1111111
        k(    3) = (   0.0000000   0.0644506   0.0000000), wk =   0.1111111
        k(    4) = (   0.0000000  -0.0966758   0.0000000), wk =   0.0555556
        k(    5) = (   0.0279079  -0.0161126   0.0000000), wk =   0.1111111
        k(    6) = (   0.0279079   0.0161126   0.0000000), wk =   0.1111111
        k(    7) = (   0.0279079   0.0483379   0.0000000), wk =   0.1111111
        k(    8) = (   0.0279079  -0.1127885   0.0000000), wk =   0.1111111
        k(    9) = (   0.0279079  -0.0805632   0.0000000), wk =   0.1111111
        k(   10) = (   0.0279079  -0.0483379   0.0000000), wk =   0.1111111
        k(   11) = (   0.0558158  -0.0322253   0.0000000), wk =   0.1111111
        k(   12) = (   0.0558158   0.0000000   0.0000000), wk =   0.1111111
        k(   13) = (   0.0558158   0.0322253   0.0000000), wk =   0.1111111
        k(   14) = (   0.0558158  -0.1289011   0.0000000), wk =   0.1111111
        k(   15) = (   0.0558158  -0.0966758   0.0000000), wk =   0.1111111
        k(   16) = (   0.0558158  -0.0644506   0.0000000), wk =   0.1111111
        k(   17) = (  -0.0837237   0.0483379   0.0000000), wk =   0.0555556
        k(   18) = (  -0.0837237   0.0805632   0.0000000), wk =   0.1111111
        k(   19) = (  -0.0837237   0.1127885   0.0000000), wk =   0.1111111
        k(   20) = (  -0.0837237  -0.0483379   0.0000000), wk =   0.0555556

     Largest allocated arrays     est. size (Mb)     dimensions
     Largest temporary arrays     est. size (Mb)     dimensions

     Initial potential from superposition of free atoms
     Check: negative starting charge=   -1.121762

     starting charge  155.98666, renormalised to  156.00000

     negative rho (up, down):  1.122E+00 0.000E+00

     *
     * You are using vdW-DF for exchange-correlation in this calculation.
     * Please cite the following three references that made this development
     * possible:
     *
     *   M. Dion, H. Rydberg, E. Schroder, D. C. Langreth, and
     *   B. I. Lundqvist, Phys. Rev. Lett. 92, 246401 (2004).
     *
     *   T. Thonhauser, V. R. Cooper, S. Li, A. Puzder, P. Hyldgaard, and
     *   D. C. Langreth, Phys. Rev. B 76, 125112 (2007).
     *
     *   G. Roman-Perez and J. M. Soler, Phys. Rev. Lett. 103, 096102 (2009).
     *
     *
     * If you are using vdW-DF2, please also cite:
     *
     *   K. Lee, E. D. Murray, L. Kong, B. I. Lundqvist, and
     *   D. C. Langreth, Phys. Rev. B 82, 081101(R) (2010).
     *
     *
     * If you are calculating the stress with vdW-DF, please also cite:
     *
     *   R. Sabatini, E. Kucukbenli, B. Kolb, T. Thonhauser, and
     *   S. de Gironcoli, J. Phys.: Condens. Matter 24, 424209 (2012).
     *

     Carrying out vdW-DF run using the following parameters:

     Nqs =      20    Nr_points =    1024   r_max =   100.000
     q_mesh =
               0.00001000     0.04494208     0.09755937     0.15916263
               0.23128650     0.31572767     0.41458969     0.53033537
               0.66584808     0.82450364     1.01025438     1.22772762
               1.48234092     1.78043706     2.12944203     2.53805004
               3.01644009     3.57652955     4.23227104     5.00000000

     Gradients computed in reciprocal space

     Adding external electric field

     Computed dipole along edir(3) :
        Dipole                0.0000 Ry au,          0.0000 Debye
        Dipole field          0.0000 Ry au

        Potential amp.       -0.0000 Ry
        Total length         45.8339 bohr

     Starting wfc are  156 randomized atomic wfcs

     Self-consistent Calculation

     iteration #  1     ecut=    36.75 Ry     beta=0.30
     Davidson diagonalization with overlap
     ethr =  1.00E-02,  avg # of iterations =  2.0

[...]

     total energy              =   -1716.25004800 Ry
     Harris-Foulkes estimate   =   -1718.64016723 Ry
     estimated scf accuracy    <       5.10004051 Ry

[...]

     End of self-consistent calculation

          k = 0.0000 0.0000 0.0000 ( 19447 PWs)   bands (ev):

   -66.3778 -66.3657 -66.3127 -66.3123 -66.3121 -66.3112 -66.3108 -66.3105
   -66.2948 -66.2506 -66.2497 -66.2495 -33.1102 -33.1101 -33.1098 -33.0803
   -33.0488 -33.0487 -33.0486 -32.9930 -32.9929 -32.9927 -32.8083 -32.7016
   -32.7012 -32.7009 -32.6460 -32.6458 -32.6456 -32.5154 -32.5153 -32.5151
   -32.4436 -32.4430 -32.4427 -32.4382 -32.4380 -32.4378 -32.3911 -32.3617
   -32.3616 -32.3614 -32.3108 -32.3108 -32.2661 -32.2661 -32.2210 -32.2210
    -5.5213  -3.9139  -2.8587  -2.1466  -2.1466  -2.1466  -1.9490  -1.9489
    -1.9489  -1.2507  -1.2506  -1.2506  -1.0075  -1.0075  -1.0075   0.1942
     0.1943   0.1944   1.2513   1.4828   1.4828   1.4828   1.6846   1.8542
     1.9937   1.9938   1.9940   2.3029   2.3029   2.3927   2.6064   2.6064
     2.6746   2.6747   2.6747   2.7932   2.7932   2.9398   2.9399   2.9400

[...]

          k =-0.0837 0.0483 0.0000 ( 19532 PWs)   bands (ev):

[...]

     the Fermi energy is     1.9476 ev

!    total energy              =   -1718.23416321 Ry
     Harris-Foulkes estimate   =   -1718.24172450 Ry
     estimated scf accuracy    <       0.00000336 Ry

     The total energy is the sum of the following terms:

     one-electron contribution =  -11355.63327945 Ry
     hartree contribution      =    5659.52842794 Ry
     xc contribution           =    -522.62841798 Ry
     ewald contribution        =    4500.60763933 Ry
     electric field correction =       0.00000000 Ry
     smearing contrib. (-TS)   =      -0.10853304 Ry

     convergence has been achieved in  13 iterations

 BEEF-vdW xc energy contributions
           1 :   -459.953155791572
           2 :    424.682969614875
           3 :   -363.033960843211
           4 :    289.218782610419
           5 :   -217.575831522996
           6 :    158.109322127365
           7 :   -114.447736292707
           8 :    84.6419892948693
           9 :   -63.8871257277201
          10 :    47.5488974998399
          11 :   -33.0712379017451
          12 :    20.1995182734606
          13 :   -9.91767104018754
          14 :    3.04273433428716
          15 :   0.647524343742703
          16 :   -2.38556192349665
          17 :    3.69850914799883
          18 :   -5.56421032539845
          19 :    7.97347149733116
          20 :   -10.1207031912423
          21 :    11.0530305459567
          22 :   -10.3551951757282
          23 :    8.45618509820360
          24 :   -6.39433618677526
          25 :    5.21410150631698
          26 :   -5.38060697864864
          27 :    6.56266039865693
          28 :   -7.88960591802459
          29 :    8.49600457177166
          30 :   -8.01064712158450
          31 :   -40.9972762768941
          32 :   -30.4322013270923

     Forces acting on atoms (Ry/au):

     negative rho (up, down):  1.176E+00 0.000E+00
     atom    1 type  1   force =     0.00002814   -0.00003776    0.00408813
     atom    2 type  1   force =    -0.00002816   -0.00001010    0.00405729
     atom    3 type  1   force =     0.00002818    0.00001042    0.00409063
     atom    4 type  1   force =    -0.00002695    0.00004279    0.00409396
     atom    5 type  1   force =     0.00001165   -0.00001012    0.00002604
     atom    6 type  1   force =    -0.00000780    0.00002617   -0.00000207
     atom    7 type  1   force =     0.00003092   -0.00001263    0.00000439
     atom    8 type  1   force =    -0.00003178   -0.00000402    0.00001272
     atom    9 type  1   force =     0.00001912   -0.00003241   -0.00411750
     atom   10 type  1   force =    -0.00002281   -0.00000994   -0.00408269
     atom   11 type  1   force =     0.00002263    0.00000794   -0.00406447
     atom   12 type  1   force =    -0.00002314    0.00002965   -0.00410642

     Total force =     0.008186     Total SCF correction =     0.004312
     SCF correction compared to forces is large: reduce conv_thr to get better values

     entering subroutine stress ...

     negative rho (up, down):  1.176E+00 0.000E+00
          total   stress  (Ry/bohr**3)                   (kbar)     P=  -33.13
  -0.00029778   0.00000004  -0.00000001        -43.81      0.01     -0.00
   0.00000004  -0.00029784   0.00000000          0.01    -43.81      0.00
  -0.00000001   0.00000000  -0.00008007         -0.00      0.00    -11.78

     BFGS Geometry Optimization

     number of scf cycles    =   1
     number of bfgs steps    =   0

     energy   new            =   -1718.2341632100 Ry

     new trust radius        =       0.0041176744 bohr
     new conv_thr            =       0.0000099958 Ry

ATOMIC_POSITIONS (crystal)
Ta1      0.166666667   0.166666667   0.401991699    0   0   0
Ta1      0.666666667   0.166666667   0.401991699    0   0   0
Ta1      0.166666667   0.666666667   0.401991699    0   0   0
Ta1      0.666666667   0.666666667   0.401991699    0   0   0
Ta1      0.833333333   0.333333333   0.500000000    0   0   0
Ta1      0.333333333   0.333333333   0.500000000    0   0   0
Ta1      0.833333333   0.833333333   0.500000000    0   0   0
Ta1      0.333333333   0.833333333   0.500000000    0   0   0
Ta1      0.000003352  -0.000003316   0.597920712
Ta1      0.499998487  -0.000001017   0.597921452
Ta1      0.000001599   0.500000813   0.597921840
Ta1      0.499996433   0.500003033   0.597920948

     Writing output data file calc.save
     Check: negative starting charge=   -1.121762
     NEW-OLD atomic charge density approx. for the potential
     Check: negative starting charge=   -1.122249

[...]

     iteration #  2     ecut=    36.75 Ry     beta=0.30
     Davidson diagonalization with overlap
     c_bands:  1 eigenvalues not converged
     ethr =  7.43E-07,  avg # of iterations =  5.5

[...]

     energy   old            =   -1718.2341632100 Ry
     energy   new            =   -1718.2443384940 Ry

     CASE: energy  _new < energy  _old

     WARNING: bfgs curvature condition failed, Theta= 0.824
     new trust radius        =       0.0061765116 bohr
     new conv_thr            =       0.0000001000 Ry

[...]

     Total force =     0.006516     Total SCF correction =     0.000157

[...]

     number of scf cycles    =   4
     number of bfgs steps    =   3

     energy   old            =   -1718.2444386352 Ry
     energy   new            =   -1718.2445374947 Ry

     CASE: energy  _new < energy  _old

     new trust radius        =       0.0138971510 bohr
     new conv_thr            =       0.0000001000 Ry

ATOMIC_POSITIONS (crystal)
Ta1      0.166666667   0.166666667   0.401991699    0   0   0
Ta1      0.666666667   0.166666667   0.401991699    0   0   0
Ta1      0.166666667   0.666666667   0.401991699    0   0   0
Ta1      0.666666667   0.666666667   0.401991699    0   0   0
Ta1      0.833333333   0.333333333   0.500000000    0   0   0
Ta1      0.333333333   0.333333333   0.500000000    0   0   0
Ta1      0.833333333   0.833333333   0.500000000    0   0   0
Ta1      0.333333333   0.833333333   0.500000000    0   0   0
Ta1     -0.000000421  -0.000001753   0.597299060
Ta1      0.499999329   0.000001754   0.597301879
Ta1      0.000003775   0.499999817   0.597301015
Ta1      0.499997141   0.499997277   0.597299514

     Writing output data file calc.save
     Check: negative starting charge=   -1.122710
     NEW-OLD atomic charge density approx. for the potential
     Check: negative starting charge=   -1.121839

[...]

     Self-consistent Calculation

[...]

     total energy              =   -1718.24460971 Ry
     Harris-Foulkes estimate   =   -1718.24460976 Ry
     estimated scf accuracy    <       0.00000032 Ry

     iteration #  8     ecut=    36.75 Ry     beta=0.30
     Davidson diagonalization with overlap
     ethr =  2.05E-10,  avg # of iterations =  3.4

[...]

     negative rho (up, down):  1.176E+00 0.000E+00

     Adding external electric field

     Computed dipole along edir(3) :
        Dipole                0.0041 Ry au,          0.0104 Debye
        Dipole field          0.0000 Ry au

        Potential amp.       -0.0009 Ry
        Total length         45.8339 bohr

     End of self-consistent calculation

[...]

          k = 0.0558-0.0645 0.0000 ( 19521 PWs)   bands (ev):

[...]

          k =-0.0837-0.0483 0.0000 ( 19532 PWs)   bands (ev):

   -66.3393 -66.3393 -66.3314 -66.3313 -66.3064 -66.3063 -66.3033 -66.3033
   -66.2660 -66.2659 -66.2442 -66.2442 -32.9719 -32.9719 -32.9702 -32.9702
   -32.9431 -32.9431 -32.8501 -32.8501 -32.8410 -32.8410 -32.7912 -32.7912
   -32.6676 -32.6676 -32.6363 -32.6363 -32.6152 -32.6152 -32.6089 -32.6089
   -32.5479 -32.5478 -32.5281 -32.5281 -32.5237 -32.5236 -32.4134 -32.4133
   -32.3952 -32.3952 -32.3659 -32.3659 -32.3472 -32.3472 -32.2828 -32.2828
    -3.7093  -3.7092  -2.2725  -2.2725  -1.4121  -1.4121  -1.1814  -1.1814
    -1.0528  -1.0528  -0.1861  -0.1861   0.1148   0.1149   0.1224   0.1224
     0.4880   0.4881   0.6146   0.6146   0.8093   0.8093   1.1554   1.1554
     1.2201   1.2201   1.3956   1.3957   1.5492   1.5493   1.6429   1.6429
     2.1492   2.1494   2.2506   2.2507   2.3412   2.3413   3.1502   3.1502

     the Fermi energy is     1.9518 ev

!    total energy              =   -1718.24460984 Ry
     Harris-Foulkes estimate   =   -1718.24460974 Ry
     estimated scf accuracy    <       0.00000004 Ry

     The total energy is the sum of the following terms:

     one-electron contribution =  -11384.48961212 Ry
     hartree contribution      =    5674.01226644 Ry
     xc contribution           =    -522.67453988 Ry
     ewald contribution        =    4515.01557145 Ry
     electric field correction =       0.00000004 Ry
     smearing contrib. (-TS)   =      -0.10829577 Ry

     convergence has been achieved in   8 iterations

 BEEF-vdW xc energy contributions
           1 :   -460.289623780373
           2 :    425.030715659033
           3 :   -363.395657918309
           4 :    289.585505785384
           5 :   -217.931941659868
           6 :    158.442485704273
           7 :   -114.757540166543
           8 :    84.9411634966343
           9 :   -64.1940948867715
          10 :    47.8762172470882
          11 :   -33.4175523865497
          12 :    20.5504525371780
          13 :   -10.2551901833692
          14 :    3.35680800736833
          15 :   0.352742598299642
          16 :   -2.09491439038197
          17 :    3.39593569453569
          18 :   -5.24296775178618
          19 :    7.63989561362359
          20 :   -9.78950674453995
          21 :    10.7375901433288
          22 :   -10.0591969991499
          23 :    8.17177679734283
          24 :   -6.10744960964132
          25 :    4.91334724618298
          26 :   -5.06428744940308
          27 :    6.23963245956929
          28 :   -7.57358472934146
          29 :    8.19700914035627
          30 :   -7.72890418183840
          31 :   -41.0183244159405
          32 :   -30.4556994754698

     Forces acting on atoms (Ry/au):

     negative rho (up, down):  1.176E+00 0.000E+00
     atom    1 type  1   force =    -0.00000018    0.00000100    0.00477025
     atom    2 type  1   force =     0.00000033   -0.00000004    0.00477373
     atom    3 type  1   force =    -0.00000008    0.00000021    0.00476883
     atom    4 type  1   force =     0.00000013   -0.00000036    0.00477109
     atom    5 type  1   force =    -0.00000450    0.00000456   -0.00436405
     atom    6 type  1   force =     0.00000391   -0.00000501   -0.00436179
     atom    7 type  1   force =    -0.00000795    0.00000273   -0.00436429
     atom    8 type  1   force =     0.00000777   -0.00000283   -0.00435687
     atom    9 type  1   force =    -0.00000160    0.00000143   -0.00040884
     atom   10 type  1   force =     0.00000180   -0.00000485   -0.00041316
     atom   11 type  1   force =    -0.00000604    0.00000183   -0.00041039
     atom   12 type  1   force =     0.00000641    0.00000134   -0.00040452

     Total force =     0.000819     Total SCF correction =     0.000595
     SCF correction compared to forces is large: reduce conv_thr to get better values

     entering subroutine stress ...

     negative rho (up, down):  1.176E+00 0.000E+00
          total   stress  (Ry/bohr**3)                   (kbar)     P=  -31.49
  -0.00028757  -0.00000000  -0.00000000        -42.30     -0.00     -0.00
  -0.00000000  -0.00028757  -0.00000000         -0.00    -42.30     -0.00
  -0.00000000  -0.00000000  -0.00006700         -0.00     -0.00     -9.86

     bfgs converged in   5 scf cycles and   4 bfgs steps
     (criteria: energy <  1.0E+00, force <  1.9E-03)

     End of BFGS Geometry Optimization

     Final energy   =   -1718.2446098405 Ry
Begin final coordinates

ATOMIC_POSITIONS (crystal)
Ta1      0.166666667   0.166666667   0.401991699    0   0   0
Ta1      0.666666667   0.166666667   0.401991699    0   0   0
Ta1      0.166666667   0.666666667   0.401991699    0   0   0
Ta1      0.666666667   0.666666667   0.401991699    0   0   0
Ta1      0.833333333   0.333333333   0.500000000    0   0   0
Ta1      0.333333333   0.333333333   0.500000000    0   0   0
Ta1      0.833333333   0.833333333   0.500000000    0   0   0
Ta1      0.333333333   0.833333333   0.500000000    0   0   0
Ta1     -0.000000421  -0.000001753   0.597299060
Ta1      0.499999329   0.000001754   0.597301879
Ta1      0.000003775   0.499999817   0.597301015
Ta1      0.499997141   0.499997277   0.597299514
End final coordinates

     Writing output data file calc.save

     General routines

     Parallel routines

   This run was terminated on:  16:25:34  30Apr2018

   JOB DONE.
Job  /afs/slac/g/suncat/bin/suncat-tsmpirun -x LD_LIBRARY_PATH -wdir /scratch/qe495295_bojDu pw.x -npool 4 -in pw.inp

TID   HOST_NAME   COMMAND_LINE            STATUS            TERMINATION_TIME
00000 suncat0188 pw.x -npool 4 -i  Done                     04/30/2018 16:25:34
00001 suncat0188 pw.x -npool 4 -i  Done                     04/30/2018 16:25:34
00002 suncat0188 pw.x -npool 4 -i  Done                     04/30/2018 16:25:34
00003 suncat0188 pw.x -npool 4 -i  Done                     04/30/2018 16:25:34
00004 suncat0188 pw.x -npool 4 -i  Done                     04/30/2018 16:25:34
00005 suncat0188 pw.x -npool 4 -i  Done                     04/30/2018 16:25:34
00006 suncat0188 pw.x -npool 4 -i  Done                     04/30/2018 16:25:34
00007 suncat0188 pw.x -npool 4 -i  Done                     04/30/2018 16:25:34
00008 suncat0179 pw.x -npool 4 -i  Done                     04/30/2018 16:25:34
00009 suncat0179 pw.x -npool 4 -i  Done                     04/30/2018 16:25:34
00010 suncat0179 pw.x -npool 4 -i  Done                     04/30/2018 16:25:34
00011 suncat0179 pw.x -npool 4 -i  Done                     04/30/2018 16:25:34
00012 suncat0179 pw.x -npool 4 -i  Done                     04/30/2018 16:25:34
00013 suncat0179 pw.x -npool 4 -i  Done                     04/30/2018 16:25:34
00014 suncat0179 pw.x -npool 4 -i  Done                     04/30/2018 16:25:34
00015 suncat0179 pw.x -npool 4 -i  Done                     04/30/2018 16:25:34
00016 suncat0163 pw.x -npool 4 -i  Done                     04/30/2018 16:25:34
00017 suncat0163 pw.x -npool 4 -i  Done                     04/30/2018 16:25:34
00018 suncat0163 pw.x -npool 4 -i  Done                     04/30/2018 16:25:34
00019 suncat0163 pw.x -npool 4 -i  Done                     04/30/2018 16:25:34
00020 suncat0163 pw.x -npool 4 -i  Done                     04/30/2018 16:25:34
00021 suncat0163 pw.x -npool 4 -i  Done                     04/30/2018 16:25:34
00022 suncat0163 pw.x -npool 4 -i  Done                     04/30/2018 16:25:34
00023 suncat0163 pw.x -npool 4 -i  Done                     04/30/2018 16:25:34
00024 suncat0280 pw.x -npool 4 -i  Done                     04/30/2018 16:25:34
00025 suncat0280 pw.x -npool 4 -i  Done                     04/30/2018 16:25:34
00026 suncat0280 pw.x -npool 4 -i  Done                     04/30/2018 16:25:34
00027 suncat0280 pw.x -npool 4 -i  Done                     04/30/2018 16:25:34
00028 suncat0280 pw.x -npool 4 -i  Done                     04/30/2018 16:25:34
00029 suncat0280 pw.x -npool 4 -i  Done                     04/30/2018 16:25:34
00030 suncat0280 pw.x -npool 4 -i  Done                     04/30/2018 16:25:34
00031 suncat0280 pw.x -npool 4 -i  Done                     04/30/2018 16:25:34