     Program PWSCF v.5.1rc2 (svn rev. 11289) starts on 30Apr2018 at 15:22:33

     Current dimensions of program PWSCF are:
     Max number of different atomic species (ntypx) = 10
     Max number of k-points (npk) =  40000
     Max angular momentum in pseudopotentials (lmaxx) =  3
     Presently stress not available with electric field

     IMPORTANT: XC functional enforced from input :
     Exchange-correlation      = BEEF-VDW ( 1  4 27 13 2)
     Any further DFT definition will be discarded
     Please, verify this is what you really want

     Subspace diagonalization in iterative solution of the eigenvalue problem:
     a serial algorithm will be used

     Found symmetry operation: I + (  0.5000  0.0000  0.0000)
     This is a supercell, fractional translations are disabled

     bravais-lattice index     =            0
     lattice parameter (alat)  =       1.8897  a.u.
     unit-cell volume          =    6082.7792 (a.u.)^3
     number of atoms/cell      =           12
     number of atomic types    =            1
     number of electrons       =       144.00
     number of Kohn-Sham states=           82
     kinetic-energy cutoff     =      36.7493  Ry
     charge density cutoff     =     367.4932  Ry
     convergence threshold     =      1.0E-05
     mixing beta               =       0.3000
     number of iterations used =           10  plain     mixing
     Exchange-correlation      = BEEF-VDW ( 1  4 27 13 2)
     nstep                     =           50

     celldm(1)=   1.889726  celldm(2)=   0.000000  celldm(3)=   0.000000
     celldm(4)=   0.000000  celldm(5)=   0.000000  celldm(6)=   0.000000

     crystal axes: (cart. coord. in units of alat)
               a(1) = (   6.421223   0.000000   0.000000 )
               a(2) = (   3.210611   5.560942   0.000000 )
               a(3) = (   0.000000   0.000000  25.242906 )

     reciprocal axes: (cart. coord. in units 2 pi/alat)
               b(1) = (  0.155734 -0.089913  0.000000 )
               b(2) = (  0.000000  0.179826  0.000000 )
               b(3) = (  0.000000  0.000000  0.039615 )

     PseudoPot. # 1 for Zr read from file:
     /u/if/mamunm/psp/gbrv1.5pbe/Zr.UPF
     MD5 check sum: 5db81b1e868ab7776c4564c113de050b
     Pseudo is Ultrasoft + core correction, Zval = 12.0
     Generated by new atomic code, or converted to UPF format
     Using radial grid of  887 points,  6 beta functions with:
                l(1) =   0
                l(2) =   0
                l(3) =   1
                l(4) =   1
                l(5) =   2
                l(6) =   2
     Q(r) pseudized with  6 coefficients,  rinner =    1.200   1.200   1.200
                                                       1.200   1.200

     vdW kernel table read from file vdW_kernel_table
     MD5 check sum: 095c7af220d748ca6e76c0b4c6cfb241

     atomic species   valence    mass     pseudopotential
        Zr1           12.00    91.22400     Zr( 1.00)

     No symmetry found

   Cartesian axes

     site n.     atom                  positions (alat units)
         1           Zr1 tau(   1) = (   1.6053057   0.9268237  10.0000000  )
         2           Zr1 tau(   2) = (   4.8159170   0.9268237  10.0000000  )
         3           Zr1 tau(   3) = (   3.2106113   3.7072946  10.0000000  )
         4           Zr1 tau(   4) = (   6.4212227   3.7072946  10.0000000  )
         5           Zr1 tau(   5) = (   6.4212227   1.8536473  12.6214532  )
         6           Zr1 tau(   6) = (   3.2106113   1.8536473  12.6214532  )
         7           Zr1 tau(   7) = (   8.0265283   4.6341183  12.6214532  )
         8           Zr1 tau(   8) = (   4.8159170   4.6341183  12.6214532  )
         9           Zr1 tau(   9) = (   0.0000000   0.0000000  15.2429064  )
        10           Zr1 tau(  10) = (   3.2106113   0.0000000  15.2429064  )
        11           Zr1 tau(  11) = (   1.6053057   2.7804710  15.2429064  )
        12           Zr1 tau(  12) = (   4.8159170   2.7804710  15.2429064  )

     number of k points=    20  Fermi-Dirac smearing, width (Ry)=  0.0110
                       cart. coord. in units 2pi/alat
        k(    1) = (   0.0000000   0.0000000   0.0000000), wk =   0.0555556
        k(    2) = (   0.0000000   0.0299709   0.0000000), wk =   0.1111111
        k(    3) = (   0.0000000   0.0599419   0.0000000), wk =   0.1111111
        k(    4) = (   0.0000000  -0.0899128   0.0000000), wk =   0.0555556
        k(    5) = (   0.0259556  -0.0149855   0.0000000), wk =   0.1111111
        k(    6) = (   0.0259556   0.0149855   0.0000000), wk =   0.1111111
        k(    7) = (   0.0259556   0.0449564   0.0000000), wk =   0.1111111
        k(    8) = (   0.0259556  -0.1048983   0.0000000), wk =   0.1111111
        k(    9) = (   0.0259556  -0.0749274   0.0000000), wk =   0.1111111
        k(   10) = (   0.0259556  -0.0449564   0.0000000), wk =   0.1111111
        k(   11) = (   0.0519112  -0.0299709   0.0000000), wk =   0.1111111
        k(   12) = (   0.0519112   0.0000000   0.0000000), wk =   0.1111111
        k(   13) = (   0.0519112   0.0299709   0.0000000), wk =   0.1111111
        k(   14) = (   0.0519112  -0.1198838   0.0000000), wk =   0.1111111
        k(   15) = (   0.0519112  -0.0899128   0.0000000), wk =   0.1111111
        k(   16) = (   0.0519112  -0.0599419   0.0000000), wk =   0.1111111
        k(   17) = (  -0.0778668   0.0449564   0.0000000), wk =   0.0555556
        k(   18) = (  -0.0778668   0.0749274   0.0000000), wk =   0.1111111
        k(   19) = (  -0.0778668   0.1048983   0.0000000), wk =   0.1111111
        k(   20) = (  -0.0778668  -0.0449564   0.0000000), wk =   0.0555556

     Largest allocated arrays     est. size (Mb)     dimensions
     Largest temporary arrays     est. size (Mb)     dimensions

     Initial potential from superposition of free atoms
     Check: negative starting charge=   -0.729235

     starting charge  143.97421, renormalised to  144.00000

     negative rho (up, down):  7.294E-01 0.000E+00

     *
     * You are using vdW-DF for exchange-correlation in this calculation.
     * Please cite the following three references that made this development
     * possible:
     *
     *   M. Dion, H. Rydberg, E. Schroder, D. C. Langreth, and
     *   B. I. Lundqvist, Phys. Rev. Lett. 92, 246401 (2004).
     *
     *   T. Thonhauser, V. R. Cooper, S. Li, A. Puzder, P. Hyldgaard, and
     *   D. C. Langreth, Phys. Rev. B 76, 125112 (2007).
     *
     *   G. Roman-Perez and J. M. Soler, Phys. Rev. Lett. 103, 096102 (2009).
     *
     *
     * If you are using vdW-DF2, please also cite:
     *
     *   K. Lee, E. D. Murray, L. Kong, B. I. Lundqvist, and
     *   D. C. Langreth, Phys. Rev. B 82, 081101(R) (2010).
     *
     *
     * If you are calculating the stress with vdW-DF, please also cite:
     *
     *   R. Sabatini, E. Kucukbenli, B. Kolb, T. Thonhauser, and
     *   S. de Gironcoli, J. Phys.: Condens. Matter 24, 424209 (2012).
     *

     Carrying out vdW-DF run using the following parameters:

     Nqs =      20    Nr_points =    1024   r_max =   100.000
     q_mesh =
               0.00001000     0.04494208     0.09755937     0.15916263
               0.23128650     0.31572767     0.41458969     0.53033537
               0.66584808     0.82450364     1.01025438     1.22772762
               1.48234092     1.78043706     2.12944203     2.53805004
               3.01644009     3.57652955     4.23227104     5.00000000

     Gradients computed in reciprocal space

     Adding external electric field

     Computed dipole along edir(3) :
        Dipole                0.0000 Ry au,          0.0000 Debye
        Dipole field          0.0000 Ry au

        Potential amp.       -0.0000 Ry
        Total length         46.5096 bohr

     Starting wfc are  156 randomized atomic wfcs

     Self-consistent Calculation

     iteration #  1     ecut=    36.75 Ry     beta=0.30
     Davidson diagonalization with overlap
     ethr =  1.00E-02,  avg # of iterations =  2.0

[...]

     total energy              =   -1193.64733201 Ry
     Harris-Foulkes estimate   =   -1197.44763603 Ry
     estimated scf accuracy    <       7.91768530 Ry

[...]

     End of self-consistent calculation

          k = 0.0000 0.0000 0.0000 ( 22923 PWs)   bands (ev):

   -47.8675 -47.8608 -47.7747 -47.7745 -47.7744 -47.7740 -47.7738 -47.7737
   -47.5554 -47.4741 -47.4739 -47.4737 -26.1603 -26.1603 -26.1602 -26.1125
   -26.1124 -26.1124 -26.0685 -25.9863 -25.9861 -25.9861 -25.8790 -25.7754
   -25.7753 -25.7752 -25.6422 -25.6420 -25.6420 -25.6067 -25.6066 -25.6066
   -25.5902 -25.5902 -25.5901 -25.4361 -25.4361 -25.4305 -25.4305 -25.3845
   -25.3844 -25.3843 -25.3639 -25.2930 -25.2929 -25.2928 -25.1431 -25.1431
    -3.5499  -2.4514  -1.6125  -1.1444  -1.1443  -1.1443  -1.0320  -1.0319
    -1.0319  -0.6021  -0.6021  -0.6020  -0.3991  -0.3991  -0.3991   0.4483
     0.4484   0.4484   1.2895   1.4592   1.5869   1.5869   1.5869   1.9818
     2.1019   2.1020   2.1020   2.1442   2.3118   2.3118   2.5637   2.5637
     2.5750   2.5752

[...]

          k =-0.0779 0.0450 0.0000 ( 22880 PWs)   bands (ev):

[...]

     the Fermi energy is     1.4148 ev

!    total energy              =   -1196.83818231 Ry
     Harris-Foulkes estimate   =   -1196.83818163 Ry
     estimated scf accuracy    <       0.00000049 Ry

     The total energy is the sum of the following terms:

     one-electron contribution =   -8177.10645865 Ry
     hartree contribution      =    4078.92316366 Ry
     xc contribution           =    -220.41549174 Ry
     ewald contribution        =    3121.88395157 Ry
     electric field correction =       0.00000000 Ry
     smearing contrib. (-TS)   =      -0.12334716 Ry

     convergence has been achieved in  16 iterations

 BEEF-vdW xc energy contributions
           1 :   -188.842753141910
           2 :    171.011942351960
           3 :   -140.908660972018
           4 :    106.992325246522
           5 :   -76.9651692979136
           6 :    55.0207937954763
           7 :   -41.1444307643407
           8 :    32.4283185949002
           9 :   -25.3574744114207
          10 :    17.7413744818596
          11 :   -9.42872401342649
          12 :    1.74773517403986
          13 :    3.72686622915924
          14 :   -6.26728132837059
          15 :    6.37679853946989
          16 :   -5.38319160038657
          17 :    4.60729905655012
          18 :   -4.65740220810696
          19 :    5.25353685821176
          20 :   -5.61705162167064
          21 :    5.10929175237192
          22 :   -3.68635634631096
          23 :    1.90325826437763
          24 :  -0.519920708984273
          25 :   1.199514939764867E-002
          26 :  -0.312452032054637
          27 :   0.920269639548280
          28 :   -1.26391439288557
          29 :    1.06348954542932
          30 :  -0.466987085263327
          31 :   -21.8319074986705
          32 :   -16.2878677157341

     Forces acting on atoms (Ry/au):

     negative rho (up, down):  7.481E-01 0.000E+00
     atom    1 type  1   force =     0.00002453   -0.00002628    0.01478606
     atom    2 type  1   force =    -0.00002391   -0.00003095    0.01476210
     atom    3 type  1   force =    -0.00000310    0.00001501    0.01480493
     atom    4 type  1   force =     0.00000387    0.00004188    0.01475160
     atom    5 type  1   force =     0.00002205   -0.00000347    0.00000249
     atom    6 type  1   force =    -0.00002293    0.00000680   -0.00001932
     atom    7 type  1   force =     0.00000496   -0.00001426   -0.00000008
     atom    8 type  1   force =    -0.00000475    0.00000908   -0.00001843
     atom    9 type  1   force =    -0.00000221   -0.00003713   -0.01476115
     atom   10 type  1   force =     0.00000141   -0.00001380   -0.01477049
     atom   11 type  1   force =     0.00001938    0.00002729   -0.01477284
     atom   12 type  1   force =    -0.00001930    0.00002582   -0.01476486

     Total force =     0.029535     Total SCF correction =     0.000315

     entering subroutine stress ...

     negative rho (up, down):  7.481E-01 0.000E+00
          total   stress  (Ry/bohr**3)                   (kbar)     P=  -12.90
  -0.00008293   0.00000000  -0.00000000        -12.20      0.00     -0.00
   0.00000000  -0.00008290  -0.00000000          0.00    -12.19     -0.00
  -0.00000000  -0.00000000  -0.00009721         -0.00     -0.00    -14.30

     BFGS Geometry Optimization

     number of scf cycles    =   1
     number of bfgs steps    =   0

     energy   new            =   -1196.8381823105 Ry

     new trust radius        =       0.0147728778 bohr
     new conv_thr            =       0.0000099958 Ry

ATOMIC_POSITIONS (crystal)
Zr1      0.166666667   0.166666667   0.396150897    0   0   0
Zr1      0.666666667   0.166666667   0.396150897    0   0   0
Zr1      0.166666667   0.666666667   0.396150897    0   0   0
Zr1      0.666666667   0.666666667   0.396150897    0   0   0
Zr1      0.833333333   0.333333333   0.500000000    0   0   0
Zr1      0.333333333   0.333333333   0.500000000    0   0   0
Zr1      0.833333333   0.833333333   0.500000000    0   0   0
Zr1      0.333333333   0.833333333   0.500000000    0   0   0
Zr1      0.000001584  -0.000003533   0.603539659
Zr1      0.500000772  -0.000001313   0.603539463
Zr1      0.000000299   0.500002597   0.603539414
Zr1      0.499997181   0.500002457   0.603539581

     Writing output data file calc.save
     Check: negative starting charge=   -0.729235
     NEW-OLD atomic charge density approx. for the potential
     Check: negative starting charge=   -0.729681

[...]

     Total force =     0.028193     Total SCF correction =     0.006194
     SCF correction compared to forces is large: reduce conv_thr to get better values

[...]

     energy   old            =   -1196.8381823105 Ry
     energy   new            =   -1196.8395123184 Ry

     CASE: energy  _new < energy  _old

     WARNING: bfgs curvature condition failed, Theta= 0.838
     new trust radius        =       0.0221593166 bohr
     new conv_thr            =       0.0000001000 Ry

[...]

     Total force =     0.007184     Total SCF correction =     0.000104

[...]

     number of scf cycles    =   6
     number of bfgs steps    =   5

     energy   old            =   -1196.8442968053 Ry
     energy   new            =   -1196.8461124228 Ry

     CASE: energy  _new < energy  _old

     new trust radius        =       0.0551299383 bohr
     new conv_thr            =       0.0000001000 Ry

ATOMIC_POSITIONS (crystal)
Zr1      0.166666667   0.166666667   0.396150897    0   0   0
Zr1      0.666666667   0.166666667   0.396150897    0   0   0
Zr1      0.166666667   0.666666667   0.396150897    0   0   0
Zr1      0.666666667   0.666666667   0.396150897    0   0   0
Zr1      0.833333333   0.333333333   0.500000000    0   0   0
Zr1      0.333333333   0.333333333   0.500000000    0   0   0
Zr1      0.833333333   0.833333333   0.500000000    0   0   0
Zr1      0.333333333   0.833333333   0.500000000    0   0   0
Zr1      0.000011644  -0.000028010   0.598617342
Zr1      0.500004694  -0.000006469   0.598611793
Zr1      0.000006382   0.500019392   0.598614480
Zr1      0.499974555   0.500017393   0.598615543

     Writing output data file calc.save
     Check: negative starting charge=   -0.729253
     NEW-OLD atomic charge density approx. for the potential
     Check: negative starting charge=   -0.728916

[...]

     Self-consistent Calculation

[...]

     total energy              =   -1196.84646904 Ry
     Harris-Foulkes estimate   =   -1196.84646898 Ry
     estimated scf accuracy    <       0.00000024 Ry

     iteration # 12     ecut=    36.75 Ry     beta=0.30
     Davidson diagonalization with overlap
     ethr =  1.64E-10,  avg # of iterations =  2.2

[...]

     negative rho (up, down):  7.475E-01 0.000E+00

     Adding external electric field

     Computed dipole along edir(3) :
        Dipole                0.0039 Ry au,          0.0099 Debye
        Dipole field          0.0000 Ry au

        Potential amp.       -0.0007 Ry
        Total length         46.5096 bohr

     End of self-consistent calculation

[...]

          k = 0.0519-0.0599 0.0000 ( 22856 PWs)   bands (ev):

[...]

          k =-0.0779-0.0450 0.0000 ( 22880 PWs)   bands (ev):

   -47.8208 -47.8208 -47.7836 -47.7835 -47.7757 -47.7756 -47.7365 -47.7364
   -47.4558 -47.4557 -47.4161 -47.4159 -26.0372 -26.0372 -25.9927 -25.9927
   -25.9819 -25.9819 -25.9053 -25.9052 -25.8717 -25.8716 -25.8308 -25.8308
   -25.7865 -25.7865 -25.7665 -25.7664 -25.7328 -25.7327 -25.7190 -25.7190
   -25.5198 -25.5197 -25.5075 -25.5074 -25.4928 -25.4927 -25.3934 -25.3933
   -25.3661 -25.3659 -25.3005 -25.3004 -25.2782 -25.2781 -25.1633 -25.1631
    -2.1354  -2.1354  -1.1856  -1.1856  -0.5118  -0.5118  -0.4125  -0.4124
    -0.4016  -0.4016   0.3017   0.3017   0.3784   0.3785   0.4214   0.4215
     0.8012   0.8012   0.8221   0.8222   0.9504   0.9505   1.2167   1.2169
     1.2347   1.2348   1.4611   1.4611   1.4958   1.4960   1.7031   1.7033
     2.0475   2.0476

     the Fermi energy is     1.4051 ev

!    total energy              =   -1196.84646906 Ry
     Harris-Foulkes estimate   =   -1196.84646906 Ry
     estimated scf accuracy    <       0.00000005 Ry

     The total energy is the sum of the following terms:

     one-electron contribution =   -8333.29549434 Ry
     hartree contribution      =    4157.15639888 Ry
     xc contribution           =    -220.60964739 Ry
     ewald contribution        =    3200.02008603 Ry
     electric field correction =       0.00000003 Ry
     smearing contrib. (-TS)   =      -0.11781227 Ry

     convergence has been achieved in  12 iterations

 BEEF-vdW xc energy contributions
           1 :   -189.051574798306
           2 :    171.282230465828
           3 :   -141.240816914862
           4 :    107.313660429616
           5 :   -77.1763019026844
           6 :    55.0646826665072
           7 :   -41.0475999260462
           8 :    32.2872847561015
           9 :   -25.2817311021630
          10 :    17.7898380380093
          11 :   -9.57681084769621
          12 :    1.90310049632347
          13 :    3.66829186543347
          14 :   -6.35596519996687
          15 :    6.57466133068974
          16 :   -5.58422125555703
          17 :    4.70453877320043
          18 :   -4.61371804638497
          19 :    5.12677638653057
          20 :   -5.52024427252027
          21 :    5.13322580432484
          22 :   -3.83872676275919
          23 :    2.10568149796669
          24 :  -0.662376766011533
          25 :   2.547966110898869E-002
          26 :  -0.211517129625122
          27 :   0.790210679079081
          28 :   -1.20391611430071
          29 :    1.12310394921158
          30 :  -0.615829973958682
          31 :   -21.8482327596616
          32 :   -16.3157283383489

     Forces acting on atoms (Ry/au):

     negative rho (up, down):  7.475E-01 0.000E+00
     atom    1 type  1   force =    -0.00000308    0.00000095    0.01197615
     atom    2 type  1   force =     0.00000255    0.00000218    0.01197061
     atom    3 type  1   force =     0.00000129   -0.00000035    0.01197252
     atom    4 type  1   force =    -0.00000107   -0.00000320    0.01197447
     atom    5 type  1   force =    -0.00000666   -0.00000486   -0.01241450
     atom    6 type  1   force =     0.00000668   -0.00000426   -0.01243661
     atom    7 type  1   force =     0.00000082    0.00000822   -0.01244352
     atom    8 type  1   force =    -0.00000041    0.00000133   -0.01243456
     atom    9 type  1   force =     0.00000124    0.00002166    0.00045031
     atom   10 type  1   force =    -0.00000137    0.00000619    0.00047052
     atom   11 type  1   force =    -0.00001403   -0.00001442    0.00046373
     atom   12 type  1   force =     0.00001404   -0.00001344    0.00045086

     Total force =     0.000919     Total SCF correction =     0.000404
     SCF correction compared to forces is large: reduce conv_thr to get better values

     entering subroutine stress ...

     negative rho (up, down):  7.475E-01 0.000E+00
          total   stress  (Ry/bohr**3)                   (kbar)     P=   -7.43
  -0.00005672  -0.00000001  -0.00000000         -8.34     -0.00     -0.00
  -0.00000001  -0.00005672   0.00000000         -0.00     -8.34      0.00
  -0.00000000   0.00000000  -0.00003818         -0.00      0.00     -5.62

     bfgs converged in   7 scf cycles and   6 bfgs steps
     (criteria: energy <  1.0E+00, force <  1.9E-03)

     End of BFGS Geometry Optimization

     Final energy   =   -1196.8464690632 Ry
Begin final coordinates

ATOMIC_POSITIONS (crystal)
Zr1      0.166666667   0.166666667   0.396150897    0   0   0
Zr1      0.666666667   0.166666667   0.396150897    0   0   0
Zr1      0.166666667   0.666666667   0.396150897    0   0   0
Zr1      0.666666667   0.666666667   0.396150897    0   0   0
Zr1      0.833333333   0.333333333   0.500000000    0   0   0
Zr1      0.333333333   0.333333333   0.500000000    0   0   0
Zr1      0.833333333   0.833333333   0.500000000    0   0   0
Zr1      0.333333333   0.833333333   0.500000000    0   0   0
Zr1      0.000011644  -0.000028010   0.598617342
Zr1      0.500004694  -0.000006469   0.598611793
Zr1      0.000006382   0.500019392   0.598614480
Zr1      0.499974555   0.500017393   0.598615543
End final coordinates

     Writing output data file calc.save

     General routines

     Parallel routines

   This run was terminated on:  16:12:13  30Apr2018

   JOB DONE.
Job  /afs/slac/g/suncat/bin/suncat-tsmpirun -x LD_LIBRARY_PATH -wdir /scratch/qe490935_x030S pw.x -npool 4 -in pw.inp

TID   HOST_NAME   COMMAND_LINE            STATUS            TERMINATION_TIME
00000 suncat0083 pw.x -npool 4 -i  Done                     04/30/2018 16:12:13
00001 suncat0083 pw.x -npool 4 -i  Done                     04/30/2018 16:12:13
00002 suncat0083 pw.x -npool 4 -i  Done                     04/30/2018 16:12:13
00003 suncat0083 pw.x -npool 4 -i  Done                     04/30/2018 16:12:13
00004 suncat0083 pw.x -npool 4 -i  Done                     04/30/2018 16:12:13
00005 suncat0083 pw.x -npool 4 -i  Done                     04/30/2018 16:12:13
00006 suncat0083 pw.x -npool 4 -i  Done                     04/30/2018 16:12:13
00007 suncat0083 pw.x -npool 4 -i  Done                     04/30/2018 16:12:13
00008 suncat0065 pw.x -npool 4 -i  Done                     04/30/2018 16:12:13
00009 suncat0065 pw.x -npool 4 -i  Done                     04/30/2018 16:12:13
00010 suncat0065 pw.x -npool 4 -i  Done                     04/30/2018 16:12:13
00011 suncat0065 pw.x -npool 4 -i  Done                     04/30/2018 16:12:13
00012 suncat0065 pw.x -npool 4 -i  Done                     04/30/2018 16:12:13
00013 suncat0065 pw.x -npool 4 -i  Done                     04/30/2018 16:12:13
00014 suncat0065 pw.x -npool 4 -i  Done                     04/30/2018 16:12:13
00015 suncat0065 pw.x -npool 4 -i  Done                     04/30/2018 16:12:13
00016 suncat0114 pw.x -npool 4 -i  Done                     04/30/2018 16:12:13
00017 suncat0114 pw.x -npool 4 -i  Done                     04/30/2018 16:12:13
00018 suncat0114 pw.x -npool 4 -i  Done                     04/30/2018 16:12:13
00019 suncat0114 pw.x -npool 4 -i  Done                     04/30/2018 16:12:13
00020 suncat0114 pw.x -npool 4 -i  Done                     04/30/2018 16:12:13
00021 suncat0114 pw.x -npool 4 -i  Done                     04/30/2018 16:12:13
00022 suncat0114 pw.x -npool 4 -i  Done                     04/30/2018 16:12:13
00023 suncat0114 pw.x -npool 4 -i  Done                     04/30/2018 16:12:13
00024 suncat0225 pw.x -npool 4 -i  Done                     04/30/2018 16:12:13
00025 suncat0225 pw.x -npool 4 -i  Done                     04/30/2018 16:12:13
00026 suncat0225 pw.x -npool 4 -i  Done                     04/30/2018 16:12:13
00027 suncat0225 pw.x -npool 4 -i  Done                     04/30/2018 16:12:13
00028 suncat0225 pw.x -npool 4 -i  Done                     04/30/2018 16:12:13
00029 suncat0225 pw.x -npool 4 -i  Done                     04/30/2018 16:12:13
00030 suncat0225 pw.x -npool 4 -i  Done                     04/30/2018 16:12:13
00031 suncat0225 pw.x -npool 4 -i  Done                     04/30/2018 16:12:13