     Program PWSCF v.5.1rc2 (svn rev. 11289) starts on 30Apr2018 at 15:14:27

     Current dimensions of program PWSCF are:
     Max number of different atomic species (ntypx) = 10
     Max number of k-points (npk) =  40000
     Max angular momentum in pseudopotentials (lmaxx) =  3
     Presently stress not available with electric field

     IMPORTANT: XC functional enforced from input :
     Exchange-correlation      = BEEF-VDW ( 1  4 27 13 2)
     Any further DFT definition will be discarded
     Please, verify this is what you really want

     Subspace diagonalization in iterative solution of the eigenvalue problem:
     a serial algorithm will be used

     Found symmetry operation: I + ( -0.5000  0.0000  0.0000)
     This is a supercell, fractional translations are disabled

     bravais-lattice index     =            0
     lattice parameter (alat)  =       1.8897  a.u.
     unit-cell volume          =    4301.6107 (a.u.)^3
     number of atoms/cell      =           12
     number of atomic types    =            1
     number of electrons       =       180.00
     number of Kohn-Sham states=          100
     kinetic-energy cutoff     =      36.7493  Ry
     charge density cutoff     =     367.4932  Ry
     convergence threshold     =      1.0E-05
     mixing beta               =       0.3000
     number of iterations used =           10  plain     mixing
     Exchange-correlation      = BEEF-VDW ( 1  4 27 13 2)
     nstep                     =           50

     celldm(1)=   1.889726  celldm(2)=   0.000000  celldm(3)=   0.000000
     celldm(4)=   0.000000  celldm(5)=   0.000000  celldm(6)=   0.000000

     crystal axes: (cart. coord. in units of alat)
               a(1) = (   5.483647   0.000000   0.000000 )
               a(2) = (   2.741823   4.748977   0.000000 )
               a(3) = (   0.000000   0.000000  24.477379 )

     reciprocal axes: (cart. coord. in units 2 pi/alat)
               b(1) = (  0.182360 -0.105286  0.000000 )
               b(2) = (  0.000000  0.210572  0.000000 )
               b(3) = (  0.000000  0.000000  0.040854 )

     PseudoPot. # 1 for Tc read from file:
     /u/if/mamunm/psp/gbrv1.5pbe/Tc.UPF
     MD5 check sum: 9eb49e5b028550b2339a02317eb7b844
     Pseudo is Ultrasoft + core correction, Zval = 15.0
     Generated by new atomic code, or converted to UPF format
     Using radial grid of  965 points,  6 beta functions with:
                l(1) =   0
                l(2) =   0
                l(3) =   1
                l(4) =   1
                l(5) =   2
                l(6) =   2
     Q(r) pseudized with  8 coefficients,  rinner =    1.300   1.300   1.300
                                                       1.300   1.300

     vdW kernel table read from file vdW_kernel_table
     MD5 check sum: 095c7af220d748ca6e76c0b4c6cfb241

     atomic species   valence    mass     pseudopotential
        Tc1           15.00    97.90721     Tc( 1.00)

     No symmetry found

   Cartesian axes

     site n.     atom                  positions (alat units)
         1           Tc1 tau(   1) = (   1.3709117   0.7914962  10.0000000  )
         2           Tc1 tau(   2) = (   4.1127351   0.7914962  10.0000000  )
         3           Tc1 tau(   3) = (   2.7418234   3.1659850  10.0000000  )
         4           Tc1 tau(   4) = (   5.4836469   3.1659850  10.0000000  )
         5           Tc1 tau(   5) = (   5.4836469   1.5829925  12.2386895  )
         6           Tc1 tau(   6) = (   2.7418234   1.5829925  12.2386895  )
         7           Tc1 tau(   7) = (   6.8545586   3.9574812  12.2386895  )
         8           Tc1 tau(   8) = (   4.1127351   3.9574812  12.2386895  )
         9           Tc1 tau(   9) = (   0.0000000   0.0000000  14.4773789  )
        10           Tc1 tau(  10) = (   2.7418234   0.0000000  14.4773789  )
        11           Tc1 tau(  11) = (   1.3709117   2.3744887  14.4773789  )
        12           Tc1 tau(  12) = (   4.1127351   2.3744887  14.4773789  )

     number of k points=    20  Fermi-Dirac smearing, width (Ry)=  0.0110
                       cart. coord. in units 2pi/alat
        k(    1) = (   0.0000000   0.0000000   0.0000000), wk =   0.0555556
        k(    2) = (   0.0000000   0.0350953   0.0000000), wk =   0.1111111
        k(    3) = (   0.0000000   0.0701905   0.0000000), wk =   0.1111111
        k(    4) = (   0.0000000  -0.1052858   0.0000000), wk =   0.0555556
        k(    5) = (   0.0303934  -0.0175476   0.0000000), wk =   0.1111111
        k(    6) = (   0.0303934   0.0175476   0.0000000), wk =   0.1111111
        k(    7) = (   0.0303934   0.0526429   0.0000000), wk =   0.1111111
        k(    8) = (   0.0303934  -0.1228335   0.0000000), wk =   0.1111111
        k(    9) = (   0.0303934  -0.0877382   0.0000000), wk =   0.1111111
        k(   10) = (   0.0303934  -0.0526429   0.0000000), wk =   0.1111111
        k(   11) = (   0.0607868  -0.0350953   0.0000000), wk =   0.1111111
        k(   12) = (   0.0607868   0.0000000   0.0000000), wk =   0.1111111
        k(   13) = (   0.0607868   0.0350953   0.0000000), wk =   0.1111111
        k(   14) = (   0.0607868  -0.1403811   0.0000000), wk =   0.1111111
        k(   15) = (   0.0607868  -0.1052858   0.0000000), wk =   0.1111111
        k(   16) = (   0.0607868  -0.0701905   0.0000000), wk =   0.1111111
        k(   17) = (  -0.0911802   0.0526429   0.0000000), wk =   0.0555556
        k(   18) = (  -0.0911802   0.0877382   0.0000000), wk =   0.1111111
        k(   19) = (  -0.0911802   0.1228335   0.0000000), wk =   0.1111111
        k(   20) = (  -0.0911802  -0.0526429   0.0000000), wk =   0.0555556

     Largest allocated arrays     est. size (Mb)     dimensions
     Largest temporary arrays     est. size (Mb)     dimensions

     Check: negative/imaginary core charge=   -0.000022    0.000000

     Initial potential from superposition of free atoms
     Check: negative starting charge=   -1.505207

     starting charge  167.99967, renormalised to  180.00000

     negative rho (up, down):  1.613E+00 0.000E+00

     *
     * You are using vdW-DF for exchange-correlation in this calculation.
     * Please cite the following three references that made this development
     * possible:
     *
     *   M. Dion, H. Rydberg, E. Schroder, D. C. Langreth, and
     *   B. I. Lundqvist, Phys. Rev. Lett. 92, 246401 (2004).
     *
     *   T. Thonhauser, V. R. Cooper, S. Li, A. Puzder, P. Hyldgaard, and
     *   D. C. Langreth, Phys. Rev. B 76, 125112 (2007).
     *
     *   G. Roman-Perez and J. M. Soler, Phys. Rev. Lett. 103, 096102 (2009).
     *
     *
     * If you are using vdW-DF2, please also cite:
     *
     *   K. Lee, E. D. Murray, L. Kong, B. I. Lundqvist, and
     *   D. C. Langreth, Phys. Rev. B 82, 081101(R) (2010).
     *
     *
     * If you are calculating the stress with vdW-DF, please also cite:
     *
     *   R. Sabatini, E. Kucukbenli, B. Kolb, T. Thonhauser, and
     *   S. de Gironcoli, J. Phys.: Condens. Matter 24, 424209 (2012).
     *

     Carrying out vdW-DF run using the following parameters:

     Nqs =      20    Nr_points =    1024   r_max =   100.000
     q_mesh =
               0.00001000     0.04494208     0.09755937     0.15916263
               0.23128650     0.31572767     0.41458969     0.53033537
               0.66584808     0.82450364     1.01025438     1.22772762
               1.48234092     1.78043706     2.12944203     2.53805004
               3.01644009     3.57652955     4.23227104     5.00000000

     Gradients computed in reciprocal space

     Adding external electric field

     Computed dipole along edir(3) :
        Dipole                0.0000 Ry au,          0.0000 Debye
        Dipole field          0.0000 Ry au

        Potential amp.       -0.0000 Ry
        Total length         45.0992 bohr

     Starting wfc are  156 randomized atomic wfcs

     Self-consistent Calculation

     iteration #  1     ecut=    36.75 Ry     beta=0.30
     Davidson diagonalization with overlap
     ethr =  1.00E-02,  avg # of iterations =  2.5

[...]

     total energy              =   -2101.62208354 Ry
     Harris-Foulkes estimate   =   -2108.15182377 Ry
     estimated scf accuracy    <      15.76039486 Ry

[...]

     End of self-consistent calculation

          k = 0.0000 0.0000 0.0000 ( 16073 PWs)   bands (ev):

   -64.9108 -64.7594 -64.7588 -64.7587 -64.6568 -64.6364 -64.5239 -64.5232
   -64.5231 -64.5214 -64.5208 -64.5207 -37.3386 -37.3386 -37.3384 -37.2237
   -37.1449 -37.1447 -37.1445 -37.0055 -37.0055 -37.0051 -36.7008 -36.6776
   -36.6774 -36.6773 -36.6129 -36.6128 -36.6125 -36.5707 -36.5700 -36.5699
   -36.4378 -36.4373 -36.4372 -36.3824 -36.3823 -36.3706 -36.3308 -36.3308
   -36.3305 -36.2989 -36.2989 -36.2987 -36.1211 -36.1211 -36.1092 -36.1091
    -4.1217  -2.8251  -2.8250  -2.8249  -2.7286  -2.7018  -2.3828  -2.3828
    -2.3827  -2.1837  -2.1836  -2.1835  -1.8318  -1.8318  -1.8317  -0.6609
    -0.6609  -0.6607   0.1475   0.1475   0.1475   0.4101   0.5000   0.6965
     0.6965   1.0351   1.0351   1.0985   1.0986   1.0987   1.2846   1.2846
     1.6507   1.6511   1.6512   2.1403   2.7514   2.7515   2.7517   2.7964
     2.7966   2.7967   3.1007   3.1007   3.3725   3.5973   3.5973   4.1382
     4.1385   4.1386   4.4286   4.4287

[...]

          k =-0.0912 0.0526 0.0000 ( 16164 PWs)   bands (ev):

[...]

     the Fermi energy is     2.3844 ev

!    total energy              =   -2103.31601737 Ry
     Harris-Foulkes estimate   =   -2103.31601940 Ry
     estimated scf accuracy    <       0.00000254 Ry

     The total energy is the sum of the following terms:

     one-electron contribution =  -18553.83705000 Ry
     hartree contribution      =    9275.14385821 Ry
     xc contribution           =    -396.87418100 Ry
     ewald contribution        =    7572.34563783 Ry
     electric field correction =       0.00000000 Ry
     smearing contrib. (-TS)   =      -0.09428242 Ry

     convergence has been achieved in  18 iterations

 BEEF-vdW xc energy contributions
           1 :   -347.826123354851
           2 :    319.861244341095
           3 :   -270.082345571270
           4 :    208.457089515793
           5 :   -145.678751539606
           6 :    90.1655221736963
           7 :   -46.3879040882816
           8 :    14.7710280629663
           9 :    7.02284870964945
          10 :   -22.2500735311328
          11 :    33.4352098027198
          12 :   -41.5416680349422
          13 :    46.0530065456786
          14 :   -45.7768779585010
          15 :    39.8787197869554
          16 :   -28.6864370739039
          17 :    13.9228253611566
          18 :    1.68059945216612
          19 :   -15.2002896866502
          20 :    24.3937133295991
          21 :   -28.2790109006799
          22 :    27.2050463108495
          23 :   -22.4542198662681
          24 :    15.6075792309528
          25 :   -7.98688806626444
          26 :   0.390595230354961
          27 :    6.82336694976436
          28 :   -13.4425461603861
          29 :    19.1040634275805
          30 :   -23.1829920944872
          31 :   -33.0172670750109
          32 :   -24.2250595644335

     Forces acting on atoms (Ry/au):

     negative rho (up, down):  1.587E+00 0.000E+00
     atom    1 type  1   force =     0.00004258    0.00001546    0.02809011
     atom    2 type  1   force =    -0.00004019   -0.00000042    0.02816472
     atom    3 type  1   force =    -0.00001172   -0.00003283    0.02818143
     atom    4 type  1   force =     0.00001060    0.00001638    0.02809160
     atom    5 type  1   force =     0.00002943    0.00000405    0.00004264
     atom    6 type  1   force =    -0.00003123   -0.00001485    0.00007847
     atom    7 type  1   force =    -0.00001353   -0.00001356    0.00006259
     atom    8 type  1   force =     0.00001107    0.00002107    0.00001524
     atom    9 type  1   force =    -0.00002401   -0.00001916   -0.02815469
     atom   10 type  1   force =     0.00002261    0.00003258   -0.02821204
     atom   11 type  1   force =     0.00004911    0.00001221   -0.02821532
     atom   12 type  1   force =    -0.00004473   -0.00002093   -0.02814474

     Total force =     0.056363     Total SCF correction =     0.004082

     entering subroutine stress ...

     negative rho (up, down):  1.587E+00 0.000E+00
          total   stress  (Ry/bohr**3)                   (kbar)     P=  -35.83
  -0.00024845  -0.00000000  -0.00000001        -36.55     -0.00     -0.00
  -0.00000000  -0.00024847   0.00000000         -0.00    -36.55      0.00
  -0.00000001   0.00000000  -0.00023384         -0.00      0.00    -34.40

     BFGS Geometry Optimization

     number of scf cycles    =   1
     number of bfgs steps    =   0

     energy   new            =   -2103.3160173728 Ry

     new trust radius        =       0.0282153624 bohr
     new conv_thr            =       0.0000099958 Ry

ATOMIC_POSITIONS (crystal)
Tc1      0.166666667   0.166666667   0.408540475    0   0   0
Tc1      0.666666667   0.166666667   0.408540475    0   0   0
Tc1      0.166666667   0.666666667   0.408540475    0   0   0
Tc1      0.666666667   0.666666667   0.408540475    0   0   0
Tc1      0.833333333   0.333333333   0.500000000    0   0   0
Tc1      0.333333333   0.333333333   0.500000000    0   0   0
Tc1      0.833333333   0.833333333   0.500000000    0   0   0
Tc1      0.333333333   0.833333333   0.500000000    0   0   0
Tc1     -0.000001250  -0.000002135   0.590850848
Tc1      0.500000367   0.000003630   0.590849608
Tc1      0.000004059   0.500001360   0.590849537
Tc1      0.499996850   0.499997668   0.590851063

     Writing output data file calc.save
     Check: negative starting charge=   -1.505207
     NEW-OLD atomic charge density approx. for the potential

     Check: negative/imaginary core charge=   -0.000022    0.000000
     Check: negative starting charge=   -1.509892

[...]

     Total force =     0.048756     Total SCF correction =     0.011606
     SCF correction compared to forces is large: reduce conv_thr to get better values

[...]

     energy   old            =   -2103.3160173728 Ry
     energy   new            =   -2103.3190075191 Ry

     CASE: energy  _new < energy  _old

     WARNING: bfgs curvature condition failed, Theta= 0.925
     new trust radius        =       0.0423230437 bohr
     new conv_thr            =       0.0000001000 Ry

[...]

     iteration #  7     ecut=    36.75 Ry     beta=0.30
     Davidson diagonalization with overlap
     c_bands:  1 eigenvalues not converged
     ethr =  1.12E-05,  avg # of iterations =  5.7

[...]

     Total force =     0.023936     Total SCF correction =     0.000208

[...]

     number of scf cycles    =   5
     number of bfgs steps    =   4

     energy   old            =   -2103.3270669215 Ry
     energy   new            =   -2103.3287668238 Ry

     CASE: energy  _new < energy  _old

     new trust radius        =       0.0183841632 bohr
     new conv_thr            =       0.0000001000 Ry

ATOMIC_POSITIONS (crystal)
Tc1      0.166666667   0.166666667   0.408540475    0   0   0
Tc1      0.666666667   0.166666667   0.408540475    0   0   0
Tc1      0.166666667   0.666666667   0.408540475    0   0   0
Tc1      0.666666667   0.666666667   0.408540475    0   0   0
Tc1      0.833333333   0.333333333   0.500000000    0   0   0
Tc1      0.333333333   0.333333333   0.500000000    0   0   0
Tc1      0.833333333   0.833333333   0.500000000    0   0   0
Tc1      0.333333333   0.833333333   0.500000000    0   0   0
Tc1      0.000002098   0.000002275   0.586994122
Tc1      0.499997423   0.000000555   0.586992127
Tc1      0.000001270   0.499998311   0.586993043
Tc1      0.499998287   0.499998493   0.586993590

     Writing output data file calc.save
     Check: negative starting charge=   -1.513747
     NEW-OLD atomic charge density approx. for the potential

     Check: negative/imaginary core charge=   -0.000022    0.000000
     Check: negative starting charge=   -1.513900

[...]

     Self-consistent Calculation

[...]

     total energy              =   -2103.32887835 Ry
     Harris-Foulkes estimate   =   -2103.32887836 Ry
     estimated scf accuracy    <       0.00000028 Ry

     iteration # 17     ecut=    36.75 Ry     beta=0.30
     Davidson diagonalization with overlap
     ethr =  5.87E-11,  avg # of iterations =  3.8

[...]

     negative rho (up, down):  1.597E+00 0.000E+00

     Adding external electric field

     Computed dipole along edir(3) :
        Dipole                0.0400 Ry au,          0.1016 Debye
        Dipole field          0.0001 Ry au

        Potential amp.       -0.0105 Ry
        Total length         45.0992 bohr

     End of self-consistent calculation

[...]

          k = 0.0608-0.0702 0.0000 ( 16203 PWs)   bands (ev):

[...]

          k =-0.0912-0.0526 0.0000 ( 16164 PWs)   bands (ev):

   -64.8342 -64.8342 -64.7535 -64.7534 -64.5858 -64.5857 -64.5279 -64.5278
   -64.5223 -64.5223 -64.4698 -64.4698 -37.2014 -37.2013 -37.1467 -37.1467
   -37.0735 -37.0734 -36.9501 -36.9501 -36.8833 -36.8833 -36.8272 -36.8272
   -36.5852 -36.5851 -36.5758 -36.5758 -36.5650 -36.5650 -36.5274 -36.5274
   -36.5116 -36.5116 -36.5043 -36.5043 -36.4724 -36.4724 -36.4272 -36.4272
   -36.3366 -36.3366 -36.2841 -36.2840 -36.2193 -36.2193 -36.1651 -36.1650
    -2.5988  -2.5988  -1.9561  -1.9560  -1.9262  -1.9262  -1.6337  -1.6337
    -1.4066  -1.4066  -1.2474  -1.2473  -0.9541  -0.9540  -0.8741  -0.8741
    -0.4207  -0.4207  -0.2420  -0.2419  -0.0435  -0.0435   0.4806   0.4807
     0.7373   0.7373   0.8565   0.8565   1.0131   1.0131   1.0691   1.0691
     1.1674   1.1674   1.2819   1.2819   1.3305   1.3306   1.3969   1.3970
     2.1820   2.1821   2.3294   2.3294   2.4533   2.4533   2.8366   2.8366
     3.0083   3.0084   3.1328   3.1328

     the Fermi energy is     2.4050 ev

!    total energy              =   -2103.32887835 Ry
     Harris-Foulkes estimate   =   -2103.32887848 Ry
     estimated scf accuracy    <       0.00000001 Ry

     The total energy is the sum of the following terms:

     one-electron contribution =  -18845.11693517 Ry
     hartree contribution      =    9420.84293182 Ry
     xc contribution           =    -397.13946840 Ry
     ewald contribution        =    7718.17689451 Ry
     electric field correction =       0.00000466 Ry
     smearing contrib. (-TS)   =      -0.09230577 Ry

     convergence has been achieved in  17 iterations

 BEEF-vdW xc energy contributions
           1 :   -348.096558662601
           2 :    320.228617113835
           3 :   -270.582878320282
           4 :    209.036556294729
           5 :   -146.210852493407
           6 :    90.5126399929631
           7 :   -46.4713447168534
           8 :    14.6170273360896
           9 :    7.28617096289997
          10 :   -22.4504085516365
          11 :    33.4402860280416
          12 :   -41.3215459025064
          13 :    45.6938369379005
          14 :   -45.4387386813510
          15 :    39.7166545816029
          16 :   -28.7762506930892
          17 :    14.2242235180240
          18 :    1.30456034028555
          19 :   -14.9192072307438
          20 :    24.3284801562814
          21 :   -28.4432676538404
          22 :    27.4999364992545
          23 :   -22.7191684048435
          24 :    15.7003186646348
          25 :   -7.85240428406041
          26 :   8.663481206383494E-002
          27 :    7.15564309220809
          28 :   -13.6481218307456
          29 :    19.0894929383454
          30 :   -22.9593811895577
          31 :   -33.0351585749213
          32 :   -24.2652160892690

     Forces acting on atoms (Ry/au):

     negative rho (up, down):  1.597E+00 0.000E+00
     atom    1 type  1   force =     0.00000390   -0.00000354    0.01574817
     atom    2 type  1   force =    -0.00000407   -0.00000287    0.01574358
     atom    3 type  1   force =     0.00000044    0.00000064    0.01575317
     atom    4 type  1   force =    -0.00000035    0.00000580    0.01574796
     atom    5 type  1   force =    -0.00000174    0.00000274   -0.01570279
     atom    6 type  1   force =     0.00000118    0.00000224   -0.01570580
     atom    7 type  1   force =     0.00000040   -0.00000144   -0.01570830
     atom    8 type  1   force =    -0.00000036   -0.00000370   -0.01570619
     atom    9 type  1   force =    -0.00000605   -0.00000866   -0.00005009
     atom   10 type  1   force =     0.00000545   -0.00000495   -0.00003648
     atom   11 type  1   force =     0.00000153    0.00000912   -0.00003741
     atom   12 type  1   force =    -0.00000031    0.00000461   -0.00004581

     Total force =     0.000087     Total SCF correction =     0.000132
     SCF correction compared to forces is large: reduce conv_thr to get better values

     entering subroutine stress ...

     negative rho (up, down):  1.597E+00 0.000E+00
          total   stress  (Ry/bohr**3)                   (kbar)     P=  -22.44
  -0.00018869  -0.00000000   0.00000000        -27.76     -0.00      0.00
  -0.00000000  -0.00018869  -0.00000000         -0.00    -27.76     -0.00
   0.00000000  -0.00000000  -0.00008024          0.00     -0.00    -11.80

     bfgs converged in   6 scf cycles and   5 bfgs steps
     (criteria: energy <  1.0E+00, force <  1.9E-03)

     End of BFGS Geometry Optimization

     Final energy   =   -2103.3288783530 Ry
Begin final coordinates

ATOMIC_POSITIONS (crystal)
Tc1      0.166666667   0.166666667   0.408540475    0   0   0
Tc1      0.666666667   0.166666667   0.408540475    0   0   0
Tc1      0.166666667   0.666666667   0.408540475    0   0   0
Tc1      0.666666667   0.666666667   0.408540475    0   0   0
Tc1      0.833333333   0.333333333   0.500000000    0   0   0
Tc1      0.333333333   0.333333333   0.500000000    0   0   0
Tc1      0.833333333   0.833333333   0.500000000    0   0   0
Tc1      0.333333333   0.833333333   0.500000000    0   0   0
Tc1      0.000002098   0.000002275   0.586994122
Tc1      0.499997423   0.000000555   0.586992127
Tc1      0.000001270   0.499998311   0.586993043
Tc1      0.499998287   0.499998493   0.586993590
End final coordinates

     Writing output data file calc.save

     General routines

     Parallel routines

   This run was terminated on:  16: 0:28  30Apr2018

   JOB DONE.
Job  /afs/slac/g/suncat/bin/suncat-tsmpirun -x LD_LIBRARY_PATH -wdir /scratch/qe489280_VYr4V pw.x -npool 4 -in pw.inp

TID   HOST_NAME   COMMAND_LINE            STATUS            TERMINATION_TIME
00000 suncat0054 pw.x -npool 4 -i  Done                     04/30/2018 16:00:28
00001 suncat0054 pw.x -npool 4 -i  Done                     04/30/2018 16:00:28
00002 suncat0054 pw.x -npool 4 -i  Done                     04/30/2018 16:00:28
00003 suncat0054 pw.x -npool 4 -i  Done                     04/30/2018 16:00:28
00004 suncat0054 pw.x -npool 4 -i  Done                     04/30/2018 16:00:28
00005 suncat0054 pw.x -npool 4 -i  Done                     04/30/2018 16:00:28
00006 suncat0054 pw.x -npool 4 -i  Done                     04/30/2018 16:00:28
00007 suncat0054 pw.x -npool 4 -i  Done                     04/30/2018 16:00:28
00008 suncat0013 pw.x -npool 4 -i  Done                     04/30/2018 16:00:28
00009 suncat0013 pw.x -npool 4 -i  Done                     04/30/2018 16:00:28
00010 suncat0013 pw.x -npool 4 -i  Done                     04/30/2018 16:00:28
00011 suncat0013 pw.x -npool 4 -i  Done                     04/30/2018 16:00:28
00012 suncat0013 pw.x -npool 4 -i  Done                     04/30/2018 16:00:28
00013 suncat0013 pw.x -npool 4 -i  Done                     04/30/2018 16:00:28
00014 suncat0013 pw.x -npool 4 -i  Done                     04/30/2018 16:00:28
00015 suncat0013 pw.x -npool 4 -i  Done                     04/30/2018 16:00:28
00016 suncat0186 pw.x -npool 4 -i  Done                     04/30/2018 16:00:28
00017 suncat0186 pw.x -npool 4 -i  Done                     04/30/2018 16:00:28
00018 suncat0186 pw.x -npool 4 -i  Done                     04/30/2018 16:00:28
00019 suncat0186 pw.x -npool 4 -i  Done                     04/30/2018 16:00:28
00020 suncat0186 pw.x -npool 4 -i  Done                     04/30/2018 16:00:28
00021 suncat0186 pw.x -npool 4 -i  Done                     04/30/2018 16:00:28
00022 suncat0186 pw.x -npool 4 -i  Done                     04/30/2018 16:00:28
00023 suncat0186 pw.x -npool 4 -i  Done                     04/30/2018 16:00:28
00024 suncat0161 pw.x -npool 4 -i  Done                     04/30/2018 16:00:28
00025 suncat0161 pw.x -npool 4 -i  Done                     04/30/2018 16:00:28
00026 suncat0161 pw.x -npool 4 -i  Done                     04/30/2018 16:00:28
00027 suncat0161 pw.x -npool 4 -i  Done                     04/30/2018 16:00:28
00028 suncat0161 pw.x -npool 4 -i  Done                     04/30/2018 16:00:28
00029 suncat0161 pw.x -npool 4 -i  Done                     04/30/2018 16:00:28
00030 suncat0161 pw.x -npool 4 -i  Done                     04/30/2018 16:00:28
00031 suncat0161 pw.x -npool 4 -i  Done                     04/30/2018 16:00:28