     Program PWSCF v.5.1rc2 (svn rev. 11289) starts on 30Apr2018 at 15:26:31

     Current dimensions of program PWSCF are:
     Max number of different atomic species (ntypx) = 10
     Max number of k-points (npk) =  40000
     Max angular momentum in pseudopotentials (lmaxx) =  3
     Presently stress not available with electric field

     IMPORTANT: XC functional enforced from input :
     Exchange-correlation      = BEEF-VDW ( 1  4 27 13 2)
     Any further DFT definition will be discarded
     Please, verify this is what you really want

     Subspace diagonalization in iterative solution of the eigenvalue problem:
     a serial algorithm will be used

     Found symmetry operation: I + (  0.5000  0.0000  0.0000)
     This is a supercell, fractional translations are disabled

     bravais-lattice index     =            0
     lattice parameter (alat)  =       1.8897  a.u.
     unit-cell volume          =    4515.4205 (a.u.)^3
     number of atoms/cell      =           12
     number of atomic types    =            1
     number of electrons       =       240.00
     number of Kohn-Sham states=          130
     kinetic-energy cutoff     =      36.7493  Ry
     charge density cutoff     =     367.4932  Ry
     convergence threshold     =      1.0E-05
     mixing beta               =       0.3000
     number of iterations used =           10  plain     mixing
     Exchange-correlation      = BEEF-VDW ( 1  4 27 13 2)
     nstep                     =           50

     celldm(1)=   1.889726  celldm(2)=   0.000000  celldm(3)=   0.000000
     celldm(4)=   0.000000  celldm(5)=   0.000000  celldm(6)=   0.000000

     crystal axes: (cart. coord. in units of alat)
               a(1) = (   5.606773   0.000000   0.000000 )
               a(2) = (   2.803387   4.855608   0.000000 )
               a(3) = (   0.000000   0.000000  24.577911 )

     reciprocal axes: (cart. coord. in units 2 pi/alat)
               b(1) = (  0.178356 -0.102974  0.000000 )
               b(2) = (  0.000000  0.205947  0.000000 )
               b(3) = (  0.000000  0.000000  0.040687 )

     PseudoPot. # 1 for Zn read from file:
     /u/if/mamunm/psp/gbrv1.5pbe/Zn.UPF
     MD5 check sum: df62231357ef9e81f77b2b3087fa5675
     Pseudo is Ultrasoft, Zval = 20.0
     Generated by new atomic code, or converted to UPF format
     Using radial grid of  943 points,  6 beta functions with:
                l(1) =   0
                l(2) =   0
                l(3) =   1
                l(4) =   1
                l(5) =   2
                l(6) =   2
     Q(r) pseudized with  8 coefficients,  rinner =    1.100   1.100   1.100
                                                       1.100   1.100

     vdW kernel table read from file vdW_kernel_table
     MD5 check sum: 095c7af220d748ca6e76c0b4c6cfb241

     atomic species   valence    mass     pseudopotential
        Zn1           20.00    65.38000     Zn( 1.00)

     No symmetry found

   Cartesian axes

     site n.     atom                  positions (alat units)
         1           Zn1 tau(   1) = (   1.4016933   0.8092680  10.0000000  )
         2           Zn1 tau(   2) = (   4.2050800   0.8092680  10.0000000  )
         3           Zn1 tau(   3) = (   2.8033867   3.2370721  10.0000000  )
         4           Zn1 tau(   4) = (   5.6067733   3.2370721  10.0000000  )
         5           Zn1 tau(   5) = (   5.6067733   1.6185360  12.2889556  )
         6           Zn1 tau(   6) = (   2.8033867   1.6185360  12.2889556  )
         7           Zn1 tau(   7) = (   7.0084667   4.0463401  12.2889556  )
         8           Zn1 tau(   8) = (   4.2050800   4.0463401  12.2889556  )
         9           Zn1 tau(   9) = (   0.0000000   0.0000000  14.5779113  )
        10           Zn1 tau(  10) = (   2.8033867   0.0000000  14.5779113  )
        11           Zn1 tau(  11) = (   1.4016933   2.4278041  14.5779113  )
        12           Zn1 tau(  12) = (   4.2050800   2.4278041  14.5779113  )

     number of k points=    20  Fermi-Dirac smearing, width (Ry)=  0.0110
                       cart. coord. in units 2pi/alat
        k(    1) = (   0.0000000   0.0000000   0.0000000), wk =   0.0555556
        k(    2) = (   0.0000000   0.0343246   0.0000000), wk =   0.1111111
        k(    3) = (   0.0000000   0.0686491   0.0000000), wk =   0.1111111
        k(    4) = (   0.0000000  -0.1029737   0.0000000), wk =   0.0555556
        k(    5) = (   0.0297260  -0.0171623   0.0000000), wk =   0.1111111
        k(    6) = (   0.0297260   0.0171623   0.0000000), wk =   0.1111111
        k(    7) = (   0.0297260   0.0514869   0.0000000), wk =   0.1111111
        k(    8) = (   0.0297260  -0.1201360   0.0000000), wk =   0.1111111
        k(    9) = (   0.0297260  -0.0858114   0.0000000), wk =   0.1111111
        k(   10) = (   0.0297260  -0.0514869   0.0000000), wk =   0.1111111
        k(   11) = (   0.0594519  -0.0343246   0.0000000), wk =   0.1111111
        k(   12) = (   0.0594519   0.0000000   0.0000000), wk =   0.1111111
        k(   13) = (   0.0594519   0.0343246   0.0000000), wk =   0.1111111
        k(   14) = (   0.0594519  -0.1372983   0.0000000), wk =   0.1111111
        k(   15) = (   0.0594519  -0.1029737   0.0000000), wk =   0.1111111
        k(   16) = (   0.0594519  -0.0686491   0.0000000), wk =   0.1111111
        k(   17) = (  -0.0891779   0.0514869   0.0000000), wk =   0.0555556
        k(   18) = (  -0.0891779   0.0858114   0.0000000), wk =   0.1111111
        k(   19) = (  -0.0891779   0.1201360   0.0000000), wk =   0.1111111
        k(   20) = (  -0.0891779  -0.0514869   0.0000000), wk =   0.0555556

     Largest allocated arrays     est. size (Mb)     dimensions
     Largest temporary arrays     est. size (Mb)     dimensions

     Initial potential from superposition of free atoms
     Check: negative starting charge=   -0.000873

     starting charge  239.99831, renormalised to  240.00000

     negative rho (up, down):  8.728E-04 0.000E+00

     *
     * You are using vdW-DF for exchange-correlation in this calculation.
     * Please cite the following three references that made this development
     * possible:
     *
     *   M. Dion, H. Rydberg, E. Schroder, D. C. Langreth, and
     *   B. I. Lundqvist, Phys. Rev. Lett. 92, 246401 (2004).
     *
     *   T. Thonhauser, V. R. Cooper, S. Li, A. Puzder, P. Hyldgaard, and
     *   D. C. Langreth, Phys. Rev. B 76, 125112 (2007).
     *
     *   G. Roman-Perez and J. M. Soler, Phys. Rev. Lett. 103, 096102 (2009).
     *
     *
     * If you are using vdW-DF2, please also cite:
     *
     *   K. Lee, E. D. Murray, L. Kong, B. I. Lundqvist, and
     *   D. C. Langreth, Phys. Rev. B 82, 081101(R) (2010).
     *
     *
     * If you are calculating the stress with vdW-DF, please also cite:
     *
     *   R. Sabatini, E. Kucukbenli, B. Kolb, T. Thonhauser, and
     *   S. de Gironcoli, J. Phys.: Condens. Matter 24, 424209 (2012).
     *

     Carrying out vdW-DF run using the following parameters:

     Nqs =      20    Nr_points =    1024   r_max =   100.000
     q_mesh =
               0.00001000     0.04494208     0.09755937     0.15916263
               0.23128650     0.31572767     0.41458969     0.53033537
               0.66584808     0.82450364     1.01025438     1.22772762
               1.48234092     1.78043706     2.12944203     2.53805004
               3.01644009     3.57652955     4.23227104     5.00000000

     Gradients computed in reciprocal space

     Adding external electric field

     Computed dipole along edir(3) :
        Dipole               -0.0000 Ry au,         -0.0000 Debye
        Dipole field         -0.0000 Ry au

        Potential amp.        0.0000 Ry
        Total length         45.2844 bohr

     Starting wfc are  156 randomized atomic wfcs

     Self-consistent Calculation

     iteration #  1     ecut=    36.75 Ry     beta=0.30
     Davidson diagonalization with overlap
     ethr =  1.00E-02,  avg # of iterations =  2.2

     Threshold (ethr) on eigenvalues was too large:
     Diagonalizing with lowered threshold

     Davidson diagonalization with overlap
     ethr =  5.18E-05,  avg # of iterations =  4.0

[...]

     total energy              =   -5553.23362786 Ry
     Harris-Foulkes estimate   =   -5553.25867394 Ry
     estimated scf accuracy    <       0.14492433 Ry

[...]

     End of self-consistent calculation

          k = 0.0000 0.0000 0.0000 ( 16931 PWs)   bands (ev):

  -126.3590-126.3580-126.3580-126.3570-126.1427-126.1427-126.1416-126.1416
  -126.1415-126.1415-126.1415-126.1414 -80.5414 -80.5410 -80.5410 -80.5376
   -80.5364 -80.5364 -80.5355 -80.5306 -80.5302 -80.5302 -80.5268 -80.5268
   -80.3322 -80.3319 -80.3311 -80.3311 -80.3310 -80.3308 -80.3308 -80.3307
   -80.3215 -80.3215 -80.3215 -80.3213 -80.3213 -80.3213 -80.3108 -80.3108
   -80.3108 -80.3107 -80.3106 -80.3106 -80.3073 -80.3073 -80.3072 -80.3072
    -9.0854  -7.9105  -7.9092  -7.9090  -7.9090  -7.8472  -7.8176  -7.8174
    -7.8174  -7.7149  -7.7149  -7.7147  -7.5834  -7.5834  -7.5834  -7.3687
    -7.3687  -7.3387  -7.3387  -7.3386  -7.3207  -7.3188  -7.3187  -7.3187
    -7.2541  -7.2538  -7.2538  -7.2033  -7.2033  -7.1169  -7.1169  -6.9769
    -6.9769  -6.9217  -6.9217  -6.9217  -6.8908  -6.8908  -6.8908  -6.8578
    -6.8578  -6.8575  -6.7965  -6.7965  -6.7910  -6.7907  -6.7907  -6.7339
    -6.7338  -6.7338  -6.7197  -6.7197  -6.6920  -6.6919  -6.6919  -6.6564
    -6.5595  -6.5594  -6.5594  -6.5558  -6.5558  -6.5558  -3.8356  -2.1559
    -2.1559  -2.1559  -1.7789  -1.7789  -1.7788  -0.9877  -0.7292  -0.7292
    -0.7292   0.3167   0.3167   0.3167   2.1924   2.1924   2.1924   2.6771
     2.6787   2.6788

[...]

          k =-0.0892 0.0515 0.0000 ( 17028 PWs)   bands (ev):

[...]

     the Fermi energy is     0.4223 ev

!    total energy              =   -5553.23668670 Ry
     Harris-Foulkes estimate   =   -5553.25596466 Ry
     estimated scf accuracy    <       0.00000377 Ry

     The total energy is the sum of the following terms:

     one-electron contribution =  -35372.79341163 Ry
     hartree contribution      =   17664.69894776 Ry
     xc contribution           =    -520.80291071 Ry
     ewald contribution        =   12675.68533581 Ry
     electric field correction =       0.00000000 Ry
     smearing contrib. (-TS)   =      -0.02464793 Ry

     convergence has been achieved in   8 iterations

 BEEF-vdW xc energy contributions
           1 :   -462.269750992484
           2 :    418.943820859711
           3 :   -346.278787508988
           4 :    265.384541034034
           5 :   -194.929762565532
           6 :    144.097083321135
           7 :   -111.355899806813
           8 :    88.7646584538941
           9 :   -68.4695999421431
          10 :    47.2998618735306
          11 :   -27.1776613920782
          12 :    12.0284179583628
          13 :   -3.98149760358490
          14 :    1.61024333425775
          15 :   -1.10308712309660
          16 :  -0.935027965829136
          17 :    5.31460261740443
          18 :   -10.2241890598042
          19 :    13.0812352000942
          20 :   -12.6909076185788
          21 :    10.0947807509657
          22 :   -7.63738114517321
          23 :    7.13718951032183
          24 :   -8.62298595423988
          25 :    10.5267802273760
          26 :   -11.0510978613728
          27 :    9.57260758928874
          28 :   -7.02312825415311
          29 :    5.05382943419852
          30 :   -4.72471564852299
          31 :   -35.6871950475509
          32 :   -24.3234611450484

     Forces acting on atoms (Ry/au):

     atom    1 type  1   force =     0.00001556    0.00004693   -0.00626389
     atom    2 type  1   force =    -0.00001452    0.00001157   -0.00625180
     atom    3 type  1   force =    -0.00003181   -0.00003234   -0.00625823
     atom    4 type  1   force =     0.00003131   -0.00002040   -0.00627906
     atom    5 type  1   force =    -0.00000243   -0.00000681    0.00000970
     atom    6 type  1   force =     0.00000278    0.00000210   -0.00009013
     atom    7 type  1   force =     0.00000652    0.00000363    0.00000611
     atom    8 type  1   force =    -0.00000755    0.00000015   -0.00004802
     atom    9 type  1   force =    -0.00003677    0.00002244    0.00630311
     atom   10 type  1   force =     0.00003669    0.00002507    0.00629426
     atom   11 type  1   force =     0.00000637   -0.00000446    0.00628399
     atom   12 type  1   force =    -0.00000616   -0.00004788    0.00629395

     Total force =     0.012588     Total SCF correction =     0.002395
     SCF correction compared to forces is large: reduce conv_thr to get better values

     entering subroutine stress ...

          total   stress  (Ry/bohr**3)                   (kbar)     P=  -16.03
  -0.00016479   0.00000000   0.00000000        -24.24      0.00      0.00
   0.00000000  -0.00016479  -0.00000000          0.00    -24.24     -0.00
   0.00000000  -0.00000000   0.00000268          0.00     -0.00      0.39

     BFGS Geometry Optimization

     number of scf cycles    =   1
     number of bfgs steps    =   0

     energy   new            =   -5553.2366866988 Ry

     new trust radius        =       0.0063032608 bohr
     new conv_thr            =       0.0000099958 Ry

ATOMIC_POSITIONS (crystal)
Zn1      0.166666667   0.166666667   0.406869400    0   0   0
Zn1      0.666666667   0.166666667   0.406869400    0   0   0
Zn1      0.166666667   0.666666667   0.406869400    0   0   0
Zn1      0.666666667   0.666666667   0.406869400    0   0   0
Zn1      0.833333333   0.333333333   0.500000000    0   0   0
Zn1      0.333333333   0.333333333   0.500000000    0   0   0
Zn1      0.833333333   0.833333333   0.500000000    0   0   0
Zn1      0.333333333   0.833333333   0.500000000    0   0   0
Zn1     -0.000004693   0.000002446   0.593266310
Zn1      0.500002097   0.000002732   0.593266120
Zn1      0.000000844   0.499999514   0.593265898
Zn1      0.500002028   0.499994781   0.593266113

     Writing output data file calc.save
     Check: negative starting charge=   -0.000873
     NEW-OLD atomic charge density approx. for the potential
     Check: negative starting charge=   -0.000875

[...]

     energy   old            =   -5553.2366866988 Ry
     energy   new            =   -5553.2561372835 Ry

     CASE: energy  _new < energy  _old

[...]

     Total force =     0.012641     Total SCF correction =     0.000637

[...]

     WARNING: bfgs curvature condition failed, Theta= 0.385
     new trust radius        =       0.0058817748 bohr
     new conv_thr            =       0.0000001000 Ry

[...]

     WARNING: bfgs curvature condition failed, Theta= 0.617
     uphill step: resetting bfgs history

[...]

     Total force =     0.005088     Total SCF correction =     0.000362

[...]

     WARNING: bfgs curvature condition failed, Theta= 0.647
     uphill step: resetting bfgs history

[...]

     WARNING: bfgs curvature condition failed, Theta= 0.896
     new trust radius        =       0.0027998035 bohr
     new conv_thr            =       0.0000001000 Ry

[...]

     number of scf cycles    =  22
     number of bfgs steps    =  21

     energy   old            =   -5553.2589803309 Ry
     energy   new            =   -5553.2590095591 Ry

     CASE: energy  _new < energy  _old

     new trust radius        =       0.0041997053 bohr
     new conv_thr            =       0.0000001000 Ry

ATOMIC_POSITIONS (crystal)
Zn1      0.166666667   0.166666667   0.406869400    0   0   0
Zn1      0.666666667   0.166666667   0.406869400    0   0   0
Zn1      0.166666667   0.666666667   0.406869400    0   0   0
Zn1      0.666666667   0.666666667   0.406869400    0   0   0
Zn1      0.833333333   0.333333333   0.500000000    0   0   0
Zn1      0.333333333   0.333333333   0.500000000    0   0   0
Zn1      0.833333333   0.833333333   0.500000000    0   0   0
Zn1      0.333333333   0.833333333   0.500000000    0   0   0
Zn1      0.000003307  -0.000001991   0.596482261
Zn1      0.499998769  -0.000001492   0.596482330
Zn1     -0.000000414   0.499999953   0.596486029
Zn1      0.499998823   0.500002870   0.596482431

     Writing output data file calc.save
     Check: negative starting charge=   -0.000865
     NEW-OLD atomic charge density approx. for the potential
     Check: negative starting charge=   -0.000863

[...]

     Self-consistent Calculation

[...]

     Threshold (ethr) on eigenvalues was too large:
     Diagonalizing with lowered threshold

     Davidson diagonalization with overlap
     ethr =  2.28E-09,  avg # of iterations =  2.0

[...]

     total energy              =   -5553.25904528 Ry
     Harris-Foulkes estimate   =   -5553.25905869 Ry
     estimated scf accuracy    <       0.00014251 Ry

     iteration #  3     ecut=    36.75 Ry     beta=0.30
     Davidson diagonalization with overlap
     ethr =  2.27E-09,  avg # of iterations =  2.7

[...]

     negative rho (up, down):  1.015E-03 0.000E+00

     Adding external electric field

     Computed dipole along edir(3) :
        Dipole                0.0061 Ry au,          0.0155 Debye
        Dipole field          0.0000 Ry au

        Potential amp.       -0.0015 Ry
        Total length         45.2844 bohr

     End of self-consistent calculation

[...]

          k = 0.0595-0.0686 0.0000 ( 16986 PWs)   bands (ev):

[...]

          k =-0.0892-0.0515 0.0000 ( 17028 PWs)   bands (ev):

  -126.3364-126.3364-126.3358-126.3358-126.1377-126.1377-126.1371-126.1371
  -126.0926-126.0926-126.0920-126.0920 -80.5172 -80.5172 -80.5138 -80.5138
   -80.5129 -80.5129 -80.5128 -80.5128 -80.5122 -80.5122 -80.5074 -80.5074
   -80.3269 -80.3269 -80.3261 -80.3261 -80.3144 -80.3144 -80.3100 -80.3100
   -80.3093 -80.3093 -80.3046 -80.3046 -80.2822 -80.2821 -80.2813 -80.2813
   -80.2695 -80.2695 -80.2651 -80.2651 -80.2644 -80.2644 -80.2597 -80.2597
    -7.8329  -7.8329  -7.6346  -7.6346  -7.6321  -7.6321  -7.5505  -7.5505
    -7.5303  -7.5303  -7.5160  -7.5160  -7.3890  -7.3889  -7.3859  -7.3859
    -7.2993  -7.2993  -7.2990  -7.2990  -7.2409  -7.2409  -7.2220  -7.2220
    -7.1527  -7.1527  -7.1260  -7.1260  -7.1035  -7.1035  -7.0644  -7.0644
    -7.0533  -7.0533  -6.9903  -6.9903  -6.9699  -6.9699  -6.9550  -6.9550
    -6.9259  -6.9259  -6.9129  -6.9129  -6.8820  -6.8820  -6.8357  -6.8357
    -6.8187  -6.8187  -6.8077  -6.8077  -6.7853  -6.7853  -6.7061  -6.7061
    -6.6697  -6.6697  -6.6502  -6.6502  -6.6443  -6.6443  -5.1541  -5.1541
    -3.4742  -3.4742  -2.4792  -2.4792  -1.8117  -1.8117   0.6766   0.6766
     0.8936   0.8936   2.9960   2.9960   3.1553   3.1553   4.0856   4.0856
     4.0992   4.0993

     the Fermi energy is     0.4416 ev

!    total energy              =   -5553.25905169 Ry
     Harris-Foulkes estimate   =   -5553.25905174 Ry
     estimated scf accuracy    <       0.00000006 Ry

     The total energy is the sum of the following terms:

     one-electron contribution =  -35005.56060709 Ry
     hartree contribution      =   17481.29462219 Ry
     xc contribution           =    -520.77820463 Ry
     ewald contribution        =   12491.81075666 Ry
     electric field correction =       0.00000010 Ry
     smearing contrib. (-TS)   =      -0.02561893 Ry

     convergence has been achieved in   3 iterations

 BEEF-vdW xc energy contributions
           1 :   -462.794251446035
           2 :    419.428431728674
           3 :   -346.719380848524
           4 :    265.818194649276
           5 :   -195.405457910635
           6 :    144.635752591526
           7 :   -111.932747257217
           8 :    89.3287831367583
           9 :   -68.9853287295027
          10 :    47.7767275087352
          11 :   -27.6639955490738
          12 :    12.5724533379978
          13 :   -4.59135131833057
          14 :    2.24476415240656
          15 :   -1.70170079083334
          16 :  -0.405065292432710
          17 :    4.83137862053650
          18 :   -9.72746018173086
          19 :    12.5192074462956
          20 :   -12.0613317742603
          21 :    9.44832257132805
          22 :   -7.03913694758899
          23 :    6.61542011330368
          24 :   -8.14504748255786
          25 :    10.0225739448193
          26 :   -10.4665536081649
          27 :    8.91170630473414
          28 :   -6.34634715813581
          29 :    4.43410291148291
          30 :   -4.19445882215939
          31 :   -35.7129549941293
          32 :   -24.3402385073623

     Forces acting on atoms (Ry/au):

     atom    1 type  1   force =    -0.00000030   -0.00000028   -0.00761772
     atom    2 type  1   force =     0.00000024   -0.00000012   -0.00761762
     atom    3 type  1   force =     0.00000012    0.00000030   -0.00761723
     atom    4 type  1   force =    -0.00000024   -0.00000002   -0.00761770
     atom    5 type  1   force =     0.00000062    0.00000012    0.00578488
     atom    6 type  1   force =    -0.00000070    0.00000057    0.00578463
     atom    7 type  1   force =     0.00000048   -0.00000105    0.00578487
     atom    8 type  1   force =    -0.00000031   -0.00000015    0.00578422
     atom    9 type  1   force =    -0.00000174    0.00000117    0.00183272
     atom   10 type  1   force =     0.00000168    0.00000091    0.00183380
     atom   11 type  1   force =     0.00000007    0.00000024    0.00183161
     atom   12 type  1   force =     0.00000009   -0.00000170    0.00183354

     Total force =     0.003666     Total SCF correction =     0.001736
     SCF correction compared to forces is large: reduce conv_thr to get better values

     entering subroutine stress ...

          total   stress  (Ry/bohr**3)                   (kbar)     P=  -18.18
  -0.00017916  -0.00000000  -0.00000000        -26.36     -0.00     -0.00
  -0.00000000  -0.00017916   0.00000000         -0.00    -26.36      0.00
  -0.00000000   0.00000000  -0.00001250         -0.00      0.00     -1.84

     bfgs converged in  23 scf cycles and  22 bfgs steps
     (criteria: energy <  1.0E+00, force <  1.9E-03)

     End of BFGS Geometry Optimization

     Final energy   =   -5553.2590516948 Ry
Begin final coordinates

ATOMIC_POSITIONS (crystal)
Zn1      0.166666667   0.166666667   0.406869400    0   0   0
Zn1      0.666666667   0.166666667   0.406869400    0   0   0
Zn1      0.166666667   0.666666667   0.406869400    0   0   0
Zn1      0.666666667   0.666666667   0.406869400    0   0   0
Zn1      0.833333333   0.333333333   0.500000000    0   0   0
Zn1      0.333333333   0.333333333   0.500000000    0   0   0
Zn1      0.833333333   0.833333333   0.500000000    0   0   0
Zn1      0.333333333   0.833333333   0.500000000    0   0   0
Zn1      0.000003307  -0.000001991   0.596482261
Zn1      0.499998769  -0.000001492   0.596482330
Zn1     -0.000000414   0.499999953   0.596486029
Zn1      0.499998823   0.500002870   0.596482431
End final coordinates

     Writing output data file calc.save

     General routines

     Parallel routines

   This run was terminated on:  16:56:59  30Apr2018

   JOB DONE.
Job  /afs/slac/g/suncat/bin/suncat-tsmpirun -x LD_LIBRARY_PATH -wdir /scratch/qe491253_tPC7D pw.x -npool 4 -in pw.inp

TID   HOST_NAME   COMMAND_LINE            STATUS            TERMINATION_TIME
00000 suncat0259 pw.x -npool 4 -i  Done                     04/30/2018 16:56:59
00001 suncat0259 pw.x -npool 4 -i  Done                     04/30/2018 16:56:59
00002 suncat0259 pw.x -npool 4 -i  Done                     04/30/2018 16:56:59
00003 suncat0259 pw.x -npool 4 -i  Done                     04/30/2018 16:56:59
00004 suncat0259 pw.x -npool 4 -i  Done                     04/30/2018 16:56:59
00005 suncat0259 pw.x -npool 4 -i  Done                     04/30/2018 16:56:59
00006 suncat0259 pw.x -npool 4 -i  Done                     04/30/2018 16:56:59
00007 suncat0259 pw.x -npool 4 -i  Done                     04/30/2018 16:56:59
00008 suncat0258 pw.x -npool 4 -i  Done                     04/30/2018 16:56:59
00009 suncat0258 pw.x -npool 4 -i  Done                     04/30/2018 16:56:59
00010 suncat0258 pw.x -npool 4 -i  Done                     04/30/2018 16:56:59
00011 suncat0258 pw.x -npool 4 -i  Done                     04/30/2018 16:56:59
00012 suncat0258 pw.x -npool 4 -i  Done                     04/30/2018 16:56:59
00013 suncat0258 pw.x -npool 4 -i  Done                     04/30/2018 16:56:59
00014 suncat0258 pw.x -npool 4 -i  Done                     04/30/2018 16:56:59
00015 suncat0258 pw.x -npool 4 -i  Done                     04/30/2018 16:56:59
00016 suncat0248 pw.x -npool 4 -i  Done                     04/30/2018 16:56:59
00017 suncat0248 pw.x -npool 4 -i  Done                     04/30/2018 16:56:59
00018 suncat0248 pw.x -npool 4 -i  Done                     04/30/2018 16:56:59
00019 suncat0248 pw.x -npool 4 -i  Done                     04/30/2018 16:56:59
00020 suncat0248 pw.x -npool 4 -i  Done                     04/30/2018 16:56:59
00021 suncat0248 pw.x -npool 4 -i  Done                     04/30/2018 16:56:59
00022 suncat0248 pw.x -npool 4 -i  Done                     04/30/2018 16:56:59
00023 suncat0248 pw.x -npool 4 -i  Done                     04/30/2018 16:56:59
00024 suncat0217 pw.x -npool 4 -i  Done                     04/30/2018 16:56:59
00025 suncat0217 pw.x -npool 4 -i  Done                     04/30/2018 16:56:59
00026 suncat0217 pw.x -npool 4 -i  Done                     04/30/2018 16:56:59
00027 suncat0217 pw.x -npool 4 -i  Done                     04/30/2018 16:56:59
00028 suncat0217 pw.x -npool 4 -i  Done                     04/30/2018 16:56:59
00029 suncat0217 pw.x -npool 4 -i  Done                     04/30/2018 16:56:59
00030 suncat0217 pw.x -npool 4 -i  Done                     04/30/2018 16:56:59
00031 suncat0217 pw.x -npool 4 -i  Done                     04/30/2018 16:56:59