     Program PWSCF v.5.1rc2 (svn rev. 11289) starts on 30Apr2018 at 14:58:21

     Current dimensions of program PWSCF are:
     Max number of different atomic species (ntypx) = 10
     Max number of k-points (npk) =  40000
     Max angular momentum in pseudopotentials (lmaxx) =  3
     Presently stress not available with electric field

     IMPORTANT: XC functional enforced from input :
     Exchange-correlation      = BEEF-VDW ( 1  4 27 13 2)
     Any further DFT definition will be discarded
     Please, verify this is what you really want

     Subspace diagonalization in iterative solution of the eigenvalue problem:
     a serial algorithm will be used

     Found symmetry operation: I + (  0.5000  0.0000  0.0000)
     This is a supercell, fractional translations are disabled

     bravais-lattice index     =            0
     lattice parameter (alat)  =       1.8897  a.u.
     unit-cell volume          =    3807.2308 (a.u.)^3
     number of atoms/cell      =           12
     number of atomic types    =            1
     number of electrons       =       228.00
     number of Kohn-Sham states=          124
     kinetic-energy cutoff     =      36.7493  Ry
     charge density cutoff     =     367.4932  Ry
     convergence threshold     =      1.0E-05
     mixing beta               =       0.3000
     number of iterations used =           10  plain     mixing
     Exchange-correlation      = BEEF-VDW ( 1  4 27 13 2)
     nstep                     =           50

     celldm(1)=   1.889726  celldm(2)=   0.000000  celldm(3)=   0.000000
     celldm(4)=   0.000000  celldm(5)=   0.000000  celldm(6)=   0.000000

     crystal axes: (cart. coord. in units of alat)
               a(1) = (   5.184823   0.000000   0.000000 )
               a(2) = (   2.592411   4.490188   0.000000 )
               a(3) = (   0.000000   0.000000  24.233390 )

     reciprocal axes: (cart. coord. in units 2 pi/alat)
               b(1) = (  0.192871 -0.111354  0.000000 )
               b(2) = (  0.000000  0.222708  0.000000 )
               b(3) = (  0.000000  0.000000  0.041265 )

     PseudoPot. # 1 for Cu read from file:
     /u/if/mamunm/psp/gbrv1.5pbe/Cu.UPF
     MD5 check sum: 6e991ff952a84172a2a52a1c1e996048
     Pseudo is Ultrasoft + core correction, Zval = 19.0
     Generated by new atomic code, or converted to UPF format
     Using radial grid of  867 points,  6 beta functions with:
                l(1) =   0
                l(2) =   0
                l(3) =   1
                l(4) =   1
                l(5) =   2
                l(6) =   2
     Q(r) pseudized with  8 coefficients,  rinner =    1.150   1.150   1.150
                                                       1.150   1.150

     vdW kernel table read from file vdW_kernel_table
     MD5 check sum: 095c7af220d748ca6e76c0b4c6cfb241

     atomic species   valence    mass     pseudopotential
        Cu1           19.00    63.54600     Cu( 1.00)

     No symmetry found

   Cartesian axes

     site n.     atom                  positions (alat units)
         1           Cu1 tau(   1) = (   1.2962057   0.7483647  10.0000000  )
         2           Cu1 tau(   2) = (   3.8886170   0.7483647  10.0000000  )
         3           Cu1 tau(   3) = (   2.5924113   2.9934587  10.0000000  )
         4           Cu1 tau(   4) = (   5.1848226   2.9934587  10.0000000  )
         5           Cu1 tau(   5) = (   5.1848226   1.4967294  12.1166950  )
         6           Cu1 tau(   6) = (   2.5924113   1.4967294  12.1166950  )
         7           Cu1 tau(   7) = (   6.4810283   3.7418234  12.1166950  )
         8           Cu1 tau(   8) = (   3.8886170   3.7418234  12.1166950  )
         9           Cu1 tau(   9) = (   0.0000000   0.0000000  14.2333899  )
        10           Cu1 tau(  10) = (   2.5924113   0.0000000  14.2333899  )
        11           Cu1 tau(  11) = (   1.2962057   2.2450940  14.2333899  )
        12           Cu1 tau(  12) = (   3.8886170   2.2450940  14.2333899  )

     number of k points=    20  Fermi-Dirac smearing, width (Ry)=  0.0110
                       cart. coord. in units 2pi/alat
        k(    1) = (   0.0000000   0.0000000   0.0000000), wk =   0.0555556
        k(    2) = (   0.0000000   0.0371180   0.0000000), wk =   0.1111111
        k(    3) = (   0.0000000   0.0742359   0.0000000), wk =   0.1111111
        k(    4) = (   0.0000000  -0.1113539   0.0000000), wk =   0.0555556
        k(    5) = (   0.0321451  -0.0185590   0.0000000), wk =   0.1111111
        k(    6) = (   0.0321451   0.0185590   0.0000000), wk =   0.1111111
        k(    7) = (   0.0321451   0.0556770   0.0000000), wk =   0.1111111
        k(    8) = (   0.0321451  -0.1299129   0.0000000), wk =   0.1111111
        k(    9) = (   0.0321451  -0.0927949   0.0000000), wk =   0.1111111
        k(   10) = (   0.0321451  -0.0556770   0.0000000), wk =   0.1111111
        k(   11) = (   0.0642902  -0.0371180   0.0000000), wk =   0.1111111
        k(   12) = (   0.0642902  -0.0000000   0.0000000), wk =   0.1111111
        k(   13) = (   0.0642902   0.0371180   0.0000000), wk =   0.1111111
        k(   14) = (   0.0642902  -0.1484719   0.0000000), wk =   0.1111111
        k(   15) = (   0.0642902  -0.1113539   0.0000000), wk =   0.1111111
        k(   16) = (   0.0642902  -0.0742359   0.0000000), wk =   0.1111111
        k(   17) = (  -0.0964353   0.0556770   0.0000000), wk =   0.0555556
        k(   18) = (  -0.0964353   0.0927949   0.0000000), wk =   0.1111111
        k(   19) = (  -0.0964353   0.1299129   0.0000000), wk =   0.1111111
        k(   20) = (  -0.0964353  -0.0556770   0.0000000), wk =   0.0555556

     Largest allocated arrays     est. size (Mb)     dimensions
     Largest temporary arrays     est. size (Mb)     dimensions

     Initial potential from superposition of free atoms
     Check: negative starting charge=   -0.000141

     starting charge  215.99998, renormalised to  228.00000

     negative rho (up, down):  1.485E-04 0.000E+00

     *
     * You are using vdW-DF for exchange-correlation in this calculation.
     * Please cite the following three references that made this development
     * possible:
     *
     *   M. Dion, H. Rydberg, E. Schroder, D. C. Langreth, and
     *   B. I. Lundqvist, Phys. Rev. Lett. 92, 246401 (2004).
     *
     *   T. Thonhauser, V. R. Cooper, S. Li, A. Puzder, P. Hyldgaard, and
     *   D. C. Langreth, Phys. Rev. B 76, 125112 (2007).
     *
     *   G. Roman-Perez and J. M. Soler, Phys. Rev. Lett. 103, 096102 (2009).
     *
     *
     * If you are using vdW-DF2, please also cite:
     *
     *   K. Lee, E. D. Murray, L. Kong, B. I. Lundqvist, and
     *   D. C. Langreth, Phys. Rev. B 82, 081101(R) (2010).
     *
     *
     * If you are calculating the stress with vdW-DF, please also cite:
     *
     *   R. Sabatini, E. Kucukbenli, B. Kolb, T. Thonhauser, and
     *   S. de Gironcoli, J. Phys.: Condens. Matter 24, 424209 (2012).
     *

     Carrying out vdW-DF run using the following parameters:

     Nqs =      20    Nr_points =    1024   r_max =   100.000
     q_mesh =
               0.00001000     0.04494208     0.09755937     0.15916263
               0.23128650     0.31572767     0.41458969     0.53033537
               0.66584808     0.82450364     1.01025438     1.22772762
               1.48234092     1.78043706     2.12944203     2.53805004
               3.01644009     3.57652955     4.23227104     5.00000000

     Gradients computed in reciprocal space

     Adding external electric field

     Computed dipole along edir(3) :
        Dipole               -0.0000 Ry au,         -0.0000 Debye
        Dipole field         -0.0000 Ry au

        Potential amp.        0.0000 Ry
        Total length         44.6496 bohr

     Starting wfc are  156 randomized atomic wfcs

     Self-consistent Calculation

     iteration #  1     ecut=    36.75 Ry     beta=0.30
     Davidson diagonalization with overlap
     ethr =  1.00E-02,  avg # of iterations =  6.1

[...]

     total energy              =   -4815.85656244 Ry
     Harris-Foulkes estimate   =   -4871.48221468 Ry
     estimated scf accuracy    <     117.18937106 Ry

[...]

     End of self-consistent calculation

          k = 0.0000 0.0000 0.0000 ( 14321 PWs)   bands (ev):

  -112.2776-112.2702-112.2701-112.2700-112.0017-112.0001-111.9944-111.9943
  -111.9940-111.9933-111.9928-111.9916 -69.7102 -69.7101 -69.7100 -69.6719
   -69.6622 -69.6620 -69.6619 -69.6578 -69.6578 -69.6577 -69.6400 -69.6400
   -69.4484 -69.4482 -69.4482 -69.4465 -69.4460 -69.4459 -69.3972 -69.3970
   -69.3970 -69.3960 -69.3954 -69.3952 -69.3795 -69.3795 -69.3780 -69.3779
   -69.3653 -69.3614 -69.3576 -69.3575 -69.3571 -69.3559 -69.3555 -69.3544
    -7.9479  -6.0292  -4.6223  -4.2101  -4.2101  -4.2101  -4.0096  -4.0095
    -4.0095  -3.6515  -3.6514  -3.6514  -3.5864  -3.5862  -3.5862  -2.9715
    -2.9713  -2.9712  -2.6720  -2.6719  -2.6719  -2.6116  -2.5858  -2.5858
    -2.5097  -2.3821  -2.3820  -2.3820  -2.3697  -2.3697  -2.2524  -2.2524
    -2.1403  -2.1402  -2.1397  -1.7957  -1.7957  -1.7453  -1.7451  -1.7451
    -1.7324  -1.7321  -1.7320  -1.5033  -1.5033  -1.3804  -1.3803  -1.3803
    -1.3158  -1.3157  -1.3153  -1.3052  -1.3052  -1.2922  -1.2922  -1.2922
    -1.1302  -1.0603  -1.0600  -1.0599  -1.0488  -1.0485  -1.0484   0.3603
     0.4750   0.4750   0.4750   1.5191   1.5191   1.5192   1.9555   1.9555
     1.9555   4.1286   4.5564   4.6435

[...]

          k =-0.0964 0.0557 0.0000 ( 14294 PWs)   bands (ev):

[...]

     the Fermi energy is     0.2946 ev

!    total energy              =   -4859.19188053 Ry
     Harris-Foulkes estimate   =   -4859.20813974 Ry
     estimated scf accuracy    <       0.00000284 Ry

     The total energy is the sum of the following terms:

     one-electron contribution =  -37009.67063791 Ry
     hartree contribution      =   18518.48771250 Ry
     xc contribution           =    -480.00679518 Ry
     ewald contribution        =   14112.02729143 Ry
     electric field correction =       0.00000014 Ry
     smearing contrib. (-TS)   =      -0.02945152 Ry

     convergence has been achieved in  18 iterations

 BEEF-vdW xc energy contributions
           1 :   -425.069828005720
           2 :    385.382356645559
           3 :   -318.118733010103
           4 :    241.792863623344
           5 :   -173.296994190722
           6 :    121.783539994362
           7 :   -87.2077210253880
           8 :    63.4954986252245
           9 :   -43.8450005892150
          10 :    24.8704817979260
          11 :   -7.50979966241954
          12 :   -5.12646753621169
          13 :    10.9537423497077
          14 :   -10.8470854079748
          15 :    8.18812236475577
          16 :   -6.65642356416106
          17 :    7.98871670421852
          18 :   -11.2413107645574
          19 :    13.8974124116211
          20 :   -13.8893483910906
          21 :    11.0801787800821
          22 :   -7.24957535505030
          23 :    4.73200339236121
          24 :   -4.76840498925310
          25 :    6.73389050575378
          26 :   -8.71033279483720
          27 :    8.91420943756339
          28 :   -6.93792616717087
          29 :    3.95677499102845
          30 :   -1.81875113794189
          31 :   -33.7735585724292
          32 :   -23.0490401768569

     Forces acting on atoms (Ry/au):

     negative rho (up, down):  1.063E-03 0.000E+00
     atom    1 type  1   force =     0.00000399   -0.00000777    0.00639177
     atom    2 type  1   force =    -0.00000913   -0.00002124    0.00643528
     atom    3 type  1   force =    -0.00001779    0.00000539    0.00626942
     atom    4 type  1   force =     0.00001390    0.00001240    0.00641545
     atom    5 type  1   force =     0.00000300    0.00004594   -0.00046291
     atom    6 type  1   force =    -0.00000376    0.00004367   -0.00045564
     atom    7 type  1   force =    -0.00000042   -0.00004402   -0.00046748
     atom    8 type  1   force =    -0.00000103   -0.00004541   -0.00048125
     atom    9 type  1   force =    -0.00000573    0.00000993   -0.00591766
     atom   10 type  1   force =     0.00001498    0.00000672   -0.00591636
     atom   11 type  1   force =     0.00000047    0.00000600   -0.00591496
     atom   12 type  1   force =     0.00000152   -0.00001159   -0.00589566

     Total force =     0.011822     Total SCF correction =     0.012491
     SCF correction compared to forces is large: reduce conv_thr to get better values

     entering subroutine stress ...

     negative rho (up, down):  1.063E-03 0.000E+00
          total   stress  (Ry/bohr**3)                   (kbar)     P=  -29.47
  -0.00021832  -0.00000000  -0.00000000        -32.12     -0.00     -0.00
  -0.00000000  -0.00021832   0.00000000         -0.00    -32.12      0.00
  -0.00000000   0.00000000  -0.00016439         -0.00      0.00    -24.18

     BFGS Geometry Optimization

     number of scf cycles    =   1
     number of bfgs steps    =   0

     energy   new            =   -4859.1918805323 Ry

     new trust radius        =       0.0059176758 bohr
     new conv_thr            =       0.0000099958 Ry

ATOMIC_POSITIONS (crystal)
Cu1      0.166666667   0.166666667   0.412653782    0   0   0
Cu1      0.666666667   0.166666667   0.412653782    0   0   0
Cu1      0.166666667   0.666666667   0.412653782    0   0   0
Cu1      0.666666667   0.666666667   0.412653782    0   0   0
Cu1      0.833333333   0.333333333   0.500000000    0   0   0
Cu1      0.333333333   0.333333333   0.500000000    0   0   0
Cu1      0.833333333   0.833333333   0.500000000    0   0   0
Cu1      0.333333333   0.833333333   0.500000000    0   0   0
Cu1     -0.000001170   0.000001170   0.587216996
Cu1      0.500001133   0.000000792   0.587217024
Cu1     -0.000000305   0.500000707   0.587217055
Cu1      0.500000838   0.499998634   0.587217477

     Writing output data file calc.save
     Check: negative starting charge=   -0.000141
     NEW-OLD atomic charge density approx. for the potential
     Check: negative starting charge=   -0.000140

[...]

     energy   old            =   -4859.1918805324 Ry
     energy   new            =   -4859.2082327946 Ry

     CASE: energy  _new < energy  _old

[...]

     Total force =     0.006663     Total SCF correction =     0.000079

[...]

     CASE: energy  _new > energy  _old

[...]

     new trust radius        =       0.0000794170 bohr

     trust_radius < trust_radius_min

     resetting bfgs history

     new conv_thr            =       0.0000001000 Ry

[...]

     CASE: energy  _new > energy  _old

[...]

     Threshold (ethr) on eigenvalues was too large:
     Diagonalizing with lowered threshold

     Davidson diagonalization with overlap
     ethr =  3.12E-08,  avg # of iterations =  1.0

[...]

     small trust_radius: resetting bfgs history

[...]

     WARNING: bfgs curvature condition failed, Theta= 0.071
     new trust radius        =       0.0001500000 bohr
     new conv_thr            =       0.0000001000 Ry

[...]

     WARNING: bfgs curvature condition failed, Theta= 0.530
     uphill step: resetting bfgs history

[...]

     WARNING: info= 34 for Hessian
     new trust radius        =       0.0011390625 bohr
     new conv_thr            =       0.0000001000 Ry

[...]

     WARNING: info= 34 for Hessian
     new trust radius        =       0.0017085937 bohr
     new conv_thr            =       0.0000001000 Ry

[...]

     Threshold (ethr) on eigenvalues was too large:
     Diagonalizing with lowered threshold

     Davidson diagonalization with overlap
     ethr =  2.92E-08,  avg # of iterations =  1.0

[...]

     WARNING: info= 35 for Hessian

     WARNING: bfgs curvature condition failed, Theta= 0.039
     uphill step: resetting bfgs history

[...]

     WARNING: bfgs curvature condition failed, Theta= 0.891
     new trust radius        =       0.0038443359 bohr
     new conv_thr            =       0.0000001000 Ry

[...]

     Total force =     0.004868     Total SCF correction =     0.000657
     SCF correction compared to forces is large: reduce conv_thr to get better values

[...]

     number of scf cycles    =  18
     number of bfgs steps    =  13

     energy   old            =   -4859.2083500903 Ry
     energy   new            =   -4859.2084023367 Ry

     CASE: energy  _new < energy  _old

     new trust radius        =       0.0086497559 bohr
     new conv_thr            =       0.0000001000 Ry

ATOMIC_POSITIONS (crystal)
Cu1      0.166666667   0.166666667   0.412653782    0   0   0
Cu1      0.666666667   0.166666667   0.412653782    0   0   0
Cu1      0.166666667   0.666666667   0.412653782    0   0   0
Cu1      0.666666667   0.666666667   0.412653782    0   0   0
Cu1      0.833333333   0.333333333   0.500000000    0   0   0
Cu1      0.333333333   0.333333333   0.500000000    0   0   0
Cu1      0.833333333   0.833333333   0.500000000    0   0   0
Cu1      0.333333333   0.833333333   0.500000000    0   0   0
Cu1     -0.000034982  -0.000009962   0.586728683
Cu1      0.500157617  -0.000200329   0.586756012
Cu1     -0.000203868   0.500150160   0.586748444
Cu1      0.500082431   0.500062150   0.586756971

     Writing output data file calc.save
     Check: negative starting charge=   -0.000139
     NEW-OLD atomic charge density approx. for the potential
     Check: negative starting charge=   -0.000138

[...]

     Self-consistent Calculation

[...]

     total energy              =   -4859.20846651 Ry
     Harris-Foulkes estimate   =   -4859.20846652 Ry
     estimated scf accuracy    <       0.00000012 Ry

     iteration #  9     ecut=    36.75 Ry     beta=0.30
     Davidson diagonalization with overlap
     ethr =  5.09E-11,  avg # of iterations =  2.9

[...]

     negative rho (up, down):  1.057E-03 0.000E+00

     Adding external electric field

     Computed dipole along edir(3) :
        Dipole                0.0010 Ry au,          0.0025 Debye
        Dipole field          0.0000 Ry au

        Potential amp.       -0.0003 Ry
        Total length         44.6496 bohr

     End of self-consistent calculation

[...]

          k = 0.0643-0.0742 0.0000 ( 14299 PWs)   bands (ev):

[...]

          k =-0.0964-0.0557 0.0000 ( 14294 PWs)   bands (ev):

  -112.2738-112.2737-112.2700-112.2700-112.0029-112.0027-111.9992-111.9990
  -111.9918-111.9918-111.9881-111.9881 -69.6964 -69.6963 -69.6745 -69.6745
   -69.6702 -69.6702 -69.6682 -69.6681 -69.6632 -69.6631 -69.6482 -69.6481
   -69.4395 -69.4393 -69.4291 -69.4291 -69.4181 -69.4179 -69.4140 -69.4139
   -69.4077 -69.4076 -69.4036 -69.4036 -69.3925 -69.3923 -69.3821 -69.3821
   -69.3669 -69.3667 -69.3634 -69.3632 -69.3546 -69.3546 -69.3512 -69.3512
    -6.1609  -6.1604  -4.5357  -4.5353  -3.9104  -3.9102  -3.6717  -3.6713
    -3.6485  -3.6481  -3.3659  -3.3657  -3.1762  -3.1759  -3.0900  -3.0899
    -2.9510  -2.9509  -2.9208  -2.9208  -2.8068  -2.8064  -2.5969  -2.5966
    -2.4359  -2.4352  -2.4239  -2.4236  -2.3969  -2.3964  -2.2865  -2.2862
    -2.2797  -2.2793  -2.2642  -2.2639  -2.2518  -2.2514  -2.2156  -2.2154
    -2.0296  -2.0295  -1.8949  -1.8947  -1.8511  -1.8510  -1.7756  -1.7756
    -1.6928  -1.6920  -1.6545  -1.6541  -1.5677  -1.5676  -1.5397  -1.5396
    -1.3560  -1.3558  -1.3121  -1.3121  -1.2904  -1.2903  -1.2096  -1.2096
     0.2954   0.2954   0.6143   0.6148   1.4704   1.4705   3.1774   3.1781
     3.8868   3.8870   5.8165   5.8166

     the Fermi energy is     0.2989 ev

!    total energy              =   -4859.20846653 Ry
     Harris-Foulkes estimate   =   -4859.20846653 Ry
     estimated scf accuracy    <       0.00000003 Ry

     The total energy is the sum of the following terms:

     one-electron contribution =  -37080.11130271 Ry
     hartree contribution      =   18553.78305203 Ry
     xc contribution           =    -480.04318688 Ry
     ewald contribution        =   14147.19239214 Ry
     electric field correction =       0.00000000 Ry
     smearing contrib. (-TS)   =      -0.02942111 Ry

     convergence has been achieved in   9 iterations

 BEEF-vdW xc energy contributions
           1 :   -425.575027264402
           2 :    385.896326661707
           3 :   -318.642246970094
           4 :    242.317118732426
           5 :   -173.809764748269
           6 :    122.278513741023
           7 :   -87.6899826358035
           8 :    63.9785283392364
           9 :   -44.3408145587072
          10 :    25.3802956071351
          11 :   -8.02232112318711
          12 :   -4.62707820561576
          13 :    10.4758771651577
          14 :   -10.3847555257571
          15 :    7.72446146141363
          16 :   -6.17568046173898
          17 :    7.48806448543996
          18 :   -10.7333289373684
          19 :    13.4011042747090
          20 :   -13.4159825708745
          21 :    10.6243232729948
          22 :   -6.79233885314613
          23 :    4.25462793626286
          24 :   -4.26622662081911
          25 :    6.22011020877187
          26 :   -8.20664651935374
          27 :    8.43492909427010
          28 :   -6.47958672942946
          29 :    3.50103654254576
          30 :   -1.34624403607518
          31 :   -33.8012546668027
          32 :   -23.0785836908325

     Forces acting on atoms (Ry/au):

     negative rho (up, down):  1.057E-03 0.000E+00
     atom    1 type  1   force =    -0.00000216   -0.00000171    0.00356857
     atom    2 type  1   force =     0.00000204   -0.00000031    0.00356739
     atom    3 type  1   force =     0.00000104    0.00000223    0.00356583
     atom    4 type  1   force =    -0.00000159   -0.00000022    0.00356046
     atom    5 type  1   force =     0.00000519   -0.00001517   -0.00186070
     atom    6 type  1   force =    -0.00000686   -0.00000740   -0.00174928
     atom    7 type  1   force =     0.00000919    0.00000904   -0.00189995
     atom    8 type  1   force =    -0.00000735    0.00001371   -0.00185859
     atom    9 type  1   force =     0.00008166    0.00002972   -0.00169661
     atom   10 type  1   force =    -0.00008671    0.00026912   -0.00173299
     atom   11 type  1   force =     0.00020414   -0.00020157   -0.00172634
     atom   12 type  1   force =    -0.00019859   -0.00009745   -0.00173779

     Total force =     0.003479     Total SCF correction =     0.000157

     entering subroutine stress ...

     negative rho (up, down):  1.057E-03 0.000E+00
          total   stress  (Ry/bohr**3)                   (kbar)     P=  -21.79
  -0.00016784  -0.00000000  -0.00000000        -24.69     -0.00     -0.00
  -0.00000000  -0.00016784  -0.00000000         -0.00    -24.69     -0.00
  -0.00000000  -0.00000000  -0.00010870         -0.00     -0.00    -15.99

     bfgs converged in  19 scf cycles and  14 bfgs steps
     (criteria: energy <  1.0E+00, force <  1.9E-03)

     End of BFGS Geometry Optimization

     Final energy   =   -4859.2084665306 Ry
Begin final coordinates

ATOMIC_POSITIONS (crystal)
Cu1      0.166666667   0.166666667   0.412653782    0   0   0
Cu1      0.666666667   0.166666667   0.412653782    0   0   0
Cu1      0.166666667   0.666666667   0.412653782    0   0   0
Cu1      0.666666667   0.666666667   0.412653782    0   0   0
Cu1      0.833333333   0.333333333   0.500000000    0   0   0
Cu1      0.333333333   0.333333333   0.500000000    0   0   0
Cu1      0.833333333   0.833333333   0.500000000    0   0   0
Cu1      0.333333333   0.833333333   0.500000000    0   0   0
Cu1     -0.000034982  -0.000009962   0.586728683
Cu1      0.500157617  -0.000200329   0.586756012
Cu1     -0.000203868   0.500150160   0.586748444
Cu1      0.500082431   0.500062150   0.586756971
End final coordinates

     Writing output data file calc.save

     General routines

     Parallel routines

   This run was terminated on:  16: 7:24  30Apr2018

   JOB DONE.
Job  /afs/slac/g/suncat/bin/suncat-tsmpirun -x LD_LIBRARY_PATH -wdir /scratch/qe478841_aAQKl pw.x -npool 4 -in pw.inp

TID   HOST_NAME   COMMAND_LINE            STATUS            TERMINATION_TIME
00000 suncat0088 pw.x -npool 4 -i  Done                     04/30/2018 16:07:24
00001 suncat0088 pw.x -npool 4 -i  Done                     04/30/2018 16:07:24
00002 suncat0088 pw.x -npool 4 -i  Done                     04/30/2018 16:07:24
00003 suncat0088 pw.x -npool 4 -i  Done                     04/30/2018 16:07:24
00004 suncat0088 pw.x -npool 4 -i  Done                     04/30/2018 16:07:24
00005 suncat0088 pw.x -npool 4 -i  Done                     04/30/2018 16:07:24
00006 suncat0088 pw.x -npool 4 -i  Done                     04/30/2018 16:07:24
00007 suncat0088 pw.x -npool 4 -i  Done                     04/30/2018 16:07:24
00008 suncat0086 pw.x -npool 4 -i  Done                     04/30/2018 16:07:24
00009 suncat0086 pw.x -npool 4 -i  Done                     04/30/2018 16:07:24
00010 suncat0086 pw.x -npool 4 -i  Done                     04/30/2018 16:07:24
00011 suncat0086 pw.x -npool 4 -i  Done                     04/30/2018 16:07:24
00012 suncat0086 pw.x -npool 4 -i  Done                     04/30/2018 16:07:24
00013 suncat0086 pw.x -npool 4 -i  Done                     04/30/2018 16:07:24
00014 suncat0086 pw.x -npool 4 -i  Done                     04/30/2018 16:07:24
00015 suncat0086 pw.x -npool 4 -i  Done                     04/30/2018 16:07:24
00016 suncat0077 pw.x -npool 4 -i  Done                     04/30/2018 16:07:24
00017 suncat0077 pw.x -npool 4 -i  Done                     04/30/2018 16:07:24
00018 suncat0077 pw.x -npool 4 -i  Done                     04/30/2018 16:07:24
00019 suncat0077 pw.x -npool 4 -i  Done                     04/30/2018 16:07:24
00020 suncat0077 pw.x -npool 4 -i  Done                     04/30/2018 16:07:24
00021 suncat0077 pw.x -npool 4 -i  Done                     04/30/2018 16:07:24
00022 suncat0077 pw.x -npool 4 -i  Done                     04/30/2018 16:07:24
00023 suncat0077 pw.x -npool 4 -i  Done                     04/30/2018 16:07:24
00024 suncat0252 pw.x -npool 4 -i  Done                     04/30/2018 16:07:24
00025 suncat0252 pw.x -npool 4 -i  Done                     04/30/2018 16:07:24
00026 suncat0252 pw.x -npool 4 -i  Done                     04/30/2018 16:07:24
00027 suncat0252 pw.x -npool 4 -i  Done                     04/30/2018 16:07:24
00028 suncat0252 pw.x -npool 4 -i  Done                     04/30/2018 16:07:24
00029 suncat0252 pw.x -npool 4 -i  Done                     04/30/2018 16:07:24
00030 suncat0252 pw.x -npool 4 -i  Done                     04/30/2018 16:07:24
00031 suncat0252 pw.x -npool 4 -i  Done                     04/30/2018 16:07:24