     Program PWSCF v.5.1rc2 (svn rev. 11289) starts on 30Apr2018 at 15:12: 3

     Current dimensions of program PWSCF are:
     Max number of different atomic species (ntypx) = 10
     Max number of k-points (npk) =  40000
     Max angular momentum in pseudopotentials (lmaxx) =  3
     Presently stress not available with electric field

     IMPORTANT: XC functional enforced from input :
     Exchange-correlation      = BEEF-VDW ( 1  4 27 13 2)
     Any further DFT definition will be discarded
     Please, verify this is what you really want

     Subspace diagonalization in iterative solution of the eigenvalue problem:
     a serial algorithm will be used

     Found symmetry operation: I + ( -0.5000  0.0000  0.0000)
     This is a supercell, fractional translations are disabled

     bravais-lattice index     =            0
     lattice parameter (alat)  =       1.8897  a.u.
     unit-cell volume          =    6116.8020 (a.u.)^3
     number of atoms/cell      =           12
     number of atomic types    =            1
     number of electrons       =       132.00
     number of Kohn-Sham states=           76
     kinetic-energy cutoff     =      36.7493  Ry
     charge density cutoff     =     367.4932  Ry
     convergence threshold     =      1.0E-05
     mixing beta               =       0.3000
     number of iterations used =           10  plain     mixing
     Exchange-correlation      = BEEF-VDW ( 1  4 27 13 2)
     nstep                     =           50

     celldm(1)=   1.889726  celldm(2)=   0.000000  celldm(3)=   0.000000
     celldm(4)=   0.000000  celldm(5)=   0.000000  celldm(6)=   0.000000

     crystal axes: (cart. coord. in units of alat)
               a(1) = (   6.437465   0.000000   0.000000 )
               a(2) = (   3.218732   5.575008   0.000000 )
               a(3) = (   0.000000   0.000000  25.256168 )

     reciprocal axes: (cart. coord. in units 2 pi/alat)
               b(1) = (  0.155341 -0.089686  0.000000 )
               b(2) = (  0.000000  0.179372  0.000000 )
               b(3) = (  0.000000  0.000000  0.039594 )

     PseudoPot. # 1 for Sc read from file:
     /u/if/mamunm/psp/gbrv1.5pbe/Sc.UPF
     MD5 check sum: db30a2753ba66ef00f23801d899b7e7f
     Pseudo is Ultrasoft + core correction, Zval = 11.0
     Generated by new atomic code, or converted to UPF format
     Using radial grid of  849 points,  6 beta functions with:
                l(1) =   0
                l(2) =   0
                l(3) =   1
                l(4) =   1
                l(5) =   2
                l(6) =   2
     Q(r) pseudized with  6 coefficients,  rinner =    1.200   1.200   1.200
                                                       1.200   1.200

     vdW kernel table read from file vdW_kernel_table
     MD5 check sum: 095c7af220d748ca6e76c0b4c6cfb241

     atomic species   valence    mass     pseudopotential
        Sc1           11.00    44.95591     Sc( 1.00)

     No symmetry found

   Cartesian axes

     site n.     atom                  positions (alat units)
         1           Sc1 tau(   1) = (   1.6093662   0.9291680  10.0000000  )
         2           Sc1 tau(   2) = (   4.8280986   0.9291680  10.0000000  )
         3           Sc1 tau(   3) = (   3.2187324   3.7166720  10.0000000  )
         4           Sc1 tau(   4) = (   6.4374648   3.7166720  10.0000000  )
         5           Sc1 tau(   5) = (   6.4374648   1.8583360  12.6280840  )
         6           Sc1 tau(   6) = (   3.2187324   1.8583360  12.6280840  )
         7           Sc1 tau(   7) = (   8.0468310   4.6458400  12.6280840  )
         8           Sc1 tau(   8) = (   4.8280986   4.6458400  12.6280840  )
         9           Sc1 tau(   9) = (   0.0000000   0.0000000  15.2561680  )
        10           Sc1 tau(  10) = (   3.2187324   0.0000000  15.2561680  )
        11           Sc1 tau(  11) = (   1.6093662   2.7875040  15.2561680  )
        12           Sc1 tau(  12) = (   4.8280986   2.7875040  15.2561680  )

     number of k points=    20  Fermi-Dirac smearing, width (Ry)=  0.0110
                       cart. coord. in units 2pi/alat
        k(    1) = (   0.0000000   0.0000000   0.0000000), wk =   0.0555556
        k(    2) = (   0.0000000   0.0298953   0.0000000), wk =   0.1111111
        k(    3) = (   0.0000000   0.0597906   0.0000000), wk =   0.1111111
        k(    4) = (   0.0000000  -0.0896860   0.0000000), wk =   0.0555556
        k(    5) = (   0.0258901  -0.0149477   0.0000000), wk =   0.1111111
        k(    6) = (   0.0258901   0.0149477   0.0000000), wk =   0.1111111
        k(    7) = (   0.0258901   0.0448430   0.0000000), wk =   0.1111111
        k(    8) = (   0.0258901  -0.1046336   0.0000000), wk =   0.1111111
        k(    9) = (   0.0258901  -0.0747383   0.0000000), wk =   0.1111111
        k(   10) = (   0.0258901  -0.0448430   0.0000000), wk =   0.1111111
        k(   11) = (   0.0517802  -0.0298953   0.0000000), wk =   0.1111111
        k(   12) = (   0.0517802   0.0000000   0.0000000), wk =   0.1111111
        k(   13) = (   0.0517802   0.0298953   0.0000000), wk =   0.1111111
        k(   14) = (   0.0517802  -0.1195813   0.0000000), wk =   0.1111111
        k(   15) = (   0.0517802  -0.0896860   0.0000000), wk =   0.1111111
        k(   16) = (   0.0517802  -0.0597906   0.0000000), wk =   0.1111111
        k(   17) = (  -0.0776703   0.0448430   0.0000000), wk =   0.0555556
        k(   18) = (  -0.0776703   0.0747383   0.0000000), wk =   0.1111111
        k(   19) = (  -0.0776703   0.1046336   0.0000000), wk =   0.1111111
        k(   20) = (  -0.0776703  -0.0448430   0.0000000), wk =   0.0555556

     Largest allocated arrays     est. size (Mb)     dimensions
     Largest temporary arrays     est. size (Mb)     dimensions

     Initial potential from superposition of free atoms
     Check: negative starting charge=   -0.000298

     starting charge  131.97117, renormalised to  132.00000

     negative rho (up, down):  2.981E-04 0.000E+00

     *
     * You are using vdW-DF for exchange-correlation in this calculation.
     * Please cite the following three references that made this development
     * possible:
     *
     *   M. Dion, H. Rydberg, E. Schroder, D. C. Langreth, and
     *   B. I. Lundqvist, Phys. Rev. Lett. 92, 246401 (2004).
     *
     *   T. Thonhauser, V. R. Cooper, S. Li, A. Puzder, P. Hyldgaard, and
     *   D. C. Langreth, Phys. Rev. B 76, 125112 (2007).
     *
     *   G. Roman-Perez and J. M. Soler, Phys. Rev. Lett. 103, 096102 (2009).
     *
     *
     * If you are using vdW-DF2, please also cite:
     *
     *   K. Lee, E. D. Murray, L. Kong, B. I. Lundqvist, and
     *   D. C. Langreth, Phys. Rev. B 82, 081101(R) (2010).
     *
     *
     * If you are calculating the stress with vdW-DF, please also cite:
     *
     *   R. Sabatini, E. Kucukbenli, B. Kolb, T. Thonhauser, and
     *   S. de Gironcoli, J. Phys.: Condens. Matter 24, 424209 (2012).
     *

     Carrying out vdW-DF run using the following parameters:

     Nqs =      20    Nr_points =    1024   r_max =   100.000
     q_mesh =
               0.00001000     0.04494208     0.09755937     0.15916263
               0.23128650     0.31572767     0.41458969     0.53033537
               0.66584808     0.82450364     1.01025438     1.22772762
               1.48234092     1.78043706     2.12944203     2.53805004
               3.01644009     3.57652955     4.23227104     5.00000000

     Gradients computed in reciprocal space

     Adding external electric field

     Computed dipole along edir(3) :
        Dipole                0.0000 Ry au,          0.0000 Debye
        Dipole field          0.0000 Ry au

        Potential amp.       -0.0000 Ry
        Total length         46.5341 bohr

     Starting wfc are  156 randomized atomic wfcs

     Self-consistent Calculation

     iteration #  1     ecut=    36.75 Ry     beta=0.30
     Davidson diagonalization with overlap
     ethr =  1.00E-02,  avg # of iterations =  2.0

[...]

     total energy              =   -1134.75054417 Ry
     Harris-Foulkes estimate   =   -1138.17106445 Ry
     estimated scf accuracy    <       7.15469515 Ry

[...]

     total energy              =   -1137.60194307 Ry
     Harris-Foulkes estimate   =   -1137.60194350 Ry
     estimated scf accuracy    <       0.00001235 Ry

     iteration # 21     ecut=    36.75 Ry     beta=0.30
     Davidson diagonalization with overlap
     ethr =  9.35E-09,  avg # of iterations =  1.2

[...]

     negative rho (up, down):  8.784E-05 0.000E+00

     Adding external electric field

     Computed dipole along edir(3) :
        Dipole                0.0020 Ry au,          0.0050 Debye
        Dipole field          0.0000 Ry au

        Potential amp.       -0.0004 Ry
        Total length         46.5341 bohr

     End of self-consistent calculation

          k = 0.0000 0.0000 0.0000 ( 23031 PWs)   bands (ev):

   -49.4636 -49.4623 -49.4180 -49.4176 -49.4170 -49.4169 -49.4167 -49.4158
   -49.0139 -48.9700 -48.9690 -48.9687 -28.1814 -28.1811 -28.1807 -28.1689
   -28.1686 -28.1682 -28.1633 -28.1217 -28.0977 -28.0969 -28.0965 -28.0733
   -28.0724 -28.0720 -27.9173 -27.9170 -27.9166 -27.9145 -27.9142 -27.9138
   -27.8375 -27.8375 -27.8365 -27.8364 -27.7345 -27.7344 -27.7340 -27.5763
   -27.5532 -27.5523 -27.5520 -27.4967 -27.4965 -27.4960 -27.4199 -27.4198
    -4.2734  -3.2263  -1.9084  -1.0114  -1.0113  -1.0113  -0.9017  -0.9016
    -0.9014  -0.6425  -0.6424  -0.6422  -0.0819  -0.0818  -0.0818   0.1837
     0.1839   0.1841   0.5673   0.5894   0.9898   1.0802   1.0803   1.0806
     1.1350   1.1350   1.1350   1.7086

[...]

          k = 0.0518-0.0598 0.0000 ( 23012 PWs)   bands (ev):

[...]

          k =-0.0777 0.0448 0.0000 ( 23032 PWs)   bands (ev):

[...]

          k =-0.0777-0.0448 0.0000 ( 23032 PWs)   bands (ev):

   -49.4408 -49.4401 -49.4397 -49.4394 -49.4177 -49.4169 -49.4168 -49.4166
   -48.9922 -48.9911 -48.9698 -48.9687 -28.1230 -28.1226 -28.1174 -28.1172
   -28.1065 -28.1062 -28.1037 -28.1032 -28.0858 -28.0855 -28.0801 -28.0798
   -28.0121 -28.0116 -28.0052 -28.0047 -27.9834 -27.9829 -27.9807 -27.9806
   -27.8777 -27.8772 -27.8756 -27.8753 -27.6775 -27.6766 -27.5831 -27.5820
   -27.5619 -27.5609 -27.5602 -27.5592 -27.5502 -27.5492 -27.4588 -27.4578
    -2.9614  -2.9613  -1.9988  -1.9987  -1.0391  -1.0391  -0.8046  -0.8044
    -0.4993  -0.4990   0.2303   0.2306   0.2310   0.2311   0.2671   0.2672
     0.4916   0.4917   0.5617   0.5619   0.5989   0.5992   0.6674   0.6675
     0.8864   0.8866   0.9654   0.9657

     the Fermi energy is     0.4846 ev

!    total energy              =   -1137.60193582 Ry
     Harris-Foulkes estimate   =   -1137.60194322 Ry
     estimated scf accuracy    <       0.00000820 Ry

     The total energy is the sum of the following terms:

     one-electron contribution =   -7114.87148019 Ry
     hartree contribution      =    3539.55413337 Ry
     xc contribution           =    -166.34145800 Ry
     ewald contribution        =    2604.19727500 Ry
     electric field correction =       0.00000001 Ry
     smearing contrib. (-TS)   =      -0.14040601 Ry

     convergence has been achieved in  21 iterations

 BEEF-vdW xc energy contributions
           1 :   -141.016979932739
           2 :    124.178056837314
           3 :   -97.9308707502869
           4 :    72.4661892181242
           5 :   -54.9642963631166
           6 :    46.6348629103392
           7 :   -43.9426812462075
           8 :    42.2922601082084
           9 :   -39.1850326278020
          10 :    34.9521292328234
          11 :   -31.2992494225883
          12 :    29.3297501835716
          13 :   -28.6470698482557
          14 :    27.9566882746252
          15 :   -26.3501490383836
          16 :    24.0535415284205
          17 :   -22.0650552538466
          18 :    21.1428254957054
          19 :   -21.1219438907536
          20 :    21.1336519910689
          21 :   -20.4322195414570
          22 :    19.0274783234681
          23 :   -17.5879149882844
          24 :    16.7808542615786
          25 :   -16.6878010784447
          26 :    16.7945863304665
          27 :   -16.5042172328065
          28 :    15.6698995894967
          29 :   -14.6771191396803
          30 :    14.0429714265465
          31 :   -16.5936508746386
          32 :   -11.9117447864587

     Forces acting on atoms (Ry/au):

     negative rho (up, down):  8.784E-05 0.000E+00
     atom    1 type  1   force =     0.00000935    0.00004291    0.00104447
     atom    2 type  1   force =     0.00000090    0.00001230    0.00109627
     atom    3 type  1   force =    -0.00003309   -0.00003341    0.00086374
     atom    4 type  1   force =     0.00003172   -0.00001357    0.00097827
     atom    5 type  1   force =     0.00002204   -0.00000400    0.00009268
     atom    6 type  1   force =    -0.00001424    0.00004493    0.00003919
     atom    7 type  1   force =     0.00004871   -0.00002956    0.00004131
     atom    8 type  1   force =    -0.00005985   -0.00001180    0.00003613
     atom    9 type  1   force =    -0.00002949    0.00000099   -0.00099012
     atom   10 type  1   force =     0.00001965    0.00002041   -0.00100486
     atom   11 type  1   force =     0.00002585    0.00000112   -0.00112615
     atom   12 type  1   force =    -0.00002156   -0.00003032   -0.00107093

     Total force =     0.002100     Total SCF correction =     0.005232
     SCF correction compared to forces is large: reduce conv_thr to get better values

     entering subroutine stress ...

     negative rho (up, down):  8.784E-05 0.000E+00
          total   stress  (Ry/bohr**3)                   (kbar)     P=    1.84
   0.00002265   0.00000001  -0.00000001          3.33      0.00     -0.00
   0.00000001   0.00002261  -0.00000001          0.00      3.33     -0.00
  -0.00000001  -0.00000001  -0.00000772         -0.00     -0.00     -1.14

     BFGS Geometry Optimization

     bfgs converged in   1 scf cycles and   0 bfgs steps
     (criteria: energy <  1.0E+00, force <  1.9E-03)

     End of BFGS Geometry Optimization

     Final energy   =   -1137.6019358221 Ry
Begin final coordinates

ATOMIC_POSITIONS (crystal)
Sc1      0.166666667   0.166666667   0.395942884    0   0   0
Sc1      0.666666667   0.166666667   0.395942884    0   0   0
Sc1      0.166666667   0.666666667   0.395942884    0   0   0
Sc1      0.666666667   0.666666667   0.395942884    0   0   0
Sc1      0.833333333   0.333333333   0.500000000    0   0   0
Sc1      0.333333333   0.333333333   0.500000000    0   0   0
Sc1      0.833333333   0.833333333   0.500000000    0   0   0
Sc1      0.333333333   0.833333333   0.500000000    0   0   0
Sc1      0.000000000   0.000000000   0.604057116
Sc1      0.500000000   0.000000000   0.604057116
Sc1      0.000000000   0.500000000   0.604057116
Sc1      0.500000000   0.500000000   0.604057116
End final coordinates

     Writing output data file calc.save

     General routines

     Parallel routines

   This run was terminated on:  15:22:21  30Apr2018

   JOB DONE.
Job  /afs/slac/g/suncat/bin/suncat-tsmpirun -x LD_LIBRARY_PATH -wdir /scratch/qe487828_bxFuk pw.x -npool 4 -in pw.inp

TID   HOST_NAME   COMMAND_LINE            STATUS            TERMINATION_TIME
00000 suncat0083 pw.x -npool 4 -i  Done                     04/30/2018 15:22:21
00001 suncat0083 pw.x -npool 4 -i  Done                     04/30/2018 15:22:21
00002 suncat0083 pw.x -npool 4 -i  Done                     04/30/2018 15:22:21
00003 suncat0083 pw.x -npool 4 -i  Done                     04/30/2018 15:22:21
00004 suncat0083 pw.x -npool 4 -i  Done                     04/30/2018 15:22:21
00005 suncat0083 pw.x -npool 4 -i  Done                     04/30/2018 15:22:21
00006 suncat0083 pw.x -npool 4 -i  Done                     04/30/2018 15:22:21
00007 suncat0083 pw.x -npool 4 -i  Done                     04/30/2018 15:22:21
00008 suncat0065 pw.x -npool 4 -i  Done                     04/30/2018 15:22:21
00009 suncat0065 pw.x -npool 4 -i  Done                     04/30/2018 15:22:21
00010 suncat0065 pw.x -npool 4 -i  Done                     04/30/2018 15:22:21
00011 suncat0065 pw.x -npool 4 -i  Done                     04/30/2018 15:22:21
00012 suncat0065 pw.x -npool 4 -i  Done                     04/30/2018 15:22:21
00013 suncat0065 pw.x -npool 4 -i  Done                     04/30/2018 15:22:21
00014 suncat0065 pw.x -npool 4 -i  Done                     04/30/2018 15:22:21
00015 suncat0065 pw.x -npool 4 -i  Done                     04/30/2018 15:22:21
00016 suncat0114 pw.x -npool 4 -i  Done                     04/30/2018 15:22:21
00017 suncat0114 pw.x -npool 4 -i  Done                     04/30/2018 15:22:21
00018 suncat0114 pw.x -npool 4 -i  Done                     04/30/2018 15:22:21
00019 suncat0114 pw.x -npool 4 -i  Done                     04/30/2018 15:22:21
00020 suncat0114 pw.x -npool 4 -i  Done                     04/30/2018 15:22:21
00021 suncat0114 pw.x -npool 4 -i  Done                     04/30/2018 15:22:21
00022 suncat0114 pw.x -npool 4 -i  Done                     04/30/2018 15:22:21
00023 suncat0114 pw.x -npool 4 -i  Done                     04/30/2018 15:22:21
00024 suncat0225 pw.x -npool 4 -i  Done                     04/30/2018 15:22:21
00025 suncat0225 pw.x -npool 4 -i  Done                     04/30/2018 15:22:21
00026 suncat0225 pw.x -npool 4 -i  Done                     04/30/2018 15:22:21
00027 suncat0225 pw.x -npool 4 -i  Done                     04/30/2018 15:22:21
00028 suncat0225 pw.x -npool 4 -i  Done                     04/30/2018 15:22:21
00029 suncat0225 pw.x -npool 4 -i  Done                     04/30/2018 15:22:21
00030 suncat0225 pw.x -npool 4 -i  Done                     04/30/2018 15:22:21
00031 suncat0225 pw.x -npool 4 -i  Done                     04/30/2018 15:22:21