     Program PWSCF v.5.1rc2 (svn rev. 11289) starts on 30Apr2018 at 16: 0:40

     Current dimensions of program PWSCF are:
     Max number of different atomic species (ntypx) = 10
     Max number of k-points (npk) =  40000
     Max angular momentum in pseudopotentials (lmaxx) =  3
     Presently stress not available with electric field

     IMPORTANT: XC functional enforced from input :
     Exchange-correlation      = BEEF-VDW ( 1  4 27 13 2)
     Any further DFT definition will be discarded
     Please, verify this is what you really want

     Subspace diagonalization in iterative solution of the eigenvalue problem:
     a serial algorithm will be used

     Found symmetry operation: I + ( -0.5000  0.0000  0.0000)
     This is a supercell, fractional translations are disabled

     bravais-lattice index     =            0
     lattice parameter (alat)  =       1.8897  a.u.
     unit-cell volume          =    8507.0471 (a.u.)^3
     number of atoms/cell      =           12
     number of atomic types    =            1
     number of electrons       =       132.00
     number of Kohn-Sham states=           76
     kinetic-energy cutoff     =      36.7493  Ry
     charge density cutoff     =     367.4932  Ry
     convergence threshold     =      1.0E-05
     mixing beta               =       0.3000
     number of iterations used =           10  plain     mixing
     Exchange-correlation      = BEEF-VDW ( 1  4 27 13 2)
     nstep                     =           50

     celldm(1)=   1.889726  celldm(2)=   0.000000  celldm(3)=   0.000000
     celldm(4)=   0.000000  celldm(5)=   0.000000  celldm(6)=   0.000000

     crystal axes: (cart. coord. in units of alat)
               a(1) = (   7.468327   0.000000   0.000000 )
               a(2) = (   3.734164   6.467761   0.000000 )
               a(3) = (   0.000000   0.000000  26.097863 )

     reciprocal axes: (cart. coord. in units 2 pi/alat)
               b(1) = (  0.133899 -0.077307  0.000000 )
               b(2) = (  0.000000  0.154613  0.000000 )
               b(3) = (  0.000000  0.000000  0.038317 )

     PseudoPot. # 1 for La read from file:
     /u/if/mamunm/psp/gbrv1.5pbe/La.UPF
     MD5 check sum: 5937b0c7494ba0601a847275249473aa
     Pseudo is Ultrasoft + core correction, Zval = 11.0
     Generated by new atomic code, or converted to UPF format
     Using radial grid of  995 points,  8 beta functions with:
                l(1) =   0
                l(2) =   0
                l(3) =   1
                l(4) =   1
                l(5) =   2
                l(6) =   2
                l(7) =   3
                l(8) =   3
     Q(r) pseudized with  8 coefficients,  rinner =    1.700   1.700   1.700
                                                       1.700   1.700   1.700
                                                       1.700

     vdW kernel table read from file vdW_kernel_table
     MD5 check sum: 095c7af220d748ca6e76c0b4c6cfb241

     atomic species   valence    mass     pseudopotential
        La1           11.00   138.90547     La( 1.00)

     No symmetry found

   Cartesian axes

     site n.     atom                  positions (alat units)
         1           La1 tau(   1) = (   1.8670818   1.0779602  10.0000000  )
         2           La1 tau(   2) = (   5.6012453   1.0779602  10.0000000  )
         3           La1 tau(   3) = (   3.7341635   4.3118406  10.0000000  )
         4           La1 tau(   4) = (   7.4683270   4.3118406  10.0000000  )
         5           La1 tau(   5) = (   7.4683270   2.1559203  13.0489317  )
         6           La1 tau(   6) = (   3.7341635   2.1559203  13.0489317  )
         7           La1 tau(   7) = (   9.3354088   5.3898008  13.0489317  )
         8           La1 tau(   8) = (   5.6012453   5.3898008  13.0489317  )
         9           La1 tau(   9) = (   0.0000000   0.0000000  16.0978635  )
        10           La1 tau(  10) = (   3.7341635   0.0000000  16.0978635  )
        11           La1 tau(  11) = (   1.8670818   3.2338805  16.0978635  )
        12           La1 tau(  12) = (   5.6012453   3.2338805  16.0978635  )

     number of k points=    20  Fermi-Dirac smearing, width (Ry)=  0.0110
                       cart. coord. in units 2pi/alat
        k(    1) = (   0.0000000   0.0000000   0.0000000), wk =   0.0555556
        k(    2) = (   0.0000000   0.0257688   0.0000000), wk =   0.1111111
        k(    3) = (   0.0000000   0.0515377   0.0000000), wk =   0.1111111
        k(    4) = (   0.0000000  -0.0773065   0.0000000), wk =   0.0555556
        k(    5) = (   0.0223165  -0.0128844   0.0000000), wk =   0.1111111
        k(    6) = (   0.0223165   0.0128844   0.0000000), wk =   0.1111111
        k(    7) = (   0.0223165   0.0386533   0.0000000), wk =   0.1111111
        k(    8) = (   0.0223165  -0.0901909   0.0000000), wk =   0.1111111
        k(    9) = (   0.0223165  -0.0644221   0.0000000), wk =   0.1111111
        k(   10) = (   0.0223165  -0.0386533   0.0000000), wk =   0.1111111
        k(   11) = (   0.0446329  -0.0257688   0.0000000), wk =   0.1111111
        k(   12) = (   0.0446329   0.0000000   0.0000000), wk =   0.1111111
        k(   13) = (   0.0446329   0.0257688   0.0000000), wk =   0.1111111
        k(   14) = (   0.0446329  -0.1030753   0.0000000), wk =   0.1111111
        k(   15) = (   0.0446329  -0.0773065   0.0000000), wk =   0.1111111
        k(   16) = (   0.0446329  -0.0515377   0.0000000), wk =   0.1111111
        k(   17) = (  -0.0669494   0.0386533   0.0000000), wk =   0.0555556
        k(   18) = (  -0.0669494   0.0644221   0.0000000), wk =   0.1111111
        k(   19) = (  -0.0669494   0.0901909   0.0000000), wk =   0.1111111
        k(   20) = (  -0.0669494  -0.0386533   0.0000000), wk =   0.0555556

     Largest allocated arrays     est. size (Mb)     dimensions
     Largest temporary arrays     est. size (Mb)     dimensions

     Initial potential from superposition of free atoms
     Check: negative starting charge=   -0.831360

     starting charge  131.61518, renormalised to  132.00000

     negative rho (up, down):  8.338E-01 0.000E+00

     *
     * You are using vdW-DF for exchange-correlation in this calculation.
     * Please cite the following three references that made this development
     * possible:
     *
     *   M. Dion, H. Rydberg, E. Schroder, D. C. Langreth, and
     *   B. I. Lundqvist, Phys. Rev. Lett. 92, 246401 (2004).
     *
     *   T. Thonhauser, V. R. Cooper, S. Li, A. Puzder, P. Hyldgaard, and
     *   D. C. Langreth, Phys. Rev. B 76, 125112 (2007).
     *
     *   G. Roman-Perez and J. M. Soler, Phys. Rev. Lett. 103, 096102 (2009).
     *
     *
     * If you are using vdW-DF2, please also cite:
     *
     *   K. Lee, E. D. Murray, L. Kong, B. I. Lundqvist, and
     *   D. C. Langreth, Phys. Rev. B 82, 081101(R) (2010).
     *
     *
     * If you are calculating the stress with vdW-DF, please also cite:
     *
     *   R. Sabatini, E. Kucukbenli, B. Kolb, T. Thonhauser, and
     *   S. de Gironcoli, J. Phys.: Condens. Matter 24, 424209 (2012).
     *

     Carrying out vdW-DF run using the following parameters:

     Nqs =      20    Nr_points =    1024   r_max =   100.000
     q_mesh =
               0.00001000     0.04494208     0.09755937     0.15916263
               0.23128650     0.31572767     0.41458969     0.53033537
               0.66584808     0.82450364     1.01025438     1.22772762
               1.48234092     1.78043706     2.12944203     2.53805004
               3.01644009     3.57652955     4.23227104     5.00000000

     Gradients computed in reciprocal space

     Adding external electric field

     Computed dipole along edir(3) :
        Dipole                0.0000 Ry au,          0.0000 Debye
        Dipole field          0.0000 Ry au

        Potential amp.       -0.0000 Ry
        Total length         48.0849 bohr

     Starting wfc are  240 randomized atomic wfcs

     Self-consistent Calculation

     iteration #  1     ecut=    36.75 Ry     beta=0.30
     Davidson diagonalization with overlap
     ethr =  1.00E-02,  avg # of iterations =  2.0

[...]

     total energy              =   -1244.87842672 Ry
     Harris-Foulkes estimate   =   -1249.01171708 Ry
     estimated scf accuracy    <       8.56959396 Ry

[...]

     End of self-consistent calculation

          k = 0.0000 0.0000 0.0000 ( 31997 PWs)   bands (ev):

   -31.4706 -31.4613 -31.3351 -31.3344 -31.3341 -31.3338 -31.3333 -31.3327
   -31.0052 -30.8843 -30.8832 -30.8821 -15.5722 -15.5718 -15.5715 -15.5031
   -15.5027 -15.5024 -15.4167 -15.3159 -15.3158 -15.3157 -15.1319 -14.9631
   -14.9625 -14.9619 -14.7863 -14.7861 -14.7858 -14.7350 -14.7347 -14.7344
   -14.7089 -14.7087 -14.7084 -14.4748 -14.4747 -14.4664 -14.4663 -14.3871
   -14.3865 -14.3859 -14.3584 -14.2834 -14.2832 -14.2829 -14.0549 -14.0548
    -0.9250  -0.2318   0.1946   0.2416   0.2419   0.2421   0.5232   0.5232
     0.5232   0.7239   0.7240   0.7242   0.8556   0.8556   0.8557   1.5814
     1.5816   1.5818   2.0125   2.2313   2.4227   2.4229   2.4230   2.7059
     2.9677   3.0716   3.0719   3.0756

[...]

          k =-0.0669 0.0387 0.0000 ( 31970 PWs)   bands (ev):

[...]

     the Fermi energy is     1.8886 ev

!    total energy              =   -1248.14560620 Ry
     Harris-Foulkes estimate   =   -1248.14983422 Ry
     estimated scf accuracy    <       0.00000390 Ry

     The total energy is the sum of the following terms:

     one-electron contribution =   -4635.46106634 Ry
     hartree contribution      =    2329.08371387 Ry
     xc contribution           =    -608.43883187 Ry
     ewald contribution        =    1666.79780640 Ry
     electric field correction =       0.00000000 Ry
     smearing contrib. (-TS)   =      -0.12722827 Ry

     convergence has been achieved in  23 iterations

 BEEF-vdW xc energy contributions
           1 :   -538.908481191990
           2 :    495.960337681595
           3 :   -419.846577006619
           4 :    326.663471383049
           5 :   -233.688134874029
           6 :    154.717021246319
           7 :   -97.3707450140853
           8 :    62.7288677711493
           9 :   -46.7938020928705
          10 :    42.8697273470370
          11 :   -43.9507193769551
          12 :    44.4534853699345
          13 :   -41.0374483238750
          14 :    32.6446081383349
          15 :   -20.1018525343711
          16 :    5.55450423857019
          17 :    8.18542429814352
          18 :   -18.3912019334058
          19 :    23.2024155432080
          20 :   -22.2276855487085
          21 :    16.7167876289082
          22 :   -9.17077800291634
          23 :    2.47559074546120
          24 :    1.12916579790317
          25 :  -0.827117447055230
          26 :   -2.59263399632277
          27 :    7.22260684446633
          28 :   -10.9508124550962
          29 :    12.3631796677823
          30 :   -11.2365082469473
          31 :   -45.6947454546051
          32 :   -32.8167886547450

     Forces acting on atoms (Ry/au):

     negative rho (up, down):  5.878E-01 0.000E+00
     atom    1 type  1   force =     0.00015595   -0.00008533    0.00362112
     atom    2 type  1   force =    -0.00016688    0.00004611    0.00367427
     atom    3 type  1   force =     0.00010005   -0.00007038    0.00361957
     atom    4 type  1   force =    -0.00011248    0.00011353    0.00368119
     atom    5 type  1   force =    -0.00003566    0.00003150   -0.00001607
     atom    6 type  1   force =     0.00003255    0.00000190   -0.00002428
     atom    7 type  1   force =    -0.00001329   -0.00000067   -0.00005356
     atom    8 type  1   force =     0.00001933   -0.00004079   -0.00002008
     atom    9 type  1   force =     0.00009285   -0.00010477   -0.00363847
     atom   10 type  1   force =    -0.00008164    0.00003831   -0.00357926
     atom   11 type  1   force =     0.00012179   -0.00001694   -0.00366150
     atom   12 type  1   force =    -0.00011258    0.00008755   -0.00360293

     Total force =     0.007246     Total SCF correction =     0.004762
     SCF correction compared to forces is large: reduce conv_thr to get better values

     entering subroutine stress ...

     negative rho (up, down):  5.878E-01 0.000E+00
          total   stress  (Ry/bohr**3)                   (kbar)     P=   -2.41
  -0.00001383  -0.00000009   0.00000001         -2.03     -0.01      0.00
  -0.00000009  -0.00001393   0.00000000         -0.01     -2.05      0.00
   0.00000001   0.00000000  -0.00002147          0.00      0.00     -3.16

     BFGS Geometry Optimization

     number of scf cycles    =   1
     number of bfgs steps    =   0

     energy   new            =   -1248.1456061973 Ry

     new trust radius        =       0.0036635667 bohr
     new conv_thr            =       0.0000099958 Ry

ATOMIC_POSITIONS (crystal)
La1      0.166666667   0.166666667   0.383173129    0   0   0
La1      0.666666667   0.166666667   0.383173129    0   0   0
La1      0.166666667   0.666666667   0.383173129    0   0   0
La1      0.666666667   0.666666667   0.383173129    0   0   0
La1      0.833333333   0.333333333   0.500000000    0   0   0
La1      0.333333333   0.333333333   0.500000000    0   0   0
La1      0.833333333   0.833333333   0.500000000    0   0   0
La1      0.333333333   0.833333333   0.500000000    0   0   0
La1      0.000010865  -0.000008572   0.616753095
La1      0.499992648   0.000003135   0.616754296
La1      0.000009323   0.499998614   0.616752628
La1      0.499988442   0.500007163   0.616753816

     Writing output data file calc.save
     Check: negative starting charge=   -0.831360
     NEW-OLD atomic charge density approx. for the potential
     Check: negative starting charge=   -0.831121

[...]

     energy   old            =   -1248.1456061973 Ry
     energy   new            =   -1248.1583295745 Ry

     CASE: energy  _new < energy  _old

     WARNING: bfgs curvature condition failed, Theta= 0.816
     new trust radius        =       0.0054953501 bohr
     new conv_thr            =       0.0000001000 Ry

[...]

     WARNING: bfgs curvature condition failed, Theta= 0.961
     new trust radius        =       0.0123645377 bohr
     new conv_thr            =       0.0000001000 Ry

[...]

     Total force =     0.005276     Total SCF correction =     0.000145

[...]

     number of scf cycles    =   6
     number of bfgs steps    =   5

     energy   old            =   -1248.1586381236 Ry
     energy   new            =   -1248.1588190236 Ry

     CASE: energy  _new < energy  _old

     new trust radius        =       0.0278202098 bohr
     new conv_thr            =       0.0000001000 Ry

ATOMIC_POSITIONS (crystal)
La1      0.166666667   0.166666667   0.383173129    0   0   0
La1      0.666666667   0.166666667   0.383173129    0   0   0
La1      0.166666667   0.666666667   0.383173129    0   0   0
La1      0.666666667   0.666666667   0.383173129    0   0   0
La1      0.833333333   0.333333333   0.500000000    0   0   0
La1      0.333333333   0.333333333   0.500000000    0   0   0
La1      0.833333333   0.833333333   0.500000000    0   0   0
La1      0.333333333   0.833333333   0.500000000    0   0   0
La1      0.000139808  -0.000101690   0.615288979
La1      0.499903150   0.000046065   0.615299330
La1      0.000127191   0.499969406   0.615283501
La1      0.499858461   0.500085030   0.615291275

     Writing output data file calc.save
     Check: negative starting charge=   -0.833208
     NEW-OLD atomic charge density approx. for the potential
     Check: negative starting charge=   -0.832952

[...]

     Self-consistent Calculation

[...]

     total energy              =   -1248.15901564 Ry
     Harris-Foulkes estimate   =   -1248.15901565 Ry
     estimated scf accuracy    <       0.00000024 Ry

     iteration # 14     ecut=    36.75 Ry     beta=0.30
     Davidson diagonalization with overlap
     ethr =  1.42E-10,  avg # of iterations =  4.9

[...]

     negative rho (up, down):  5.865E-01 0.000E+00

     Adding external electric field

     Computed dipole along edir(3) :
        Dipole               -0.0073 Ry au,         -0.0185 Debye
        Dipole field         -0.0000 Ry au

        Potential amp.        0.0010 Ry
        Total length         48.0849 bohr

     End of self-consistent calculation

[...]

          k = 0.0446-0.0515 0.0000 ( 31991 PWs)   bands (ev):

[...]

          k =-0.0669-0.0387 0.0000 ( 31970 PWs)   bands (ev):

   -31.4076 -31.4076 -31.3915 -31.3915 -31.3406 -31.3405 -31.3248 -31.3247
   -30.9305 -30.9305 -30.8693 -30.8692 -15.3871 -15.3870 -15.3226 -15.3226
   -15.2824 -15.2823 -15.1858 -15.1858 -15.1261 -15.1260 -15.0592 -15.0592
   -15.0221 -15.0221 -15.0101 -15.0098 -14.9380 -14.9380 -14.9279 -14.9279
   -14.6786 -14.6786 -14.6100 -14.6099 -14.5880 -14.5879 -14.5206 -14.5205
   -14.4747 -14.4747 -14.3431 -14.3431 -14.3187 -14.3187 -14.1572 -14.1571
     0.2943   0.2943   0.7086   0.7087   1.0493   1.0494   1.0964   1.0965
     1.1294   1.1294   1.5031   1.5033   1.6548   1.6549   1.7173   1.7174
     1.9639   1.9641   2.0918   2.0919   2.0925   2.0926   2.0994   2.0994
     2.3825   2.3826   2.4167   2.4170

     the Fermi energy is     1.8835 ev

!    total energy              =   -1248.15901571 Ry
     Harris-Foulkes estimate   =   -1248.15901564 Ry
     estimated scf accuracy    <       0.00000004 Ry

     The total energy is the sum of the following terms:

     one-electron contribution =   -4663.01654572 Ry
     hartree contribution      =    2342.85348589 Ry
     xc contribution           =    -608.49268028 Ry
     ewald contribution        =    1680.62328355 Ry
     electric field correction =       0.00000008 Ry
     smearing contrib. (-TS)   =      -0.12655923 Ry

     convergence has been achieved in  14 iterations

 BEEF-vdW xc energy contributions
           1 :   -539.326630229130
           2 :    496.392561917186
           3 :   -420.292156287621
           4 :    327.104466440125
           5 :   -234.100858130418
           6 :    155.088223779263
           7 :   -97.7070389003529
           8 :    63.0542184509532
           9 :   -47.1368408558900
          10 :    43.2474545929759
          11 :   -44.3581020331842
          12 :    44.8663181246089
          13 :   -41.4278960428362
          14 :    33.0000443122688
          15 :   -20.4338599727059
          16 :    5.89104108247579
          17 :    7.81891725727189
          18 :   -17.9887161526552
          19 :    22.7814113938838
          20 :   -21.8181966646716
          21 :    16.3427483320547
          22 :   -8.83495949896258
          23 :    2.15786739360692
          24 :    1.45907186331351
          25 :   -1.19075810195022
          26 :   -2.19505545004006
          27 :    6.80997360443337
          28 :   -10.5468867502445
          29 :    11.9812671786401
          30 :   -10.8731902325218
          31 :   -45.7190358536592
          32 :   -32.8440063437293

     Forces acting on atoms (Ry/au):

     negative rho (up, down):  5.865E-01 0.000E+00
     atom    1 type  1   force =     0.00001348   -0.00000542    0.00307941
     atom    2 type  1   force =    -0.00001509   -0.00000559    0.00312278
     atom    3 type  1   force =    -0.00000042   -0.00000148    0.00306768
     atom    4 type  1   force =    -0.00000058    0.00001510    0.00311802
     atom    5 type  1   force =     0.00000226   -0.00000262   -0.00166122
     atom    6 type  1   force =    -0.00000045    0.00000266   -0.00170288
     atom    7 type  1   force =     0.00000508   -0.00000165   -0.00167778
     atom    8 type  1   force =    -0.00000253    0.00000061   -0.00170082
     atom    9 type  1   force =    -0.00002668    0.00003626   -0.00141395
     atom   10 type  1   force =     0.00002534   -0.00001493   -0.00141409
     atom   11 type  1   force =    -0.00004123    0.00000493   -0.00139878
     atom   12 type  1   force =     0.00004084   -0.00002788   -0.00141836

     Total force =     0.002824     Total SCF correction =     0.000622
     SCF correction compared to forces is large: reduce conv_thr to get better values

     entering subroutine stress ...

     negative rho (up, down):  5.865E-01 0.000E+00
          total   stress  (Ry/bohr**3)                   (kbar)     P=   -1.63
  -0.00001019  -0.00000003   0.00000000         -1.50     -0.00      0.00
  -0.00000003  -0.00001022  -0.00000000         -0.00     -1.50     -0.00
   0.00000000  -0.00000000  -0.00001284          0.00     -0.00     -1.89

     bfgs converged in   7 scf cycles and   6 bfgs steps
     (criteria: energy <  1.0E+00, force <  1.9E-03)

     End of BFGS Geometry Optimization

     Final energy   =   -1248.1590157071 Ry
Begin final coordinates

ATOMIC_POSITIONS (crystal)
La1      0.166666667   0.166666667   0.383173129    0   0   0
La1      0.666666667   0.166666667   0.383173129    0   0   0
La1      0.166666667   0.666666667   0.383173129    0   0   0
La1      0.666666667   0.666666667   0.383173129    0   0   0
La1      0.833333333   0.333333333   0.500000000    0   0   0
La1      0.333333333   0.333333333   0.500000000    0   0   0
La1      0.833333333   0.833333333   0.500000000    0   0   0
La1      0.333333333   0.833333333   0.500000000    0   0   0
La1      0.000139808  -0.000101690   0.615288979
La1      0.499903150   0.000046065   0.615299330
La1      0.000127191   0.499969406   0.615283501
La1      0.499858461   0.500085030   0.615291275
End final coordinates

     Writing output data file calc.save

     General routines

     Parallel routines

   This run was terminated on:  18:57:11  30Apr2018

   JOB DONE.
Job  /afs/slac/g/suncat/bin/suncat-tsmpirun -x LD_LIBRARY_PATH -wdir /scratch/qe501232_Xpbdv pw.x -npool 4 -in pw.inp

TID   HOST_NAME   COMMAND_LINE            STATUS            TERMINATION_TIME
00000 suncat0054 pw.x -npool 4 -i  Done                     04/30/2018 18:57:11
00001 suncat0054 pw.x -npool 4 -i  Done                     04/30/2018 18:57:11
00002 suncat0054 pw.x -npool 4 -i  Done                     04/30/2018 18:57:11
00003 suncat0054 pw.x -npool 4 -i  Done                     04/30/2018 18:57:11
00004 suncat0054 pw.x -npool 4 -i  Done                     04/30/2018 18:57:11
00005 suncat0054 pw.x -npool 4 -i  Done                     04/30/2018 18:57:11
00006 suncat0054 pw.x -npool 4 -i  Done                     04/30/2018 18:57:11
00007 suncat0054 pw.x -npool 4 -i  Done                     04/30/2018 18:57:11
00008 suncat0013 pw.x -npool 4 -i  Done                     04/30/2018 18:57:11
00009 suncat0013 pw.x -npool 4 -i  Done                     04/30/2018 18:57:11
00010 suncat0013 pw.x -npool 4 -i  Done                     04/30/2018 18:57:11
00011 suncat0013 pw.x -npool 4 -i  Done                     04/30/2018 18:57:11
00012 suncat0013 pw.x -npool 4 -i  Done                     04/30/2018 18:57:11
00013 suncat0013 pw.x -npool 4 -i  Done                     04/30/2018 18:57:11
00014 suncat0013 pw.x -npool 4 -i  Done                     04/30/2018 18:57:11
00015 suncat0013 pw.x -npool 4 -i  Done                     04/30/2018 18:57:11
00016 suncat0186 pw.x -npool 4 -i  Done                     04/30/2018 18:57:11
00017 suncat0186 pw.x -npool 4 -i  Done                     04/30/2018 18:57:11
00018 suncat0186 pw.x -npool 4 -i  Done                     04/30/2018 18:57:11
00019 suncat0186 pw.x -npool 4 -i  Done                     04/30/2018 18:57:11
00020 suncat0186 pw.x -npool 4 -i  Done                     04/30/2018 18:57:11
00021 suncat0186 pw.x -npool 4 -i  Done                     04/30/2018 18:57:11
00022 suncat0186 pw.x -npool 4 -i  Done                     04/30/2018 18:57:11
00023 suncat0186 pw.x -npool 4 -i  Done                     04/30/2018 18:57:11
00024 suncat0161 pw.x -npool 4 -i  Done                     04/30/2018 18:57:11
00025 suncat0161 pw.x -npool 4 -i  Done                     04/30/2018 18:57:11
00026 suncat0161 pw.x -npool 4 -i  Done                     04/30/2018 18:57:11
00027 suncat0161 pw.x -npool 4 -i  Done                     04/30/2018 18:57:11
00028 suncat0161 pw.x -npool 4 -i  Done                     04/30/2018 18:57:11
00029 suncat0161 pw.x -npool 4 -i  Done                     04/30/2018 18:57:11
00030 suncat0161 pw.x -npool 4 -i  Done                     04/30/2018 18:57:11
00031 suncat0161 pw.x -npool 4 -i  Done                     04/30/2018 18:57:11