     Program PWSCF v.5.1rc2 (svn rev. 11289) starts on 30Apr2018 at 16:10:53

     Current dimensions of program PWSCF are:
     Max number of different atomic species (ntypx) = 10
     Max number of k-points (npk) =  40000
     Max angular momentum in pseudopotentials (lmaxx) =  3
     Presently stress not available with electric field

     IMPORTANT: XC functional enforced from input :
     Exchange-correlation      = BEEF-VDW ( 1  4 27 13 2)
     Any further DFT definition will be discarded
     Please, verify this is what you really want

     Subspace diagonalization in iterative solution of the eigenvalue problem:
     a serial algorithm will be used

     Found symmetry operation: I + ( -0.5000  0.0000  0.0000)
     This is a supercell, fractional translations are disabled

     bravais-lattice index     =            0
     lattice parameter (alat)  =       1.8897  a.u.
     unit-cell volume          =    5409.9593 (a.u.)^3
     number of atoms/cell      =           12
     number of atomic types    =            1
     number of electrons       =       228.00
     number of Kohn-Sham states=          124
     kinetic-energy cutoff     =      36.7493  Ry
     charge density cutoff     =     367.4932  Ry
     convergence threshold     =      1.0E-05
     mixing beta               =       0.3000
     number of iterations used =           10  plain     mixing
     Exchange-correlation      = BEEF-VDW ( 1  4 27 13 2)
     nstep                     =           50

     celldm(1)=   1.889726  celldm(2)=   0.000000  celldm(3)=   0.000000
     celldm(4)=   0.000000  celldm(5)=   0.000000  celldm(6)=   0.000000

     crystal axes: (cart. coord. in units of alat)
               a(1) = (   6.088539   0.000000   0.000000 )
               a(2) = (   3.044269   5.272829   0.000000 )
               a(3) = (   0.000000   0.000000  24.971271 )

     reciprocal axes: (cart. coord. in units 2 pi/alat)
               b(1) = (  0.164243 -0.094826  0.000000 )
               b(2) = (  0.000000  0.189652  0.000000 )
               b(3) = (  0.000000  0.000000  0.040046 )

     PseudoPot. # 1 for Ga read from file:
     /u/if/mamunm/psp/gbrv1.5pbe/Ga.UPF
     MD5 check sum: ccd671392a58a050fbb373893b4fcd66
     Pseudo is Ultrasoft + core correction, Zval = 19.0
     Generated by new atomic code, or converted to UPF format
     Using radial grid of  871 points,  6 beta functions with:
                l(1) =   0
                l(2) =   0
                l(3) =   1
                l(4) =   1
                l(5) =   2
                l(6) =   2
     Q(r) pseudized with  8 coefficients,  rinner =    1.250   1.250   1.250
                                                       1.250   1.250

     vdW kernel table read from file vdW_kernel_table
     MD5 check sum: 095c7af220d748ca6e76c0b4c6cfb241

     atomic species   valence    mass     pseudopotential
        Ga1           19.00    69.72300     Ga( 1.00)

     No symmetry found

   Cartesian axes

     site n.     atom                  positions (alat units)
         1           Ga1 tau(   1) = (   1.5221346   0.8788048  10.0000000  )
         2           Ga1 tau(   2) = (   4.5664039   0.8788048  10.0000000  )
         3           Ga1 tau(   3) = (   3.0442693   3.5152194  10.0000000  )
         4           Ga1 tau(   4) = (   6.0885386   3.5152194  10.0000000  )
         5           Ga1 tau(   5) = (   6.0885386   1.7576097  12.4856355  )
         6           Ga1 tau(   6) = (   3.0442693   1.7576097  12.4856355  )
         7           Ga1 tau(   7) = (   7.6106732   4.3940242  12.4856355  )
         8           Ga1 tau(   8) = (   4.5664039   4.3940242  12.4856355  )
         9           Ga1 tau(   9) = (   0.0000000   0.0000000  14.9712709  )
        10           Ga1 tau(  10) = (   3.0442693   0.0000000  14.9712709  )
        11           Ga1 tau(  11) = (   1.5221346   2.6364145  14.9712709  )
        12           Ga1 tau(  12) = (   4.5664039   2.6364145  14.9712709  )

     number of k points=    20  Fermi-Dirac smearing, width (Ry)=  0.0110
                       cart. coord. in units 2pi/alat
        k(    1) = (   0.0000000   0.0000000   0.0000000), wk =   0.0555556
        k(    2) = (   0.0000000   0.0316086   0.0000000), wk =   0.1111111
        k(    3) = (   0.0000000   0.0632172   0.0000000), wk =   0.1111111
        k(    4) = (   0.0000000  -0.0948258   0.0000000), wk =   0.0555556
        k(    5) = (   0.0273738  -0.0158043   0.0000000), wk =   0.1111111
        k(    6) = (   0.0273738   0.0158043   0.0000000), wk =   0.1111111
        k(    7) = (   0.0273738   0.0474129   0.0000000), wk =   0.1111111
        k(    8) = (   0.0273738  -0.1106300   0.0000000), wk =   0.1111111
        k(    9) = (   0.0273738  -0.0790215   0.0000000), wk =   0.1111111
        k(   10) = (   0.0273738  -0.0474129   0.0000000), wk =   0.1111111
        k(   11) = (   0.0547477  -0.0316086   0.0000000), wk =   0.1111111
        k(   12) = (   0.0547477   0.0000000   0.0000000), wk =   0.1111111
        k(   13) = (   0.0547477   0.0316086   0.0000000), wk =   0.1111111
        k(   14) = (   0.0547477  -0.1264343   0.0000000), wk =   0.1111111
        k(   15) = (   0.0547477  -0.0948258   0.0000000), wk =   0.1111111
        k(   16) = (   0.0547477  -0.0632172   0.0000000), wk =   0.1111111
        k(   17) = (  -0.0821215   0.0474129   0.0000000), wk =   0.0555556
        k(   18) = (  -0.0821215   0.0790215   0.0000000), wk =   0.1111111
        k(   19) = (  -0.0821215   0.1106300   0.0000000), wk =   0.1111111
        k(   20) = (  -0.0821215  -0.0474129   0.0000000), wk =   0.0555556

     Largest allocated arrays     est. size (Mb)     dimensions
     Largest temporary arrays     est. size (Mb)     dimensions

     Initial potential from superposition of free atoms
     Check: negative starting charge=   -0.001380

     starting charge  215.99999, renormalised to  228.00000

     negative rho (up, down):  1.457E-03 0.000E+00

     *
     * You are using vdW-DF for exchange-correlation in this calculation.
     * Please cite the following three references that made this development
     * possible:
     *
     *   M. Dion, H. Rydberg, E. Schroder, D. C. Langreth, and
     *   B. I. Lundqvist, Phys. Rev. Lett. 92, 246401 (2004).
     *
     *   T. Thonhauser, V. R. Cooper, S. Li, A. Puzder, P. Hyldgaard, and
     *   D. C. Langreth, Phys. Rev. B 76, 125112 (2007).
     *
     *   G. Roman-Perez and J. M. Soler, Phys. Rev. Lett. 103, 096102 (2009).
     *
     *
     * If you are using vdW-DF2, please also cite:
     *
     *   K. Lee, E. D. Murray, L. Kong, B. I. Lundqvist, and
     *   D. C. Langreth, Phys. Rev. B 82, 081101(R) (2010).
     *
     *
     * If you are calculating the stress with vdW-DF, please also cite:
     *
     *   R. Sabatini, E. Kucukbenli, B. Kolb, T. Thonhauser, and
     *   S. de Gironcoli, J. Phys.: Condens. Matter 24, 424209 (2012).
     *

     Carrying out vdW-DF run using the following parameters:

     Nqs =      20    Nr_points =    1024   r_max =   100.000
     q_mesh =
               0.00001000     0.04494208     0.09755937     0.15916263
               0.23128650     0.31572767     0.41458969     0.53033537
               0.66584808     0.82450364     1.01025438     1.22772762
               1.48234092     1.78043706     2.12944203     2.53805004
               3.01644009     3.57652955     4.23227104     5.00000000

     Gradients computed in reciprocal space

     Adding external electric field

     Computed dipole along edir(3) :
        Dipole               -0.0000 Ry au,         -0.0000 Debye
        Dipole field         -0.0000 Ry au

        Potential amp.        0.0000 Ry
        Total length         46.0091 bohr

     Starting wfc are  144 randomized atomic wfcs

     Self-consistent Calculation

     iteration #  1     ecut=    36.75 Ry     beta=0.30
     Davidson diagonalization with overlap
     ethr =  1.00E-02,  avg # of iterations =  8.9

[...]

     total energy              =   -4936.69347848 Ry
     Harris-Foulkes estimate   =   -5022.92852531 Ry
     estimated scf accuracy    <     179.85750221 Ry

[...]

     End of self-consistent calculation

          k = 0.0000 0.0000 0.0000 ( 20347 PWs)   bands (ev):

   -94.6349 -94.6347 -94.6347 -94.6347 -94.6340 -94.6338 -94.6338 -94.6338
   -94.6151 -94.6151 -94.6151 -94.6141 -94.6141 -94.6141 -94.6138 -94.6138
   -94.6138 -94.6132 -94.6132 -94.6128 -94.6128 -94.6128 -94.6123 -94.6123
   -94.6046 -94.6046 -94.6046 -94.6033 -94.6033 -94.6033 -94.6027 -94.6027
   -94.5987 -94.5985 -94.5985 -94.5985 -15.1169 -15.1169 -15.1169 -15.0729
   -15.0729 -15.0729 -15.0686 -15.0686 -15.0686 -15.0569 -15.0432 -15.0426
   -15.0426 -15.0426 -15.0118 -15.0061 -15.0061 -15.0061 -15.0057 -15.0056
   -15.0056 -14.9938 -14.9938 -14.9921 -14.9921 -14.9823 -14.9823 -14.9793
   -14.9793 -14.9792 -14.9204 -14.9204 -14.9204 -14.9101 -14.9101 -14.8970
   -14.8970 -14.8943 -14.8943 -14.8943 -14.8541 -14.8541 -14.8541 -14.8458
   -14.8458 -14.8458 -14.8397 -14.8397 -14.8229 -14.8229 -14.8229 -14.8142
   -14.8142 -14.8142 -14.8121 -14.8121 -14.8121 -14.8017 -14.8017 -14.8017
    -9.9962  -8.5206  -6.2795  -4.7923  -4.7923  -4.7923  -4.4082  -4.4082
    -4.4082  -3.1452  -3.1452  -3.1452  -2.6297  -2.6297  -2.6297  -2.2442
    -0.8579  -0.8579  -0.8579  -0.6749  -0.6749  -0.6749   0.8706   2.9815
     3.1277   3.1277   3.1277   3.1410

[...]

          k =-0.0821 0.0474 0.0000 ( 20384 PWs)   bands (ev):

[...]

     the Fermi energy is     0.0826 ev

!    total energy              =   -4999.04559450 Ry
     Harris-Foulkes estimate   =   -4999.04560812 Ry
     estimated scf accuracy    <       0.00000860 Ry

     The total energy is the sum of the following terms:

     one-electron contribution =  -27027.05494577 Ry
     hartree contribution      =   13517.54112865 Ry
     xc contribution           =    -596.43331508 Ry
     ewald contribution        =    9106.93511182 Ry
     electric field correction =       0.00000054 Ry
     smearing contrib. (-TS)   =      -0.03357467 Ry

     convergence has been achieved in  13 iterations

 BEEF-vdW xc energy contributions
           1 :   -533.372476338610
           2 :    484.325002741181
           3 :   -402.029448766049
           4 :    310.377746292640
           5 :   -230.601634092369
           6 :    173.249564814675
           7 :   -136.610572784694
           8 :    111.427444358310
           9 :   -88.3248314891398
          10 :    63.3227670781612
          11 :   -38.6386129609978
          12 :    19.2681005840643
          13 :   -8.39155480448358
          14 :    4.89446647680938
          15 :   -4.36243885113277
          16 :    2.33533438284485
          17 :    2.78475349978885
          18 :   -9.19856261831023
          19 :    13.6440992330570
          20 :   -14.1290008703934
          21 :    11.3974916367906
          22 :   -8.20236089038053
          23 :    7.13607725007023
          24 :   -8.76187020499697
          25 :    11.4085034811141
          26 :   -12.6512460667750
          27 :    11.2440165080670
          28 :   -8.02482669489370
          29 :    5.18470262263679
          30 :   -4.55383647550707
          31 :   -39.2339395575550
          32 :   -26.6384919502601

     Forces acting on atoms (Ry/au):

     negative rho (up, down):  1.037E-03 0.000E+00
     atom    1 type  1   force =    -0.00000611    0.00000522   -0.00229522
     atom    2 type  1   force =     0.00001035    0.00000488   -0.00229374
     atom    3 type  1   force =    -0.00000735   -0.00000099   -0.00227911
     atom    4 type  1   force =    -0.00000168   -0.00000798   -0.00226908
     atom    5 type  1   force =     0.00000616   -0.00000658   -0.00062108
     atom    6 type  1   force =    -0.00000151   -0.00000296   -0.00062307
     atom    7 type  1   force =    -0.00000278   -0.00000222   -0.00062099
     atom    8 type  1   force =     0.00000477    0.00000368   -0.00063219
     atom    9 type  1   force =    -0.00000586   -0.00000772    0.00291432
     atom   10 type  1   force =     0.00000974    0.00000223    0.00290228
     atom   11 type  1   force =     0.00000453    0.00001579    0.00293530
     atom   12 type  1   force =    -0.00001027   -0.00000338    0.00288259

     Total force =     0.005817     Total SCF correction =     0.029330
     SCF correction compared to forces is large: reduce conv_thr to get better values

     entering subroutine stress ...

     negative rho (up, down):  1.037E-03 0.000E+00
          total   stress  (Ry/bohr**3)                   (kbar)     P=    4.73
   0.00001769   0.00000000   0.00000000          2.60      0.00      0.00
   0.00000000   0.00001769  -0.00000000          0.00      2.60     -0.00
   0.00000000  -0.00000000   0.00006102          0.00     -0.00      8.98

     BFGS Geometry Optimization

     number of scf cycles    =   1
     number of bfgs steps    =   0

     energy   new            =   -4999.0455944987 Ry

     new trust radius        =       0.0029353447 bohr
     new conv_thr            =       0.0000099958 Ry

ATOMIC_POSITIONS (crystal)
Ga1      0.166666667   0.166666667   0.400460194    0   0   0
Ga1      0.666666667   0.166666667   0.400460194    0   0   0
Ga1      0.166666667   0.666666667   0.400460194    0   0   0
Ga1      0.666666667   0.666666667   0.400460194    0   0   0
Ga1      0.833333333   0.333333333   0.500000000    0   0   0
Ga1      0.333333333   0.333333333   0.500000000    0   0   0
Ga1      0.833333333   0.833333333   0.500000000    0   0   0
Ga1      0.333333333   0.833333333   0.500000000    0   0   0
Ga1     -0.000000122  -0.000000775   0.599601564
Ga1      0.500000734   0.000000224   0.599601309
Ga1     -0.000000399   0.500001585   0.599602009
Ga1      0.499999277   0.499999661   0.599600892

     Writing output data file calc.save
     Check: negative starting charge=   -0.001380
     NEW-OLD atomic charge density approx. for the potential
     Check: negative starting charge=   -0.001377

[...]

     energy   old            =   -4999.0455944987 Ry
     energy   new            =   -4999.0455760684 Ry

     CASE: energy  _new > energy  _old

[...]

     Threshold (ethr) on eigenvalues was too large:
     Diagonalizing with lowered threshold

     Davidson diagonalization with overlap
     ethr =  7.95E-08,  avg # of iterations =  1.0

[...]

     Threshold (ethr) on eigenvalues was too large:
     Diagonalizing with lowered threshold

     Davidson diagonalization with overlap
     ethr =  2.07E-09,  avg # of iterations =  5.0

[...]

     new trust radius        =       0.0000000305 bohr

     trust_radius < trust_radius_min

     resetting bfgs history

     new conv_thr            =       0.0000099958 Ry

[...]

     number of scf cycles    =   5
     number of bfgs steps    =   1

     energy   old            =   -4999.0455944987 Ry
     energy   new            =   -4999.0455760154 Ry

     CASE: energy  _new > energy  _old

     new trust radius        =       0.0009492379 bohr
     new conv_thr            =       0.0000099958 Ry

ATOMIC_POSITIONS (crystal)
Ga1      0.166666667   0.166666667   0.400460194    0   0   0
Ga1      0.666666667   0.166666667   0.400460194    0   0   0
Ga1      0.166666667   0.666666667   0.400460194    0   0   0
Ga1      0.666666667   0.666666667   0.400460194    0   0   0
Ga1      0.833333333   0.333333333   0.500000000    0   0   0
Ga1      0.333333333   0.333333333   0.500000000    0   0   0
Ga1      0.833333333   0.833333333   0.500000000    0   0   0
Ga1      0.333333333   0.833333333   0.500000000    0   0   0
Ga1     -0.000000040  -0.000000250   0.599559778
Ga1      0.500000238   0.000000072   0.599559695
Ga1     -0.000000129   0.500000513   0.599559921
Ga1      0.499999766   0.499999890   0.599559560

     Writing output data file calc.save
     Check: negative starting charge=   -0.001377
     NEW-OLD atomic charge density approx. for the potential
     Check: negative starting charge=   -0.001379

[...]

     Self-consistent Calculation

[...]

     total energy              =   -4999.04559439 Ry
     Harris-Foulkes estimate   =   -4999.04559729 Ry
     estimated scf accuracy    <       0.00001281 Ry

     iteration #  4     ecut=    36.75 Ry     beta=0.30
     Davidson diagonalization with overlap
     ethr =  5.62E-09,  avg # of iterations =  2.8

[...]

     negative rho (up, down):  1.036E-03 0.000E+00

     Adding external electric field

     Computed dipole along edir(3) :
        Dipole                0.0010 Ry au,          0.0024 Debye
        Dipole field          0.0000 Ry au

        Potential amp.       -0.0002 Ry
        Total length         46.0091 bohr

     End of self-consistent calculation

[...]

          k = 0.0547-0.0632 0.0000 ( 20377 PWs)   bands (ev):

[...]

          k =-0.0821-0.0474 0.0000 ( 20384 PWs)   bands (ev):

   -94.6314 -94.6314 -94.6313 -94.6313 -94.6310 -94.6310 -94.6309 -94.6309
   -94.6112 -94.6112 -94.6109 -94.6109 -94.6106 -94.6106 -94.6105 -94.6105
   -94.6103 -94.6103 -94.6102 -94.6102 -94.6099 -94.6099 -94.6096 -94.6096
   -94.5974 -94.5974 -94.5968 -94.5968 -94.5967 -94.5967 -94.5961 -94.5961
   -94.5918 -94.5918 -94.5917 -94.5917 -15.0659 -15.0659 -15.0409 -15.0409
   -15.0400 -15.0400 -15.0399 -15.0399 -15.0083 -15.0083 -15.0076 -15.0076
   -15.0029 -15.0029 -14.9960 -14.9960 -14.9875 -14.9875 -14.9801 -14.9801
   -14.9678 -14.9678 -14.9581 -14.9581 -14.9570 -14.9570 -14.9547 -14.9547
   -14.9509 -14.9509 -14.9460 -14.9460 -14.9190 -14.9190 -14.9162 -14.9162
   -14.8983 -14.8983 -14.8951 -14.8951 -14.8903 -14.8903 -14.8875 -14.8875
   -14.8867 -14.8867 -14.8772 -14.8772 -14.8750 -14.8750 -14.8728 -14.8728
   -14.8439 -14.8439 -14.8336 -14.8336 -14.8311 -14.8311 -14.8045 -14.8045
    -8.6132  -8.6132  -7.1552  -7.1552  -5.8750  -5.8750  -4.9775  -4.9775
    -4.4864  -4.4864  -2.5532  -2.5532  -0.8561  -0.8561  -0.3564  -0.3564
    -0.0061  -0.0061   1.1314   1.1314   1.2171   1.2171   2.0833   2.0833
     2.3018   2.3018   2.6029   2.6029

     the Fermi energy is     0.0854 ev

!    total energy              =   -4999.04559260 Ry
     Harris-Foulkes estimate   =   -4999.04559598 Ry
     estimated scf accuracy    <       0.00000024 Ry

     The total energy is the sum of the following terms:

     one-electron contribution =  -27025.13904673 Ry
     hartree contribution      =   13516.45121882 Ry
     xc contribution           =    -596.42865432 Ry
     ewald contribution        =    9106.10446114 Ry
     electric field correction =       0.00000000 Ry
     smearing contrib. (-TS)   =      -0.03357151 Ry

     convergence has been achieved in   4 iterations

 BEEF-vdW xc energy contributions
           1 :   -533.368033322768
           2 :    484.320626376215
           3 :   -402.025165754559
           4 :    310.373913300810
           5 :   -230.598963433556
           6 :    173.248444461036
           7 :   -136.610597001903
           8 :    111.427762097054
           9 :   -88.3247586190550
          10 :    63.3220347931558
          11 :   -38.6373200054493
          12 :    19.2666285397713
          13 :   -8.39039740320254
          14 :    4.89391696084158
          15 :   -4.36241443376275
          16 :    2.33556241655515
          17 :    2.78443104034341
          18 :   -9.19814184735333
          19 :    13.6436265843705
          20 :   -14.1287564512450
          21 :    11.3978959913137
          22 :   -8.20365559013624
          23 :    7.13804994201280
          24 :   -8.76383363974855
          25 :    11.4095257830847
          26 :   -12.6504996302519
          27 :    11.2410953222216
          28 :   -8.01989885677824
          29 :    5.17849436012000
          30 :   -4.54758210540024
          31 :   -39.2337302420788
          32 :   -26.6383011487264

     Forces acting on atoms (Ry/au):

     negative rho (up, down):  1.036E-03 0.000E+00
     atom    1 type  1   force =     0.00000042    0.00000134    0.00166331
     atom    2 type  1   force =    -0.00000048   -0.00000024    0.00166266
     atom    3 type  1   force =    -0.00000040   -0.00000146    0.00166328
     atom    4 type  1   force =     0.00000060   -0.00000082    0.00166161
     atom    5 type  1   force =    -0.00000055   -0.00000132    0.00023385
     atom    6 type  1   force =     0.00000102    0.00000007    0.00023427
     atom    7 type  1   force =     0.00000024    0.00000188    0.00023370
     atom    8 type  1   force =    -0.00000139    0.00000023    0.00023603
     atom    9 type  1   force =    -0.00000092   -0.00000014   -0.00189517
     atom   10 type  1   force =     0.00000030   -0.00000080   -0.00189738
     atom   11 type  1   force =    -0.00000037    0.00000014   -0.00189868
     atom   12 type  1   force =     0.00000153    0.00000113   -0.00189746

     Total force =     0.003794     Total SCF correction =     0.001757
     SCF correction compared to forces is large: reduce conv_thr to get better values

     entering subroutine stress ...

     negative rho (up, down):  1.036E-03 0.000E+00
          total   stress  (Ry/bohr**3)                   (kbar)     P=   -6.02
  -0.00005501   0.00000000   0.00000000         -8.09      0.00      0.00
   0.00000000  -0.00005501   0.00000000          0.00     -8.09      0.00
   0.00000000   0.00000000  -0.00001274          0.00      0.00     -1.87

     bfgs converged in   6 scf cycles and   1 bfgs steps
     (criteria: energy <  1.0E+00, force <  1.9E-03)

     End of BFGS Geometry Optimization

     Final energy   =   -4999.0455925998 Ry
Begin final coordinates

ATOMIC_POSITIONS (crystal)
Ga1      0.166666667   0.166666667   0.400460194    0   0   0
Ga1      0.666666667   0.166666667   0.400460194    0   0   0
Ga1      0.166666667   0.666666667   0.400460194    0   0   0
Ga1      0.666666667   0.666666667   0.400460194    0   0   0
Ga1      0.833333333   0.333333333   0.500000000    0   0   0
Ga1      0.333333333   0.333333333   0.500000000    0   0   0
Ga1      0.833333333   0.833333333   0.500000000    0   0   0
Ga1      0.333333333   0.833333333   0.500000000    0   0   0
Ga1     -0.000000040  -0.000000250   0.599559778
Ga1      0.500000238   0.000000072   0.599559695
Ga1     -0.000000129   0.500000513   0.599559921
Ga1      0.499999766   0.499999890   0.599559560
End final coordinates

     Writing output data file calc.save

     General routines

     Parallel routines

   This run was terminated on:  16:38:10  30Apr2018

   JOB DONE.
Job  /afs/slac/g/suncat/bin/suncat-tsmpirun -x LD_LIBRARY_PATH -wdir /scratch/qe503213_OgsSx pw.x -npool 4 -in pw.inp

TID   HOST_NAME   COMMAND_LINE            STATUS            TERMINATION_TIME
00000 suncat0091 pw.x -npool 4 -i  Done                     04/30/2018 16:38:10
00001 suncat0091 pw.x -npool 4 -i  Done                     04/30/2018 16:38:10
00002 suncat0091 pw.x -npool 4 -i  Done                     04/30/2018 16:38:10
00003 suncat0091 pw.x -npool 4 -i  Done                     04/30/2018 16:38:10
00004 suncat0091 pw.x -npool 4 -i  Done                     04/30/2018 16:38:10
00005 suncat0091 pw.x -npool 4 -i  Done                     04/30/2018 16:38:10
00006 suncat0091 pw.x -npool 4 -i  Done                     04/30/2018 16:38:10
00007 suncat0091 pw.x -npool 4 -i  Done                     04/30/2018 16:38:10
00008 suncat0090 pw.x -npool 4 -i  Done                     04/30/2018 16:38:10
00009 suncat0090 pw.x -npool 4 -i  Done                     04/30/2018 16:38:10
00010 suncat0090 pw.x -npool 4 -i  Done                     04/30/2018 16:38:10
00011 suncat0090 pw.x -npool 4 -i  Done                     04/30/2018 16:38:10
00012 suncat0090 pw.x -npool 4 -i  Done                     04/30/2018 16:38:10
00013 suncat0090 pw.x -npool 4 -i  Done                     04/30/2018 16:38:10
00014 suncat0090 pw.x -npool 4 -i  Done                     04/30/2018 16:38:10
00015 suncat0090 pw.x -npool 4 -i  Done                     04/30/2018 16:38:10
00016 suncat0012 pw.x -npool 4 -i  Done                     04/30/2018 16:38:10
00017 suncat0012 pw.x -npool 4 -i  Done                     04/30/2018 16:38:10
00018 suncat0012 pw.x -npool 4 -i  Done                     04/30/2018 16:38:10
00019 suncat0012 pw.x -npool 4 -i  Done                     04/30/2018 16:38:10
00020 suncat0012 pw.x -npool 4 -i  Done                     04/30/2018 16:38:10
00021 suncat0012 pw.x -npool 4 -i  Done                     04/30/2018 16:38:10
00022 suncat0012 pw.x -npool 4 -i  Done                     04/30/2018 16:38:10
00023 suncat0012 pw.x -npool 4 -i  Done                     04/30/2018 16:38:10
00024 suncat0170 pw.x -npool 4 -i  Done                     04/30/2018 16:38:10
00025 suncat0170 pw.x -npool 4 -i  Done                     04/30/2018 16:38:10
00026 suncat0170 pw.x -npool 4 -i  Done                     04/30/2018 16:38:10
00027 suncat0170 pw.x -npool 4 -i  Done                     04/30/2018 16:38:10
00028 suncat0170 pw.x -npool 4 -i  Done                     04/30/2018 16:38:10
00029 suncat0170 pw.x -npool 4 -i  Done                     04/30/2018 16:38:10
00030 suncat0170 pw.x -npool 4 -i  Done                     04/30/2018 16:38:10
00031 suncat0170 pw.x -npool 4 -i  Done                     04/30/2018 16:38:10