     Program PWSCF v.5.1rc2 (svn rev. 11289) starts on 30Apr2018 at 16: 8:21

     Current dimensions of program PWSCF are:
     Max number of different atomic species (ntypx) = 10
     Max number of k-points (npk) =  40000
     Max angular momentum in pseudopotentials (lmaxx) =  3
     Presently stress not available with electric field

     IMPORTANT: XC functional enforced from input :
     Exchange-correlation      = BEEF-VDW ( 1  4 27 13 2)
     Any further DFT definition will be discarded
     Please, verify this is what you really want

     Subspace diagonalization in iterative solution of the eigenvalue problem:
     a serial algorithm will be used

     Found symmetry operation: I + ( -0.5000  0.0000  0.0000)
     This is a supercell, fractional translations are disabled

     bravais-lattice index     =            0
     lattice parameter (alat)  =       1.8897  a.u.
     unit-cell volume          =    6024.3322 (a.u.)^3
     number of atoms/cell      =           12
     number of atomic types    =            1
     number of electrons       =       144.00
     number of Kohn-Sham states=           82
     kinetic-energy cutoff     =      36.7493  Ry
     charge density cutoff     =     367.4932  Ry
     convergence threshold     =      1.0E-05
     mixing beta               =       0.3000
     number of iterations used =           10  plain     mixing
     Exchange-correlation      = BEEF-VDW ( 1  4 27 13 2)
     nstep                     =           50

     celldm(1)=   1.889726  celldm(2)=   0.000000  celldm(3)=   0.000000
     celldm(4)=   0.000000  celldm(5)=   0.000000  celldm(6)=   0.000000

     crystal axes: (cart. coord. in units of alat)
               a(1) = (   6.393197   0.000000   0.000000 )
               a(2) = (   3.196599   5.536671   0.000000 )
               a(3) = (   0.000000   0.000000  25.220024 )

     reciprocal axes: (cart. coord. in units 2 pi/alat)
               b(1) = (  0.156416 -0.090307  0.000000 )
               b(2) = (  0.000000  0.180614  0.000000 )
               b(3) = (  0.000000  0.000000  0.039651 )

     PseudoPot. # 1 for Hf read from file:
     /u/if/mamunm/psp/gbrv1.5pbe/Hf.UPF
     MD5 check sum: 8ee9378dfe14276e333edf04c5e4aa26
     Pseudo is Ultrasoft + core correction, Zval = 12.0
     Generated by new atomic code, or converted to UPF format
     Using radial grid of  921 points,  8 beta functions with:
                l(1) =   0
                l(2) =   0
                l(3) =   0
                l(4) =   1
                l(5) =   1
                l(6) =   2
                l(7) =   2
                l(8) =   3
     Q(r) pseudized with  6 coefficients,  rinner =    1.200   1.200   1.200
                                                       1.200   1.200   1.200
                                                       1.200

     vdW kernel table read from file vdW_kernel_table
     MD5 check sum: 095c7af220d748ca6e76c0b4c6cfb241

     atomic species   valence    mass     pseudopotential
        Hf1           12.00   178.49000     Hf( 1.00)

     No symmetry found

   Cartesian axes

     site n.     atom                  positions (alat units)
         1           Hf1 tau(   1) = (   1.5982993   0.9227785  10.0000000  )
         2           Hf1 tau(   2) = (   4.7948978   0.9227785  10.0000000  )
         3           Hf1 tau(   3) = (   3.1965986   3.6911141  10.0000000  )
         4           Hf1 tau(   4) = (   6.3931971   3.6911141  10.0000000  )
         5           Hf1 tau(   5) = (   6.3931971   1.8455570  12.6100118  )
         6           Hf1 tau(   6) = (   3.1965986   1.8455570  12.6100118  )
         7           Hf1 tau(   7) = (   7.9914964   4.6138926  12.6100118  )
         8           Hf1 tau(   8) = (   4.7948978   4.6138926  12.6100118  )
         9           Hf1 tau(   9) = (   0.0000000   0.0000000  15.2200236  )
        10           Hf1 tau(  10) = (   3.1965986   0.0000000  15.2200236  )
        11           Hf1 tau(  11) = (   1.5982993   2.7683356  15.2200236  )
        12           Hf1 tau(  12) = (   4.7948978   2.7683356  15.2200236  )

     number of k points=    20  Fermi-Dirac smearing, width (Ry)=  0.0110
                       cart. coord. in units 2pi/alat
        k(    1) = (   0.0000000   0.0000000   0.0000000), wk =   0.0555556
        k(    2) = (   0.0000000   0.0301023   0.0000000), wk =   0.1111111
        k(    3) = (   0.0000000   0.0602046   0.0000000), wk =   0.1111111
        k(    4) = (   0.0000000  -0.0903070   0.0000000), wk =   0.0555556
        k(    5) = (   0.0260694  -0.0150512   0.0000000), wk =   0.1111111
        k(    6) = (   0.0260694   0.0150512   0.0000000), wk =   0.1111111
        k(    7) = (   0.0260694   0.0451535   0.0000000), wk =   0.1111111
        k(    8) = (   0.0260694  -0.1053581   0.0000000), wk =   0.1111111
        k(    9) = (   0.0260694  -0.0752558   0.0000000), wk =   0.1111111
        k(   10) = (   0.0260694  -0.0451535   0.0000000), wk =   0.1111111
        k(   11) = (   0.0521388  -0.0301023   0.0000000), wk =   0.1111111
        k(   12) = (   0.0521388   0.0000000   0.0000000), wk =   0.1111111
        k(   13) = (   0.0521388   0.0301023   0.0000000), wk =   0.1111111
        k(   14) = (   0.0521388  -0.1204093   0.0000000), wk =   0.1111111
        k(   15) = (   0.0521388  -0.0903070   0.0000000), wk =   0.1111111
        k(   16) = (   0.0521388  -0.0602046   0.0000000), wk =   0.1111111
        k(   17) = (  -0.0782081   0.0451535   0.0000000), wk =   0.0555556
        k(   18) = (  -0.0782081   0.0752558   0.0000000), wk =   0.1111111
        k(   19) = (  -0.0782081   0.1053581   0.0000000), wk =   0.1111111
        k(   20) = (  -0.0782081  -0.0451535   0.0000000), wk =   0.0555556

     Largest allocated arrays     est. size (Mb)     dimensions
     Largest temporary arrays     est. size (Mb)     dimensions

     Check: negative/imaginary core charge=   -0.000003    0.000000

     Initial potential from superposition of free atoms
     Check: negative starting charge=   -1.301506

     starting charge  119.99998, renormalised to  144.00000

     negative rho (up, down):  1.562E+00 0.000E+00

     *
     * You are using vdW-DF for exchange-correlation in this calculation.
     * Please cite the following three references that made this development
     * possible:
     *
     *   M. Dion, H. Rydberg, E. Schroder, D. C. Langreth, and
     *   B. I. Lundqvist, Phys. Rev. Lett. 92, 246401 (2004).
     *
     *   T. Thonhauser, V. R. Cooper, S. Li, A. Puzder, P. Hyldgaard, and
     *   D. C. Langreth, Phys. Rev. B 76, 125112 (2007).
     *
     *   G. Roman-Perez and J. M. Soler, Phys. Rev. Lett. 103, 096102 (2009).
     *
     *
     * If you are using vdW-DF2, please also cite:
     *
     *   K. Lee, E. D. Murray, L. Kong, B. I. Lundqvist, and
     *   D. C. Langreth, Phys. Rev. B 82, 081101(R) (2010).
     *
     *
     * If you are calculating the stress with vdW-DF, please also cite:
     *
     *   R. Sabatini, E. Kucukbenli, B. Kolb, T. Thonhauser, and
     *   S. de Gironcoli, J. Phys.: Condens. Matter 24, 424209 (2012).
     *

     Carrying out vdW-DF run using the following parameters:

     Nqs =      20    Nr_points =    1024   r_max =   100.000
     q_mesh =
               0.00001000     0.04494208     0.09755937     0.15916263
               0.23128650     0.31572767     0.41458969     0.53033537
               0.66584808     0.82450364     1.01025438     1.22772762
               1.48234092     1.78043706     2.12944203     2.53805004
               3.01644009     3.57652955     4.23227104     5.00000000

     Gradients computed in reciprocal space

     Adding external electric field

     Computed dipole along edir(3) :
        Dipole                0.0000 Ry au,          0.0000 Debye
        Dipole field          0.0000 Ry au

        Potential amp.       -0.0000 Ry
        Total length         46.4675 bohr

     Starting wfc are  156 randomized atomic wfcs

     Self-consistent Calculation

     iteration #  1     ecut=    36.75 Ry     beta=0.30
     Davidson diagonalization with overlap
     ethr =  1.00E-02,  avg # of iterations =  9.1

[...]

     total energy              =   -1823.25549493 Ry
     Harris-Foulkes estimate   =   -1946.26220660 Ry
     estimated scf accuracy    <     253.68717833 Ry

[...]

     End of self-consistent calculation

          k = 0.0000 0.0000 0.0000 ( 22729 PWs)   bands (ev):

   -61.3153 -61.3141 -61.2812 -61.2811 -61.2806 -61.2805 -61.2796 -61.2795
   -60.8971 -60.8646 -60.8636 -60.8623 -30.0782 -30.0781 -30.0779 -30.0513
   -30.0513 -30.0511 -29.9992 -29.9037 -29.9032 -29.9031 -29.8946 -29.8185
   -29.8180 -29.8178 -29.6585 -29.6583 -29.6580 -29.6511 -29.6509 -29.6506
   -29.5945 -29.5940 -29.5937 -29.5281 -29.5280 -29.5253 -29.5252 -29.3464
   -29.3395 -29.3388 -29.3377 -29.2591 -29.2586 -29.2584 -29.1369 -29.1369
    -5.1953  -3.9113  -2.6022  -1.7153  -1.7153  -1.7152  -1.4478  -1.4476
    -1.4475  -1.0523  -1.0522  -1.0522  -0.3839  -0.3839  -0.3838   0.3642
     0.3643   0.3644   1.2793   1.3430   1.6503   1.6704   1.6705   1.6707
     1.7912   1.7914   1.7916   2.1941   2.4115   2.4115   2.4116   2.6844
     2.6845   2.6846

[...]

          k =-0.0782 0.0452 0.0000 ( 22668 PWs)   bands (ev):

[...]

     the Fermi energy is     1.3167 ev

!    total energy              =   -1926.56891770 Ry
     Harris-Foulkes estimate   =   -1926.56891829 Ry
     estimated scf accuracy    <       0.00000884 Ry

     The total energy is the sum of the following terms:

     one-electron contribution =   -8285.47153653 Ry
     hartree contribution      =    4125.15167487 Ry
     xc contribution           =    -927.59423063 Ry
     ewald contribution        =    3161.46983902 Ry
     electric field correction =       0.00000003 Ry
     smearing contrib. (-TS)   =      -0.12466446 Ry

     convergence has been achieved in  22 iterations

 BEEF-vdW xc energy contributions
           1 :   -838.652059176553
           2 :    779.599535733736
           3 :   -674.862039072886
           4 :    546.021514502490
           5 :   -415.515311925893
           6 :    300.281291174579
           7 :   -208.927376698611
           8 :    142.618678033608
           9 :   -98.1340011548634
          10 :    70.8552659564390
          11 :   -56.3276024035608
          12 :    50.3305207794226
          13 :   -48.4496508623993
          14 :    46.1466435392890
          15 :   -39.6793851876116
          16 :    27.3541620375645
          17 :   -10.2521359502983
          18 :   -8.18506187942376
          19 :    23.6151371852666
          20 :   -32.6076548673201
          21 :    33.9152140000981
          22 :   -28.6755938133222
          23 :    19.6150661704544
          24 :   -9.83618629842999
          25 :    1.84149128489446
          26 :    2.85310942162755
          27 :   -3.62526092415419
          28 :   0.529021302489241
          29 :    5.76090828141128
          30 :   -13.8660683502337
          31 :   -60.1307512790252
          32 :   -43.2369971003236

     Forces acting on atoms (Ry/au):

     negative rho (up, down):  1.378E+00 0.000E+00
     atom    1 type  1   force =     0.00011592   -0.00003359    0.02526167
     atom    2 type  1   force =    -0.00011566   -0.00009890    0.02529450
     atom    3 type  1   force =    -0.00006212    0.00000412    0.02527047
     atom    4 type  1   force =     0.00005696    0.00013562    0.02514321
     atom    5 type  1   force =     0.00003906   -0.00007558    0.00008315
     atom    6 type  1   force =    -0.00002991   -0.00005591    0.00000844
     atom    7 type  1   force =     0.00003934    0.00003852    0.00006627
     atom    8 type  1   force =    -0.00002179    0.00007707    0.00002872
     atom    9 type  1   force =    -0.00004755   -0.00006391   -0.02518828
     atom   10 type  1   force =     0.00003658    0.00002502   -0.02536558
     atom   11 type  1   force =     0.00005914    0.00004475   -0.02532332
     atom   12 type  1   force =    -0.00006997    0.00000279   -0.02527922

     Total force =     0.050579     Total SCF correction =     0.008696
     SCF correction compared to forces is large: reduce conv_thr to get better values

     entering subroutine stress ...

     negative rho (up, down):  1.378E+00 0.000E+00
          total   stress  (Ry/bohr**3)                   (kbar)     P=  -25.70
  -0.00017005  -0.00000002  -0.00000002        -25.02     -0.00     -0.00
  -0.00000002  -0.00017025   0.00000005         -0.00    -25.04      0.01
  -0.00000002   0.00000005  -0.00018371         -0.00      0.01    -27.03

     BFGS Geometry Optimization

     number of scf cycles    =   1
     number of bfgs steps    =   0

     energy   new            =   -1926.5689177047 Ry

     new trust radius        =       0.0253656196 bohr
     new conv_thr            =       0.0000099958 Ry

ATOMIC_POSITIONS (crystal)
Hf1      0.166666667   0.166666667   0.396510335    0   0   0
Hf1      0.666666667   0.166666667   0.396510335    0   0   0
Hf1      0.166666667   0.666666667   0.396510335    0   0   0
Hf1      0.666666667   0.666666667   0.396510335    0   0   0
Hf1      0.833333333   0.333333333   0.500000000    0   0   0
Hf1      0.333333333   0.333333333   0.500000000    0   0   0
Hf1      0.833333333   0.833333333   0.500000000    0   0   0
Hf1      0.333333333   0.833333333   0.500000000    0   0   0
Hf1     -0.000000881  -0.000006108   0.602961154
Hf1      0.500001832   0.000002391   0.602957434
Hf1      0.000002757   0.500004277   0.602958320
Hf1      0.499994075   0.500000266   0.602959246

     Writing output data file calc.save
     Check: negative starting charge=   -1.301506
     NEW-OLD atomic charge density approx. for the potential

     Check: negative/imaginary core charge=   -0.000003    0.000000
     Check: negative starting charge=   -1.300733

[...]

     Total force =     0.042640     Total SCF correction =     0.003076

[...]

     energy   old            =   -1926.5689177047 Ry
     energy   new            =   -1926.5825086713 Ry

     CASE: energy  _new < energy  _old

     WARNING: bfgs curvature condition failed, Theta= 0.949
     new trust radius        =       0.0380484293 bohr
     new conv_thr            =       0.0000001000 Ry

[...]

     WARNING: bfgs curvature condition failed, Theta= 0.887
     new trust radius        =       0.0570726440 bohr
     new conv_thr            =       0.0000001000 Ry

[...]

     iteration # 22     ecut=    36.75 Ry     beta=0.30
     Davidson diagonalization with overlap
     c_bands:  2 eigenvalues not converged
     ethr =  1.85E-09,  avg # of iterations =  5.0

[...]

     Total force =     0.023293     Total SCF correction =     0.000489

[...]

     number of scf cycles    =   5
     number of bfgs steps    =   4

     energy   old            =   -1926.5901648699 Ry
     energy   new            =   -1926.5952097566 Ry

     CASE: energy  _new < energy  _old

     new trust radius        =       0.1284134490 bohr
     new conv_thr            =       0.0000001000 Ry

ATOMIC_POSITIONS (crystal)
Hf1      0.166666667   0.166666667   0.396510335    0   0   0
Hf1      0.666666667   0.166666667   0.396510335    0   0   0
Hf1      0.166666667   0.666666667   0.396510335    0   0   0
Hf1      0.666666667   0.666666667   0.396510335    0   0   0
Hf1      0.833333333   0.333333333   0.500000000    0   0   0
Hf1      0.333333333   0.333333333   0.500000000    0   0   0
Hf1      0.833333333   0.833333333   0.500000000    0   0   0
Hf1      0.333333333   0.833333333   0.500000000    0   0   0
Hf1     -0.000005582  -0.000005949   0.596474575
Hf1      0.500017086  -0.000019360   0.596484734
Hf1     -0.000020281   0.500019179   0.596486320
Hf1      0.500005033   0.500008647   0.596488722

     Writing output data file calc.save
     Check: negative starting charge=   -1.299532
     NEW-OLD atomic charge density approx. for the potential

     Check: negative/imaginary core charge=   -0.000003    0.000000
     Check: negative starting charge=   -1.301342

[...]

     Self-consistent Calculation

     iteration #  1     ecut=    36.75 Ry     beta=0.30
     Davidson diagonalization with overlap
     c_bands:  2 eigenvalues not converged
     c_bands:  2 eigenvalues not converged
     c_bands:  3 eigenvalues not converged
     ethr =  1.00E-06,  avg # of iterations = 16.8

[...]

     total energy              =   -1926.59875786 Ry
     Harris-Foulkes estimate   =   -1926.59875790 Ry
     estimated scf accuracy    <       0.00000043 Ry

     iteration # 29     ecut=    36.75 Ry     beta=0.30
     Davidson diagonalization with overlap
     ethr =  2.99E-10,  avg # of iterations =  3.8

[...]

     negative rho (up, down):  1.376E+00 0.000E+00

     Adding external electric field

     Computed dipole along edir(3) :
        Dipole               -0.0064 Ry au,         -0.0162 Debye
        Dipole field         -0.0000 Ry au

        Potential amp.        0.0012 Ry
        Total length         46.4675 bohr

     End of self-consistent calculation

[...]

          k = 0.0521-0.0602 0.0000 ( 22643 PWs)   bands (ev):

[...]

          k =-0.0782-0.0452 0.0000 ( 22668 PWs)   bands (ev):

   -61.3081 -61.3080 -61.2909 -61.2909 -61.1927 -61.1926 -61.1750 -61.1749
   -60.7580 -60.7580 -60.7414 -60.7413 -29.9775 -29.9775 -29.9301 -29.9300
   -29.9070 -29.9070 -29.8663 -29.8662 -29.8512 -29.8512 -29.8049 -29.8048
   -29.7999 -29.7999 -29.7591 -29.7591 -29.7311 -29.7310 -29.6953 -29.6953
   -29.5986 -29.5986 -29.5146 -29.5145 -29.3971 -29.3970 -29.2780 -29.2780
   -29.2482 -29.2482 -29.2130 -29.2130 -29.2039 -29.2039 -29.0895 -29.0895
    -3.6560  -3.6560  -2.4032  -2.4032  -1.3994  -1.3994  -1.0866  -1.0866
    -0.7986  -0.7986   0.0681   0.0681   0.2308   0.2308   0.4042   0.4043
     0.5521   0.5521   0.7507   0.7508   0.8155   0.8155   1.0364   1.0365
     1.1615   1.1616   1.2736   1.2736   1.4699   1.4699   1.6656   1.6657
     2.1951   2.1953

     the Fermi energy is     1.3028 ev

!    total energy              =   -1926.59875788 Ry
     Harris-Foulkes estimate   =   -1926.59875792 Ry
     estimated scf accuracy    <       0.00000002 Ry

     The total energy is the sum of the following terms:

     one-electron contribution =   -8497.01253597 Ry
     hartree contribution      =    4231.17533288 Ry
     xc contribution           =    -927.91799045 Ry
     ewald contribution        =    3267.27545806 Ry
     electric field correction =       0.00000008 Ry
     smearing contrib. (-TS)   =      -0.11902249 Ry

     convergence has been achieved in  29 iterations

 BEEF-vdW xc energy contributions
           1 :   -839.300403741566
           2 :    780.342308599514
           3 :   -675.685641819955
           4 :    546.791472158016
           5 :   -416.068231024506
           6 :    300.549533582647
           7 :   -208.995504939805
           8 :    142.669407298398
           9 :   -98.3275931314269
          10 :    71.2323006624916
          11 :   -56.7978603765765
          12 :    50.7483339989871
          13 :   -48.7182655644236
          14 :    46.2808256333248
          15 :   -39.7882912041697
          16 :    27.5607525332606
          17 :   -10.6036409858710
          18 :   -7.75435464852694
          19 :    23.2400662999204
          20 :   -32.3933484420015
          21 :    33.8532431915509
          22 :   -28.6399817615201
          23 :    19.4477531942964
          24 :   -9.46143095158243
          25 :    1.32317500841089
          26 :    3.35716642382670
          27 :   -3.97929922358776
          28 :   0.717454031383227
          29 :    5.62781953332990
          30 :   -13.6427025844047
          31 :   -60.1695059106535
          32 :   -43.2896387897580

     Forces acting on atoms (Ry/au):

     negative rho (up, down):  1.376E+00 0.000E+00
     atom    1 type  1   force =     0.00000358    0.00000424    0.01838970
     atom    2 type  1   force =    -0.00000383    0.00000757    0.01838292
     atom    3 type  1   force =     0.00000267   -0.00000827    0.01838458
     atom    4 type  1   force =    -0.00000257   -0.00000375    0.01830997
     atom    5 type  1   force =     0.00000031    0.00003624   -0.01711141
     atom    6 type  1   force =    -0.00000141    0.00000841   -0.01707882
     atom    7 type  1   force =    -0.00002446   -0.00002258   -0.01714038
     atom    8 type  1   force =     0.00002363   -0.00002186   -0.01711914
     atom    9 type  1   force =     0.00001385    0.00000801   -0.00122599
     atom   10 type  1   force =    -0.00001291   -0.00000740   -0.00125436
     atom   11 type  1   force =    -0.00001265   -0.00000799   -0.00126333
     atom   12 type  1   force =     0.00001379    0.00000740   -0.00127374

     Total force =     0.002509     Total SCF correction =     0.000285
     SCF correction compared to forces is large: reduce conv_thr to get better values

     entering subroutine stress ...

     negative rho (up, down):  1.376E+00 0.000E+00
          total   stress  (Ry/bohr**3)                   (kbar)     P=  -17.37
  -0.00013357  -0.00000000   0.00000000        -19.65     -0.00      0.00
  -0.00000000  -0.00013356  -0.00000000         -0.00    -19.65     -0.00
   0.00000000  -0.00000000  -0.00008719          0.00     -0.00    -12.83

     bfgs converged in   6 scf cycles and   5 bfgs steps
     (criteria: energy <  1.0E+00, force <  1.9E-03)

     End of BFGS Geometry Optimization

     Final energy   =   -1926.5987578839 Ry
Begin final coordinates

ATOMIC_POSITIONS (crystal)
Hf1      0.166666667   0.166666667   0.396510335    0   0   0
Hf1      0.666666667   0.166666667   0.396510335    0   0   0
Hf1      0.166666667   0.666666667   0.396510335    0   0   0
Hf1      0.666666667   0.666666667   0.396510335    0   0   0
Hf1      0.833333333   0.333333333   0.500000000    0   0   0
Hf1      0.333333333   0.333333333   0.500000000    0   0   0
Hf1      0.833333333   0.833333333   0.500000000    0   0   0
Hf1      0.333333333   0.833333333   0.500000000    0   0   0
Hf1     -0.000005582  -0.000005949   0.596474575
Hf1      0.500017086  -0.000019360   0.596484734
Hf1     -0.000020281   0.500019179   0.596486320
Hf1      0.500005033   0.500008647   0.596488722
End final coordinates

     Writing output data file calc.save

     General routines

     Parallel routines

   This run was terminated on:  17:53:20  30Apr2018

   JOB DONE.
Job  /afs/slac/g/suncat/bin/suncat-tsmpirun -x LD_LIBRARY_PATH -wdir /scratch/qe502557_oaGAb pw.x -npool 4 -in pw.inp

TID   HOST_NAME   COMMAND_LINE            STATUS            TERMINATION_TIME
00000 suncat0088 pw.x -npool 4 -i  Done                     04/30/2018 17:53:20
00001 suncat0088 pw.x -npool 4 -i  Done                     04/30/2018 17:53:20
00002 suncat0088 pw.x -npool 4 -i  Done                     04/30/2018 17:53:20
00003 suncat0088 pw.x -npool 4 -i  Done                     04/30/2018 17:53:20
00004 suncat0088 pw.x -npool 4 -i  Done                     04/30/2018 17:53:20
00005 suncat0088 pw.x -npool 4 -i  Done                     04/30/2018 17:53:20
00006 suncat0088 pw.x -npool 4 -i  Done                     04/30/2018 17:53:20
00007 suncat0088 pw.x -npool 4 -i  Done                     04/30/2018 17:53:20
00008 suncat0086 pw.x -npool 4 -i  Done                     04/30/2018 17:53:20
00009 suncat0086 pw.x -npool 4 -i  Done                     04/30/2018 17:53:20
00010 suncat0086 pw.x -npool 4 -i  Done                     04/30/2018 17:53:20
00011 suncat0086 pw.x -npool 4 -i  Done                     04/30/2018 17:53:20
00012 suncat0086 pw.x -npool 4 -i  Done                     04/30/2018 17:53:20
00013 suncat0086 pw.x -npool 4 -i  Done                     04/30/2018 17:53:20
00014 suncat0086 pw.x -npool 4 -i  Done                     04/30/2018 17:53:20
00015 suncat0086 pw.x -npool 4 -i  Done                     04/30/2018 17:53:20
00016 suncat0077 pw.x -npool 4 -i  Done                     04/30/2018 17:53:20
00017 suncat0077 pw.x -npool 4 -i  Done                     04/30/2018 17:53:20
00018 suncat0077 pw.x -npool 4 -i  Done                     04/30/2018 17:53:20
00019 suncat0077 pw.x -npool 4 -i  Done                     04/30/2018 17:53:20
00020 suncat0077 pw.x -npool 4 -i  Done                     04/30/2018 17:53:20
00021 suncat0077 pw.x -npool 4 -i  Done                     04/30/2018 17:53:20
00022 suncat0077 pw.x -npool 4 -i  Done                     04/30/2018 17:53:20
00023 suncat0077 pw.x -npool 4 -i  Done                     04/30/2018 17:53:20
00024 suncat0252 pw.x -npool 4 -i  Done                     04/30/2018 17:53:20
00025 suncat0252 pw.x -npool 4 -i  Done                     04/30/2018 17:53:20
00026 suncat0252 pw.x -npool 4 -i  Done                     04/30/2018 17:53:20
00027 suncat0252 pw.x -npool 4 -i  Done                     04/30/2018 17:53:20
00028 suncat0252 pw.x -npool 4 -i  Done                     04/30/2018 17:53:20
00029 suncat0252 pw.x -npool 4 -i  Done                     04/30/2018 17:53:20
00030 suncat0252 pw.x -npool 4 -i  Done                     04/30/2018 17:53:20
00031 suncat0252 pw.x -npool 4 -i  Done                     04/30/2018 17:53:20