     Program PWSCF v.5.1rc2 (svn rev. 11289) starts on 30Apr2018 at 16:17:47

     Current dimensions of program PWSCF are:
     Max number of different atomic species (ntypx) = 10
     Max number of k-points (npk) =  40000
     Max angular momentum in pseudopotentials (lmaxx) =  3
     Presently stress not available with electric field

     IMPORTANT: XC functional enforced from input :
     Exchange-correlation      = BEEF-VDW ( 1  4 27 13 2)
     Any further DFT definition will be discarded
     Please, verify this is what you really want

     Subspace diagonalization in iterative solution of the eigenvalue problem:
     a serial algorithm will be used

     Found symmetry operation: I + ( -0.5000  0.0000  0.0000)
     This is a supercell, fractional translations are disabled

     bravais-lattice index     =            0
     lattice parameter (alat)  =       1.8897  a.u.
     unit-cell volume          =    5174.6160 (a.u.)^3
     number of atoms/cell      =           12
     number of atomic types    =            1
     number of electrons       =       228.00
     number of Kohn-Sham states=          124
     kinetic-energy cutoff     =      36.7493  Ry
     charge density cutoff     =     367.4932  Ry
     convergence threshold     =      1.0E-05
     mixing beta               =       0.3000
     number of iterations used =           10  plain     mixing
     Exchange-correlation      = BEEF-VDW ( 1  4 27 13 2)
     nstep                     =           50

     celldm(1)=   1.889726  celldm(2)=   0.000000  celldm(3)=   0.000000
     celldm(4)=   0.000000  celldm(5)=   0.000000  celldm(6)=   0.000000

     crystal axes: (cart. coord. in units of alat)
               a(1) = (   5.966546   0.000000   0.000000 )
               a(2) = (   2.983273   5.167181   0.000000 )
               a(3) = (   0.000000   0.000000  24.871665 )

     reciprocal axes: (cart. coord. in units 2 pi/alat)
               b(1) = (  0.167601 -0.096765  0.000000 )
               b(2) = (  0.000000  0.193529  0.000000 )
               b(3) = (  0.000000  0.000000  0.040206 )

     PseudoPot. # 1 for Ag read from file:
     /u/if/mamunm/psp/gbrv1.5pbe/Ag.UPF
     MD5 check sum: d66d668201baa78d5eb5b04ef7011058
     Pseudo is Ultrasoft + core correction, Zval = 19.0
     Generated by new atomic code, or converted to UPF format
     Using radial grid of  887 points,  6 beta functions with:
                l(1) =   0
                l(2) =   0
                l(3) =   1
                l(4) =   1
                l(5) =   2
                l(6) =   2
     Q(r) pseudized with  6 coefficients,  rinner =    1.300   1.300   1.300
                                                       1.300   1.300

     vdW kernel table read from file vdW_kernel_table
     MD5 check sum: 095c7af220d748ca6e76c0b4c6cfb241

     atomic species   valence    mass     pseudopotential
        Ag1           19.00   107.86820     Ag( 1.00)

     No symmetry found

   Cartesian axes

     site n.     atom                  positions (alat units)
         1           Ag1 tau(   1) = (   1.4916366   0.8611968  10.0000000  )
         2           Ag1 tau(   2) = (   4.4749098   0.8611968  10.0000000  )
         3           Ag1 tau(   3) = (   2.9832732   3.4447871  10.0000000  )
         4           Ag1 tau(   4) = (   5.9665464   3.4447871  10.0000000  )
         5           Ag1 tau(   5) = (   5.9665464   1.7223936  12.4358324  )
         6           Ag1 tau(   6) = (   2.9832732   1.7223936  12.4358324  )
         7           Ag1 tau(   7) = (   7.4581830   4.3059839  12.4358324  )
         8           Ag1 tau(   8) = (   4.4749098   4.3059839  12.4358324  )
         9           Ag1 tau(   9) = (   0.0000000   0.0000000  14.8716647  )
        10           Ag1 tau(  10) = (   2.9832732   0.0000000  14.8716647  )
        11           Ag1 tau(  11) = (   1.4916366   2.5835904  14.8716647  )
        12           Ag1 tau(  12) = (   4.4749098   2.5835904  14.8716647  )

     number of k points=    20  Fermi-Dirac smearing, width (Ry)=  0.0110
                       cart. coord. in units 2pi/alat
        k(    1) = (   0.0000000   0.0000000   0.0000000), wk =   0.0555556
        k(    2) = (   0.0000000   0.0322549   0.0000000), wk =   0.1111111
        k(    3) = (   0.0000000   0.0645097   0.0000000), wk =   0.1111111
        k(    4) = (   0.0000000  -0.0967646   0.0000000), wk =   0.0555556
        k(    5) = (   0.0279335  -0.0161274   0.0000000), wk =   0.1111111
        k(    6) = (   0.0279335   0.0161274   0.0000000), wk =   0.1111111
        k(    7) = (   0.0279335   0.0483823   0.0000000), wk =   0.1111111
        k(    8) = (   0.0279335  -0.1128920   0.0000000), wk =   0.1111111
        k(    9) = (   0.0279335  -0.0806371   0.0000000), wk =   0.1111111
        k(   10) = (   0.0279335  -0.0483823   0.0000000), wk =   0.1111111
        k(   11) = (   0.0558670  -0.0322549   0.0000000), wk =   0.1111111
        k(   12) = (   0.0558670   0.0000000   0.0000000), wk =   0.1111111
        k(   13) = (   0.0558670   0.0322549   0.0000000), wk =   0.1111111
        k(   14) = (   0.0558670  -0.1290194   0.0000000), wk =   0.1111111
        k(   15) = (   0.0558670  -0.0967646   0.0000000), wk =   0.1111111
        k(   16) = (   0.0558670  -0.0645097   0.0000000), wk =   0.1111111
        k(   17) = (  -0.0838006   0.0483823   0.0000000), wk =   0.0555556
        k(   18) = (  -0.0838006   0.0806371   0.0000000), wk =   0.1111111
        k(   19) = (  -0.0838006   0.1128920   0.0000000), wk =   0.1111111
        k(   20) = (  -0.0838006  -0.0483823   0.0000000), wk =   0.0555556

     Largest allocated arrays     est. size (Mb)     dimensions
     Largest temporary arrays     est. size (Mb)     dimensions

     Initial potential from superposition of free atoms
     Check: negative starting charge=   -0.002381

     starting charge  221.99943, renormalised to  228.00000

     negative rho (up, down):  2.446E-03 0.000E+00

     *
     * You are using vdW-DF for exchange-correlation in this calculation.
     * Please cite the following three references that made this development
     * possible:
     *
     *   M. Dion, H. Rydberg, E. Schroder, D. C. Langreth, and
     *   B. I. Lundqvist, Phys. Rev. Lett. 92, 246401 (2004).
     *
     *   T. Thonhauser, V. R. Cooper, S. Li, A. Puzder, P. Hyldgaard, and
     *   D. C. Langreth, Phys. Rev. B 76, 125112 (2007).
     *
     *   G. Roman-Perez and J. M. Soler, Phys. Rev. Lett. 103, 096102 (2009).
     *
     *
     * If you are using vdW-DF2, please also cite:
     *
     *   K. Lee, E. D. Murray, L. Kong, B. I. Lundqvist, and
     *   D. C. Langreth, Phys. Rev. B 82, 081101(R) (2010).
     *
     *
     * If you are calculating the stress with vdW-DF, please also cite:
     *
     *   R. Sabatini, E. Kucukbenli, B. Kolb, T. Thonhauser, and
     *   S. de Gironcoli, J. Phys.: Condens. Matter 24, 424209 (2012).
     *

     Carrying out vdW-DF run using the following parameters:

     Nqs =      20    Nr_points =    1024   r_max =   100.000
     q_mesh =
               0.00001000     0.04494208     0.09755937     0.15916263
               0.23128650     0.31572767     0.41458969     0.53033537
               0.66584808     0.82450364     1.01025438     1.22772762
               1.48234092     1.78043706     2.12944203     2.53805004
               3.01644009     3.57652955     4.23227104     5.00000000

     Gradients computed in reciprocal space

     Adding external electric field

     Computed dipole along edir(3) :
        Dipole                0.0000 Ry au,          0.0000 Debye
        Dipole field          0.0000 Ry au

        Potential amp.       -0.0000 Ry
        Total length         45.8256 bohr

     Starting wfc are  156 randomized atomic wfcs

     Self-consistent Calculation

     iteration #  1     ecut=    36.75 Ry     beta=0.30
     Davidson diagonalization with overlap
     ethr =  1.00E-02,  avg # of iterations =  6.1

[...]

     total energy              =   -3556.79343500 Ry
     Harris-Foulkes estimate   =   -3563.03268425 Ry
     estimated scf accuracy    <      14.13417026 Ry

[...]

     total energy              =   -3559.80749020 Ry
     Harris-Foulkes estimate   =   -3559.80750099 Ry
     estimated scf accuracy    <       0.00005198 Ry

     iteration #  9     ecut=    36.75 Ry     beta=0.30
     Davidson diagonalization with overlap
     ethr =  2.28E-08,  avg # of iterations =  2.0

[...]

     negative rho (up, down):  2.184E-03 0.000E+00

     Adding external electric field

     Computed dipole along edir(3) :
        Dipole                0.0018 Ry au,          0.0047 Debye
        Dipole field          0.0000 Ry au

        Potential amp.       -0.0004 Ry
        Total length         45.8256 bohr

     End of self-consistent calculation

          k = 0.0000 0.0000 0.0000 ( 19435 PWs)   bands (ev):

   -90.8503 -90.8432 -90.8432 -90.8432 -90.6184 -90.6181 -90.6114 -90.6113
   -90.6113 -90.6111 -90.6111 -90.6111 -54.3884 -54.3884 -54.3884 -54.3487
   -54.3362 -54.3362 -54.3362 -54.3263 -54.3263 -54.3263 -54.3056 -54.3056
   -54.1598 -54.1598 -54.1598 -54.1572 -54.1572 -54.1572 -54.1013 -54.0990
   -54.0990 -54.0990 -54.0986 -54.0986 -54.0985 -54.0955 -54.0920 -54.0920
   -54.0920 -54.0897 -54.0897 -54.0897 -54.0784 -54.0784 -54.0782 -54.0782
    -5.2706  -4.5862  -4.5862  -4.5862  -4.5540  -4.4321  -4.4321  -4.4321
    -4.3532  -4.3193  -4.3193  -4.3193  -4.1434  -4.1434  -4.1434  -3.5615
    -3.5615  -3.5615  -3.4817  -3.4817  -3.4817  -3.4123  -3.4123  -3.4102
    -3.2198  -3.2198  -3.1949  -3.1949  -3.1949  -3.1027  -3.1027  -2.6337
    -2.6335  -2.6335  -2.6335  -2.5646  -2.5646  -2.5196  -2.5196  -2.5196
    -2.3104  -2.3104  -2.3104  -2.2764  -2.2764  -2.0733  -2.0733  -2.0733
    -2.0089  -2.0089  -1.9716  -1.9716  -1.9716  -1.9323  -1.9323  -1.9323
    -1.7205  -1.7205  -1.7205  -1.7033  -1.7033  -1.7033  -0.0623   1.7052
     1.7052   1.7052   1.7691   2.4563   2.4563   2.4563   2.9013   2.9013
     2.9013   4.8582   4.8583   4.8583

[...]

          k = 0.0559-0.0645 0.0000 ( 19479 PWs)   bands (ev):

[...]

          k =-0.0838 0.0484 0.0000 ( 19500 PWs)   bands (ev):

[...]

          k =-0.0838-0.0484 0.0000 ( 19500 PWs)   bands (ev):

   -90.8467 -90.8467 -90.8432 -90.8432 -90.6148 -90.6148 -90.6146 -90.6146
   -90.6114 -90.6114 -90.6111 -90.6111 -54.3731 -54.3731 -54.3471 -54.3471
   -54.3423 -54.3423 -54.3422 -54.3422 -54.3360 -54.3360 -54.3159 -54.3159
   -54.1447 -54.1447 -54.1429 -54.1429 -54.1190 -54.1190 -54.1182 -54.1182
   -54.1144 -54.1144 -54.1139 -54.1139 -54.0958 -54.0958 -54.0931 -54.0931
   -54.0910 -54.0910 -54.0906 -54.0906 -54.0887 -54.0887 -54.0884 -54.0884
    -4.3219  -4.3219  -4.1496  -4.1496  -4.1278  -4.1278  -4.0056  -4.0056
    -3.9272  -3.9272  -3.8801  -3.8801  -3.7755  -3.7755  -3.6879  -3.6879
    -3.4735  -3.4735  -3.4445  -3.4445  -3.4274  -3.4274  -3.3355  -3.3355
    -3.1169  -3.1169  -3.1011  -3.1011  -3.0490  -3.0490  -2.9968  -2.9968
    -2.8194  -2.8194  -2.8027  -2.8027  -2.7889  -2.7889  -2.7805  -2.7805
    -2.6229  -2.6229  -2.6022  -2.6022  -2.5181  -2.5181  -2.5037  -2.5037
    -2.4629  -2.4629  -2.4284  -2.4284  -2.2998  -2.2998  -2.2555  -2.2555
    -1.9891  -1.9891  -1.9805  -1.9805  -1.8535  -1.8535  -1.0514  -1.0514
     0.9485   0.9485   1.4297   1.4297   2.2764   2.2764   3.9770   3.9770
     4.4184   4.4184   6.0685   6.0686

     the Fermi energy is     1.1548 ev

!    total energy              =   -3559.80749656 Ry
     Harris-Foulkes estimate   =   -3559.80749513 Ry
     estimated scf accuracy    <       0.00000463 Ry

     The total energy is the sum of the following terms:

     one-electron contribution =  -25655.46926403 Ry
     hartree contribution      =   12818.31560857 Ry
     xc contribution           =    -360.99438847 Ry
     ewald contribution        =    9638.36556948 Ry
     electric field correction =       0.00000001 Ry
     smearing contrib. (-TS)   =      -0.02502212 Ry

     convergence has been achieved in   9 iterations

 BEEF-vdW xc energy contributions
           1 :   -312.875239718014
           2 :    283.297582016289
           3 :   -233.960704186231
           4 :    179.810989213977
           5 :   -134.433831412037
           6 :    105.088196846098
           7 :   -91.3508298652266
           8 :    87.3529474907537
           9 :   -85.8904782703511
          10 :    82.0591912447991
          11 :   -74.7571564537238
          12 :    65.8135475347069
          13 :   -57.8286809892202
          14 :    52.2704583007926
          15 :   -48.8665193531937
          16 :    46.3000378781290
          17 :   -43.4153520939163
          18 :    39.9891690877661
          19 :   -36.6329933446356
          20 :    34.0829776680824
          21 :   -32.5232915549594
          22 :    31.4433683576632
          23 :   -30.0644221727648
          24 :    27.9514913719970
          25 :   -25.3424827140881
          26 :    22.9696798049603
          27 :   -21.5301668110226
          28 :    21.1973491495297
          29 :   -21.5161915481274
          30 :    21.7331459106895
          31 :   -31.1369506621022
          32 :   -22.6405378305315

     Forces acting on atoms (Ry/au):

     negative rho (up, down):  2.184E-03 0.000E+00
     atom    1 type  1   force =    -0.00000448   -0.00000087   -0.00023749
     atom    2 type  1   force =     0.00000429   -0.00000098   -0.00023725
     atom    3 type  1   force =     0.00000007    0.00000453   -0.00023599
     atom    4 type  1   force =    -0.00000024   -0.00000072   -0.00023641
     atom    5 type  1   force =    -0.00000044    0.00000060   -0.00001930
     atom    6 type  1   force =    -0.00000093    0.00000024   -0.00003167
     atom    7 type  1   force =     0.00000006    0.00000027   -0.00002199
     atom    8 type  1   force =     0.00000193   -0.00000069   -0.00002037
     atom    9 type  1   force =    -0.00000061   -0.00000044    0.00025922
     atom   10 type  1   force =     0.00000037   -0.00000263    0.00025992
     atom   11 type  1   force =    -0.00000189    0.00000076    0.00026017
     atom   12 type  1   force =     0.00000187   -0.00000007    0.00026115

     Total force =     0.000520     Total SCF correction =     0.013508
     SCF correction compared to forces is large: reduce conv_thr to get better values

     entering subroutine stress ...

     negative rho (up, down):  2.184E-03 0.000E+00
          total   stress  (Ry/bohr**3)                   (kbar)     P=   -5.92
  -0.00005147  -0.00000000  -0.00000000         -7.57     -0.00     -0.00
  -0.00000000  -0.00005147   0.00000000         -0.00     -7.57      0.00
  -0.00000000   0.00000000  -0.00001784         -0.00      0.00     -2.62

     BFGS Geometry Optimization

     bfgs converged in   1 scf cycles and   0 bfgs steps
     (criteria: energy <  1.0E+00, force <  1.9E-03)

     End of BFGS Geometry Optimization

     Final energy   =   -3559.8074965551 Ry
Begin final coordinates

ATOMIC_POSITIONS (crystal)
Ag1      0.166666667   0.166666667   0.402063960    0   0   0
Ag1      0.666666667   0.166666667   0.402063960    0   0   0
Ag1      0.166666667   0.666666667   0.402063960    0   0   0
Ag1      0.666666667   0.666666667   0.402063960    0   0   0
Ag1      0.833333333   0.333333333   0.500000000    0   0   0
Ag1      0.333333333   0.333333333   0.500000000    0   0   0
Ag1      0.833333333   0.833333333   0.500000000    0   0   0
Ag1      0.333333333   0.833333333   0.500000000    0   0   0
Ag1      0.000000000   0.000000000   0.597936040
Ag1      0.500000000   0.000000000   0.597936040
Ag1     -0.000000000   0.500000000   0.597936040
Ag1      0.500000000   0.500000000   0.597936040
End final coordinates

     Writing output data file calc.save

     General routines

     Parallel routines

   This run was terminated on:  16:23:31  30Apr2018

   JOB DONE.
Job  /afs/slac/g/suncat/bin/suncat-tsmpirun -x LD_LIBRARY_PATH -wdir /scratch/qe504653_q9x75 pw.x -npool 4 -in pw.inp

TID   HOST_NAME   COMMAND_LINE            STATUS            TERMINATION_TIME
00000 suncat0174 pw.x -npool 4 -i  Done                     04/30/2018 16:23:31
00001 suncat0174 pw.x -npool 4 -i  Done                     04/30/2018 16:23:31
00002 suncat0174 pw.x -npool 4 -i  Done                     04/30/2018 16:23:31
00003 suncat0174 pw.x -npool 4 -i  Done                     04/30/2018 16:23:31
00004 suncat0174 pw.x -npool 4 -i  Done                     04/30/2018 16:23:31
00005 suncat0174 pw.x -npool 4 -i  Done                     04/30/2018 16:23:31
00006 suncat0174 pw.x -npool 4 -i  Done                     04/30/2018 16:23:31
00007 suncat0174 pw.x -npool 4 -i  Done                     04/30/2018 16:23:31
00008 suncat0155 pw.x -npool 4 -i  Done                     04/30/2018 16:23:31
00009 suncat0155 pw.x -npool 4 -i  Done                     04/30/2018 16:23:31
00010 suncat0155 pw.x -npool 4 -i  Done                     04/30/2018 16:23:31
00011 suncat0155 pw.x -npool 4 -i  Done                     04/30/2018 16:23:31
00012 suncat0155 pw.x -npool 4 -i  Done                     04/30/2018 16:23:31
00013 suncat0155 pw.x -npool 4 -i  Done                     04/30/2018 16:23:31
00014 suncat0155 pw.x -npool 4 -i  Done                     04/30/2018 16:23:31
00015 suncat0155 pw.x -npool 4 -i  Done                     04/30/2018 16:23:31
00016 suncat0279 pw.x -npool 4 -i  Done                     04/30/2018 16:23:31
00017 suncat0279 pw.x -npool 4 -i  Done                     04/30/2018 16:23:31
00018 suncat0279 pw.x -npool 4 -i  Done                     04/30/2018 16:23:31
00019 suncat0279 pw.x -npool 4 -i  Done                     04/30/2018 16:23:31
00020 suncat0279 pw.x -npool 4 -i  Done                     04/30/2018 16:23:31
00021 suncat0279 pw.x -npool 4 -i  Done                     04/30/2018 16:23:31
00022 suncat0279 pw.x -npool 4 -i  Done                     04/30/2018 16:23:31
00023 suncat0279 pw.x -npool 4 -i  Done                     04/30/2018 16:23:31
00024 suncat0271 pw.x -npool 4 -i  Done                     04/30/2018 16:23:31
00025 suncat0271 pw.x -npool 4 -i  Done                     04/30/2018 16:23:31
00026 suncat0271 pw.x -npool 4 -i  Done                     04/30/2018 16:23:31
00027 suncat0271 pw.x -npool 4 -i  Done                     04/30/2018 16:23:31
00028 suncat0271 pw.x -npool 4 -i  Done                     04/30/2018 16:23:31
00029 suncat0271 pw.x -npool 4 -i  Done                     04/30/2018 16:23:31
00030 suncat0271 pw.x -npool 4 -i  Done                     04/30/2018 16:23:31
00031 suncat0271 pw.x -npool 4 -i  Done                     04/30/2018 16:23:31