     Program PWSCF v.5.1rc2 (svn rev. 11289) starts on 30Apr2018 at 15:57:34

     Current dimensions of program PWSCF are:
     Max number of different atomic species (ntypx) = 10
     Max number of k-points (npk) =  40000
     Max angular momentum in pseudopotentials (lmaxx) =  3
     Presently stress not available with electric field

     IMPORTANT: XC functional enforced from input :
     Exchange-correlation      = BEEF-VDW ( 1  4 27 13 2)
     Any further DFT definition will be discarded
     Please, verify this is what you really want

     Subspace diagonalization in iterative solution of the eigenvalue problem:
     a serial algorithm will be used

     Found symmetry operation: I + ( -0.5000  0.0000  0.0000)
     This is a supercell, fractional translations are disabled

     bravais-lattice index     =            0
     lattice parameter (alat)  =       1.8897  a.u.
     unit-cell volume          =    5182.3421 (a.u.)^3
     number of atoms/cell      =           12
     number of atomic types    =            1
     number of electrons       =       156.00
     number of Kohn-Sham states=           88
     kinetic-energy cutoff     =      36.7493  Ry
     charge density cutoff     =     367.4932  Ry
     convergence threshold     =      1.0E-05
     mixing beta               =       0.3000
     number of iterations used =           10  plain     mixing
     Exchange-correlation      = BEEF-VDW ( 1  4 27 13 2)
     nstep                     =           50

     celldm(1)=   1.889726  celldm(2)=   0.000000  celldm(3)=   0.000000
     celldm(4)=   0.000000  celldm(5)=   0.000000  celldm(6)=   0.000000

     crystal axes: (cart. coord. in units of alat)
               a(1) = (   5.970602   0.000000   0.000000 )
               a(2) = (   2.985301   5.170693   0.000000 )
               a(3) = (   0.000000   0.000000  24.874976 )

     reciprocal axes: (cart. coord. in units 2 pi/alat)
               b(1) = (  0.167487 -0.096699  0.000000 )
               b(2) = (  0.000000  0.193398  0.000000 )
               b(3) = (  0.000000  0.000000  0.040201 )

     PseudoPot. # 1 for Nb read from file:
     /u/if/mamunm/psp/gbrv1.5pbe/Nb.UPF
     MD5 check sum: 573aab8a2fa660278ed4a62cd769473f
     Pseudo is Ultrasoft + core correction, Zval = 13.0
     Generated by new atomic code, or converted to UPF format
     Using radial grid of  887 points,  6 beta functions with:
                l(1) =   0
                l(2) =   0
                l(3) =   1
                l(4) =   1
                l(5) =   2
                l(6) =   2
     Q(r) pseudized with  6 coefficients,  rinner =    1.000   1.000   1.000
                                                       1.000   1.000

     vdW kernel table read from file vdW_kernel_table
     MD5 check sum: 095c7af220d748ca6e76c0b4c6cfb241

     atomic species   valence    mass     pseudopotential
        Nb1           13.00    92.90637     Nb( 1.00)

     No symmetry found

   Cartesian axes

     site n.     atom                  positions (alat units)
         1           Nb1 tau(   1) = (   1.4926504   0.8617821  10.0000000  )
         2           Nb1 tau(   2) = (   4.4779512   0.8617821  10.0000000  )
         3           Nb1 tau(   3) = (   2.9853008   3.4471284  10.0000000  )
         4           Nb1 tau(   4) = (   5.9706016   3.4471284  10.0000000  )
         5           Nb1 tau(   5) = (   5.9706016   1.7235642  12.4374879  )
         6           Nb1 tau(   6) = (   2.9853008   1.7235642  12.4374879  )
         7           Nb1 tau(   7) = (   7.4632520   4.3089105  12.4374879  )
         8           Nb1 tau(   8) = (   4.4779512   4.3089105  12.4374879  )
         9           Nb1 tau(   9) = (   0.0000000   0.0000000  14.8749758  )
        10           Nb1 tau(  10) = (   2.9853008   0.0000000  14.8749758  )
        11           Nb1 tau(  11) = (   1.4926504   2.5853463  14.8749758  )
        12           Nb1 tau(  12) = (   4.4779512   2.5853463  14.8749758  )

     number of k points=    20  Fermi-Dirac smearing, width (Ry)=  0.0110
                       cart. coord. in units 2pi/alat
        k(    1) = (   0.0000000   0.0000000   0.0000000), wk =   0.0555556
        k(    2) = (   0.0000000   0.0322329   0.0000000), wk =   0.1111111
        k(    3) = (   0.0000000   0.0644659   0.0000000), wk =   0.1111111
        k(    4) = (   0.0000000  -0.0966988   0.0000000), wk =   0.0555556
        k(    5) = (   0.0279146  -0.0161165   0.0000000), wk =   0.1111111
        k(    6) = (   0.0279146   0.0161165   0.0000000), wk =   0.1111111
        k(    7) = (   0.0279146   0.0483494   0.0000000), wk =   0.1111111
        k(    8) = (   0.0279146  -0.1128153   0.0000000), wk =   0.1111111
        k(    9) = (   0.0279146  -0.0805824   0.0000000), wk =   0.1111111
        k(   10) = (   0.0279146  -0.0483494   0.0000000), wk =   0.1111111
        k(   11) = (   0.0558291  -0.0322329   0.0000000), wk =   0.1111111
        k(   12) = (   0.0558291   0.0000000   0.0000000), wk =   0.1111111
        k(   13) = (   0.0558291   0.0322329   0.0000000), wk =   0.1111111
        k(   14) = (   0.0558291  -0.1289318   0.0000000), wk =   0.1111111
        k(   15) = (   0.0558291  -0.0966988   0.0000000), wk =   0.1111111
        k(   16) = (   0.0558291  -0.0644659   0.0000000), wk =   0.1111111
        k(   17) = (  -0.0837437   0.0483494   0.0000000), wk =   0.0555556
        k(   18) = (  -0.0837437   0.0805824   0.0000000), wk =   0.1111111
        k(   19) = (  -0.0837437   0.1128153   0.0000000), wk =   0.1111111
        k(   20) = (  -0.0837437  -0.0483494   0.0000000), wk =   0.0555556

     Largest allocated arrays     est. size (Mb)     dimensions
     Largest temporary arrays     est. size (Mb)     dimensions

     Initial potential from superposition of free atoms
     Check: negative starting charge=   -0.005265

     starting charge  155.96720, renormalised to  156.00000

     negative rho (up, down):  5.266E-03 0.000E+00

     *
     * You are using vdW-DF for exchange-correlation in this calculation.
     * Please cite the following three references that made this development
     * possible:
     *
     *   M. Dion, H. Rydberg, E. Schroder, D. C. Langreth, and
     *   B. I. Lundqvist, Phys. Rev. Lett. 92, 246401 (2004).
     *
     *   T. Thonhauser, V. R. Cooper, S. Li, A. Puzder, P. Hyldgaard, and
     *   D. C. Langreth, Phys. Rev. B 76, 125112 (2007).
     *
     *   G. Roman-Perez and J. M. Soler, Phys. Rev. Lett. 103, 096102 (2009).
     *
     *
     * If you are using vdW-DF2, please also cite:
     *
     *   K. Lee, E. D. Murray, L. Kong, B. I. Lundqvist, and
     *   D. C. Langreth, Phys. Rev. B 82, 081101(R) (2010).
     *
     *
     * If you are calculating the stress with vdW-DF, please also cite:
     *
     *   R. Sabatini, E. Kucukbenli, B. Kolb, T. Thonhauser, and
     *   S. de Gironcoli, J. Phys.: Condens. Matter 24, 424209 (2012).
     *

     Carrying out vdW-DF run using the following parameters:

     Nqs =      20    Nr_points =    1024   r_max =   100.000
     q_mesh =
               0.00001000     0.04494208     0.09755937     0.15916263
               0.23128650     0.31572767     0.41458969     0.53033537
               0.66584808     0.82450364     1.01025438     1.22772762
               1.48234092     1.78043706     2.12944203     2.53805004
               3.01644009     3.57652955     4.23227104     5.00000000

     Gradients computed in reciprocal space

     Adding external electric field

     Computed dipole along edir(3) :
        Dipole               -0.0000 Ry au,         -0.0001 Debye
        Dipole field         -0.0000 Ry au

        Potential amp.        0.0000 Ry
        Total length         45.8317 bohr

     Starting wfc are  156 randomized atomic wfcs

     Self-consistent Calculation

     iteration #  1     ecut=    36.75 Ry     beta=0.30
     Davidson diagonalization with overlap
     ethr =  1.00E-02,  avg # of iterations =  2.0

[...]

     total energy              =   -1419.94220435 Ry
     Harris-Foulkes estimate   =   -1422.59027467 Ry
     estimated scf accuracy    <       5.78929769 Ry

[...]

     End of self-consistent calculation

          k = 0.0000 0.0000 0.0000 ( 19435 PWs)   bands (ev):

   -53.2760 -53.2278 -53.1397 -53.1152 -53.1142 -53.1138 -53.1060 -53.1050
   -53.1048 -53.0572 -53.0557 -53.0543 -29.7167 -29.7163 -29.7158 -29.6616
   -29.6421 -29.6420 -29.6419 -29.5858 -29.5857 -29.5852 -29.3153 -29.1853
   -29.1844 -29.1842 -29.1429 -29.1423 -29.1420 -29.0163 -29.0159 -29.0153
   -28.9285 -28.9284 -28.9280 -28.9263 -28.9251 -28.9241 -28.8562 -28.8357
   -28.8353 -28.8347 -28.7760 -28.7759 -28.7269 -28.7269 -28.6716 -28.6716
    -3.6208  -2.3394  -1.8498  -1.6761  -1.6759  -1.6755  -1.3647  -1.3646
    -1.3646  -0.9803  -0.9802  -0.9802  -0.8782  -0.8782  -0.8780   0.2207
     0.2207   0.2210   1.1657   1.2738   1.2738   1.2739   1.5766   1.8634
     1.9764   1.9764   2.2219   2.2219   2.2407   2.2409   2.2410   2.3113
     2.3116   2.3120   2.3774   2.3774   2.7969   3.1245   3.1248   3.1250

[...]

          k =-0.0837 0.0483 0.0000 ( 19524 PWs)   bands (ev):

[...]

     the Fermi energy is     1.8810 ev

!    total energy              =   -1422.08996200 Ry
     Harris-Foulkes estimate   =   -1422.09247477 Ry
     estimated scf accuracy    <       0.00000776 Ry

     The total energy is the sum of the following terms:

     one-electron contribution =  -11378.28489283 Ry
     hartree contribution      =    5680.83565638 Ry
     xc contribution           =    -228.11487820 Ry
     ewald contribution        =    4503.59679816 Ry
     electric field correction =       0.00000084 Ry
     smearing contrib. (-TS)   =      -0.12264634 Ry

     convergence has been achieved in  13 iterations

 BEEF-vdW xc energy contributions
           1 :   -195.577755023063
           2 :    177.900182267909
           3 :   -147.733040262577
           4 :    113.160461355827
           5 :   -82.0023340252366
           6 :    59.1527938741640
           7 :   -45.5134112708338
           8 :    38.6618978141735
           9 :   -34.6795862878342
          10 :    30.1279972430002
          11 :   -23.3416470356245
          12 :    14.6438847261437
          13 :   -5.65128052899971
          14 :   -1.84887216943159
          15 :    6.85339863038624
          16 :   -9.52831881765371
          17 :    10.9258083081935
          18 :   -12.2820897812001
          19 :    14.3084997289123
          20 :   -16.8596897783981
          21 :    19.1117224106132
          22 :   -20.1029978576075
          23 :    19.3007191380215
          24 :   -16.8862288434757
          25 :    13.6351107780992
          26 :   -10.5064141515879
          27 :    8.18550677506244
          28 :   -6.82327447889122
          29 :    6.07471904623259
          30 :   -5.38428686370818
          31 :   -22.5163105366648
          32 :   -17.0215666279965

     Forces acting on atoms (Ry/au):

     negative rho (up, down):  4.798E-03 0.000E+00
     atom    1 type  1   force =    -0.00001509    0.00000787   -0.00394710
     atom    2 type  1   force =     0.00001602   -0.00000438   -0.00396191
     atom    3 type  1   force =    -0.00000958    0.00000673   -0.00392754
     atom    4 type  1   force =     0.00001032   -0.00000736   -0.00396694
     atom    5 type  1   force =    -0.00000764    0.00000656    0.00001116
     atom    6 type  1   force =     0.00000762    0.00000146   -0.00002088
     atom    7 type  1   force =     0.00000194   -0.00000217    0.00007216
     atom    8 type  1   force =     0.00000315   -0.00001107   -0.00002738
     atom    9 type  1   force =    -0.00001743    0.00000916    0.00393806
     atom   10 type  1   force =     0.00001140   -0.00000757    0.00392445
     atom   11 type  1   force =    -0.00002015    0.00000935    0.00393600
     atom   12 type  1   force =     0.00001943   -0.00000857    0.00396991

     Total force =     0.007884     Total SCF correction =     0.007689
     SCF correction compared to forces is large: reduce conv_thr to get better values

     entering subroutine stress ...

     negative rho (up, down):  4.798E-03 0.000E+00
          total   stress  (Ry/bohr**3)                   (kbar)     P=  -22.65
  -0.00024399   0.00000000  -0.00000000        -35.89      0.00     -0.00
   0.00000000  -0.00024398   0.00000000          0.00    -35.89      0.00
  -0.00000000   0.00000000   0.00002609         -0.00      0.00      3.84

     BFGS Geometry Optimization

     number of scf cycles    =   1
     number of bfgs steps    =   0

     energy   new            =   -1422.0899619984 Ry

     new trust radius        =       0.0039699674 bohr
     new conv_thr            =       0.0000099958 Ry

ATOMIC_POSITIONS (crystal)
Nb1      0.166666667   0.166666667   0.402010442    0   0   0
Nb1      0.666666667   0.166666667   0.402010442    0   0   0
Nb1      0.166666667   0.666666667   0.402010442    0   0   0
Nb1      0.666666667   0.666666667   0.402010442    0   0   0
Nb1      0.833333333   0.333333333   0.500000000    0   0   0
Nb1      0.333333333   0.333333333   0.500000000    0   0   0
Nb1      0.833333333   0.833333333   0.500000000    0   0   0
Nb1      0.333333333   0.833333333   0.500000000    0   0   0
Nb1     -0.000002014   0.000000937   0.598073334
Nb1      0.500001398  -0.000000775   0.598073045
Nb1     -0.000002264   0.500000957   0.598073291
Nb1      0.500002161   0.499999123   0.598074012

     Writing output data file calc.save
     Check: negative starting charge=   -0.005265
     NEW-OLD atomic charge density approx. for the potential
     Check: negative starting charge=   -0.005261

[...]

     Total force =     0.007929     Total SCF correction =     0.004475
     SCF correction compared to forces is large: reduce conv_thr to get better values

[...]

     energy   old            =   -1422.0899619984 Ry
     energy   new            =   -1422.0925325294 Ry

     CASE: energy  _new < energy  _old

     WARNING: bfgs curvature condition failed, Theta= 0.795
     new trust radius        =       0.0043669642 bohr
     new conv_thr            =       0.0000001000 Ry

[...]

     Total force =     0.006745     Total SCF correction =     0.000053

[...]

     number of scf cycles    =   4
     number of bfgs steps    =   3

     energy   old            =   -1422.0926278516 Ry
     energy   new            =   -1422.0927070950 Ry

     CASE: energy  _new < energy  _old

     new trust radius        =       0.0098256694 bohr
     new conv_thr            =       0.0000001000 Ry

ATOMIC_POSITIONS (crystal)
Nb1      0.166666667   0.166666667   0.402010442    0   0   0
Nb1      0.666666667   0.166666667   0.402010442    0   0   0
Nb1      0.166666667   0.666666667   0.402010442    0   0   0
Nb1      0.666666667   0.666666667   0.402010442    0   0   0
Nb1      0.833333333   0.333333333   0.500000000    0   0   0
Nb1      0.333333333   0.333333333   0.500000000    0   0   0
Nb1      0.833333333   0.833333333   0.500000000    0   0   0
Nb1      0.333333333   0.833333333   0.500000000    0   0   0
Nb1     -0.000005696   0.000002708   0.598513157
Nb1      0.500002847  -0.000000506   0.598508739
Nb1     -0.000007030   0.500001195   0.598512314
Nb1      0.500008671   0.499996811   0.598515287

     Writing output data file calc.save
     Check: negative starting charge=   -0.005251
     NEW-OLD atomic charge density approx. for the potential
     Check: negative starting charge=   -0.005241

[...]

     Self-consistent Calculation

[...]

     total energy              =   -1422.09278680 Ry
     Harris-Foulkes estimate   =   -1422.09278680 Ry
     estimated scf accuracy    <       0.00000011 Ry

     iteration # 10     ecut=    36.75 Ry     beta=0.30
     Davidson diagonalization with overlap
     ethr =  6.73E-11,  avg # of iterations =  3.1

[...]

     negative rho (up, down):  4.778E-03 0.000E+00

     Adding external electric field

     Computed dipole along edir(3) :
        Dipole               -0.0029 Ry au,         -0.0074 Debye
        Dipole field         -0.0000 Ry au

        Potential amp.        0.0006 Ry
        Total length         45.8317 bohr

     End of self-consistent calculation

[...]

          k = 0.0558-0.0645 0.0000 ( 19505 PWs)   bands (ev):

[...]

          k =-0.0837-0.0483 0.0000 ( 19524 PWs)   bands (ev):

   -53.2035 -53.2034 -53.1721 -53.1720 -53.1196 -53.1196 -53.1103 -53.1103
   -53.0997 -53.0997 -53.0603 -53.0603 -29.5423 -29.5422 -29.5293 -29.5293
   -29.5273 -29.5273 -29.4255 -29.4255 -29.3735 -29.3734 -29.3174 -29.3174
   -29.1961 -29.1960 -29.1736 -29.1736 -29.1296 -29.1295 -29.1226 -29.1226
   -29.0566 -29.0565 -29.0356 -29.0355 -29.0331 -29.0330 -28.9021 -28.9020
   -28.8898 -28.8898 -28.8526 -28.8526 -28.8328 -28.8328 -28.7568 -28.7567
    -2.0629  -2.0629  -1.1042  -1.1042  -0.7197  -0.7197  -0.6243  -0.6243
    -0.5374  -0.5374  -0.0024  -0.0023   0.1216   0.1216   0.2201   0.2202
     0.6680   0.6681   0.7414   0.7414   0.8204   0.8204   1.1984   1.1986
     1.3974   1.3974   1.5238   1.5238   1.5487   1.5487   1.6747   1.6747
     1.9231   1.9233   2.0419   2.0420   2.1056   2.1058   2.7648   2.7648

     the Fermi energy is     1.8791 ev

!    total energy              =   -1422.09278679 Ry
     Harris-Foulkes estimate   =   -1422.09278681 Ry
     estimated scf accuracy    <       0.00000003 Ry

     The total energy is the sum of the following terms:

     one-electron contribution =  -11357.03155441 Ry
     hartree contribution      =    5670.19056582 Ry
     xc contribution           =    -228.09669250 Ry
     ewald contribution        =    4492.96744464 Ry
     electric field correction =       0.00000002 Ry
     smearing contrib. (-TS)   =      -0.12255037 Ry

     convergence has been achieved in  10 iterations

 BEEF-vdW xc energy contributions
           1 :   -195.631801225339
           2 :    177.946289969947
           3 :   -147.769531649799
           4 :    113.193923289351
           5 :   -82.0439048781312
           6 :    59.2112585233768
           7 :   -45.5895578343545
           8 :    38.7475798077330
           9 :   -34.7617037062515
          10 :    30.1955312054013
          11 :   -23.3918434834534
          12 :    14.6836869183435
          13 :   -5.69337540213058
          14 :   -1.79322240460334
          15 :    6.78096609514671
          16 :   -9.44610220030336
          17 :    10.8470372715188
          18 :   -12.2185831714917
          19 :    14.2637973708960
          20 :   -16.8268521957521
          21 :    19.0776399875113
          22 :   -20.0557658460727
          23 :    19.2354371702700
          24 :   -16.8067471643387
          25 :    13.5508692272373
          26 :   -10.4264197760284
          27 :    8.11250179032524
          28 :   -6.75141432409674
          29 :    5.99263044901755
          30 :   -5.28132935809822
          31 :   -22.5206090132916
          32 :   -17.0241427190221

     Forces acting on atoms (Ry/au):

     negative rho (up, down):  4.778E-03 0.000E+00
     atom    1 type  1   force =    -0.00000635    0.00000268   -0.00461140
     atom    2 type  1   force =     0.00000603    0.00000006   -0.00461028
     atom    3 type  1   force =    -0.00000235    0.00000258   -0.00460952
     atom    4 type  1   force =     0.00000252   -0.00000532   -0.00461073
     atom    5 type  1   force =    -0.00000498   -0.00000164    0.00284445
     atom    6 type  1   force =     0.00000503    0.00000941    0.00283987
     atom    7 type  1   force =     0.00000827   -0.00000082    0.00283272
     atom    8 type  1   force =    -0.00000849   -0.00000635    0.00284656
     atom    9 type  1   force =     0.00000443   -0.00000168    0.00176902
     atom   10 type  1   force =    -0.00000456    0.00000223    0.00177479
     atom   11 type  1   force =     0.00000275   -0.00000306    0.00177243
     atom   12 type  1   force =    -0.00000232    0.00000192    0.00176210

     Total force =     0.003539     Total SCF correction =     0.000296

     entering subroutine stress ...

     negative rho (up, down):  4.778E-03 0.000E+00
          total   stress  (Ry/bohr**3)                   (kbar)     P=  -23.21
  -0.00024746   0.00000000  -0.00000000        -36.40      0.00     -0.00
   0.00000000  -0.00024746   0.00000000          0.00    -36.40      0.00
  -0.00000000   0.00000000   0.00002160         -0.00      0.00      3.18

     bfgs converged in   5 scf cycles and   4 bfgs steps
     (criteria: energy <  1.0E+00, force <  1.9E-03)

     End of BFGS Geometry Optimization

     Final energy   =   -1422.0927867950 Ry
Begin final coordinates

ATOMIC_POSITIONS (crystal)
Nb1      0.166666667   0.166666667   0.402010442    0   0   0
Nb1      0.666666667   0.166666667   0.402010442    0   0   0
Nb1      0.166666667   0.666666667   0.402010442    0   0   0
Nb1      0.666666667   0.666666667   0.402010442    0   0   0
Nb1      0.833333333   0.333333333   0.500000000    0   0   0
Nb1      0.333333333   0.333333333   0.500000000    0   0   0
Nb1      0.833333333   0.833333333   0.500000000    0   0   0
Nb1      0.333333333   0.833333333   0.500000000    0   0   0
Nb1     -0.000005696   0.000002708   0.598513157
Nb1      0.500002847  -0.000000506   0.598508739
Nb1     -0.000007030   0.500001195   0.598512314
Nb1      0.500008671   0.499996811   0.598515287
End final coordinates

     Writing output data file calc.save

     General routines

     Parallel routines

   This run was terminated on:  16:26:44  30Apr2018

   JOB DONE.
Job  /afs/slac/g/suncat/bin/suncat-tsmpirun -x LD_LIBRARY_PATH -wdir /scratch/qe500916_5LSRR pw.x -npool 4 -in pw.inp

TID   HOST_NAME   COMMAND_LINE            STATUS            TERMINATION_TIME
00000 suncat0190 pw.x -npool 4 -i  Done                     04/30/2018 16:26:44
00001 suncat0190 pw.x -npool 4 -i  Done                     04/30/2018 16:26:44
00002 suncat0190 pw.x -npool 4 -i  Done                     04/30/2018 16:26:44
00003 suncat0190 pw.x -npool 4 -i  Done                     04/30/2018 16:26:44
00004 suncat0190 pw.x -npool 4 -i  Done                     04/30/2018 16:26:44
00005 suncat0190 pw.x -npool 4 -i  Done                     04/30/2018 16:26:44
00006 suncat0190 pw.x -npool 4 -i  Done                     04/30/2018 16:26:44
00007 suncat0190 pw.x -npool 4 -i  Done                     04/30/2018 16:26:44
00008 suncat0185 pw.x -npool 4 -i  Done                     04/30/2018 16:26:44
00009 suncat0185 pw.x -npool 4 -i  Done                     04/30/2018 16:26:44
00010 suncat0185 pw.x -npool 4 -i  Done                     04/30/2018 16:26:44
00011 suncat0185 pw.x -npool 4 -i  Done                     04/30/2018 16:26:44
00012 suncat0185 pw.x -npool 4 -i  Done                     04/30/2018 16:26:44
00013 suncat0185 pw.x -npool 4 -i  Done                     04/30/2018 16:26:44
00014 suncat0185 pw.x -npool 4 -i  Done                     04/30/2018 16:26:44
00015 suncat0185 pw.x -npool 4 -i  Done                     04/30/2018 16:26:44
00016 suncat0171 pw.x -npool 4 -i  Done                     04/30/2018 16:26:44
00017 suncat0171 pw.x -npool 4 -i  Done                     04/30/2018 16:26:44
00018 suncat0171 pw.x -npool 4 -i  Done                     04/30/2018 16:26:44
00019 suncat0171 pw.x -npool 4 -i  Done                     04/30/2018 16:26:44
00020 suncat0171 pw.x -npool 4 -i  Done                     04/30/2018 16:26:44
00021 suncat0171 pw.x -npool 4 -i  Done                     04/30/2018 16:26:44
00022 suncat0171 pw.x -npool 4 -i  Done                     04/30/2018 16:26:44
00023 suncat0171 pw.x -npool 4 -i  Done                     04/30/2018 16:26:44
00024 suncat0251 pw.x -npool 4 -i  Done                     04/30/2018 16:26:44
00025 suncat0251 pw.x -npool 4 -i  Done                     04/30/2018 16:26:44
00026 suncat0251 pw.x -npool 4 -i  Done                     04/30/2018 16:26:44
00027 suncat0251 pw.x -npool 4 -i  Done                     04/30/2018 16:26:44
00028 suncat0251 pw.x -npool 4 -i  Done                     04/30/2018 16:26:44
00029 suncat0251 pw.x -npool 4 -i  Done                     04/30/2018 16:26:44
00030 suncat0251 pw.x -npool 4 -i  Done                     04/30/2018 16:26:44
00031 suncat0251 pw.x -npool 4 -i  Done                     04/30/2018 16:26:44