     Program PWSCF v.5.1rc2 (svn rev. ) starts on 25Oct2017 at 20:43:50

     Current dimensions of program PWSCF are:
     Max number of different atomic species (ntypx) = 10
     Max number of k-points (npk) =  40000
     Max angular momentum in pseudopotentials (lmaxx) =  3

     IMPORTANT: XC functional enforced from input :
     Exchange-correlation      = BEEF-VDW ( 1  4 27 13 2)
     Any further DFT definition will be discarded
     Please, verify this is what you really want

     Subspace diagonalization in iterative solution of the eigenvalue problem:
     a serial algorithm will be used

     bravais-lattice index     =            0
     lattice parameter (alat)  =       1.8897  a.u.
     unit-cell volume          =     372.7238 (a.u.)^3
     number of atoms/cell      =            4
     number of atomic types    =            2
     number of electrons       =        68.00
     number of Kohn-Sham states=           54
     kinetic-energy cutoff     =      58.7989  Ry
     charge density cutoff     =     587.9892  Ry
     convergence threshold     =      7.3E-09
     mixing beta               =       0.1000
     number of iterations used =           10  local-TF  mixing
     Exchange-correlation      = BEEF-VDW ( 1  4 27 13 2)
     nstep                     =           50

     celldm(1)=   1.889726  celldm(2)=   0.000000  celldm(3)=   0.000000
     celldm(4)=   0.000000  celldm(5)=   0.000000  celldm(6)=   0.000000

     crystal axes: (cart. coord. in units of alat)
               a(1) = (   3.808291   0.000000   0.000000 )
               a(2) = (   0.000000   3.808291   0.000000 )
               a(3) = (   0.000000   0.000000   3.808291 )

     reciprocal axes: (cart. coord. in units 2 pi/alat)
               b(1) = (  0.262585  0.000000  0.000000 )
               b(2) = (  0.000000  0.262585  0.000000 )
               b(3) = (  0.000000  0.000000  0.262585 )

     PseudoPot. # 1 for Cu read from file:
     /home/vossj/suncat/psp/gbrv1.5pbe/Cu.UPF
     MD5 check sum: 6e991ff952a84172a2a52a1c1e996048
     Pseudo is Ultrasoft + core correction, Zval = 19.0
     Generated by new atomic code, or converted to UPF format
     Using radial grid of  867 points,  6 beta functions with:
                l(1) =   0
                l(2) =   0
                l(3) =   1
                l(4) =   1
                l(5) =   2
                l(6) =   2
     Q(r) pseudized with  8 coefficients,  rinner =    1.150   1.150   1.150
                                                       1.150   1.150

     PseudoPot. # 2 for Au read from file:
     /home/vossj/suncat/psp/gbrv1.5pbe/Au.UPF
     MD5 check sum: 9d7f43293ad2c663164586bc4b293ffc
     Pseudo is Ultrasoft + core correction, Zval = 11.0
     Generated by new atomic code, or converted to UPF format
     Using radial grid of  985 points,  7 beta functions with:
                l(1) =   0
                l(2) =   0
                l(3) =   1
                l(4) =   1
                l(5) =   2
                l(6) =   2
                l(7) =   3
     Q(r) pseudized with  6 coefficients,  rinner =    1.900   1.900   1.900
                                                       1.900   1.900   1.900
                                                       1.900

     vdW kernel table read from file vdW_kernel_table
     MD5 check sum: 095c7af220d748ca6e76c0b4c6cfb241

     atomic species   valence    mass     pseudopotential
        Cu1           19.00    63.54600     Cu( 1.00)
        Au1           11.00   196.96657     Au( 1.00)

     48 Sym. Ops., with inversion, found (32 have fractional translation)

   Cartesian axes

     site n.     atom                  positions (alat units)
         1           Cu1 tau(   1) = (   0.0000000   0.0000000   0.0000000  )
         2           Cu1 tau(   2) = (   0.0000000   1.9041457   1.9041457  )
         3           Cu1 tau(   3) = (   1.9041457   0.0000000   1.9041457  )
         4           Au1 tau(   4) = (   1.9041457   1.9041457   0.0000000  )

     number of k points=    84  Fermi-Dirac smearing, width (Ry)=  0.0073
                       cart. coord. in units 2pi/alat
        k(    1) = (   0.0000000   0.0000000   0.0000000), wk =   0.0011574
        k(    2) = (   0.0000000   0.0000000   0.0218821), wk =   0.0069444
        k(    3) = (   0.0000000   0.0000000   0.0437642), wk =   0.0069444
        k(    4) = (   0.0000000   0.0000000   0.0656462), wk =   0.0069444
        k(    5) = (   0.0000000   0.0000000   0.0875283), wk =   0.0069444
        k(    6) = (   0.0000000   0.0000000   0.1094104), wk =   0.0069444
        k(    7) = (   0.0000000   0.0000000  -0.1312925), wk =   0.0034722
        k(    8) = (   0.0000000   0.0218821   0.0218821), wk =   0.0138889
        k(    9) = (   0.0000000   0.0218821   0.0437642), wk =   0.0277778
        k(   10) = (   0.0000000   0.0218821   0.0656462), wk =   0.0277778
        k(   11) = (   0.0000000   0.0218821   0.0875283), wk =   0.0277778
        k(   12) = (   0.0000000   0.0218821   0.1094104), wk =   0.0277778
        k(   13) = (   0.0000000   0.0218821  -0.1312925), wk =   0.0138889
        k(   14) = (   0.0000000   0.0437642   0.0437642), wk =   0.0138889
        k(   15) = (   0.0000000   0.0437642   0.0656462), wk =   0.0277778
        k(   16) = (   0.0000000   0.0437642   0.0875283), wk =   0.0277778
        k(   17) = (   0.0000000   0.0437642   0.1094104), wk =   0.0277778
        k(   18) = (   0.0000000   0.0437642  -0.1312925), wk =   0.0138889
        k(   19) = (   0.0000000   0.0656462   0.0656462), wk =   0.0138889
        k(   20) = (   0.0000000   0.0656462   0.0875283), wk =   0.0277778
        k(   21) = (   0.0000000   0.0656462   0.1094104), wk =   0.0277778
        k(   22) = (   0.0000000   0.0656462  -0.1312925), wk =   0.0138889
        k(   23) = (   0.0000000   0.0875283   0.0875283), wk =   0.0138889
        k(   24) = (   0.0000000   0.0875283   0.1094104), wk =   0.0277778
        k(   25) = (   0.0000000   0.0875283  -0.1312925), wk =   0.0138889
        k(   26) = (   0.0000000   0.1094104   0.1094104), wk =   0.0138889
        k(   27) = (   0.0000000   0.1094104  -0.1312925), wk =   0.0138889
        k(   28) = (   0.0000000  -0.1312925  -0.1312925), wk =   0.0034722
        k(   29) = (   0.0218821   0.0218821   0.0218821), wk =   0.0092593
        k(   30) = (   0.0218821   0.0218821   0.0437642), wk =   0.0277778
        k(   31) = (   0.0218821   0.0218821   0.0656462), wk =   0.0277778
        k(   32) = (   0.0218821   0.0218821   0.0875283), wk =   0.0277778
        k(   33) = (   0.0218821   0.0218821   0.1094104), wk =   0.0277778
        k(   34) = (   0.0218821   0.0218821  -0.1312925), wk =   0.0138889
        k(   35) = (   0.0218821   0.0437642   0.0437642), wk =   0.0277778
        k(   36) = (   0.0218821   0.0437642   0.0656462), wk =   0.0555556
        k(   37) = (   0.0218821   0.0437642   0.0875283), wk =   0.0555556
        k(   38) = (   0.0218821   0.0437642   0.1094104), wk =   0.0555556
        k(   39) = (   0.0218821   0.0437642  -0.1312925), wk =   0.0277778
        k(   40) = (   0.0218821   0.0656462   0.0656462), wk =   0.0277778
        k(   41) = (   0.0218821   0.0656462   0.0875283), wk =   0.0555556
        k(   42) = (   0.0218821   0.0656462   0.1094104), wk =   0.0555556
        k(   43) = (   0.0218821   0.0656462  -0.1312925), wk =   0.0277778
        k(   44) = (   0.0218821   0.0875283   0.0875283), wk =   0.0277778
        k(   45) = (   0.0218821   0.0875283   0.1094104), wk =   0.0555556
        k(   46) = (   0.0218821   0.0875283  -0.1312925), wk =   0.0277778
        k(   47) = (   0.0218821   0.1094104   0.1094104), wk =   0.0277778
        k(   48) = (   0.0218821   0.1094104  -0.1312925), wk =   0.0277778
        k(   49) = (   0.0218821  -0.1312925  -0.1312925), wk =   0.0069444
        k(   50) = (   0.0437642   0.0437642   0.0437642), wk =   0.0092593
        k(   51) = (   0.0437642   0.0437642   0.0656462), wk =   0.0277778
        k(   52) = (   0.0437642   0.0437642   0.0875283), wk =   0.0277778
        k(   53) = (   0.0437642   0.0437642   0.1094104), wk =   0.0277778
        k(   54) = (   0.0437642   0.0437642  -0.1312925), wk =   0.0138889
        k(   55) = (   0.0437642   0.0656462   0.0656462), wk =   0.0277778
        k(   56) = (   0.0437642   0.0656462   0.0875283), wk =   0.0555556
        k(   57) = (   0.0437642   0.0656462   0.1094104), wk =   0.0555556
        k(   58) = (   0.0437642   0.0656462  -0.1312925), wk =   0.0277778
        k(   59) = (   0.0437642   0.0875283   0.0875283), wk =   0.0277778
        k(   60) = (   0.0437642   0.0875283   0.1094104), wk =   0.0555556
[...]
        k(   70) = (   0.0656462   0.0875283   0.1094104), wk =   0.0555556
        k(   71) = (   0.0656462   0.0875283  -0.1312925), wk =   0.0277778
        k(   72) = (   0.0656462   0.1094104   0.1094104), wk =   0.0277778
        k(   73) = (   0.0656462   0.1094104  -0.1312925), wk =   0.0277778
        k(   74) = (   0.0656462  -0.1312925  -0.1312925), wk =   0.0069444
        k(   75) = (   0.0875283   0.0875283   0.0875283), wk =   0.0092593
        k(   76) = (   0.0875283   0.0875283   0.1094104), wk =   0.0277778
        k(   77) = (   0.0875283   0.0875283  -0.1312925), wk =   0.0138889
        k(   78) = (   0.0875283   0.1094104   0.1094104), wk =   0.0277778
        k(   79) = (   0.0875283   0.1094104  -0.1312925), wk =   0.0277778
        k(   80) = (   0.0875283  -0.1312925  -0.1312925), wk =   0.0069444
        k(   81) = (   0.1094104   0.1094104   0.1094104), wk =   0.0092593
        k(   82) = (   0.1094104   0.1094104  -0.1312925), wk =   0.0138889
        k(   83) = (   0.1094104  -0.1312925  -0.1312925), wk =   0.0069444
        k(   84) = (  -0.1312925  -0.1312925  -0.1312925), wk =   0.0011574

     Largest allocated arrays     est. size (Mb)     dimensions
     Largest temporary arrays     est. size (Mb)     dimensions

     Check: negative/imaginary core charge=   -0.000001    0.000000

     Initial potential from superposition of free atoms

     starting charge   64.99987, renormalised to   68.00000

     *
     * You are using vdW-DF for exchange-correlation in this calculation.
     * Please cite the following three references that made this development
     * possible:
     *
     *   M. Dion, H. Rydberg, E. Schroder, D. C. Langreth, and
     *   B. I. Lundqvist, Phys. Rev. Lett. 92, 246401 (2004).
     *
     *   T. Thonhauser, V. R. Cooper, S. Li, A. Puzder, P. Hyldgaard, and
     *   D. C. Langreth, Phys. Rev. B 76, 125112 (2007).
     *
     *   G. Roman-Perez and J. M. Soler, Phys. Rev. Lett. 103, 096102 (2009).
     *
     *
     * If you are using vdW-DF2, please also cite:
     *
     *   K. Lee, E. D. Murray, L. Kong, B. I. Lundqvist, and
     *   D. C. Langreth, Phys. Rev. B 82, 081101(R) (2010).
     *
     *
     * If you are calculating the stress with vdW-DF, please also cite:
     *
     *   R. Sabatini, E. Kucukbenli, B. Kolb, T. Thonhauser, and
     *   S. de Gironcoli, J. Phys.: Condens. Matter 24, 424209 (2012).
     *

     Carrying out vdW-DF run using the following parameters:

     Nqs =      20    Nr_points =    1024   r_max =   100.000
     q_mesh =
               0.00001000     0.04494208     0.09755937     0.15916263
               0.23128650     0.31572767     0.41458969     0.53033537
               0.66584808     0.82450364     1.01025438     1.22772762
               1.48234092     1.78043706     2.12944203     2.53805004
               3.01644009     3.57652955     4.23227104     5.00000000

     Gradients computed in reciprocal space

     Starting wfc are   48 randomized atomic wfcs +    6 random wfc

     Self-consistent Calculation

     iteration #  1     ecut=    58.80 Ry     beta=0.10
     Davidson diagonalization with overlap
     ethr =  1.00E-02,  avg # of iterations =  4.4

     total energy              =   -1332.43149308 Ry
     Harris-Foulkes estimate   =   -1333.08047264 Ry
     estimated scf accuracy    <       7.83266006 Ry

[...]

     total energy              =   -1331.60696398 Ry
     Harris-Foulkes estimate   =   -1331.60695997 Ry
     estimated scf accuracy    <       0.00000002 Ry

     iteration # 14     ecut=    58.80 Ry     beta=0.10
     Davidson diagonalization with overlap
     ethr =  2.30E-11,  avg # of iterations =  2.0

     End of self-consistent calculation

          k = 0.0000 0.0000 0.0000 (  2897 PWs)   bands (ev):

   -97.6741 -97.6677 -97.6677 -55.0911 -55.0911 -55.0911 -55.0683 -55.0683
   -55.0683 -55.0520 -55.0520 -55.0520   5.5968   8.6516   8.6516   9.4070
     9.4070   9.4070  10.4063  11.7104  11.7104  11.7104  12.4797  12.4797
    13.0453  13.0589  13.0589  13.1924  13.1924  13.1924  13.2870  13.2870
    13.2870  16.1763  16.1763  16.1763  20.5063  21.8727  21.8727  25.6407
    25.6407  25.6407  27.3921  27.3921  27.3921  32.2716  32.2716  32.2716
    33.1010  33.1010  33.1153  34.2388  34.3930  34.3930

[...]

          k = 0.1094-0.1313-0.1313 (  2852 PWs)   bands (ev):

[...]

          k =-0.1313-0.1313-0.1313 (  2872 PWs)   bands (ev):

   -97.6698 -97.6698 -97.6698 -55.1023 -55.0872 -55.0872 -55.0872 -55.0547
   -55.0547 -55.0547 -55.0537 -55.0537   8.5970   8.5970   8.5970   9.7357
    10.4100  10.4100  11.6393  11.6393  11.6393  11.9161  11.9161  11.9161
    13.0707  13.0707  13.0707  13.0737  13.0737  13.0941  13.0941  13.0941
    13.9049  13.9716  13.9716  13.9716  17.0792  18.5967  18.5967  18.5967
    32.9451  32.9451  32.9451  33.0058  33.0058  33.0058  33.5397  34.1827
    34.1827  34.3304  34.3304  34.3304  36.7362  36.7362

     the Fermi energy is    14.7789 ev

!    total energy              =   -1331.60698000 Ry
     Harris-Foulkes estimate   =   -1331.60696398 Ry
     estimated scf accuracy    <          6.7E-10 Ry

     The total energy is the sum of the following terms:

     one-electron contribution =    -886.17001598 Ry
     hartree contribution      =     490.24990824 Ry
     xc contribution           =    -184.17523590 Ry
     ewald contribution        =    -751.50889941 Ry
     smearing contrib. (-TS)   =      -0.00273694 Ry

     convergence has been achieved in  14 iterations

     Forces acting on atoms (Ry/au):

     atom    1 type  1   force =     0.00000000    0.00000000    0.00000000
     atom    2 type  1   force =     0.00000000    0.00000000    0.00000000
     atom    3 type  1   force =     0.00000000    0.00000000    0.00000000
     atom    4 type  2   force =     0.00000000    0.00000000    0.00000000

     Total force =     0.000000     Total SCF correction =     0.000000
 !ASE

     General routines

     Parallel routines

   This run was terminated on:  20:45: 0  25Oct2017

   JOB DONE.