     Program PWSCF v.5.1rc2 (svn rev. ) starts on 25Oct2017 at  8: 7:18

     Current dimensions of program PWSCF are:
     Max number of different atomic species (ntypx) = 10
     Max number of k-points (npk) =  40000
     Max angular momentum in pseudopotentials (lmaxx) =  3

     IMPORTANT: XC functional enforced from input :
     Exchange-correlation      = BEEF-VDW ( 1  4 27 13 2)
     Any further DFT definition will be discarded
     Please, verify this is what you really want

     Subspace diagonalization in iterative solution of the eigenvalue problem:
     a serial algorithm will be used

     bravais-lattice index     =            0
     lattice parameter (alat)  =       1.8897  a.u.
     unit-cell volume          =     571.8447 (a.u.)^3
     number of atoms/cell      =            4
     number of atomic types    =            2
     number of electrons       =        52.00
     number of Kohn-Sham states=           46
     kinetic-energy cutoff     =      58.7989  Ry
     charge density cutoff     =     587.9892  Ry
     convergence threshold     =      7.3E-09
     mixing beta               =       0.1000
     number of iterations used =           10  local-TF  mixing
     Exchange-correlation      = BEEF-VDW ( 1  4 27 13 2)
     nstep                     =           50

     celldm(1)=   1.889726  celldm(2)=   0.000000  celldm(3)=   0.000000
     celldm(4)=   0.000000  celldm(5)=   0.000000  celldm(6)=   0.000000

     crystal axes: (cart. coord. in units of alat)
               a(1) = (   4.392319   0.000000   0.000000 )
               a(2) = (   0.000000   4.392319   0.000000 )
               a(3) = (   0.000000   0.000000   4.392319 )

     reciprocal axes: (cart. coord. in units 2 pi/alat)
               b(1) = (  0.227670  0.000000  0.000000 )
               b(2) = (  0.000000  0.227670  0.000000 )
               b(3) = (  0.000000  0.000000  0.227670 )

     PseudoPot. # 1 for Hg read from file:
     /home/vossj/suncat/psp/gbrv1.5pbe/Hg.UPF
     MD5 check sum: 8f42caffe07f7fd9c0a564347f8c5498
     Pseudo is Ultrasoft + core correction, Zval = 12.0
     Generated by new atomic code, or converted to UPF format
     Using radial grid of  985 points,  6 beta functions with:
                l(1) =   0
                l(2) =   0
                l(3) =   1
                l(4) =   1
                l(5) =   2
                l(6) =   2
     Q(r) pseudized with  8 coefficients,  rinner =    2.000   2.000   2.000
                                                       2.000   2.000

     PseudoPot. # 2 for Pt read from file:
     /home/vossj/suncat/psp/gbrv1.5pbe/Pt.UPF
     MD5 check sum: f09d6de1a584b5a045c4fc126da2d0c4
     Pseudo is Ultrasoft + core correction, Zval = 16.0
     Generated by new atomic code, or converted to UPF format
     Using radial grid of  985 points,  6 beta functions with:
                l(1) =   0
                l(2) =   0
                l(3) =   1
                l(4) =   1
                l(5) =   2
                l(6) =   2
     Q(r) pseudized with  8 coefficients,  rinner =    1.300   1.300   1.300
                                                       1.300   1.300

     vdW kernel table read from file vdW_kernel_table
     MD5 check sum: 095c7af220d748ca6e76c0b4c6cfb241

     atomic species   valence    mass     pseudopotential
        Hg1           12.00   200.59200     Hg( 1.00)
        Pt1           16.00   195.08400     Pt( 1.00)

     48 Sym. Ops., with inversion, found (32 have fractional translation)

   Cartesian axes

     site n.     atom                  positions (alat units)
         1           Hg1 tau(   1) = (   0.0000000   0.0000000   0.0000000  )
         2           Hg1 tau(   2) = (   0.0000000   2.1961593   2.1961593  )
         3           Hg1 tau(   3) = (   2.1961593   0.0000000   2.1961593  )
         4           Pt1 tau(   4) = (   2.1961593   2.1961593   0.0000000  )

     number of k points=    84  Fermi-Dirac smearing, width (Ry)=  0.0073
                       cart. coord. in units 2pi/alat
        k(    1) = (   0.0000000   0.0000000   0.0000000), wk =   0.0011574
        k(    2) = (   0.0000000   0.0000000   0.0189725), wk =   0.0069444
        k(    3) = (   0.0000000   0.0000000   0.0379450), wk =   0.0069444
        k(    4) = (   0.0000000   0.0000000   0.0569175), wk =   0.0069444
        k(    5) = (   0.0000000   0.0000000   0.0758901), wk =   0.0069444
        k(    6) = (   0.0000000   0.0000000   0.0948626), wk =   0.0069444
        k(    7) = (   0.0000000   0.0000000  -0.1138351), wk =   0.0034722
        k(    8) = (   0.0000000   0.0189725   0.0189725), wk =   0.0138889
        k(    9) = (   0.0000000   0.0189725   0.0379450), wk =   0.0277778
        k(   10) = (   0.0000000   0.0189725   0.0569175), wk =   0.0277778
        k(   11) = (   0.0000000   0.0189725   0.0758901), wk =   0.0277778
        k(   12) = (   0.0000000   0.0189725   0.0948626), wk =   0.0277778
        k(   13) = (   0.0000000   0.0189725  -0.1138351), wk =   0.0138889
        k(   14) = (   0.0000000   0.0379450   0.0379450), wk =   0.0138889
        k(   15) = (   0.0000000   0.0379450   0.0569175), wk =   0.0277778
        k(   16) = (   0.0000000   0.0379450   0.0758901), wk =   0.0277778
        k(   17) = (   0.0000000   0.0379450   0.0948626), wk =   0.0277778
        k(   18) = (   0.0000000   0.0379450  -0.1138351), wk =   0.0138889
        k(   19) = (   0.0000000   0.0569175   0.0569175), wk =   0.0138889
        k(   20) = (   0.0000000   0.0569175   0.0758901), wk =   0.0277778
        k(   21) = (   0.0000000   0.0569175   0.0948626), wk =   0.0277778
        k(   22) = (   0.0000000   0.0569175  -0.1138351), wk =   0.0138889
        k(   23) = (   0.0000000   0.0758901   0.0758901), wk =   0.0138889
        k(   24) = (   0.0000000   0.0758901   0.0948626), wk =   0.0277778
        k(   25) = (   0.0000000   0.0758901  -0.1138351), wk =   0.0138889
        k(   26) = (   0.0000000   0.0948626   0.0948626), wk =   0.0138889
        k(   27) = (   0.0000000   0.0948626  -0.1138351), wk =   0.0138889
        k(   28) = (   0.0000000  -0.1138351  -0.1138351), wk =   0.0034722
        k(   29) = (   0.0189725   0.0189725   0.0189725), wk =   0.0092593
        k(   30) = (   0.0189725   0.0189725   0.0379450), wk =   0.0277778
        k(   31) = (   0.0189725   0.0189725   0.0569175), wk =   0.0277778
        k(   32) = (   0.0189725   0.0189725   0.0758901), wk =   0.0277778
        k(   33) = (   0.0189725   0.0189725   0.0948626), wk =   0.0277778
        k(   34) = (   0.0189725   0.0189725  -0.1138351), wk =   0.0138889
        k(   35) = (   0.0189725   0.0379450   0.0379450), wk =   0.0277778
        k(   36) = (   0.0189725   0.0379450   0.0569175), wk =   0.0555556
        k(   37) = (   0.0189725   0.0379450   0.0758901), wk =   0.0555556
        k(   38) = (   0.0189725   0.0379450   0.0948626), wk =   0.0555556
        k(   39) = (   0.0189725   0.0379450  -0.1138351), wk =   0.0277778
        k(   40) = (   0.0189725   0.0569175   0.0569175), wk =   0.0277778
        k(   41) = (   0.0189725   0.0569175   0.0758901), wk =   0.0555556
        k(   42) = (   0.0189725   0.0569175   0.0948626), wk =   0.0555556
        k(   43) = (   0.0189725   0.0569175  -0.1138351), wk =   0.0277778
        k(   44) = (   0.0189725   0.0758901   0.0758901), wk =   0.0277778
        k(   45) = (   0.0189725   0.0758901   0.0948626), wk =   0.0555556
        k(   46) = (   0.0189725   0.0758901  -0.1138351), wk =   0.0277778
        k(   47) = (   0.0189725   0.0948626   0.0948626), wk =   0.0277778
        k(   48) = (   0.0189725   0.0948626  -0.1138351), wk =   0.0277778
        k(   49) = (   0.0189725  -0.1138351  -0.1138351), wk =   0.0069444
        k(   50) = (   0.0379450   0.0379450   0.0379450), wk =   0.0092593
        k(   51) = (   0.0379450   0.0379450   0.0569175), wk =   0.0277778
        k(   52) = (   0.0379450   0.0379450   0.0758901), wk =   0.0277778
        k(   53) = (   0.0379450   0.0379450   0.0948626), wk =   0.0277778
        k(   54) = (   0.0379450   0.0379450  -0.1138351), wk =   0.0138889
        k(   55) = (   0.0379450   0.0569175   0.0569175), wk =   0.0277778
        k(   56) = (   0.0379450   0.0569175   0.0758901), wk =   0.0555556
        k(   57) = (   0.0379450   0.0569175   0.0948626), wk =   0.0555556
        k(   58) = (   0.0379450   0.0569175  -0.1138351), wk =   0.0277778
        k(   59) = (   0.0379450   0.0758901   0.0758901), wk =   0.0277778
        k(   60) = (   0.0379450   0.0758901   0.0948626), wk =   0.0555556
[...]
        k(   70) = (   0.0569175   0.0758901   0.0948626), wk =   0.0555556
        k(   71) = (   0.0569175   0.0758901  -0.1138351), wk =   0.0277778
        k(   72) = (   0.0569175   0.0948626   0.0948626), wk =   0.0277778
        k(   73) = (   0.0569175   0.0948626  -0.1138351), wk =   0.0277778
        k(   74) = (   0.0569175  -0.1138351  -0.1138351), wk =   0.0069444
        k(   75) = (   0.0758901   0.0758901   0.0758901), wk =   0.0092593
        k(   76) = (   0.0758901   0.0758901   0.0948626), wk =   0.0277778
        k(   77) = (   0.0758901   0.0758901  -0.1138351), wk =   0.0138889
        k(   78) = (   0.0758901   0.0948626   0.0948626), wk =   0.0277778
        k(   79) = (   0.0758901   0.0948626  -0.1138351), wk =   0.0277778
        k(   80) = (   0.0758901  -0.1138351  -0.1138351), wk =   0.0069444
        k(   81) = (   0.0948626   0.0948626   0.0948626), wk =   0.0092593
        k(   82) = (   0.0948626   0.0948626  -0.1138351), wk =   0.0138889
        k(   83) = (   0.0948626  -0.1138351  -0.1138351), wk =   0.0069444
        k(   84) = (  -0.1138351  -0.1138351  -0.1138351), wk =   0.0011574

     Largest allocated arrays     est. size (Mb)     dimensions
     Largest temporary arrays     est. size (Mb)     dimensions

     Initial potential from superposition of free atoms
     Check: negative starting charge=   -0.184029

     starting charge   51.49981, renormalised to   52.00000

     negative rho (up, down):  1.858E-01 0.000E+00

     *
     * You are using vdW-DF for exchange-correlation in this calculation.
     * Please cite the following three references that made this development
     * possible:
     *
     *   M. Dion, H. Rydberg, E. Schroder, D. C. Langreth, and
     *   B. I. Lundqvist, Phys. Rev. Lett. 92, 246401 (2004).
     *
     *   T. Thonhauser, V. R. Cooper, S. Li, A. Puzder, P. Hyldgaard, and
     *   D. C. Langreth, Phys. Rev. B 76, 125112 (2007).
     *
     *   G. Roman-Perez and J. M. Soler, Phys. Rev. Lett. 103, 096102 (2009).
     *
     *
     * If you are using vdW-DF2, please also cite:
     *
     *   K. Lee, E. D. Murray, L. Kong, B. I. Lundqvist, and
     *   D. C. Langreth, Phys. Rev. B 82, 081101(R) (2010).
     *
     *
     * If you are calculating the stress with vdW-DF, please also cite:
     *
     *   R. Sabatini, E. Kucukbenli, B. Kolb, T. Thonhauser, and
     *   S. de Gironcoli, J. Phys.: Condens. Matter 24, 424209 (2012).
     *

     Carrying out vdW-DF run using the following parameters:

     Nqs =      20    Nr_points =    1024   r_max =   100.000
     q_mesh =
               0.00001000     0.04494208     0.09755937     0.15916263
               0.23128650     0.31572767     0.41458969     0.53033537
               0.66584808     0.82450364     1.01025438     1.22772762
               1.48234092     1.78043706     2.12944203     2.53805004
               3.01644009     3.57652955     4.23227104     5.00000000

     Gradients computed in reciprocal space

     Starting wfc are   39 randomized atomic wfcs +    7 random wfc

     Self-consistent Calculation

     iteration #  1     ecut=    58.80 Ry     beta=0.10
     Davidson diagonalization with overlap
     ethr =  1.00E-02,  avg # of iterations =  5.6

     Threshold (ethr) on eigenvalues was too large:
     Diagonalizing with lowered threshold

     Davidson diagonalization with overlap
     ethr =  3.93E-04,  avg # of iterations =  1.5

[...]

     total energy              =    -539.68706731 Ry
     Harris-Foulkes estimate   =    -539.69856176 Ry
     estimated scf accuracy    <       0.20502411 Ry

[...]

     total energy              =    -539.63375585 Ry
     Harris-Foulkes estimate   =    -539.63375551 Ry
     estimated scf accuracy    <       0.00000006 Ry

     iteration # 16     ecut=    58.80 Ry     beta=0.10
     Davidson diagonalization with overlap
     ethr =  1.06E-10,  avg # of iterations =  2.1

     negative rho (up, down):  1.788E-01 0.000E+00

     End of self-consistent calculation

          k = 0.0000 0.0000 0.0000 (  4385 PWs)   bands (ev):

   -38.5283 -38.5283 -38.5283   3.9621   4.8359   5.0331   5.0331   5.0331
     5.3046   5.3046   6.3073   6.3073   6.3073   6.7715   6.7715   7.2199
     7.3651   7.3651   7.3651  11.0764  11.0764  11.8989  11.8989  11.8989
    13.5364  13.5364  13.5364  15.2365  15.2365  16.5404  20.9751  20.9751
    20.9751  21.6204  21.6204  21.6204  26.5403  26.8684  26.8684  26.9570
    28.6336  28.6336  28.6336  29.4283  29.4283  29.4283

[...]

          k = 0.0949-0.1138-0.1138 (  4328 PWs)   bands (ev):

[...]

          k =-0.1138-0.1138-0.1138 (  4272 PWs)   bands (ev):

   -38.5286 -38.5286 -38.5286   4.9499   4.9499   4.9499   5.0167   5.8169
     5.8169   5.8169   6.2869   6.2869   6.2869   6.5645   6.5645   7.2205
     7.2205   7.2205  10.1915  10.1915  10.1915  11.4063  11.8281  11.8281
    12.1995  12.1995  12.1995  13.7669  13.7669  13.7669  14.3805  26.1540
    26.3959  26.3959  26.3959  26.6326  26.6326  26.9517  26.9517  26.9517
    28.1042  28.1042  28.1042  33.0404  33.0404  33.0404

     the Fermi energy is    13.4214 ev

!    total energy              =    -539.63375744 Ry
     Harris-Foulkes estimate   =    -539.63375586 Ry
     estimated scf accuracy    <          1.9E-09 Ry

     The total energy is the sum of the following terms:

     one-electron contribution =     -65.31622852 Ry
     hartree contribution      =      82.45430712 Ry
     xc contribution           =    -180.10239991 Ry
     ewald contribution        =    -376.66492221 Ry
     smearing contrib. (-TS)   =      -0.00451392 Ry

     convergence has been achieved in  16 iterations

     Forces acting on atoms (Ry/au):

     negative rho (up, down):  1.788E-01 0.000E+00
     atom    1 type  1   force =     0.00000000    0.00000000   -0.00000000
     atom    2 type  1   force =     0.00000000    0.00000000    0.00000000
     atom    3 type  1   force =     0.00000000    0.00000000    0.00000000
     atom    4 type  2   force =     0.00000000   -0.00000000    0.00000000

     Total force =     0.000000     Total SCF correction =     0.000000
 !ASE

     General routines

     Parallel routines

   This run was terminated on:   8: 8:44  25Oct2017

   JOB DONE.