     Program PWSCF v.5.1rc2 (svn rev. ) starts on 25Oct2017 at  7:56:49

     Current dimensions of program PWSCF are:
     Max number of different atomic species (ntypx) = 10
     Max number of k-points (npk) =  40000
     Max angular momentum in pseudopotentials (lmaxx) =  3

     IMPORTANT: XC functional enforced from input :
     Exchange-correlation      = BEEF-VDW ( 1  4 27 13 2)
     Any further DFT definition will be discarded
     Please, verify this is what you really want

     Subspace diagonalization in iterative solution of the eigenvalue problem:
     a serial algorithm will be used

     bravais-lattice index     =            0
     lattice parameter (alat)  =       1.8897  a.u.
     unit-cell volume          =     426.2180 (a.u.)^3
     number of atoms/cell      =            4
     number of atomic types    =            2
     number of electrons       =        71.00
     number of Kohn-Sham states=           55
     kinetic-energy cutoff     =      58.7989  Ry
     charge density cutoff     =     587.9892  Ry
     convergence threshold     =      7.3E-09
     mixing beta               =       0.1000
     number of iterations used =           10  local-TF  mixing
     Exchange-correlation      = BEEF-VDW ( 1  4 27 13 2)
     nstep                     =           50

     celldm(1)=   1.889726  celldm(2)=   0.000000  celldm(3)=   0.000000
     celldm(4)=   0.000000  celldm(5)=   0.000000  celldm(6)=   0.000000

     crystal axes: (cart. coord. in units of alat)
               a(1) = (   3.982402   0.000000   0.000000 )
               a(2) = (   0.000000   3.982402   0.000000 )
               a(3) = (   0.000000   0.000000   3.982402 )

     reciprocal axes: (cart. coord. in units 2 pi/alat)
               b(1) = (  0.251105  0.000000  0.000000 )
               b(2) = (  0.000000  0.251105  0.000000 )
               b(3) = (  0.000000  0.000000  0.251105 )

     PseudoPot. # 1 for Ga read from file:
     /home/vossj/suncat/psp/gbrv1.5pbe/Ga.UPF
     MD5 check sum: ccd671392a58a050fbb373893b4fcd66
     Pseudo is Ultrasoft + core correction, Zval = 19.0
     Generated by new atomic code, or converted to UPF format
     Using radial grid of  871 points,  6 beta functions with:
                l(1) =   0
                l(2) =   0
                l(3) =   1
                l(4) =   1
                l(5) =   2
                l(6) =   2
     Q(r) pseudized with  8 coefficients,  rinner =    1.250   1.250   1.250
                                                       1.250   1.250

     PseudoPot. # 2 for Mo read from file:
     /home/vossj/suncat/psp/gbrv1.5pbe/Mo.UPF
     MD5 check sum: 30c4dcd161f5d35cd49bb5239c51a633
     Pseudo is Ultrasoft + core correction, Zval = 14.0
     Generated by new atomic code, or converted to UPF format
     Using radial grid of  889 points,  6 beta functions with:
                l(1) =   0
                l(2) =   0
                l(3) =   1
                l(4) =   1
                l(5) =   2
                l(6) =   2
     Q(r) pseudized with  6 coefficients,  rinner =    1.000   1.000   1.000
                                                       1.000   1.000

     vdW kernel table read from file vdW_kernel_table
     MD5 check sum: 095c7af220d748ca6e76c0b4c6cfb241

     atomic species   valence    mass     pseudopotential
        Ga1           19.00    69.72300     Ga( 1.00)
        Mo1           14.00    95.95000     Mo( 1.00)

     48 Sym. Ops., with inversion, found (32 have fractional translation)

   Cartesian axes

     site n.     atom                  positions (alat units)
         1           Ga1 tau(   1) = (   0.0000000   0.0000000   0.0000000  )
         2           Ga1 tau(   2) = (   0.0000000   1.9912009   1.9912009  )
         3           Ga1 tau(   3) = (   1.9912009   0.0000000   1.9912009  )
         4           Mo1 tau(   4) = (   1.9912009   1.9912009   0.0000000  )

     number of k points=    84  Fermi-Dirac smearing, width (Ry)=  0.0073
                       cart. coord. in units 2pi/alat
        k(    1) = (   0.0000000   0.0000000   0.0000000), wk =   0.0011574
        k(    2) = (   0.0000000   0.0000000   0.0209254), wk =   0.0069444
        k(    3) = (   0.0000000   0.0000000   0.0418508), wk =   0.0069444
        k(    4) = (   0.0000000   0.0000000   0.0627762), wk =   0.0069444
        k(    5) = (   0.0000000   0.0000000   0.0837016), wk =   0.0069444
        k(    6) = (   0.0000000   0.0000000   0.1046270), wk =   0.0069444
        k(    7) = (   0.0000000   0.0000000  -0.1255524), wk =   0.0034722
        k(    8) = (   0.0000000   0.0209254   0.0209254), wk =   0.0138889
        k(    9) = (   0.0000000   0.0209254   0.0418508), wk =   0.0277778
        k(   10) = (   0.0000000   0.0209254   0.0627762), wk =   0.0277778
        k(   11) = (   0.0000000   0.0209254   0.0837016), wk =   0.0277778
        k(   12) = (   0.0000000   0.0209254   0.1046270), wk =   0.0277778
        k(   13) = (   0.0000000   0.0209254  -0.1255524), wk =   0.0138889
        k(   14) = (   0.0000000   0.0418508   0.0418508), wk =   0.0138889
        k(   15) = (   0.0000000   0.0418508   0.0627762), wk =   0.0277778
        k(   16) = (   0.0000000   0.0418508   0.0837016), wk =   0.0277778
        k(   17) = (   0.0000000   0.0418508   0.1046270), wk =   0.0277778
        k(   18) = (   0.0000000   0.0418508  -0.1255524), wk =   0.0138889
        k(   19) = (   0.0000000   0.0627762   0.0627762), wk =   0.0138889
        k(   20) = (   0.0000000   0.0627762   0.0837016), wk =   0.0277778
        k(   21) = (   0.0000000   0.0627762   0.1046270), wk =   0.0277778
        k(   22) = (   0.0000000   0.0627762  -0.1255524), wk =   0.0138889
        k(   23) = (   0.0000000   0.0837016   0.0837016), wk =   0.0138889
        k(   24) = (   0.0000000   0.0837016   0.1046270), wk =   0.0277778
        k(   25) = (   0.0000000   0.0837016  -0.1255524), wk =   0.0138889
        k(   26) = (   0.0000000   0.1046270   0.1046270), wk =   0.0138889
        k(   27) = (   0.0000000   0.1046270  -0.1255524), wk =   0.0138889
        k(   28) = (   0.0000000  -0.1255524  -0.1255524), wk =   0.0034722
        k(   29) = (   0.0209254   0.0209254   0.0209254), wk =   0.0092593
        k(   30) = (   0.0209254   0.0209254   0.0418508), wk =   0.0277778
        k(   31) = (   0.0209254   0.0209254   0.0627762), wk =   0.0277778
        k(   32) = (   0.0209254   0.0209254   0.0837016), wk =   0.0277778
        k(   33) = (   0.0209254   0.0209254   0.1046270), wk =   0.0277778
        k(   34) = (   0.0209254   0.0209254  -0.1255524), wk =   0.0138889
        k(   35) = (   0.0209254   0.0418508   0.0418508), wk =   0.0277778
        k(   36) = (   0.0209254   0.0418508   0.0627762), wk =   0.0555556
        k(   37) = (   0.0209254   0.0418508   0.0837016), wk =   0.0555556
        k(   38) = (   0.0209254   0.0418508   0.1046270), wk =   0.0555556
        k(   39) = (   0.0209254   0.0418508  -0.1255524), wk =   0.0277778
        k(   40) = (   0.0209254   0.0627762   0.0627762), wk =   0.0277778
        k(   41) = (   0.0209254   0.0627762   0.0837016), wk =   0.0555556
        k(   42) = (   0.0209254   0.0627762   0.1046270), wk =   0.0555556
        k(   43) = (   0.0209254   0.0627762  -0.1255524), wk =   0.0277778
        k(   44) = (   0.0209254   0.0837016   0.0837016), wk =   0.0277778
        k(   45) = (   0.0209254   0.0837016   0.1046270), wk =   0.0555556
        k(   46) = (   0.0209254   0.0837016  -0.1255524), wk =   0.0277778
        k(   47) = (   0.0209254   0.1046270   0.1046270), wk =   0.0277778
        k(   48) = (   0.0209254   0.1046270  -0.1255524), wk =   0.0277778
        k(   49) = (   0.0209254  -0.1255524  -0.1255524), wk =   0.0069444
        k(   50) = (   0.0418508   0.0418508   0.0418508), wk =   0.0092593
        k(   51) = (   0.0418508   0.0418508   0.0627762), wk =   0.0277778
        k(   52) = (   0.0418508   0.0418508   0.0837016), wk =   0.0277778
        k(   53) = (   0.0418508   0.0418508   0.1046270), wk =   0.0277778
        k(   54) = (   0.0418508   0.0418508  -0.1255524), wk =   0.0138889
        k(   55) = (   0.0418508   0.0627762   0.0627762), wk =   0.0277778
        k(   56) = (   0.0418508   0.0627762   0.0837016), wk =   0.0555556
        k(   57) = (   0.0418508   0.0627762   0.1046270), wk =   0.0555556
        k(   58) = (   0.0418508   0.0627762  -0.1255524), wk =   0.0277778
        k(   59) = (   0.0418508   0.0837016   0.0837016), wk =   0.0277778
        k(   60) = (   0.0418508   0.0837016   0.1046270), wk =   0.0555556
[...]
        k(   70) = (   0.0627762   0.0837016   0.1046270), wk =   0.0555556
        k(   71) = (   0.0627762   0.0837016  -0.1255524), wk =   0.0277778
        k(   72) = (   0.0627762   0.1046270   0.1046270), wk =   0.0277778
        k(   73) = (   0.0627762   0.1046270  -0.1255524), wk =   0.0277778
        k(   74) = (   0.0627762  -0.1255524  -0.1255524), wk =   0.0069444
        k(   75) = (   0.0837016   0.0837016   0.0837016), wk =   0.0092593
        k(   76) = (   0.0837016   0.0837016   0.1046270), wk =   0.0277778
        k(   77) = (   0.0837016   0.0837016  -0.1255524), wk =   0.0138889
        k(   78) = (   0.0837016   0.1046270   0.1046270), wk =   0.0277778
        k(   79) = (   0.0837016   0.1046270  -0.1255524), wk =   0.0277778
        k(   80) = (   0.0837016  -0.1255524  -0.1255524), wk =   0.0069444
        k(   81) = (   0.1046270   0.1046270   0.1046270), wk =   0.0092593
        k(   82) = (   0.1046270   0.1046270  -0.1255524), wk =   0.0138889
        k(   83) = (   0.1046270  -0.1255524  -0.1255524), wk =   0.0069444
        k(   84) = (  -0.1255524  -0.1255524  -0.1255524), wk =   0.0011574

     Largest allocated arrays     est. size (Mb)     dimensions
     Largest temporary arrays     est. size (Mb)     dimensions

     Initial potential from superposition of free atoms

     starting charge   67.99893, renormalised to   71.00000

     *
     * You are using vdW-DF for exchange-correlation in this calculation.
     * Please cite the following three references that made this development
     * possible:
     *
     *   M. Dion, H. Rydberg, E. Schroder, D. C. Langreth, and
     *   B. I. Lundqvist, Phys. Rev. Lett. 92, 246401 (2004).
     *
     *   T. Thonhauser, V. R. Cooper, S. Li, A. Puzder, P. Hyldgaard, and
     *   D. C. Langreth, Phys. Rev. B 76, 125112 (2007).
     *
     *   G. Roman-Perez and J. M. Soler, Phys. Rev. Lett. 103, 096102 (2009).
     *
     *
     * If you are using vdW-DF2, please also cite:
     *
     *   K. Lee, E. D. Murray, L. Kong, B. I. Lundqvist, and
     *   D. C. Langreth, Phys. Rev. B 82, 081101(R) (2010).
     *
     *
     * If you are calculating the stress with vdW-DF, please also cite:
     *
     *   R. Sabatini, E. Kucukbenli, B. Kolb, T. Thonhauser, and
     *   S. de Gironcoli, J. Phys.: Condens. Matter 24, 424209 (2012).
     *

     Carrying out vdW-DF run using the following parameters:

     Nqs =      20    Nr_points =    1024   r_max =   100.000
     q_mesh =
               0.00001000     0.04494208     0.09755937     0.15916263
               0.23128650     0.31572767     0.41458969     0.53033537
               0.66584808     0.82450364     1.01025438     1.22772762
               1.48234092     1.78043706     2.12944203     2.53805004
               3.01644009     3.57652955     4.23227104     5.00000000

     Gradients computed in reciprocal space

     Starting wfc are   49 randomized atomic wfcs +    6 random wfc

     Self-consistent Calculation

     iteration #  1     ecut=    58.80 Ry     beta=0.10
     Davidson diagonalization with overlap
     ethr =  1.00E-02,  avg # of iterations =  4.4

     total energy              =   -1392.23860992 Ry
     Harris-Foulkes estimate   =   -1393.55181528 Ry
     estimated scf accuracy    <      18.56673826 Ry

[...]

     total energy              =   -1389.75372880 Ry
     Harris-Foulkes estimate   =   -1389.75372801 Ry
     estimated scf accuracy    <       0.00000026 Ry

     iteration # 16     ecut=    58.80 Ry     beta=0.10
     Davidson diagonalization with overlap
     ethr =  1.20E-10,  avg # of iterations =  2.0

     End of self-consistent calculation

          k = 0.0000 0.0000 0.0000 (  3239 PWs)   bands (ev):

   -79.3814 -79.3814 -79.3814 -79.3410 -79.3410 -79.3410 -79.3405 -79.3405
   -79.3405 -45.4735 -19.5522 -19.5522 -19.5522  -0.0339  -0.0026  -0.0026
    -0.0026   0.1468   0.1468   0.3252   0.3252   0.3252   0.4027   0.4027
     0.5337   0.5483   0.5483   0.5483   3.8848  11.5358  11.5358  13.4025
    13.4025  13.4025  15.2114  15.2114  15.2114  18.3400  18.3400  18.3702
    20.7129  20.7129  20.7129  24.3246  24.3246  24.3246  27.4827  27.4827
    27.4827  28.3063  28.3063  31.2180  31.3017  33.6717  33.6717

[...]

          k = 0.1046-0.1256-0.1256 (  3244 PWs)   bands (ev):

[...]

          k =-0.1256-0.1256-0.1256 (  3184 PWs)   bands (ev):

   -79.3859 -79.3787 -79.3787 -79.3432 -79.3432 -79.3432 -79.3384 -79.3384
   -79.3384 -45.4712 -19.5702 -19.5702 -19.5702   0.0851   0.0851   0.0851
     0.1003   0.1920   0.1920   0.1920   0.3271   0.3271   0.3271   0.3801
     0.3801   0.5245   0.5245   0.5245   9.3105   9.3105   9.3105  10.6281
    12.2461  12.2461  12.2461  15.9761  15.9761  17.3648  17.9031  17.9031
    17.9031  26.5785  26.5785  26.5785  27.0510  27.0510  30.0066  30.0066
    30.0066  30.4481  31.1056  31.1056  31.1056  31.9517  31.9517

     the Fermi energy is    15.7782 ev

!    total energy              =   -1389.75373233 Ry
     Harris-Foulkes estimate   =   -1389.75372883 Ry
     estimated scf accuracy    <          5.9E-09 Ry

     The total energy is the sum of the following terms:

     one-electron contribution =    -971.79712446 Ry
     hartree contribution      =     525.08347211 Ry
     xc contribution           =    -169.62823229 Ry
     ewald contribution        =    -773.40170528 Ry
     smearing contrib. (-TS)   =      -0.01014242 Ry

     convergence has been achieved in  16 iterations

     Forces acting on atoms (Ry/au):

     atom    1 type  1   force =     0.00000000    0.00000000    0.00000000
     atom    2 type  1   force =     0.00000000    0.00000000    0.00000000
     atom    3 type  1   force =     0.00000000    0.00000000   -0.00000000
     atom    4 type  2   force =     0.00000000    0.00000000    0.00000000

     Total force =     0.000000     Total SCF correction =     0.000000
 !ASE

     General routines

     Parallel routines

   This run was terminated on:   7:58: 4  25Oct2017

   JOB DONE.