     Program PWSCF v.5.1rc2 (svn rev. ) starts on 25Oct2017 at  4:29:41

     Current dimensions of program PWSCF are:
     Max number of different atomic species (ntypx) = 10
     Max number of k-points (npk) =  40000
     Max angular momentum in pseudopotentials (lmaxx) =  3

     IMPORTANT: XC functional enforced from input :
     Exchange-correlation      = BEEF-VDW ( 1  4 27 13 2)
     Any further DFT definition will be discarded
     Please, verify this is what you really want

     Subspace diagonalization in iterative solution of the eigenvalue problem:
     a serial algorithm will be used

     bravais-lattice index     =            0
     lattice parameter (alat)  =       1.8897  a.u.
     unit-cell volume          =     596.8965 (a.u.)^3
     number of atoms/cell      =            4
     number of atomic types    =            2
     number of electrons       =        49.00
     number of Kohn-Sham states=           44
     kinetic-energy cutoff     =      58.7989  Ry
     charge density cutoff     =     587.9892  Ry
     convergence threshold     =      7.3E-09
     mixing beta               =       0.1000
     number of iterations used =           10  local-TF  mixing
     Exchange-correlation      = BEEF-VDW ( 1  4 27 13 2)
     nstep                     =           50

     celldm(1)=   1.889726  celldm(2)=   0.000000  celldm(3)=   0.000000
     celldm(4)=   0.000000  celldm(5)=   0.000000  celldm(6)=   0.000000

     crystal axes: (cart. coord. in units of alat)
               a(1) = (   4.455545   0.000000   0.000000 )
               a(2) = (   0.000000   4.455545   0.000000 )
               a(3) = (   0.000000   0.000000   4.455545 )

     reciprocal axes: (cart. coord. in units 2 pi/alat)
               b(1) = (  0.224439  0.000000  0.000000 )
               b(2) = (  0.000000  0.224439  0.000000 )
               b(3) = (  0.000000  0.000000  0.224439 )

     PseudoPot. # 1 for Hf read from file:
     /home/vossj/suncat/psp/gbrv1.5pbe/Hf.UPF
     MD5 check sum: 8ee9378dfe14276e333edf04c5e4aa26
     Pseudo is Ultrasoft + core correction, Zval = 12.0
     Generated by new atomic code, or converted to UPF format
     Using radial grid of  921 points,  8 beta functions with:
                l(1) =   0
                l(2) =   0
                l(3) =   0
                l(4) =   1
                l(5) =   1
                l(6) =   2
                l(7) =   2
                l(8) =   3
     Q(r) pseudized with  6 coefficients,  rinner =    1.200   1.200   1.200
                                                       1.200   1.200   1.200
                                                       1.200

     PseudoPot. # 2 for Tl read from file:
     /home/vossj/suncat/psp/gbrv1.5pbe/Tl.UPF
     MD5 check sum: b76cf1f7e72655a2b2c53cf6385d7059
     Pseudo is Ultrasoft + core correction, Zval = 13.0
     Generated by new atomic code, or converted to UPF format
     Using radial grid of  899 points,  6 beta functions with:
                l(1) =   0
                l(2) =   0
                l(3) =   1
                l(4) =   1
                l(5) =   2
                l(6) =   2
     Q(r) pseudized with  6 coefficients,  rinner =    1.100   1.100   1.100
                                                       1.100   1.100

     vdW kernel table read from file vdW_kernel_table
     MD5 check sum: 095c7af220d748ca6e76c0b4c6cfb241

     atomic species   valence    mass     pseudopotential
        Hf1           12.00   178.49000     Hf( 1.00)
        Tl1           13.00   204.38000     Tl( 1.00)

     48 Sym. Ops., with inversion, found (32 have fractional translation)

   Cartesian axes

     site n.     atom                  positions (alat units)
         1           Hf1 tau(   1) = (   0.0000000   0.0000000   0.0000000  )
         2           Hf1 tau(   2) = (   0.0000000   2.2277724   2.2277724  )
         3           Hf1 tau(   3) = (   2.2277724   0.0000000   2.2277724  )
         4           Tl1 tau(   4) = (   2.2277724   2.2277724   0.0000000  )

     number of k points=    84  Fermi-Dirac smearing, width (Ry)=  0.0073
                       cart. coord. in units 2pi/alat
        k(    1) = (   0.0000000   0.0000000   0.0000000), wk =   0.0011574
        k(    2) = (   0.0000000   0.0000000   0.0187033), wk =   0.0069444
        k(    3) = (   0.0000000   0.0000000   0.0374066), wk =   0.0069444
        k(    4) = (   0.0000000   0.0000000   0.0561099), wk =   0.0069444
        k(    5) = (   0.0000000   0.0000000   0.0748131), wk =   0.0069444
        k(    6) = (   0.0000000   0.0000000   0.0935164), wk =   0.0069444
        k(    7) = (   0.0000000   0.0000000  -0.1122197), wk =   0.0034722
        k(    8) = (   0.0000000   0.0187033   0.0187033), wk =   0.0138889
        k(    9) = (   0.0000000   0.0187033   0.0374066), wk =   0.0277778
        k(   10) = (   0.0000000   0.0187033   0.0561099), wk =   0.0277778
        k(   11) = (   0.0000000   0.0187033   0.0748131), wk =   0.0277778
        k(   12) = (   0.0000000   0.0187033   0.0935164), wk =   0.0277778
        k(   13) = (   0.0000000   0.0187033  -0.1122197), wk =   0.0138889
        k(   14) = (   0.0000000   0.0374066   0.0374066), wk =   0.0138889
        k(   15) = (   0.0000000   0.0374066   0.0561099), wk =   0.0277778
        k(   16) = (   0.0000000   0.0374066   0.0748131), wk =   0.0277778
        k(   17) = (   0.0000000   0.0374066   0.0935164), wk =   0.0277778
        k(   18) = (   0.0000000   0.0374066  -0.1122197), wk =   0.0138889
        k(   19) = (   0.0000000   0.0561099   0.0561099), wk =   0.0138889
        k(   20) = (   0.0000000   0.0561099   0.0748131), wk =   0.0277778
        k(   21) = (   0.0000000   0.0561099   0.0935164), wk =   0.0277778
        k(   22) = (   0.0000000   0.0561099  -0.1122197), wk =   0.0138889
        k(   23) = (   0.0000000   0.0748131   0.0748131), wk =   0.0138889
        k(   24) = (   0.0000000   0.0748131   0.0935164), wk =   0.0277778
        k(   25) = (   0.0000000   0.0748131  -0.1122197), wk =   0.0138889
        k(   26) = (   0.0000000   0.0935164   0.0935164), wk =   0.0138889
        k(   27) = (   0.0000000   0.0935164  -0.1122197), wk =   0.0138889
        k(   28) = (   0.0000000  -0.1122197  -0.1122197), wk =   0.0034722
        k(   29) = (   0.0187033   0.0187033   0.0187033), wk =   0.0092593
        k(   30) = (   0.0187033   0.0187033   0.0374066), wk =   0.0277778
        k(   31) = (   0.0187033   0.0187033   0.0561099), wk =   0.0277778
        k(   32) = (   0.0187033   0.0187033   0.0748131), wk =   0.0277778
        k(   33) = (   0.0187033   0.0187033   0.0935164), wk =   0.0277778
        k(   34) = (   0.0187033   0.0187033  -0.1122197), wk =   0.0138889
        k(   35) = (   0.0187033   0.0374066   0.0374066), wk =   0.0277778
        k(   36) = (   0.0187033   0.0374066   0.0561099), wk =   0.0555556
        k(   37) = (   0.0187033   0.0374066   0.0748131), wk =   0.0555556
        k(   38) = (   0.0187033   0.0374066   0.0935164), wk =   0.0555556
        k(   39) = (   0.0187033   0.0374066  -0.1122197), wk =   0.0277778
        k(   40) = (   0.0187033   0.0561099   0.0561099), wk =   0.0277778
        k(   41) = (   0.0187033   0.0561099   0.0748131), wk =   0.0555556
        k(   42) = (   0.0187033   0.0561099   0.0935164), wk =   0.0555556
        k(   43) = (   0.0187033   0.0561099  -0.1122197), wk =   0.0277778
        k(   44) = (   0.0187033   0.0748131   0.0748131), wk =   0.0277778
        k(   45) = (   0.0187033   0.0748131   0.0935164), wk =   0.0555556
        k(   46) = (   0.0187033   0.0748131  -0.1122197), wk =   0.0277778
        k(   47) = (   0.0187033   0.0935164   0.0935164), wk =   0.0277778
        k(   48) = (   0.0187033   0.0935164  -0.1122197), wk =   0.0277778
        k(   49) = (   0.0187033  -0.1122197  -0.1122197), wk =   0.0069444
        k(   50) = (   0.0374066   0.0374066   0.0374066), wk =   0.0092593
        k(   51) = (   0.0374066   0.0374066   0.0561099), wk =   0.0277778
        k(   52) = (   0.0374066   0.0374066   0.0748131), wk =   0.0277778
        k(   53) = (   0.0374066   0.0374066   0.0935164), wk =   0.0277778
        k(   54) = (   0.0374066   0.0374066  -0.1122197), wk =   0.0138889
        k(   55) = (   0.0374066   0.0561099   0.0561099), wk =   0.0277778
        k(   56) = (   0.0374066   0.0561099   0.0748131), wk =   0.0555556
        k(   57) = (   0.0374066   0.0561099   0.0935164), wk =   0.0555556
        k(   58) = (   0.0374066   0.0561099  -0.1122197), wk =   0.0277778
        k(   59) = (   0.0374066   0.0748131   0.0748131), wk =   0.0277778
        k(   60) = (   0.0374066   0.0748131   0.0935164), wk =   0.0555556
[...]
        k(   70) = (   0.0561099   0.0748131   0.0935164), wk =   0.0555556
        k(   71) = (   0.0561099   0.0748131  -0.1122197), wk =   0.0277778
        k(   72) = (   0.0561099   0.0935164   0.0935164), wk =   0.0277778
        k(   73) = (   0.0561099   0.0935164  -0.1122197), wk =   0.0277778
        k(   74) = (   0.0561099  -0.1122197  -0.1122197), wk =   0.0069444
        k(   75) = (   0.0748131   0.0748131   0.0748131), wk =   0.0092593
        k(   76) = (   0.0748131   0.0748131   0.0935164), wk =   0.0277778
        k(   77) = (   0.0748131   0.0748131  -0.1122197), wk =   0.0138889
        k(   78) = (   0.0748131   0.0935164   0.0935164), wk =   0.0277778
        k(   79) = (   0.0748131   0.0935164  -0.1122197), wk =   0.0277778
        k(   80) = (   0.0748131  -0.1122197  -0.1122197), wk =   0.0069444
        k(   81) = (   0.0935164   0.0935164   0.0935164), wk =   0.0092593
        k(   82) = (   0.0935164   0.0935164  -0.1122197), wk =   0.0138889
        k(   83) = (   0.0935164  -0.1122197  -0.1122197), wk =   0.0069444
        k(   84) = (  -0.1122197  -0.1122197  -0.1122197), wk =   0.0011574

     Largest allocated arrays     est. size (Mb)     dimensions
     Largest temporary arrays     est. size (Mb)     dimensions

     Initial potential from superposition of free atoms
     Check: negative starting charge=   -0.372234

     starting charge   42.99513, renormalised to   49.00000

     negative rho (up, down):  4.242E-01 0.000E+00

     *
     * You are using vdW-DF for exchange-correlation in this calculation.
     * Please cite the following three references that made this development
     * possible:
     *
     *   M. Dion, H. Rydberg, E. Schroder, D. C. Langreth, and
     *   B. I. Lundqvist, Phys. Rev. Lett. 92, 246401 (2004).
     *
     *   T. Thonhauser, V. R. Cooper, S. Li, A. Puzder, P. Hyldgaard, and
     *   D. C. Langreth, Phys. Rev. B 76, 125112 (2007).
     *
     *   G. Roman-Perez and J. M. Soler, Phys. Rev. Lett. 103, 096102 (2009).
     *
     *
     * If you are using vdW-DF2, please also cite:
     *
     *   K. Lee, E. D. Murray, L. Kong, B. I. Lundqvist, and
     *   D. C. Langreth, Phys. Rev. B 82, 081101(R) (2010).
     *
     *
     * If you are calculating the stress with vdW-DF, please also cite:
     *
     *   R. Sabatini, E. Kucukbenli, B. Kolb, T. Thonhauser, and
     *   S. de Gironcoli, J. Phys.: Condens. Matter 24, 424209 (2012).
     *

     Carrying out vdW-DF run using the following parameters:

     Nqs =      20    Nr_points =    1024   r_max =   100.000
     q_mesh =
               0.00001000     0.04494208     0.09755937     0.15916263
               0.23128650     0.31572767     0.41458969     0.53033537
               0.66584808     0.82450364     1.01025438     1.22772762
               1.48234092     1.78043706     2.12944203     2.53805004
               3.01644009     3.57652955     4.23227104     5.00000000

     Gradients computed in reciprocal space

     Starting wfc are   48 randomized atomic wfcs

     Self-consistent Calculation

     iteration #  1     ecut=    58.80 Ry     beta=0.10
     Davidson diagonalization with overlap
     ethr =  1.00E-02,  avg # of iterations =  3.8

[...]

     total energy              =    -630.98322422 Ry
     Harris-Foulkes estimate   =    -631.43336547 Ry
     estimated scf accuracy    <       8.19276939 Ry

[...]

     total energy              =    -628.58826002 Ry
     Harris-Foulkes estimate   =    -628.58822287 Ry
     estimated scf accuracy    <       0.00000006 Ry

     iteration # 13     ecut=    58.80 Ry     beta=0.10
     Davidson diagonalization with overlap
     ethr =  1.16E-10,  avg # of iterations =  2.1

     negative rho (up, down):  4.062E-01 0.000E+00

     End of self-consistent calculation

          k = 0.0000 0.0000 0.0000 (  4553 PWs)   bands (ev):

   -47.7102 -47.6476 -47.6473 -16.5006 -16.5006 -16.5006 -16.2391 -16.2391
   -16.2389 -15.9048 -15.9046 -15.9046   2.8028   2.8028   2.8467   2.8467
     2.8467   5.4404  10.6906  12.9399  12.9400  13.4805  13.4805  13.4806
    15.1721  15.1721  15.1721  17.6075  17.6077  17.6077  18.4824  19.5377
    19.5379  20.6270  21.4113  21.4113  21.4115  22.3157  22.3157  22.3157
    24.4803  24.4803  24.4804  24.7046

[...]

          k = 0.0935-0.1122-0.1122 (  4584 PWs)   bands (ev):

[...]

          k =-0.1122-0.1122-0.1122 (  4632 PWs)   bands (ev):

   -47.6684 -47.6680 -47.6680 -16.5485 -16.5296 -16.5296 -16.5294 -16.0560
   -16.0560 -16.0558 -15.8469 -15.8467   2.7992   2.7992   2.7992   2.9718
     2.9718   7.3847  12.0118  12.0119  12.0119  13.2415  13.2415  13.2416
    15.3059  15.5921  15.5923  15.5923  17.3131  17.3133  17.3133  18.3536
    18.3537  18.8311  20.7264  20.7265  20.7265  23.1205  23.1205  23.1205
    25.2142  25.2142  25.2143  25.6223

     the Fermi energy is    14.6368 ev

!    total energy              =    -628.58842264 Ry
     Harris-Foulkes estimate   =    -628.58826056 Ry
     estimated scf accuracy    <          4.6E-09 Ry

     The total energy is the sum of the following terms:

     one-electron contribution =     -63.95396672 Ry
     hartree contribution      =      58.76628761 Ry
     xc contribution           =    -296.33430055 Ry
     ewald contribution        =    -327.05857692 Ry
     smearing contrib. (-TS)   =      -0.00786605 Ry

     convergence has been achieved in  13 iterations

     Forces acting on atoms (Ry/au):

     negative rho (up, down):  4.062E-01 0.000E+00
     atom    1 type  1   force =     0.00000000    0.00000000    0.00000000
     atom    2 type  1   force =     0.00000000    0.00000000    0.00000000
     atom    3 type  1   force =     0.00000000    0.00000000    0.00000000
     atom    4 type  2   force =     0.00000000    0.00000000    0.00000000

     Total force =     0.000000     Total SCF correction =     0.000000
 !ASE

     General routines

     Parallel routines

   This run was terminated on:   4:30:46  25Oct2017

   JOB DONE.