     Program PWSCF v.5.1rc2 (svn rev. ) starts on 25Oct2017 at  4:41:27

     Current dimensions of program PWSCF are:
     Max number of different atomic species (ntypx) = 10
     Max number of k-points (npk) =  40000
     Max angular momentum in pseudopotentials (lmaxx) =  3

     IMPORTANT: XC functional enforced from input :
     Exchange-correlation      = BEEF-VDW ( 1  4 27 13 2)
     Any further DFT definition will be discarded
     Please, verify this is what you really want

     Subspace diagonalization in iterative solution of the eigenvalue problem:
     a serial algorithm will be used

     bravais-lattice index     =            0
     lattice parameter (alat)  =       1.8897  a.u.
     unit-cell volume          =     585.7843 (a.u.)^3
     number of atoms/cell      =            4
     number of atomic types    =            2
     number of electrons       =        48.00
     number of Kohn-Sham states=           44
     kinetic-energy cutoff     =      58.7989  Ry
     charge density cutoff     =     587.9892  Ry
     convergence threshold     =      7.3E-09
     mixing beta               =       0.1000
     number of iterations used =           10  local-TF  mixing
     Exchange-correlation      = BEEF-VDW ( 1  4 27 13 2)
     nstep                     =           50

     celldm(1)=   1.889726  celldm(2)=   0.000000  celldm(3)=   0.000000
     celldm(4)=   0.000000  celldm(5)=   0.000000  celldm(6)=   0.000000

     crystal axes: (cart. coord. in units of alat)
               a(1) = (   4.427722   0.000000   0.000000 )
               a(2) = (   0.000000   4.427722   0.000000 )
               a(3) = (   0.000000   0.000000   4.427722 )

     reciprocal axes: (cart. coord. in units 2 pi/alat)
               b(1) = (  0.225850  0.000000  0.000000 )
               b(2) = (  0.000000  0.225850  0.000000 )
               b(3) = (  0.000000  0.000000  0.225850 )

     PseudoPot. # 1 for Hf read from file:
     /home/vossj/suncat/psp/gbrv1.5pbe/Hf.UPF
     MD5 check sum: 8ee9378dfe14276e333edf04c5e4aa26
     Pseudo is Ultrasoft + core correction, Zval = 12.0
     Generated by new atomic code, or converted to UPF format
     Using radial grid of  921 points,  8 beta functions with:
                l(1) =   0
                l(2) =   0
                l(3) =   0
                l(4) =   1
                l(5) =   1
                l(6) =   2
                l(7) =   2
                l(8) =   3
     Q(r) pseudized with  6 coefficients,  rinner =    1.200   1.200   1.200
                                                       1.200   1.200   1.200
                                                       1.200

     PseudoPot. # 2 for Cd read from file:
     /home/vossj/suncat/psp/gbrv1.5pbe/Cd.UPF
     MD5 check sum: 17164a7926edb8e0dc231208abae86a6
     Pseudo is Ultrasoft + core correction, Zval = 12.0
     Generated by new atomic code, or converted to UPF format
     Using radial grid of  889 points,  6 beta functions with:
                l(1) =   0
                l(2) =   0
                l(3) =   1
                l(4) =   1
                l(5) =   2
                l(6) =   2
     Q(r) pseudized with  6 coefficients,  rinner =    1.000   1.000   1.000
                                                       1.000   1.000

     vdW kernel table read from file vdW_kernel_table
     MD5 check sum: 095c7af220d748ca6e76c0b4c6cfb241

     atomic species   valence    mass     pseudopotential
        Hf1           12.00   178.49000     Hf( 1.00)
        Cd1           12.00   112.41400     Cd( 1.00)

     48 Sym. Ops., with inversion, found (32 have fractional translation)

   Cartesian axes

     site n.     atom                  positions (alat units)
         1           Hf1 tau(   1) = (   0.0000000   0.0000000   0.0000000  )
         2           Hf1 tau(   2) = (   0.0000000   2.2138612   2.2138612  )
         3           Hf1 tau(   3) = (   2.2138612   0.0000000   2.2138612  )
         4           Cd1 tau(   4) = (   2.2138612   2.2138612   0.0000000  )

     number of k points=    84  Fermi-Dirac smearing, width (Ry)=  0.0073
                       cart. coord. in units 2pi/alat
        k(    1) = (   0.0000000   0.0000000   0.0000000), wk =   0.0011574
        k(    2) = (   0.0000000   0.0000000   0.0188208), wk =   0.0069444
        k(    3) = (   0.0000000   0.0000000   0.0376416), wk =   0.0069444
        k(    4) = (   0.0000000   0.0000000   0.0564624), wk =   0.0069444
        k(    5) = (   0.0000000   0.0000000   0.0752833), wk =   0.0069444
        k(    6) = (   0.0000000   0.0000000   0.0941041), wk =   0.0069444
        k(    7) = (   0.0000000   0.0000000  -0.1129249), wk =   0.0034722
        k(    8) = (   0.0000000   0.0188208   0.0188208), wk =   0.0138889
        k(    9) = (   0.0000000   0.0188208   0.0376416), wk =   0.0277778
        k(   10) = (   0.0000000   0.0188208   0.0564624), wk =   0.0277778
        k(   11) = (   0.0000000   0.0188208   0.0752833), wk =   0.0277778
        k(   12) = (   0.0000000   0.0188208   0.0941041), wk =   0.0277778
        k(   13) = (   0.0000000   0.0188208  -0.1129249), wk =   0.0138889
        k(   14) = (   0.0000000   0.0376416   0.0376416), wk =   0.0138889
        k(   15) = (   0.0000000   0.0376416   0.0564624), wk =   0.0277778
        k(   16) = (   0.0000000   0.0376416   0.0752833), wk =   0.0277778
        k(   17) = (   0.0000000   0.0376416   0.0941041), wk =   0.0277778
        k(   18) = (   0.0000000   0.0376416  -0.1129249), wk =   0.0138889
        k(   19) = (   0.0000000   0.0564624   0.0564624), wk =   0.0138889
        k(   20) = (   0.0000000   0.0564624   0.0752833), wk =   0.0277778
        k(   21) = (   0.0000000   0.0564624   0.0941041), wk =   0.0277778
        k(   22) = (   0.0000000   0.0564624  -0.1129249), wk =   0.0138889
        k(   23) = (   0.0000000   0.0752833   0.0752833), wk =   0.0138889
        k(   24) = (   0.0000000   0.0752833   0.0941041), wk =   0.0277778
        k(   25) = (   0.0000000   0.0752833  -0.1129249), wk =   0.0138889
        k(   26) = (   0.0000000   0.0941041   0.0941041), wk =   0.0138889
        k(   27) = (   0.0000000   0.0941041  -0.1129249), wk =   0.0138889
        k(   28) = (   0.0000000  -0.1129249  -0.1129249), wk =   0.0034722
        k(   29) = (   0.0188208   0.0188208   0.0188208), wk =   0.0092593
        k(   30) = (   0.0188208   0.0188208   0.0376416), wk =   0.0277778
        k(   31) = (   0.0188208   0.0188208   0.0564624), wk =   0.0277778
        k(   32) = (   0.0188208   0.0188208   0.0752833), wk =   0.0277778
        k(   33) = (   0.0188208   0.0188208   0.0941041), wk =   0.0277778
        k(   34) = (   0.0188208   0.0188208  -0.1129249), wk =   0.0138889
        k(   35) = (   0.0188208   0.0376416   0.0376416), wk =   0.0277778
        k(   36) = (   0.0188208   0.0376416   0.0564624), wk =   0.0555556
        k(   37) = (   0.0188208   0.0376416   0.0752833), wk =   0.0555556
        k(   38) = (   0.0188208   0.0376416   0.0941041), wk =   0.0555556
        k(   39) = (   0.0188208   0.0376416  -0.1129249), wk =   0.0277778
        k(   40) = (   0.0188208   0.0564624   0.0564624), wk =   0.0277778
        k(   41) = (   0.0188208   0.0564624   0.0752833), wk =   0.0555556
        k(   42) = (   0.0188208   0.0564624   0.0941041), wk =   0.0555556
        k(   43) = (   0.0188208   0.0564624  -0.1129249), wk =   0.0277778
        k(   44) = (   0.0188208   0.0752833   0.0752833), wk =   0.0277778
        k(   45) = (   0.0188208   0.0752833   0.0941041), wk =   0.0555556
        k(   46) = (   0.0188208   0.0752833  -0.1129249), wk =   0.0277778
        k(   47) = (   0.0188208   0.0941041   0.0941041), wk =   0.0277778
        k(   48) = (   0.0188208   0.0941041  -0.1129249), wk =   0.0277778
        k(   49) = (   0.0188208  -0.1129249  -0.1129249), wk =   0.0069444
        k(   50) = (   0.0376416   0.0376416   0.0376416), wk =   0.0092593
        k(   51) = (   0.0376416   0.0376416   0.0564624), wk =   0.0277778
        k(   52) = (   0.0376416   0.0376416   0.0752833), wk =   0.0277778
        k(   53) = (   0.0376416   0.0376416   0.0941041), wk =   0.0277778
        k(   54) = (   0.0376416   0.0376416  -0.1129249), wk =   0.0138889
        k(   55) = (   0.0376416   0.0564624   0.0564624), wk =   0.0277778
        k(   56) = (   0.0376416   0.0564624   0.0752833), wk =   0.0555556
        k(   57) = (   0.0376416   0.0564624   0.0941041), wk =   0.0555556
        k(   58) = (   0.0376416   0.0564624  -0.1129249), wk =   0.0277778
        k(   59) = (   0.0376416   0.0752833   0.0752833), wk =   0.0277778
        k(   60) = (   0.0376416   0.0752833   0.0941041), wk =   0.0555556
[...]
        k(   70) = (   0.0564624   0.0752833   0.0941041), wk =   0.0555556
        k(   71) = (   0.0564624   0.0752833  -0.1129249), wk =   0.0277778
        k(   72) = (   0.0564624   0.0941041   0.0941041), wk =   0.0277778
        k(   73) = (   0.0564624   0.0941041  -0.1129249), wk =   0.0277778
        k(   74) = (   0.0564624  -0.1129249  -0.1129249), wk =   0.0069444
        k(   75) = (   0.0752833   0.0752833   0.0752833), wk =   0.0092593
        k(   76) = (   0.0752833   0.0752833   0.0941041), wk =   0.0277778
        k(   77) = (   0.0752833   0.0752833  -0.1129249), wk =   0.0138889
        k(   78) = (   0.0752833   0.0941041   0.0941041), wk =   0.0277778
        k(   79) = (   0.0752833   0.0941041  -0.1129249), wk =   0.0277778
        k(   80) = (   0.0752833  -0.1129249  -0.1129249), wk =   0.0069444
        k(   81) = (   0.0941041   0.0941041   0.0941041), wk =   0.0092593
        k(   82) = (   0.0941041   0.0941041  -0.1129249), wk =   0.0138889
        k(   83) = (   0.0941041  -0.1129249  -0.1129249), wk =   0.0069444
        k(   84) = (  -0.1129249  -0.1129249  -0.1129249), wk =   0.0011574

     Largest allocated arrays     est. size (Mb)     dimensions
     Largest temporary arrays     est. size (Mb)     dimensions

     Initial potential from superposition of free atoms
     Check: negative starting charge=   -0.345328

     starting charge   41.49995, renormalised to   48.00000

     negative rho (up, down):  3.994E-01 0.000E+00

     *
     * You are using vdW-DF for exchange-correlation in this calculation.
     * Please cite the following three references that made this development
     * possible:
     *
     *   M. Dion, H. Rydberg, E. Schroder, D. C. Langreth, and
     *   B. I. Lundqvist, Phys. Rev. Lett. 92, 246401 (2004).
     *
     *   T. Thonhauser, V. R. Cooper, S. Li, A. Puzder, P. Hyldgaard, and
     *   D. C. Langreth, Phys. Rev. B 76, 125112 (2007).
     *
     *   G. Roman-Perez and J. M. Soler, Phys. Rev. Lett. 103, 096102 (2009).
     *
     *
     * If you are using vdW-DF2, please also cite:
     *
     *   K. Lee, E. D. Murray, L. Kong, B. I. Lundqvist, and
     *   D. C. Langreth, Phys. Rev. B 82, 081101(R) (2010).
     *
     *
     * If you are calculating the stress with vdW-DF, please also cite:
     *
     *   R. Sabatini, E. Kucukbenli, B. Kolb, T. Thonhauser, and
     *   S. de Gironcoli, J. Phys.: Condens. Matter 24, 424209 (2012).
     *

     Carrying out vdW-DF run using the following parameters:

     Nqs =      20    Nr_points =    1024   r_max =   100.000
     q_mesh =
               0.00001000     0.04494208     0.09755937     0.15916263
               0.23128650     0.31572767     0.41458969     0.53033537
               0.66584808     0.82450364     1.01025438     1.22772762
               1.48234092     1.78043706     2.12944203     2.53805004
               3.01644009     3.57652955     4.23227104     5.00000000

     Gradients computed in reciprocal space

     Starting wfc are   48 randomized atomic wfcs

     Self-consistent Calculation

     iteration #  1     ecut=    58.80 Ry     beta=0.10
     Davidson diagonalization with overlap
     ethr =  1.00E-02,  avg # of iterations =  3.8

[...]

     total energy              =    -600.62459161 Ry
     Harris-Foulkes estimate   =    -601.45356591 Ry
     estimated scf accuracy    <      14.35799085 Ry

[...]

     total energy              =    -597.88772027 Ry
     Harris-Foulkes estimate   =    -597.88771319 Ry
     estimated scf accuracy    <          9.4E-09 Ry

     iteration # 15     ecut=    58.80 Ry     beta=0.10
     Davidson diagonalization with overlap
     ethr =  1.97E-11,  avg # of iterations =  2.5

     negative rho (up, down):  3.745E-01 0.000E+00

     End of self-consistent calculation

          k = 0.0000 0.0000 0.0000 (  4457 PWs)   bands (ev):

   -48.3880 -48.3201 -48.3198 -17.1847 -17.1847 -17.1847 -16.8758 -16.8758
   -16.8756 -16.5917 -16.5915 -16.5915   5.2145   5.2146   5.2972   5.2972
     5.2972   6.2337  10.2874  12.4986  12.4987  12.8288  12.8288  12.8289
    15.4082  15.4082  15.4082  17.1051  17.1053  17.1053  18.9524  18.9525
    20.1464  20.8518  20.8518  20.8520  21.0736  22.3417  22.3418  22.3418
    24.3351  24.4247  24.4248  24.4248

[...]

          k = 0.0941-0.1129-0.1129 (  4488 PWs)   bands (ev):

[...]

          k =-0.1129-0.1129-0.1129 (  4416 PWs)   bands (ev):

   -48.3427 -48.3422 -48.3422 -17.3080 -17.1813 -17.1813 -17.1811 -16.6829
   -16.6829 -16.6827 -16.5625 -16.5622   5.2175   5.2176   5.2176   5.4610
     5.4610   9.1265  11.4017  11.4017  11.4017  13.4207  13.4207  13.4208
    14.6204  15.0048  15.0049  15.0049  16.7281  16.7284  16.7284  17.8846
    17.8848  20.1879  20.1880  20.1880  20.4857  22.6524  22.6525  22.6525
    25.2746  25.2746  25.2746  25.3136

     the Fermi energy is    13.7980 ev

!    total energy              =    -597.88773260 Ry
     Harris-Foulkes estimate   =    -597.88772130 Ry
     estimated scf accuracy    <          2.0E-09 Ry

     The total energy is the sum of the following terms:

     one-electron contribution =     -71.09539236 Ry
     hartree contribution      =      61.86884672 Ry
     xc contribution           =    -273.02867218 Ry
     ewald contribution        =    -315.62362832 Ry
     smearing contrib. (-TS)   =      -0.00888646 Ry

     convergence has been achieved in  15 iterations

     Forces acting on atoms (Ry/au):

     negative rho (up, down):  3.745E-01 0.000E+00
     atom    1 type  1   force =     0.00000000    0.00000000    0.00000000
     atom    2 type  1   force =     0.00000000    0.00000000    0.00000000
     atom    3 type  1   force =     0.00000000    0.00000000    0.00000000
     atom    4 type  2   force =     0.00000000    0.00000000    0.00000000

     Total force =     0.000000     Total SCF correction =     0.000000
 !ASE

     General routines

     Parallel routines

   This run was terminated on:   4:42:41  25Oct2017

   JOB DONE.