     Program PWSCF v.5.1rc2 (svn rev. ) starts on 26Oct2017 at 15:28:52

     Current dimensions of program PWSCF are:
     Max number of different atomic species (ntypx) = 10
     Max number of k-points (npk) =  40000
     Max angular momentum in pseudopotentials (lmaxx) =  3

     IMPORTANT: XC functional enforced from input :
     Exchange-correlation      = BEEF-VDW ( 1  4 27 13 2)
     Any further DFT definition will be discarded
     Please, verify this is what you really want

     Subspace diagonalization in iterative solution of the eigenvalue problem:
     a serial algorithm will be used

     Generating pointlists ...
     new r_m :   0.4125 (alat units)  0.7795 (a.u.) for type    1
     new r_m :   0.4125 (alat units)  0.7795 (a.u.) for type    2

     bravais-lattice index     =            0
     lattice parameter (alat)  =       1.8897  a.u.
     unit-cell volume          =     334.4840 (a.u.)^3
     number of atoms/cell      =            4
     number of atomic types    =            2
     number of electrons       =        63.00
     number of Kohn-Sham states=           51
     kinetic-energy cutoff     =      58.7989  Ry
     charge density cutoff     =     587.9892  Ry
     convergence threshold     =      7.3E-09
     mixing beta               =       0.1000
     number of iterations used =           10  local-TF  mixing
     Exchange-correlation      = BEEF-VDW ( 1  4 27 13 2)
     nstep                     =           50

     celldm(1)=   1.889726  celldm(2)=   0.000000  celldm(3)=   0.000000
     celldm(4)=   0.000000  celldm(5)=   0.000000  celldm(6)=   0.000000

     crystal axes: (cart. coord. in units of alat)
               a(1) = (   3.673327   0.000000   0.000000 )
               a(2) = (   0.000000   3.673327   0.000000 )
               a(3) = (   0.000000   0.000000   3.673327 )

     reciprocal axes: (cart. coord. in units 2 pi/alat)
               b(1) = (  0.272233  0.000000  0.000000 )
               b(2) = (  0.000000  0.272233  0.000000 )
               b(3) = (  0.000000  0.000000  0.272233 )

     PseudoPot. # 1 for Fe read from file:
     /home/vossj/suncat/psp/gbrv1.5pbe/Fe.UPF
     MD5 check sum: a130daea23fe5165f5d574ae7f82ed95
     Pseudo is Ultrasoft + core correction, Zval = 16.0
     Generated by new atomic code, or converted to UPF format
     Using radial grid of  861 points,  6 beta functions with:
                l(1) =   0
                l(2) =   0
                l(3) =   1
                l(4) =   1
                l(5) =   2
                l(6) =   2
     Q(r) pseudized with  8 coefficients,  rinner =    1.000   1.000   1.000
                                                       1.000   1.000

     PseudoPot. # 2 for Rh read from file:
     /home/vossj/suncat/psp/gbrv1.5pbe/Rh.UPF
     MD5 check sum: 761627e959a2e3a1f56b0b5fe687810e
     Pseudo is Ultrasoft + core correction, Zval = 15.0
     Generated by new atomic code, or converted to UPF format
     Using radial grid of  969 points,  7 beta functions with:
                l(1) =   0
                l(2) =   0
                l(3) =   1
                l(4) =   1
                l(5) =   2
                l(6) =   2
                l(7) =   2
     Q(r) pseudized with  8 coefficients,  rinner =    1.200   1.200   1.200
                                                       1.200   1.200

     vdW kernel table read from file vdW_kernel_table
     MD5 check sum: 095c7af220d748ca6e76c0b4c6cfb241

     atomic species   valence    mass     pseudopotential
        Fe1           16.00    55.84500     Fe( 1.00)
        Rh1           15.00   102.90550     Rh( 1.00)

     Starting magnetic structure
     atomic species   magnetization
        Fe1          0.125
        Rh1          0.133

     48 Sym. Ops., with inversion, found (32 have fractional translation)

   Cartesian axes

     site n.     atom                  positions (alat units)
         1           Fe1 tau(   1) = (   0.0000000   0.0000000   0.0000000  )
         2           Fe1 tau(   2) = (   0.0000000   1.8366635   1.8366635  )
         3           Fe1 tau(   3) = (   1.8366635   0.0000000   1.8366635  )
         4           Rh1 tau(   4) = (   1.8366635   1.8366635   0.0000000  )

     number of k points=   168  Fermi-Dirac smearing, width (Ry)=  0.0073

     Number of k-points >= 100: set verbosity='high' to print them.

     Largest allocated arrays     est. size (Mb)     dimensions
     Largest temporary arrays     est. size (Mb)     dimensions

     Check: negative/imaginary core charge=   -0.000036    0.000000

     Initial potential from superposition of free atoms
     Check: negative starting charge=(component1):   -0.031588
     Check: negative starting charge=(component2):   -0.024152

     starting charge   59.49988, renormalised to   63.00000

     negative rho (up, down):  3.345E-02 2.557E-02

     *
     * You are using vdW-DF for exchange-correlation in this calculation.
     * Please cite the following three references that made this development
     * possible:
     *
     *   M. Dion, H. Rydberg, E. Schroder, D. C. Langreth, and
     *   B. I. Lundqvist, Phys. Rev. Lett. 92, 246401 (2004).
     *
     *   T. Thonhauser, V. R. Cooper, S. Li, A. Puzder, P. Hyldgaard, and
     *   D. C. Langreth, Phys. Rev. B 76, 125112 (2007).
     *
     *   G. Roman-Perez and J. M. Soler, Phys. Rev. Lett. 103, 096102 (2009).
     *
     *
     * If you are using vdW-DF2, please also cite:
     *
     *   K. Lee, E. D. Murray, L. Kong, B. I. Lundqvist, and
     *   D. C. Langreth, Phys. Rev. B 82, 081101(R) (2010).
     *
     *
     * If you are calculating the stress with vdW-DF, please also cite:
     *
     *   R. Sabatini, E. Kucukbenli, B. Kolb, T. Thonhauser, and
     *   S. de Gironcoli, J. Phys.: Condens. Matter 24, 424209 (2012).
     *

     Carrying out vdW-DF run using the following parameters:

     Nqs =      20    Nr_points =    1024   r_max =   100.000
     q_mesh =
               0.00001000     0.04494208     0.09755937     0.15916263
               0.23128650     0.31572767     0.41458969     0.53033537
               0.66584808     0.82450364     1.01025438     1.22772762
               1.48234092     1.78043706     2.12944203     2.53805004
               3.01644009     3.57652955     4.23227104     5.00000000

     Gradients computed in reciprocal space

     Starting wfc are   51 randomized atomic wfcs

     Self-consistent Calculation

     iteration #  1     ecut=    58.80 Ry     beta=0.10
     Davidson diagonalization with overlap
     ethr =  1.00E-02,  avg # of iterations =  4.3

[...]

     Magnetic moment per site:
     atom:    1    charge:    7.3230    magn:    0.8863    constr:    0.0000
     atom:    2    charge:    7.3230    magn:    0.8863    constr:    0.0000
     atom:    3    charge:    7.3230    magn:    0.8863    constr:    0.0000
     atom:    4    charge:    2.8270    magn:    0.3518    constr:    0.0000

     total energy              =    -927.32338280 Ry
     Harris-Foulkes estimate   =    -927.77353621 Ry
     estimated scf accuracy    <       6.45327826 Ry

     total magnetization       =     4.40 Bohr mag/cell
     absolute magnetization    =     4.49 Bohr mag/cell

[...]

     total energy              =    -926.33588043 Ry
     Harris-Foulkes estimate   =    -926.33588024 Ry
     estimated scf accuracy    <          8.7E-09 Ry

[...]

     iteration # 20     ecut=    58.80 Ry     beta=0.10
     Davidson diagonalization with overlap
     ethr =  1.39E-11,  avg # of iterations =  2.1

     negative rho (up, down):  2.770E-02 3.170E-02

     Magnetic moment per site:
     atom:    1    charge:    7.0760    magn:    1.3031    constr:    0.0000
     atom:    2    charge:    7.0760    magn:    1.3031    constr:    0.0000
     atom:    3    charge:    7.0760    magn:    1.3031    constr:    0.0000
     atom:    4    charge:    2.7019    magn:    0.1047    constr:    0.0000

     End of self-consistent calculation

     Number of k-points >= 100: set verbosity='high' to print the bands.

     the Fermi energy is    18.1534 ev

!    total energy              =    -926.33588131 Ry
     Harris-Foulkes estimate   =    -926.33588045 Ry
     estimated scf accuracy    <          3.5E-09 Ry

     The total energy is the sum of the following terms:

     one-electron contribution =    -382.31841553 Ry
     hartree contribution      =     233.81264182 Ry
     xc contribution           =    -122.20003270 Ry
     ewald contribution        =    -655.61718981 Ry
     smearing contrib. (-TS)   =      -0.01288508 Ry

     total magnetization       =     8.48 Bohr mag/cell
     absolute magnetization    =     8.92 Bohr mag/cell

     convergence has been achieved in  20 iterations

     Forces acting on atoms (Ry/au):

     negative rho (up, down):  2.770E-02 3.170E-02
     atom    1 type  1   force =     0.00000000   -0.00000000    0.00000000
     atom    2 type  1   force =     0.00000000    0.00000000    0.00000000
     atom    3 type  1   force =     0.00000000    0.00000000    0.00000000
     atom    4 type  2   force =     0.00000000    0.00000000    0.00000000

     Total force =     0.000000     Total SCF correction =     0.000000
 !ASE

     General routines

     Parallel routines

   This run was terminated on:  15:31:16  26Oct2017

   JOB DONE.