     Program PWSCF v.5.1rc2 (svn rev. ) starts on 31Oct2017 at 15:10:23

     Current dimensions of program PWSCF are:
     Max number of different atomic species (ntypx) = 10
     Max number of k-points (npk) =  40000
     Max angular momentum in pseudopotentials (lmaxx) =  3

     IMPORTANT: XC functional enforced from input :
     Exchange-correlation      = BEEF-VDW ( 1  4 27 13 2)
     Any further DFT definition will be discarded
     Please, verify this is what you really want

     Subspace diagonalization in iterative solution of the eigenvalue problem:
     a serial algorithm will be used

     bravais-lattice index     =            0
     lattice parameter (alat)  =       1.8897  a.u.
     unit-cell volume          =     338.4169 (a.u.)^3
     number of atoms/cell      =            4
     number of atomic types    =            2
     number of electrons       =        62.00
     number of Kohn-Sham states=           51
     kinetic-energy cutoff     =      58.7989  Ry
     charge density cutoff     =     587.9892  Ry
     convergence threshold     =      7.3E-09
     mixing beta               =       0.1000
     number of iterations used =           10  local-TF  mixing
     Exchange-correlation      = BEEF-VDW ( 1  4 27 13 2)
     nstep                     =           50

     celldm(1)=   1.889726  celldm(2)=   0.000000  celldm(3)=   0.000000
     celldm(4)=   0.000000  celldm(5)=   0.000000  celldm(6)=   0.000000

     crystal axes: (cart. coord. in units of alat)
               a(1) = (   3.687668   0.000000   0.000000 )
               a(2) = (   0.000000   3.687668   0.000000 )
               a(3) = (   0.000000   0.000000   3.687668 )

     reciprocal axes: (cart. coord. in units 2 pi/alat)
               b(1) = (  0.271174  0.000000  0.000000 )
               b(2) = (  0.000000  0.271174  0.000000 )
               b(3) = (  0.000000  0.000000  0.271174 )

     PseudoPot. # 1 for Co read from file:
     /home/vossj/suncat/psp/gbrv1.5pbe/Co.UPF
     MD5 check sum: 5f91765df6ddd3222702df6e7b74a16d
     Pseudo is Ultrasoft + core correction, Zval = 17.0
     Generated by new atomic code, or converted to UPF format
     Using radial grid of  863 points,  6 beta functions with:
                l(1) =   0
                l(2) =   0
                l(3) =   1
                l(4) =   1
                l(5) =   2
                l(6) =   2
     Q(r) pseudized with  8 coefficients,  rinner =    1.200   1.200   1.200
                                                       1.200   1.200

     PseudoPot. # 2 for Sc read from file:
     /home/vossj/suncat/psp/gbrv1.5pbe/Sc.UPF
     MD5 check sum: db30a2753ba66ef00f23801d899b7e7f
     Pseudo is Ultrasoft + core correction, Zval = 11.0
     Generated by new atomic code, or converted to UPF format
     Using radial grid of  849 points,  6 beta functions with:
                l(1) =   0
                l(2) =   0
                l(3) =   1
                l(4) =   1
                l(5) =   2
                l(6) =   2
     Q(r) pseudized with  6 coefficients,  rinner =    1.200   1.200   1.200
                                                       1.200   1.200

     vdW kernel table read from file vdW_kernel_table
     MD5 check sum: 095c7af220d748ca6e76c0b4c6cfb241

     atomic species   valence    mass     pseudopotential
        Co1           17.00    58.93319     Co( 1.00)
        Sc1           11.00    44.95591     Sc( 1.00)

     48 Sym. Ops., with inversion, found (32 have fractional translation)

   Cartesian axes

     site n.     atom                  positions (alat units)
         1           Co1 tau(   1) = (   0.0000000   0.0000000   0.0000000  )
         2           Co1 tau(   2) = (   0.0000000   1.8438339   1.8438339  )
         3           Co1 tau(   3) = (   1.8438339   0.0000000   1.8438339  )
         4           Sc1 tau(   4) = (   1.8438339   1.8438339   0.0000000  )

     number of k points=    84  Fermi-Dirac smearing, width (Ry)=  0.0073
                       cart. coord. in units 2pi/alat
        k(    1) = (   0.0000000   0.0000000   0.0000000), wk =   0.0011574
        k(    2) = (   0.0000000   0.0000000   0.0225978), wk =   0.0069444
        k(    3) = (   0.0000000   0.0000000   0.0451957), wk =   0.0069444
        k(    4) = (   0.0000000   0.0000000   0.0677935), wk =   0.0069444
        k(    5) = (   0.0000000   0.0000000   0.0903914), wk =   0.0069444
        k(    6) = (   0.0000000   0.0000000   0.1129892), wk =   0.0069444
        k(    7) = (   0.0000000   0.0000000  -0.1355870), wk =   0.0034722
        k(    8) = (   0.0000000   0.0225978   0.0225978), wk =   0.0138889
        k(    9) = (   0.0000000   0.0225978   0.0451957), wk =   0.0277778
        k(   10) = (   0.0000000   0.0225978   0.0677935), wk =   0.0277778
        k(   11) = (   0.0000000   0.0225978   0.0903914), wk =   0.0277778
        k(   12) = (   0.0000000   0.0225978   0.1129892), wk =   0.0277778
        k(   13) = (   0.0000000   0.0225978  -0.1355870), wk =   0.0138889
        k(   14) = (   0.0000000   0.0451957   0.0451957), wk =   0.0138889
        k(   15) = (   0.0000000   0.0451957   0.0677935), wk =   0.0277778
        k(   16) = (   0.0000000   0.0451957   0.0903914), wk =   0.0277778
        k(   17) = (   0.0000000   0.0451957   0.1129892), wk =   0.0277778
        k(   18) = (   0.0000000   0.0451957  -0.1355870), wk =   0.0138889
        k(   19) = (   0.0000000   0.0677935   0.0677935), wk =   0.0138889
        k(   20) = (   0.0000000   0.0677935   0.0903914), wk =   0.0277778
        k(   21) = (   0.0000000   0.0677935   0.1129892), wk =   0.0277778
        k(   22) = (   0.0000000   0.0677935  -0.1355870), wk =   0.0138889
        k(   23) = (   0.0000000   0.0903914   0.0903914), wk =   0.0138889
        k(   24) = (   0.0000000   0.0903914   0.1129892), wk =   0.0277778
        k(   25) = (   0.0000000   0.0903914  -0.1355870), wk =   0.0138889
        k(   26) = (   0.0000000   0.1129892   0.1129892), wk =   0.0138889
        k(   27) = (   0.0000000   0.1129892  -0.1355870), wk =   0.0138889
        k(   28) = (   0.0000000  -0.1355870  -0.1355870), wk =   0.0034722
        k(   29) = (   0.0225978   0.0225978   0.0225978), wk =   0.0092593
        k(   30) = (   0.0225978   0.0225978   0.0451957), wk =   0.0277778
        k(   31) = (   0.0225978   0.0225978   0.0677935), wk =   0.0277778
        k(   32) = (   0.0225978   0.0225978   0.0903914), wk =   0.0277778
        k(   33) = (   0.0225978   0.0225978   0.1129892), wk =   0.0277778
        k(   34) = (   0.0225978   0.0225978  -0.1355870), wk =   0.0138889
        k(   35) = (   0.0225978   0.0451957   0.0451957), wk =   0.0277778
        k(   36) = (   0.0225978   0.0451957   0.0677935), wk =   0.0555556
        k(   37) = (   0.0225978   0.0451957   0.0903914), wk =   0.0555556
        k(   38) = (   0.0225978   0.0451957   0.1129892), wk =   0.0555556
        k(   39) = (   0.0225978   0.0451957  -0.1355870), wk =   0.0277778
        k(   40) = (   0.0225978   0.0677935   0.0677935), wk =   0.0277778
        k(   41) = (   0.0225978   0.0677935   0.0903914), wk =   0.0555556
        k(   42) = (   0.0225978   0.0677935   0.1129892), wk =   0.0555556
        k(   43) = (   0.0225978   0.0677935  -0.1355870), wk =   0.0277778
        k(   44) = (   0.0225978   0.0903914   0.0903914), wk =   0.0277778
        k(   45) = (   0.0225978   0.0903914   0.1129892), wk =   0.0555556
        k(   46) = (   0.0225978   0.0903914  -0.1355870), wk =   0.0277778
        k(   47) = (   0.0225978   0.1129892   0.1129892), wk =   0.0277778
        k(   48) = (   0.0225978   0.1129892  -0.1355870), wk =   0.0277778
        k(   49) = (   0.0225978  -0.1355870  -0.1355870), wk =   0.0069444
        k(   50) = (   0.0451957   0.0451957   0.0451957), wk =   0.0092593
        k(   51) = (   0.0451957   0.0451957   0.0677935), wk =   0.0277778
        k(   52) = (   0.0451957   0.0451957   0.0903914), wk =   0.0277778
        k(   53) = (   0.0451957   0.0451957   0.1129892), wk =   0.0277778
        k(   54) = (   0.0451957   0.0451957  -0.1355870), wk =   0.0138889
        k(   55) = (   0.0451957   0.0677935   0.0677935), wk =   0.0277778
        k(   56) = (   0.0451957   0.0677935   0.0903914), wk =   0.0555556
        k(   57) = (   0.0451957   0.0677935   0.1129892), wk =   0.0555556
        k(   58) = (   0.0451957   0.0677935  -0.1355870), wk =   0.0277778
        k(   59) = (   0.0451957   0.0903914   0.0903914), wk =   0.0277778
        k(   60) = (   0.0451957   0.0903914   0.1129892), wk =   0.0555556
[...]
        k(   70) = (   0.0677935   0.0903914   0.1129892), wk =   0.0555556
        k(   71) = (   0.0677935   0.0903914  -0.1355870), wk =   0.0277778
        k(   72) = (   0.0677935   0.1129892   0.1129892), wk =   0.0277778
        k(   73) = (   0.0677935   0.1129892  -0.1355870), wk =   0.0277778
        k(   74) = (   0.0677935  -0.1355870  -0.1355870), wk =   0.0069444
        k(   75) = (   0.0903914   0.0903914   0.0903914), wk =   0.0092593
        k(   76) = (   0.0903914   0.0903914   0.1129892), wk =   0.0277778
        k(   77) = (   0.0903914   0.0903914  -0.1355870), wk =   0.0138889
        k(   78) = (   0.0903914   0.1129892   0.1129892), wk =   0.0277778
        k(   79) = (   0.0903914   0.1129892  -0.1355870), wk =   0.0277778
        k(   80) = (   0.0903914  -0.1355870  -0.1355870), wk =   0.0069444
        k(   81) = (   0.1129892   0.1129892   0.1129892), wk =   0.0092593
        k(   82) = (   0.1129892   0.1129892  -0.1355870), wk =   0.0138889
        k(   83) = (   0.1129892  -0.1355870  -0.1355870), wk =   0.0069444
        k(   84) = (  -0.1355870  -0.1355870  -0.1355870), wk =   0.0011574

     Largest allocated arrays     est. size (Mb)     dimensions
     Largest temporary arrays     est. size (Mb)     dimensions

     Check: negative/imaginary core charge=   -0.000034    0.000000

     Initial potential from superposition of free atoms

     starting charge   58.99758, renormalised to   62.00000

     *
     * You are using vdW-DF for exchange-correlation in this calculation.
     * Please cite the following three references that made this development
     * possible:
     *
     *   M. Dion, H. Rydberg, E. Schroder, D. C. Langreth, and
     *   B. I. Lundqvist, Phys. Rev. Lett. 92, 246401 (2004).
     *
     *   T. Thonhauser, V. R. Cooper, S. Li, A. Puzder, P. Hyldgaard, and
     *   D. C. Langreth, Phys. Rev. B 76, 125112 (2007).
     *
     *   G. Roman-Perez and J. M. Soler, Phys. Rev. Lett. 103, 096102 (2009).
     *
     *
     * If you are using vdW-DF2, please also cite:
     *
     *   K. Lee, E. D. Murray, L. Kong, B. I. Lundqvist, and
     *   D. C. Langreth, Phys. Rev. B 82, 081101(R) (2010).
     *
     *
     * If you are calculating the stress with vdW-DF, please also cite:
     *
     *   R. Sabatini, E. Kucukbenli, B. Kolb, T. Thonhauser, and
     *   S. de Gironcoli, J. Phys.: Condens. Matter 24, 424209 (2012).
     *

     Carrying out vdW-DF run using the following parameters:

     Nqs =      20    Nr_points =    1024   r_max =   100.000
     q_mesh =
               0.00001000     0.04494208     0.09755937     0.15916263
               0.23128650     0.31572767     0.41458969     0.53033537
               0.66584808     0.82450364     1.01025438     1.22772762
               1.48234092     1.78043706     2.12944203     2.53805004
               3.01644009     3.57652955     4.23227104     5.00000000

     Gradients computed in reciprocal space

     Starting wfc are   52 randomized atomic wfcs

     Self-consistent Calculation

     iteration #  1     ecut=    58.80 Ry     beta=0.10
     Davidson diagonalization with overlap
     ethr =  1.00E-02,  avg # of iterations =  4.1

     total energy              =    -995.69600985 Ry
     Harris-Foulkes estimate   =    -998.32824752 Ry
     estimated scf accuracy    <      39.31646017 Ry

[...]

     total energy              =    -993.50946593 Ry
     Harris-Foulkes estimate   =    -993.50946557 Ry
     estimated scf accuracy    <       0.00000001 Ry

     iteration # 22     ecut=    58.80 Ry     beta=0.10
     Davidson diagonalization with overlap
     ethr =  2.13E-11,  avg # of iterations =  1.0

     End of self-consistent calculation

          k = 0.0000 0.0000 0.0000 (  2553 PWs)   bands (ev):

   -78.6009 -78.5713 -78.5713 -41.9731 -41.9731 -41.9731 -41.8557 -41.8557
   -41.8557 -41.8300 -41.8300 -41.8300 -32.4255 -11.0700 -11.0700 -11.0700
     8.6750  12.3153  12.3153  12.6617  13.0873  13.0873  13.0873  15.0128
    15.0128  15.0128  15.9207  15.9207  16.4364  16.6371  16.6371  16.6371
    19.2481  19.2481  19.3636  19.3636  19.3636  20.7002  20.7002  20.7002
    27.1457  27.5810  27.5810  28.9074  28.9074  28.9074  32.4221  32.4221
    32.4221  36.0392  36.0392

[...]

          k = 0.1130-0.1356-0.1356 (  2544 PWs)   bands (ev):

[...]

          k =-0.1356-0.1356-0.1356 (  2512 PWs)   bands (ev):

   -78.5811 -78.5811 -78.5811 -42.0406 -41.9254 -41.9254 -41.9254 -41.8715
   -41.8715 -41.8091 -41.8091 -41.8091 -32.4118 -11.1304 -11.1304 -11.1304
    12.2190  12.2190  12.2190  13.0408  14.6135  14.6135  14.6135  14.9663
    14.9663  14.9663  15.2888  15.2888  16.0142  16.4564  16.4564  16.4564
    17.1690  17.1690  17.1690  18.5820  18.5820  18.5820  20.5477  20.5477
    24.7718  24.7718  24.7718  25.8096  35.1813  35.1813  35.1813  35.7780
    37.6238  37.6238  37.6238

     the Fermi energy is    15.9544 ev

!    total energy              =    -993.50946749 Ry
     Harris-Foulkes estimate   =    -993.50946593 Ry
     estimated scf accuracy    <          5.8E-09 Ry

     The total energy is the sum of the following terms:

     one-electron contribution =    -546.64150957 Ry
     hartree contribution      =     309.55677698 Ry
     xc contribution           =    -115.40676457 Ry
     ewald contribution        =    -641.00087047 Ry
     smearing contrib. (-TS)   =      -0.01709985 Ry

     convergence has been achieved in  22 iterations

     Forces acting on atoms (Ry/au):

     atom    1 type  1   force =     0.00000000    0.00000000    0.00000000
     atom    2 type  1   force =     0.00000000    0.00000000   -0.00000000
     atom    3 type  1   force =     0.00000000    0.00000000   -0.00000000
     atom    4 type  2   force =     0.00000000    0.00000000    0.00000000

     Total force =     0.000000     Total SCF correction =     0.000000
 !ASE

     General routines

     Parallel routines

   This run was terminated on:  15:11:45  31Oct2017

   JOB DONE.