     Program PWSCF v.5.1rc2 (svn rev. ) starts on 14Feb2018 at  9:11:27

     Current dimensions of program PWSCF are:
     Max number of different atomic species (ntypx) = 10
     Max number of k-points (npk) =  40000
     Max angular momentum in pseudopotentials (lmaxx) =  3

     IMPORTANT: XC functional enforced from input :
     Exchange-correlation      = BEEF-VDW ( 1  4 27 13 2)
     Any further DFT definition will be discarded
     Please, verify this is what you really want

     Subspace diagonalization in iterative solution of the eigenvalue problem:
     a serial algorithm will be used

     bravais-lattice index     =            0
     lattice parameter (alat)  =       1.8897  a.u.
     unit-cell volume          =     581.8356 (a.u.)^3
     number of atoms/cell      =            4
     number of atomic types    =            2
     number of electrons       =        72.00
     number of Kohn-Sham states=           56
     kinetic-energy cutoff     =      58.7989  Ry
     charge density cutoff     =     587.9892  Ry
     convergence threshold     =      7.3E-09
     mixing beta               =       0.1000
     number of iterations used =           10  local-TF  mixing
     Exchange-correlation      = BEEF-VDW ( 1  4 27 13 2)
     nstep                     =           50

     celldm(1)=   1.889726  celldm(2)=   0.000000  celldm(3)=   0.000000
     celldm(4)=   0.000000  celldm(5)=   0.000000  celldm(6)=   0.000000

     crystal axes: (cart. coord. in units of alat)
               a(1) = (   4.417751   0.000000   0.000000 )
               a(2) = (   0.000000   4.417751   0.000000 )
               a(3) = (   0.000000   0.000000   4.417751 )

     reciprocal axes: (cart. coord. in units 2 pi/alat)
               b(1) = (  0.226360  0.000000  0.000000 )
               b(2) = (  0.000000  0.226360  0.000000 )
               b(3) = (  0.000000  0.000000  0.226360 )

     PseudoPot. # 1 for Ag read from file:
     /home/mamunm/src/pseudo/gbrv1.5pbe/Ag.UPF
     MD5 check sum: d66d668201baa78d5eb5b04ef7011058
     Pseudo is Ultrasoft + core correction, Zval = 19.0
     Generated by new atomic code, or converted to UPF format
     Using radial grid of  887 points,  6 beta functions with:
                l(1) =   0
                l(2) =   0
                l(3) =   1
                l(4) =   1
                l(5) =   2
                l(6) =   2
     Q(r) pseudized with  6 coefficients,  rinner =    1.300   1.300   1.300
                                                       1.300   1.300

     PseudoPot. # 2 for Bi read from file:
     /home/mamunm/src/pseudo/gbrv1.5pbe/Bi.UPF
     MD5 check sum: 81103212dc04adf40945787f699eab19
     Pseudo is Ultrasoft + core correction, Zval = 15.0
     Generated by new atomic code, or converted to UPF format
     Using radial grid of  899 points,  6 beta functions with:
                l(1) =   0
                l(2) =   0
                l(3) =   1
                l(4) =   1
                l(5) =   2
                l(6) =   2
     Q(r) pseudized with  6 coefficients,  rinner =    1.000   1.000   1.000
                                                       1.000   1.000

     vdW kernel table read from file vdW_kernel_table
     MD5 check sum: 095c7af220d748ca6e76c0b4c6cfb241

     atomic species   valence    mass     pseudopotential
        Ag1           19.00   107.86820     Ag( 1.00)
        Bi1           15.00   208.98040     Bi( 1.00)

     48 Sym. Ops., with inversion, found (32 have fractional translation)

   Cartesian axes

     site n.     atom                  positions (alat units)
         1           Ag1 tau(   1) = (   0.0000000   0.0000000   0.0000000  )
         2           Ag1 tau(   2) = (   0.0000000   2.2088755   2.2088755  )
         3           Ag1 tau(   3) = (   2.2088755   0.0000000   2.2088755  )
         4           Bi1 tau(   4) = (   2.2088755   2.2088755   0.0000000  )

     number of k points=    84  Fermi-Dirac smearing, width (Ry)=  0.0073
                       cart. coord. in units 2pi/alat
        k(    1) = (   0.0000000   0.0000000   0.0000000), wk =   0.0011574
        k(    2) = (   0.0000000   0.0000000   0.0188633), wk =   0.0069444
        k(    3) = (   0.0000000   0.0000000   0.0377266), wk =   0.0069444
        k(    4) = (   0.0000000   0.0000000   0.0565899), wk =   0.0069444
        k(    5) = (   0.0000000   0.0000000   0.0754532), wk =   0.0069444
        k(    6) = (   0.0000000   0.0000000   0.0943165), wk =   0.0069444
        k(    7) = (   0.0000000   0.0000000  -0.1131798), wk =   0.0034722
        k(    8) = (   0.0000000   0.0188633   0.0188633), wk =   0.0138889
        k(    9) = (   0.0000000   0.0188633   0.0377266), wk =   0.0277778
        k(   10) = (   0.0000000   0.0188633   0.0565899), wk =   0.0277778
        k(   11) = (   0.0000000   0.0188633   0.0754532), wk =   0.0277778
        k(   12) = (   0.0000000   0.0188633   0.0943165), wk =   0.0277778
        k(   13) = (   0.0000000   0.0188633  -0.1131798), wk =   0.0138889
        k(   14) = (   0.0000000   0.0377266   0.0377266), wk =   0.0138889
        k(   15) = (   0.0000000   0.0377266   0.0565899), wk =   0.0277778
        k(   16) = (   0.0000000   0.0377266   0.0754532), wk =   0.0277778
        k(   17) = (   0.0000000   0.0377266   0.0943165), wk =   0.0277778
        k(   18) = (   0.0000000   0.0377266  -0.1131798), wk =   0.0138889
        k(   19) = (   0.0000000   0.0565899   0.0565899), wk =   0.0138889
        k(   20) = (   0.0000000   0.0565899   0.0754532), wk =   0.0277778
        k(   21) = (   0.0000000   0.0565899   0.0943165), wk =   0.0277778
        k(   22) = (   0.0000000   0.0565899  -0.1131798), wk =   0.0138889
        k(   23) = (   0.0000000   0.0754532   0.0754532), wk =   0.0138889
        k(   24) = (   0.0000000   0.0754532   0.0943165), wk =   0.0277778
        k(   25) = (   0.0000000   0.0754532  -0.1131798), wk =   0.0138889
        k(   26) = (   0.0000000   0.0943165   0.0943165), wk =   0.0138889
        k(   27) = (   0.0000000   0.0943165  -0.1131798), wk =   0.0138889
        k(   28) = (   0.0000000  -0.1131798  -0.1131798), wk =   0.0034722
        k(   29) = (   0.0188633   0.0188633   0.0188633), wk =   0.0092593
        k(   30) = (   0.0188633   0.0188633   0.0377266), wk =   0.0277778
        k(   31) = (   0.0188633   0.0188633   0.0565899), wk =   0.0277778
        k(   32) = (   0.0188633   0.0188633   0.0754532), wk =   0.0277778
        k(   33) = (   0.0188633   0.0188633   0.0943165), wk =   0.0277778
        k(   34) = (   0.0188633   0.0188633  -0.1131798), wk =   0.0138889
        k(   35) = (   0.0188633   0.0377266   0.0377266), wk =   0.0277778
        k(   36) = (   0.0188633   0.0377266   0.0565899), wk =   0.0555556
        k(   37) = (   0.0188633   0.0377266   0.0754532), wk =   0.0555556
        k(   38) = (   0.0188633   0.0377266   0.0943165), wk =   0.0555556
        k(   39) = (   0.0188633   0.0377266  -0.1131798), wk =   0.0277778
        k(   40) = (   0.0188633   0.0565899   0.0565899), wk =   0.0277778
        k(   41) = (   0.0188633   0.0565899   0.0754532), wk =   0.0555556
        k(   42) = (   0.0188633   0.0565899   0.0943165), wk =   0.0555556
        k(   43) = (   0.0188633   0.0565899  -0.1131798), wk =   0.0277778
        k(   44) = (   0.0188633   0.0754532   0.0754532), wk =   0.0277778
        k(   45) = (   0.0188633   0.0754532   0.0943165), wk =   0.0555556
        k(   46) = (   0.0188633   0.0754532  -0.1131798), wk =   0.0277778
        k(   47) = (   0.0188633   0.0943165   0.0943165), wk =   0.0277778
        k(   48) = (   0.0188633   0.0943165  -0.1131798), wk =   0.0277778
        k(   49) = (   0.0188633  -0.1131798  -0.1131798), wk =   0.0069444
        k(   50) = (   0.0377266   0.0377266   0.0377266), wk =   0.0092593
        k(   51) = (   0.0377266   0.0377266   0.0565899), wk =   0.0277778
        k(   52) = (   0.0377266   0.0377266   0.0754532), wk =   0.0277778
        k(   53) = (   0.0377266   0.0377266   0.0943165), wk =   0.0277778
        k(   54) = (   0.0377266   0.0377266  -0.1131798), wk =   0.0138889
        k(   55) = (   0.0377266   0.0565899   0.0565899), wk =   0.0277778
        k(   56) = (   0.0377266   0.0565899   0.0754532), wk =   0.0555556
        k(   57) = (   0.0377266   0.0565899   0.0943165), wk =   0.0555556
        k(   58) = (   0.0377266   0.0565899  -0.1131798), wk =   0.0277778
        k(   59) = (   0.0377266   0.0754532   0.0754532), wk =   0.0277778
        k(   60) = (   0.0377266   0.0754532   0.0943165), wk =   0.0555556
[...]
        k(   70) = (   0.0565899   0.0754532   0.0943165), wk =   0.0555556
        k(   71) = (   0.0565899   0.0754532  -0.1131798), wk =   0.0277778
        k(   72) = (   0.0565899   0.0943165   0.0943165), wk =   0.0277778
        k(   73) = (   0.0565899   0.0943165  -0.1131798), wk =   0.0277778
        k(   74) = (   0.0565899  -0.1131798  -0.1131798), wk =   0.0069444
        k(   75) = (   0.0754532   0.0754532   0.0754532), wk =   0.0092593
        k(   76) = (   0.0754532   0.0754532   0.0943165), wk =   0.0277778
        k(   77) = (   0.0754532   0.0754532  -0.1131798), wk =   0.0138889
        k(   78) = (   0.0754532   0.0943165   0.0943165), wk =   0.0277778
        k(   79) = (   0.0754532   0.0943165  -0.1131798), wk =   0.0277778
        k(   80) = (   0.0754532  -0.1131798  -0.1131798), wk =   0.0069444
        k(   81) = (   0.0943165   0.0943165   0.0943165), wk =   0.0092593
        k(   82) = (   0.0943165   0.0943165  -0.1131798), wk =   0.0138889
        k(   83) = (   0.0943165  -0.1131798  -0.1131798), wk =   0.0069444
        k(   84) = (  -0.1131798  -0.1131798  -0.1131798), wk =   0.0011574

     Largest allocated arrays     est. size (Mb)     dimensions
     Largest temporary arrays     est. size (Mb)     dimensions

     Initial potential from superposition of free atoms
     Check: negative starting charge=   -0.041850

     starting charge   69.49982, renormalised to   72.00000

     negative rho (up, down):  4.336E-02 0.000E+00

     *
     * You are using vdW-DF for exchange-correlation in this calculation.
     * Please cite the following three references that made this development
     * possible:
     *
     *   M. Dion, H. Rydberg, E. Schroder, D. C. Langreth, and
     *   B. I. Lundqvist, Phys. Rev. Lett. 92, 246401 (2004).
     *
     *   T. Thonhauser, V. R. Cooper, S. Li, A. Puzder, P. Hyldgaard, and
     *   D. C. Langreth, Phys. Rev. B 76, 125112 (2007).
     *
     *   G. Roman-Perez and J. M. Soler, Phys. Rev. Lett. 103, 096102 (2009).
     *
     *
     * If you are using vdW-DF2, please also cite:
     *
     *   K. Lee, E. D. Murray, L. Kong, B. I. Lundqvist, and
     *   D. C. Langreth, Phys. Rev. B 82, 081101(R) (2010).
     *
     *
     * If you are calculating the stress with vdW-DF, please also cite:
     *
     *   R. Sabatini, E. Kucukbenli, B. Kolb, T. Thonhauser, and
     *   S. de Gironcoli, J. Phys.: Condens. Matter 24, 424209 (2012).
     *

     Carrying out vdW-DF run using the following parameters:

     Nqs =      20    Nr_points =    1024   r_max =   100.000
     q_mesh =
               0.00001000     0.04494208     0.09755937     0.15916263
               0.23128650     0.31572767     0.41458969     0.53033537
               0.66584808     0.82450364     1.01025438     1.22772762
               1.48234092     1.78043706     2.12944203     2.53805004
               3.01644009     3.57652955     4.23227104     5.00000000

     Gradients computed in reciprocal space

     Starting wfc are   48 randomized atomic wfcs +    8 random wfc

     Self-consistent Calculation

     iteration #  1     ecut=    58.80 Ry     beta=0.10
     Davidson diagonalization with overlap
     ethr =  1.00E-02,  avg # of iterations =  4.8

[...]

     total energy              =   -1078.32303802 Ry
     Harris-Foulkes estimate   =   -1078.76500200 Ry
     estimated scf accuracy    <       7.04732542 Ry

[...]

     total energy              =   -1077.18316912 Ry
     Harris-Foulkes estimate   =   -1077.18316735 Ry
     estimated scf accuracy    <       0.00000002 Ry

     iteration # 23     ecut=    58.80 Ry     beta=0.10
     Davidson diagonalization with overlap
     ethr =  2.94E-11,  avg # of iterations =  2.0

     negative rho (up, down):  4.423E-02 0.000E+00

     End of self-consistent calculation

          k = 0.0000 0.0000 0.0000 (  4385 PWs)   bands (ev):

   -77.9378 -77.9327 -77.9327 -41.4528 -41.4528 -41.4528 -41.4395 -41.4395
   -41.4395 -41.3899 -41.3899 -41.3899  -8.9728  -8.9728  -8.9661  -8.9661
    -8.9661   2.4698   8.4664   8.8611   8.8611   8.8611   8.9690   8.9690
     9.9273   9.9273   9.9273  10.3959  10.3959  10.6401  10.8568  10.8568
    10.8568  12.4123  12.7813  12.7813  12.7813  17.7343  17.7343  20.3195
    20.3195  20.3195  22.4181  22.4181  22.4181  25.4047  26.1785  26.1785
    26.1785  26.7900  26.7900  27.7759  29.7246  29.7246  29.7246  33.9566

[...]

          k = 0.0943-0.1132-0.1132 (  4440 PWs)   bands (ev):

[...]

          k =-0.1132-0.1132-0.1132 (  4416 PWs)   bands (ev):

   -77.9344 -77.9344 -77.9344 -41.4597 -41.4597 -41.4597 -41.4322 -41.4251
   -41.4251 -41.4251 -41.3809 -41.3809  -8.9719  -8.9719  -8.9719  -8.9528
    -8.9528   3.3738   8.8753   8.8753   8.8753   9.4678   9.4678   9.4678
    10.0224  10.0224  10.0224  10.0957  10.0957  10.3344  10.6987  10.6987
    10.6987  11.1287  11.1287  11.1287  13.9853  15.3526  15.3526  15.3526
    24.2979  24.2979  24.2979  27.1618  27.1618  27.1618  27.6544  27.8244
    27.8244  27.8244  29.2579  29.2579  29.3629  29.3629  30.1980  31.5565

     the Fermi energy is    14.2970 ev

!    total energy              =   -1077.18317672 Ry
     Harris-Foulkes estimate   =   -1077.18316912 Ry
     estimated scf accuracy    <          1.5E-10 Ry

     The total energy is the sum of the following terms:

     one-electron contribution =    -482.71081178 Ry
     hartree contribution      =     277.50444418 Ry
     xc contribution           =    -156.97706890 Ry
     ewald contribution        =    -714.99711195 Ry
     smearing contrib. (-TS)   =      -0.00262827 Ry

     convergence has been achieved in  23 iterations

     Forces acting on atoms (Ry/au):

     negative rho (up, down):  4.423E-02 0.000E+00
     atom    1 type  1   force =     0.00000000    0.00000000    0.00000000
     atom    2 type  1   force =     0.00000000    0.00000000    0.00000000
     atom    3 type  1   force =     0.00000000   -0.00000000    0.00000000
     atom    4 type  2   force =     0.00000000    0.00000000    0.00000000

     Total force =     0.000000     Total SCF correction =     0.000000
 !ASE

     General routines

     Parallel routines

   This run was terminated on:   9:13:45  14Feb2018

   JOB DONE.