     Program PWSCF v.5.1rc2 (svn rev. ) starts on 25Oct2017 at  2:32:31

     Current dimensions of program PWSCF are:
     Max number of different atomic species (ntypx) = 10
     Max number of k-points (npk) =  40000
     Max angular momentum in pseudopotentials (lmaxx) =  3

     IMPORTANT: XC functional enforced from input :
     Exchange-correlation      = BEEF-VDW ( 1  4 27 13 2)
     Any further DFT definition will be discarded
     Please, verify this is what you really want

     Subspace diagonalization in iterative solution of the eigenvalue problem:
     a serial algorithm will be used

     bravais-lattice index     =            0
     lattice parameter (alat)  =       1.8897  a.u.
     unit-cell volume          =     526.7597 (a.u.)^3
     number of atoms/cell      =            4
     number of atomic types    =            2
     number of electrons       =        49.00
     number of Kohn-Sham states=           44
     kinetic-energy cutoff     =      58.7989  Ry
     charge density cutoff     =     587.9892  Ry
     convergence threshold     =      7.3E-09
     mixing beta               =       0.1000
     number of iterations used =           10  local-TF  mixing
     Exchange-correlation      = BEEF-VDW ( 1  4 27 13 2)
     nstep                     =           50

     celldm(1)=   1.889726  celldm(2)=   0.000000  celldm(3)=   0.000000
     celldm(4)=   0.000000  celldm(5)=   0.000000  celldm(6)=   0.000000

     crystal axes: (cart. coord. in units of alat)
               a(1) = (   4.273713   0.000000   0.000000 )
               a(2) = (   0.000000   4.273713   0.000000 )
               a(3) = (   0.000000   0.000000   4.273713 )

     reciprocal axes: (cart. coord. in units 2 pi/alat)
               b(1) = (  0.233989  0.000000  0.000000 )
               b(2) = (  0.000000  0.233989  0.000000 )
               b(3) = (  0.000000  0.000000  0.233989 )

     PseudoPot. # 1 for Sc read from file:
     /home/vossj/suncat/psp/gbrv1.5pbe/Sc.UPF
     MD5 check sum: db30a2753ba66ef00f23801d899b7e7f
     Pseudo is Ultrasoft + core correction, Zval = 11.0
     Generated by new atomic code, or converted to UPF format
     Using radial grid of  849 points,  6 beta functions with:
                l(1) =   0
                l(2) =   0
                l(3) =   1
                l(4) =   1
                l(5) =   2
                l(6) =   2
     Q(r) pseudized with  6 coefficients,  rinner =    1.200   1.200   1.200
                                                       1.200   1.200

     PseudoPot. # 2 for Os read from file:
     /home/vossj/suncat/psp/gbrv1.5pbe/Os.UPF
     MD5 check sum: a3fb40a04f0c37c25c34bbc47164c9a8
     Pseudo is Ultrasoft + core correction, Zval = 16.0
     Generated by new atomic code, or converted to UPF format
     Using radial grid of  983 points,  8 beta functions with:
                l(1) =   0
                l(2) =   0
                l(3) =   1
                l(4) =   1
                l(5) =   2
                l(6) =   2
                l(7) =   3
                l(8) =   3
     Q(r) pseudized with  8 coefficients,  rinner =    1.150   1.150   1.150
                                                       1.150   1.150   1.150
                                                       1.150

     vdW kernel table read from file vdW_kernel_table
     MD5 check sum: 095c7af220d748ca6e76c0b4c6cfb241

     atomic species   valence    mass     pseudopotential
        Sc1           11.00    44.95591     Sc( 1.00)
        Os1           16.00   190.23000     Os( 1.00)

     48 Sym. Ops., with inversion, found (32 have fractional translation)

   Cartesian axes

     site n.     atom                  positions (alat units)
         1           Sc1 tau(   1) = (   0.0000000   0.0000000   0.0000000  )
         2           Sc1 tau(   2) = (   0.0000000   2.1368563   2.1368563  )
         3           Sc1 tau(   3) = (   2.1368563   0.0000000   2.1368563  )
         4           Os1 tau(   4) = (   2.1368563   2.1368563   0.0000000  )

     number of k points=    84  Fermi-Dirac smearing, width (Ry)=  0.0073
                       cart. coord. in units 2pi/alat
        k(    1) = (   0.0000000   0.0000000   0.0000000), wk =   0.0011574
        k(    2) = (   0.0000000   0.0000000   0.0194990), wk =   0.0069444
        k(    3) = (   0.0000000   0.0000000   0.0389981), wk =   0.0069444
        k(    4) = (   0.0000000   0.0000000   0.0584971), wk =   0.0069444
        k(    5) = (   0.0000000   0.0000000   0.0779962), wk =   0.0069444
        k(    6) = (   0.0000000   0.0000000   0.0974952), wk =   0.0069444
        k(    7) = (   0.0000000   0.0000000  -0.1169943), wk =   0.0034722
        k(    8) = (   0.0000000   0.0194990   0.0194990), wk =   0.0138889
        k(    9) = (   0.0000000   0.0194990   0.0389981), wk =   0.0277778
        k(   10) = (   0.0000000   0.0194990   0.0584971), wk =   0.0277778
        k(   11) = (   0.0000000   0.0194990   0.0779962), wk =   0.0277778
        k(   12) = (   0.0000000   0.0194990   0.0974952), wk =   0.0277778
        k(   13) = (   0.0000000   0.0194990  -0.1169943), wk =   0.0138889
        k(   14) = (   0.0000000   0.0389981   0.0389981), wk =   0.0138889
        k(   15) = (   0.0000000   0.0389981   0.0584971), wk =   0.0277778
        k(   16) = (   0.0000000   0.0389981   0.0779962), wk =   0.0277778
        k(   17) = (   0.0000000   0.0389981   0.0974952), wk =   0.0277778
        k(   18) = (   0.0000000   0.0389981  -0.1169943), wk =   0.0138889
        k(   19) = (   0.0000000   0.0584971   0.0584971), wk =   0.0138889
        k(   20) = (   0.0000000   0.0584971   0.0779962), wk =   0.0277778
        k(   21) = (   0.0000000   0.0584971   0.0974952), wk =   0.0277778
        k(   22) = (   0.0000000   0.0584971  -0.1169943), wk =   0.0138889
        k(   23) = (   0.0000000   0.0779962   0.0779962), wk =   0.0138889
        k(   24) = (   0.0000000   0.0779962   0.0974952), wk =   0.0277778
        k(   25) = (   0.0000000   0.0779962  -0.1169943), wk =   0.0138889
        k(   26) = (   0.0000000   0.0974952   0.0974952), wk =   0.0138889
        k(   27) = (   0.0000000   0.0974952  -0.1169943), wk =   0.0138889
        k(   28) = (   0.0000000  -0.1169943  -0.1169943), wk =   0.0034722
        k(   29) = (   0.0194990   0.0194990   0.0194990), wk =   0.0092593
        k(   30) = (   0.0194990   0.0194990   0.0389981), wk =   0.0277778
        k(   31) = (   0.0194990   0.0194990   0.0584971), wk =   0.0277778
        k(   32) = (   0.0194990   0.0194990   0.0779962), wk =   0.0277778
        k(   33) = (   0.0194990   0.0194990   0.0974952), wk =   0.0277778
        k(   34) = (   0.0194990   0.0194990  -0.1169943), wk =   0.0138889
        k(   35) = (   0.0194990   0.0389981   0.0389981), wk =   0.0277778
        k(   36) = (   0.0194990   0.0389981   0.0584971), wk =   0.0555556
        k(   37) = (   0.0194990   0.0389981   0.0779962), wk =   0.0555556
        k(   38) = (   0.0194990   0.0389981   0.0974952), wk =   0.0555556
        k(   39) = (   0.0194990   0.0389981  -0.1169943), wk =   0.0277778
        k(   40) = (   0.0194990   0.0584971   0.0584971), wk =   0.0277778
        k(   41) = (   0.0194990   0.0584971   0.0779962), wk =   0.0555556
        k(   42) = (   0.0194990   0.0584971   0.0974952), wk =   0.0555556
        k(   43) = (   0.0194990   0.0584971  -0.1169943), wk =   0.0277778
        k(   44) = (   0.0194990   0.0779962   0.0779962), wk =   0.0277778
        k(   45) = (   0.0194990   0.0779962   0.0974952), wk =   0.0555556
        k(   46) = (   0.0194990   0.0779962  -0.1169943), wk =   0.0277778
        k(   47) = (   0.0194990   0.0974952   0.0974952), wk =   0.0277778
        k(   48) = (   0.0194990   0.0974952  -0.1169943), wk =   0.0277778
        k(   49) = (   0.0194990  -0.1169943  -0.1169943), wk =   0.0069444
        k(   50) = (   0.0389981   0.0389981   0.0389981), wk =   0.0092593
        k(   51) = (   0.0389981   0.0389981   0.0584971), wk =   0.0277778
        k(   52) = (   0.0389981   0.0389981   0.0779962), wk =   0.0277778
        k(   53) = (   0.0389981   0.0389981   0.0974952), wk =   0.0277778
        k(   54) = (   0.0389981   0.0389981  -0.1169943), wk =   0.0138889
        k(   55) = (   0.0389981   0.0584971   0.0584971), wk =   0.0277778
        k(   56) = (   0.0389981   0.0584971   0.0779962), wk =   0.0555556
        k(   57) = (   0.0389981   0.0584971   0.0974952), wk =   0.0555556
        k(   58) = (   0.0389981   0.0584971  -0.1169943), wk =   0.0277778
        k(   59) = (   0.0389981   0.0779962   0.0779962), wk =   0.0277778
        k(   60) = (   0.0389981   0.0779962   0.0974952), wk =   0.0555556
[...]
        k(   70) = (   0.0584971   0.0779962   0.0974952), wk =   0.0555556
        k(   71) = (   0.0584971   0.0779962  -0.1169943), wk =   0.0277778
        k(   72) = (   0.0584971   0.0974952   0.0974952), wk =   0.0277778
        k(   73) = (   0.0584971   0.0974952  -0.1169943), wk =   0.0277778
        k(   74) = (   0.0584971  -0.1169943  -0.1169943), wk =   0.0069444
        k(   75) = (   0.0779962   0.0779962   0.0779962), wk =   0.0092593
        k(   76) = (   0.0779962   0.0779962   0.0974952), wk =   0.0277778
        k(   77) = (   0.0779962   0.0779962  -0.1169943), wk =   0.0138889
        k(   78) = (   0.0779962   0.0974952   0.0974952), wk =   0.0277778
        k(   79) = (   0.0779962   0.0974952  -0.1169943), wk =   0.0277778
        k(   80) = (   0.0779962  -0.1169943  -0.1169943), wk =   0.0069444
        k(   81) = (   0.0974952   0.0974952   0.0974952), wk =   0.0092593
        k(   82) = (   0.0974952   0.0974952  -0.1169943), wk =   0.0138889
        k(   83) = (   0.0974952  -0.1169943  -0.1169943), wk =   0.0069444
        k(   84) = (  -0.1169943  -0.1169943  -0.1169943), wk =   0.0011574

     Largest allocated arrays     est. size (Mb)     dimensions
     Largest temporary arrays     est. size (Mb)     dimensions

     Initial potential from superposition of free atoms
     Check: negative starting charge=   -0.122514

     starting charge   48.49276, renormalised to   49.00000

     negative rho (up, down):  1.238E-01 0.000E+00

     *
     * You are using vdW-DF for exchange-correlation in this calculation.
     * Please cite the following three references that made this development
     * possible:
     *
     *   M. Dion, H. Rydberg, E. Schroder, D. C. Langreth, and
     *   B. I. Lundqvist, Phys. Rev. Lett. 92, 246401 (2004).
     *
     *   T. Thonhauser, V. R. Cooper, S. Li, A. Puzder, P. Hyldgaard, and
     *   D. C. Langreth, Phys. Rev. B 76, 125112 (2007).
     *
     *   G. Roman-Perez and J. M. Soler, Phys. Rev. Lett. 103, 096102 (2009).
     *
     *
     * If you are using vdW-DF2, please also cite:
     *
     *   K. Lee, E. D. Murray, L. Kong, B. I. Lundqvist, and
     *   D. C. Langreth, Phys. Rev. B 82, 081101(R) (2010).
     *
     *
     * If you are calculating the stress with vdW-DF, please also cite:
     *
     *   R. Sabatini, E. Kucukbenli, B. Kolb, T. Thonhauser, and
     *   S. de Gironcoli, J. Phys.: Condens. Matter 24, 424209 (2012).
     *

     Carrying out vdW-DF run using the following parameters:

     Nqs =      20    Nr_points =    1024   r_max =   100.000
     q_mesh =
               0.00001000     0.04494208     0.09755937     0.15916263
               0.23128650     0.31572767     0.41458969     0.53033537
               0.66584808     0.82450364     1.01025438     1.22772762
               1.48234092     1.78043706     2.12944203     2.53805004
               3.01644009     3.57652955     4.23227104     5.00000000

     Gradients computed in reciprocal space

     Starting wfc are   52 randomized atomic wfcs

     Self-consistent Calculation

     iteration #  1     ecut=    58.80 Ry     beta=0.10
     Davidson diagonalization with overlap
     ethr =  1.00E-02,  avg # of iterations =  3.1

[...]

     total energy              =    -484.43792774 Ry
     Harris-Foulkes estimate   =    -484.47548466 Ry
     estimated scf accuracy    <       0.83111498 Ry

[...]

     total energy              =    -484.36306214 Ry
     Harris-Foulkes estimate   =    -484.36306665 Ry
     estimated scf accuracy    <       0.00000005 Ry

     iteration # 15     ecut=    58.80 Ry     beta=0.10
     Davidson diagonalization with overlap
     ethr =  1.07E-10,  avg # of iterations =  1.1

     negative rho (up, down):  1.183E-01 0.000E+00

     End of self-consistent calculation

          k = 0.0000 0.0000 0.0000 (  3959 PWs)   bands (ev):

   -72.2820 -36.2927 -36.1462 -36.1462 -31.5618 -31.5618 -31.5618 -15.1015
   -15.1015 -15.1015 -14.7372 -14.7372 -14.7372 -14.5810 -14.5810 -14.5810
     6.9934  10.1297  10.1297  10.6937  10.9563  10.9563  10.9563  14.1273
    14.1273  14.1273  15.7011  15.7011  15.9767  15.9767  15.9767  17.2605
    17.2605  17.3059  17.3059  17.3059  17.7852  18.0236  18.0236  18.0236
    22.2369  23.9001  23.9001  24.4489

[...]

          k = 0.0975-0.1170-0.1170 (  3980 PWs)   bands (ev):

[...]

          k =-0.1170-0.1170-0.1170 (  4032 PWs)   bands (ev):

   -72.2821 -36.1939 -36.1939 -36.1939 -31.5640 -31.5640 -31.5640 -15.3271
   -15.0223 -15.0223 -15.0223 -14.6283 -14.6283 -14.5635 -14.5635 -14.5635
     9.7870  10.2664  10.2664  10.2664  12.4869  12.4869  13.8048  13.8048
    13.8048  13.9073  13.9073  13.9073  13.9980  14.7648  14.7648  14.7648
    17.0346  17.0346  17.0346  17.2481  17.2481  17.7497  17.7497  17.7497
    19.8544  22.0062  22.0062  22.0062

     the Fermi energy is    13.2963 ev

!    total energy              =    -484.36306389 Ry
     Harris-Foulkes estimate   =    -484.36306214 Ry
     estimated scf accuracy    <          5.9E-09 Ry

     The total energy is the sum of the following terms:

     one-electron contribution =    -148.57887193 Ry
     hartree contribution      =      90.81458769 Ry
     xc contribution           =     -80.58594081 Ry
     ewald contribution        =    -345.99924773 Ry
     smearing contrib. (-TS)   =      -0.01359110 Ry

     convergence has been achieved in  15 iterations

     Forces acting on atoms (Ry/au):

     negative rho (up, down):  1.183E-01 0.000E+00
     atom    1 type  1   force =     0.00000000    0.00000000   -0.00000000
     atom    2 type  1   force =     0.00000000    0.00000000   -0.00000000
     atom    3 type  1   force =     0.00000000    0.00000000    0.00000000
     atom    4 type  2   force =     0.00000000    0.00000000    0.00000000

     Total force =     0.000000     Total SCF correction =     0.000000
 !ASE

     General routines

     Parallel routines

   This run was terminated on:   2:33:27  25Oct2017

   JOB DONE.