     Program PWSCF v.5.1rc2 (svn rev. ) starts on 25Oct2017 at 20:46: 5

     Current dimensions of program PWSCF are:
     Max number of different atomic species (ntypx) = 10
     Max number of k-points (npk) =  40000
     Max angular momentum in pseudopotentials (lmaxx) =  3

     IMPORTANT: XC functional enforced from input :
     Exchange-correlation      = BEEF-VDW ( 1  4 27 13 2)
     Any further DFT definition will be discarded
     Please, verify this is what you really want

     Subspace diagonalization in iterative solution of the eigenvalue problem:
     a serial algorithm will be used

     bravais-lattice index     =            0
     lattice parameter (alat)  =       1.8897  a.u.
     unit-cell volume          =     471.0887 (a.u.)^3
     number of atoms/cell      =            4
     number of atomic types    =            2
     number of electrons       =        69.00
     number of Kohn-Sham states=           54
     kinetic-energy cutoff     =      58.7989  Ry
     charge density cutoff     =     587.9892  Ry
     convergence threshold     =      7.3E-09
     mixing beta               =       0.1000
     number of iterations used =           10  local-TF  mixing
     Exchange-correlation      = BEEF-VDW ( 1  4 27 13 2)
     nstep                     =           50

     celldm(1)=   1.889726  celldm(2)=   0.000000  celldm(3)=   0.000000
     celldm(4)=   0.000000  celldm(5)=   0.000000  celldm(6)=   0.000000

     crystal axes: (cart. coord. in units of alat)
               a(1) = (   4.117517   0.000000   0.000000 )
               a(2) = (   0.000000   4.117517   0.000000 )
               a(3) = (   0.000000   0.000000   4.117517 )

     reciprocal axes: (cart. coord. in units 2 pi/alat)
               b(1) = (  0.242865  0.000000  0.000000 )
               b(2) = (  0.000000  0.242865  0.000000 )
               b(3) = (  0.000000  0.000000  0.242865 )

     PseudoPot. # 1 for Ga read from file:
     /home/vossj/suncat/psp/gbrv1.5pbe/Ga.UPF
     MD5 check sum: ccd671392a58a050fbb373893b4fcd66
     Pseudo is Ultrasoft + core correction, Zval = 19.0
     Generated by new atomic code, or converted to UPF format
     Using radial grid of  871 points,  6 beta functions with:
                l(1) =   0
                l(2) =   0
                l(3) =   1
                l(4) =   1
                l(5) =   2
                l(6) =   2
     Q(r) pseudized with  8 coefficients,  rinner =    1.250   1.250   1.250
                                                       1.250   1.250

     PseudoPot. # 2 for Hf read from file:
     /home/vossj/suncat/psp/gbrv1.5pbe/Hf.UPF
     MD5 check sum: 8ee9378dfe14276e333edf04c5e4aa26
     Pseudo is Ultrasoft + core correction, Zval = 12.0
     Generated by new atomic code, or converted to UPF format
     Using radial grid of  921 points,  8 beta functions with:
                l(1) =   0
                l(2) =   0
                l(3) =   0
                l(4) =   1
                l(5) =   1
                l(6) =   2
                l(7) =   2
                l(8) =   3
     Q(r) pseudized with  6 coefficients,  rinner =    1.200   1.200   1.200
                                                       1.200   1.200   1.200
                                                       1.200

     vdW kernel table read from file vdW_kernel_table
     MD5 check sum: 095c7af220d748ca6e76c0b4c6cfb241

     atomic species   valence    mass     pseudopotential
        Ga1           19.00    69.72300     Ga( 1.00)
        Hf1           12.00   178.49000     Hf( 1.00)

     48 Sym. Ops., with inversion, found (32 have fractional translation)

   Cartesian axes

     site n.     atom                  positions (alat units)
         1           Ga1 tau(   1) = (   0.0000000   0.0000000   0.0000000  )
         2           Ga1 tau(   2) = (   0.0000000   2.0587583   2.0587583  )
         3           Ga1 tau(   3) = (   2.0587583   0.0000000   2.0587583  )
         4           Hf1 tau(   4) = (   2.0587583   2.0587583   0.0000000  )

     number of k points=    84  Fermi-Dirac smearing, width (Ry)=  0.0073
                       cart. coord. in units 2pi/alat
        k(    1) = (   0.0000000   0.0000000   0.0000000), wk =   0.0011574
        k(    2) = (   0.0000000   0.0000000   0.0202387), wk =   0.0069444
        k(    3) = (   0.0000000   0.0000000   0.0404775), wk =   0.0069444
        k(    4) = (   0.0000000   0.0000000   0.0607162), wk =   0.0069444
        k(    5) = (   0.0000000   0.0000000   0.0809549), wk =   0.0069444
        k(    6) = (   0.0000000   0.0000000   0.1011937), wk =   0.0069444
        k(    7) = (   0.0000000   0.0000000  -0.1214324), wk =   0.0034722
        k(    8) = (   0.0000000   0.0202387   0.0202387), wk =   0.0138889
        k(    9) = (   0.0000000   0.0202387   0.0404775), wk =   0.0277778
        k(   10) = (   0.0000000   0.0202387   0.0607162), wk =   0.0277778
        k(   11) = (   0.0000000   0.0202387   0.0809549), wk =   0.0277778
        k(   12) = (   0.0000000   0.0202387   0.1011937), wk =   0.0277778
        k(   13) = (   0.0000000   0.0202387  -0.1214324), wk =   0.0138889
        k(   14) = (   0.0000000   0.0404775   0.0404775), wk =   0.0138889
        k(   15) = (   0.0000000   0.0404775   0.0607162), wk =   0.0277778
        k(   16) = (   0.0000000   0.0404775   0.0809549), wk =   0.0277778
        k(   17) = (   0.0000000   0.0404775   0.1011937), wk =   0.0277778
        k(   18) = (   0.0000000   0.0404775  -0.1214324), wk =   0.0138889
        k(   19) = (   0.0000000   0.0607162   0.0607162), wk =   0.0138889
        k(   20) = (   0.0000000   0.0607162   0.0809549), wk =   0.0277778
        k(   21) = (   0.0000000   0.0607162   0.1011937), wk =   0.0277778
        k(   22) = (   0.0000000   0.0607162  -0.1214324), wk =   0.0138889
        k(   23) = (   0.0000000   0.0809549   0.0809549), wk =   0.0138889
        k(   24) = (   0.0000000   0.0809549   0.1011937), wk =   0.0277778
        k(   25) = (   0.0000000   0.0809549  -0.1214324), wk =   0.0138889
        k(   26) = (   0.0000000   0.1011937   0.1011937), wk =   0.0138889
        k(   27) = (   0.0000000   0.1011937  -0.1214324), wk =   0.0138889
        k(   28) = (   0.0000000  -0.1214324  -0.1214324), wk =   0.0034722
        k(   29) = (   0.0202387   0.0202387   0.0202387), wk =   0.0092593
        k(   30) = (   0.0202387   0.0202387   0.0404775), wk =   0.0277778
        k(   31) = (   0.0202387   0.0202387   0.0607162), wk =   0.0277778
        k(   32) = (   0.0202387   0.0202387   0.0809549), wk =   0.0277778
        k(   33) = (   0.0202387   0.0202387   0.1011937), wk =   0.0277778
        k(   34) = (   0.0202387   0.0202387  -0.1214324), wk =   0.0138889
        k(   35) = (   0.0202387   0.0404775   0.0404775), wk =   0.0277778
        k(   36) = (   0.0202387   0.0404775   0.0607162), wk =   0.0555556
        k(   37) = (   0.0202387   0.0404775   0.0809549), wk =   0.0555556
        k(   38) = (   0.0202387   0.0404775   0.1011937), wk =   0.0555556
        k(   39) = (   0.0202387   0.0404775  -0.1214324), wk =   0.0277778
        k(   40) = (   0.0202387   0.0607162   0.0607162), wk =   0.0277778
        k(   41) = (   0.0202387   0.0607162   0.0809549), wk =   0.0555556
        k(   42) = (   0.0202387   0.0607162   0.1011937), wk =   0.0555556
        k(   43) = (   0.0202387   0.0607162  -0.1214324), wk =   0.0277778
        k(   44) = (   0.0202387   0.0809549   0.0809549), wk =   0.0277778
        k(   45) = (   0.0202387   0.0809549   0.1011937), wk =   0.0555556
        k(   46) = (   0.0202387   0.0809549  -0.1214324), wk =   0.0277778
        k(   47) = (   0.0202387   0.1011937   0.1011937), wk =   0.0277778
        k(   48) = (   0.0202387   0.1011937  -0.1214324), wk =   0.0277778
        k(   49) = (   0.0202387  -0.1214324  -0.1214324), wk =   0.0069444
        k(   50) = (   0.0404775   0.0404775   0.0404775), wk =   0.0092593
        k(   51) = (   0.0404775   0.0404775   0.0607162), wk =   0.0277778
        k(   52) = (   0.0404775   0.0404775   0.0809549), wk =   0.0277778
        k(   53) = (   0.0404775   0.0404775   0.1011937), wk =   0.0277778
        k(   54) = (   0.0404775   0.0404775  -0.1214324), wk =   0.0138889
        k(   55) = (   0.0404775   0.0607162   0.0607162), wk =   0.0277778
        k(   56) = (   0.0404775   0.0607162   0.0809549), wk =   0.0555556
        k(   57) = (   0.0404775   0.0607162   0.1011937), wk =   0.0555556
        k(   58) = (   0.0404775   0.0607162  -0.1214324), wk =   0.0277778
        k(   59) = (   0.0404775   0.0809549   0.0809549), wk =   0.0277778
        k(   60) = (   0.0404775   0.0809549   0.1011937), wk =   0.0555556
[...]
        k(   70) = (   0.0607162   0.0809549   0.1011937), wk =   0.0555556
        k(   71) = (   0.0607162   0.0809549  -0.1214324), wk =   0.0277778
        k(   72) = (   0.0607162   0.1011937   0.1011937), wk =   0.0277778
        k(   73) = (   0.0607162   0.1011937  -0.1214324), wk =   0.0277778
        k(   74) = (   0.0607162  -0.1214324  -0.1214324), wk =   0.0069444
        k(   75) = (   0.0809549   0.0809549   0.0809549), wk =   0.0092593
        k(   76) = (   0.0809549   0.0809549   0.1011937), wk =   0.0277778
        k(   77) = (   0.0809549   0.0809549  -0.1214324), wk =   0.0138889
        k(   78) = (   0.0809549   0.1011937   0.1011937), wk =   0.0277778
        k(   79) = (   0.0809549   0.1011937  -0.1214324), wk =   0.0277778
        k(   80) = (   0.0809549  -0.1214324  -0.1214324), wk =   0.0069444
        k(   81) = (   0.1011937   0.1011937   0.1011937), wk =   0.0092593
        k(   82) = (   0.1011937   0.1011937  -0.1214324), wk =   0.0138889
        k(   83) = (   0.1011937  -0.1214324  -0.1214324), wk =   0.0069444
        k(   84) = (  -0.1214324  -0.1214324  -0.1214324), wk =   0.0011574

     Largest allocated arrays     est. size (Mb)     dimensions
     Largest temporary arrays     est. size (Mb)     dimensions

     Check: negative/imaginary core charge=   -0.000001    0.000000

     Initial potential from superposition of free atoms
     Check: negative starting charge=   -0.107744

     starting charge   64.00000, renormalised to   69.00000

     negative rho (up, down):  1.162E-01 0.000E+00

     *
     * You are using vdW-DF for exchange-correlation in this calculation.
     * Please cite the following three references that made this development
     * possible:
     *
     *   M. Dion, H. Rydberg, E. Schroder, D. C. Langreth, and
     *   B. I. Lundqvist, Phys. Rev. Lett. 92, 246401 (2004).
     *
     *   T. Thonhauser, V. R. Cooper, S. Li, A. Puzder, P. Hyldgaard, and
     *   D. C. Langreth, Phys. Rev. B 76, 125112 (2007).
     *
     *   G. Roman-Perez and J. M. Soler, Phys. Rev. Lett. 103, 096102 (2009).
     *
     *
     * If you are using vdW-DF2, please also cite:
     *
     *   K. Lee, E. D. Murray, L. Kong, B. I. Lundqvist, and
     *   D. C. Langreth, Phys. Rev. B 82, 081101(R) (2010).
     *
     *
     * If you are calculating the stress with vdW-DF, please also cite:
     *
     *   R. Sabatini, E. Kucukbenli, B. Kolb, T. Thonhauser, and
     *   S. de Gironcoli, J. Phys.: Condens. Matter 24, 424209 (2012).
     *

     Carrying out vdW-DF run using the following parameters:

     Nqs =      20    Nr_points =    1024   r_max =   100.000
     q_mesh =
               0.00001000     0.04494208     0.09755937     0.15916263
               0.23128650     0.31572767     0.41458969     0.53033537
               0.66584808     0.82450364     1.01025438     1.22772762
               1.48234092     1.78043706     2.12944203     2.53805004
               3.01644009     3.57652955     4.23227104     5.00000000

     Gradients computed in reciprocal space

     Starting wfc are   49 randomized atomic wfcs +    5 random wfc

     Self-consistent Calculation

     iteration #  1     ecut=    58.80 Ry     beta=0.10
     Davidson diagonalization with overlap
     ethr =  1.00E-02,  avg # of iterations =  4.0

[...]

     total energy              =   -1416.19564319 Ry
     Harris-Foulkes estimate   =   -1425.91533544 Ry
     estimated scf accuracy    <     143.74303007 Ry

[...]

     total energy              =   -1410.48526022 Ry
     Harris-Foulkes estimate   =   -1410.48525957 Ry
     estimated scf accuracy    <       0.00000001 Ry

     iteration # 17     ecut=    58.80 Ry     beta=0.10
     Davidson diagonalization with overlap
     ethr =  1.82E-11,  avg # of iterations =  2.0

     negative rho (up, down):  1.162E-01 0.000E+00

     End of self-consistent calculation

          k = 0.0000 0.0000 0.0000 (  3695 PWs)   bands (ev):

   -80.7373 -80.7373 -80.7373 -80.6974 -80.6974 -80.6974 -80.6972 -80.6972
   -80.6972 -48.8330 -17.3741 -17.3741 -17.3741  -1.3091  -1.2876  -1.2876
    -1.2876  -1.1650  -1.1650  -1.0371  -1.0371  -1.0371  -0.9749  -0.9749
    -0.8588  -0.8506  -0.8506  -0.8506   2.7884  10.2155  10.2155  12.0350
    12.0350  12.0350  15.3729  15.3729  15.3729  16.2639  17.7966  17.7966
    18.6140  18.6140  18.6140  22.2406  22.2406  22.2406  26.0464  26.0464
    26.0464  27.3859  27.3859  28.0054  28.9810  31.2180

[...]

          k = 0.1012-0.1214-0.1214 (  3568 PWs)   bands (ev):

[...]

          k =-0.1214-0.1214-0.1214 (  3544 PWs)   bands (ev):

   -80.7401 -80.7357 -80.7357 -80.6988 -80.6988 -80.6988 -80.6958 -80.6958
   -80.6958 -48.8317 -17.3981 -17.3981 -17.3981  -1.2238  -1.2092  -1.2092
    -1.2092  -1.1336  -1.1336  -1.1336  -1.0336  -1.0336  -1.0336  -0.9945
    -0.9945  -0.8680  -0.8680  -0.8680   7.9528   7.9528   7.9528   9.6044
    10.9163  10.9163  10.9163  14.7375  16.6134  16.6134  18.4710  18.4710
    18.4710  23.9504  23.9504  23.9504  24.5167  24.5167  27.6811  27.6811
    27.6811  28.3718  28.4392  28.4392  28.4392  29.2480

     the Fermi energy is    14.2424 ev

!    total energy              =   -1410.48526305 Ry
     Harris-Foulkes estimate   =   -1410.48526022 Ry
     estimated scf accuracy    <          2.1E-10 Ry

     The total energy is the sum of the following terms:

     one-electron contribution =   -1011.21444434 Ry
     hartree contribution      =     539.63161176 Ry
     xc contribution           =    -226.90661782 Ry
     ewald contribution        =    -711.99206941 Ry
     smearing contrib. (-TS)   =      -0.00374324 Ry

     convergence has been achieved in  17 iterations

     Forces acting on atoms (Ry/au):

     negative rho (up, down):  1.162E-01 0.000E+00
     atom    1 type  1   force =     0.00000000   -0.00000000   -0.00000000
     atom    2 type  1   force =     0.00000000    0.00000000    0.00000000
     atom    3 type  1   force =     0.00000000    0.00000000    0.00000000
     atom    4 type  2   force =     0.00000000    0.00000000    0.00000000

     Total force =     0.000000     Total SCF correction =     0.000000
 !ASE

     General routines

     Parallel routines

   This run was terminated on:  20:47:32  25Oct2017

   JOB DONE.