     Program PWSCF v.5.1rc2 (svn rev. ) starts on 25Oct2017 at  5: 9: 4

     Current dimensions of program PWSCF are:
     Max number of different atomic species (ntypx) = 10
     Max number of k-points (npk) =  40000
     Max angular momentum in pseudopotentials (lmaxx) =  3

     IMPORTANT: XC functional enforced from input :
     Exchange-correlation      = BEEF-VDW ( 1  4 27 13 2)
     Any further DFT definition will be discarded
     Please, verify this is what you really want

     Subspace diagonalization in iterative solution of the eigenvalue problem:
     a serial algorithm will be used

     bravais-lattice index     =            0
     lattice parameter (alat)  =       1.8897  a.u.
     unit-cell volume          =     409.5747 (a.u.)^3
     number of atoms/cell      =            4
     number of atomic types    =            2
     number of electrons       =        58.00
     number of Kohn-Sham states=           49
     kinetic-energy cutoff     =      58.7989  Ry
     charge density cutoff     =     587.9892  Ry
     convergence threshold     =      7.3E-09
     mixing beta               =       0.1000
     number of iterations used =           10  local-TF  mixing
     Exchange-correlation      = BEEF-VDW ( 1  4 27 13 2)
     nstep                     =           50

     celldm(1)=   1.889726  celldm(2)=   0.000000  celldm(3)=   0.000000
     celldm(4)=   0.000000  celldm(5)=   0.000000  celldm(6)=   0.000000

     crystal axes: (cart. coord. in units of alat)
               a(1) = (   3.929876   0.000000   0.000000 )
               a(2) = (   0.000000   3.929876   0.000000 )
               a(3) = (   0.000000   0.000000   3.929876 )

     reciprocal axes: (cart. coord. in units 2 pi/alat)
               b(1) = (  0.254461  0.000000  0.000000 )
               b(2) = (  0.000000  0.254461  0.000000 )
               b(3) = (  0.000000  0.000000  0.254461 )

     PseudoPot. # 1 for Ir read from file:
     /home/vossj/suncat/psp/gbrv1.5pbe/Ir.UPF
     MD5 check sum: 8836f839c3459d2b385c504ce6d91f2c
     Pseudo is Ultrasoft + core correction, Zval = 15.0
     Generated by new atomic code, or converted to UPF format
     Using radial grid of  983 points,  7 beta functions with:
                l(1) =   0
                l(2) =   0
                l(3) =   1
                l(4) =   1
                l(5) =   1
                l(6) =   2
                l(7) =   2
     Q(r) pseudized with  8 coefficients,  rinner =    1.400   1.400   1.400
                                                       1.400   1.400

     PseudoPot. # 2 for Ta read from file:
     /home/vossj/suncat/psp/gbrv1.5pbe/Ta.UPF
     MD5 check sum: f8bbe9446314a3b8ea5d9f3e3836c939
     Pseudo is Ultrasoft + core correction, Zval = 13.0
     Generated by new atomic code, or converted to UPF format
     Using radial grid of  921 points,  7 beta functions with:
                l(1) =   0
                l(2) =   0
                l(3) =   1
                l(4) =   1
                l(5) =   2
                l(6) =   2
                l(7) =   3
     Q(r) pseudized with  6 coefficients,  rinner =    1.300   1.300   1.300
                                                       1.300   1.300   1.300
                                                       1.300

     vdW kernel table read from file vdW_kernel_table
     MD5 check sum: 095c7af220d748ca6e76c0b4c6cfb241

     atomic species   valence    mass     pseudopotential
        Ir1           15.00   192.21700     Ir( 1.00)
        Ta1           13.00   180.94788     Ta( 1.00)

     48 Sym. Ops., with inversion, found (32 have fractional translation)

   Cartesian axes

     site n.     atom                  positions (alat units)
         1           Ir1 tau(   1) = (   0.0000000   0.0000000   0.0000000  )
         2           Ir1 tau(   2) = (   0.0000000   1.9649380   1.9649380  )
         3           Ir1 tau(   3) = (   1.9649380   0.0000000   1.9649380  )
         4           Ta1 tau(   4) = (   1.9649380   1.9649380   0.0000000  )

     number of k points=    84  Fermi-Dirac smearing, width (Ry)=  0.0073
                       cart. coord. in units 2pi/alat
        k(    1) = (   0.0000000   0.0000000   0.0000000), wk =   0.0011574
        k(    2) = (   0.0000000   0.0000000   0.0212051), wk =   0.0069444
        k(    3) = (   0.0000000   0.0000000   0.0424102), wk =   0.0069444
        k(    4) = (   0.0000000   0.0000000   0.0636152), wk =   0.0069444
        k(    5) = (   0.0000000   0.0000000   0.0848203), wk =   0.0069444
        k(    6) = (   0.0000000   0.0000000   0.1060254), wk =   0.0069444
        k(    7) = (   0.0000000   0.0000000  -0.1272305), wk =   0.0034722
        k(    8) = (   0.0000000   0.0212051   0.0212051), wk =   0.0138889
        k(    9) = (   0.0000000   0.0212051   0.0424102), wk =   0.0277778
        k(   10) = (   0.0000000   0.0212051   0.0636152), wk =   0.0277778
        k(   11) = (   0.0000000   0.0212051   0.0848203), wk =   0.0277778
        k(   12) = (   0.0000000   0.0212051   0.1060254), wk =   0.0277778
        k(   13) = (   0.0000000   0.0212051  -0.1272305), wk =   0.0138889
        k(   14) = (   0.0000000   0.0424102   0.0424102), wk =   0.0138889
        k(   15) = (   0.0000000   0.0424102   0.0636152), wk =   0.0277778
        k(   16) = (   0.0000000   0.0424102   0.0848203), wk =   0.0277778
        k(   17) = (   0.0000000   0.0424102   0.1060254), wk =   0.0277778
        k(   18) = (   0.0000000   0.0424102  -0.1272305), wk =   0.0138889
        k(   19) = (   0.0000000   0.0636152   0.0636152), wk =   0.0138889
        k(   20) = (   0.0000000   0.0636152   0.0848203), wk =   0.0277778
        k(   21) = (   0.0000000   0.0636152   0.1060254), wk =   0.0277778
        k(   22) = (   0.0000000   0.0636152  -0.1272305), wk =   0.0138889
        k(   23) = (   0.0000000   0.0848203   0.0848203), wk =   0.0138889
        k(   24) = (   0.0000000   0.0848203   0.1060254), wk =   0.0277778
        k(   25) = (   0.0000000   0.0848203  -0.1272305), wk =   0.0138889
        k(   26) = (   0.0000000   0.1060254   0.1060254), wk =   0.0138889
        k(   27) = (   0.0000000   0.1060254  -0.1272305), wk =   0.0138889
        k(   28) = (   0.0000000  -0.1272305  -0.1272305), wk =   0.0034722
        k(   29) = (   0.0212051   0.0212051   0.0212051), wk =   0.0092593
        k(   30) = (   0.0212051   0.0212051   0.0424102), wk =   0.0277778
        k(   31) = (   0.0212051   0.0212051   0.0636152), wk =   0.0277778
        k(   32) = (   0.0212051   0.0212051   0.0848203), wk =   0.0277778
        k(   33) = (   0.0212051   0.0212051   0.1060254), wk =   0.0277778
        k(   34) = (   0.0212051   0.0212051  -0.1272305), wk =   0.0138889
        k(   35) = (   0.0212051   0.0424102   0.0424102), wk =   0.0277778
        k(   36) = (   0.0212051   0.0424102   0.0636152), wk =   0.0555556
        k(   37) = (   0.0212051   0.0424102   0.0848203), wk =   0.0555556
        k(   38) = (   0.0212051   0.0424102   0.1060254), wk =   0.0555556
        k(   39) = (   0.0212051   0.0424102  -0.1272305), wk =   0.0277778
        k(   40) = (   0.0212051   0.0636152   0.0636152), wk =   0.0277778
        k(   41) = (   0.0212051   0.0636152   0.0848203), wk =   0.0555556
        k(   42) = (   0.0212051   0.0636152   0.1060254), wk =   0.0555556
        k(   43) = (   0.0212051   0.0636152  -0.1272305), wk =   0.0277778
        k(   44) = (   0.0212051   0.0848203   0.0848203), wk =   0.0277778
        k(   45) = (   0.0212051   0.0848203   0.1060254), wk =   0.0555556
        k(   46) = (   0.0212051   0.0848203  -0.1272305), wk =   0.0277778
        k(   47) = (   0.0212051   0.1060254   0.1060254), wk =   0.0277778
        k(   48) = (   0.0212051   0.1060254  -0.1272305), wk =   0.0277778
        k(   49) = (   0.0212051  -0.1272305  -0.1272305), wk =   0.0069444
        k(   50) = (   0.0424102   0.0424102   0.0424102), wk =   0.0092593
        k(   51) = (   0.0424102   0.0424102   0.0636152), wk =   0.0277778
        k(   52) = (   0.0424102   0.0424102   0.0848203), wk =   0.0277778
        k(   53) = (   0.0424102   0.0424102   0.1060254), wk =   0.0277778
        k(   54) = (   0.0424102   0.0424102  -0.1272305), wk =   0.0138889
        k(   55) = (   0.0424102   0.0636152   0.0636152), wk =   0.0277778
        k(   56) = (   0.0424102   0.0636152   0.0848203), wk =   0.0555556
        k(   57) = (   0.0424102   0.0636152   0.1060254), wk =   0.0555556
        k(   58) = (   0.0424102   0.0636152  -0.1272305), wk =   0.0277778
        k(   59) = (   0.0424102   0.0848203   0.0848203), wk =   0.0277778
        k(   60) = (   0.0424102   0.0848203   0.1060254), wk =   0.0555556
[...]
        k(   70) = (   0.0636152   0.0848203   0.1060254), wk =   0.0555556
        k(   71) = (   0.0636152   0.0848203  -0.1272305), wk =   0.0277778
        k(   72) = (   0.0636152   0.1060254   0.1060254), wk =   0.0277778
        k(   73) = (   0.0636152   0.1060254  -0.1272305), wk =   0.0277778
        k(   74) = (   0.0636152  -0.1272305  -0.1272305), wk =   0.0069444
        k(   75) = (   0.0848203   0.0848203   0.0848203), wk =   0.0092593
        k(   76) = (   0.0848203   0.0848203   0.1060254), wk =   0.0277778
        k(   77) = (   0.0848203   0.0848203  -0.1272305), wk =   0.0138889
        k(   78) = (   0.0848203   0.1060254   0.1060254), wk =   0.0277778
        k(   79) = (   0.0848203   0.1060254  -0.1272305), wk =   0.0277778
        k(   80) = (   0.0848203  -0.1272305  -0.1272305), wk =   0.0069444
        k(   81) = (   0.1060254   0.1060254   0.1060254), wk =   0.0092593
        k(   82) = (   0.1060254   0.1060254  -0.1272305), wk =   0.0138889
        k(   83) = (   0.1060254  -0.1272305  -0.1272305), wk =   0.0069444
        k(   84) = (  -0.1272305  -0.1272305  -0.1272305), wk =   0.0011574

     Largest allocated arrays     est. size (Mb)     dimensions
     Largest temporary arrays     est. size (Mb)     dimensions

     Initial potential from superposition of free atoms
     Check: negative starting charge=   -1.188399

     starting charge   56.49879, renormalised to   58.00000

     negative rho (up, down):  1.220E+00 0.000E+00

     *
     * You are using vdW-DF for exchange-correlation in this calculation.
     * Please cite the following three references that made this development
     * possible:
     *
     *   M. Dion, H. Rydberg, E. Schroder, D. C. Langreth, and
     *   B. I. Lundqvist, Phys. Rev. Lett. 92, 246401 (2004).
     *
     *   T. Thonhauser, V. R. Cooper, S. Li, A. Puzder, P. Hyldgaard, and
     *   D. C. Langreth, Phys. Rev. B 76, 125112 (2007).
     *
     *   G. Roman-Perez and J. M. Soler, Phys. Rev. Lett. 103, 096102 (2009).
     *
     *
     * If you are using vdW-DF2, please also cite:
     *
     *   K. Lee, E. D. Murray, L. Kong, B. I. Lundqvist, and
     *   D. C. Langreth, Phys. Rev. B 82, 081101(R) (2010).
     *
     *
     * If you are calculating the stress with vdW-DF, please also cite:
     *
     *   R. Sabatini, E. Kucukbenli, B. Kolb, T. Thonhauser, and
     *   S. de Gironcoli, J. Phys.: Condens. Matter 24, 424209 (2012).
     *

     Carrying out vdW-DF run using the following parameters:

     Nqs =      20    Nr_points =    1024   r_max =   100.000
     q_mesh =
               0.00001000     0.04494208     0.09755937     0.15916263
               0.23128650     0.31572767     0.41458969     0.53033537
               0.66584808     0.82450364     1.01025438     1.22772762
               1.48234092     1.78043706     2.12944203     2.53805004
               3.01644009     3.57652955     4.23227104     5.00000000

     Gradients computed in reciprocal space

     Starting wfc are   49 randomized atomic wfcs

     Self-consistent Calculation

     iteration #  1     ecut=    58.80 Ry     beta=0.10
     Davidson diagonalization with overlap
     ethr =  1.00E-02,  avg # of iterations =  4.9

[...]

     total energy              =    -694.04845569 Ry
     Harris-Foulkes estimate   =    -694.24403552 Ry
     estimated scf accuracy    <       3.33261144 Ry

[...]

     total energy              =    -693.54104619 Ry
     Harris-Foulkes estimate   =    -693.54104356 Ry
     estimated scf accuracy    <       0.00000003 Ry

     iteration # 13     ecut=    58.80 Ry     beta=0.10
     Davidson diagonalization with overlap
     ethr =  4.48E-11,  avg # of iterations =  1.2

     negative rho (up, down):  1.064E+00 0.000E+00

     End of self-consistent calculation

          k = 0.0000 0.0000 0.0000 (  3119 PWs)   bands (ev):

   -46.4363 -27.0268 -27.0268 -27.0268 -26.7893 -26.7893 -26.7893 -26.6137
   -26.6137 -26.6137 -12.7410 -12.7410 -12.7410  12.6573  15.7306  15.7306
    15.8351  16.3870  16.3870  16.3870  19.7331  19.7331  19.7331  22.0829
    22.0829  23.4309  24.0547  24.0547  24.0547  24.9285  24.9285  24.9285
    25.8417  25.8417  27.1599  27.1599  27.1599  33.5387  33.5387  33.5963
    33.5963  33.5963  33.7727  33.8966  33.8966  34.7040  35.0883  35.0883
    35.0883

[...]

          k = 0.1060-0.1272-0.1272 (  3132 PWs)   bands (ev):

[...]

          k =-0.1272-0.1272-0.1272 (  3112 PWs)   bands (ev):

   -46.4350 -27.1312 -27.0066 -27.0066 -27.0066 -26.6487 -26.6487 -26.6487
   -26.6155 -26.6155 -12.7574 -12.7574 -12.7574  15.5937  15.5937  15.5937
    15.7702  19.1207  19.1207  19.1207  19.6941  19.6941  19.6941  20.1541
    20.1541  22.3343  22.6278  22.6278  22.6278  23.5126  23.5126  23.5126
    25.4622  25.4622  25.4622  26.1872  26.1872  31.1795  31.1795  31.1795
    31.5837  33.7850  33.7850  33.7850  35.7277  35.7277  35.7277  36.0172
    40.9386

     the Fermi energy is    22.5598 ev

!    total energy              =    -693.54105723 Ry
     Harris-Foulkes estimate   =    -693.54104619 Ry
     estimated scf accuracy    <          2.3E-09 Ry

     The total energy is the sum of the following terms:

     one-electron contribution =     -44.25806224 Ry
     hartree contribution      =      70.76743267 Ry
     xc contribution           =    -199.92416555 Ry
     ewald contribution        =    -520.12265793 Ry
     smearing contrib. (-TS)   =      -0.00360418 Ry

     convergence has been achieved in  13 iterations

     Forces acting on atoms (Ry/au):

     negative rho (up, down):  1.064E+00 0.000E+00
     atom    1 type  1   force =     0.00000000    0.00000000    0.00000000
     atom    2 type  1   force =     0.00000000   -0.00000000    0.00000000
     atom    3 type  1   force =     0.00000000    0.00000000    0.00000000
     atom    4 type  2   force =     0.00000000    0.00000000   -0.00000000

     Total force =     0.000000     Total SCF correction =     0.000000
 !ASE

     General routines

     Parallel routines

   This run was terminated on:   5:10: 1  25Oct2017

   JOB DONE.