     Program PWSCF v.5.1rc2 (svn rev. ) starts on 31Oct2017 at 15: 0:13

     Current dimensions of program PWSCF are:
     Max number of different atomic species (ntypx) = 10
     Max number of k-points (npk) =  40000
     Max angular momentum in pseudopotentials (lmaxx) =  3

     IMPORTANT: XC functional enforced from input :
     Exchange-correlation      = BEEF-VDW ( 1  4 27 13 2)
     Any further DFT definition will be discarded
     Please, verify this is what you really want

     Subspace diagonalization in iterative solution of the eigenvalue problem:
     a serial algorithm will be used

     bravais-lattice index     =            0
     lattice parameter (alat)  =       1.8897  a.u.
     unit-cell volume          =     368.2510 (a.u.)^3
     number of atoms/cell      =            4
     number of atomic types    =            2
     number of electrons       =        65.00
     number of Kohn-Sham states=           52
     kinetic-energy cutoff     =      58.7989  Ry
     charge density cutoff     =     587.9892  Ry
     convergence threshold     =      7.3E-09
     mixing beta               =       0.1000
     number of iterations used =           10  local-TF  mixing
     Exchange-correlation      = BEEF-VDW ( 1  4 27 13 2)
     nstep                     =           50

     celldm(1)=   1.889726  celldm(2)=   0.000000  celldm(3)=   0.000000
     celldm(4)=   0.000000  celldm(5)=   0.000000  celldm(6)=   0.000000

     crystal axes: (cart. coord. in units of alat)
               a(1) = (   3.792996   0.000000   0.000000 )
               a(2) = (   0.000000   3.792996   0.000000 )
               a(3) = (   0.000000   0.000000   3.792996 )

     reciprocal axes: (cart. coord. in units 2 pi/alat)
               b(1) = (  0.263644  0.000000  0.000000 )
               b(2) = (  0.000000  0.263644  0.000000 )
               b(3) = (  0.000000  0.000000  0.263644 )

     PseudoPot. # 1 for Co read from file:
     /home/vossj/suncat/psp/gbrv1.5pbe/Co.UPF
     MD5 check sum: 5f91765df6ddd3222702df6e7b74a16d
     Pseudo is Ultrasoft + core correction, Zval = 17.0
     Generated by new atomic code, or converted to UPF format
     Using radial grid of  863 points,  6 beta functions with:
                l(1) =   0
                l(2) =   0
                l(3) =   1
                l(4) =   1
                l(5) =   2
                l(6) =   2
     Q(r) pseudized with  8 coefficients,  rinner =    1.200   1.200   1.200
                                                       1.200   1.200

     PseudoPot. # 2 for Pb read from file:
     /home/vossj/suncat/psp/gbrv1.5pbe/Pb.UPF
     MD5 check sum: 3d1c1779aa92214d1e8f3a7db79003e2
     Pseudo is Ultrasoft + core correction, Zval = 14.0
     Generated by new atomic code, or converted to UPF format
     Using radial grid of  899 points,  6 beta functions with:
                l(1) =   0
                l(2) =   0
                l(3) =   1
                l(4) =   1
                l(5) =   2
                l(6) =   2
     Q(r) pseudized with  6 coefficients,  rinner =    1.000   1.000   1.000
                                                       1.000   1.000

     vdW kernel table read from file vdW_kernel_table
     MD5 check sum: 095c7af220d748ca6e76c0b4c6cfb241

     atomic species   valence    mass     pseudopotential
        Co1           17.00    58.93319     Co( 1.00)
        Pb1           14.00   207.20000     Pb( 1.00)

     48 Sym. Ops., with inversion, found (32 have fractional translation)

   Cartesian axes

     site n.     atom                  positions (alat units)
         1           Co1 tau(   1) = (   0.0000000   0.0000000   0.0000000  )
         2           Co1 tau(   2) = (   0.0000000   1.8964982   1.8964982  )
         3           Co1 tau(   3) = (   1.8964982   0.0000000   1.8964982  )
         4           Pb1 tau(   4) = (   1.8964982   1.8964982   0.0000000  )

     number of k points=    84  Fermi-Dirac smearing, width (Ry)=  0.0073
                       cart. coord. in units 2pi/alat
        k(    1) = (   0.0000000   0.0000000   0.0000000), wk =   0.0011574
        k(    2) = (   0.0000000   0.0000000   0.0219703), wk =   0.0069444
        k(    3) = (   0.0000000   0.0000000   0.0439406), wk =   0.0069444
        k(    4) = (   0.0000000   0.0000000   0.0659110), wk =   0.0069444
        k(    5) = (   0.0000000   0.0000000   0.0878813), wk =   0.0069444
        k(    6) = (   0.0000000   0.0000000   0.1098516), wk =   0.0069444
        k(    7) = (   0.0000000   0.0000000  -0.1318219), wk =   0.0034722
        k(    8) = (   0.0000000   0.0219703   0.0219703), wk =   0.0138889
        k(    9) = (   0.0000000   0.0219703   0.0439406), wk =   0.0277778
        k(   10) = (   0.0000000   0.0219703   0.0659110), wk =   0.0277778
        k(   11) = (   0.0000000   0.0219703   0.0878813), wk =   0.0277778
        k(   12) = (   0.0000000   0.0219703   0.1098516), wk =   0.0277778
        k(   13) = (   0.0000000   0.0219703  -0.1318219), wk =   0.0138889
        k(   14) = (   0.0000000   0.0439406   0.0439406), wk =   0.0138889
        k(   15) = (   0.0000000   0.0439406   0.0659110), wk =   0.0277778
        k(   16) = (   0.0000000   0.0439406   0.0878813), wk =   0.0277778
        k(   17) = (   0.0000000   0.0439406   0.1098516), wk =   0.0277778
        k(   18) = (   0.0000000   0.0439406  -0.1318219), wk =   0.0138889
        k(   19) = (   0.0000000   0.0659110   0.0659110), wk =   0.0138889
        k(   20) = (   0.0000000   0.0659110   0.0878813), wk =   0.0277778
        k(   21) = (   0.0000000   0.0659110   0.1098516), wk =   0.0277778
        k(   22) = (   0.0000000   0.0659110  -0.1318219), wk =   0.0138889
        k(   23) = (   0.0000000   0.0878813   0.0878813), wk =   0.0138889
        k(   24) = (   0.0000000   0.0878813   0.1098516), wk =   0.0277778
        k(   25) = (   0.0000000   0.0878813  -0.1318219), wk =   0.0138889
        k(   26) = (   0.0000000   0.1098516   0.1098516), wk =   0.0138889
        k(   27) = (   0.0000000   0.1098516  -0.1318219), wk =   0.0138889
        k(   28) = (   0.0000000  -0.1318219  -0.1318219), wk =   0.0034722
        k(   29) = (   0.0219703   0.0219703   0.0219703), wk =   0.0092593
        k(   30) = (   0.0219703   0.0219703   0.0439406), wk =   0.0277778
        k(   31) = (   0.0219703   0.0219703   0.0659110), wk =   0.0277778
        k(   32) = (   0.0219703   0.0219703   0.0878813), wk =   0.0277778
        k(   33) = (   0.0219703   0.0219703   0.1098516), wk =   0.0277778
        k(   34) = (   0.0219703   0.0219703  -0.1318219), wk =   0.0138889
        k(   35) = (   0.0219703   0.0439406   0.0439406), wk =   0.0277778
        k(   36) = (   0.0219703   0.0439406   0.0659110), wk =   0.0555556
        k(   37) = (   0.0219703   0.0439406   0.0878813), wk =   0.0555556
        k(   38) = (   0.0219703   0.0439406   0.1098516), wk =   0.0555556
        k(   39) = (   0.0219703   0.0439406  -0.1318219), wk =   0.0277778
        k(   40) = (   0.0219703   0.0659110   0.0659110), wk =   0.0277778
        k(   41) = (   0.0219703   0.0659110   0.0878813), wk =   0.0555556
        k(   42) = (   0.0219703   0.0659110   0.1098516), wk =   0.0555556
        k(   43) = (   0.0219703   0.0659110  -0.1318219), wk =   0.0277778
        k(   44) = (   0.0219703   0.0878813   0.0878813), wk =   0.0277778
        k(   45) = (   0.0219703   0.0878813   0.1098516), wk =   0.0555556
        k(   46) = (   0.0219703   0.0878813  -0.1318219), wk =   0.0277778
        k(   47) = (   0.0219703   0.1098516   0.1098516), wk =   0.0277778
        k(   48) = (   0.0219703   0.1098516  -0.1318219), wk =   0.0277778
        k(   49) = (   0.0219703  -0.1318219  -0.1318219), wk =   0.0069444
        k(   50) = (   0.0439406   0.0439406   0.0439406), wk =   0.0092593
        k(   51) = (   0.0439406   0.0439406   0.0659110), wk =   0.0277778
        k(   52) = (   0.0439406   0.0439406   0.0878813), wk =   0.0277778
        k(   53) = (   0.0439406   0.0439406   0.1098516), wk =   0.0277778
        k(   54) = (   0.0439406   0.0439406  -0.1318219), wk =   0.0138889
        k(   55) = (   0.0439406   0.0659110   0.0659110), wk =   0.0277778
        k(   56) = (   0.0439406   0.0659110   0.0878813), wk =   0.0555556
        k(   57) = (   0.0439406   0.0659110   0.1098516), wk =   0.0555556
        k(   58) = (   0.0439406   0.0659110  -0.1318219), wk =   0.0277778
        k(   59) = (   0.0439406   0.0878813   0.0878813), wk =   0.0277778
        k(   60) = (   0.0439406   0.0878813   0.1098516), wk =   0.0555556
[...]
        k(   70) = (   0.0659110   0.0878813   0.1098516), wk =   0.0555556
        k(   71) = (   0.0659110   0.0878813  -0.1318219), wk =   0.0277778
        k(   72) = (   0.0659110   0.1098516   0.1098516), wk =   0.0277778
        k(   73) = (   0.0659110   0.1098516  -0.1318219), wk =   0.0277778
        k(   74) = (   0.0659110  -0.1318219  -0.1318219), wk =   0.0069444
        k(   75) = (   0.0878813   0.0878813   0.0878813), wk =   0.0092593
        k(   76) = (   0.0878813   0.0878813   0.1098516), wk =   0.0277778
        k(   77) = (   0.0878813   0.0878813  -0.1318219), wk =   0.0138889
        k(   78) = (   0.0878813   0.1098516   0.1098516), wk =   0.0277778
        k(   79) = (   0.0878813   0.1098516  -0.1318219), wk =   0.0277778
        k(   80) = (   0.0878813  -0.1318219  -0.1318219), wk =   0.0069444
        k(   81) = (   0.1098516   0.1098516   0.1098516), wk =   0.0092593
        k(   82) = (   0.1098516   0.1098516  -0.1318219), wk =   0.0138889
        k(   83) = (   0.1098516  -0.1318219  -0.1318219), wk =   0.0069444
        k(   84) = (  -0.1318219  -0.1318219  -0.1318219), wk =   0.0011574

     Largest allocated arrays     est. size (Mb)     dimensions
     Largest temporary arrays     est. size (Mb)     dimensions

     Check: negative/imaginary core charge=   -0.000027    0.000000

     Initial potential from superposition of free atoms
     Check: negative starting charge=   -0.015688

     starting charge   61.99763, renormalised to   65.00000

     negative rho (up, down):  1.645E-02 0.000E+00

     *
     * You are using vdW-DF for exchange-correlation in this calculation.
     * Please cite the following three references that made this development
     * possible:
     *
     *   M. Dion, H. Rydberg, E. Schroder, D. C. Langreth, and
     *   B. I. Lundqvist, Phys. Rev. Lett. 92, 246401 (2004).
     *
     *   T. Thonhauser, V. R. Cooper, S. Li, A. Puzder, P. Hyldgaard, and
     *   D. C. Langreth, Phys. Rev. B 76, 125112 (2007).
     *
     *   G. Roman-Perez and J. M. Soler, Phys. Rev. Lett. 103, 096102 (2009).
     *
     *
     * If you are using vdW-DF2, please also cite:
     *
     *   K. Lee, E. D. Murray, L. Kong, B. I. Lundqvist, and
     *   D. C. Langreth, Phys. Rev. B 82, 081101(R) (2010).
     *
     *
     * If you are calculating the stress with vdW-DF, please also cite:
     *
     *   R. Sabatini, E. Kucukbenli, B. Kolb, T. Thonhauser, and
     *   S. de Gironcoli, J. Phys.: Condens. Matter 24, 424209 (2012).
     *

     Carrying out vdW-DF run using the following parameters:

     Nqs =      20    Nr_points =    1024   r_max =   100.000
     q_mesh =
               0.00001000     0.04494208     0.09755937     0.15916263
               0.23128650     0.31572767     0.41458969     0.53033537
               0.66584808     0.82450364     1.01025438     1.22772762
               1.48234092     1.78043706     2.12944203     2.53805004
               3.01644009     3.57652955     4.23227104     5.00000000

     Gradients computed in reciprocal space

     Starting wfc are   48 randomized atomic wfcs +    4 random wfc

     Self-consistent Calculation

     iteration #  1     ecut=    58.80 Ry     beta=0.10
     Davidson diagonalization with overlap
     ethr =  1.00E-02,  avg # of iterations =  4.3

[...]

     total energy              =   -1066.32276254 Ry
     Harris-Foulkes estimate   =   -1067.63752131 Ry
     estimated scf accuracy    <      17.61285017 Ry

[...]

     total energy              =   -1064.52983604 Ry
     Harris-Foulkes estimate   =   -1064.52981127 Ry
     estimated scf accuracy    <       0.00000007 Ry

     iteration # 14     ecut=    58.80 Ry     beta=0.10
     Davidson diagonalization with overlap
     ethr =  3.78E-11,  avg # of iterations =  2.0

     negative rho (up, down):  1.945E-02 0.000E+00

     End of self-consistent calculation

          k = 0.0000 0.0000 0.0000 (  2801 PWs)   bands (ev):

   -77.4332 -77.4130 -77.4130 -40.7930 -40.7930 -40.7930 -40.7363 -40.7363
   -40.7363 -40.6922 -40.6922 -40.6922  -0.1020  -0.1020   0.0254   0.0254
     0.0254   5.3806  13.3626  14.6183  14.6183  14.8179  14.8179  14.8179
    16.4506  16.4506  16.4506  16.9278  16.9278  16.9278  17.0092  17.0092
    17.3407  17.5928  17.5928  17.5928  20.8081  24.0219  24.0219  27.5941
    27.5941  27.5941  27.9454  27.9454  27.9454  28.1353  33.3451  33.5162
    33.5162  33.5162  35.7587  35.7593

[...]

          k = 0.1099-0.1318-0.1318 (  2828 PWs)   bands (ev):

[...]

          k =-0.1318-0.1318-0.1318 (  2800 PWs)   bands (ev):

   -77.4196 -77.4196 -77.4196 -40.8180 -40.7875 -40.7875 -40.7875 -40.7015
   -40.7015 -40.7015 -40.6934 -40.6934  -0.0682  -0.0682  -0.0682   0.1538
     0.1538   8.5602  14.2255  14.2255  14.2255  14.2320  14.2320  14.2320
    15.6970  15.6970  15.6970  16.4648  16.4648  16.4648  16.6559  16.6559
    16.8916  17.4028  17.4028  17.4028  18.0897  21.3343  21.3343  21.3343
    28.1346  33.1298  33.1298  33.1298  34.7759  35.1833  35.1833  35.1833
    35.8233  35.8233  35.8233  37.9771

     the Fermi energy is    17.0537 ev

!    total energy              =   -1064.52994132 Ry
     Harris-Foulkes estimate   =   -1064.52983606 Ry
     estimated scf accuracy    <          4.1E-09 Ry

     The total energy is the sum of the following terms:

     one-electron contribution =    -534.30540852 Ry
     hartree contribution      =     314.49994405 Ry
     xc contribution           =    -166.94598567 Ry
     ewald contribution        =    -677.75768237 Ry
     smearing contrib. (-TS)   =      -0.02080882 Ry

     convergence has been achieved in  14 iterations

     Forces acting on atoms (Ry/au):

     negative rho (up, down):  1.945E-02 0.000E+00
     atom    1 type  1   force =     0.00000000    0.00000000    0.00000000
     atom    2 type  1   force =     0.00000000    0.00000000    0.00000000
     atom    3 type  1   force =     0.00000000    0.00000000   -0.00000000
     atom    4 type  2   force =     0.00000000    0.00000000    0.00000000

     Total force =     0.000000     Total SCF correction =     0.000000
 !ASE

     General routines

     Parallel routines

   This run was terminated on:  15: 1:13  31Oct2017

   JOB DONE.