     Program PWSCF v.5.1rc2 (svn rev. ) starts on 24Oct2017 at 23:41: 3

     Current dimensions of program PWSCF are:
     Max number of different atomic species (ntypx) = 10
     Max number of k-points (npk) =  40000
     Max angular momentum in pseudopotentials (lmaxx) =  3

     IMPORTANT: XC functional enforced from input :
     Exchange-correlation      = BEEF-VDW ( 1  4 27 13 2)
     Any further DFT definition will be discarded
     Please, verify this is what you really want

     Subspace diagonalization in iterative solution of the eigenvalue problem:
     a serial algorithm will be used

     bravais-lattice index     =            0
     lattice parameter (alat)  =       1.8897  a.u.
     unit-cell volume          =     395.5632 (a.u.)^3
     number of atoms/cell      =            4
     number of atomic types    =            2
     number of electrons       =        61.00
     number of Kohn-Sham states=           50
     kinetic-energy cutoff     =      58.7989  Ry
     charge density cutoff     =     587.9892  Ry
     convergence threshold     =      7.3E-09
     mixing beta               =       0.1000
     number of iterations used =           10  local-TF  mixing
     Exchange-correlation      = BEEF-VDW ( 1  4 27 13 2)
     nstep                     =           50

     celldm(1)=   1.889726  celldm(2)=   0.000000  celldm(3)=   0.000000
     celldm(4)=   0.000000  celldm(5)=   0.000000  celldm(6)=   0.000000

     crystal axes: (cart. coord. in units of alat)
               a(1) = (   3.884541   0.000000   0.000000 )
               a(2) = (   0.000000   3.884541   0.000000 )
               a(3) = (   0.000000   0.000000   3.884541 )

     reciprocal axes: (cart. coord. in units 2 pi/alat)
               b(1) = (  0.257431  0.000000  0.000000 )
               b(2) = (  0.000000  0.257431  0.000000 )
               b(3) = (  0.000000  0.000000  0.257431 )

     PseudoPot. # 1 for Tc read from file:
     /home/vossj/suncat/psp/gbrv1.5pbe/Tc.UPF
     MD5 check sum: 9eb49e5b028550b2339a02317eb7b844
     Pseudo is Ultrasoft + core correction, Zval = 15.0
     Generated by new atomic code, or converted to UPF format
     Using radial grid of  965 points,  6 beta functions with:
                l(1) =   0
                l(2) =   0
                l(3) =   1
                l(4) =   1
                l(5) =   2
                l(6) =   2
     Q(r) pseudized with  8 coefficients,  rinner =    1.300   1.300   1.300
                                                       1.300   1.300

     PseudoPot. # 2 for Pd read from file:
     /home/vossj/suncat/psp/gbrv1.5pbe/Pd.UPF
     MD5 check sum: 2d733d2bc2cbfd217af676df1668a4bc
     Pseudo is Ultrasoft + core correction, Zval = 16.0
     Generated by new atomic code, or converted to UPF format
     Using radial grid of  887 points,  6 beta functions with:
                l(1) =   0
                l(2) =   0
                l(3) =   1
                l(4) =   1
                l(5) =   2
                l(6) =   2
     Q(r) pseudized with  8 coefficients,  rinner =    1.130   1.130   1.130
                                                       1.130   1.130

     vdW kernel table read from file vdW_kernel_table
     MD5 check sum: 095c7af220d748ca6e76c0b4c6cfb241

     atomic species   valence    mass     pseudopotential
        Tc1           15.00    97.90721     Tc( 1.00)
        Pd1           16.00   106.42000     Pd( 1.00)

     48 Sym. Ops., with inversion, found (32 have fractional translation)

   Cartesian axes

     site n.     atom                  positions (alat units)
         1           Tc1 tau(   1) = (   0.0000000   0.0000000   0.0000000  )
         2           Tc1 tau(   2) = (   0.0000000   1.9422707   1.9422707  )
         3           Tc1 tau(   3) = (   1.9422707   0.0000000   1.9422707  )
         4           Pd1 tau(   4) = (   1.9422707   1.9422707   0.0000000  )

     number of k points=    84  Fermi-Dirac smearing, width (Ry)=  0.0073
                       cart. coord. in units 2pi/alat
        k(    1) = (   0.0000000   0.0000000   0.0000000), wk =   0.0011574
        k(    2) = (   0.0000000   0.0000000   0.0214526), wk =   0.0069444
        k(    3) = (   0.0000000   0.0000000   0.0429051), wk =   0.0069444
        k(    4) = (   0.0000000   0.0000000   0.0643577), wk =   0.0069444
        k(    5) = (   0.0000000   0.0000000   0.0858102), wk =   0.0069444
        k(    6) = (   0.0000000   0.0000000   0.1072628), wk =   0.0069444
        k(    7) = (   0.0000000   0.0000000  -0.1287153), wk =   0.0034722
        k(    8) = (   0.0000000   0.0214526   0.0214526), wk =   0.0138889
        k(    9) = (   0.0000000   0.0214526   0.0429051), wk =   0.0277778
        k(   10) = (   0.0000000   0.0214526   0.0643577), wk =   0.0277778
        k(   11) = (   0.0000000   0.0214526   0.0858102), wk =   0.0277778
        k(   12) = (   0.0000000   0.0214526   0.1072628), wk =   0.0277778
        k(   13) = (   0.0000000   0.0214526  -0.1287153), wk =   0.0138889
        k(   14) = (   0.0000000   0.0429051   0.0429051), wk =   0.0138889
        k(   15) = (   0.0000000   0.0429051   0.0643577), wk =   0.0277778
        k(   16) = (   0.0000000   0.0429051   0.0858102), wk =   0.0277778
        k(   17) = (   0.0000000   0.0429051   0.1072628), wk =   0.0277778
        k(   18) = (   0.0000000   0.0429051  -0.1287153), wk =   0.0138889
        k(   19) = (   0.0000000   0.0643577   0.0643577), wk =   0.0138889
        k(   20) = (   0.0000000   0.0643577   0.0858102), wk =   0.0277778
        k(   21) = (   0.0000000   0.0643577   0.1072628), wk =   0.0277778
        k(   22) = (   0.0000000   0.0643577  -0.1287153), wk =   0.0138889
        k(   23) = (   0.0000000   0.0858102   0.0858102), wk =   0.0138889
        k(   24) = (   0.0000000   0.0858102   0.1072628), wk =   0.0277778
        k(   25) = (   0.0000000   0.0858102  -0.1287153), wk =   0.0138889
        k(   26) = (   0.0000000   0.1072628   0.1072628), wk =   0.0138889
        k(   27) = (   0.0000000   0.1072628  -0.1287153), wk =   0.0138889
        k(   28) = (   0.0000000  -0.1287153  -0.1287153), wk =   0.0034722
        k(   29) = (   0.0214526   0.0214526   0.0214526), wk =   0.0092593
        k(   30) = (   0.0214526   0.0214526   0.0429051), wk =   0.0277778
        k(   31) = (   0.0214526   0.0214526   0.0643577), wk =   0.0277778
        k(   32) = (   0.0214526   0.0214526   0.0858102), wk =   0.0277778
        k(   33) = (   0.0214526   0.0214526   0.1072628), wk =   0.0277778
        k(   34) = (   0.0214526   0.0214526  -0.1287153), wk =   0.0138889
        k(   35) = (   0.0214526   0.0429051   0.0429051), wk =   0.0277778
        k(   36) = (   0.0214526   0.0429051   0.0643577), wk =   0.0555556
        k(   37) = (   0.0214526   0.0429051   0.0858102), wk =   0.0555556
        k(   38) = (   0.0214526   0.0429051   0.1072628), wk =   0.0555556
        k(   39) = (   0.0214526   0.0429051  -0.1287153), wk =   0.0277778
        k(   40) = (   0.0214526   0.0643577   0.0643577), wk =   0.0277778
        k(   41) = (   0.0214526   0.0643577   0.0858102), wk =   0.0555556
        k(   42) = (   0.0214526   0.0643577   0.1072628), wk =   0.0555556
        k(   43) = (   0.0214526   0.0643577  -0.1287153), wk =   0.0277778
        k(   44) = (   0.0214526   0.0858102   0.0858102), wk =   0.0277778
        k(   45) = (   0.0214526   0.0858102   0.1072628), wk =   0.0555556
        k(   46) = (   0.0214526   0.0858102  -0.1287153), wk =   0.0277778
        k(   47) = (   0.0214526   0.1072628   0.1072628), wk =   0.0277778
        k(   48) = (   0.0214526   0.1072628  -0.1287153), wk =   0.0277778
        k(   49) = (   0.0214526  -0.1287153  -0.1287153), wk =   0.0069444
        k(   50) = (   0.0429051   0.0429051   0.0429051), wk =   0.0092593
        k(   51) = (   0.0429051   0.0429051   0.0643577), wk =   0.0277778
        k(   52) = (   0.0429051   0.0429051   0.0858102), wk =   0.0277778
        k(   53) = (   0.0429051   0.0429051   0.1072628), wk =   0.0277778
        k(   54) = (   0.0429051   0.0429051  -0.1287153), wk =   0.0138889
        k(   55) = (   0.0429051   0.0643577   0.0643577), wk =   0.0277778
        k(   56) = (   0.0429051   0.0643577   0.0858102), wk =   0.0555556
        k(   57) = (   0.0429051   0.0643577   0.1072628), wk =   0.0555556
        k(   58) = (   0.0429051   0.0643577  -0.1287153), wk =   0.0277778
        k(   59) = (   0.0429051   0.0858102   0.0858102), wk =   0.0277778
        k(   60) = (   0.0429051   0.0858102   0.1072628), wk =   0.0555556
[...]
        k(   70) = (   0.0643577   0.0858102   0.1072628), wk =   0.0555556
        k(   71) = (   0.0643577   0.0858102  -0.1287153), wk =   0.0277778
        k(   72) = (   0.0643577   0.1072628   0.1072628), wk =   0.0277778
        k(   73) = (   0.0643577   0.1072628  -0.1287153), wk =   0.0277778
        k(   74) = (   0.0643577  -0.1287153  -0.1287153), wk =   0.0069444
        k(   75) = (   0.0858102   0.0858102   0.0858102), wk =   0.0092593
        k(   76) = (   0.0858102   0.0858102   0.1072628), wk =   0.0277778
        k(   77) = (   0.0858102   0.0858102  -0.1287153), wk =   0.0138889
        k(   78) = (   0.0858102   0.1072628   0.1072628), wk =   0.0277778
        k(   79) = (   0.0858102   0.1072628  -0.1287153), wk =   0.0277778
        k(   80) = (   0.0858102  -0.1287153  -0.1287153), wk =   0.0069444
        k(   81) = (   0.1072628   0.1072628   0.1072628), wk =   0.0092593
        k(   82) = (   0.1072628   0.1072628  -0.1287153), wk =   0.0138889
        k(   83) = (   0.1072628  -0.1287153  -0.1287153), wk =   0.0069444
        k(   84) = (  -0.1287153  -0.1287153  -0.1287153), wk =   0.0011574

     Largest allocated arrays     est. size (Mb)     dimensions
     Largest temporary arrays     est. size (Mb)     dimensions

     Check: negative/imaginary core charge=   -0.000008    0.000000

     Initial potential from superposition of free atoms
     Check: negative starting charge=   -0.449916

     starting charge   57.49991, renormalised to   61.00000

     negative rho (up, down):  4.773E-01 0.000E+00

     *
     * You are using vdW-DF for exchange-correlation in this calculation.
     * Please cite the following three references that made this development
     * possible:
     *
     *   M. Dion, H. Rydberg, E. Schroder, D. C. Langreth, and
     *   B. I. Lundqvist, Phys. Rev. Lett. 92, 246401 (2004).
     *
     *   T. Thonhauser, V. R. Cooper, S. Li, A. Puzder, P. Hyldgaard, and
     *   D. C. Langreth, Phys. Rev. B 76, 125112 (2007).
     *
     *   G. Roman-Perez and J. M. Soler, Phys. Rev. Lett. 103, 096102 (2009).
     *
     *
     * If you are using vdW-DF2, please also cite:
     *
     *   K. Lee, E. D. Murray, L. Kong, B. I. Lundqvist, and
     *   D. C. Langreth, Phys. Rev. B 82, 081101(R) (2010).
     *
     *
     * If you are calculating the stress with vdW-DF, please also cite:
     *
     *   R. Sabatini, E. Kucukbenli, B. Kolb, T. Thonhauser, and
     *   S. de Gironcoli, J. Phys.: Condens. Matter 24, 424209 (2012).
     *

     Carrying out vdW-DF run using the following parameters:

     Nqs =      20    Nr_points =    1024   r_max =   100.000
     q_mesh =
               0.00001000     0.04494208     0.09755937     0.15916263
               0.23128650     0.31572767     0.41458969     0.53033537
               0.66584808     0.82450364     1.01025438     1.22772762
               1.48234092     1.78043706     2.12944203     2.53805004
               3.01644009     3.57652955     4.23227104     5.00000000

     Gradients computed in reciprocal space

     Starting wfc are   51 randomized atomic wfcs

     Self-consistent Calculation

     iteration #  1     ecut=    58.80 Ry     beta=0.10
     Davidson diagonalization with overlap
     ethr =  1.00E-02,  avg # of iterations =  4.5

[...]

     total energy              =    -727.34592661 Ry
     Harris-Foulkes estimate   =    -728.35846262 Ry
     estimated scf accuracy    <      18.89572751 Ry

[...]

     total energy              =    -725.77336828 Ry
     Harris-Foulkes estimate   =    -725.77336782 Ry
     estimated scf accuracy    <          8.0E-09 Ry

     iteration # 14     ecut=    58.80 Ry     beta=0.10
     Davidson diagonalization with overlap
     ethr =  1.31E-11,  avg # of iterations =  2.1

     negative rho (up, down):  4.736E-01 0.000E+00

     End of self-consistent calculation

          k = 0.0000 0.0000 0.0000 (  2969 PWs)   bands (ev):

   -45.9847 -45.7885 -45.7885 -29.7841 -29.7841 -29.7841 -18.2558 -18.2558
   -18.2558 -17.7794 -17.7794 -17.7794 -17.4963 -17.4963 -17.4963  13.8536
    15.3027  15.3027  15.5065  15.7759  15.7759  15.7759  18.7988  18.7988
    18.7988  20.6438  20.6438  22.7764  22.7764  22.7764  23.0722  23.0722
    23.8924  24.4722  24.4722  24.4722  24.8045  24.8045  24.8045  33.6574
    33.6574  33.6574  33.9019  34.4131  34.4131  34.9191  34.9191  34.9191
    36.0063  41.3372

[...]

          k = 0.1073-0.1287-0.1287 (  3048 PWs)   bands (ev):

[...]

          k =-0.1287-0.1287-0.1287 (  3016 PWs)   bands (ev):

   -45.8528 -45.8528 -45.8528 -29.7880 -29.7880 -29.7880 -18.5234 -18.1787
   -18.1787 -18.1787 -17.5282 -17.5282 -17.5203 -17.5203 -17.5203  15.6132
    15.6132  15.6132  15.6658  17.8056  17.8056  18.6357  18.6357  18.6357
    19.3995  19.3995  19.3995  22.2139  22.2139  22.2139  22.5412  22.5412
    22.5412  22.6042  22.8648  22.8648  23.9374  23.9374  23.9374  30.2655
    31.1143  31.1143  31.1143  35.4461  35.6322  35.6322  35.6322  40.6869
    40.6869  40.6869

     the Fermi energy is    21.3922 ev

!    total energy              =    -725.77337026 Ry
     Harris-Foulkes estimate   =    -725.77336829 Ry
     estimated scf accuracy    <          3.1E-09 Ry

     The total energy is the sum of the following terms:

     one-electron contribution =    -116.78324535 Ry
     hartree contribution      =     104.22936867 Ry
     xc contribution           =    -131.96446728 Ry
     ewald contribution        =    -581.24536771 Ry
     smearing contrib. (-TS)   =      -0.00965858 Ry

     convergence has been achieved in  14 iterations

     Forces acting on atoms (Ry/au):

     negative rho (up, down):  4.736E-01 0.000E+00
     atom    1 type  1   force =     0.00000000    0.00000000    0.00000000
     atom    2 type  1   force =     0.00000000    0.00000000    0.00000000
     atom    3 type  1   force =     0.00000000    0.00000000    0.00000000
     atom    4 type  2   force =     0.00000000    0.00000000    0.00000000

     Total force =     0.000000     Total SCF correction =     0.000000
 !ASE

     General routines

     Parallel routines

   This run was terminated on:  23:41:58  24Oct2017

   JOB DONE.