     Program PWSCF v.5.1rc2 (svn rev. ) starts on 26Oct2017 at  0:48:59

     Current dimensions of program PWSCF are:
     Max number of different atomic species (ntypx) = 10
     Max number of k-points (npk) =  40000
     Max angular momentum in pseudopotentials (lmaxx) =  3

     IMPORTANT: XC functional enforced from input :
     Exchange-correlation      = BEEF-VDW ( 1  4 27 13 2)
     Any further DFT definition will be discarded
     Please, verify this is what you really want

     Subspace diagonalization in iterative solution of the eigenvalue problem:
     a serial algorithm will be used

     bravais-lattice index     =            0
     lattice parameter (alat)  =       1.8897  a.u.
     unit-cell volume          =     596.0048 (a.u.)^3
     number of atoms/cell      =            4
     number of atomic types    =            2
     number of electrons       =        57.00
     number of Kohn-Sham states=           48
     kinetic-energy cutoff     =      58.7989  Ry
     charge density cutoff     =     587.9892  Ry
     convergence threshold     =      7.3E-09
     mixing beta               =       0.1000
     number of iterations used =           10  local-TF  mixing
     Exchange-correlation      = BEEF-VDW ( 1  4 27 13 2)
     nstep                     =           50

     celldm(1)=   1.889726  celldm(2)=   0.000000  celldm(3)=   0.000000
     celldm(4)=   0.000000  celldm(5)=   0.000000  celldm(6)=   0.000000

     crystal axes: (cart. coord. in units of alat)
               a(1) = (   4.453325   0.000000   0.000000 )
               a(2) = (   0.000000   4.453325   0.000000 )
               a(3) = (   0.000000   0.000000   4.453325 )

     reciprocal axes: (cart. coord. in units 2 pi/alat)
               b(1) = (  0.224551  0.000000  0.000000 )
               b(2) = (  0.000000  0.224551  0.000000 )
               b(3) = (  0.000000  0.000000  0.224551 )

     PseudoPot. # 1 for Sn read from file:
     /home/vossj/suncat/psp/gbrv1.5pbe/Sn.UPF
     MD5 check sum: 469debedee59599fedebd795477fea03
     Pseudo is Ultrasoft + core correction, Zval = 14.0
     Generated by new atomic code, or converted to UPF format
     Using radial grid of  891 points,  6 beta functions with:
                l(1) =   0
                l(2) =   0
                l(3) =   1
                l(4) =   1
                l(5) =   2
                l(6) =   2
     Q(r) pseudized with  8 coefficients,  rinner =    1.350   1.350   1.350
                                                       1.350   1.350

     PseudoPot. # 2 for Re read from file:
     /home/vossj/suncat/psp/gbrv1.5pbe/Re.UPF
     MD5 check sum: 85f993410f3e006da9d71c142b4ad953
     Pseudo is Ultrasoft + core correction, Zval = 15.0
     Generated by new atomic code, or converted to UPF format
     Using radial grid of  981 points,  8 beta functions with:
                l(1) =   0
                l(2) =   0
                l(3) =   1
                l(4) =   1
                l(5) =   2
                l(6) =   2
                l(7) =   3
                l(8) =   3
     Q(r) pseudized with  8 coefficients,  rinner =    1.150   1.150   1.150
                                                       1.150   1.150   1.150
                                                       1.150

     vdW kernel table read from file vdW_kernel_table
     MD5 check sum: 095c7af220d748ca6e76c0b4c6cfb241

     atomic species   valence    mass     pseudopotential
        Sn1           14.00   118.71000     Sn( 1.00)
        Re1           15.00   186.20700     Re( 1.00)

     48 Sym. Ops., with inversion, found (32 have fractional translation)

   Cartesian axes

     site n.     atom                  positions (alat units)
         1           Sn1 tau(   1) = (   0.0000000   0.0000000   0.0000000  )
         2           Sn1 tau(   2) = (   0.0000000   2.2266625   2.2266625  )
         3           Sn1 tau(   3) = (   2.2266625   0.0000000   2.2266625  )
         4           Re1 tau(   4) = (   2.2266625   2.2266625   0.0000000  )

     number of k points=    84  Fermi-Dirac smearing, width (Ry)=  0.0073
                       cart. coord. in units 2pi/alat
        k(    1) = (   0.0000000   0.0000000   0.0000000), wk =   0.0011574
        k(    2) = (   0.0000000   0.0000000   0.0187126), wk =   0.0069444
        k(    3) = (   0.0000000   0.0000000   0.0374252), wk =   0.0069444
        k(    4) = (   0.0000000   0.0000000   0.0561378), wk =   0.0069444
        k(    5) = (   0.0000000   0.0000000   0.0748504), wk =   0.0069444
        k(    6) = (   0.0000000   0.0000000   0.0935630), wk =   0.0069444
        k(    7) = (   0.0000000   0.0000000  -0.1122757), wk =   0.0034722
        k(    8) = (   0.0000000   0.0187126   0.0187126), wk =   0.0138889
        k(    9) = (   0.0000000   0.0187126   0.0374252), wk =   0.0277778
        k(   10) = (   0.0000000   0.0187126   0.0561378), wk =   0.0277778
        k(   11) = (   0.0000000   0.0187126   0.0748504), wk =   0.0277778
        k(   12) = (   0.0000000   0.0187126   0.0935630), wk =   0.0277778
        k(   13) = (   0.0000000   0.0187126  -0.1122757), wk =   0.0138889
        k(   14) = (   0.0000000   0.0374252   0.0374252), wk =   0.0138889
        k(   15) = (   0.0000000   0.0374252   0.0561378), wk =   0.0277778
        k(   16) = (   0.0000000   0.0374252   0.0748504), wk =   0.0277778
        k(   17) = (   0.0000000   0.0374252   0.0935630), wk =   0.0277778
        k(   18) = (   0.0000000   0.0374252  -0.1122757), wk =   0.0138889
        k(   19) = (   0.0000000   0.0561378   0.0561378), wk =   0.0138889
        k(   20) = (   0.0000000   0.0561378   0.0748504), wk =   0.0277778
        k(   21) = (   0.0000000   0.0561378   0.0935630), wk =   0.0277778
        k(   22) = (   0.0000000   0.0561378  -0.1122757), wk =   0.0138889
        k(   23) = (   0.0000000   0.0748504   0.0748504), wk =   0.0138889
        k(   24) = (   0.0000000   0.0748504   0.0935630), wk =   0.0277778
        k(   25) = (   0.0000000   0.0748504  -0.1122757), wk =   0.0138889
        k(   26) = (   0.0000000   0.0935630   0.0935630), wk =   0.0138889
        k(   27) = (   0.0000000   0.0935630  -0.1122757), wk =   0.0138889
        k(   28) = (   0.0000000  -0.1122757  -0.1122757), wk =   0.0034722
        k(   29) = (   0.0187126   0.0187126   0.0187126), wk =   0.0092593
        k(   30) = (   0.0187126   0.0187126   0.0374252), wk =   0.0277778
        k(   31) = (   0.0187126   0.0187126   0.0561378), wk =   0.0277778
        k(   32) = (   0.0187126   0.0187126   0.0748504), wk =   0.0277778
        k(   33) = (   0.0187126   0.0187126   0.0935630), wk =   0.0277778
        k(   34) = (   0.0187126   0.0187126  -0.1122757), wk =   0.0138889
        k(   35) = (   0.0187126   0.0374252   0.0374252), wk =   0.0277778
        k(   36) = (   0.0187126   0.0374252   0.0561378), wk =   0.0555556
        k(   37) = (   0.0187126   0.0374252   0.0748504), wk =   0.0555556
        k(   38) = (   0.0187126   0.0374252   0.0935630), wk =   0.0555556
        k(   39) = (   0.0187126   0.0374252  -0.1122757), wk =   0.0277778
        k(   40) = (   0.0187126   0.0561378   0.0561378), wk =   0.0277778
        k(   41) = (   0.0187126   0.0561378   0.0748504), wk =   0.0555556
        k(   42) = (   0.0187126   0.0561378   0.0935630), wk =   0.0555556
        k(   43) = (   0.0187126   0.0561378  -0.1122757), wk =   0.0277778
        k(   44) = (   0.0187126   0.0748504   0.0748504), wk =   0.0277778
        k(   45) = (   0.0187126   0.0748504   0.0935630), wk =   0.0555556
        k(   46) = (   0.0187126   0.0748504  -0.1122757), wk =   0.0277778
        k(   47) = (   0.0187126   0.0935630   0.0935630), wk =   0.0277778
        k(   48) = (   0.0187126   0.0935630  -0.1122757), wk =   0.0277778
        k(   49) = (   0.0187126  -0.1122757  -0.1122757), wk =   0.0069444
        k(   50) = (   0.0374252   0.0374252   0.0374252), wk =   0.0092593
        k(   51) = (   0.0374252   0.0374252   0.0561378), wk =   0.0277778
        k(   52) = (   0.0374252   0.0374252   0.0748504), wk =   0.0277778
        k(   53) = (   0.0374252   0.0374252   0.0935630), wk =   0.0277778
        k(   54) = (   0.0374252   0.0374252  -0.1122757), wk =   0.0138889
        k(   55) = (   0.0374252   0.0561378   0.0561378), wk =   0.0277778
        k(   56) = (   0.0374252   0.0561378   0.0748504), wk =   0.0555556
        k(   57) = (   0.0374252   0.0561378   0.0935630), wk =   0.0555556
        k(   58) = (   0.0374252   0.0561378  -0.1122757), wk =   0.0277778
        k(   59) = (   0.0374252   0.0748504   0.0748504), wk =   0.0277778
        k(   60) = (   0.0374252   0.0748504   0.0935630), wk =   0.0555556
[...]
        k(   70) = (   0.0561378   0.0748504   0.0935630), wk =   0.0555556
        k(   71) = (   0.0561378   0.0748504  -0.1122757), wk =   0.0277778
        k(   72) = (   0.0561378   0.0935630   0.0935630), wk =   0.0277778
        k(   73) = (   0.0561378   0.0935630  -0.1122757), wk =   0.0277778
        k(   74) = (   0.0561378  -0.1122757  -0.1122757), wk =   0.0069444
        k(   75) = (   0.0748504   0.0748504   0.0748504), wk =   0.0092593
        k(   76) = (   0.0748504   0.0748504   0.0935630), wk =   0.0277778
        k(   77) = (   0.0748504   0.0748504  -0.1122757), wk =   0.0138889
        k(   78) = (   0.0748504   0.0935630   0.0935630), wk =   0.0277778
        k(   79) = (   0.0748504   0.0935630  -0.1122757), wk =   0.0277778
        k(   80) = (   0.0748504  -0.1122757  -0.1122757), wk =   0.0069444
        k(   81) = (   0.0935630   0.0935630   0.0935630), wk =   0.0092593
        k(   82) = (   0.0935630   0.0935630  -0.1122757), wk =   0.0138889
        k(   83) = (   0.0935630  -0.1122757  -0.1122757), wk =   0.0069444
        k(   84) = (  -0.1122757  -0.1122757  -0.1122757), wk =   0.0011574

     Largest allocated arrays     est. size (Mb)     dimensions
     Largest temporary arrays     est. size (Mb)     dimensions

     Initial potential from superposition of free atoms
     Check: negative starting charge=   -0.130172

     starting charge   53.49982, renormalised to   57.00000

     negative rho (up, down):  1.387E-01 0.000E+00

     *
     * You are using vdW-DF for exchange-correlation in this calculation.
     * Please cite the following three references that made this development
     * possible:
     *
     *   M. Dion, H. Rydberg, E. Schroder, D. C. Langreth, and
     *   B. I. Lundqvist, Phys. Rev. Lett. 92, 246401 (2004).
     *
     *   T. Thonhauser, V. R. Cooper, S. Li, A. Puzder, P. Hyldgaard, and
     *   D. C. Langreth, Phys. Rev. B 76, 125112 (2007).
     *
     *   G. Roman-Perez and J. M. Soler, Phys. Rev. Lett. 103, 096102 (2009).
     *
     *
     * If you are using vdW-DF2, please also cite:
     *
     *   K. Lee, E. D. Murray, L. Kong, B. I. Lundqvist, and
     *   D. C. Langreth, Phys. Rev. B 82, 081101(R) (2010).
     *
     *
     * If you are calculating the stress with vdW-DF, please also cite:
     *
     *   R. Sabatini, E. Kucukbenli, B. Kolb, T. Thonhauser, and
     *   S. de Gironcoli, J. Phys.: Condens. Matter 24, 424209 (2012).
     *

     Carrying out vdW-DF run using the following parameters:

     Nqs =      20    Nr_points =    1024   r_max =   100.000
     q_mesh =
               0.00001000     0.04494208     0.09755937     0.15916263
               0.23128650     0.31572767     0.41458969     0.53033537
               0.66584808     0.82450364     1.01025438     1.22772762
               1.48234092     1.78043706     2.12944203     2.53805004
               3.01644009     3.57652955     4.23227104     5.00000000

     Gradients computed in reciprocal space

     Starting wfc are   40 randomized atomic wfcs +    8 random wfc

     Self-consistent Calculation

     iteration #  1     ecut=    58.80 Ry     beta=0.10
     Davidson diagonalization with overlap
     ethr =  1.00E-02,  avg # of iterations =  5.4

[...]

     total energy              =    -675.02727507 Ry
     Harris-Foulkes estimate   =    -675.21453450 Ry
     estimated scf accuracy    <       2.60405320 Ry

[...]

     total energy              =    -674.10246875 Ry
     Harris-Foulkes estimate   =    -674.10246212 Ry
     estimated scf accuracy    <       0.00000008 Ry

     iteration # 16     ecut=    58.80 Ry     beta=0.10
     Davidson diagonalization with overlap
     ethr =  1.34E-10,  avg # of iterations =  2.0

     negative rho (up, down):  1.288E-01 0.000E+00

     End of self-consistent calculation

          k = 0.0000 0.0000 0.0000 (  4553 PWs)   bands (ev):

   -65.7530 -27.4637 -27.4637 -27.4637  -7.9854  -7.9854  -7.9854  -7.9838
    -7.7844  -7.7844  -7.7101  -7.7101  -7.6770  -7.6770  -7.6770  -7.5809
    -7.5809  -7.5809  -7.5473   2.4522   9.2680   9.2680  10.8194  10.8194
    10.8194  13.5348  13.5348  13.5348  14.1533  14.8194  14.8194  17.0594
    17.0594  17.0594  19.2271  19.2271  19.2271  23.1115  23.1115  23.1115
    23.3592  23.8372  23.8372  25.7856  26.9540  26.9540  26.9540  31.1710

[...]

          k = 0.0936-0.1123-0.1123 (  4564 PWs)   bands (ev):

[...]

          k =-0.1123-0.1123-0.1123 (  4632 PWs)   bands (ev):

   -65.7530 -27.4655 -27.4655 -27.4655  -7.9033  -7.9033  -7.9033  -7.8390
    -7.8390  -7.8390  -7.8023  -7.7346  -7.7346  -7.7346  -7.6385  -7.6385
    -7.5751  -7.5751  -7.5751   6.9675   6.9675   6.9675   8.5295  10.0828
    10.0828  10.0828  12.7082  14.1054  14.1054  15.0615  15.0615  15.0615
    21.5402  21.5402  21.8333  21.8333  21.8333  24.8515  25.0910  25.0910
    25.0910  26.4913  26.4913  26.4913  26.4966  26.4966  27.0836  27.0836

     the Fermi energy is    14.2715 ev

!    total energy              =    -674.10249722 Ry
     Harris-Foulkes estimate   =    -674.10246878 Ry
     estimated scf accuracy    <          7.2E-09 Ry

     The total energy is the sum of the following terms:

     one-electron contribution =    -170.81200215 Ry
     hartree contribution      =     127.26997409 Ry
     xc contribution           =    -187.82971626 Ry
     ewald contribution        =    -442.72077332 Ry
     smearing contrib. (-TS)   =      -0.00997957 Ry

     convergence has been achieved in  16 iterations

     Forces acting on atoms (Ry/au):

     negative rho (up, down):  1.288E-01 0.000E+00
     atom    1 type  1   force =     0.00000000    0.00000000    0.00000000
     atom    2 type  1   force =     0.00000000    0.00000000    0.00000000
     atom    3 type  1   force =     0.00000000    0.00000000    0.00000000
     atom    4 type  2   force =     0.00000000    0.00000000   -0.00000000

     Total force =     0.000000     Total SCF correction =     0.000000
 !ASE

     General routines

     Parallel routines

   This run was terminated on:   0:50:25  26Oct2017

   JOB DONE.