     Program PWSCF v.5.1rc2 (svn rev. ) starts on 25Oct2017 at 23:53:42

     Current dimensions of program PWSCF are:
     Max number of different atomic species (ntypx) = 10
     Max number of k-points (npk) =  40000
     Max angular momentum in pseudopotentials (lmaxx) =  3

     IMPORTANT: XC functional enforced from input :
     Exchange-correlation      = BEEF-VDW ( 1  4 27 13 2)
     Any further DFT definition will be discarded
     Please, verify this is what you really want

     Subspace diagonalization in iterative solution of the eigenvalue problem:
     a serial algorithm will be used

     bravais-lattice index     =            0
     lattice parameter (alat)  =       1.8897  a.u.
     unit-cell volume          =     412.8047 (a.u.)^3
     number of atoms/cell      =            4
     number of atomic types    =            2
     number of electrons       =        57.00
     number of Kohn-Sham states=           48
     kinetic-energy cutoff     =      58.7989  Ry
     charge density cutoff     =     587.9892  Ry
     convergence threshold     =      7.3E-09
     mixing beta               =       0.1000
     number of iterations used =           10  local-TF  mixing
     Exchange-correlation      = BEEF-VDW ( 1  4 27 13 2)
     nstep                     =           50

     celldm(1)=   1.889726  celldm(2)=   0.000000  celldm(3)=   0.000000
     celldm(4)=   0.000000  celldm(5)=   0.000000  celldm(6)=   0.000000

     crystal axes: (cart. coord. in units of alat)
               a(1) = (   3.940179   0.000000   0.000000 )
               a(2) = (   0.000000   3.940179   0.000000 )
               a(3) = (   0.000000   0.000000   3.940179 )

     reciprocal axes: (cart. coord. in units 2 pi/alat)
               b(1) = (  0.253796  0.000000  0.000000 )
               b(2) = (  0.000000  0.253796  0.000000 )
               b(3) = (  0.000000  0.000000  0.253796 )

     PseudoPot. # 1 for Re read from file:
     /home/vossj/suncat/psp/gbrv1.5pbe/Re.UPF
     MD5 check sum: 85f993410f3e006da9d71c142b4ad953
     Pseudo is Ultrasoft + core correction, Zval = 15.0
     Generated by new atomic code, or converted to UPF format
     Using radial grid of  981 points,  8 beta functions with:
                l(1) =   0
                l(2) =   0
                l(3) =   1
                l(4) =   1
                l(5) =   2
                l(6) =   2
                l(7) =   3
                l(8) =   3
     Q(r) pseudized with  8 coefficients,  rinner =    1.150   1.150   1.150
                                                       1.150   1.150   1.150
                                                       1.150

     PseudoPot. # 2 for Ti read from file:
     /home/vossj/suncat/psp/gbrv1.5pbe/Ti.UPF
     MD5 check sum: 88a00a6731bd790ddea75d31a80cb452
     Pseudo is Ultrasoft + core correction, Zval = 12.0
     Generated by new atomic code, or converted to UPF format
     Using radial grid of  851 points,  6 beta functions with:
                l(1) =   0
                l(2) =   0
                l(3) =   1
                l(4) =   1
                l(5) =   2
                l(6) =   2
     Q(r) pseudized with  6 coefficients,  rinner =    1.000   1.000   1.000
                                                       1.000   1.000

     vdW kernel table read from file vdW_kernel_table
     MD5 check sum: 095c7af220d748ca6e76c0b4c6cfb241

     atomic species   valence    mass     pseudopotential
        Re1           15.00   186.20700     Re( 1.00)
        Ti1           12.00    47.86700     Ti( 1.00)

     48 Sym. Ops., with inversion, found (32 have fractional translation)

   Cartesian axes

     site n.     atom                  positions (alat units)
         1           Re1 tau(   1) = (   0.0000000   0.0000000   0.0000000  )
         2           Re1 tau(   2) = (   0.0000000   1.9700897   1.9700897  )
         3           Re1 tau(   3) = (   1.9700897   0.0000000   1.9700897  )
         4           Ti1 tau(   4) = (   1.9700897   1.9700897   0.0000000  )

     number of k points=    84  Fermi-Dirac smearing, width (Ry)=  0.0073
                       cart. coord. in units 2pi/alat
        k(    1) = (   0.0000000   0.0000000   0.0000000), wk =   0.0011574
        k(    2) = (   0.0000000   0.0000000   0.0211496), wk =   0.0069444
        k(    3) = (   0.0000000   0.0000000   0.0422993), wk =   0.0069444
        k(    4) = (   0.0000000   0.0000000   0.0634489), wk =   0.0069444
        k(    5) = (   0.0000000   0.0000000   0.0845985), wk =   0.0069444
        k(    6) = (   0.0000000   0.0000000   0.1057481), wk =   0.0069444
        k(    7) = (   0.0000000   0.0000000  -0.1268978), wk =   0.0034722
        k(    8) = (   0.0000000   0.0211496   0.0211496), wk =   0.0138889
        k(    9) = (   0.0000000   0.0211496   0.0422993), wk =   0.0277778
        k(   10) = (   0.0000000   0.0211496   0.0634489), wk =   0.0277778
        k(   11) = (   0.0000000   0.0211496   0.0845985), wk =   0.0277778
        k(   12) = (   0.0000000   0.0211496   0.1057481), wk =   0.0277778
        k(   13) = (   0.0000000   0.0211496  -0.1268978), wk =   0.0138889
        k(   14) = (   0.0000000   0.0422993   0.0422993), wk =   0.0138889
        k(   15) = (   0.0000000   0.0422993   0.0634489), wk =   0.0277778
        k(   16) = (   0.0000000   0.0422993   0.0845985), wk =   0.0277778
        k(   17) = (   0.0000000   0.0422993   0.1057481), wk =   0.0277778
        k(   18) = (   0.0000000   0.0422993  -0.1268978), wk =   0.0138889
        k(   19) = (   0.0000000   0.0634489   0.0634489), wk =   0.0138889
        k(   20) = (   0.0000000   0.0634489   0.0845985), wk =   0.0277778
        k(   21) = (   0.0000000   0.0634489   0.1057481), wk =   0.0277778
        k(   22) = (   0.0000000   0.0634489  -0.1268978), wk =   0.0138889
        k(   23) = (   0.0000000   0.0845985   0.0845985), wk =   0.0138889
        k(   24) = (   0.0000000   0.0845985   0.1057481), wk =   0.0277778
        k(   25) = (   0.0000000   0.0845985  -0.1268978), wk =   0.0138889
        k(   26) = (   0.0000000   0.1057481   0.1057481), wk =   0.0138889
        k(   27) = (   0.0000000   0.1057481  -0.1268978), wk =   0.0138889
        k(   28) = (   0.0000000  -0.1268978  -0.1268978), wk =   0.0034722
        k(   29) = (   0.0211496   0.0211496   0.0211496), wk =   0.0092593
        k(   30) = (   0.0211496   0.0211496   0.0422993), wk =   0.0277778
        k(   31) = (   0.0211496   0.0211496   0.0634489), wk =   0.0277778
        k(   32) = (   0.0211496   0.0211496   0.0845985), wk =   0.0277778
        k(   33) = (   0.0211496   0.0211496   0.1057481), wk =   0.0277778
        k(   34) = (   0.0211496   0.0211496  -0.1268978), wk =   0.0138889
        k(   35) = (   0.0211496   0.0422993   0.0422993), wk =   0.0277778
        k(   36) = (   0.0211496   0.0422993   0.0634489), wk =   0.0555556
        k(   37) = (   0.0211496   0.0422993   0.0845985), wk =   0.0555556
        k(   38) = (   0.0211496   0.0422993   0.1057481), wk =   0.0555556
        k(   39) = (   0.0211496   0.0422993  -0.1268978), wk =   0.0277778
        k(   40) = (   0.0211496   0.0634489   0.0634489), wk =   0.0277778
        k(   41) = (   0.0211496   0.0634489   0.0845985), wk =   0.0555556
        k(   42) = (   0.0211496   0.0634489   0.1057481), wk =   0.0555556
        k(   43) = (   0.0211496   0.0634489  -0.1268978), wk =   0.0277778
        k(   44) = (   0.0211496   0.0845985   0.0845985), wk =   0.0277778
        k(   45) = (   0.0211496   0.0845985   0.1057481), wk =   0.0555556
        k(   46) = (   0.0211496   0.0845985  -0.1268978), wk =   0.0277778
        k(   47) = (   0.0211496   0.1057481   0.1057481), wk =   0.0277778
        k(   48) = (   0.0211496   0.1057481  -0.1268978), wk =   0.0277778
        k(   49) = (   0.0211496  -0.1268978  -0.1268978), wk =   0.0069444
        k(   50) = (   0.0422993   0.0422993   0.0422993), wk =   0.0092593
        k(   51) = (   0.0422993   0.0422993   0.0634489), wk =   0.0277778
        k(   52) = (   0.0422993   0.0422993   0.0845985), wk =   0.0277778
        k(   53) = (   0.0422993   0.0422993   0.1057481), wk =   0.0277778
        k(   54) = (   0.0422993   0.0422993  -0.1268978), wk =   0.0138889
        k(   55) = (   0.0422993   0.0634489   0.0634489), wk =   0.0277778
        k(   56) = (   0.0422993   0.0634489   0.0845985), wk =   0.0555556
        k(   57) = (   0.0422993   0.0634489   0.1057481), wk =   0.0555556
        k(   58) = (   0.0422993   0.0634489  -0.1268978), wk =   0.0277778
        k(   59) = (   0.0422993   0.0845985   0.0845985), wk =   0.0277778
        k(   60) = (   0.0422993   0.0845985   0.1057481), wk =   0.0555556
[...]
        k(   70) = (   0.0634489   0.0845985   0.1057481), wk =   0.0555556
        k(   71) = (   0.0634489   0.0845985  -0.1268978), wk =   0.0277778
        k(   72) = (   0.0634489   0.1057481   0.1057481), wk =   0.0277778
        k(   73) = (   0.0634489   0.1057481  -0.1268978), wk =   0.0277778
        k(   74) = (   0.0634489  -0.1268978  -0.1268978), wk =   0.0069444
        k(   75) = (   0.0845985   0.0845985   0.0845985), wk =   0.0092593
        k(   76) = (   0.0845985   0.0845985   0.1057481), wk =   0.0277778
        k(   77) = (   0.0845985   0.0845985  -0.1268978), wk =   0.0138889
        k(   78) = (   0.0845985   0.1057481   0.1057481), wk =   0.0277778
        k(   79) = (   0.0845985   0.1057481  -0.1268978), wk =   0.0277778
        k(   80) = (   0.0845985  -0.1268978  -0.1268978), wk =   0.0069444
        k(   81) = (   0.1057481   0.1057481   0.1057481), wk =   0.0092593
        k(   82) = (   0.1057481   0.1057481  -0.1268978), wk =   0.0138889
        k(   83) = (   0.1057481  -0.1268978  -0.1268978), wk =   0.0069444
        k(   84) = (  -0.1268978  -0.1268978  -0.1268978), wk =   0.0011574

     Largest allocated arrays     est. size (Mb)     dimensions
     Largest temporary arrays     est. size (Mb)     dimensions

     Initial potential from superposition of free atoms
     Check: negative starting charge=   -0.386145

     starting charge   54.49982, renormalised to   57.00000

     negative rho (up, down):  4.039E-01 0.000E+00

     *
     * You are using vdW-DF for exchange-correlation in this calculation.
     * Please cite the following three references that made this development
     * possible:
     *
     *   M. Dion, H. Rydberg, E. Schroder, D. C. Langreth, and
     *   B. I. Lundqvist, Phys. Rev. Lett. 92, 246401 (2004).
     *
     *   T. Thonhauser, V. R. Cooper, S. Li, A. Puzder, P. Hyldgaard, and
     *   D. C. Langreth, Phys. Rev. B 76, 125112 (2007).
     *
     *   G. Roman-Perez and J. M. Soler, Phys. Rev. Lett. 103, 096102 (2009).
     *
     *
     * If you are using vdW-DF2, please also cite:
     *
     *   K. Lee, E. D. Murray, L. Kong, B. I. Lundqvist, and
     *   D. C. Langreth, Phys. Rev. B 82, 081101(R) (2010).
     *
     *
     * If you are calculating the stress with vdW-DF, please also cite:
     *
     *   R. Sabatini, E. Kucukbenli, B. Kolb, T. Thonhauser, and
     *   S. de Gironcoli, J. Phys.: Condens. Matter 24, 424209 (2012).
     *

     Carrying out vdW-DF run using the following parameters:

     Nqs =      20    Nr_points =    1024   r_max =   100.000
     q_mesh =
               0.00001000     0.04494208     0.09755937     0.15916263
               0.23128650     0.31572767     0.41458969     0.53033537
               0.66584808     0.82450364     1.01025438     1.22772762
               1.48234092     1.78043706     2.12944203     2.53805004
               3.01644009     3.57652955     4.23227104     5.00000000

     Gradients computed in reciprocal space

     Starting wfc are   49 randomized atomic wfcs

     Self-consistent Calculation

     iteration #  1     ecut=    58.80 Ry     beta=0.10
     Davidson diagonalization with overlap
     ethr =  1.00E-02,  avg # of iterations =  4.2

[...]

     total energy              =    -697.00510177 Ry
     Harris-Foulkes estimate   =    -697.28914844 Ry
     estimated scf accuracy    <       5.61519720 Ry

[...]

     total energy              =    -696.53490911 Ry
     Harris-Foulkes estimate   =    -696.53490885 Ry
     estimated scf accuracy    <       0.00000001 Ry

     iteration # 17     ecut=    58.80 Ry     beta=0.10
     Davidson diagonalization with overlap
     ethr =  1.85E-11,  avg # of iterations =  1.0

     negative rho (up, down):  4.152E-01 0.000E+00

     End of self-consistent calculation

          k = 0.0000 0.0000 0.0000 (  3119 PWs)   bands (ev):

   -59.3291 -59.2344 -59.2344 -35.4878 -21.3428 -21.3428 -21.3428 -20.8861
   -20.8861 -20.8861 -20.6519 -20.6519 -20.6519 -11.7197 -11.7197 -11.7197
    12.1190  15.1146  15.7242  15.7242  16.2662  16.2662  16.2662  20.1993
    20.1993  20.1993  22.8532  22.8532  24.0339  24.0339  24.0339  24.8161
    24.9678  24.9678  25.4690  25.4690  25.4690  25.5145  25.5145  25.5145
    32.9773  32.9773  33.0716  33.0716  33.0716  33.5127  33.5127  33.5127

[...]

          k = 0.1057-0.1269-0.1269 (  3148 PWs)   bands (ev):

[...]

          k =-0.1269-0.1269-0.1269 (  3112 PWs)   bands (ev):

   -59.2656 -59.2656 -59.2656 -35.4863 -21.5915 -21.2626 -21.2626 -21.2626
   -20.6976 -20.6976 -20.6501 -20.6501 -20.6501 -11.7254 -11.7254 -11.7254
    15.2773  15.2773  15.2773  15.7964  19.3034  19.3034  19.3034  19.9911
    19.9911  19.9911  20.7313  20.7313  21.3165  21.6222  21.6222  21.6222
    24.8393  24.8393  24.8393  24.9695  24.9695  24.9695  25.0306  25.0306
    30.0981  30.0981  30.0981  32.9866  34.3567  34.5469  34.5469  34.5469

     the Fermi energy is    21.0061 ev

!    total energy              =    -696.53491021 Ry
     Harris-Foulkes estimate   =    -696.53490911 Ry
     estimated scf accuracy    <          2.8E-11 Ry

     The total energy is the sum of the following terms:

     one-electron contribution =     -94.38838919 Ry
     hartree contribution      =      81.37052516 Ry
     xc contribution           =    -181.31057952 Ry
     ewald contribution        =    -502.19504380 Ry
     smearing contrib. (-TS)   =      -0.01142286 Ry

     convergence has been achieved in  17 iterations

     Forces acting on atoms (Ry/au):

     negative rho (up, down):  4.152E-01 0.000E+00
     atom    1 type  1   force =     0.00000000   -0.00000000    0.00000000
     atom    2 type  1   force =     0.00000000    0.00000000    0.00000000
     atom    3 type  1   force =     0.00000000    0.00000000    0.00000000
     atom    4 type  2   force =     0.00000000   -0.00000000    0.00000000

     Total force =     0.000000     Total SCF correction =     0.000000
 !ASE

     General routines

     Parallel routines

   This run was terminated on:  23:54:52  25Oct2017

   JOB DONE.