     Program PWSCF v.5.1rc2 (svn rev. ) starts on 25Oct2017 at  7:59:42

     Current dimensions of program PWSCF are:
     Max number of different atomic species (ntypx) = 10
     Max number of k-points (npk) =  40000
     Max angular momentum in pseudopotentials (lmaxx) =  3

     IMPORTANT: XC functional enforced from input :
     Exchange-correlation      = BEEF-VDW ( 1  4 27 13 2)
     Any further DFT definition will be discarded
     Please, verify this is what you really want

     Subspace diagonalization in iterative solution of the eigenvalue problem:
     a serial algorithm will be used

     bravais-lattice index     =            0
     lattice parameter (alat)  =       1.8897  a.u.
     unit-cell volume          =     446.1264 (a.u.)^3
     number of atoms/cell      =            4
     number of atomic types    =            2
     number of electrons       =        70.00
     number of Kohn-Sham states=           55
     kinetic-energy cutoff     =      58.7989  Ry
     charge density cutoff     =     587.9892  Ry
     convergence threshold     =      7.3E-09
     mixing beta               =       0.1000
     number of iterations used =           10  local-TF  mixing
     Exchange-correlation      = BEEF-VDW ( 1  4 27 13 2)
     nstep                     =           50

     celldm(1)=   1.889726  celldm(2)=   0.000000  celldm(3)=   0.000000
     celldm(4)=   0.000000  celldm(5)=   0.000000  celldm(6)=   0.000000

     crystal axes: (cart. coord. in units of alat)
               a(1) = (   4.043466   0.000000   0.000000 )
               a(2) = (   0.000000   4.043466   0.000000 )
               a(3) = (   0.000000   0.000000   4.043466 )

     reciprocal axes: (cart. coord. in units 2 pi/alat)
               b(1) = (  0.247313  0.000000  0.000000 )
               b(2) = (  0.000000  0.247313  0.000000 )
               b(3) = (  0.000000  0.000000  0.247313 )

     PseudoPot. # 1 for Ga read from file:
     /home/vossj/suncat/psp/gbrv1.5pbe/Ga.UPF
     MD5 check sum: ccd671392a58a050fbb373893b4fcd66
     Pseudo is Ultrasoft + core correction, Zval = 19.0
     Generated by new atomic code, or converted to UPF format
     Using radial grid of  871 points,  6 beta functions with:
                l(1) =   0
                l(2) =   0
                l(3) =   1
                l(4) =   1
                l(5) =   2
                l(6) =   2
     Q(r) pseudized with  8 coefficients,  rinner =    1.250   1.250   1.250
                                                       1.250   1.250

     PseudoPot. # 2 for Nb read from file:
     /home/vossj/suncat/psp/gbrv1.5pbe/Nb.UPF
     MD5 check sum: 573aab8a2fa660278ed4a62cd769473f
     Pseudo is Ultrasoft + core correction, Zval = 13.0
     Generated by new atomic code, or converted to UPF format
     Using radial grid of  887 points,  6 beta functions with:
                l(1) =   0
                l(2) =   0
                l(3) =   1
                l(4) =   1
                l(5) =   2
                l(6) =   2
     Q(r) pseudized with  6 coefficients,  rinner =    1.000   1.000   1.000
                                                       1.000   1.000

     vdW kernel table read from file vdW_kernel_table
     MD5 check sum: 095c7af220d748ca6e76c0b4c6cfb241

     atomic species   valence    mass     pseudopotential
        Ga1           19.00    69.72300     Ga( 1.00)
        Nb1           13.00    92.90637     Nb( 1.00)

     48 Sym. Ops., with inversion, found (32 have fractional translation)

   Cartesian axes

     site n.     atom                  positions (alat units)
         1           Ga1 tau(   1) = (   0.0000000   0.0000000   0.0000000  )
         2           Ga1 tau(   2) = (   0.0000000   2.0217329   2.0217329  )
         3           Ga1 tau(   3) = (   2.0217329   0.0000000   2.0217329  )
         4           Nb1 tau(   4) = (   2.0217329   2.0217329   0.0000000  )

     number of k points=    84  Fermi-Dirac smearing, width (Ry)=  0.0073
                       cart. coord. in units 2pi/alat
        k(    1) = (   0.0000000   0.0000000   0.0000000), wk =   0.0011574
        k(    2) = (   0.0000000   0.0000000   0.0206094), wk =   0.0069444
        k(    3) = (   0.0000000   0.0000000   0.0412188), wk =   0.0069444
        k(    4) = (   0.0000000   0.0000000   0.0618281), wk =   0.0069444
        k(    5) = (   0.0000000   0.0000000   0.0824375), wk =   0.0069444
        k(    6) = (   0.0000000   0.0000000   0.1030469), wk =   0.0069444
        k(    7) = (   0.0000000   0.0000000  -0.1236563), wk =   0.0034722
        k(    8) = (   0.0000000   0.0206094   0.0206094), wk =   0.0138889
        k(    9) = (   0.0000000   0.0206094   0.0412188), wk =   0.0277778
        k(   10) = (   0.0000000   0.0206094   0.0618281), wk =   0.0277778
        k(   11) = (   0.0000000   0.0206094   0.0824375), wk =   0.0277778
        k(   12) = (   0.0000000   0.0206094   0.1030469), wk =   0.0277778
        k(   13) = (   0.0000000   0.0206094  -0.1236563), wk =   0.0138889
        k(   14) = (   0.0000000   0.0412188   0.0412188), wk =   0.0138889
        k(   15) = (   0.0000000   0.0412188   0.0618281), wk =   0.0277778
        k(   16) = (   0.0000000   0.0412188   0.0824375), wk =   0.0277778
        k(   17) = (   0.0000000   0.0412188   0.1030469), wk =   0.0277778
        k(   18) = (   0.0000000   0.0412188  -0.1236563), wk =   0.0138889
        k(   19) = (   0.0000000   0.0618281   0.0618281), wk =   0.0138889
        k(   20) = (   0.0000000   0.0618281   0.0824375), wk =   0.0277778
        k(   21) = (   0.0000000   0.0618281   0.1030469), wk =   0.0277778
        k(   22) = (   0.0000000   0.0618281  -0.1236563), wk =   0.0138889
        k(   23) = (   0.0000000   0.0824375   0.0824375), wk =   0.0138889
        k(   24) = (   0.0000000   0.0824375   0.1030469), wk =   0.0277778
        k(   25) = (   0.0000000   0.0824375  -0.1236563), wk =   0.0138889
        k(   26) = (   0.0000000   0.1030469   0.1030469), wk =   0.0138889
        k(   27) = (   0.0000000   0.1030469  -0.1236563), wk =   0.0138889
        k(   28) = (   0.0000000  -0.1236563  -0.1236563), wk =   0.0034722
        k(   29) = (   0.0206094   0.0206094   0.0206094), wk =   0.0092593
        k(   30) = (   0.0206094   0.0206094   0.0412188), wk =   0.0277778
        k(   31) = (   0.0206094   0.0206094   0.0618281), wk =   0.0277778
        k(   32) = (   0.0206094   0.0206094   0.0824375), wk =   0.0277778
        k(   33) = (   0.0206094   0.0206094   0.1030469), wk =   0.0277778
        k(   34) = (   0.0206094   0.0206094  -0.1236563), wk =   0.0138889
        k(   35) = (   0.0206094   0.0412188   0.0412188), wk =   0.0277778
        k(   36) = (   0.0206094   0.0412188   0.0618281), wk =   0.0555556
        k(   37) = (   0.0206094   0.0412188   0.0824375), wk =   0.0555556
        k(   38) = (   0.0206094   0.0412188   0.1030469), wk =   0.0555556
        k(   39) = (   0.0206094   0.0412188  -0.1236563), wk =   0.0277778
        k(   40) = (   0.0206094   0.0618281   0.0618281), wk =   0.0277778
        k(   41) = (   0.0206094   0.0618281   0.0824375), wk =   0.0555556
        k(   42) = (   0.0206094   0.0618281   0.1030469), wk =   0.0555556
        k(   43) = (   0.0206094   0.0618281  -0.1236563), wk =   0.0277778
        k(   44) = (   0.0206094   0.0824375   0.0824375), wk =   0.0277778
        k(   45) = (   0.0206094   0.0824375   0.1030469), wk =   0.0555556
        k(   46) = (   0.0206094   0.0824375  -0.1236563), wk =   0.0277778
        k(   47) = (   0.0206094   0.1030469   0.1030469), wk =   0.0277778
        k(   48) = (   0.0206094   0.1030469  -0.1236563), wk =   0.0277778
        k(   49) = (   0.0206094  -0.1236563  -0.1236563), wk =   0.0069444
        k(   50) = (   0.0412188   0.0412188   0.0412188), wk =   0.0092593
        k(   51) = (   0.0412188   0.0412188   0.0618281), wk =   0.0277778
        k(   52) = (   0.0412188   0.0412188   0.0824375), wk =   0.0277778
        k(   53) = (   0.0412188   0.0412188   0.1030469), wk =   0.0277778
        k(   54) = (   0.0412188   0.0412188  -0.1236563), wk =   0.0138889
        k(   55) = (   0.0412188   0.0618281   0.0618281), wk =   0.0277778
        k(   56) = (   0.0412188   0.0618281   0.0824375), wk =   0.0555556
        k(   57) = (   0.0412188   0.0618281   0.1030469), wk =   0.0555556
        k(   58) = (   0.0412188   0.0618281  -0.1236563), wk =   0.0277778
        k(   59) = (   0.0412188   0.0824375   0.0824375), wk =   0.0277778
        k(   60) = (   0.0412188   0.0824375   0.1030469), wk =   0.0555556
[...]
        k(   70) = (   0.0618281   0.0824375   0.1030469), wk =   0.0555556
        k(   71) = (   0.0618281   0.0824375  -0.1236563), wk =   0.0277778
        k(   72) = (   0.0618281   0.1030469   0.1030469), wk =   0.0277778
        k(   73) = (   0.0618281   0.1030469  -0.1236563), wk =   0.0277778
        k(   74) = (   0.0618281  -0.1236563  -0.1236563), wk =   0.0069444
        k(   75) = (   0.0824375   0.0824375   0.0824375), wk =   0.0092593
        k(   76) = (   0.0824375   0.0824375   0.1030469), wk =   0.0277778
        k(   77) = (   0.0824375   0.0824375  -0.1236563), wk =   0.0138889
        k(   78) = (   0.0824375   0.1030469   0.1030469), wk =   0.0277778
        k(   79) = (   0.0824375   0.1030469  -0.1236563), wk =   0.0277778
        k(   80) = (   0.0824375  -0.1236563  -0.1236563), wk =   0.0069444
        k(   81) = (   0.1030469   0.1030469   0.1030469), wk =   0.0092593
        k(   82) = (   0.1030469   0.1030469  -0.1236563), wk =   0.0138889
        k(   83) = (   0.1030469  -0.1236563  -0.1236563), wk =   0.0069444
        k(   84) = (  -0.1236563  -0.1236563  -0.1236563), wk =   0.0011574

     Largest allocated arrays     est. size (Mb)     dimensions
     Largest temporary arrays     est. size (Mb)     dimensions

     Initial potential from superposition of free atoms

     starting charge   66.99726, renormalised to   70.00000

     *
     * You are using vdW-DF for exchange-correlation in this calculation.
     * Please cite the following three references that made this development
     * possible:
     *
     *   M. Dion, H. Rydberg, E. Schroder, D. C. Langreth, and
     *   B. I. Lundqvist, Phys. Rev. Lett. 92, 246401 (2004).
     *
     *   T. Thonhauser, V. R. Cooper, S. Li, A. Puzder, P. Hyldgaard, and
     *   D. C. Langreth, Phys. Rev. B 76, 125112 (2007).
     *
     *   G. Roman-Perez and J. M. Soler, Phys. Rev. Lett. 103, 096102 (2009).
     *
     *
     * If you are using vdW-DF2, please also cite:
     *
     *   K. Lee, E. D. Murray, L. Kong, B. I. Lundqvist, and
     *   D. C. Langreth, Phys. Rev. B 82, 081101(R) (2010).
     *
     *
     * If you are calculating the stress with vdW-DF, please also cite:
     *
     *   R. Sabatini, E. Kucukbenli, B. Kolb, T. Thonhauser, and
     *   S. de Gironcoli, J. Phys.: Condens. Matter 24, 424209 (2012).
     *

     Carrying out vdW-DF run using the following parameters:

     Nqs =      20    Nr_points =    1024   r_max =   100.000
     q_mesh =
               0.00001000     0.04494208     0.09755937     0.15916263
               0.23128650     0.31572767     0.41458969     0.53033537
               0.66584808     0.82450364     1.01025438     1.22772762
               1.48234092     1.78043706     2.12944203     2.53805004
               3.01644009     3.57652955     4.23227104     5.00000000

     Gradients computed in reciprocal space

     Starting wfc are   49 randomized atomic wfcs +    6 random wfc

     Self-consistent Calculation

     iteration #  1     ecut=    58.80 Ry     beta=0.10
     Davidson diagonalization with overlap
     ethr =  1.00E-02,  avg # of iterations =  4.5

     total energy              =   -1370.83084902 Ry
     Harris-Foulkes estimate   =   -1372.05134755 Ry
     estimated scf accuracy    <      16.22821115 Ry

[...]

     total energy              =   -1368.39524891 Ry
     Harris-Foulkes estimate   =   -1368.39524780 Ry
     estimated scf accuracy    <       0.00000003 Ry

     iteration # 15     ecut=    58.80 Ry     beta=0.10
     Davidson diagonalization with overlap
     ethr =  3.94E-11,  avg # of iterations =  2.0

     End of self-consistent calculation

          k = 0.0000 0.0000 0.0000 (  3407 PWs)   bands (ev):

   -79.9365 -79.9365 -79.9365 -79.9003 -79.9003 -79.9003 -79.8999 -79.8999
   -79.8999 -40.6453 -16.6830 -16.6830 -16.6830  -0.5486  -0.5270  -0.5270
    -0.5270  -0.3957  -0.3957  -0.2399  -0.2399  -0.2399  -0.1648  -0.1648
    -0.0458  -0.0297  -0.0297  -0.0297   3.5334  10.9160  10.9160  12.8541
    12.8541  12.8541  15.0187  15.0187  15.0187  17.8019  17.9070  17.9070
    19.7171  19.7171  19.7171  23.4889  23.4889  23.4889  26.7222  26.7222
    26.7222  27.5108  27.5108  29.9987  30.3507  32.5692  32.5692

[...]

          k = 0.1030-0.1237-0.1237 (  3396 PWs)   bands (ev):

[...]

          k =-0.1237-0.1237-0.1237 (  3448 PWs)   bands (ev):

   -79.9402 -79.9344 -79.9344 -79.9021 -79.9021 -79.9021 -79.8983 -79.8983
   -79.8983 -40.6418 -16.7090 -16.7090 -16.7090  -0.4421  -0.4421  -0.4421
    -0.4391  -0.3540  -0.3540  -0.3540  -0.2331  -0.2331  -0.2331  -0.1913
    -0.1913  -0.0526  -0.0526  -0.0526   8.6993   8.6993   8.6993  10.2188
    11.7370  11.7370  11.7370  15.9353  15.9353  16.8804  17.7966  17.7966
    17.7966  25.3096  25.3096  25.3096  25.9386  25.9386  28.7752  28.7752
    28.7752  29.4118  29.8843  29.8843  29.8843  30.7520  30.7520

     the Fermi energy is    15.1914 ev

!    total energy              =   -1368.39525368 Ry
     Harris-Foulkes estimate   =   -1368.39524891 Ry
     estimated scf accuracy    <          8.6E-11 Ry

     The total energy is the sum of the following terms:

     one-electron contribution =    -987.57962811 Ry
     hartree contribution      =     530.82128500 Ry
     xc contribution           =    -168.62481525 Ry
     ewald contribution        =    -743.00523352 Ry
     smearing contrib. (-TS)   =      -0.00686181 Ry

     convergence has been achieved in  15 iterations

     Forces acting on atoms (Ry/au):

     atom    1 type  1   force =     0.00000000    0.00000000   -0.00000000
     atom    2 type  1   force =     0.00000000    0.00000000    0.00000000
     atom    3 type  1   force =     0.00000000    0.00000000    0.00000000
     atom    4 type  2   force =     0.00000000    0.00000000    0.00000000

     Total force =     0.000000     Total SCF correction =     0.000000
 !ASE

     General routines

     Parallel routines

   This run was terminated on:   8: 0:56  25Oct2017

   JOB DONE.