     Program PWSCF v.5.1rc2 (svn rev. ) starts on 24Oct2017 at 20:51:47

     Current dimensions of program PWSCF are:
     Max number of different atomic species (ntypx) = 10
     Max number of k-points (npk) =  40000
     Max angular momentum in pseudopotentials (lmaxx) =  3

     IMPORTANT: XC functional enforced from input :
     Exchange-correlation      = BEEF-VDW ( 1  4 27 13 2)
     Any further DFT definition will be discarded
     Please, verify this is what you really want

     Subspace diagonalization in iterative solution of the eigenvalue problem:
     a serial algorithm will be used

     bravais-lattice index     =            0
     lattice parameter (alat)  =       1.8897  a.u.
     unit-cell volume          =     386.2999 (a.u.)^3
     number of atoms/cell      =            4
     number of atomic types    =            2
     number of electrons       =        70.00
     number of Kohn-Sham states=           55
     kinetic-energy cutoff     =      58.7989  Ry
     charge density cutoff     =     587.9892  Ry
     convergence threshold     =      7.3E-09
     mixing beta               =       0.1000
     number of iterations used =           10  local-TF  mixing
     Exchange-correlation      = BEEF-VDW ( 1  4 27 13 2)
     nstep                     =           50

     celldm(1)=   1.889726  celldm(2)=   0.000000  celldm(3)=   0.000000
     celldm(4)=   0.000000  celldm(5)=   0.000000  celldm(6)=   0.000000

     crystal axes: (cart. coord. in units of alat)
               a(1) = (   3.853979   0.000000   0.000000 )
               a(2) = (   0.000000   3.853979   0.000000 )
               a(3) = (   0.000000   0.000000   3.853979 )

     reciprocal axes: (cart. coord. in units 2 pi/alat)
               b(1) = (  0.259472  0.000000  0.000000 )
               b(2) = (  0.000000  0.259472  0.000000 )
               b(3) = (  0.000000  0.000000  0.259472 )

     PseudoPot. # 1 for Cu read from file:
     /home/vossj/suncat/psp/gbrv1.5pbe/Cu.UPF
     MD5 check sum: 6e991ff952a84172a2a52a1c1e996048
     Pseudo is Ultrasoft + core correction, Zval = 19.0
     Generated by new atomic code, or converted to UPF format
     Using radial grid of  867 points,  6 beta functions with:
                l(1) =   0
                l(2) =   0
                l(3) =   1
                l(4) =   1
                l(5) =   2
                l(6) =   2
     Q(r) pseudized with  8 coefficients,  rinner =    1.150   1.150   1.150
                                                       1.150   1.150

     PseudoPot. # 2 for Nb read from file:
     /home/vossj/suncat/psp/gbrv1.5pbe/Nb.UPF
     MD5 check sum: 573aab8a2fa660278ed4a62cd769473f
     Pseudo is Ultrasoft + core correction, Zval = 13.0
     Generated by new atomic code, or converted to UPF format
     Using radial grid of  887 points,  6 beta functions with:
                l(1) =   0
                l(2) =   0
                l(3) =   1
                l(4) =   1
                l(5) =   2
                l(6) =   2
     Q(r) pseudized with  6 coefficients,  rinner =    1.000   1.000   1.000
                                                       1.000   1.000

     vdW kernel table read from file vdW_kernel_table
     MD5 check sum: 095c7af220d748ca6e76c0b4c6cfb241

     atomic species   valence    mass     pseudopotential
        Cu1           19.00    63.54600     Cu( 1.00)
        Nb1           13.00    92.90637     Nb( 1.00)

     48 Sym. Ops., with inversion, found (32 have fractional translation)

   Cartesian axes

     site n.     atom                  positions (alat units)
         1           Cu1 tau(   1) = (   0.0000000   0.0000000   0.0000000  )
         2           Cu1 tau(   2) = (   0.0000000   1.9269895   1.9269895  )
         3           Cu1 tau(   3) = (   1.9269895   0.0000000   1.9269895  )
         4           Nb1 tau(   4) = (   1.9269895   1.9269895   0.0000000  )

     number of k points=    84  Fermi-Dirac smearing, width (Ry)=  0.0073
                       cart. coord. in units 2pi/alat
        k(    1) = (   0.0000000   0.0000000   0.0000000), wk =   0.0011574
        k(    2) = (   0.0000000   0.0000000   0.0216227), wk =   0.0069444
        k(    3) = (   0.0000000   0.0000000   0.0432453), wk =   0.0069444
        k(    4) = (   0.0000000   0.0000000   0.0648680), wk =   0.0069444
        k(    5) = (   0.0000000   0.0000000   0.0864907), wk =   0.0069444
        k(    6) = (   0.0000000   0.0000000   0.1081134), wk =   0.0069444
        k(    7) = (   0.0000000   0.0000000  -0.1297360), wk =   0.0034722
        k(    8) = (   0.0000000   0.0216227   0.0216227), wk =   0.0138889
        k(    9) = (   0.0000000   0.0216227   0.0432453), wk =   0.0277778
        k(   10) = (   0.0000000   0.0216227   0.0648680), wk =   0.0277778
        k(   11) = (   0.0000000   0.0216227   0.0864907), wk =   0.0277778
        k(   12) = (   0.0000000   0.0216227   0.1081134), wk =   0.0277778
        k(   13) = (   0.0000000   0.0216227  -0.1297360), wk =   0.0138889
        k(   14) = (   0.0000000   0.0432453   0.0432453), wk =   0.0138889
        k(   15) = (   0.0000000   0.0432453   0.0648680), wk =   0.0277778
        k(   16) = (   0.0000000   0.0432453   0.0864907), wk =   0.0277778
        k(   17) = (   0.0000000   0.0432453   0.1081134), wk =   0.0277778
        k(   18) = (   0.0000000   0.0432453  -0.1297360), wk =   0.0138889
        k(   19) = (   0.0000000   0.0648680   0.0648680), wk =   0.0138889
        k(   20) = (   0.0000000   0.0648680   0.0864907), wk =   0.0277778
        k(   21) = (   0.0000000   0.0648680   0.1081134), wk =   0.0277778
        k(   22) = (   0.0000000   0.0648680  -0.1297360), wk =   0.0138889
        k(   23) = (   0.0000000   0.0864907   0.0864907), wk =   0.0138889
        k(   24) = (   0.0000000   0.0864907   0.1081134), wk =   0.0277778
        k(   25) = (   0.0000000   0.0864907  -0.1297360), wk =   0.0138889
        k(   26) = (   0.0000000   0.1081134   0.1081134), wk =   0.0138889
        k(   27) = (   0.0000000   0.1081134  -0.1297360), wk =   0.0138889
        k(   28) = (   0.0000000  -0.1297360  -0.1297360), wk =   0.0034722
        k(   29) = (   0.0216227   0.0216227   0.0216227), wk =   0.0092593
        k(   30) = (   0.0216227   0.0216227   0.0432453), wk =   0.0277778
        k(   31) = (   0.0216227   0.0216227   0.0648680), wk =   0.0277778
        k(   32) = (   0.0216227   0.0216227   0.0864907), wk =   0.0277778
        k(   33) = (   0.0216227   0.0216227   0.1081134), wk =   0.0277778
        k(   34) = (   0.0216227   0.0216227  -0.1297360), wk =   0.0138889
        k(   35) = (   0.0216227   0.0432453   0.0432453), wk =   0.0277778
        k(   36) = (   0.0216227   0.0432453   0.0648680), wk =   0.0555556
        k(   37) = (   0.0216227   0.0432453   0.0864907), wk =   0.0555556
        k(   38) = (   0.0216227   0.0432453   0.1081134), wk =   0.0555556
        k(   39) = (   0.0216227   0.0432453  -0.1297360), wk =   0.0277778
        k(   40) = (   0.0216227   0.0648680   0.0648680), wk =   0.0277778
        k(   41) = (   0.0216227   0.0648680   0.0864907), wk =   0.0555556
        k(   42) = (   0.0216227   0.0648680   0.1081134), wk =   0.0555556
        k(   43) = (   0.0216227   0.0648680  -0.1297360), wk =   0.0277778
        k(   44) = (   0.0216227   0.0864907   0.0864907), wk =   0.0277778
        k(   45) = (   0.0216227   0.0864907   0.1081134), wk =   0.0555556
        k(   46) = (   0.0216227   0.0864907  -0.1297360), wk =   0.0277778
        k(   47) = (   0.0216227   0.1081134   0.1081134), wk =   0.0277778
        k(   48) = (   0.0216227   0.1081134  -0.1297360), wk =   0.0277778
        k(   49) = (   0.0216227  -0.1297360  -0.1297360), wk =   0.0069444
        k(   50) = (   0.0432453   0.0432453   0.0432453), wk =   0.0092593
        k(   51) = (   0.0432453   0.0432453   0.0648680), wk =   0.0277778
        k(   52) = (   0.0432453   0.0432453   0.0864907), wk =   0.0277778
        k(   53) = (   0.0432453   0.0432453   0.1081134), wk =   0.0277778
        k(   54) = (   0.0432453   0.0432453  -0.1297360), wk =   0.0138889
        k(   55) = (   0.0432453   0.0648680   0.0648680), wk =   0.0277778
        k(   56) = (   0.0432453   0.0648680   0.0864907), wk =   0.0555556
        k(   57) = (   0.0432453   0.0648680   0.1081134), wk =   0.0555556
        k(   58) = (   0.0432453   0.0648680  -0.1297360), wk =   0.0277778
        k(   59) = (   0.0432453   0.0864907   0.0864907), wk =   0.0277778
        k(   60) = (   0.0432453   0.0864907   0.1081134), wk =   0.0555556
[...]
        k(   70) = (   0.0648680   0.0864907   0.1081134), wk =   0.0555556
        k(   71) = (   0.0648680   0.0864907  -0.1297360), wk =   0.0277778
        k(   72) = (   0.0648680   0.1081134   0.1081134), wk =   0.0277778
        k(   73) = (   0.0648680   0.1081134  -0.1297360), wk =   0.0277778
        k(   74) = (   0.0648680  -0.1297360  -0.1297360), wk =   0.0069444
        k(   75) = (   0.0864907   0.0864907   0.0864907), wk =   0.0092593
        k(   76) = (   0.0864907   0.0864907   0.1081134), wk =   0.0277778
        k(   77) = (   0.0864907   0.0864907  -0.1297360), wk =   0.0138889
        k(   78) = (   0.0864907   0.1081134   0.1081134), wk =   0.0277778
        k(   79) = (   0.0864907   0.1081134  -0.1297360), wk =   0.0277778
        k(   80) = (   0.0864907  -0.1297360  -0.1297360), wk =   0.0069444
        k(   81) = (   0.1081134   0.1081134   0.1081134), wk =   0.0092593
        k(   82) = (   0.1081134   0.1081134  -0.1297360), wk =   0.0138889
        k(   83) = (   0.1081134  -0.1297360  -0.1297360), wk =   0.0069444
        k(   84) = (  -0.1297360  -0.1297360  -0.1297360), wk =   0.0011574

     Largest allocated arrays     est. size (Mb)     dimensions
     Largest temporary arrays     est. size (Mb)     dimensions

     Initial potential from superposition of free atoms

     starting charge   66.99726, renormalised to   70.00000

     *
     * You are using vdW-DF for exchange-correlation in this calculation.
     * Please cite the following three references that made this development
     * possible:
     *
     *   M. Dion, H. Rydberg, E. Schroder, D. C. Langreth, and
     *   B. I. Lundqvist, Phys. Rev. Lett. 92, 246401 (2004).
     *
     *   T. Thonhauser, V. R. Cooper, S. Li, A. Puzder, P. Hyldgaard, and
     *   D. C. Langreth, Phys. Rev. B 76, 125112 (2007).
     *
     *   G. Roman-Perez and J. M. Soler, Phys. Rev. Lett. 103, 096102 (2009).
     *
     *
     * If you are using vdW-DF2, please also cite:
     *
     *   K. Lee, E. D. Murray, L. Kong, B. I. Lundqvist, and
     *   D. C. Langreth, Phys. Rev. B 82, 081101(R) (2010).
     *
     *
     * If you are calculating the stress with vdW-DF, please also cite:
     *
     *   R. Sabatini, E. Kucukbenli, B. Kolb, T. Thonhauser, and
     *   S. de Gironcoli, J. Phys.: Condens. Matter 24, 424209 (2012).
     *

     Carrying out vdW-DF run using the following parameters:

     Nqs =      20    Nr_points =    1024   r_max =   100.000
     q_mesh =
               0.00001000     0.04494208     0.09755937     0.15916263
               0.23128650     0.31572767     0.41458969     0.53033537
               0.66584808     0.82450364     1.01025438     1.22772762
               1.48234092     1.78043706     2.12944203     2.53805004
               3.01644009     3.57652955     4.23227104     5.00000000

     Gradients computed in reciprocal space

     Starting wfc are   52 randomized atomic wfcs +    3 random wfc

     Self-consistent Calculation

     iteration #  1     ecut=    58.80 Ry     beta=0.10
     Davidson diagonalization with overlap
     ethr =  1.00E-02,  avg # of iterations =  4.2

     total energy              =   -1334.28366994 Ry
     Harris-Foulkes estimate   =   -1335.00843337 Ry
     estimated scf accuracy    <       8.92812476 Ry

[...]

     total energy              =   -1333.36280176 Ry
     Harris-Foulkes estimate   =   -1333.36279956 Ry
     estimated scf accuracy    <          8.5E-09 Ry

     iteration # 17     ecut=    58.80 Ry     beta=0.10
     Davidson diagonalization with overlap
     ethr =  1.21E-11,  avg # of iterations =  2.0

     End of self-consistent calculation

          k = 0.0000 0.0000 0.0000 (  2945 PWs)   bands (ev):

   -97.5189 -97.5137 -97.5137 -54.9432 -54.9432 -54.9432 -54.9368 -54.9368
   -54.9368 -54.8076 -54.8076 -54.8076 -40.2298 -16.2073 -16.2073 -16.2073
     7.2150  10.4302  10.4302  11.1041  11.1074  11.1074  11.1074  12.3270
    12.3270  12.3270  12.9778  12.9778  13.1808  13.4061  13.4061  13.4061
    15.5541  15.5541  17.2108  17.2108  17.2108  17.2665  17.2665  17.2665
    23.5257  24.1177  24.1177  25.1756  25.1756  25.1756  29.4055  29.4055
    29.4055  33.1450  33.1450  33.1450  33.3200  33.4894  33.4894

[...]

          k = 0.1081-0.1297-0.1297 (  2952 PWs)   bands (ev):

[...]

          k =-0.1297-0.1297-0.1297 (  3016 PWs)   bands (ev):

   -97.5154 -97.5154 -97.5154 -54.9531 -54.9531 -54.9531 -54.9252 -54.9252
   -54.9252 -54.8372 -54.7961 -54.7961 -40.2234 -16.2466 -16.2466 -16.2466
    10.3484  10.3484  10.3484  11.0554  12.1500  12.1500  12.1500  12.3980
    12.3980  12.3980  12.4250  12.4250  13.2598  13.2598  13.2598  14.5064
    14.8957  14.8957  14.8957  15.3251  15.3251  15.3251  17.3236  17.3236
    21.6538  21.7381  21.7381  21.7381  32.0539  32.0539  32.0539  32.0863
    32.0863  32.0863  33.2182  34.0660  34.0660  36.4603  36.4603

     the Fermi energy is    15.1910 ev

!    total energy              =   -1333.36281106 Ry
     Harris-Foulkes estimate   =   -1333.36280176 Ry
     estimated scf accuracy    <          6.6E-10 Ry

     The total energy is the sum of the following terms:

     one-electron contribution =    -908.69511296 Ry
     hartree contribution      =     493.88583398 Ry
     xc contribution           =    -139.00120861 Ry
     ewald contribution        =    -779.53623603 Ry
     smearing contrib. (-TS)   =      -0.01608743 Ry

     convergence has been achieved in  17 iterations

     Forces acting on atoms (Ry/au):

     atom    1 type  1   force =     0.00000000    0.00000000    0.00000000
     atom    2 type  1   force =     0.00000000    0.00000000    0.00000000
     atom    3 type  1   force =     0.00000000    0.00000000    0.00000000
     atom    4 type  2   force =     0.00000000    0.00000000   -0.00000000

     Total force =     0.000000     Total SCF correction =     0.000000
 !ASE

     General routines

     Parallel routines

   This run was terminated on:  20:53: 7  24Oct2017

   JOB DONE.