     Program PWSCF v.5.1rc2 (svn rev. ) starts on 25Oct2017 at 17:15:57

     Current dimensions of program PWSCF are:
     Max number of different atomic species (ntypx) = 10
     Max number of k-points (npk) =  40000
     Max angular momentum in pseudopotentials (lmaxx) =  3

     IMPORTANT: XC functional enforced from input :
     Exchange-correlation      = BEEF-VDW ( 1  4 27 13 2)
     Any further DFT definition will be discarded
     Please, verify this is what you really want

     Subspace diagonalization in iterative solution of the eigenvalue problem:
     a serial algorithm will be used

     bravais-lattice index     =            0
     lattice parameter (alat)  =       1.8897  a.u.
     unit-cell volume          =     385.9724 (a.u.)^3
     number of atoms/cell      =            4
     number of atomic types    =            2
     number of electrons       =        64.00
     number of Kohn-Sham states=           52
     kinetic-energy cutoff     =      58.7989  Ry
     charge density cutoff     =     587.9892  Ry
     convergence threshold     =      7.3E-09
     mixing beta               =       0.1000
     number of iterations used =           10  local-TF  mixing
     Exchange-correlation      = BEEF-VDW ( 1  4 27 13 2)
     nstep                     =           50

     celldm(1)=   1.889726  celldm(2)=   0.000000  celldm(3)=   0.000000
     celldm(4)=   0.000000  celldm(5)=   0.000000  celldm(6)=   0.000000

     crystal axes: (cart. coord. in units of alat)
               a(1) = (   3.852890   0.000000   0.000000 )
               a(2) = (   0.000000   3.852890   0.000000 )
               a(3) = (   0.000000   0.000000   3.852890 )

     reciprocal axes: (cart. coord. in units 2 pi/alat)
               b(1) = (  0.259545  0.000000  0.000000 )
               b(2) = (  0.000000  0.259545  0.000000 )
               b(3) = (  0.000000  0.000000  0.259545 )

     PseudoPot. # 1 for Ru read from file:
     /home/vossj/suncat/psp/gbrv1.5pbe/Ru.UPF
     MD5 check sum: 7158a806dd851261a58e6920c40ebe78
     Pseudo is Ultrasoft + core correction, Zval = 16.0
     Generated by new atomic code, or converted to UPF format
     Using radial grid of  967 points,  6 beta functions with:
                l(1) =   0
                l(2) =   0
                l(3) =   1
                l(4) =   1
                l(5) =   2
                l(6) =   2
     Q(r) pseudized with  8 coefficients,  rinner =    1.300   1.300   1.300
                                                       1.300   1.300

     PseudoPot. # 2 for Pd read from file:
     /home/vossj/suncat/psp/gbrv1.5pbe/Pd.UPF
     MD5 check sum: 2d733d2bc2cbfd217af676df1668a4bc
     Pseudo is Ultrasoft + core correction, Zval = 16.0
     Generated by new atomic code, or converted to UPF format
     Using radial grid of  887 points,  6 beta functions with:
                l(1) =   0
                l(2) =   0
                l(3) =   1
                l(4) =   1
                l(5) =   2
                l(6) =   2
     Q(r) pseudized with  8 coefficients,  rinner =    1.130   1.130   1.130
                                                       1.130   1.130

     vdW kernel table read from file vdW_kernel_table
     MD5 check sum: 095c7af220d748ca6e76c0b4c6cfb241

     atomic species   valence    mass     pseudopotential
        Ru1           16.00   101.07000     Ru( 1.00)
        Pd1           16.00   106.42000     Pd( 1.00)

     48 Sym. Ops., with inversion, found (32 have fractional translation)

   Cartesian axes

     site n.     atom                  positions (alat units)
         1           Ru1 tau(   1) = (   0.0000000   0.0000000   0.0000000  )
         2           Ru1 tau(   2) = (   0.0000000   1.9264448   1.9264448  )
         3           Ru1 tau(   3) = (   1.9264448   0.0000000   1.9264448  )
         4           Pd1 tau(   4) = (   1.9264448   1.9264448   0.0000000  )

     number of k points=    84  Fermi-Dirac smearing, width (Ry)=  0.0073
                       cart. coord. in units 2pi/alat
        k(    1) = (   0.0000000   0.0000000   0.0000000), wk =   0.0011574
        k(    2) = (   0.0000000   0.0000000   0.0216288), wk =   0.0069444
        k(    3) = (   0.0000000   0.0000000   0.0432576), wk =   0.0069444
        k(    4) = (   0.0000000   0.0000000   0.0648864), wk =   0.0069444
        k(    5) = (   0.0000000   0.0000000   0.0865152), wk =   0.0069444
        k(    6) = (   0.0000000   0.0000000   0.1081439), wk =   0.0069444
        k(    7) = (   0.0000000   0.0000000  -0.1297727), wk =   0.0034722
        k(    8) = (   0.0000000   0.0216288   0.0216288), wk =   0.0138889
        k(    9) = (   0.0000000   0.0216288   0.0432576), wk =   0.0277778
        k(   10) = (   0.0000000   0.0216288   0.0648864), wk =   0.0277778
        k(   11) = (   0.0000000   0.0216288   0.0865152), wk =   0.0277778
        k(   12) = (   0.0000000   0.0216288   0.1081439), wk =   0.0277778
        k(   13) = (   0.0000000   0.0216288  -0.1297727), wk =   0.0138889
        k(   14) = (   0.0000000   0.0432576   0.0432576), wk =   0.0138889
        k(   15) = (   0.0000000   0.0432576   0.0648864), wk =   0.0277778
        k(   16) = (   0.0000000   0.0432576   0.0865152), wk =   0.0277778
        k(   17) = (   0.0000000   0.0432576   0.1081439), wk =   0.0277778
        k(   18) = (   0.0000000   0.0432576  -0.1297727), wk =   0.0138889
        k(   19) = (   0.0000000   0.0648864   0.0648864), wk =   0.0138889
        k(   20) = (   0.0000000   0.0648864   0.0865152), wk =   0.0277778
        k(   21) = (   0.0000000   0.0648864   0.1081439), wk =   0.0277778
        k(   22) = (   0.0000000   0.0648864  -0.1297727), wk =   0.0138889
        k(   23) = (   0.0000000   0.0865152   0.0865152), wk =   0.0138889
        k(   24) = (   0.0000000   0.0865152   0.1081439), wk =   0.0277778
        k(   25) = (   0.0000000   0.0865152  -0.1297727), wk =   0.0138889
        k(   26) = (   0.0000000   0.1081439   0.1081439), wk =   0.0138889
        k(   27) = (   0.0000000   0.1081439  -0.1297727), wk =   0.0138889
        k(   28) = (   0.0000000  -0.1297727  -0.1297727), wk =   0.0034722
        k(   29) = (   0.0216288   0.0216288   0.0216288), wk =   0.0092593
        k(   30) = (   0.0216288   0.0216288   0.0432576), wk =   0.0277778
        k(   31) = (   0.0216288   0.0216288   0.0648864), wk =   0.0277778
        k(   32) = (   0.0216288   0.0216288   0.0865152), wk =   0.0277778
        k(   33) = (   0.0216288   0.0216288   0.1081439), wk =   0.0277778
        k(   34) = (   0.0216288   0.0216288  -0.1297727), wk =   0.0138889
        k(   35) = (   0.0216288   0.0432576   0.0432576), wk =   0.0277778
        k(   36) = (   0.0216288   0.0432576   0.0648864), wk =   0.0555556
        k(   37) = (   0.0216288   0.0432576   0.0865152), wk =   0.0555556
        k(   38) = (   0.0216288   0.0432576   0.1081439), wk =   0.0555556
        k(   39) = (   0.0216288   0.0432576  -0.1297727), wk =   0.0277778
        k(   40) = (   0.0216288   0.0648864   0.0648864), wk =   0.0277778
        k(   41) = (   0.0216288   0.0648864   0.0865152), wk =   0.0555556
        k(   42) = (   0.0216288   0.0648864   0.1081439), wk =   0.0555556
        k(   43) = (   0.0216288   0.0648864  -0.1297727), wk =   0.0277778
        k(   44) = (   0.0216288   0.0865152   0.0865152), wk =   0.0277778
        k(   45) = (   0.0216288   0.0865152   0.1081439), wk =   0.0555556
        k(   46) = (   0.0216288   0.0865152  -0.1297727), wk =   0.0277778
        k(   47) = (   0.0216288   0.1081439   0.1081439), wk =   0.0277778
        k(   48) = (   0.0216288   0.1081439  -0.1297727), wk =   0.0277778
        k(   49) = (   0.0216288  -0.1297727  -0.1297727), wk =   0.0069444
        k(   50) = (   0.0432576   0.0432576   0.0432576), wk =   0.0092593
        k(   51) = (   0.0432576   0.0432576   0.0648864), wk =   0.0277778
        k(   52) = (   0.0432576   0.0432576   0.0865152), wk =   0.0277778
        k(   53) = (   0.0432576   0.0432576   0.1081439), wk =   0.0277778
        k(   54) = (   0.0432576   0.0432576  -0.1297727), wk =   0.0138889
        k(   55) = (   0.0432576   0.0648864   0.0648864), wk =   0.0277778
        k(   56) = (   0.0432576   0.0648864   0.0865152), wk =   0.0555556
        k(   57) = (   0.0432576   0.0648864   0.1081439), wk =   0.0555556
        k(   58) = (   0.0432576   0.0648864  -0.1297727), wk =   0.0277778
        k(   59) = (   0.0432576   0.0865152   0.0865152), wk =   0.0277778
        k(   60) = (   0.0432576   0.0865152   0.1081439), wk =   0.0555556
[...]
        k(   70) = (   0.0648864   0.0865152   0.1081439), wk =   0.0555556
        k(   71) = (   0.0648864   0.0865152  -0.1297727), wk =   0.0277778
        k(   72) = (   0.0648864   0.1081439   0.1081439), wk =   0.0277778
        k(   73) = (   0.0648864   0.1081439  -0.1297727), wk =   0.0277778
        k(   74) = (   0.0648864  -0.1297727  -0.1297727), wk =   0.0069444
        k(   75) = (   0.0865152   0.0865152   0.0865152), wk =   0.0092593
        k(   76) = (   0.0865152   0.0865152   0.1081439), wk =   0.0277778
        k(   77) = (   0.0865152   0.0865152  -0.1297727), wk =   0.0138889
        k(   78) = (   0.0865152   0.1081439   0.1081439), wk =   0.0277778
        k(   79) = (   0.0865152   0.1081439  -0.1297727), wk =   0.0277778
        k(   80) = (   0.0865152  -0.1297727  -0.1297727), wk =   0.0069444
        k(   81) = (   0.1081439   0.1081439   0.1081439), wk =   0.0092593
        k(   82) = (   0.1081439   0.1081439  -0.1297727), wk =   0.0138889
        k(   83) = (   0.1081439  -0.1297727  -0.1297727), wk =   0.0069444
        k(   84) = (  -0.1297727  -0.1297727  -0.1297727), wk =   0.0011574

     Largest allocated arrays     est. size (Mb)     dimensions
     Largest temporary arrays     est. size (Mb)     dimensions

     Initial potential from superposition of free atoms
     Check: negative starting charge=   -0.300044

     starting charge   60.49995, renormalised to   64.00000

     negative rho (up, down):  3.174E-01 0.000E+00

     *
     * You are using vdW-DF for exchange-correlation in this calculation.
     * Please cite the following three references that made this development
     * possible:
     *
     *   M. Dion, H. Rydberg, E. Schroder, D. C. Langreth, and
     *   B. I. Lundqvist, Phys. Rev. Lett. 92, 246401 (2004).
     *
     *   T. Thonhauser, V. R. Cooper, S. Li, A. Puzder, P. Hyldgaard, and
     *   D. C. Langreth, Phys. Rev. B 76, 125112 (2007).
     *
     *   G. Roman-Perez and J. M. Soler, Phys. Rev. Lett. 103, 096102 (2009).
     *
     *
     * If you are using vdW-DF2, please also cite:
     *
     *   K. Lee, E. D. Murray, L. Kong, B. I. Lundqvist, and
     *   D. C. Langreth, Phys. Rev. B 82, 081101(R) (2010).
     *
     *
     * If you are calculating the stress with vdW-DF, please also cite:
     *
     *   R. Sabatini, E. Kucukbenli, B. Kolb, T. Thonhauser, and
     *   S. de Gironcoli, J. Phys.: Condens. Matter 24, 424209 (2012).
     *

     Carrying out vdW-DF run using the following parameters:

     Nqs =      20    Nr_points =    1024   r_max =   100.000
     q_mesh =
               0.00001000     0.04494208     0.09755937     0.15916263
               0.23128650     0.31572767     0.41458969     0.53033537
               0.66584808     0.82450364     1.01025438     1.22772762
               1.48234092     1.78043706     2.12944203     2.53805004
               3.01644009     3.57652955     4.23227104     5.00000000

     Gradients computed in reciprocal space

     Starting wfc are   51 randomized atomic wfcs +    1 random wfc

     Self-consistent Calculation

     iteration #  1     ecut=    58.80 Ry     beta=0.10
     Davidson diagonalization with overlap
     ethr =  1.00E-02,  avg # of iterations =  4.5

[...]

     total energy              =    -786.68864399 Ry
     Harris-Foulkes estimate   =    -787.58000633 Ry
     estimated scf accuracy    <      16.22976027 Ry

[...]

     total energy              =    -785.19766717 Ry
     Harris-Foulkes estimate   =    -785.19766692 Ry
     estimated scf accuracy    <       0.00000002 Ry

     iteration # 15     ecut=    58.80 Ry     beta=0.10
     Davidson diagonalization with overlap
     ethr =  3.50E-11,  avg # of iterations =  2.0

     negative rho (up, down):  3.113E-01 0.000E+00

     End of self-consistent calculation

          k = 0.0000 0.0000 0.0000 (  2945 PWs)   bands (ev):

   -51.6477 -51.5061 -51.5061 -29.7615 -29.7615 -29.7615 -21.8157 -21.8157
   -21.8157 -21.4487 -21.4487 -21.4487 -21.2329 -21.2329 -21.2329  13.8377
    15.2883  15.2883  15.5085  15.7185  15.7185  15.7185  18.5611  18.5611
    18.5611  20.3910  20.3910  22.2224  22.2224  22.2224  22.2829  22.2829
    22.9398  23.4480  23.4480  23.4480  24.8127  24.8127  24.8127  33.5498
    33.8624  33.8624  34.1795  34.1795  34.1795  35.0551  35.0551  35.0551
    36.9888  42.2856  42.2856  43.4417

[...]

          k = 0.1081-0.1298-0.1298 (  2952 PWs)   bands (ev):

[...]

          k =-0.1298-0.1298-0.1298 (  3016 PWs)   bands (ev):

   -51.5526 -51.5526 -51.5526 -29.7663 -29.7663 -29.7663 -22.0241 -21.7484
   -21.7484 -21.7484 -21.2645 -21.2645 -21.2487 -21.2487 -21.2487  15.5565
    15.5565  15.5565  15.6435  17.8082  17.8082  18.4306  18.4306  18.4306
    18.9687  18.9687  18.9687  21.9919  21.9919  21.9919  22.1736  22.1736
    22.2502  22.2502  22.2502  22.5393  22.9838  22.9838  22.9838  29.8749
    30.4296  30.4296  30.4296  36.4117  36.5495  36.5495  36.5495  41.5863
    41.5863  41.5863  42.0887  42.0887

     the Fermi energy is    21.4894 ev

!    total energy              =    -785.19766829 Ry
     Harris-Foulkes estimate   =    -785.19766717 Ry
     estimated scf accuracy    <          5.2E-09 Ry

     The total energy is the sum of the following terms:

     one-electron contribution =    -151.60954443 Ry
     hartree contribution      =     124.41623940 Ry
     xc contribution           =    -113.16805778 Ry
     ewald contribution        =    -644.82342343 Ry
     smearing contrib. (-TS)   =      -0.01288205 Ry

     convergence has been achieved in  15 iterations

     Forces acting on atoms (Ry/au):

     negative rho (up, down):  3.113E-01 0.000E+00
     atom    1 type  1   force =     0.00000000    0.00000000    0.00000000
     atom    2 type  1   force =     0.00000000    0.00000000    0.00000000
     atom    3 type  1   force =     0.00000000    0.00000000    0.00000000
     atom    4 type  2   force =     0.00000000   -0.00000000    0.00000000

     Total force =     0.000000     Total SCF correction =     0.000000
 !ASE

     General routines

     Parallel routines

   This run was terminated on:  17:17: 3  25Oct2017

   JOB DONE.