     Program PWSCF v.5.1rc2 (svn rev. ) starts on 25Oct2017 at 21:54:49

     Current dimensions of program PWSCF are:
     Max number of different atomic species (ntypx) = 10
     Max number of k-points (npk) =  40000
     Max angular momentum in pseudopotentials (lmaxx) =  3

     IMPORTANT: XC functional enforced from input :
     Exchange-correlation      = BEEF-VDW ( 1  4 27 13 2)
     Any further DFT definition will be discarded
     Please, verify this is what you really want

     Subspace diagonalization in iterative solution of the eigenvalue problem:
     a serial algorithm will be used

     bravais-lattice index     =            0
     lattice parameter (alat)  =       1.8897  a.u.
     unit-cell volume          =     429.0192 (a.u.)^3
     number of atoms/cell      =            4
     number of atomic types    =            2
     number of electrons       =        62.00
     number of Kohn-Sham states=           51
     kinetic-energy cutoff     =      58.7989  Ry
     charge density cutoff     =     587.9892  Ry
     convergence threshold     =      7.3E-09
     mixing beta               =       0.1000
     number of iterations used =           10  local-TF  mixing
     Exchange-correlation      = BEEF-VDW ( 1  4 27 13 2)
     nstep                     =           50

     celldm(1)=   1.889726  celldm(2)=   0.000000  celldm(3)=   0.000000
     celldm(4)=   0.000000  celldm(5)=   0.000000  celldm(6)=   0.000000

     crystal axes: (cart. coord. in units of alat)
               a(1) = (   3.991107   0.000000   0.000000 )
               a(2) = (   0.000000   3.991107   0.000000 )
               a(3) = (   0.000000   0.000000   3.991107 )

     reciprocal axes: (cart. coord. in units 2 pi/alat)
               b(1) = (  0.250557  0.000000  0.000000 )
               b(2) = (  0.000000  0.250557  0.000000 )
               b(3) = (  0.000000  0.000000  0.250557 )

     PseudoPot. # 1 for Os read from file:
     /home/vossj/suncat/psp/gbrv1.5pbe/Os.UPF
     MD5 check sum: a3fb40a04f0c37c25c34bbc47164c9a8
     Pseudo is Ultrasoft + core correction, Zval = 16.0
     Generated by new atomic code, or converted to UPF format
     Using radial grid of  983 points,  8 beta functions with:
                l(1) =   0
                l(2) =   0
                l(3) =   1
                l(4) =   1
                l(5) =   2
                l(6) =   2
                l(7) =   3
                l(8) =   3
     Q(r) pseudized with  8 coefficients,  rinner =    1.150   1.150   1.150
                                                       1.150   1.150   1.150
                                                       1.150

     PseudoPot. # 2 for Sn read from file:
     /home/vossj/suncat/psp/gbrv1.5pbe/Sn.UPF
     MD5 check sum: 469debedee59599fedebd795477fea03
     Pseudo is Ultrasoft + core correction, Zval = 14.0
     Generated by new atomic code, or converted to UPF format
     Using radial grid of  891 points,  6 beta functions with:
                l(1) =   0
                l(2) =   0
                l(3) =   1
                l(4) =   1
                l(5) =   2
                l(6) =   2
     Q(r) pseudized with  8 coefficients,  rinner =    1.350   1.350   1.350
                                                       1.350   1.350

     vdW kernel table read from file vdW_kernel_table
     MD5 check sum: 095c7af220d748ca6e76c0b4c6cfb241

     atomic species   valence    mass     pseudopotential
        Os1           16.00   190.23000     Os( 1.00)
        Sn1           14.00   118.71000     Sn( 1.00)

     48 Sym. Ops., with inversion, found (32 have fractional translation)

   Cartesian axes

     site n.     atom                  positions (alat units)
         1           Os1 tau(   1) = (   0.0000000   0.0000000   0.0000000  )
         2           Os1 tau(   2) = (   0.0000000   1.9955536   1.9955536  )
         3           Os1 tau(   3) = (   1.9955536   0.0000000   1.9955536  )
         4           Sn1 tau(   4) = (   1.9955536   1.9955536   0.0000000  )

     number of k points=    84  Fermi-Dirac smearing, width (Ry)=  0.0073
                       cart. coord. in units 2pi/alat
        k(    1) = (   0.0000000   0.0000000   0.0000000), wk =   0.0011574
        k(    2) = (   0.0000000   0.0000000   0.0208798), wk =   0.0069444
        k(    3) = (   0.0000000   0.0000000   0.0417595), wk =   0.0069444
        k(    4) = (   0.0000000   0.0000000   0.0626393), wk =   0.0069444
        k(    5) = (   0.0000000   0.0000000   0.0835190), wk =   0.0069444
        k(    6) = (   0.0000000   0.0000000   0.1043988), wk =   0.0069444
        k(    7) = (   0.0000000   0.0000000  -0.1252785), wk =   0.0034722
        k(    8) = (   0.0000000   0.0208798   0.0208798), wk =   0.0138889
        k(    9) = (   0.0000000   0.0208798   0.0417595), wk =   0.0277778
        k(   10) = (   0.0000000   0.0208798   0.0626393), wk =   0.0277778
        k(   11) = (   0.0000000   0.0208798   0.0835190), wk =   0.0277778
        k(   12) = (   0.0000000   0.0208798   0.1043988), wk =   0.0277778
        k(   13) = (   0.0000000   0.0208798  -0.1252785), wk =   0.0138889
        k(   14) = (   0.0000000   0.0417595   0.0417595), wk =   0.0138889
        k(   15) = (   0.0000000   0.0417595   0.0626393), wk =   0.0277778
        k(   16) = (   0.0000000   0.0417595   0.0835190), wk =   0.0277778
        k(   17) = (   0.0000000   0.0417595   0.1043988), wk =   0.0277778
        k(   18) = (   0.0000000   0.0417595  -0.1252785), wk =   0.0138889
        k(   19) = (   0.0000000   0.0626393   0.0626393), wk =   0.0138889
        k(   20) = (   0.0000000   0.0626393   0.0835190), wk =   0.0277778
        k(   21) = (   0.0000000   0.0626393   0.1043988), wk =   0.0277778
        k(   22) = (   0.0000000   0.0626393  -0.1252785), wk =   0.0138889
        k(   23) = (   0.0000000   0.0835190   0.0835190), wk =   0.0138889
        k(   24) = (   0.0000000   0.0835190   0.1043988), wk =   0.0277778
        k(   25) = (   0.0000000   0.0835190  -0.1252785), wk =   0.0138889
        k(   26) = (   0.0000000   0.1043988   0.1043988), wk =   0.0138889
        k(   27) = (   0.0000000   0.1043988  -0.1252785), wk =   0.0138889
        k(   28) = (   0.0000000  -0.1252785  -0.1252785), wk =   0.0034722
        k(   29) = (   0.0208798   0.0208798   0.0208798), wk =   0.0092593
        k(   30) = (   0.0208798   0.0208798   0.0417595), wk =   0.0277778
        k(   31) = (   0.0208798   0.0208798   0.0626393), wk =   0.0277778
        k(   32) = (   0.0208798   0.0208798   0.0835190), wk =   0.0277778
        k(   33) = (   0.0208798   0.0208798   0.1043988), wk =   0.0277778
        k(   34) = (   0.0208798   0.0208798  -0.1252785), wk =   0.0138889
        k(   35) = (   0.0208798   0.0417595   0.0417595), wk =   0.0277778
        k(   36) = (   0.0208798   0.0417595   0.0626393), wk =   0.0555556
        k(   37) = (   0.0208798   0.0417595   0.0835190), wk =   0.0555556
        k(   38) = (   0.0208798   0.0417595   0.1043988), wk =   0.0555556
        k(   39) = (   0.0208798   0.0417595  -0.1252785), wk =   0.0277778
        k(   40) = (   0.0208798   0.0626393   0.0626393), wk =   0.0277778
        k(   41) = (   0.0208798   0.0626393   0.0835190), wk =   0.0555556
        k(   42) = (   0.0208798   0.0626393   0.1043988), wk =   0.0555556
        k(   43) = (   0.0208798   0.0626393  -0.1252785), wk =   0.0277778
        k(   44) = (   0.0208798   0.0835190   0.0835190), wk =   0.0277778
        k(   45) = (   0.0208798   0.0835190   0.1043988), wk =   0.0555556
        k(   46) = (   0.0208798   0.0835190  -0.1252785), wk =   0.0277778
        k(   47) = (   0.0208798   0.1043988   0.1043988), wk =   0.0277778
        k(   48) = (   0.0208798   0.1043988  -0.1252785), wk =   0.0277778
        k(   49) = (   0.0208798  -0.1252785  -0.1252785), wk =   0.0069444
        k(   50) = (   0.0417595   0.0417595   0.0417595), wk =   0.0092593
        k(   51) = (   0.0417595   0.0417595   0.0626393), wk =   0.0277778
        k(   52) = (   0.0417595   0.0417595   0.0835190), wk =   0.0277778
        k(   53) = (   0.0417595   0.0417595   0.1043988), wk =   0.0277778
        k(   54) = (   0.0417595   0.0417595  -0.1252785), wk =   0.0138889
        k(   55) = (   0.0417595   0.0626393   0.0626393), wk =   0.0277778
        k(   56) = (   0.0417595   0.0626393   0.0835190), wk =   0.0555556
        k(   57) = (   0.0417595   0.0626393   0.1043988), wk =   0.0555556
        k(   58) = (   0.0417595   0.0626393  -0.1252785), wk =   0.0277778
        k(   59) = (   0.0417595   0.0835190   0.0835190), wk =   0.0277778
        k(   60) = (   0.0417595   0.0835190   0.1043988), wk =   0.0555556
[...]
        k(   70) = (   0.0626393   0.0835190   0.1043988), wk =   0.0555556
        k(   71) = (   0.0626393   0.0835190  -0.1252785), wk =   0.0277778
        k(   72) = (   0.0626393   0.1043988   0.1043988), wk =   0.0277778
        k(   73) = (   0.0626393   0.1043988  -0.1252785), wk =   0.0277778
        k(   74) = (   0.0626393  -0.1252785  -0.1252785), wk =   0.0069444
        k(   75) = (   0.0835190   0.0835190   0.0835190), wk =   0.0092593
        k(   76) = (   0.0835190   0.0835190   0.1043988), wk =   0.0277778
        k(   77) = (   0.0835190   0.0835190  -0.1252785), wk =   0.0138889
        k(   78) = (   0.0835190   0.1043988   0.1043988), wk =   0.0277778
        k(   79) = (   0.0835190   0.1043988  -0.1252785), wk =   0.0277778
        k(   80) = (   0.0835190  -0.1252785  -0.1252785), wk =   0.0069444
        k(   81) = (   0.1043988   0.1043988   0.1043988), wk =   0.0092593
        k(   82) = (   0.1043988   0.1043988  -0.1252785), wk =   0.0138889
        k(   83) = (   0.1043988  -0.1252785  -0.1252785), wk =   0.0069444
        k(   84) = (  -0.1252785  -0.1252785  -0.1252785), wk =   0.0011574

     Largest allocated arrays     est. size (Mb)     dimensions
     Largest temporary arrays     est. size (Mb)     dimensions

     Initial potential from superposition of free atoms
     Check: negative starting charge=   -0.370357

     starting charge   59.49985, renormalised to   62.00000

     negative rho (up, down):  3.859E-01 0.000E+00

     *
     * You are using vdW-DF for exchange-correlation in this calculation.
     * Please cite the following three references that made this development
     * possible:
     *
     *   M. Dion, H. Rydberg, E. Schroder, D. C. Langreth, and
     *   B. I. Lundqvist, Phys. Rev. Lett. 92, 246401 (2004).
     *
     *   T. Thonhauser, V. R. Cooper, S. Li, A. Puzder, P. Hyldgaard, and
     *   D. C. Langreth, Phys. Rev. B 76, 125112 (2007).
     *
     *   G. Roman-Perez and J. M. Soler, Phys. Rev. Lett. 103, 096102 (2009).
     *
     *
     * If you are using vdW-DF2, please also cite:
     *
     *   K. Lee, E. D. Murray, L. Kong, B. I. Lundqvist, and
     *   D. C. Langreth, Phys. Rev. B 82, 081101(R) (2010).
     *
     *
     * If you are calculating the stress with vdW-DF, please also cite:
     *
     *   R. Sabatini, E. Kucukbenli, B. Kolb, T. Thonhauser, and
     *   S. de Gironcoli, J. Phys.: Condens. Matter 24, 424209 (2012).
     *

     Carrying out vdW-DF run using the following parameters:

     Nqs =      20    Nr_points =    1024   r_max =   100.000
     q_mesh =
               0.00001000     0.04494208     0.09755937     0.15916263
               0.23128650     0.31572767     0.41458969     0.53033537
               0.66584808     0.82450364     1.01025438     1.22772762
               1.48234092     1.78043706     2.12944203     2.53805004
               3.01644009     3.57652955     4.23227104     5.00000000

     Gradients computed in reciprocal space

     Starting wfc are   48 randomized atomic wfcs +    3 random wfc

     Self-consistent Calculation

     iteration #  1     ecut=    58.80 Ry     beta=0.10
     Davidson diagonalization with overlap
     ethr =  1.00E-02,  avg # of iterations =  4.4

[...]

     total energy              =    -760.33438946 Ry
     Harris-Foulkes estimate   =    -760.39686619 Ry
     estimated scf accuracy    <       0.90042618 Ry

[...]

     total energy              =    -760.01947561 Ry
     Harris-Foulkes estimate   =    -760.01947335 Ry
     estimated scf accuracy    <       0.00000001 Ry

     iteration # 13     ecut=    58.80 Ry     beta=0.10
     Davidson diagonalization with overlap
     ethr =  1.64E-11,  avg # of iterations =  2.1

     negative rho (up, down):  3.601E-01 0.000E+00

     End of self-consistent calculation

          k = 0.0000 0.0000 0.0000 (  3239 PWs)   bands (ev):

   -64.6202 -64.5652 -64.5652 -24.1343 -24.1343 -24.1343 -23.8427 -23.8427
   -23.8427 -23.6737 -23.6737 -23.6737  -0.2471  -0.2471  -0.2339  -0.2339
    -0.2339  10.0148  15.0530  16.8169  16.8169  17.0292  17.0292  17.0292
    20.8727  20.8727  20.8727  20.9308  20.9308  20.9308  22.6093  22.6093
    23.7958  24.4606  24.4606  24.4606  26.0957  29.9896  29.9896  29.9896
    30.4057  30.4057  32.6263  32.6263  32.6263  34.8714  39.4008  39.4008
    39.6964  39.6964  39.6964

[...]

          k = 0.1044-0.1253-0.1253 (  3256 PWs)   bands (ev):

[...]

          k =-0.1253-0.1253-0.1253 (  3184 PWs)   bands (ev):

   -64.5833 -64.5833 -64.5833 -24.2876 -24.0851 -24.0851 -24.0851 -23.7003
   -23.7003 -23.6835 -23.6835 -23.6835  -0.2477  -0.2477  -0.2477  -0.1849
    -0.1849  12.3733  16.1298  16.1298  16.1298  18.6437  18.6437  18.6437
    19.1745  19.1745  19.1745  20.7137  20.7137  20.7137  21.5669  21.5811
    21.5811  23.8750  23.8750  23.8750  24.4862  27.8476  27.8476  27.8476
    34.0048  34.0048  34.0048  34.6480  36.3532  36.3532  36.3532  39.7712
    39.7712  39.7712  40.0827

     the Fermi energy is    21.7036 ev

!    total energy              =    -760.01948528 Ry
     Harris-Foulkes estimate   =    -760.01947562 Ry
     estimated scf accuracy    <          1.4E-09 Ry

     The total energy is the sum of the following terms:

     one-electron contribution =    -118.18432532 Ry
     hartree contribution      =     104.35702402 Ry
     xc contribution           =    -161.08637578 Ry
     ewald contribution        =    -585.09130054 Ry
     smearing contrib. (-TS)   =      -0.01450767 Ry

     convergence has been achieved in  13 iterations

     Forces acting on atoms (Ry/au):

     negative rho (up, down):  3.601E-01 0.000E+00
     atom    1 type  1   force =     0.00000000    0.00000000    0.00000000
     atom    2 type  1   force =     0.00000000    0.00000000    0.00000000
     atom    3 type  1   force =     0.00000000    0.00000000    0.00000000
     atom    4 type  2   force =     0.00000000    0.00000000    0.00000000

     Total force =     0.000000     Total SCF correction =     0.000000
 !ASE

     General routines

     Parallel routines

   This run was terminated on:  21:56: 2  25Oct2017

   JOB DONE.