     Program PWSCF v.5.1rc2 (svn rev. ) starts on 24Oct2017 at 20: 6:47

     Current dimensions of program PWSCF are:
     Max number of different atomic species (ntypx) = 10
     Max number of k-points (npk) =  40000
     Max angular momentum in pseudopotentials (lmaxx) =  3

     IMPORTANT: XC functional enforced from input :
     Exchange-correlation      = BEEF-VDW ( 1  4 27 13 2)
     Any further DFT definition will be discarded
     Please, verify this is what you really want

     Subspace diagonalization in iterative solution of the eigenvalue problem:
     a serial algorithm will be used

     bravais-lattice index     =            0
     lattice parameter (alat)  =       1.8897  a.u.
     unit-cell volume          =     508.0600 (a.u.)^3
     number of atoms/cell      =            4
     number of atomic types    =            2
     number of electrons       =        70.00
     number of Kohn-Sham states=           55
     kinetic-energy cutoff     =      58.7989  Ry
     charge density cutoff     =     587.9892  Ry
     convergence threshold     =      7.3E-09
     mixing beta               =       0.1000
     number of iterations used =           10  local-TF  mixing
     Exchange-correlation      = BEEF-VDW ( 1  4 27 13 2)
     nstep                     =           50

     celldm(1)=   1.889726  celldm(2)=   0.000000  celldm(3)=   0.000000
     celldm(4)=   0.000000  celldm(5)=   0.000000  celldm(6)=   0.000000

     crystal axes: (cart. coord. in units of alat)
               a(1) = (   4.222531   0.000000   0.000000 )
               a(2) = (   0.000000   4.222531   0.000000 )
               a(3) = (   0.000000   0.000000   4.222531 )

     reciprocal axes: (cart. coord. in units 2 pi/alat)
               b(1) = (  0.236825  0.000000  0.000000 )
               b(2) = (  0.000000  0.236825  0.000000 )
               b(3) = (  0.000000  0.000000  0.236825 )

     PseudoPot. # 1 for Ag read from file:
     /home/vossj/suncat/psp/gbrv1.5pbe/Ag.UPF
     MD5 check sum: d66d668201baa78d5eb5b04ef7011058
     Pseudo is Ultrasoft + core correction, Zval = 19.0
     Generated by new atomic code, or converted to UPF format
     Using radial grid of  887 points,  6 beta functions with:
                l(1) =   0
                l(2) =   0
                l(3) =   1
                l(4) =   1
                l(5) =   2
                l(6) =   2
     Q(r) pseudized with  6 coefficients,  rinner =    1.300   1.300   1.300
                                                       1.300   1.300

     PseudoPot. # 2 for Nb read from file:
     /home/vossj/suncat/psp/gbrv1.5pbe/Nb.UPF
     MD5 check sum: 573aab8a2fa660278ed4a62cd769473f
     Pseudo is Ultrasoft + core correction, Zval = 13.0
     Generated by new atomic code, or converted to UPF format
     Using radial grid of  887 points,  6 beta functions with:
                l(1) =   0
                l(2) =   0
                l(3) =   1
                l(4) =   1
                l(5) =   2
                l(6) =   2
     Q(r) pseudized with  6 coefficients,  rinner =    1.000   1.000   1.000
                                                       1.000   1.000

     vdW kernel table read from file vdW_kernel_table
     MD5 check sum: 095c7af220d748ca6e76c0b4c6cfb241

     atomic species   valence    mass     pseudopotential
        Ag1           19.00   107.86820     Ag( 1.00)
        Nb1           13.00    92.90637     Nb( 1.00)

     48 Sym. Ops., with inversion, found (32 have fractional translation)

   Cartesian axes

     site n.     atom                  positions (alat units)
         1           Ag1 tau(   1) = (   0.0000000   0.0000000   0.0000000  )
         2           Ag1 tau(   2) = (   0.0000000   2.1112653   2.1112653  )
         3           Ag1 tau(   3) = (   2.1112653   0.0000000   2.1112653  )
         4           Nb1 tau(   4) = (   2.1112653   2.1112653   0.0000000  )

     number of k points=    84  Fermi-Dirac smearing, width (Ry)=  0.0073
                       cart. coord. in units 2pi/alat
        k(    1) = (   0.0000000   0.0000000   0.0000000), wk =   0.0011574
        k(    2) = (   0.0000000   0.0000000   0.0197354), wk =   0.0069444
        k(    3) = (   0.0000000   0.0000000   0.0394708), wk =   0.0069444
        k(    4) = (   0.0000000   0.0000000   0.0592062), wk =   0.0069444
        k(    5) = (   0.0000000   0.0000000   0.0789416), wk =   0.0069444
        k(    6) = (   0.0000000   0.0000000   0.0986770), wk =   0.0069444
        k(    7) = (   0.0000000   0.0000000  -0.1184124), wk =   0.0034722
        k(    8) = (   0.0000000   0.0197354   0.0197354), wk =   0.0138889
        k(    9) = (   0.0000000   0.0197354   0.0394708), wk =   0.0277778
        k(   10) = (   0.0000000   0.0197354   0.0592062), wk =   0.0277778
        k(   11) = (   0.0000000   0.0197354   0.0789416), wk =   0.0277778
        k(   12) = (   0.0000000   0.0197354   0.0986770), wk =   0.0277778
        k(   13) = (   0.0000000   0.0197354  -0.1184124), wk =   0.0138889
        k(   14) = (   0.0000000   0.0394708   0.0394708), wk =   0.0138889
        k(   15) = (   0.0000000   0.0394708   0.0592062), wk =   0.0277778
        k(   16) = (   0.0000000   0.0394708   0.0789416), wk =   0.0277778
        k(   17) = (   0.0000000   0.0394708   0.0986770), wk =   0.0277778
        k(   18) = (   0.0000000   0.0394708  -0.1184124), wk =   0.0138889
        k(   19) = (   0.0000000   0.0592062   0.0592062), wk =   0.0138889
        k(   20) = (   0.0000000   0.0592062   0.0789416), wk =   0.0277778
        k(   21) = (   0.0000000   0.0592062   0.0986770), wk =   0.0277778
        k(   22) = (   0.0000000   0.0592062  -0.1184124), wk =   0.0138889
        k(   23) = (   0.0000000   0.0789416   0.0789416), wk =   0.0138889
        k(   24) = (   0.0000000   0.0789416   0.0986770), wk =   0.0277778
        k(   25) = (   0.0000000   0.0789416  -0.1184124), wk =   0.0138889
        k(   26) = (   0.0000000   0.0986770   0.0986770), wk =   0.0138889
        k(   27) = (   0.0000000   0.0986770  -0.1184124), wk =   0.0138889
        k(   28) = (   0.0000000  -0.1184124  -0.1184124), wk =   0.0034722
        k(   29) = (   0.0197354   0.0197354   0.0197354), wk =   0.0092593
        k(   30) = (   0.0197354   0.0197354   0.0394708), wk =   0.0277778
        k(   31) = (   0.0197354   0.0197354   0.0592062), wk =   0.0277778
        k(   32) = (   0.0197354   0.0197354   0.0789416), wk =   0.0277778
        k(   33) = (   0.0197354   0.0197354   0.0986770), wk =   0.0277778
        k(   34) = (   0.0197354   0.0197354  -0.1184124), wk =   0.0138889
        k(   35) = (   0.0197354   0.0394708   0.0394708), wk =   0.0277778
        k(   36) = (   0.0197354   0.0394708   0.0592062), wk =   0.0555556
        k(   37) = (   0.0197354   0.0394708   0.0789416), wk =   0.0555556
        k(   38) = (   0.0197354   0.0394708   0.0986770), wk =   0.0555556
        k(   39) = (   0.0197354   0.0394708  -0.1184124), wk =   0.0277778
        k(   40) = (   0.0197354   0.0592062   0.0592062), wk =   0.0277778
        k(   41) = (   0.0197354   0.0592062   0.0789416), wk =   0.0555556
        k(   42) = (   0.0197354   0.0592062   0.0986770), wk =   0.0555556
        k(   43) = (   0.0197354   0.0592062  -0.1184124), wk =   0.0277778
        k(   44) = (   0.0197354   0.0789416   0.0789416), wk =   0.0277778
        k(   45) = (   0.0197354   0.0789416   0.0986770), wk =   0.0555556
        k(   46) = (   0.0197354   0.0789416  -0.1184124), wk =   0.0277778
        k(   47) = (   0.0197354   0.0986770   0.0986770), wk =   0.0277778
        k(   48) = (   0.0197354   0.0986770  -0.1184124), wk =   0.0277778
        k(   49) = (   0.0197354  -0.1184124  -0.1184124), wk =   0.0069444
        k(   50) = (   0.0394708   0.0394708   0.0394708), wk =   0.0092593
        k(   51) = (   0.0394708   0.0394708   0.0592062), wk =   0.0277778
        k(   52) = (   0.0394708   0.0394708   0.0789416), wk =   0.0277778
        k(   53) = (   0.0394708   0.0394708   0.0986770), wk =   0.0277778
        k(   54) = (   0.0394708   0.0394708  -0.1184124), wk =   0.0138889
        k(   55) = (   0.0394708   0.0592062   0.0592062), wk =   0.0277778
        k(   56) = (   0.0394708   0.0592062   0.0789416), wk =   0.0555556
        k(   57) = (   0.0394708   0.0592062   0.0986770), wk =   0.0555556
        k(   58) = (   0.0394708   0.0592062  -0.1184124), wk =   0.0277778
        k(   59) = (   0.0394708   0.0789416   0.0789416), wk =   0.0277778
        k(   60) = (   0.0394708   0.0789416   0.0986770), wk =   0.0555556
[...]
        k(   70) = (   0.0592062   0.0789416   0.0986770), wk =   0.0555556
        k(   71) = (   0.0592062   0.0789416  -0.1184124), wk =   0.0277778
        k(   72) = (   0.0592062   0.0986770   0.0986770), wk =   0.0277778
        k(   73) = (   0.0592062   0.0986770  -0.1184124), wk =   0.0277778
        k(   74) = (   0.0592062  -0.1184124  -0.1184124), wk =   0.0069444
        k(   75) = (   0.0789416   0.0789416   0.0789416), wk =   0.0092593
        k(   76) = (   0.0789416   0.0789416   0.0986770), wk =   0.0277778
        k(   77) = (   0.0789416   0.0789416  -0.1184124), wk =   0.0138889
        k(   78) = (   0.0789416   0.0986770   0.0986770), wk =   0.0277778
        k(   79) = (   0.0789416   0.0986770  -0.1184124), wk =   0.0277778
        k(   80) = (   0.0789416  -0.1184124  -0.1184124), wk =   0.0069444
        k(   81) = (   0.0986770   0.0986770   0.0986770), wk =   0.0092593
        k(   82) = (   0.0986770   0.0986770  -0.1184124), wk =   0.0138889
        k(   83) = (   0.0986770  -0.1184124  -0.1184124), wk =   0.0069444
        k(   84) = (  -0.1184124  -0.1184124  -0.1184124), wk =   0.0011574

     Largest allocated arrays     est. size (Mb)     dimensions
     Largest temporary arrays     est. size (Mb)     dimensions

     Initial potential from superposition of free atoms

     starting charge   68.49712, renormalised to   70.00000

     *
     * You are using vdW-DF for exchange-correlation in this calculation.
     * Please cite the following three references that made this development
     * possible:
     *
     *   M. Dion, H. Rydberg, E. Schroder, D. C. Langreth, and
     *   B. I. Lundqvist, Phys. Rev. Lett. 92, 246401 (2004).
     *
     *   T. Thonhauser, V. R. Cooper, S. Li, A. Puzder, P. Hyldgaard, and
     *   D. C. Langreth, Phys. Rev. B 76, 125112 (2007).
     *
     *   G. Roman-Perez and J. M. Soler, Phys. Rev. Lett. 103, 096102 (2009).
     *
     *
     * If you are using vdW-DF2, please also cite:
     *
     *   K. Lee, E. D. Murray, L. Kong, B. I. Lundqvist, and
     *   D. C. Langreth, Phys. Rev. B 82, 081101(R) (2010).
     *
     *
     * If you are calculating the stress with vdW-DF, please also cite:
     *
     *   R. Sabatini, E. Kucukbenli, B. Kolb, T. Thonhauser, and
     *   S. de Gironcoli, J. Phys.: Condens. Matter 24, 424209 (2012).
     *

     Carrying out vdW-DF run using the following parameters:

     Nqs =      20    Nr_points =    1024   r_max =   100.000
     q_mesh =
               0.00001000     0.04494208     0.09755937     0.15916263
               0.23128650     0.31572767     0.41458969     0.53033537
               0.66584808     0.82450364     1.01025438     1.22772762
               1.48234092     1.78043706     2.12944203     2.53805004
               3.01644009     3.57652955     4.23227104     5.00000000

     Gradients computed in reciprocal space

     Starting wfc are   52 randomized atomic wfcs +    3 random wfc

     Self-consistent Calculation

     iteration #  1     ecut=    58.80 Ry     beta=0.10
     Davidson diagonalization with overlap
     ethr =  1.00E-02,  avg # of iterations =  4.8

     total energy              =   -1008.97514889 Ry
     Harris-Foulkes estimate   =   -1009.18711285 Ry
     estimated scf accuracy    <       3.28491548 Ry

[...]

     total energy              =   -1008.43236114 Ry
     Harris-Foulkes estimate   =   -1008.43235804 Ry
     estimated scf accuracy    <       0.00000001 Ry

     iteration # 15     ecut=    58.80 Ry     beta=0.10
     Davidson diagonalization with overlap
     ethr =  1.49E-11,  avg # of iterations =  1.0

     End of self-consistent calculation

          k = 0.0000 0.0000 0.0000 (  3887 PWs)   bands (ev):

   -76.3994 -76.3892 -76.3892 -40.0599 -39.9216 -39.9216 -39.9216 -39.9008
   -39.9008 -39.9008 -39.7938 -39.7938 -39.7938 -16.0295 -16.0295 -16.0295
     8.7799   9.8253   9.8995   9.8995   9.9845   9.9845   9.9845  11.3114
    11.3114  11.3114  12.1066  12.1066  12.4680  12.7398  12.7398  12.7398
    16.0006  16.0006  17.2469  17.2469  17.2469  17.7228  17.7228  17.7228
    23.4619  23.4619  23.5743  25.1534  25.1534  25.1534  27.2413  27.2413
    27.2413  30.5077  32.1668  32.1668  32.9848  32.9848  32.9848

[...]

          k = 0.0987-0.1184-0.1184 (  3876 PWs)   bands (ev):

[...]

          k =-0.1184-0.1184-0.1184 (  3912 PWs)   bands (ev):

   -76.3926 -76.3926 -76.3926 -40.0586 -39.9366 -39.9366 -39.9366 -39.8754
   -39.8754 -39.8754 -39.8660 -39.7754 -39.7754 -16.0413 -16.0413 -16.0413
     9.8064   9.9806   9.9806   9.9806  10.9857  10.9857  10.9857  11.4189
    11.4189  11.4189  11.5354  11.5354  12.5399  12.5399  12.5399  15.3586
    15.3586  15.3586  15.6990  15.8815  15.8815  15.8815  17.1108  17.1108
    21.0263  21.1242  21.1242  21.1242  29.6843  29.6843  29.6843  30.3129
    31.3256  31.3256  31.3256  32.6809  32.6809  34.9082  34.9082

     the Fermi energy is    15.6509 ev

!    total energy              =   -1008.43237437 Ry
     Harris-Foulkes estimate   =   -1008.43236114 Ry
     estimated scf accuracy    <          1.6E-09 Ry

     The total energy is the sum of the following terms:

     one-electron contribution =    -441.98623808 Ry
     hartree contribution      =     254.30546936 Ry
     xc contribution           =    -109.23597562 Ry
     ewald contribution        =    -711.49664628 Ry
     smearing contrib. (-TS)   =      -0.01898375 Ry

     convergence has been achieved in  15 iterations

     Forces acting on atoms (Ry/au):

     atom    1 type  1   force =     0.00000000    0.00000000    0.00000000
     atom    2 type  1   force =     0.00000000    0.00000000    0.00000000
     atom    3 type  1   force =     0.00000000    0.00000000    0.00000000
     atom    4 type  2   force =     0.00000000    0.00000000    0.00000000

     Total force =     0.000000     Total SCF correction =     0.000000
 !ASE

     General routines

     Parallel routines

   This run was terminated on:  20: 7:57  24Oct2017

   JOB DONE.