     Program PWSCF v.5.1rc2 (svn rev. ) starts on 25Oct2017 at 12:25:58

     Current dimensions of program PWSCF are:
     Max number of different atomic species (ntypx) = 10
     Max number of k-points (npk) =  40000
     Max angular momentum in pseudopotentials (lmaxx) =  3

     IMPORTANT: XC functional enforced from input :
     Exchange-correlation      = BEEF-VDW ( 1  4 27 13 2)
     Any further DFT definition will be discarded
     Please, verify this is what you really want

     Subspace diagonalization in iterative solution of the eigenvalue problem:
     a serial algorithm will be used

     bravais-lattice index     =            0
     lattice parameter (alat)  =       1.8897  a.u.
     unit-cell volume          =     552.9239 (a.u.)^3
     number of atoms/cell      =            4
     number of atomic types    =            2
     number of electrons       =        51.00
     number of Kohn-Sham states=           45
     kinetic-energy cutoff     =      58.7989  Ry
     charge density cutoff     =     587.9892  Ry
     convergence threshold     =      7.3E-09
     mixing beta               =       0.1000
     number of iterations used =           10  local-TF  mixing
     Exchange-correlation      = BEEF-VDW ( 1  4 27 13 2)
     nstep                     =           50

     celldm(1)=   1.889726  celldm(2)=   0.000000  celldm(3)=   0.000000
     celldm(4)=   0.000000  celldm(5)=   0.000000  celldm(6)=   0.000000

     crystal axes: (cart. coord. in units of alat)
               a(1) = (   4.343331   0.000000   0.000000 )
               a(2) = (   0.000000   4.343331   0.000000 )
               a(3) = (   0.000000   0.000000   4.343331 )

     reciprocal axes: (cart. coord. in units 2 pi/alat)
               b(1) = (  0.230238  0.000000  0.000000 )
               b(2) = (  0.000000  0.230238  0.000000 )
               b(3) = (  0.000000  0.000000  0.230238 )

     PseudoPot. # 1 for Zr read from file:
     /home/vossj/suncat/psp/gbrv1.5pbe/Zr.UPF
     MD5 check sum: 5db81b1e868ab7776c4564c113de050b
     Pseudo is Ultrasoft + core correction, Zval = 12.0
     Generated by new atomic code, or converted to UPF format
     Using radial grid of  887 points,  6 beta functions with:
                l(1) =   0
                l(2) =   0
                l(3) =   1
                l(4) =   1
                l(5) =   2
                l(6) =   2
     Q(r) pseudized with  6 coefficients,  rinner =    1.200   1.200   1.200
                                                       1.200   1.200

     PseudoPot. # 2 for Rh read from file:
     /home/vossj/suncat/psp/gbrv1.5pbe/Rh.UPF
     MD5 check sum: 761627e959a2e3a1f56b0b5fe687810e
     Pseudo is Ultrasoft + core correction, Zval = 15.0
     Generated by new atomic code, or converted to UPF format
     Using radial grid of  969 points,  7 beta functions with:
                l(1) =   0
                l(2) =   0
                l(3) =   1
                l(4) =   1
                l(5) =   2
                l(6) =   2
                l(7) =   2
     Q(r) pseudized with  8 coefficients,  rinner =    1.200   1.200   1.200
                                                       1.200   1.200

     vdW kernel table read from file vdW_kernel_table
     MD5 check sum: 095c7af220d748ca6e76c0b4c6cfb241

     atomic species   valence    mass     pseudopotential
        Zr1           12.00    91.22400     Zr( 1.00)
        Rh1           15.00   102.90550     Rh( 1.00)

     48 Sym. Ops., with inversion, found (32 have fractional translation)

   Cartesian axes

     site n.     atom                  positions (alat units)
         1           Zr1 tau(   1) = (   0.0000000   0.0000000   0.0000000  )
         2           Zr1 tau(   2) = (   0.0000000   2.1716654   2.1716654  )
         3           Zr1 tau(   3) = (   2.1716654   0.0000000   2.1716654  )
         4           Rh1 tau(   4) = (   2.1716654   2.1716654   0.0000000  )

     number of k points=    84  Fermi-Dirac smearing, width (Ry)=  0.0073
                       cart. coord. in units 2pi/alat
        k(    1) = (   0.0000000   0.0000000   0.0000000), wk =   0.0011574
        k(    2) = (   0.0000000   0.0000000   0.0191865), wk =   0.0069444
        k(    3) = (   0.0000000   0.0000000   0.0383730), wk =   0.0069444
        k(    4) = (   0.0000000   0.0000000   0.0575595), wk =   0.0069444
        k(    5) = (   0.0000000   0.0000000   0.0767460), wk =   0.0069444
        k(    6) = (   0.0000000   0.0000000   0.0959325), wk =   0.0069444
        k(    7) = (   0.0000000   0.0000000  -0.1151190), wk =   0.0034722
        k(    8) = (   0.0000000   0.0191865   0.0191865), wk =   0.0138889
        k(    9) = (   0.0000000   0.0191865   0.0383730), wk =   0.0277778
        k(   10) = (   0.0000000   0.0191865   0.0575595), wk =   0.0277778
        k(   11) = (   0.0000000   0.0191865   0.0767460), wk =   0.0277778
        k(   12) = (   0.0000000   0.0191865   0.0959325), wk =   0.0277778
        k(   13) = (   0.0000000   0.0191865  -0.1151190), wk =   0.0138889
        k(   14) = (   0.0000000   0.0383730   0.0383730), wk =   0.0138889
        k(   15) = (   0.0000000   0.0383730   0.0575595), wk =   0.0277778
        k(   16) = (   0.0000000   0.0383730   0.0767460), wk =   0.0277778
        k(   17) = (   0.0000000   0.0383730   0.0959325), wk =   0.0277778
        k(   18) = (   0.0000000   0.0383730  -0.1151190), wk =   0.0138889
        k(   19) = (   0.0000000   0.0575595   0.0575595), wk =   0.0138889
        k(   20) = (   0.0000000   0.0575595   0.0767460), wk =   0.0277778
        k(   21) = (   0.0000000   0.0575595   0.0959325), wk =   0.0277778
        k(   22) = (   0.0000000   0.0575595  -0.1151190), wk =   0.0138889
        k(   23) = (   0.0000000   0.0767460   0.0767460), wk =   0.0138889
        k(   24) = (   0.0000000   0.0767460   0.0959325), wk =   0.0277778
        k(   25) = (   0.0000000   0.0767460  -0.1151190), wk =   0.0138889
        k(   26) = (   0.0000000   0.0959325   0.0959325), wk =   0.0138889
        k(   27) = (   0.0000000   0.0959325  -0.1151190), wk =   0.0138889
        k(   28) = (   0.0000000  -0.1151190  -0.1151190), wk =   0.0034722
        k(   29) = (   0.0191865   0.0191865   0.0191865), wk =   0.0092593
        k(   30) = (   0.0191865   0.0191865   0.0383730), wk =   0.0277778
        k(   31) = (   0.0191865   0.0191865   0.0575595), wk =   0.0277778
        k(   32) = (   0.0191865   0.0191865   0.0767460), wk =   0.0277778
        k(   33) = (   0.0191865   0.0191865   0.0959325), wk =   0.0277778
        k(   34) = (   0.0191865   0.0191865  -0.1151190), wk =   0.0138889
        k(   35) = (   0.0191865   0.0383730   0.0383730), wk =   0.0277778
        k(   36) = (   0.0191865   0.0383730   0.0575595), wk =   0.0555556
        k(   37) = (   0.0191865   0.0383730   0.0767460), wk =   0.0555556
        k(   38) = (   0.0191865   0.0383730   0.0959325), wk =   0.0555556
        k(   39) = (   0.0191865   0.0383730  -0.1151190), wk =   0.0277778
        k(   40) = (   0.0191865   0.0575595   0.0575595), wk =   0.0277778
        k(   41) = (   0.0191865   0.0575595   0.0767460), wk =   0.0555556
        k(   42) = (   0.0191865   0.0575595   0.0959325), wk =   0.0555556
        k(   43) = (   0.0191865   0.0575595  -0.1151190), wk =   0.0277778
        k(   44) = (   0.0191865   0.0767460   0.0767460), wk =   0.0277778
        k(   45) = (   0.0191865   0.0767460   0.0959325), wk =   0.0555556
        k(   46) = (   0.0191865   0.0767460  -0.1151190), wk =   0.0277778
        k(   47) = (   0.0191865   0.0959325   0.0959325), wk =   0.0277778
        k(   48) = (   0.0191865   0.0959325  -0.1151190), wk =   0.0277778
        k(   49) = (   0.0191865  -0.1151190  -0.1151190), wk =   0.0069444
        k(   50) = (   0.0383730   0.0383730   0.0383730), wk =   0.0092593
        k(   51) = (   0.0383730   0.0383730   0.0575595), wk =   0.0277778
        k(   52) = (   0.0383730   0.0383730   0.0767460), wk =   0.0277778
        k(   53) = (   0.0383730   0.0383730   0.0959325), wk =   0.0277778
        k(   54) = (   0.0383730   0.0383730  -0.1151190), wk =   0.0138889
        k(   55) = (   0.0383730   0.0575595   0.0575595), wk =   0.0277778
        k(   56) = (   0.0383730   0.0575595   0.0767460), wk =   0.0555556
        k(   57) = (   0.0383730   0.0575595   0.0959325), wk =   0.0555556
        k(   58) = (   0.0383730   0.0575595  -0.1151190), wk =   0.0277778
        k(   59) = (   0.0383730   0.0767460   0.0767460), wk =   0.0277778
        k(   60) = (   0.0383730   0.0767460   0.0959325), wk =   0.0555556
[...]
        k(   70) = (   0.0575595   0.0767460   0.0959325), wk =   0.0555556
        k(   71) = (   0.0575595   0.0767460  -0.1151190), wk =   0.0277778
        k(   72) = (   0.0575595   0.0959325   0.0959325), wk =   0.0277778
        k(   73) = (   0.0575595   0.0959325  -0.1151190), wk =   0.0277778
        k(   74) = (   0.0575595  -0.1151190  -0.1151190), wk =   0.0069444
        k(   75) = (   0.0767460   0.0767460   0.0767460), wk =   0.0092593
        k(   76) = (   0.0767460   0.0767460   0.0959325), wk =   0.0277778
        k(   77) = (   0.0767460   0.0767460  -0.1151190), wk =   0.0138889
        k(   78) = (   0.0767460   0.0959325   0.0959325), wk =   0.0277778
        k(   79) = (   0.0767460   0.0959325  -0.1151190), wk =   0.0277778
        k(   80) = (   0.0767460  -0.1151190  -0.1151190), wk =   0.0069444
        k(   81) = (   0.0959325   0.0959325   0.0959325), wk =   0.0092593
        k(   82) = (   0.0959325   0.0959325  -0.1151190), wk =   0.0138889
        k(   83) = (   0.0959325  -0.1151190  -0.1151190), wk =   0.0069444
        k(   84) = (  -0.1151190  -0.1151190  -0.1151190), wk =   0.0011574

     Largest allocated arrays     est. size (Mb)     dimensions
     Largest temporary arrays     est. size (Mb)     dimensions

     Initial potential from superposition of free atoms
     Check: negative starting charge=   -0.234538

     starting charge   50.49345, renormalised to   51.00000

     negative rho (up, down):  2.369E-01 0.000E+00

     *
     * You are using vdW-DF for exchange-correlation in this calculation.
     * Please cite the following three references that made this development
     * possible:
     *
     *   M. Dion, H. Rydberg, E. Schroder, D. C. Langreth, and
     *   B. I. Lundqvist, Phys. Rev. Lett. 92, 246401 (2004).
     *
     *   T. Thonhauser, V. R. Cooper, S. Li, A. Puzder, P. Hyldgaard, and
     *   D. C. Langreth, Phys. Rev. B 76, 125112 (2007).
     *
     *   G. Roman-Perez and J. M. Soler, Phys. Rev. Lett. 103, 096102 (2009).
     *
     *
     * If you are using vdW-DF2, please also cite:
     *
     *   K. Lee, E. D. Murray, L. Kong, B. I. Lundqvist, and
     *   D. C. Langreth, Phys. Rev. B 82, 081101(R) (2010).
     *
     *
     * If you are calculating the stress with vdW-DF, please also cite:
     *
     *   R. Sabatini, E. Kucukbenli, B. Kolb, T. Thonhauser, and
     *   S. de Gironcoli, J. Phys.: Condens. Matter 24, 424209 (2012).
     *

     Carrying out vdW-DF run using the following parameters:

     Nqs =      20    Nr_points =    1024   r_max =   100.000
     q_mesh =
               0.00001000     0.04494208     0.09755937     0.15916263
               0.23128650     0.31572767     0.41458969     0.53033537
               0.66584808     0.82450364     1.01025438     1.22772762
               1.48234092     1.78043706     2.12944203     2.53805004
               3.01644009     3.57652955     4.23227104     5.00000000

     Gradients computed in reciprocal space

     Starting wfc are   51 randomized atomic wfcs

     Self-consistent Calculation

     iteration #  1     ecut=    58.80 Ry     beta=0.10
     Davidson diagonalization with overlap
     ethr =  1.00E-02,  avg # of iterations =  4.2

     Threshold (ethr) on eigenvalues was too large:
     Diagonalizing with lowered threshold

     Davidson diagonalization with overlap
     ethr =  3.02E-04,  avg # of iterations =  2.1

[...]

     total energy              =    -471.68422390 Ry
     Harris-Foulkes estimate   =    -471.69305332 Ry
     estimated scf accuracy    <       0.16022609 Ry

[...]

     total energy              =    -471.64350806 Ry
     Harris-Foulkes estimate   =    -471.64350608 Ry
     estimated scf accuracy    <       0.00000011 Ry

     iteration # 12     ecut=    58.80 Ry     beta=0.10
     Davidson diagonalization with overlap
     ethr =  2.16E-10,  avg # of iterations =  1.2

     negative rho (up, down):  2.433E-01 0.000E+00

     End of self-consistent calculation

          k = 0.0000 0.0000 0.0000 (  4169 PWs)   bands (ev):

   -33.7910 -33.5684 -33.5677 -30.8699 -30.8699 -30.8699 -12.1188 -12.1187
   -12.1187 -11.5635 -11.5635 -11.5631 -11.2256 -11.2253 -11.2253   9.4437
    11.5216  11.5218  11.6221  12.0940  12.0940  12.0940  14.9429  14.9429
    14.9431  16.3048  16.3050  18.5285  18.5285  18.5285  19.0073  19.0078
    19.0078  19.9134  19.9138  20.9657  21.5256  21.5256  21.5260  25.2155
    25.2155  25.2155  26.3764  26.9717  26.9743

[...]

          k = 0.0959-0.1151-0.1151 (  4232 PWs)   bands (ev):

[...]

          k =-0.1151-0.1151-0.1151 (  4224 PWs)   bands (ev):

   -33.6415 -33.6405 -33.6405 -30.8710 -30.8710 -30.8710 -12.4268 -12.0502
   -12.0502 -12.0497 -11.2646 -11.2646 -11.2641 -11.2412 -11.2406  11.5782
    11.7201  11.7201  11.7201  13.4832  13.4832  14.6344  14.6345  14.6345
    16.0447  16.0449  16.0449  16.3944  16.3944  16.3947  16.9098  18.7075
    18.7080  18.7080  19.4347  19.4351  20.9481  20.9482  20.9482  24.0025
    25.4297  25.4297  25.4297  26.5765  26.7407

     the Fermi energy is    15.2256 ev

!    total energy              =    -471.64351904 Ry
     Harris-Foulkes estimate   =    -471.64351051 Ry
     estimated scf accuracy    <          4.9E-09 Ry

     The total energy is the sum of the following terms:

     one-electron contribution =     -94.55195422 Ry
     hartree contribution      =      74.46961190 Ry
     xc contribution           =     -86.45877328 Ry
     ewald contribution        =    -365.08695373 Ry
     smearing contrib. (-TS)   =      -0.01544972 Ry

     convergence has been achieved in  12 iterations

     Forces acting on atoms (Ry/au):

     negative rho (up, down):  2.433E-01 0.000E+00
     atom    1 type  1   force =     0.00000000    0.00000000    0.00000000
     atom    2 type  1   force =     0.00000000   -0.00000000    0.00000000
     atom    3 type  1   force =     0.00000000   -0.00000000    0.00000000
     atom    4 type  2   force =     0.00000000   -0.00000000    0.00000000

     Total force =     0.000000     Total SCF correction =     0.000000
 !ASE

     General routines

     Parallel routines

   This run was terminated on:  12:26:55  25Oct2017

   JOB DONE.