     Program PWSCF v.5.1rc2 (svn rev. ) starts on 24Oct2017 at 20:30:56

     Current dimensions of program PWSCF are:
     Max number of different atomic species (ntypx) = 10
     Max number of k-points (npk) =  40000
     Max angular momentum in pseudopotentials (lmaxx) =  3

     IMPORTANT: XC functional enforced from input :
     Exchange-correlation      = BEEF-VDW ( 1  4 27 13 2)
     Any further DFT definition will be discarded
     Please, verify this is what you really want

     Subspace diagonalization in iterative solution of the eigenvalue problem:
     a serial algorithm will be used

     bravais-lattice index     =            0
     lattice parameter (alat)  =       1.8897  a.u.
     unit-cell volume          =     673.0016 (a.u.)^3
     number of atoms/cell      =            4
     number of atomic types    =            2
     number of electrons       =        68.00
     number of Kohn-Sham states=           54
     kinetic-energy cutoff     =      58.7989  Ry
     charge density cutoff     =     587.9892  Ry
     convergence threshold     =      7.3E-09
     mixing beta               =       0.1000
     number of iterations used =           10  local-TF  mixing
     Exchange-correlation      = BEEF-VDW ( 1  4 27 13 2)
     nstep                     =           50

     celldm(1)=   1.889726  celldm(2)=   0.000000  celldm(3)=   0.000000
     celldm(4)=   0.000000  celldm(5)=   0.000000  celldm(6)=   0.000000

     crystal axes: (cart. coord. in units of alat)
               a(1) = (   4.637385   0.000000   0.000000 )
               a(2) = (   0.000000   4.637385   0.000000 )
               a(3) = (   0.000000   0.000000   4.637385 )

     reciprocal axes: (cart. coord. in units 2 pi/alat)
               b(1) = (  0.215639  0.000000  0.000000 )
               b(2) = (  0.000000  0.215639  0.000000 )
               b(3) = (  0.000000  0.000000  0.215639 )

     PseudoPot. # 1 for Ag read from file:
     /home/vossj/suncat/psp/gbrv1.5pbe/Ag.UPF
     MD5 check sum: d66d668201baa78d5eb5b04ef7011058
     Pseudo is Ultrasoft + core correction, Zval = 19.0
     Generated by new atomic code, or converted to UPF format
     Using radial grid of  887 points,  6 beta functions with:
                l(1) =   0
                l(2) =   0
                l(3) =   1
                l(4) =   1
                l(5) =   2
                l(6) =   2
     Q(r) pseudized with  6 coefficients,  rinner =    1.300   1.300   1.300
                                                       1.300   1.300

     PseudoPot. # 2 for La read from file:
     /home/vossj/suncat/psp/gbrv1.5pbe/La.UPF
     MD5 check sum: 5937b0c7494ba0601a847275249473aa
     Pseudo is Ultrasoft + core correction, Zval = 11.0
     Generated by new atomic code, or converted to UPF format
     Using radial grid of  995 points,  8 beta functions with:
                l(1) =   0
                l(2) =   0
                l(3) =   1
                l(4) =   1
                l(5) =   2
                l(6) =   2
                l(7) =   3
                l(8) =   3
     Q(r) pseudized with  8 coefficients,  rinner =    1.700   1.700   1.700
                                                       1.700   1.700   1.700
                                                       1.700

     vdW kernel table read from file vdW_kernel_table
     MD5 check sum: 095c7af220d748ca6e76c0b4c6cfb241

     atomic species   valence    mass     pseudopotential
        Ag1           19.00   107.86820     Ag( 1.00)
        La1           11.00   138.90547     La( 1.00)

     48 Sym. Ops., with inversion, found (32 have fractional translation)

   Cartesian axes

     site n.     atom                  positions (alat units)
         1           Ag1 tau(   1) = (   0.0000000   0.0000000   0.0000000  )
         2           Ag1 tau(   2) = (   0.0000000   2.3186926   2.3186926  )
         3           Ag1 tau(   3) = (   2.3186926   0.0000000   2.3186926  )
         4           La1 tau(   4) = (   2.3186926   2.3186926   0.0000000  )

     number of k points=    84  Fermi-Dirac smearing, width (Ry)=  0.0073
                       cart. coord. in units 2pi/alat
        k(    1) = (   0.0000000   0.0000000   0.0000000), wk =   0.0011574
        k(    2) = (   0.0000000   0.0000000   0.0179699), wk =   0.0069444
        k(    3) = (   0.0000000   0.0000000   0.0359398), wk =   0.0069444
        k(    4) = (   0.0000000   0.0000000   0.0539097), wk =   0.0069444
        k(    5) = (   0.0000000   0.0000000   0.0718796), wk =   0.0069444
        k(    6) = (   0.0000000   0.0000000   0.0898495), wk =   0.0069444
        k(    7) = (   0.0000000   0.0000000  -0.1078194), wk =   0.0034722
        k(    8) = (   0.0000000   0.0179699   0.0179699), wk =   0.0138889
        k(    9) = (   0.0000000   0.0179699   0.0359398), wk =   0.0277778
        k(   10) = (   0.0000000   0.0179699   0.0539097), wk =   0.0277778
        k(   11) = (   0.0000000   0.0179699   0.0718796), wk =   0.0277778
        k(   12) = (   0.0000000   0.0179699   0.0898495), wk =   0.0277778
        k(   13) = (   0.0000000   0.0179699  -0.1078194), wk =   0.0138889
        k(   14) = (   0.0000000   0.0359398   0.0359398), wk =   0.0138889
        k(   15) = (   0.0000000   0.0359398   0.0539097), wk =   0.0277778
        k(   16) = (   0.0000000   0.0359398   0.0718796), wk =   0.0277778
        k(   17) = (   0.0000000   0.0359398   0.0898495), wk =   0.0277778
        k(   18) = (   0.0000000   0.0359398  -0.1078194), wk =   0.0138889
        k(   19) = (   0.0000000   0.0539097   0.0539097), wk =   0.0138889
        k(   20) = (   0.0000000   0.0539097   0.0718796), wk =   0.0277778
        k(   21) = (   0.0000000   0.0539097   0.0898495), wk =   0.0277778
        k(   22) = (   0.0000000   0.0539097  -0.1078194), wk =   0.0138889
        k(   23) = (   0.0000000   0.0718796   0.0718796), wk =   0.0138889
        k(   24) = (   0.0000000   0.0718796   0.0898495), wk =   0.0277778
        k(   25) = (   0.0000000   0.0718796  -0.1078194), wk =   0.0138889
        k(   26) = (   0.0000000   0.0898495   0.0898495), wk =   0.0138889
        k(   27) = (   0.0000000   0.0898495  -0.1078194), wk =   0.0138889
        k(   28) = (   0.0000000  -0.1078194  -0.1078194), wk =   0.0034722
        k(   29) = (   0.0179699   0.0179699   0.0179699), wk =   0.0092593
        k(   30) = (   0.0179699   0.0179699   0.0359398), wk =   0.0277778
        k(   31) = (   0.0179699   0.0179699   0.0539097), wk =   0.0277778
        k(   32) = (   0.0179699   0.0179699   0.0718796), wk =   0.0277778
        k(   33) = (   0.0179699   0.0179699   0.0898495), wk =   0.0277778
        k(   34) = (   0.0179699   0.0179699  -0.1078194), wk =   0.0138889
        k(   35) = (   0.0179699   0.0359398   0.0359398), wk =   0.0277778
        k(   36) = (   0.0179699   0.0359398   0.0539097), wk =   0.0555556
        k(   37) = (   0.0179699   0.0359398   0.0718796), wk =   0.0555556
        k(   38) = (   0.0179699   0.0359398   0.0898495), wk =   0.0555556
        k(   39) = (   0.0179699   0.0359398  -0.1078194), wk =   0.0277778
        k(   40) = (   0.0179699   0.0539097   0.0539097), wk =   0.0277778
        k(   41) = (   0.0179699   0.0539097   0.0718796), wk =   0.0555556
        k(   42) = (   0.0179699   0.0539097   0.0898495), wk =   0.0555556
        k(   43) = (   0.0179699   0.0539097  -0.1078194), wk =   0.0277778
        k(   44) = (   0.0179699   0.0718796   0.0718796), wk =   0.0277778
        k(   45) = (   0.0179699   0.0718796   0.0898495), wk =   0.0555556
        k(   46) = (   0.0179699   0.0718796  -0.1078194), wk =   0.0277778
        k(   47) = (   0.0179699   0.0898495   0.0898495), wk =   0.0277778
        k(   48) = (   0.0179699   0.0898495  -0.1078194), wk =   0.0277778
        k(   49) = (   0.0179699  -0.1078194  -0.1078194), wk =   0.0069444
        k(   50) = (   0.0359398   0.0359398   0.0359398), wk =   0.0092593
        k(   51) = (   0.0359398   0.0359398   0.0539097), wk =   0.0277778
        k(   52) = (   0.0359398   0.0359398   0.0718796), wk =   0.0277778
        k(   53) = (   0.0359398   0.0359398   0.0898495), wk =   0.0277778
        k(   54) = (   0.0359398   0.0359398  -0.1078194), wk =   0.0138889
        k(   55) = (   0.0359398   0.0539097   0.0539097), wk =   0.0277778
        k(   56) = (   0.0359398   0.0539097   0.0718796), wk =   0.0555556
        k(   57) = (   0.0359398   0.0539097   0.0898495), wk =   0.0555556
        k(   58) = (   0.0359398   0.0539097  -0.1078194), wk =   0.0277778
        k(   59) = (   0.0359398   0.0718796   0.0718796), wk =   0.0277778
        k(   60) = (   0.0359398   0.0718796   0.0898495), wk =   0.0555556
[...]
        k(   70) = (   0.0539097   0.0718796   0.0898495), wk =   0.0555556
        k(   71) = (   0.0539097   0.0718796  -0.1078194), wk =   0.0277778
        k(   72) = (   0.0539097   0.0898495   0.0898495), wk =   0.0277778
        k(   73) = (   0.0539097   0.0898495  -0.1078194), wk =   0.0277778
        k(   74) = (   0.0539097  -0.1078194  -0.1078194), wk =   0.0069444
        k(   75) = (   0.0718796   0.0718796   0.0718796), wk =   0.0092593
        k(   76) = (   0.0718796   0.0718796   0.0898495), wk =   0.0277778
        k(   77) = (   0.0718796   0.0718796  -0.1078194), wk =   0.0138889
        k(   78) = (   0.0718796   0.0898495   0.0898495), wk =   0.0277778
        k(   79) = (   0.0718796   0.0898495  -0.1078194), wk =   0.0277778
        k(   80) = (   0.0718796  -0.1078194  -0.1078194), wk =   0.0069444
        k(   81) = (   0.0898495   0.0898495   0.0898495), wk =   0.0092593
        k(   82) = (   0.0898495   0.0898495  -0.1078194), wk =   0.0138889
        k(   83) = (   0.0898495  -0.1078194  -0.1078194), wk =   0.0069444
        k(   84) = (  -0.1078194  -0.1078194  -0.1078194), wk =   0.0011574

     Largest allocated arrays     est. size (Mb)     dimensions
     Largest temporary arrays     est. size (Mb)     dimensions

     Initial potential from superposition of free atoms
     Check: negative starting charge=   -0.071478

     starting charge   66.46779, renormalised to   68.00000

     negative rho (up, down):  7.313E-02 0.000E+00

     *
     * You are using vdW-DF for exchange-correlation in this calculation.
     * Please cite the following three references that made this development
     * possible:
     *
     *   M. Dion, H. Rydberg, E. Schroder, D. C. Langreth, and
     *   B. I. Lundqvist, Phys. Rev. Lett. 92, 246401 (2004).
     *
     *   T. Thonhauser, V. R. Cooper, S. Li, A. Puzder, P. Hyldgaard, and
     *   D. C. Langreth, Phys. Rev. B 76, 125112 (2007).
     *
     *   G. Roman-Perez and J. M. Soler, Phys. Rev. Lett. 103, 096102 (2009).
     *
     *
     * If you are using vdW-DF2, please also cite:
     *
     *   K. Lee, E. D. Murray, L. Kong, B. I. Lundqvist, and
     *   D. C. Langreth, Phys. Rev. B 82, 081101(R) (2010).
     *
     *
     * If you are calculating the stress with vdW-DF, please also cite:
     *
     *   R. Sabatini, E. Kucukbenli, B. Kolb, T. Thonhauser, and
     *   S. de Gironcoli, J. Phys.: Condens. Matter 24, 424209 (2012).
     *

     Carrying out vdW-DF run using the following parameters:

     Nqs =      20    Nr_points =    1024   r_max =   100.000
     q_mesh =
               0.00001000     0.04494208     0.09755937     0.15916263
               0.23128650     0.31572767     0.41458969     0.53033537
               0.66584808     0.82450364     1.01025438     1.22772762
               1.48234092     1.78043706     2.12944203     2.53805004
               3.01644009     3.57652955     4.23227104     5.00000000

     Gradients computed in reciprocal space

     Starting wfc are   59 randomized atomic wfcs

     Self-consistent Calculation

     iteration #  1     ecut=    58.80 Ry     beta=0.10
     Davidson diagonalization with overlap
     ethr =  1.00E-02,  avg # of iterations =  3.6

[...]

     total energy              =    -994.33985001 Ry
     Harris-Foulkes estimate   =    -995.28050020 Ry
     estimated scf accuracy    <      16.48045309 Ry

[...]

     total energy              =    -994.07815262 Ry
     Harris-Foulkes estimate   =    -994.07813695 Ry
     estimated scf accuracy    <       0.00000009 Ry

     iteration # 16     ecut=    58.80 Ry     beta=0.10
     Davidson diagonalization with overlap
     ethr =  2.02E-11,  avg # of iterations =  2.0

     negative rho (up, down):  5.471E-02 0.000E+00

     End of self-consistent calculation

          k = 0.0000 0.0000 0.0000 (  5137 PWs)   bands (ev):

   -79.5352 -79.5330 -79.5330 -43.0746 -43.0746 -43.0746 -43.0714 -43.0714
   -43.0714 -42.9041 -42.9041 -42.9041 -20.9397  -4.4715  -4.4715  -4.4715
     7.0050   7.2289   7.2289   7.3861   7.3861   7.3861   7.4962   8.1547
     8.1547   8.1547   8.7218   8.7218   8.8151   9.1051   9.1051   9.1051
    13.0728  13.0728  13.6145  13.6145  13.6145  13.7744  13.7744  13.7744
    13.9320  15.2056  15.2056  15.2056  15.9295  15.9295  15.9295  19.6273
    19.6273  19.9548  20.1987  20.1987  20.1987  23.7666

[...]

          k = 0.0898-0.1078-0.1078 (  5108 PWs)   bands (ev):

[...]

          k =-0.1078-0.1078-0.1078 (  5040 PWs)   bands (ev):

   -79.5337 -79.5337 -79.5337 -43.0818 -43.0818 -43.0818 -43.0635 -43.0635
   -43.0635 -42.9226 -42.8959 -42.8959 -20.9270  -4.5573  -4.5573  -4.5573
     7.4128   7.4278   7.4278   7.4278   7.9418   7.9419   7.9419   8.2460
     8.2460   8.3324   8.3324   8.3324   8.9411   8.9411   8.9411  11.9389
    11.9389  11.9389  12.4068  13.4472  13.4472  13.4472  13.9149  13.9149
    13.9149  14.1774  14.1774  14.1774  14.2990  16.2053  16.2053  19.0033
    19.2245  19.2245  19.2245  25.1623  25.1626  25.1626

     the Fermi energy is    12.6550 ev

!    total energy              =    -994.07821947 Ry
     Harris-Foulkes estimate   =    -994.07815266 Ry
     estimated scf accuracy    <          9.9E-10 Ry

     The total energy is the sum of the following terms:

     one-electron contribution =    -524.30288158 Ry
     hartree contribution      =     288.30369291 Ry
     xc contribution           =    -140.92213664 Ry
     ewald contribution        =    -617.15056389 Ry
     smearing contrib. (-TS)   =      -0.00633026 Ry

     convergence has been achieved in  16 iterations

     Forces acting on atoms (Ry/au):

     negative rho (up, down):  5.471E-02 0.000E+00
     atom    1 type  1   force =     0.00000000    0.00000000    0.00000000
     atom    2 type  1   force =     0.00000000    0.00000000   -0.00000000
     atom    3 type  1   force =     0.00000000    0.00000000    0.00000000
     atom    4 type  2   force =     0.00000000    0.00000000    0.00000000

     Total force =     0.000000     Total SCF correction =     0.000000
 !ASE

     General routines

     Parallel routines

   This run was terminated on:  20:32:34  24Oct2017

   JOB DONE.