     Program PWSCF v.5.1rc2 (svn rev. ) starts on 25Oct2017 at  6:23:51

     Current dimensions of program PWSCF are:
     Max number of different atomic species (ntypx) = 10
     Max number of k-points (npk) =  40000
     Max angular momentum in pseudopotentials (lmaxx) =  3

     IMPORTANT: XC functional enforced from input :
     Exchange-correlation      = BEEF-VDW ( 1  4 27 13 2)
     Any further DFT definition will be discarded
     Please, verify this is what you really want

     Subspace diagonalization in iterative solution of the eigenvalue problem:
     a serial algorithm will be used

     bravais-lattice index     =            0
     lattice parameter (alat)  =       1.8897  a.u.
     unit-cell volume          =     451.3349 (a.u.)^3
     number of atoms/cell      =            4
     number of atomic types    =            2
     number of electrons       =        60.00
     number of Kohn-Sham states=           50
     kinetic-energy cutoff     =      58.7989  Ry
     charge density cutoff     =     587.9892  Ry
     convergence threshold     =      7.3E-09
     mixing beta               =       0.1000
     number of iterations used =           10  local-TF  mixing
     Exchange-correlation      = BEEF-VDW ( 1  4 27 13 2)
     nstep                     =           50

     celldm(1)=   1.889726  celldm(2)=   0.000000  celldm(3)=   0.000000
     celldm(4)=   0.000000  celldm(5)=   0.000000  celldm(6)=   0.000000

     crystal axes: (cart. coord. in units of alat)
               a(1) = (   4.059141   0.000000   0.000000 )
               a(2) = (   0.000000   4.059141   0.000000 )
               a(3) = (   0.000000   0.000000   4.059141 )

     reciprocal axes: (cart. coord. in units 2 pi/alat)
               b(1) = (  0.246358  0.000000  0.000000 )
               b(2) = (  0.000000  0.246358  0.000000 )
               b(3) = (  0.000000  0.000000  0.246358 )

     PseudoPot. # 1 for Pt read from file:
     /home/vossj/suncat/psp/gbrv1.5pbe/Pt.UPF
     MD5 check sum: f09d6de1a584b5a045c4fc126da2d0c4
     Pseudo is Ultrasoft + core correction, Zval = 16.0
     Generated by new atomic code, or converted to UPF format
     Using radial grid of  985 points,  6 beta functions with:
                l(1) =   0
                l(2) =   0
                l(3) =   1
                l(4) =   1
                l(5) =   2
                l(6) =   2
     Q(r) pseudized with  8 coefficients,  rinner =    1.300   1.300   1.300
                                                       1.300   1.300

     PseudoPot. # 2 for Zr read from file:
     /home/vossj/suncat/psp/gbrv1.5pbe/Zr.UPF
     MD5 check sum: 5db81b1e868ab7776c4564c113de050b
     Pseudo is Ultrasoft + core correction, Zval = 12.0
     Generated by new atomic code, or converted to UPF format
     Using radial grid of  887 points,  6 beta functions with:
                l(1) =   0
                l(2) =   0
                l(3) =   1
                l(4) =   1
                l(5) =   2
                l(6) =   2
     Q(r) pseudized with  6 coefficients,  rinner =    1.200   1.200   1.200
                                                       1.200   1.200

     vdW kernel table read from file vdW_kernel_table
     MD5 check sum: 095c7af220d748ca6e76c0b4c6cfb241

     atomic species   valence    mass     pseudopotential
        Pt1           16.00   195.08400     Pt( 1.00)
        Zr1           12.00    91.22400     Zr( 1.00)

     48 Sym. Ops., with inversion, found (32 have fractional translation)

   Cartesian axes

     site n.     atom                  positions (alat units)
         1           Pt1 tau(   1) = (   0.0000000   0.0000000   0.0000000  )
         2           Pt1 tau(   2) = (   0.0000000   2.0295703   2.0295703  )
         3           Pt1 tau(   3) = (   2.0295703   0.0000000   2.0295703  )
         4           Zr1 tau(   4) = (   2.0295703   2.0295703   0.0000000  )

     number of k points=    84  Fermi-Dirac smearing, width (Ry)=  0.0073
                       cart. coord. in units 2pi/alat
        k(    1) = (   0.0000000   0.0000000   0.0000000), wk =   0.0011574
        k(    2) = (   0.0000000   0.0000000   0.0205298), wk =   0.0069444
        k(    3) = (   0.0000000   0.0000000   0.0410596), wk =   0.0069444
        k(    4) = (   0.0000000   0.0000000   0.0615894), wk =   0.0069444
        k(    5) = (   0.0000000   0.0000000   0.0821192), wk =   0.0069444
        k(    6) = (   0.0000000   0.0000000   0.1026490), wk =   0.0069444
        k(    7) = (   0.0000000   0.0000000  -0.1231788), wk =   0.0034722
        k(    8) = (   0.0000000   0.0205298   0.0205298), wk =   0.0138889
        k(    9) = (   0.0000000   0.0205298   0.0410596), wk =   0.0277778
        k(   10) = (   0.0000000   0.0205298   0.0615894), wk =   0.0277778
        k(   11) = (   0.0000000   0.0205298   0.0821192), wk =   0.0277778
        k(   12) = (   0.0000000   0.0205298   0.1026490), wk =   0.0277778
        k(   13) = (   0.0000000   0.0205298  -0.1231788), wk =   0.0138889
        k(   14) = (   0.0000000   0.0410596   0.0410596), wk =   0.0138889
        k(   15) = (   0.0000000   0.0410596   0.0615894), wk =   0.0277778
        k(   16) = (   0.0000000   0.0410596   0.0821192), wk =   0.0277778
        k(   17) = (   0.0000000   0.0410596   0.1026490), wk =   0.0277778
        k(   18) = (   0.0000000   0.0410596  -0.1231788), wk =   0.0138889
        k(   19) = (   0.0000000   0.0615894   0.0615894), wk =   0.0138889
        k(   20) = (   0.0000000   0.0615894   0.0821192), wk =   0.0277778
        k(   21) = (   0.0000000   0.0615894   0.1026490), wk =   0.0277778
        k(   22) = (   0.0000000   0.0615894  -0.1231788), wk =   0.0138889
        k(   23) = (   0.0000000   0.0821192   0.0821192), wk =   0.0138889
        k(   24) = (   0.0000000   0.0821192   0.1026490), wk =   0.0277778
        k(   25) = (   0.0000000   0.0821192  -0.1231788), wk =   0.0138889
        k(   26) = (   0.0000000   0.1026490   0.1026490), wk =   0.0138889
        k(   27) = (   0.0000000   0.1026490  -0.1231788), wk =   0.0138889
        k(   28) = (   0.0000000  -0.1231788  -0.1231788), wk =   0.0034722
        k(   29) = (   0.0205298   0.0205298   0.0205298), wk =   0.0092593
        k(   30) = (   0.0205298   0.0205298   0.0410596), wk =   0.0277778
        k(   31) = (   0.0205298   0.0205298   0.0615894), wk =   0.0277778
        k(   32) = (   0.0205298   0.0205298   0.0821192), wk =   0.0277778
        k(   33) = (   0.0205298   0.0205298   0.1026490), wk =   0.0277778
        k(   34) = (   0.0205298   0.0205298  -0.1231788), wk =   0.0138889
        k(   35) = (   0.0205298   0.0410596   0.0410596), wk =   0.0277778
        k(   36) = (   0.0205298   0.0410596   0.0615894), wk =   0.0555556
        k(   37) = (   0.0205298   0.0410596   0.0821192), wk =   0.0555556
        k(   38) = (   0.0205298   0.0410596   0.1026490), wk =   0.0555556
        k(   39) = (   0.0205298   0.0410596  -0.1231788), wk =   0.0277778
        k(   40) = (   0.0205298   0.0615894   0.0615894), wk =   0.0277778
        k(   41) = (   0.0205298   0.0615894   0.0821192), wk =   0.0555556
        k(   42) = (   0.0205298   0.0615894   0.1026490), wk =   0.0555556
        k(   43) = (   0.0205298   0.0615894  -0.1231788), wk =   0.0277778
        k(   44) = (   0.0205298   0.0821192   0.0821192), wk =   0.0277778
        k(   45) = (   0.0205298   0.0821192   0.1026490), wk =   0.0555556
        k(   46) = (   0.0205298   0.0821192  -0.1231788), wk =   0.0277778
        k(   47) = (   0.0205298   0.1026490   0.1026490), wk =   0.0277778
        k(   48) = (   0.0205298   0.1026490  -0.1231788), wk =   0.0277778
        k(   49) = (   0.0205298  -0.1231788  -0.1231788), wk =   0.0069444
        k(   50) = (   0.0410596   0.0410596   0.0410596), wk =   0.0092593
        k(   51) = (   0.0410596   0.0410596   0.0615894), wk =   0.0277778
        k(   52) = (   0.0410596   0.0410596   0.0821192), wk =   0.0277778
        k(   53) = (   0.0410596   0.0410596   0.1026490), wk =   0.0277778
        k(   54) = (   0.0410596   0.0410596  -0.1231788), wk =   0.0138889
        k(   55) = (   0.0410596   0.0615894   0.0615894), wk =   0.0277778
        k(   56) = (   0.0410596   0.0615894   0.0821192), wk =   0.0555556
        k(   57) = (   0.0410596   0.0615894   0.1026490), wk =   0.0555556
        k(   58) = (   0.0410596   0.0615894  -0.1231788), wk =   0.0277778
        k(   59) = (   0.0410596   0.0821192   0.0821192), wk =   0.0277778
        k(   60) = (   0.0410596   0.0821192   0.1026490), wk =   0.0555556
[...]
        k(   70) = (   0.0615894   0.0821192   0.1026490), wk =   0.0555556
        k(   71) = (   0.0615894   0.0821192  -0.1231788), wk =   0.0277778
        k(   72) = (   0.0615894   0.1026490   0.1026490), wk =   0.0277778
        k(   73) = (   0.0615894   0.1026490  -0.1231788), wk =   0.0277778
        k(   74) = (   0.0615894  -0.1231788  -0.1231788), wk =   0.0069444
        k(   75) = (   0.0821192   0.0821192   0.0821192), wk =   0.0092593
        k(   76) = (   0.0821192   0.0821192   0.1026490), wk =   0.0277778
        k(   77) = (   0.0821192   0.0821192  -0.1231788), wk =   0.0138889
        k(   78) = (   0.0821192   0.1026490   0.1026490), wk =   0.0277778
        k(   79) = (   0.0821192   0.1026490  -0.1231788), wk =   0.0277778
        k(   80) = (   0.0821192  -0.1231788  -0.1231788), wk =   0.0069444
        k(   81) = (   0.1026490   0.1026490   0.1026490), wk =   0.0092593
        k(   82) = (   0.1026490   0.1026490  -0.1231788), wk =   0.0138889
        k(   83) = (   0.1026490  -0.1231788  -0.1231788), wk =   0.0069444
        k(   84) = (  -0.1231788  -0.1231788  -0.1231788), wk =   0.0011574

     Largest allocated arrays     est. size (Mb)     dimensions
     Largest temporary arrays     est. size (Mb)     dimensions

     Initial potential from superposition of free atoms
     Check: negative starting charge=   -0.608688

     starting charge   58.49782, renormalised to   60.00000

     negative rho (up, down):  6.243E-01 0.000E+00

     *
     * You are using vdW-DF for exchange-correlation in this calculation.
     * Please cite the following three references that made this development
     * possible:
     *
     *   M. Dion, H. Rydberg, E. Schroder, D. C. Langreth, and
     *   B. I. Lundqvist, Phys. Rev. Lett. 92, 246401 (2004).
     *
     *   T. Thonhauser, V. R. Cooper, S. Li, A. Puzder, P. Hyldgaard, and
     *   D. C. Langreth, Phys. Rev. B 76, 125112 (2007).
     *
     *   G. Roman-Perez and J. M. Soler, Phys. Rev. Lett. 103, 096102 (2009).
     *
     *
     * If you are using vdW-DF2, please also cite:
     *
     *   K. Lee, E. D. Murray, L. Kong, B. I. Lundqvist, and
     *   D. C. Langreth, Phys. Rev. B 82, 081101(R) (2010).
     *
     *
     * If you are calculating the stress with vdW-DF, please also cite:
     *
     *   R. Sabatini, E. Kucukbenli, B. Kolb, T. Thonhauser, and
     *   S. de Gironcoli, J. Phys.: Condens. Matter 24, 424209 (2012).
     *

     Carrying out vdW-DF run using the following parameters:

     Nqs =      20    Nr_points =    1024   r_max =   100.000
     q_mesh =
               0.00001000     0.04494208     0.09755937     0.15916263
               0.23128650     0.31572767     0.41458969     0.53033537
               0.66584808     0.82450364     1.01025438     1.22772762
               1.48234092     1.78043706     2.12944203     2.53805004
               3.01644009     3.57652955     4.23227104     5.00000000

     Gradients computed in reciprocal space

     Starting wfc are   49 randomized atomic wfcs +    1 random wfc

     Self-consistent Calculation

     iteration #  1     ecut=    58.80 Ry     beta=0.10
     Davidson diagonalization with overlap
     ethr =  1.00E-02,  avg # of iterations =  4.5

[...]

     total energy              =    -737.76143698 Ry
     Harris-Foulkes estimate   =    -738.04855450 Ry
     estimated scf accuracy    <       5.06463234 Ry

[...]

     total energy              =    -737.20000380 Ry
     Harris-Foulkes estimate   =    -737.20000154 Ry
     estimated scf accuracy    <       0.00000008 Ry

     iteration # 13     ecut=    58.80 Ry     beta=0.10
     Davidson diagonalization with overlap
     ethr =  4.52E-11,  avg # of iterations =  2.0

     negative rho (up, down):  5.929E-01 0.000E+00

     End of self-consistent calculation

          k = 0.0000 0.0000 0.0000 (  3407 PWs)   bands (ev):

   -33.0624 -33.0624 -33.0624 -32.9665 -32.9665 -32.9665 -32.8263 -32.8263
   -32.8263 -29.8276  -7.7534  -7.7534  -7.7534  11.1502  13.6892  13.6892
    13.9596  14.2273  14.2273  14.2273  16.8343  16.8343  16.8343  18.5514
    18.5514  19.4557  19.9985  19.9985  19.9985  22.2540  22.2540  22.2540
    22.5238  22.5238  24.0121  24.0121  24.0121  28.8667  28.8667  29.8782
    29.8782  29.8782  31.8084  32.5025  32.5025  32.5025  33.5352  38.3214
    38.3214  38.9874

[...]

          k = 0.1026-0.1232-0.1232 (  3432 PWs)   bands (ev):

[...]

          k =-0.1232-0.1232-0.1232 (  3448 PWs)   bands (ev):

   -33.0743 -33.0743 -33.0743 -33.0689 -32.8931 -32.8931 -32.8931 -32.8042
   -32.8042 -29.8217  -7.7889  -7.7889  -7.7889  13.5061  13.5061  13.5061
    14.1633  16.2375  16.2375  16.2375  16.8698  16.8698  16.8698  17.2460
    17.2460  19.5698  19.5698  19.5698  19.6648  20.3362  20.3362  20.3362
    21.8276  21.8276  21.8276  23.3346  23.3346  27.1255  27.1255  27.1255
    29.5682  33.0068  33.0068  33.0068  33.4994  36.5704  36.5704  36.5704
    37.7924  37.7924

     the Fermi energy is    20.5759 ev

!    total energy              =    -737.20001343 Ry
     Harris-Foulkes estimate   =    -737.20000382 Ry
     estimated scf accuracy    <          5.4E-09 Ry

     The total energy is the sum of the following terms:

     one-electron contribution =     -97.55599890 Ry
     hartree contribution      =      96.37450125 Ry
     xc contribution           =    -194.54715560 Ry
     ewald contribution        =    -541.46982838 Ry
     smearing contrib. (-TS)   =      -0.00153179 Ry

     convergence has been achieved in  13 iterations

     Forces acting on atoms (Ry/au):

     negative rho (up, down):  5.929E-01 0.000E+00
     atom    1 type  1   force =     0.00000000    0.00000000    0.00000000
     atom    2 type  1   force =     0.00000000    0.00000000   -0.00000000
     atom    3 type  1   force =     0.00000000    0.00000000    0.00000000
     atom    4 type  2   force =     0.00000000    0.00000000    0.00000000

     Total force =     0.000000     Total SCF correction =     0.000000
 !ASE

     General routines

     Parallel routines

   This run was terminated on:   6:24:43  25Oct2017

   JOB DONE.