     Program PWSCF v.5.1rc2 (svn rev. ) starts on 26Oct2017 at 16:22: 2

     Current dimensions of program PWSCF are:
     Max number of different atomic species (ntypx) = 10
     Max number of k-points (npk) =  40000
     Max angular momentum in pseudopotentials (lmaxx) =  3

     IMPORTANT: XC functional enforced from input :
     Exchange-correlation      = BEEF-VDW ( 1  4 27 13 2)
     Any further DFT definition will be discarded
     Please, verify this is what you really want

     Subspace diagonalization in iterative solution of the eigenvalue problem:
     a serial algorithm will be used

     Generating pointlists ...
     new r_m :   0.4125 (alat units)  0.7795 (a.u.) for type    1
     new r_m :   0.4125 (alat units)  0.7795 (a.u.) for type    2

     bravais-lattice index     =            0
     lattice parameter (alat)  =       1.8897  a.u.
     unit-cell volume          =     354.5057 (a.u.)^3
     number of atoms/cell      =            4
     number of atomic types    =            2
     number of electrons       =        61.00
     number of Kohn-Sham states=           50
     kinetic-energy cutoff     =      58.7989  Ry
     charge density cutoff     =     587.9892  Ry
     convergence threshold     =      7.3E-09
     mixing beta               =       0.1000
     number of iterations used =           10  local-TF  mixing
     Exchange-correlation      = BEEF-VDW ( 1  4 27 13 2)
     nstep                     =           50

     celldm(1)=   1.889726  celldm(2)=   0.000000  celldm(3)=   0.000000
     celldm(4)=   0.000000  celldm(5)=   0.000000  celldm(6)=   0.000000

     crystal axes: (cart. coord. in units of alat)
               a(1) = (   3.745204   0.000000   0.000000 )
               a(2) = (   0.000000   3.745204   0.000000 )
               a(3) = (   0.000000   0.000000   3.745204 )

     reciprocal axes: (cart. coord. in units 2 pi/alat)
               b(1) = (  0.267008  0.000000  0.000000 )
               b(2) = (  0.000000  0.267008  0.000000 )
               b(3) = (  0.000000  0.000000  0.267008 )

     PseudoPot. # 1 for Mn read from file:
     /home/vossj/suncat/psp/gbrv1.5pbe/Mn.UPF
     MD5 check sum: 82ef2b46521d7a7d9e736dc3972e4928
     Pseudo is Ultrasoft + core correction, Zval = 15.0
     Generated by new atomic code, or converted to UPF format
     Using radial grid of  859 points,  6 beta functions with:
                l(1) =   0
                l(2) =   0
                l(3) =   1
                l(4) =   1
                l(5) =   2
                l(6) =   2
     Q(r) pseudized with  8 coefficients,  rinner =    0.950   0.950   0.950
                                                       0.950   0.950

     PseudoPot. # 2 for Pt read from file:
     /home/vossj/suncat/psp/gbrv1.5pbe/Pt.UPF
     MD5 check sum: f09d6de1a584b5a045c4fc126da2d0c4
     Pseudo is Ultrasoft + core correction, Zval = 16.0
     Generated by new atomic code, or converted to UPF format
     Using radial grid of  985 points,  6 beta functions with:
                l(1) =   0
                l(2) =   0
                l(3) =   1
                l(4) =   1
                l(5) =   2
                l(6) =   2
     Q(r) pseudized with  8 coefficients,  rinner =    1.300   1.300   1.300
                                                       1.300   1.300

     vdW kernel table read from file vdW_kernel_table
     MD5 check sum: 095c7af220d748ca6e76c0b4c6cfb241

     atomic species   valence    mass     pseudopotential
        Mn1           15.00    54.93804     Mn( 1.00)
        Pt1           16.00   195.08400     Pt( 1.00)

     Starting magnetic structure
     atomic species   magnetization
        Mn1          0.133
        Pt1          0.125

     48 Sym. Ops., with inversion, found (32 have fractional translation)

   Cartesian axes

     site n.     atom                  positions (alat units)
         1           Mn1 tau(   1) = (   0.0000000   0.0000000   0.0000000  )
         2           Mn1 tau(   2) = (   0.0000000   1.8726022   1.8726022  )
         3           Mn1 tau(   3) = (   1.8726022   0.0000000   1.8726022  )
         4           Pt1 tau(   4) = (   1.8726022   1.8726022   0.0000000  )

     number of k points=   168  Fermi-Dirac smearing, width (Ry)=  0.0073

     Number of k-points >= 100: set verbosity='high' to print them.

     Largest allocated arrays     est. size (Mb)     dimensions
     Largest temporary arrays     est. size (Mb)     dimensions

     Check: negative/imaginary core charge=   -0.000042    0.000000

     Initial potential from superposition of free atoms
     Check: negative starting charge=(component1):   -0.103142
     Check: negative starting charge=(component2):   -0.080230

     starting charge   58.99973, renormalised to   61.00000

     negative rho (up, down):  1.066E-01 8.295E-02

     *
     * You are using vdW-DF for exchange-correlation in this calculation.
     * Please cite the following three references that made this development
     * possible:
     *
     *   M. Dion, H. Rydberg, E. Schroder, D. C. Langreth, and
     *   B. I. Lundqvist, Phys. Rev. Lett. 92, 246401 (2004).
     *
     *   T. Thonhauser, V. R. Cooper, S. Li, A. Puzder, P. Hyldgaard, and
     *   D. C. Langreth, Phys. Rev. B 76, 125112 (2007).
     *
     *   G. Roman-Perez and J. M. Soler, Phys. Rev. Lett. 103, 096102 (2009).
     *
     *
     * If you are using vdW-DF2, please also cite:
     *
     *   K. Lee, E. D. Murray, L. Kong, B. I. Lundqvist, and
     *   D. C. Langreth, Phys. Rev. B 82, 081101(R) (2010).
     *
     *
     * If you are calculating the stress with vdW-DF, please also cite:
     *
     *   R. Sabatini, E. Kucukbenli, B. Kolb, T. Thonhauser, and
     *   S. de Gironcoli, J. Phys.: Condens. Matter 24, 424209 (2012).
     *

     Carrying out vdW-DF run using the following parameters:

     Nqs =      20    Nr_points =    1024   r_max =   100.000
     q_mesh =
               0.00001000     0.04494208     0.09755937     0.15916263
               0.23128650     0.31572767     0.41458969     0.53033537
               0.66584808     0.82450364     1.01025438     1.22772762
               1.48234092     1.78043706     2.12944203     2.53805004
               3.01644009     3.57652955     4.23227104     5.00000000

     Gradients computed in reciprocal space

     Starting wfc are   51 randomized atomic wfcs

     Self-consistent Calculation

     iteration #  1     ecut=    58.80 Ry     beta=0.10
     Davidson diagonalization with overlap
     ethr =  1.00E-02,  avg # of iterations =  4.5

[...]

     Magnetic moment per site:
     atom:    1    charge:    6.1466    magn:    0.7879    constr:    0.0000
     atom:    2    charge:    6.1466    magn:    0.7879    constr:    0.0000
     atom:    3    charge:    6.1466    magn:    0.7879    constr:    0.0000
     atom:    4    charge:    2.1386    magn:    0.2444    constr:    0.0000

     total energy              =    -849.60374457 Ry
     Harris-Foulkes estimate   =    -849.89798720 Ry
     estimated scf accuracy    <       4.50603740 Ry

     total magnetization       =     3.96 Bohr mag/cell
     absolute magnetization    =     4.01 Bohr mag/cell

[...]

     total energy              =    -848.81850907 Ry
     Harris-Foulkes estimate   =    -848.81850829 Ry
     estimated scf accuracy    <       0.00000001 Ry

[...]

     iteration # 21     ecut=    58.80 Ry     beta=0.10
     Davidson diagonalization with overlap
     ethr =  1.51E-11,  avg # of iterations =  2.4

     negative rho (up, down):  8.829E-02 8.750E-02

     Magnetic moment per site:
     atom:    1    charge:    5.9814    magn:    0.6305    constr:    0.0000
     atom:    2    charge:    5.9814    magn:    0.6305    constr:    0.0000
     atom:    3    charge:    5.9814    magn:    0.6305    constr:    0.0000
     atom:    4    charge:    2.1045    magn:    0.0011    constr:    0.0000

     End of self-consistent calculation

     Number of k-points >= 100: set verbosity='high' to print the bands.

     the Fermi energy is    18.3342 ev

!    total energy              =    -848.81851257 Ry
     Harris-Foulkes estimate   =    -848.81850910 Ry
     estimated scf accuracy    <          1.6E-10 Ry

     The total energy is the sum of the following terms:

     one-electron contribution =    -288.60856526 Ry
     hartree contribution      =     183.83138095 Ry
     xc contribution           =    -141.15477978 Ry
     ewald contribution        =    -602.87005576 Ry
     smearing contrib. (-TS)   =      -0.01649272 Ry

     total magnetization       =     4.46 Bohr mag/cell
     absolute magnetization    =     4.70 Bohr mag/cell

     convergence has been achieved in  21 iterations

     Forces acting on atoms (Ry/au):

     negative rho (up, down):  8.829E-02 8.750E-02
     atom    1 type  1   force =     0.00000000    0.00000000    0.00000000
     atom    2 type  1   force =     0.00000000    0.00000000    0.00000000
     atom    3 type  1   force =     0.00000000    0.00000000    0.00000000
     atom    4 type  2   force =     0.00000000    0.00000000    0.00000000

     Total force =     0.000000     Total SCF correction =     0.000000
 !ASE

     General routines

     Parallel routines

   This run was terminated on:  16:25:47  26Oct2017

   JOB DONE.