     Program PWSCF v.5.1rc2 (svn rev. ) starts on 25Oct2017 at  8:45:43

     Current dimensions of program PWSCF are:
     Max number of different atomic species (ntypx) = 10
     Max number of k-points (npk) =  40000
     Max angular momentum in pseudopotentials (lmaxx) =  3

     IMPORTANT: XC functional enforced from input :
     Exchange-correlation      = BEEF-VDW ( 1  4 27 13 2)
     Any further DFT definition will be discarded
     Please, verify this is what you really want

     Subspace diagonalization in iterative solution of the eigenvalue problem:
     a serial algorithm will be used

     bravais-lattice index     =            0
     lattice parameter (alat)  =       1.8897  a.u.
     unit-cell volume          =     629.1730 (a.u.)^3
     number of atoms/cell      =            4
     number of atomic types    =            2
     number of electrons       =        55.00
     number of Kohn-Sham states=           47
     kinetic-energy cutoff     =      58.7989  Ry
     charge density cutoff     =     587.9892  Ry
     convergence threshold     =      7.3E-09
     mixing beta               =       0.1000
     number of iterations used =           10  local-TF  mixing
     Exchange-correlation      = BEEF-VDW ( 1  4 27 13 2)
     nstep                     =           50

     celldm(1)=   1.889726  celldm(2)=   0.000000  celldm(3)=   0.000000
     celldm(4)=   0.000000  celldm(5)=   0.000000  celldm(6)=   0.000000

     crystal axes: (cart. coord. in units of alat)
               a(1) = (   4.534449   0.000000   0.000000 )
               a(2) = (   0.000000   4.534449   0.000000 )
               a(3) = (   0.000000   0.000000   4.534449 )

     reciprocal axes: (cart. coord. in units 2 pi/alat)
               b(1) = (  0.220534  0.000000  0.000000 )
               b(2) = (  0.000000  0.220534  0.000000 )
               b(3) = (  0.000000  0.000000  0.220534 )

     PseudoPot. # 1 for Cd read from file:
     /home/vossj/suncat/psp/gbrv1.5pbe/Cd.UPF
     MD5 check sum: 17164a7926edb8e0dc231208abae86a6
     Pseudo is Ultrasoft + core correction, Zval = 12.0
     Generated by new atomic code, or converted to UPF format
     Using radial grid of  889 points,  6 beta functions with:
                l(1) =   0
                l(2) =   0
                l(3) =   1
                l(4) =   1
                l(5) =   2
                l(6) =   2
     Q(r) pseudized with  6 coefficients,  rinner =    1.000   1.000   1.000
                                                       1.000   1.000

     PseudoPot. # 2 for Ga read from file:
     /home/vossj/suncat/psp/gbrv1.5pbe/Ga.UPF
     MD5 check sum: ccd671392a58a050fbb373893b4fcd66
     Pseudo is Ultrasoft + core correction, Zval = 19.0
     Generated by new atomic code, or converted to UPF format
     Using radial grid of  871 points,  6 beta functions with:
                l(1) =   0
                l(2) =   0
                l(3) =   1
                l(4) =   1
                l(5) =   2
                l(6) =   2
     Q(r) pseudized with  8 coefficients,  rinner =    1.250   1.250   1.250
                                                       1.250   1.250

     vdW kernel table read from file vdW_kernel_table
     MD5 check sum: 095c7af220d748ca6e76c0b4c6cfb241

     atomic species   valence    mass     pseudopotential
        Cd1           12.00   112.41400     Cd( 1.00)
        Ga1           19.00    69.72300     Ga( 1.00)

     48 Sym. Ops., with inversion, found (32 have fractional translation)

   Cartesian axes

     site n.     atom                  positions (alat units)
         1           Cd1 tau(   1) = (   0.0000000   0.0000000   0.0000000  )
         2           Cd1 tau(   2) = (   0.0000000   2.2672243   2.2672243  )
         3           Cd1 tau(   3) = (   2.2672243   0.0000000   2.2672243  )
         4           Ga1 tau(   4) = (   2.2672243   2.2672243   0.0000000  )

     number of k points=    84  Fermi-Dirac smearing, width (Ry)=  0.0073
                       cart. coord. in units 2pi/alat
        k(    1) = (   0.0000000   0.0000000   0.0000000), wk =   0.0011574
        k(    2) = (   0.0000000   0.0000000   0.0183778), wk =   0.0069444
        k(    3) = (   0.0000000   0.0000000   0.0367557), wk =   0.0069444
        k(    4) = (   0.0000000   0.0000000   0.0551335), wk =   0.0069444
        k(    5) = (   0.0000000   0.0000000   0.0735113), wk =   0.0069444
        k(    6) = (   0.0000000   0.0000000   0.0918892), wk =   0.0069444
        k(    7) = (   0.0000000   0.0000000  -0.1102670), wk =   0.0034722
        k(    8) = (   0.0000000   0.0183778   0.0183778), wk =   0.0138889
        k(    9) = (   0.0000000   0.0183778   0.0367557), wk =   0.0277778
        k(   10) = (   0.0000000   0.0183778   0.0551335), wk =   0.0277778
        k(   11) = (   0.0000000   0.0183778   0.0735113), wk =   0.0277778
        k(   12) = (   0.0000000   0.0183778   0.0918892), wk =   0.0277778
        k(   13) = (   0.0000000   0.0183778  -0.1102670), wk =   0.0138889
        k(   14) = (   0.0000000   0.0367557   0.0367557), wk =   0.0138889
        k(   15) = (   0.0000000   0.0367557   0.0551335), wk =   0.0277778
        k(   16) = (   0.0000000   0.0367557   0.0735113), wk =   0.0277778
        k(   17) = (   0.0000000   0.0367557   0.0918892), wk =   0.0277778
        k(   18) = (   0.0000000   0.0367557  -0.1102670), wk =   0.0138889
        k(   19) = (   0.0000000   0.0551335   0.0551335), wk =   0.0138889
        k(   20) = (   0.0000000   0.0551335   0.0735113), wk =   0.0277778
        k(   21) = (   0.0000000   0.0551335   0.0918892), wk =   0.0277778
        k(   22) = (   0.0000000   0.0551335  -0.1102670), wk =   0.0138889
        k(   23) = (   0.0000000   0.0735113   0.0735113), wk =   0.0138889
        k(   24) = (   0.0000000   0.0735113   0.0918892), wk =   0.0277778
        k(   25) = (   0.0000000   0.0735113  -0.1102670), wk =   0.0138889
        k(   26) = (   0.0000000   0.0918892   0.0918892), wk =   0.0138889
        k(   27) = (   0.0000000   0.0918892  -0.1102670), wk =   0.0138889
        k(   28) = (   0.0000000  -0.1102670  -0.1102670), wk =   0.0034722
        k(   29) = (   0.0183778   0.0183778   0.0183778), wk =   0.0092593
        k(   30) = (   0.0183778   0.0183778   0.0367557), wk =   0.0277778
        k(   31) = (   0.0183778   0.0183778   0.0551335), wk =   0.0277778
        k(   32) = (   0.0183778   0.0183778   0.0735113), wk =   0.0277778
        k(   33) = (   0.0183778   0.0183778   0.0918892), wk =   0.0277778
        k(   34) = (   0.0183778   0.0183778  -0.1102670), wk =   0.0138889
        k(   35) = (   0.0183778   0.0367557   0.0367557), wk =   0.0277778
        k(   36) = (   0.0183778   0.0367557   0.0551335), wk =   0.0555556
        k(   37) = (   0.0183778   0.0367557   0.0735113), wk =   0.0555556
        k(   38) = (   0.0183778   0.0367557   0.0918892), wk =   0.0555556
        k(   39) = (   0.0183778   0.0367557  -0.1102670), wk =   0.0277778
        k(   40) = (   0.0183778   0.0551335   0.0551335), wk =   0.0277778
        k(   41) = (   0.0183778   0.0551335   0.0735113), wk =   0.0555556
        k(   42) = (   0.0183778   0.0551335   0.0918892), wk =   0.0555556
        k(   43) = (   0.0183778   0.0551335  -0.1102670), wk =   0.0277778
        k(   44) = (   0.0183778   0.0735113   0.0735113), wk =   0.0277778
        k(   45) = (   0.0183778   0.0735113   0.0918892), wk =   0.0555556
        k(   46) = (   0.0183778   0.0735113  -0.1102670), wk =   0.0277778
        k(   47) = (   0.0183778   0.0918892   0.0918892), wk =   0.0277778
        k(   48) = (   0.0183778   0.0918892  -0.1102670), wk =   0.0277778
        k(   49) = (   0.0183778  -0.1102670  -0.1102670), wk =   0.0069444
        k(   50) = (   0.0367557   0.0367557   0.0367557), wk =   0.0092593
        k(   51) = (   0.0367557   0.0367557   0.0551335), wk =   0.0277778
        k(   52) = (   0.0367557   0.0367557   0.0735113), wk =   0.0277778
        k(   53) = (   0.0367557   0.0367557   0.0918892), wk =   0.0277778
        k(   54) = (   0.0367557   0.0367557  -0.1102670), wk =   0.0138889
        k(   55) = (   0.0367557   0.0551335   0.0551335), wk =   0.0277778
        k(   56) = (   0.0367557   0.0551335   0.0735113), wk =   0.0555556
        k(   57) = (   0.0367557   0.0551335   0.0918892), wk =   0.0555556
        k(   58) = (   0.0367557   0.0551335  -0.1102670), wk =   0.0277778
        k(   59) = (   0.0367557   0.0735113   0.0735113), wk =   0.0277778
        k(   60) = (   0.0367557   0.0735113   0.0918892), wk =   0.0555556
[...]
        k(   70) = (   0.0551335   0.0735113   0.0918892), wk =   0.0555556
        k(   71) = (   0.0551335   0.0735113  -0.1102670), wk =   0.0277778
        k(   72) = (   0.0551335   0.0918892   0.0918892), wk =   0.0277778
        k(   73) = (   0.0551335   0.0918892  -0.1102670), wk =   0.0277778
        k(   74) = (   0.0551335  -0.1102670  -0.1102670), wk =   0.0069444
        k(   75) = (   0.0735113   0.0735113   0.0735113), wk =   0.0092593
        k(   76) = (   0.0735113   0.0735113   0.0918892), wk =   0.0277778
        k(   77) = (   0.0735113   0.0735113  -0.1102670), wk =   0.0138889
        k(   78) = (   0.0735113   0.0918892   0.0918892), wk =   0.0277778
        k(   79) = (   0.0735113   0.0918892  -0.1102670), wk =   0.0277778
        k(   80) = (   0.0735113  -0.1102670  -0.1102670), wk =   0.0069444
        k(   81) = (   0.0918892   0.0918892   0.0918892), wk =   0.0092593
        k(   82) = (   0.0918892   0.0918892  -0.1102670), wk =   0.0138889
        k(   83) = (   0.0918892  -0.1102670  -0.1102670), wk =   0.0069444
        k(   84) = (  -0.1102670  -0.1102670  -0.1102670), wk =   0.0011574

     Largest allocated arrays     est. size (Mb)     dimensions
     Largest temporary arrays     est. size (Mb)     dimensions

     Initial potential from superposition of free atoms
     Check: negative starting charge=   -0.063380

     starting charge   52.49988, renormalised to   55.00000

     negative rho (up, down):  6.640E-02 0.000E+00

     *
     * You are using vdW-DF for exchange-correlation in this calculation.
     * Please cite the following three references that made this development
     * possible:
     *
     *   M. Dion, H. Rydberg, E. Schroder, D. C. Langreth, and
     *   B. I. Lundqvist, Phys. Rev. Lett. 92, 246401 (2004).
     *
     *   T. Thonhauser, V. R. Cooper, S. Li, A. Puzder, P. Hyldgaard, and
     *   D. C. Langreth, Phys. Rev. B 76, 125112 (2007).
     *
     *   G. Roman-Perez and J. M. Soler, Phys. Rev. Lett. 103, 096102 (2009).
     *
     *
     * If you are using vdW-DF2, please also cite:
     *
     *   K. Lee, E. D. Murray, L. Kong, B. I. Lundqvist, and
     *   D. C. Langreth, Phys. Rev. B 82, 081101(R) (2010).
     *
     *
     * If you are calculating the stress with vdW-DF, please also cite:
     *
     *   R. Sabatini, E. Kucukbenli, B. Kolb, T. Thonhauser, and
     *   S. de Gironcoli, J. Phys.: Condens. Matter 24, 424209 (2012).
     *

     Carrying out vdW-DF run using the following parameters:

     Nqs =      20    Nr_points =    1024   r_max =   100.000
     q_mesh =
               0.00001000     0.04494208     0.09755937     0.15916263
               0.23128650     0.31572767     0.41458969     0.53033537
               0.66584808     0.82450364     1.01025438     1.22772762
               1.48234092     1.78043706     2.12944203     2.53805004
               3.01644009     3.57652955     4.23227104     5.00000000

     Gradients computed in reciprocal space

     Starting wfc are   39 randomized atomic wfcs +    8 random wfc

     Self-consistent Calculation

     iteration #  1     ecut=    58.80 Ry     beta=0.10
     Davidson diagonalization with overlap
     ethr =  1.00E-02,  avg # of iterations =  5.1

[...]

     total energy              =    -765.86804743 Ry
     Harris-Foulkes estimate   =    -766.47724144 Ry
     estimated scf accuracy    <       8.94787025 Ry

[...]

     total energy              =    -764.89084536 Ry
     Harris-Foulkes estimate   =    -764.89083250 Ry
     estimated scf accuracy    <       0.00000001 Ry

     iteration # 16     ecut=    58.80 Ry     beta=0.10
     Davidson diagonalization with overlap
     ethr =  2.12E-11,  avg # of iterations =  2.0

     negative rho (up, down):  6.539E-02 0.000E+00

     End of self-consistent calculation

          k = 0.0000 0.0000 0.0000 (  4801 PWs)   bands (ev):

   -85.0185 -85.0185 -85.0185  -5.3400  -5.3400  -5.3374  -5.3374  -5.3374
     0.1621   0.3273   0.3273   0.3274   0.5611   0.5613   0.9745   0.9747
     0.9747   1.0779   1.1615   1.1617   1.3346   1.4319   1.4319   1.4320
     8.2748   8.7847   8.7847   8.7847  10.6909  10.6910  14.9811  14.9811
    14.9811  16.5275  16.5275  16.5275  19.0026  19.6820  19.6820  19.6820
    19.9421  19.9421  23.1144  23.1144  23.1144  23.4790  26.6874

[...]

          k = 0.0919-0.1103-0.1103 (  4764 PWs)   bands (ev):

[...]

          k =-0.1103-0.1103-0.1103 (  4776 PWs)   bands (ev):

   -85.0185 -85.0185 -85.0184  -5.3416  -5.3416  -5.3416  -5.3270  -5.3270
     0.1701   0.4517   0.4517   0.4517   0.6642   0.6643   0.6643   1.0148
     1.0150   1.0150   1.0711   1.0713   1.3517   1.3517   1.3517   5.5220
     7.3788   7.3788   7.3788   7.8473   8.1452   8.1453   8.1453  18.9217
    18.9217  18.9217  21.6963  21.6963  21.8959  21.8959  21.8960  22.5567
    22.6861  22.6861  22.6862  23.5008  23.5009  24.2173  24.5928

     the Fermi energy is     9.8037 ev

!    total energy              =    -764.89089992 Ry
     Harris-Foulkes estimate   =    -764.89084529 Ry
     estimated scf accuracy    <          2.9E-09 Ry

     The total energy is the sum of the following terms:

     one-electron contribution =    -441.90835476 Ry
     hartree contribution      =     263.46962979 Ry
     xc contribution           =    -172.13848479 Ry
     ewald contribution        =    -414.30977891 Ry
     smearing contrib. (-TS)   =      -0.00391124 Ry

     convergence has been achieved in  16 iterations

     Forces acting on atoms (Ry/au):

     negative rho (up, down):  6.539E-02 0.000E+00
     atom    1 type  1   force =     0.00000000    0.00000000    0.00000000
     atom    2 type  1   force =     0.00000000   -0.00000000    0.00000000
     atom    3 type  1   force =     0.00000000    0.00000000    0.00000000
     atom    4 type  2   force =     0.00000000    0.00000000    0.00000000

     Total force =     0.000000     Total SCF correction =     0.000000
 !ASE

     General routines

     Parallel routines

   This run was terminated on:   8:47: 9  25Oct2017

   JOB DONE.