     Program PWSCF v.5.1rc2 (svn rev. ) starts on 24Oct2017 at 22:13:33

     Current dimensions of program PWSCF are:
     Max number of different atomic species (ntypx) = 10
     Max number of k-points (npk) =  40000
     Max angular momentum in pseudopotentials (lmaxx) =  3

     IMPORTANT: XC functional enforced from input :
     Exchange-correlation      = BEEF-VDW ( 1  4 27 13 2)
     Any further DFT definition will be discarded
     Please, verify this is what you really want

     Subspace diagonalization in iterative solution of the eigenvalue problem:
     a serial algorithm will be used

     bravais-lattice index     =            0
     lattice parameter (alat)  =       1.8897  a.u.
     unit-cell volume          =     446.4361 (a.u.)^3
     number of atoms/cell      =            4
     number of atomic types    =            2
     number of electrons       =        70.00
     number of Kohn-Sham states=           55
     kinetic-energy cutoff     =      58.7989  Ry
     charge density cutoff     =     587.9892  Ry
     convergence threshold     =      7.3E-09
     mixing beta               =       0.1000
     number of iterations used =           10  local-TF  mixing
     Exchange-correlation      = BEEF-VDW ( 1  4 27 13 2)
     nstep                     =           50

     celldm(1)=   1.889726  celldm(2)=   0.000000  celldm(3)=   0.000000
     celldm(4)=   0.000000  celldm(5)=   0.000000  celldm(6)=   0.000000

     crystal axes: (cart. coord. in units of alat)
               a(1) = (   4.044401   0.000000   0.000000 )
               a(2) = (   0.000000   4.044401   0.000000 )
               a(3) = (   0.000000   0.000000   4.044401 )

     reciprocal axes: (cart. coord. in units 2 pi/alat)
               b(1) = (  0.247255  0.000000  0.000000 )
               b(2) = (  0.000000  0.247255  0.000000 )
               b(3) = (  0.000000  0.000000  0.247255 )

     PseudoPot. # 1 for Ga read from file:
     /home/vossj/suncat/psp/gbrv1.5pbe/Ga.UPF
     MD5 check sum: ccd671392a58a050fbb373893b4fcd66
     Pseudo is Ultrasoft + core correction, Zval = 19.0
     Generated by new atomic code, or converted to UPF format
     Using radial grid of  871 points,  6 beta functions with:
                l(1) =   0
                l(2) =   0
                l(3) =   1
                l(4) =   1
                l(5) =   2
                l(6) =   2
     Q(r) pseudized with  8 coefficients,  rinner =    1.250   1.250   1.250
                                                       1.250   1.250

     PseudoPot. # 2 for Ta read from file:
     /home/vossj/suncat/psp/gbrv1.5pbe/Ta.UPF
     MD5 check sum: f8bbe9446314a3b8ea5d9f3e3836c939
     Pseudo is Ultrasoft + core correction, Zval = 13.0
     Generated by new atomic code, or converted to UPF format
     Using radial grid of  921 points,  7 beta functions with:
                l(1) =   0
                l(2) =   0
                l(3) =   1
                l(4) =   1
                l(5) =   2
                l(6) =   2
                l(7) =   3
     Q(r) pseudized with  6 coefficients,  rinner =    1.300   1.300   1.300
                                                       1.300   1.300   1.300
                                                       1.300

     vdW kernel table read from file vdW_kernel_table
     MD5 check sum: 095c7af220d748ca6e76c0b4c6cfb241

     atomic species   valence    mass     pseudopotential
        Ga1           19.00    69.72300     Ga( 1.00)
        Ta1           13.00   180.94788     Ta( 1.00)

     48 Sym. Ops., with inversion, found (32 have fractional translation)

   Cartesian axes

     site n.     atom                  positions (alat units)
         1           Ga1 tau(   1) = (   0.0000000   0.0000000   0.0000000  )
         2           Ga1 tau(   2) = (   0.0000000   2.0222006   2.0222006  )
         3           Ga1 tau(   3) = (   2.0222006   0.0000000   2.0222006  )
         4           Ta1 tau(   4) = (   2.0222006   2.0222006   0.0000000  )

     number of k points=    84  Fermi-Dirac smearing, width (Ry)=  0.0073
                       cart. coord. in units 2pi/alat
        k(    1) = (   0.0000000   0.0000000   0.0000000), wk =   0.0011574
        k(    2) = (   0.0000000   0.0000000   0.0206046), wk =   0.0069444
        k(    3) = (   0.0000000   0.0000000   0.0412092), wk =   0.0069444
        k(    4) = (   0.0000000   0.0000000   0.0618138), wk =   0.0069444
        k(    5) = (   0.0000000   0.0000000   0.0824185), wk =   0.0069444
        k(    6) = (   0.0000000   0.0000000   0.1030231), wk =   0.0069444
        k(    7) = (   0.0000000   0.0000000  -0.1236277), wk =   0.0034722
        k(    8) = (   0.0000000   0.0206046   0.0206046), wk =   0.0138889
        k(    9) = (   0.0000000   0.0206046   0.0412092), wk =   0.0277778
        k(   10) = (   0.0000000   0.0206046   0.0618138), wk =   0.0277778
        k(   11) = (   0.0000000   0.0206046   0.0824185), wk =   0.0277778
        k(   12) = (   0.0000000   0.0206046   0.1030231), wk =   0.0277778
        k(   13) = (   0.0000000   0.0206046  -0.1236277), wk =   0.0138889
        k(   14) = (   0.0000000   0.0412092   0.0412092), wk =   0.0138889
        k(   15) = (   0.0000000   0.0412092   0.0618138), wk =   0.0277778
        k(   16) = (   0.0000000   0.0412092   0.0824185), wk =   0.0277778
        k(   17) = (   0.0000000   0.0412092   0.1030231), wk =   0.0277778
        k(   18) = (   0.0000000   0.0412092  -0.1236277), wk =   0.0138889
        k(   19) = (   0.0000000   0.0618138   0.0618138), wk =   0.0138889
        k(   20) = (   0.0000000   0.0618138   0.0824185), wk =   0.0277778
        k(   21) = (   0.0000000   0.0618138   0.1030231), wk =   0.0277778
        k(   22) = (   0.0000000   0.0618138  -0.1236277), wk =   0.0138889
        k(   23) = (   0.0000000   0.0824185   0.0824185), wk =   0.0138889
        k(   24) = (   0.0000000   0.0824185   0.1030231), wk =   0.0277778
        k(   25) = (   0.0000000   0.0824185  -0.1236277), wk =   0.0138889
        k(   26) = (   0.0000000   0.1030231   0.1030231), wk =   0.0138889
        k(   27) = (   0.0000000   0.1030231  -0.1236277), wk =   0.0138889
        k(   28) = (   0.0000000  -0.1236277  -0.1236277), wk =   0.0034722
        k(   29) = (   0.0206046   0.0206046   0.0206046), wk =   0.0092593
        k(   30) = (   0.0206046   0.0206046   0.0412092), wk =   0.0277778
        k(   31) = (   0.0206046   0.0206046   0.0618138), wk =   0.0277778
        k(   32) = (   0.0206046   0.0206046   0.0824185), wk =   0.0277778
        k(   33) = (   0.0206046   0.0206046   0.1030231), wk =   0.0277778
        k(   34) = (   0.0206046   0.0206046  -0.1236277), wk =   0.0138889
        k(   35) = (   0.0206046   0.0412092   0.0412092), wk =   0.0277778
        k(   36) = (   0.0206046   0.0412092   0.0618138), wk =   0.0555556
        k(   37) = (   0.0206046   0.0412092   0.0824185), wk =   0.0555556
        k(   38) = (   0.0206046   0.0412092   0.1030231), wk =   0.0555556
        k(   39) = (   0.0206046   0.0412092  -0.1236277), wk =   0.0277778
        k(   40) = (   0.0206046   0.0618138   0.0618138), wk =   0.0277778
        k(   41) = (   0.0206046   0.0618138   0.0824185), wk =   0.0555556
        k(   42) = (   0.0206046   0.0618138   0.1030231), wk =   0.0555556
        k(   43) = (   0.0206046   0.0618138  -0.1236277), wk =   0.0277778
        k(   44) = (   0.0206046   0.0824185   0.0824185), wk =   0.0277778
        k(   45) = (   0.0206046   0.0824185   0.1030231), wk =   0.0555556
        k(   46) = (   0.0206046   0.0824185  -0.1236277), wk =   0.0277778
        k(   47) = (   0.0206046   0.1030231   0.1030231), wk =   0.0277778
        k(   48) = (   0.0206046   0.1030231  -0.1236277), wk =   0.0277778
        k(   49) = (   0.0206046  -0.1236277  -0.1236277), wk =   0.0069444
        k(   50) = (   0.0412092   0.0412092   0.0412092), wk =   0.0092593
        k(   51) = (   0.0412092   0.0412092   0.0618138), wk =   0.0277778
        k(   52) = (   0.0412092   0.0412092   0.0824185), wk =   0.0277778
        k(   53) = (   0.0412092   0.0412092   0.1030231), wk =   0.0277778
        k(   54) = (   0.0412092   0.0412092  -0.1236277), wk =   0.0138889
        k(   55) = (   0.0412092   0.0618138   0.0618138), wk =   0.0277778
        k(   56) = (   0.0412092   0.0618138   0.0824185), wk =   0.0555556
        k(   57) = (   0.0412092   0.0618138   0.1030231), wk =   0.0555556
        k(   58) = (   0.0412092   0.0618138  -0.1236277), wk =   0.0277778
        k(   59) = (   0.0412092   0.0824185   0.0824185), wk =   0.0277778
        k(   60) = (   0.0412092   0.0824185   0.1030231), wk =   0.0555556
[...]
        k(   70) = (   0.0618138   0.0824185   0.1030231), wk =   0.0555556
        k(   71) = (   0.0618138   0.0824185  -0.1236277), wk =   0.0277778
        k(   72) = (   0.0618138   0.1030231   0.1030231), wk =   0.0277778
        k(   73) = (   0.0618138   0.1030231  -0.1236277), wk =   0.0277778
        k(   74) = (   0.0618138  -0.1236277  -0.1236277), wk =   0.0069444
        k(   75) = (   0.0824185   0.0824185   0.0824185), wk =   0.0092593
        k(   76) = (   0.0824185   0.0824185   0.1030231), wk =   0.0277778
        k(   77) = (   0.0824185   0.0824185  -0.1236277), wk =   0.0138889
        k(   78) = (   0.0824185   0.1030231   0.1030231), wk =   0.0277778
        k(   79) = (   0.0824185   0.1030231  -0.1236277), wk =   0.0277778
        k(   80) = (   0.0824185  -0.1236277  -0.1236277), wk =   0.0069444
        k(   81) = (   0.1030231   0.1030231   0.1030231), wk =   0.0092593
        k(   82) = (   0.1030231   0.1030231  -0.1236277), wk =   0.0138889
        k(   83) = (   0.1030231  -0.1236277  -0.1236277), wk =   0.0069444
        k(   84) = (  -0.1236277  -0.1236277  -0.1236277), wk =   0.0011574

     Largest allocated arrays     est. size (Mb)     dimensions
     Largest temporary arrays     est. size (Mb)     dimensions

     Initial potential from superposition of free atoms
     Check: negative starting charge=   -0.094827

     starting charge   66.99889, renormalised to   70.00000

     negative rho (up, down):  9.907E-02 0.000E+00

     *
     * You are using vdW-DF for exchange-correlation in this calculation.
     * Please cite the following three references that made this development
     * possible:
     *
     *   M. Dion, H. Rydberg, E. Schroder, D. C. Langreth, and
     *   B. I. Lundqvist, Phys. Rev. Lett. 92, 246401 (2004).
     *
     *   T. Thonhauser, V. R. Cooper, S. Li, A. Puzder, P. Hyldgaard, and
     *   D. C. Langreth, Phys. Rev. B 76, 125112 (2007).
     *
     *   G. Roman-Perez and J. M. Soler, Phys. Rev. Lett. 103, 096102 (2009).
     *
     *
     * If you are using vdW-DF2, please also cite:
     *
     *   K. Lee, E. D. Murray, L. Kong, B. I. Lundqvist, and
     *   D. C. Langreth, Phys. Rev. B 82, 081101(R) (2010).
     *
     *
     * If you are calculating the stress with vdW-DF, please also cite:
     *
     *   R. Sabatini, E. Kucukbenli, B. Kolb, T. Thonhauser, and
     *   S. de Gironcoli, J. Phys.: Condens. Matter 24, 424209 (2012).
     *

     Carrying out vdW-DF run using the following parameters:

     Nqs =      20    Nr_points =    1024   r_max =   100.000
     q_mesh =
               0.00001000     0.04494208     0.09755937     0.15916263
               0.23128650     0.31572767     0.41458969     0.53033537
               0.66584808     0.82450364     1.01025438     1.22772762
               1.48234092     1.78043706     2.12944203     2.53805004
               3.01644009     3.57652955     4.23227104     5.00000000

     Gradients computed in reciprocal space

     Starting wfc are   49 randomized atomic wfcs +    6 random wfc

     Self-consistent Calculation

     iteration #  1     ecut=    58.80 Ry     beta=0.10
     Davidson diagonalization with overlap
     ethr =  1.00E-02,  avg # of iterations =  4.3

[...]

     total energy              =   -1395.48588244 Ry
     Harris-Foulkes estimate   =   -1396.81690682 Ry
     estimated scf accuracy    <      18.33219752 Ry

[...]

     total energy              =   -1393.04012839 Ry
     Harris-Foulkes estimate   =   -1393.04012745 Ry
     estimated scf accuracy    <       0.00000006 Ry

     iteration # 15     ecut=    58.80 Ry     beta=0.10
     Davidson diagonalization with overlap
     ethr =  9.18E-11,  avg # of iterations =  2.0

     negative rho (up, down):  1.003E-01 0.000E+00

     End of self-consistent calculation

          k = 0.0000 0.0000 0.0000 (  3407 PWs)   bands (ev):

   -79.6949 -79.6949 -79.6949 -79.6514 -79.6514 -79.6514 -79.6511 -79.6511
   -79.6511 -53.8086 -20.1474 -20.1474 -20.1474  -0.3153  -0.2859  -0.2859
    -0.2859  -0.1515  -0.1515   0.0043   0.0043   0.0043   0.0754   0.0754
     0.2032   0.2134   0.2134   0.2134   3.4234  11.0562  11.0562  12.9312
    12.9312  12.9312  15.4890  15.4890  15.4890  17.0935  18.4982  18.4982
    19.9191  19.9191  19.9191  23.4903  23.4903  23.4903  27.2211  27.2211
    27.2211  28.3242  28.3242  29.3332  30.3187  32.5723  32.5723

[...]

          k = 0.1030-0.1236-0.1236 (  3396 PWs)   bands (ev):

[...]

          k =-0.1236-0.1236-0.1236 (  3448 PWs)   bands (ev):

   -79.6986 -79.6928 -79.6928 -79.6532 -79.6532 -79.6532 -79.6494 -79.6494
   -79.6494 -53.8077 -20.1654 -20.1654 -20.1654  -0.2171  -0.2010  -0.2010
    -0.2010  -0.1084  -0.1084  -0.1084   0.0052   0.0052   0.0052   0.0543
     0.0543   0.1932   0.1932   0.1932   8.8427   8.8427   8.8427  10.4222
    11.7046  11.7046  11.7046  15.3258  16.5480  16.5480  18.6083  18.6083
    18.6083  25.5376  25.5376  25.5376  26.1386  26.1386  29.0443  29.0443
    29.0443  29.6670  30.0297  30.0297  30.0297  30.9371  30.9371

     the Fermi energy is    15.4299 ev

!    total energy              =   -1393.04013254 Ry
     Harris-Foulkes estimate   =   -1393.04012841 Ry
     estimated scf accuracy    <          2.8E-10 Ry

     The total energy is the sum of the following terms:

     one-electron contribution =    -987.56412341 Ry
     hartree contribution      =     530.52077340 Ry
     xc contribution           =    -193.15749276 Ry
     ewald contribution        =    -742.83339857 Ry
     smearing contrib. (-TS)   =      -0.00589119 Ry

     convergence has been achieved in  15 iterations

     Forces acting on atoms (Ry/au):

     negative rho (up, down):  1.003E-01 0.000E+00
     atom    1 type  1   force =     0.00000000    0.00000000    0.00000000
     atom    2 type  1   force =     0.00000000   -0.00000000    0.00000000
     atom    3 type  1   force =     0.00000000    0.00000000    0.00000000
     atom    4 type  2   force =     0.00000000    0.00000000    0.00000000

     Total force =     0.000000     Total SCF correction =     0.000000
 !ASE

     General routines

     Parallel routines

   This run was terminated on:  22:14:50  24Oct2017

   JOB DONE.