     Program PWSCF v.5.1rc2 (svn rev. ) starts on 24Oct2017 at 20:15:47

     Current dimensions of program PWSCF are:
     Max number of different atomic species (ntypx) = 10
     Max number of k-points (npk) =  40000
     Max angular momentum in pseudopotentials (lmaxx) =  3

     IMPORTANT: XC functional enforced from input :
     Exchange-correlation      = BEEF-VDW ( 1  4 27 13 2)
     Any further DFT definition will be discarded
     Please, verify this is what you really want

     Subspace diagonalization in iterative solution of the eigenvalue problem:
     a serial algorithm will be used

     bravais-lattice index     =            0
     lattice parameter (alat)  =       1.8897  a.u.
     unit-cell volume          =     456.5363 (a.u.)^3
     number of atoms/cell      =            4
     number of atomic types    =            2
     number of electrons       =        76.00
     number of Kohn-Sham states=           58
     kinetic-energy cutoff     =      58.7989  Ry
     charge density cutoff     =     587.9892  Ry
     convergence threshold     =      7.3E-09
     mixing beta               =       0.1000
     number of iterations used =           10  local-TF  mixing
     Exchange-correlation      = BEEF-VDW ( 1  4 27 13 2)
     nstep                     =           50

     celldm(1)=   1.889726  celldm(2)=   0.000000  celldm(3)=   0.000000
     celldm(4)=   0.000000  celldm(5)=   0.000000  celldm(6)=   0.000000

     crystal axes: (cart. coord. in units of alat)
               a(1) = (   4.074674   0.000000   0.000000 )
               a(2) = (   0.000000   4.074674   0.000000 )
               a(3) = (   0.000000   0.000000   4.074674 )

     reciprocal axes: (cart. coord. in units 2 pi/alat)
               b(1) = (  0.245418  0.000000  0.000000 )
               b(2) = (  0.000000  0.245418  0.000000 )
               b(3) = (  0.000000  0.000000  0.245418 )

     PseudoPot. # 1 for Ag read from file:
     /home/vossj/suncat/psp/gbrv1.5pbe/Ag.UPF
     MD5 check sum: d66d668201baa78d5eb5b04ef7011058
     Pseudo is Ultrasoft + core correction, Zval = 19.0
     Generated by new atomic code, or converted to UPF format
     Using radial grid of  887 points,  6 beta functions with:
                l(1) =   0
                l(2) =   0
                l(3) =   1
                l(4) =   1
                l(5) =   2
                l(6) =   2
     Q(r) pseudized with  6 coefficients,  rinner =    1.300   1.300   1.300
                                                       1.300   1.300

     PseudoPot. # 2 for Cu read from file:
     /home/vossj/suncat/psp/gbrv1.5pbe/Cu.UPF
     MD5 check sum: 6e991ff952a84172a2a52a1c1e996048
     Pseudo is Ultrasoft + core correction, Zval = 19.0
     Generated by new atomic code, or converted to UPF format
     Using radial grid of  867 points,  6 beta functions with:
                l(1) =   0
                l(2) =   0
                l(3) =   1
                l(4) =   1
                l(5) =   2
                l(6) =   2
     Q(r) pseudized with  8 coefficients,  rinner =    1.150   1.150   1.150
                                                       1.150   1.150

     vdW kernel table read from file vdW_kernel_table
     MD5 check sum: 095c7af220d748ca6e76c0b4c6cfb241

     atomic species   valence    mass     pseudopotential
        Ag1           19.00   107.86820     Ag( 1.00)
        Cu1           19.00    63.54600     Cu( 1.00)

     48 Sym. Ops., with inversion, found (32 have fractional translation)

   Cartesian axes

     site n.     atom                  positions (alat units)
         1           Ag1 tau(   1) = (   0.0000000   0.0000000   0.0000000  )
         2           Ag1 tau(   2) = (   0.0000000   2.0373372   2.0373372  )
         3           Ag1 tau(   3) = (   2.0373372   0.0000000   2.0373372  )
         4           Cu1 tau(   4) = (   2.0373372   2.0373372   0.0000000  )

     number of k points=    84  Fermi-Dirac smearing, width (Ry)=  0.0073
                       cart. coord. in units 2pi/alat
        k(    1) = (   0.0000000   0.0000000   0.0000000), wk =   0.0011574
        k(    2) = (   0.0000000   0.0000000   0.0204515), wk =   0.0069444
        k(    3) = (   0.0000000   0.0000000   0.0409031), wk =   0.0069444
        k(    4) = (   0.0000000   0.0000000   0.0613546), wk =   0.0069444
        k(    5) = (   0.0000000   0.0000000   0.0818061), wk =   0.0069444
        k(    6) = (   0.0000000   0.0000000   0.1022577), wk =   0.0069444
        k(    7) = (   0.0000000   0.0000000  -0.1227092), wk =   0.0034722
        k(    8) = (   0.0000000   0.0204515   0.0204515), wk =   0.0138889
        k(    9) = (   0.0000000   0.0204515   0.0409031), wk =   0.0277778
        k(   10) = (   0.0000000   0.0204515   0.0613546), wk =   0.0277778
        k(   11) = (   0.0000000   0.0204515   0.0818061), wk =   0.0277778
        k(   12) = (   0.0000000   0.0204515   0.1022577), wk =   0.0277778
        k(   13) = (   0.0000000   0.0204515  -0.1227092), wk =   0.0138889
        k(   14) = (   0.0000000   0.0409031   0.0409031), wk =   0.0138889
        k(   15) = (   0.0000000   0.0409031   0.0613546), wk =   0.0277778
        k(   16) = (   0.0000000   0.0409031   0.0818061), wk =   0.0277778
        k(   17) = (   0.0000000   0.0409031   0.1022577), wk =   0.0277778
        k(   18) = (   0.0000000   0.0409031  -0.1227092), wk =   0.0138889
        k(   19) = (   0.0000000   0.0613546   0.0613546), wk =   0.0138889
        k(   20) = (   0.0000000   0.0613546   0.0818061), wk =   0.0277778
        k(   21) = (   0.0000000   0.0613546   0.1022577), wk =   0.0277778
        k(   22) = (   0.0000000   0.0613546  -0.1227092), wk =   0.0138889
        k(   23) = (   0.0000000   0.0818061   0.0818061), wk =   0.0138889
        k(   24) = (   0.0000000   0.0818061   0.1022577), wk =   0.0277778
        k(   25) = (   0.0000000   0.0818061  -0.1227092), wk =   0.0138889
        k(   26) = (   0.0000000   0.1022577   0.1022577), wk =   0.0138889
        k(   27) = (   0.0000000   0.1022577  -0.1227092), wk =   0.0138889
        k(   28) = (   0.0000000  -0.1227092  -0.1227092), wk =   0.0034722
        k(   29) = (   0.0204515   0.0204515   0.0204515), wk =   0.0092593
        k(   30) = (   0.0204515   0.0204515   0.0409031), wk =   0.0277778
        k(   31) = (   0.0204515   0.0204515   0.0613546), wk =   0.0277778
        k(   32) = (   0.0204515   0.0204515   0.0818061), wk =   0.0277778
        k(   33) = (   0.0204515   0.0204515   0.1022577), wk =   0.0277778
        k(   34) = (   0.0204515   0.0204515  -0.1227092), wk =   0.0138889
        k(   35) = (   0.0204515   0.0409031   0.0409031), wk =   0.0277778
        k(   36) = (   0.0204515   0.0409031   0.0613546), wk =   0.0555556
        k(   37) = (   0.0204515   0.0409031   0.0818061), wk =   0.0555556
        k(   38) = (   0.0204515   0.0409031   0.1022577), wk =   0.0555556
        k(   39) = (   0.0204515   0.0409031  -0.1227092), wk =   0.0277778
        k(   40) = (   0.0204515   0.0613546   0.0613546), wk =   0.0277778
        k(   41) = (   0.0204515   0.0613546   0.0818061), wk =   0.0555556
        k(   42) = (   0.0204515   0.0613546   0.1022577), wk =   0.0555556
        k(   43) = (   0.0204515   0.0613546  -0.1227092), wk =   0.0277778
        k(   44) = (   0.0204515   0.0818061   0.0818061), wk =   0.0277778
        k(   45) = (   0.0204515   0.0818061   0.1022577), wk =   0.0555556
        k(   46) = (   0.0204515   0.0818061  -0.1227092), wk =   0.0277778
        k(   47) = (   0.0204515   0.1022577   0.1022577), wk =   0.0277778
        k(   48) = (   0.0204515   0.1022577  -0.1227092), wk =   0.0277778
        k(   49) = (   0.0204515  -0.1227092  -0.1227092), wk =   0.0069444
        k(   50) = (   0.0409031   0.0409031   0.0409031), wk =   0.0092593
        k(   51) = (   0.0409031   0.0409031   0.0613546), wk =   0.0277778
        k(   52) = (   0.0409031   0.0409031   0.0818061), wk =   0.0277778
        k(   53) = (   0.0409031   0.0409031   0.1022577), wk =   0.0277778
        k(   54) = (   0.0409031   0.0409031  -0.1227092), wk =   0.0138889
        k(   55) = (   0.0409031   0.0613546   0.0613546), wk =   0.0277778
        k(   56) = (   0.0409031   0.0613546   0.0818061), wk =   0.0555556
        k(   57) = (   0.0409031   0.0613546   0.1022577), wk =   0.0555556
        k(   58) = (   0.0409031   0.0613546  -0.1227092), wk =   0.0277778
        k(   59) = (   0.0409031   0.0818061   0.0818061), wk =   0.0277778
        k(   60) = (   0.0409031   0.0818061   0.1022577), wk =   0.0555556
[...]
        k(   70) = (   0.0613546   0.0818061   0.1022577), wk =   0.0555556
        k(   71) = (   0.0613546   0.0818061  -0.1227092), wk =   0.0277778
        k(   72) = (   0.0613546   0.1022577   0.1022577), wk =   0.0277778
        k(   73) = (   0.0613546   0.1022577  -0.1227092), wk =   0.0277778
        k(   74) = (   0.0613546  -0.1227092  -0.1227092), wk =   0.0069444
        k(   75) = (   0.0818061   0.0818061   0.0818061), wk =   0.0092593
        k(   76) = (   0.0818061   0.0818061   0.1022577), wk =   0.0277778
        k(   77) = (   0.0818061   0.0818061  -0.1227092), wk =   0.0138889
        k(   78) = (   0.0818061   0.1022577   0.1022577), wk =   0.0277778
        k(   79) = (   0.0818061   0.1022577  -0.1227092), wk =   0.0277778
        k(   80) = (   0.0818061  -0.1227092  -0.1227092), wk =   0.0069444
        k(   81) = (   0.1022577   0.1022577   0.1022577), wk =   0.0092593
        k(   82) = (   0.1022577   0.1022577  -0.1227092), wk =   0.0138889
        k(   83) = (   0.1022577  -0.1227092  -0.1227092), wk =   0.0069444
        k(   84) = (  -0.1227092  -0.1227092  -0.1227092), wk =   0.0011574

     Largest allocated arrays     est. size (Mb)     dimensions
     Largest temporary arrays     est. size (Mb)     dimensions

     Initial potential from superposition of free atoms

     starting charge   73.49986, renormalised to   76.00000

     *
     * You are using vdW-DF for exchange-correlation in this calculation.
     * Please cite the following three references that made this development
     * possible:
     *
     *   M. Dion, H. Rydberg, E. Schroder, D. C. Langreth, and
     *   B. I. Lundqvist, Phys. Rev. Lett. 92, 246401 (2004).
     *
     *   T. Thonhauser, V. R. Cooper, S. Li, A. Puzder, P. Hyldgaard, and
     *   D. C. Langreth, Phys. Rev. B 76, 125112 (2007).
     *
     *   G. Roman-Perez and J. M. Soler, Phys. Rev. Lett. 103, 096102 (2009).
     *
     *
     * If you are using vdW-DF2, please also cite:
     *
     *   K. Lee, E. D. Murray, L. Kong, B. I. Lundqvist, and
     *   D. C. Langreth, Phys. Rev. B 82, 081101(R) (2010).
     *
     *
     * If you are calculating the stress with vdW-DF, please also cite:
     *
     *   R. Sabatini, E. Kucukbenli, B. Kolb, T. Thonhauser, and
     *   S. de Gironcoli, J. Phys.: Condens. Matter 24, 424209 (2012).
     *

     Carrying out vdW-DF run using the following parameters:

     Nqs =      20    Nr_points =    1024   r_max =   100.000
     q_mesh =
               0.00001000     0.04494208     0.09755937     0.15916263
               0.23128650     0.31572767     0.41458969     0.53033537
               0.66584808     0.82450364     1.01025438     1.22772762
               1.48234092     1.78043706     2.12944203     2.53805004
               3.01644009     3.57652955     4.23227104     5.00000000

     Gradients computed in reciprocal space

     Starting wfc are   52 randomized atomic wfcs +    6 random wfc

     Self-consistent Calculation

     iteration #  1     ecut=    58.80 Ry     beta=0.10
     Davidson diagonalization with overlap
     ethr =  1.00E-02,  avg # of iterations =  4.6

     total energy              =   -1296.18774809 Ry
     Harris-Foulkes estimate   =   -1296.64725002 Ry
     estimated scf accuracy    <       7.40197333 Ry

[...]

     total energy              =   -1294.95793830 Ry
     Harris-Foulkes estimate   =   -1294.95793610 Ry
     estimated scf accuracy    <       0.00000003 Ry

     iteration # 18     ecut=    58.80 Ry     beta=0.10
     Davidson diagonalization with overlap
     ethr =  3.10E-11,  avg # of iterations =  1.0

     End of self-consistent calculation

          k = 0.0000 0.0000 0.0000 (  3431 PWs)   bands (ev):

   -96.6391 -76.7176 -76.6999 -76.6999 -54.0480 -54.0480 -54.0480 -40.2559
   -40.2559 -40.2559 -40.1820 -40.1820 -40.1820 -40.1450 -40.1450 -40.1450
     7.9347   8.9760   9.5376   9.5376   9.5376   9.7238   9.7238  11.1593
    11.1593  11.1593  11.8802  11.8802  12.3832  12.6100  12.6100  12.6100
    13.4902  13.4902  13.6702  13.6702  13.6702  17.1760  17.1760  17.1760
    21.2736  21.9507  21.9507  25.7152  25.7152  25.7152  26.8829  26.8829
    26.8829  31.6871  31.8809  31.8809  31.8809  32.6935  32.6935  32.7555
    35.6727  35.6727

[...]

          k = 0.1023-0.1227-0.1227 (  3488 PWs)   bands (ev):

[...]

          k =-0.1227-0.1227-0.1227 (  3448 PWs)   bands (ev):

   -96.6391 -76.7058 -76.7058 -76.7058 -54.0480 -54.0480 -54.0480 -40.2977
   -40.2366 -40.2366 -40.2366 -40.1578 -40.1578 -40.1437 -40.1437 -40.1437
     9.0838   9.5216   9.5216   9.5216  10.5919  10.5919  10.5919  11.1763
    11.1763  11.1763  11.4710  11.4710  12.4090  12.4090  12.4090  13.4475
    13.4475  13.4475  13.5432  13.5432  15.1771  15.1771  15.1771  15.2995
    18.1705  18.8908  18.8908  18.8908  31.6193  31.8112  31.8112  31.8112
    32.2398  32.2398  32.2398  33.8916  33.8916  34.5427  34.5427  34.5427
    36.2272  36.2272

     the Fermi energy is    15.5072 ev

!    total energy              =   -1294.95794776 Ry
     Harris-Foulkes estimate   =   -1294.95793830 Ry
     estimated scf accuracy    <          1.4E-09 Ry

     The total energy is the sum of the following terms:

     one-electron contribution =    -687.32322271 Ry
     hartree contribution      =     382.56423837 Ry
     xc contribution           =    -130.38812677 Ry
     ewald contribution        =    -859.80842958 Ry
     smearing contrib. (-TS)   =      -0.00240706 Ry

     convergence has been achieved in  18 iterations

     Forces acting on atoms (Ry/au):

     atom    1 type  1   force =     0.00000000    0.00000000    0.00000000
     atom    2 type  1   force =     0.00000000    0.00000000    0.00000000
     atom    3 type  1   force =     0.00000000    0.00000000    0.00000000
     atom    4 type  2   force =     0.00000000   -0.00000000    0.00000000

     Total force =     0.000000     Total SCF correction =     0.000000
 !ASE

     General routines

     Parallel routines

   This run was terminated on:  20:17:25  24Oct2017

   JOB DONE.