     Program PWSCF v.5.1rc2 (svn rev. ) starts on 24Oct2017 at 22:45:35

     Current dimensions of program PWSCF are:
     Max number of different atomic species (ntypx) = 10
     Max number of k-points (npk) =  40000
     Max angular momentum in pseudopotentials (lmaxx) =  3

     IMPORTANT: XC functional enforced from input :
     Exchange-correlation      = BEEF-VDW ( 1  4 27 13 2)
     Any further DFT definition will be discarded
     Please, verify this is what you really want

     Subspace diagonalization in iterative solution of the eigenvalue problem:
     a serial algorithm will be used

     bravais-lattice index     =            0
     lattice parameter (alat)  =       1.8897  a.u.
     unit-cell volume          =     468.2239 (a.u.)^3
     number of atoms/cell      =            4
     number of atomic types    =            2
     number of electrons       =        49.00
     number of Kohn-Sham states=           44
     kinetic-energy cutoff     =      58.7989  Ry
     charge density cutoff     =     587.9892  Ry
     convergence threshold     =      7.3E-09
     mixing beta               =       0.1000
     number of iterations used =           10  local-TF  mixing
     Exchange-correlation      = BEEF-VDW ( 1  4 27 13 2)
     nstep                     =           50

     celldm(1)=   1.889726  celldm(2)=   0.000000  celldm(3)=   0.000000
     celldm(4)=   0.000000  celldm(5)=   0.000000  celldm(6)=   0.000000

     crystal axes: (cart. coord. in units of alat)
               a(1) = (   4.109153   0.000000   0.000000 )
               a(2) = (   0.000000   4.109153   0.000000 )
               a(3) = (   0.000000   0.000000   4.109153 )

     reciprocal axes: (cart. coord. in units 2 pi/alat)
               b(1) = (  0.243359  0.000000  0.000000 )
               b(2) = (  0.000000  0.243359  0.000000 )
               b(3) = (  0.000000  0.000000  0.243359 )

     PseudoPot. # 1 for Au read from file:
     /home/vossj/suncat/psp/gbrv1.5pbe/Au.UPF
     MD5 check sum: 9d7f43293ad2c663164586bc4b293ffc
     Pseudo is Ultrasoft + core correction, Zval = 11.0
     Generated by new atomic code, or converted to UPF format
     Using radial grid of  985 points,  7 beta functions with:
                l(1) =   0
                l(2) =   0
                l(3) =   1
                l(4) =   1
                l(5) =   2
                l(6) =   2
                l(7) =   3
     Q(r) pseudized with  6 coefficients,  rinner =    1.900   1.900   1.900
                                                       1.900   1.900   1.900
                                                       1.900

     PseudoPot. # 2 for Ru read from file:
     /home/vossj/suncat/psp/gbrv1.5pbe/Ru.UPF
     MD5 check sum: 7158a806dd851261a58e6920c40ebe78
     Pseudo is Ultrasoft + core correction, Zval = 16.0
     Generated by new atomic code, or converted to UPF format
     Using radial grid of  967 points,  6 beta functions with:
                l(1) =   0
                l(2) =   0
                l(3) =   1
                l(4) =   1
                l(5) =   2
                l(6) =   2
     Q(r) pseudized with  8 coefficients,  rinner =    1.300   1.300   1.300
                                                       1.300   1.300

     vdW kernel table read from file vdW_kernel_table
     MD5 check sum: 095c7af220d748ca6e76c0b4c6cfb241

     atomic species   valence    mass     pseudopotential
        Au1           11.00   196.96657     Au( 1.00)
        Ru1           16.00   101.07000     Ru( 1.00)

     48 Sym. Ops., with inversion, found (32 have fractional translation)

   Cartesian axes

     site n.     atom                  positions (alat units)
         1           Au1 tau(   1) = (   0.0000000   0.0000000   0.0000000  )
         2           Au1 tau(   2) = (   0.0000000   2.0545766   2.0545766  )
         3           Au1 tau(   3) = (   2.0545766   0.0000000   2.0545766  )
         4           Ru1 tau(   4) = (   2.0545766   2.0545766   0.0000000  )

     number of k points=    84  Fermi-Dirac smearing, width (Ry)=  0.0073
                       cart. coord. in units 2pi/alat
        k(    1) = (   0.0000000   0.0000000   0.0000000), wk =   0.0011574
        k(    2) = (   0.0000000   0.0000000   0.0202799), wk =   0.0069444
        k(    3) = (   0.0000000   0.0000000   0.0405599), wk =   0.0069444
        k(    4) = (   0.0000000   0.0000000   0.0608398), wk =   0.0069444
        k(    5) = (   0.0000000   0.0000000   0.0811197), wk =   0.0069444
        k(    6) = (   0.0000000   0.0000000   0.1013996), wk =   0.0069444
        k(    7) = (   0.0000000   0.0000000  -0.1216796), wk =   0.0034722
        k(    8) = (   0.0000000   0.0202799   0.0202799), wk =   0.0138889
        k(    9) = (   0.0000000   0.0202799   0.0405599), wk =   0.0277778
        k(   10) = (   0.0000000   0.0202799   0.0608398), wk =   0.0277778
        k(   11) = (   0.0000000   0.0202799   0.0811197), wk =   0.0277778
        k(   12) = (   0.0000000   0.0202799   0.1013996), wk =   0.0277778
        k(   13) = (   0.0000000   0.0202799  -0.1216796), wk =   0.0138889
        k(   14) = (   0.0000000   0.0405599   0.0405599), wk =   0.0138889
        k(   15) = (   0.0000000   0.0405599   0.0608398), wk =   0.0277778
        k(   16) = (   0.0000000   0.0405599   0.0811197), wk =   0.0277778
        k(   17) = (   0.0000000   0.0405599   0.1013996), wk =   0.0277778
        k(   18) = (   0.0000000   0.0405599  -0.1216796), wk =   0.0138889
        k(   19) = (   0.0000000   0.0608398   0.0608398), wk =   0.0138889
        k(   20) = (   0.0000000   0.0608398   0.0811197), wk =   0.0277778
        k(   21) = (   0.0000000   0.0608398   0.1013996), wk =   0.0277778
        k(   22) = (   0.0000000   0.0608398  -0.1216796), wk =   0.0138889
        k(   23) = (   0.0000000   0.0811197   0.0811197), wk =   0.0138889
        k(   24) = (   0.0000000   0.0811197   0.1013996), wk =   0.0277778
        k(   25) = (   0.0000000   0.0811197  -0.1216796), wk =   0.0138889
        k(   26) = (   0.0000000   0.1013996   0.1013996), wk =   0.0138889
        k(   27) = (   0.0000000   0.1013996  -0.1216796), wk =   0.0138889
        k(   28) = (   0.0000000  -0.1216796  -0.1216796), wk =   0.0034722
        k(   29) = (   0.0202799   0.0202799   0.0202799), wk =   0.0092593
        k(   30) = (   0.0202799   0.0202799   0.0405599), wk =   0.0277778
        k(   31) = (   0.0202799   0.0202799   0.0608398), wk =   0.0277778
        k(   32) = (   0.0202799   0.0202799   0.0811197), wk =   0.0277778
        k(   33) = (   0.0202799   0.0202799   0.1013996), wk =   0.0277778
        k(   34) = (   0.0202799   0.0202799  -0.1216796), wk =   0.0138889
        k(   35) = (   0.0202799   0.0405599   0.0405599), wk =   0.0277778
        k(   36) = (   0.0202799   0.0405599   0.0608398), wk =   0.0555556
        k(   37) = (   0.0202799   0.0405599   0.0811197), wk =   0.0555556
        k(   38) = (   0.0202799   0.0405599   0.1013996), wk =   0.0555556
        k(   39) = (   0.0202799   0.0405599  -0.1216796), wk =   0.0277778
        k(   40) = (   0.0202799   0.0608398   0.0608398), wk =   0.0277778
        k(   41) = (   0.0202799   0.0608398   0.0811197), wk =   0.0555556
        k(   42) = (   0.0202799   0.0608398   0.1013996), wk =   0.0555556
        k(   43) = (   0.0202799   0.0608398  -0.1216796), wk =   0.0277778
        k(   44) = (   0.0202799   0.0811197   0.0811197), wk =   0.0277778
        k(   45) = (   0.0202799   0.0811197   0.1013996), wk =   0.0555556
        k(   46) = (   0.0202799   0.0811197  -0.1216796), wk =   0.0277778
        k(   47) = (   0.0202799   0.1013996   0.1013996), wk =   0.0277778
        k(   48) = (   0.0202799   0.1013996  -0.1216796), wk =   0.0277778
        k(   49) = (   0.0202799  -0.1216796  -0.1216796), wk =   0.0069444
        k(   50) = (   0.0405599   0.0405599   0.0405599), wk =   0.0092593
        k(   51) = (   0.0405599   0.0405599   0.0608398), wk =   0.0277778
        k(   52) = (   0.0405599   0.0405599   0.0811197), wk =   0.0277778
        k(   53) = (   0.0405599   0.0405599   0.1013996), wk =   0.0277778
        k(   54) = (   0.0405599   0.0405599  -0.1216796), wk =   0.0138889
        k(   55) = (   0.0405599   0.0608398   0.0608398), wk =   0.0277778
        k(   56) = (   0.0405599   0.0608398   0.0811197), wk =   0.0555556
        k(   57) = (   0.0405599   0.0608398   0.1013996), wk =   0.0555556
        k(   58) = (   0.0405599   0.0608398  -0.1216796), wk =   0.0277778
        k(   59) = (   0.0405599   0.0811197   0.0811197), wk =   0.0277778
        k(   60) = (   0.0405599   0.0811197   0.1013996), wk =   0.0555556
[...]
        k(   70) = (   0.0608398   0.0811197   0.1013996), wk =   0.0555556
        k(   71) = (   0.0608398   0.0811197  -0.1216796), wk =   0.0277778
        k(   72) = (   0.0608398   0.1013996   0.1013996), wk =   0.0277778
        k(   73) = (   0.0608398   0.1013996  -0.1216796), wk =   0.0277778
        k(   74) = (   0.0608398  -0.1216796  -0.1216796), wk =   0.0069444
        k(   75) = (   0.0811197   0.0811197   0.0811197), wk =   0.0092593
        k(   76) = (   0.0811197   0.0811197   0.1013996), wk =   0.0277778
        k(   77) = (   0.0811197   0.0811197  -0.1216796), wk =   0.0138889
        k(   78) = (   0.0811197   0.1013996   0.1013996), wk =   0.0277778
        k(   79) = (   0.0811197   0.1013996  -0.1216796), wk =   0.0277778
        k(   80) = (   0.0811197  -0.1216796  -0.1216796), wk =   0.0069444
        k(   81) = (   0.1013996   0.1013996   0.1013996), wk =   0.0092593
        k(   82) = (   0.1013996   0.1013996  -0.1216796), wk =   0.0138889
        k(   83) = (   0.1013996  -0.1216796  -0.1216796), wk =   0.0069444
        k(   84) = (  -0.1216796  -0.1216796  -0.1216796), wk =   0.0011574

     Largest allocated arrays     est. size (Mb)     dimensions
     Largest temporary arrays     est. size (Mb)     dimensions

     Initial potential from superposition of free atoms
     Check: negative starting charge=   -0.075531

     starting charge   47.99962, renormalised to   49.00000

     negative rho (up, down):  7.711E-02 0.000E+00

     *
     * You are using vdW-DF for exchange-correlation in this calculation.
     * Please cite the following three references that made this development
     * possible:
     *
     *   M. Dion, H. Rydberg, E. Schroder, D. C. Langreth, and
     *   B. I. Lundqvist, Phys. Rev. Lett. 92, 246401 (2004).
     *
     *   T. Thonhauser, V. R. Cooper, S. Li, A. Puzder, P. Hyldgaard, and
     *   D. C. Langreth, Phys. Rev. B 76, 125112 (2007).
     *
     *   G. Roman-Perez and J. M. Soler, Phys. Rev. Lett. 103, 096102 (2009).
     *
     *
     * If you are using vdW-DF2, please also cite:
     *
     *   K. Lee, E. D. Murray, L. Kong, B. I. Lundqvist, and
     *   D. C. Langreth, Phys. Rev. B 82, 081101(R) (2010).
     *
     *
     * If you are calculating the stress with vdW-DF, please also cite:
     *
     *   R. Sabatini, E. Kucukbenli, B. Kolb, T. Thonhauser, and
     *   S. de Gironcoli, J. Phys.: Condens. Matter 24, 424209 (2012).
     *

     Carrying out vdW-DF run using the following parameters:

     Nqs =      20    Nr_points =    1024   r_max =   100.000
     q_mesh =
               0.00001000     0.04494208     0.09755937     0.15916263
               0.23128650     0.31572767     0.41458969     0.53033537
               0.66584808     0.82450364     1.01025438     1.22772762
               1.48234092     1.78043706     2.12944203     2.53805004
               3.01644009     3.57652955     4.23227104     5.00000000

     Gradients computed in reciprocal space

     Starting wfc are   40 randomized atomic wfcs +    4 random wfc

     Self-consistent Calculation

     iteration #  1     ecut=    58.80 Ry     beta=0.10
     Davidson diagonalization with overlap
     ethr =  1.00E-02,  avg # of iterations =  5.0

[...]

     total energy              =    -545.44153685 Ry
     Harris-Foulkes estimate   =    -545.59439759 Ry
     estimated scf accuracy    <       2.87556417 Ry

[...]

     iteration #  9     ecut=    58.80 Ry     beta=0.10
     Davidson diagonalization with overlap
     c_bands:  1 eigenvalues not converged
     c_bands:  1 eigenvalues not converged
     c_bands:  1 eigenvalues not converged
     ethr =  8.41E-07,  avg # of iterations =  7.3

[...]

     iteration # 14     ecut=    58.80 Ry     beta=0.10
     Davidson diagonalization with overlap
     c_bands:  1 eigenvalues not converged
     ethr =  1.79E-10,  avg # of iterations =  3.4

[...]

     total energy              =    -545.18816887 Ry
     Harris-Foulkes estimate   =    -545.18816887 Ry
     estimated scf accuracy    <       0.00000001 Ry

     iteration # 16     ecut=    58.80 Ry     beta=0.10
     Davidson diagonalization with overlap
     ethr =  2.81E-11,  avg # of iterations =  2.0

     negative rho (up, down):  7.636E-02 0.000E+00

     End of self-consistent calculation

          k = 0.0000 0.0000 0.0000 (  3575 PWs)   bands (ev):

   -56.8336 -26.8078 -26.8078 -26.8078   6.6554   8.8682   9.1536   9.1536
     9.2647   9.2647   9.2647  11.3481  11.3481  11.3481  12.5959  12.5959
    13.3320  13.7218  13.7218  13.7218  15.2958  15.2958  15.9498  15.9498
    15.9498  17.2464  17.2464  17.2464  21.6054  21.6054  24.3102  25.7347
    25.7347  25.7347  26.5543  26.5543  26.5543  30.3909  32.8333  32.8333
    34.2747  34.4365  34.4366  34.4367

[...]

          k = 0.1014-0.1217-0.1217 (  3548 PWs)   bands (ev):

[...]

          k =-0.1217-0.1217-0.1217 (  3544 PWs)   bands (ev):

   -56.8333 -26.8110 -26.8110 -26.8110   8.7977   8.7977   8.7977   9.0852
    10.8069  10.8069  10.8069  11.3564  11.3564  11.3564  11.7451  11.7451
    13.4014  13.4014  13.4014  14.9267  15.0220  15.0220  15.0220  15.3932
    15.3932  15.3932  15.5601  15.5601  19.2400  19.2400  19.2400  21.7693
    29.8268  29.8268  29.8268  29.8429  32.7134  32.7134  32.7134  32.8033
    32.8033  33.9063  33.9063  33.9063

     the Fermi energy is    15.2132 ev

!    total energy              =    -545.18816894 Ry
     Harris-Foulkes estimate   =    -545.18816888 Ry
     estimated scf accuracy    <          1.8E-09 Ry

     The total energy is the sum of the following terms:

     one-electron contribution =     -32.83148758 Ry
     hartree contribution      =      66.49317870 Ry
     xc contribution           =    -218.98102574 Ry
     ewald contribution        =    -359.85548522 Ry
     smearing contrib. (-TS)   =      -0.01334910 Ry

     convergence has been achieved in  16 iterations

     Forces acting on atoms (Ry/au):

     negative rho (up, down):  7.636E-02 0.000E+00
     atom    1 type  1   force =     0.00000000    0.00000000    0.00000000
     atom    2 type  1   force =     0.00000000    0.00000000   -0.00000000
     atom    3 type  1   force =     0.00000000    0.00000000    0.00000000
     atom    4 type  2   force =     0.00000000   -0.00000000    0.00000000

     Total force =     0.000000     Total SCF correction =     0.000000
 !ASE

     General routines

     Parallel routines

   This run was terminated on:  22:46:40  24Oct2017

   JOB DONE.