     Program PWSCF v.5.1rc2 (svn rev. ) starts on 17Feb2018 at 12:54: 8

     Current dimensions of program PWSCF are:
     Max number of different atomic species (ntypx) = 10
     Max number of k-points (npk) =  40000
     Max angular momentum in pseudopotentials (lmaxx) =  3

     IMPORTANT: XC functional enforced from input :
     Exchange-correlation      = BEEF-VDW ( 1  4 27 13 2)
     Any further DFT definition will be discarded
     Please, verify this is what you really want

     Subspace diagonalization in iterative solution of the eigenvalue problem:
     a serial algorithm will be used

     bravais-lattice index     =            0
     lattice parameter (alat)  =       1.8897  a.u.
     unit-cell volume          =     785.5233 (a.u.)^3
     number of atoms/cell      =            4
     number of atomic types    =            2
     number of electrons       =        57.00
     number of Kohn-Sham states=           48
     kinetic-energy cutoff     =      58.7989  Ry
     charge density cutoff     =     587.9892  Ry
     convergence threshold     =      7.3E-09
     mixing beta               =       0.1000
     number of iterations used =           10  local-TF  mixing
     Exchange-correlation      = BEEF-VDW ( 1  4 27 13 2)
     nstep                     =           50

     celldm(1)=   1.889726  celldm(2)=   0.000000  celldm(3)=   0.000000
     celldm(4)=   0.000000  celldm(5)=   0.000000  celldm(6)=   0.000000

     crystal axes: (cart. coord. in units of alat)
               a(1) = (   4.882634   0.000000   0.000000 )
               a(2) = (   0.000000   4.882634   0.000000 )
               a(3) = (   0.000000   0.000000   4.882634 )

     reciprocal axes: (cart. coord. in units 2 pi/alat)
               b(1) = (  0.204807  0.000000  0.000000 )
               b(2) = (  0.000000  0.204807  0.000000 )
               b(3) = (  0.000000  0.000000  0.204807 )

     PseudoPot. # 1 for Bi read from file:
     /home/mamunm/src/pseudo/gbrv1.5pbe/Bi.UPF
     MD5 check sum: 81103212dc04adf40945787f699eab19
     Pseudo is Ultrasoft + core correction, Zval = 15.0
     Generated by new atomic code, or converted to UPF format
     Using radial grid of  899 points,  6 beta functions with:
                l(1) =   0
                l(2) =   0
                l(3) =   1
                l(4) =   1
                l(5) =   2
                l(6) =   2
     Q(r) pseudized with  6 coefficients,  rinner =    1.000   1.000   1.000
                                                       1.000   1.000

     PseudoPot. # 2 for Hf read from file:
     /home/mamunm/src/pseudo/gbrv1.5pbe/Hf.UPF
     MD5 check sum: 8ee9378dfe14276e333edf04c5e4aa26
     Pseudo is Ultrasoft + core correction, Zval = 12.0
     Generated by new atomic code, or converted to UPF format
     Using radial grid of  921 points,  8 beta functions with:
                l(1) =   0
                l(2) =   0
                l(3) =   0
                l(4) =   1
                l(5) =   1
                l(6) =   2
                l(7) =   2
                l(8) =   3
     Q(r) pseudized with  6 coefficients,  rinner =    1.200   1.200   1.200
                                                       1.200   1.200   1.200
                                                       1.200

     vdW kernel table read from file vdW_kernel_table
     MD5 check sum: 095c7af220d748ca6e76c0b4c6cfb241

     atomic species   valence    mass     pseudopotential
        Bi1           15.00   208.98040     Bi( 1.00)
        Hf1           12.00   178.49000     Hf( 1.00)

     48 Sym. Ops., with inversion, found (32 have fractional translation)

   Cartesian axes

     site n.     atom                  positions (alat units)
         1           Bi1 tau(   1) = (   0.0000000   0.0000000   0.0000000  )
         2           Bi1 tau(   2) = (   0.0000000   2.4413170   2.4413170  )
         3           Bi1 tau(   3) = (   2.4413170   0.0000000   2.4413170  )
         4           Hf1 tau(   4) = (   2.4413170   2.4413170   0.0000000  )

     number of k points=    84  Fermi-Dirac smearing, width (Ry)=  0.0073
                       cart. coord. in units 2pi/alat
        k(    1) = (   0.0000000   0.0000000   0.0000000), wk =   0.0011574
        k(    2) = (   0.0000000   0.0000000   0.0170673), wk =   0.0069444
        k(    3) = (   0.0000000   0.0000000   0.0341346), wk =   0.0069444
        k(    4) = (   0.0000000   0.0000000   0.0512019), wk =   0.0069444
        k(    5) = (   0.0000000   0.0000000   0.0682692), wk =   0.0069444
        k(    6) = (   0.0000000   0.0000000   0.0853365), wk =   0.0069444
        k(    7) = (   0.0000000   0.0000000  -0.1024037), wk =   0.0034722
        k(    8) = (   0.0000000   0.0170673   0.0170673), wk =   0.0138889
        k(    9) = (   0.0000000   0.0170673   0.0341346), wk =   0.0277778
        k(   10) = (   0.0000000   0.0170673   0.0512019), wk =   0.0277778
        k(   11) = (   0.0000000   0.0170673   0.0682692), wk =   0.0277778
        k(   12) = (   0.0000000   0.0170673   0.0853365), wk =   0.0277778
        k(   13) = (   0.0000000   0.0170673  -0.1024037), wk =   0.0138889
        k(   14) = (   0.0000000   0.0341346   0.0341346), wk =   0.0138889
        k(   15) = (   0.0000000   0.0341346   0.0512019), wk =   0.0277778
        k(   16) = (   0.0000000   0.0341346   0.0682692), wk =   0.0277778
        k(   17) = (   0.0000000   0.0341346   0.0853365), wk =   0.0277778
        k(   18) = (   0.0000000   0.0341346  -0.1024037), wk =   0.0138889
        k(   19) = (   0.0000000   0.0512019   0.0512019), wk =   0.0138889
        k(   20) = (   0.0000000   0.0512019   0.0682692), wk =   0.0277778
        k(   21) = (   0.0000000   0.0512019   0.0853365), wk =   0.0277778
        k(   22) = (   0.0000000   0.0512019  -0.1024037), wk =   0.0138889
        k(   23) = (   0.0000000   0.0682692   0.0682692), wk =   0.0138889
        k(   24) = (   0.0000000   0.0682692   0.0853365), wk =   0.0277778
        k(   25) = (   0.0000000   0.0682692  -0.1024037), wk =   0.0138889
        k(   26) = (   0.0000000   0.0853365   0.0853365), wk =   0.0138889
        k(   27) = (   0.0000000   0.0853365  -0.1024037), wk =   0.0138889
        k(   28) = (   0.0000000  -0.1024037  -0.1024037), wk =   0.0034722
        k(   29) = (   0.0170673   0.0170673   0.0170673), wk =   0.0092593
        k(   30) = (   0.0170673   0.0170673   0.0341346), wk =   0.0277778
        k(   31) = (   0.0170673   0.0170673   0.0512019), wk =   0.0277778
        k(   32) = (   0.0170673   0.0170673   0.0682692), wk =   0.0277778
        k(   33) = (   0.0170673   0.0170673   0.0853365), wk =   0.0277778
        k(   34) = (   0.0170673   0.0170673  -0.1024037), wk =   0.0138889
        k(   35) = (   0.0170673   0.0341346   0.0341346), wk =   0.0277778
        k(   36) = (   0.0170673   0.0341346   0.0512019), wk =   0.0555556
        k(   37) = (   0.0170673   0.0341346   0.0682692), wk =   0.0555556
        k(   38) = (   0.0170673   0.0341346   0.0853365), wk =   0.0555556
        k(   39) = (   0.0170673   0.0341346  -0.1024037), wk =   0.0277778
        k(   40) = (   0.0170673   0.0512019   0.0512019), wk =   0.0277778
        k(   41) = (   0.0170673   0.0512019   0.0682692), wk =   0.0555556
        k(   42) = (   0.0170673   0.0512019   0.0853365), wk =   0.0555556
        k(   43) = (   0.0170673   0.0512019  -0.1024037), wk =   0.0277778
        k(   44) = (   0.0170673   0.0682692   0.0682692), wk =   0.0277778
        k(   45) = (   0.0170673   0.0682692   0.0853365), wk =   0.0555556
        k(   46) = (   0.0170673   0.0682692  -0.1024037), wk =   0.0277778
        k(   47) = (   0.0170673   0.0853365   0.0853365), wk =   0.0277778
        k(   48) = (   0.0170673   0.0853365  -0.1024037), wk =   0.0277778
        k(   49) = (   0.0170673  -0.1024037  -0.1024037), wk =   0.0069444
        k(   50) = (   0.0341346   0.0341346   0.0341346), wk =   0.0092593
        k(   51) = (   0.0341346   0.0341346   0.0512019), wk =   0.0277778
        k(   52) = (   0.0341346   0.0341346   0.0682692), wk =   0.0277778
        k(   53) = (   0.0341346   0.0341346   0.0853365), wk =   0.0277778
        k(   54) = (   0.0341346   0.0341346  -0.1024037), wk =   0.0138889
        k(   55) = (   0.0341346   0.0512019   0.0512019), wk =   0.0277778
        k(   56) = (   0.0341346   0.0512019   0.0682692), wk =   0.0555556
        k(   57) = (   0.0341346   0.0512019   0.0853365), wk =   0.0555556
        k(   58) = (   0.0341346   0.0512019  -0.1024037), wk =   0.0277778
        k(   59) = (   0.0341346   0.0682692   0.0682692), wk =   0.0277778
        k(   60) = (   0.0341346   0.0682692   0.0853365), wk =   0.0555556
[...]
        k(   70) = (   0.0512019   0.0682692   0.0853365), wk =   0.0555556
        k(   71) = (   0.0512019   0.0682692  -0.1024037), wk =   0.0277778
        k(   72) = (   0.0512019   0.0853365   0.0853365), wk =   0.0277778
        k(   73) = (   0.0512019   0.0853365  -0.1024037), wk =   0.0277778
        k(   74) = (   0.0512019  -0.1024037  -0.1024037), wk =   0.0069444
        k(   75) = (   0.0682692   0.0682692   0.0682692), wk =   0.0092593
        k(   76) = (   0.0682692   0.0682692   0.0853365), wk =   0.0277778
        k(   77) = (   0.0682692   0.0682692  -0.1024037), wk =   0.0138889
        k(   78) = (   0.0682692   0.0853365   0.0853365), wk =   0.0277778
        k(   79) = (   0.0682692   0.0853365  -0.1024037), wk =   0.0277778
        k(   80) = (   0.0682692  -0.1024037  -0.1024037), wk =   0.0069444
        k(   81) = (   0.0853365   0.0853365   0.0853365), wk =   0.0092593
        k(   82) = (   0.0853365   0.0853365  -0.1024037), wk =   0.0138889
        k(   83) = (   0.0853365  -0.1024037  -0.1024037), wk =   0.0069444
        k(   84) = (  -0.1024037  -0.1024037  -0.1024037), wk =   0.0011574

     Largest allocated arrays     est. size (Mb)     dimensions
     Largest temporary arrays     est. size (Mb)     dimensions

     Check: negative/imaginary core charge=   -0.000001    0.000000

     Initial potential from superposition of free atoms
     Check: negative starting charge=   -0.236146

     starting charge   51.99987, renormalised to   57.00000

     negative rho (up, down):  2.589E-01 0.000E+00

     *
     * You are using vdW-DF for exchange-correlation in this calculation.
     * Please cite the following three references that made this development
     * possible:
     *
     *   M. Dion, H. Rydberg, E. Schroder, D. C. Langreth, and
     *   B. I. Lundqvist, Phys. Rev. Lett. 92, 246401 (2004).
     *
     *   T. Thonhauser, V. R. Cooper, S. Li, A. Puzder, P. Hyldgaard, and
     *   D. C. Langreth, Phys. Rev. B 76, 125112 (2007).
     *
     *   G. Roman-Perez and J. M. Soler, Phys. Rev. Lett. 103, 096102 (2009).
     *
     *
     * If you are using vdW-DF2, please also cite:
     *
     *   K. Lee, E. D. Murray, L. Kong, B. I. Lundqvist, and
     *   D. C. Langreth, Phys. Rev. B 82, 081101(R) (2010).
     *
     *
     * If you are calculating the stress with vdW-DF, please also cite:
     *
     *   R. Sabatini, E. Kucukbenli, B. Kolb, T. Thonhauser, and
     *   S. de Gironcoli, J. Phys.: Condens. Matter 24, 424209 (2012).
     *

     Carrying out vdW-DF run using the following parameters:

     Nqs =      20    Nr_points =    1024   r_max =   100.000
     q_mesh =
               0.00001000     0.04494208     0.09755937     0.15916263
               0.23128650     0.31572767     0.41458969     0.53033537
               0.66584808     0.82450364     1.01025438     1.22772762
               1.48234092     1.78043706     2.12944203     2.53805004
               3.01644009     3.57652955     4.23227104     5.00000000

     Gradients computed in reciprocal space

     Starting wfc are   40 randomized atomic wfcs +    8 random wfc

     Self-consistent Calculation

     iteration #  1     ecut=    58.80 Ry     beta=0.10
     Davidson diagonalization with overlap
     ethr =  1.00E-02,  avg # of iterations =  5.3

[...]

     total energy              =    -723.72383934 Ry
     Harris-Foulkes estimate   =    -723.99836985 Ry
     estimated scf accuracy    <       4.35694507 Ry

[...]

     total energy              =    -722.03614105 Ry
     Harris-Foulkes estimate   =    -722.03611218 Ry
     estimated scf accuracy    <       0.00000001 Ry

     iteration # 14     ecut=    58.80 Ry     beta=0.10
     Davidson diagonalization with overlap
     ethr =  2.37E-11,  avg # of iterations =  2.0

     negative rho (up, down):  2.529E-01 0.000E+00

     End of self-consistent calculation

          k = 0.0000 0.0000 0.0000 (  6031 PWs)   bands (ev):

   -51.5456 -19.9809 -19.9808 -19.9808 -10.9833 -10.9829 -10.9829 -10.9794
   -10.8451 -10.8448 -10.8288 -10.8285 -10.7938 -10.7938 -10.7931 -10.7372
   -10.7369 -10.7369 -10.7046  -0.8331   2.9461   2.9464   8.5042   8.5042
     8.5042  11.6919  12.6772  12.6772  12.8192  12.8192  12.8193  13.0111
    13.0112  13.0112  15.0930  15.0930  15.0931  18.3008  20.2393  20.2394
    20.2394  20.4251  20.4252  21.8419  21.8425  21.8426  21.8426  26.4581

[...]

          k = 0.0853-0.1024-0.1024 (  5956 PWs)   bands (ev):

[...]

          k =-0.1024-0.1024-0.1024 (  6008 PWs)   bands (ev):

   -51.5455 -19.9830 -19.9830 -19.9830 -10.9325 -10.9325 -10.9324 -10.8932
   -10.8932 -10.8931 -10.8603 -10.8360 -10.8360 -10.8357 -10.7717 -10.7712
   -10.7260 -10.7260 -10.7257   1.6698   1.6698   1.6702   6.8994   7.9763
     7.9765   7.9765  10.9045  13.5318  13.5319  13.6621  13.6621  13.6622
    16.2591  16.2593  16.3023  16.3025  16.3025  21.0711  21.0712  21.0712
    21.2736  21.3438  21.3438  21.3439  22.4940  22.4941  22.4941  22.6064

     the Fermi energy is    12.5723 ev

!    total energy              =    -722.03626554 Ry
     Harris-Foulkes estimate   =    -722.03614317 Ry
     estimated scf accuracy    <          5.2E-09 Ry

     The total energy is the sum of the following terms:

     one-electron contribution =    -149.28000827 Ry
     hartree contribution      =     109.60617441 Ry
     xc contribution           =    -277.09514633 Ry
     ewald contribution        =    -405.26048015 Ry
     smearing contrib. (-TS)   =      -0.00680521 Ry

     convergence has been achieved in  14 iterations

     Forces acting on atoms (Ry/au):

     negative rho (up, down):  2.529E-01 0.000E+00
     atom    1 type  1   force =     0.00000000    0.00000000    0.00000000
     atom    2 type  1   force =     0.00000000    0.00000000   -0.00000000
     atom    3 type  1   force =     0.00000000    0.00000000   -0.00000000
     atom    4 type  2   force =     0.00000000    0.00000000    0.00000000

     Total force =     0.000000     Total SCF correction =     0.000000
 !ASE

     General routines

     Parallel routines

   This run was terminated on:  12:55:41  17Feb2018

   JOB DONE.