     Program PWSCF v.5.1rc2 (svn rev. ) starts on 24Oct2017 at 20:19:40

     Current dimensions of program PWSCF are:
     Max number of different atomic species (ntypx) = 10
     Max number of k-points (npk) =  40000
     Max angular momentum in pseudopotentials (lmaxx) =  3

     IMPORTANT: XC functional enforced from input :
     Exchange-correlation      = BEEF-VDW ( 1  4 27 13 2)
     Any further DFT definition will be discarded
     Please, verify this is what you really want

     Subspace diagonalization in iterative solution of the eigenvalue problem:
     a serial algorithm will be used

     bravais-lattice index     =            0
     lattice parameter (alat)  =       1.8897  a.u.
     unit-cell volume          =     409.0548 (a.u.)^3
     number of atoms/cell      =            4
     number of atomic types    =            2
     number of electrons       =        69.00
     number of Kohn-Sham states=           54
     kinetic-energy cutoff     =      58.7989  Ry
     charge density cutoff     =     587.9892  Ry
     convergence threshold     =      7.3E-09
     mixing beta               =       0.1000
     number of iterations used =           10  local-TF  mixing
     Exchange-correlation      = BEEF-VDW ( 1  4 27 13 2)
     nstep                     =           50

     celldm(1)=   1.889726  celldm(2)=   0.000000  celldm(3)=   0.000000
     celldm(4)=   0.000000  celldm(5)=   0.000000  celldm(6)=   0.000000

     crystal axes: (cart. coord. in units of alat)
               a(1) = (   3.928212   0.000000   0.000000 )
               a(2) = (   0.000000   3.928212   0.000000 )
               a(3) = (   0.000000   0.000000   3.928212 )

     reciprocal axes: (cart. coord. in units 2 pi/alat)
               b(1) = (  0.254569  0.000000  0.000000 )
               b(2) = (  0.000000  0.254569  0.000000 )
               b(3) = (  0.000000  0.000000  0.254569 )

     PseudoPot. # 1 for Cu read from file:
     /home/vossj/suncat/psp/gbrv1.5pbe/Cu.UPF
     MD5 check sum: 6e991ff952a84172a2a52a1c1e996048
     Pseudo is Ultrasoft + core correction, Zval = 19.0
     Generated by new atomic code, or converted to UPF format
     Using radial grid of  867 points,  6 beta functions with:
                l(1) =   0
                l(2) =   0
                l(3) =   1
                l(4) =   1
                l(5) =   2
                l(6) =   2
     Q(r) pseudized with  8 coefficients,  rinner =    1.150   1.150   1.150
                                                       1.150   1.150

     PseudoPot. # 2 for Hf read from file:
     /home/vossj/suncat/psp/gbrv1.5pbe/Hf.UPF
     MD5 check sum: 8ee9378dfe14276e333edf04c5e4aa26
     Pseudo is Ultrasoft + core correction, Zval = 12.0
     Generated by new atomic code, or converted to UPF format
     Using radial grid of  921 points,  8 beta functions with:
                l(1) =   0
                l(2) =   0
                l(3) =   0
                l(4) =   1
                l(5) =   1
                l(6) =   2
                l(7) =   2
                l(8) =   3
     Q(r) pseudized with  6 coefficients,  rinner =    1.200   1.200   1.200
                                                       1.200   1.200   1.200
                                                       1.200

     vdW kernel table read from file vdW_kernel_table
     MD5 check sum: 095c7af220d748ca6e76c0b4c6cfb241

     atomic species   valence    mass     pseudopotential
        Cu1           19.00    63.54600     Cu( 1.00)
        Hf1           12.00   178.49000     Hf( 1.00)

     48 Sym. Ops., with inversion, found (32 have fractional translation)

   Cartesian axes

     site n.     atom                  positions (alat units)
         1           Cu1 tau(   1) = (   0.0000000   0.0000000   0.0000000  )
         2           Cu1 tau(   2) = (   0.0000000   1.9641062   1.9641062  )
         3           Cu1 tau(   3) = (   1.9641062   0.0000000   1.9641062  )
         4           Hf1 tau(   4) = (   1.9641062   1.9641062   0.0000000  )

     number of k points=    84  Fermi-Dirac smearing, width (Ry)=  0.0073
                       cart. coord. in units 2pi/alat
        k(    1) = (   0.0000000   0.0000000   0.0000000), wk =   0.0011574
        k(    2) = (   0.0000000   0.0000000   0.0212141), wk =   0.0069444
        k(    3) = (   0.0000000   0.0000000   0.0424281), wk =   0.0069444
        k(    4) = (   0.0000000   0.0000000   0.0636422), wk =   0.0069444
        k(    5) = (   0.0000000   0.0000000   0.0848562), wk =   0.0069444
        k(    6) = (   0.0000000   0.0000000   0.1060703), wk =   0.0069444
        k(    7) = (   0.0000000   0.0000000  -0.1272844), wk =   0.0034722
        k(    8) = (   0.0000000   0.0212141   0.0212141), wk =   0.0138889
        k(    9) = (   0.0000000   0.0212141   0.0424281), wk =   0.0277778
        k(   10) = (   0.0000000   0.0212141   0.0636422), wk =   0.0277778
        k(   11) = (   0.0000000   0.0212141   0.0848562), wk =   0.0277778
        k(   12) = (   0.0000000   0.0212141   0.1060703), wk =   0.0277778
        k(   13) = (   0.0000000   0.0212141  -0.1272844), wk =   0.0138889
        k(   14) = (   0.0000000   0.0424281   0.0424281), wk =   0.0138889
        k(   15) = (   0.0000000   0.0424281   0.0636422), wk =   0.0277778
        k(   16) = (   0.0000000   0.0424281   0.0848562), wk =   0.0277778
        k(   17) = (   0.0000000   0.0424281   0.1060703), wk =   0.0277778
        k(   18) = (   0.0000000   0.0424281  -0.1272844), wk =   0.0138889
        k(   19) = (   0.0000000   0.0636422   0.0636422), wk =   0.0138889
        k(   20) = (   0.0000000   0.0636422   0.0848562), wk =   0.0277778
        k(   21) = (   0.0000000   0.0636422   0.1060703), wk =   0.0277778
        k(   22) = (   0.0000000   0.0636422  -0.1272844), wk =   0.0138889
        k(   23) = (   0.0000000   0.0848562   0.0848562), wk =   0.0138889
        k(   24) = (   0.0000000   0.0848562   0.1060703), wk =   0.0277778
        k(   25) = (   0.0000000   0.0848562  -0.1272844), wk =   0.0138889
        k(   26) = (   0.0000000   0.1060703   0.1060703), wk =   0.0138889
        k(   27) = (   0.0000000   0.1060703  -0.1272844), wk =   0.0138889
        k(   28) = (   0.0000000  -0.1272844  -0.1272844), wk =   0.0034722
        k(   29) = (   0.0212141   0.0212141   0.0212141), wk =   0.0092593
        k(   30) = (   0.0212141   0.0212141   0.0424281), wk =   0.0277778
        k(   31) = (   0.0212141   0.0212141   0.0636422), wk =   0.0277778
        k(   32) = (   0.0212141   0.0212141   0.0848562), wk =   0.0277778
        k(   33) = (   0.0212141   0.0212141   0.1060703), wk =   0.0277778
        k(   34) = (   0.0212141   0.0212141  -0.1272844), wk =   0.0138889
        k(   35) = (   0.0212141   0.0424281   0.0424281), wk =   0.0277778
        k(   36) = (   0.0212141   0.0424281   0.0636422), wk =   0.0555556
        k(   37) = (   0.0212141   0.0424281   0.0848562), wk =   0.0555556
        k(   38) = (   0.0212141   0.0424281   0.1060703), wk =   0.0555556
        k(   39) = (   0.0212141   0.0424281  -0.1272844), wk =   0.0277778
        k(   40) = (   0.0212141   0.0636422   0.0636422), wk =   0.0277778
        k(   41) = (   0.0212141   0.0636422   0.0848562), wk =   0.0555556
        k(   42) = (   0.0212141   0.0636422   0.1060703), wk =   0.0555556
        k(   43) = (   0.0212141   0.0636422  -0.1272844), wk =   0.0277778
        k(   44) = (   0.0212141   0.0848562   0.0848562), wk =   0.0277778
        k(   45) = (   0.0212141   0.0848562   0.1060703), wk =   0.0555556
        k(   46) = (   0.0212141   0.0848562  -0.1272844), wk =   0.0277778
        k(   47) = (   0.0212141   0.1060703   0.1060703), wk =   0.0277778
        k(   48) = (   0.0212141   0.1060703  -0.1272844), wk =   0.0277778
        k(   49) = (   0.0212141  -0.1272844  -0.1272844), wk =   0.0069444
        k(   50) = (   0.0424281   0.0424281   0.0424281), wk =   0.0092593
        k(   51) = (   0.0424281   0.0424281   0.0636422), wk =   0.0277778
        k(   52) = (   0.0424281   0.0424281   0.0848562), wk =   0.0277778
        k(   53) = (   0.0424281   0.0424281   0.1060703), wk =   0.0277778
        k(   54) = (   0.0424281   0.0424281  -0.1272844), wk =   0.0138889
        k(   55) = (   0.0424281   0.0636422   0.0636422), wk =   0.0277778
        k(   56) = (   0.0424281   0.0636422   0.0848562), wk =   0.0555556
        k(   57) = (   0.0424281   0.0636422   0.1060703), wk =   0.0555556
        k(   58) = (   0.0424281   0.0636422  -0.1272844), wk =   0.0277778
        k(   59) = (   0.0424281   0.0848562   0.0848562), wk =   0.0277778
        k(   60) = (   0.0424281   0.0848562   0.1060703), wk =   0.0555556
[...]
        k(   70) = (   0.0636422   0.0848562   0.1060703), wk =   0.0555556
        k(   71) = (   0.0636422   0.0848562  -0.1272844), wk =   0.0277778
        k(   72) = (   0.0636422   0.1060703   0.1060703), wk =   0.0277778
        k(   73) = (   0.0636422   0.1060703  -0.1272844), wk =   0.0277778
        k(   74) = (   0.0636422  -0.1272844  -0.1272844), wk =   0.0069444
        k(   75) = (   0.0848562   0.0848562   0.0848562), wk =   0.0092593
        k(   76) = (   0.0848562   0.0848562   0.1060703), wk =   0.0277778
        k(   77) = (   0.0848562   0.0848562  -0.1272844), wk =   0.0138889
        k(   78) = (   0.0848562   0.1060703   0.1060703), wk =   0.0277778
        k(   79) = (   0.0848562   0.1060703  -0.1272844), wk =   0.0277778
        k(   80) = (   0.0848562  -0.1272844  -0.1272844), wk =   0.0069444
        k(   81) = (   0.1060703   0.1060703   0.1060703), wk =   0.0092593
        k(   82) = (   0.1060703   0.1060703  -0.1272844), wk =   0.0138889
        k(   83) = (   0.1060703  -0.1272844  -0.1272844), wk =   0.0069444
        k(   84) = (  -0.1272844  -0.1272844  -0.1272844), wk =   0.0011574

     Largest allocated arrays     est. size (Mb)     dimensions
     Largest temporary arrays     est. size (Mb)     dimensions

     Check: negative/imaginary core charge=   -0.000002    0.000000

     Initial potential from superposition of free atoms
     Check: negative starting charge=   -0.107961

     starting charge   63.99999, renormalised to   69.00000

     negative rho (up, down):  1.164E-01 0.000E+00

     *
     * You are using vdW-DF for exchange-correlation in this calculation.
     * Please cite the following three references that made this development
     * possible:
     *
     *   M. Dion, H. Rydberg, E. Schroder, D. C. Langreth, and
     *   B. I. Lundqvist, Phys. Rev. Lett. 92, 246401 (2004).
     *
     *   T. Thonhauser, V. R. Cooper, S. Li, A. Puzder, P. Hyldgaard, and
     *   D. C. Langreth, Phys. Rev. B 76, 125112 (2007).
     *
     *   G. Roman-Perez and J. M. Soler, Phys. Rev. Lett. 103, 096102 (2009).
     *
     *
     * If you are using vdW-DF2, please also cite:
     *
     *   K. Lee, E. D. Murray, L. Kong, B. I. Lundqvist, and
     *   D. C. Langreth, Phys. Rev. B 82, 081101(R) (2010).
     *
     *
     * If you are calculating the stress with vdW-DF, please also cite:
     *
     *   R. Sabatini, E. Kucukbenli, B. Kolb, T. Thonhauser, and
     *   S. de Gironcoli, J. Phys.: Condens. Matter 24, 424209 (2012).
     *

     Carrying out vdW-DF run using the following parameters:

     Nqs =      20    Nr_points =    1024   r_max =   100.000
     q_mesh =
               0.00001000     0.04494208     0.09755937     0.15916263
               0.23128650     0.31572767     0.41458969     0.53033537
               0.66584808     0.82450364     1.01025438     1.22772762
               1.48234092     1.78043706     2.12944203     2.53805004
               3.01644009     3.57652955     4.23227104     5.00000000

     Gradients computed in reciprocal space

     Starting wfc are   52 randomized atomic wfcs +    2 random wfc

     Self-consistent Calculation

     iteration #  1     ecut=    58.80 Ry     beta=0.10
     Davidson diagonalization with overlap
     ethr =  1.00E-02,  avg # of iterations =  4.1

[...]

     total energy              =   -1379.86393750 Ry
     Harris-Foulkes estimate   =   -1386.12619076 Ry
     estimated scf accuracy    <      90.81153971 Ry

[...]

     total energy              =   -1375.45217813 Ry
     Harris-Foulkes estimate   =   -1375.45217646 Ry
     estimated scf accuracy    <       0.00000001 Ry

     iteration # 19     ecut=    58.80 Ry     beta=0.10
     Davidson diagonalization with overlap
     ethr =  1.64E-11,  avg # of iterations =  1.0

     negative rho (up, down):  1.188E-01 0.000E+00

     End of self-consistent calculation

          k = 0.0000 0.0000 0.0000 (  3119 PWs)   bands (ev):

   -98.4171 -98.4132 -98.4132 -55.8476 -55.8476 -55.8476 -55.8431 -55.8431
   -55.8431 -55.6937 -55.6937 -55.6937 -48.3845 -16.8782 -16.8782 -16.8782
     6.1178   9.7423   9.7423  10.3073  10.3807  10.3807  10.3807  11.4555
    11.4555  11.4555  12.0537  12.0537  12.2037  12.4392  12.4392  12.4392
    15.1037  15.1037  16.1392  16.1392  16.1392  17.7306  17.7306  17.7306
    21.6599  23.8325  23.8325  23.8325  23.8490  23.8490  27.9527  27.9527
    27.9527  32.1572  32.1572  32.1572  32.5903  32.5903

[...]

          k = 0.1061-0.1273-0.1273 (  3132 PWs)   bands (ev):

[...]

          k =-0.1273-0.1273-0.1273 (  3112 PWs)   bands (ev):

   -98.4145 -98.4145 -98.4145 -55.8559 -55.8559 -55.8559 -55.8340 -55.8340
   -55.8340 -55.7163 -55.6842 -55.6842 -48.3820 -16.9154 -16.9154 -16.9154
     9.6686   9.6686   9.6686  10.0083  11.2637  11.2637  11.2637  11.5495
    11.5495  11.5548  11.5548  11.5548  12.2953  12.2953  12.2953  13.6960
    14.1619  14.1619  14.1619  14.2493  14.2493  14.2493  18.0851  18.0851
    19.1546  22.1931  22.1931  22.1931  30.6264  30.6264  30.6264  30.8894
    30.8894  30.8894  32.0985  32.2807  32.2807  34.5860

     the Fermi energy is    14.5584 ev

!    total energy              =   -1375.45218531 Ry
     Harris-Foulkes estimate   =   -1375.45217813 Ry
     estimated scf accuracy    <          1.6E-09 Ry

     The total energy is the sum of the following terms:

     one-electron contribution =    -936.26040585 Ry
     hartree contribution      =     504.44303580 Ry
     xc contribution           =    -197.32188671 Ry
     ewald contribution        =    -746.30361088 Ry
     smearing contrib. (-TS)   =      -0.00931768 Ry

     convergence has been achieved in  19 iterations

     Forces acting on atoms (Ry/au):

     negative rho (up, down):  1.188E-01 0.000E+00
     atom    1 type  1   force =     0.00000000   -0.00000000    0.00000000
     atom    2 type  1   force =     0.00000000    0.00000000    0.00000000
     atom    3 type  1   force =     0.00000000    0.00000000    0.00000000
     atom    4 type  2   force =     0.00000000    0.00000000    0.00000000

     Total force =     0.000000     Total SCF correction =     0.000000
 !ASE

     General routines

     Parallel routines

   This run was terminated on:  20:21: 7  24Oct2017

   JOB DONE.