     Program PWSCF v.5.1rc2 (svn rev. ) starts on 25Oct2017 at 18: 9:16

     Current dimensions of program PWSCF are:
     Max number of different atomic species (ntypx) = 10
     Max number of k-points (npk) =  40000
     Max angular momentum in pseudopotentials (lmaxx) =  3

     IMPORTANT: XC functional enforced from input :
     Exchange-correlation      = BEEF-VDW ( 1  4 27 13 2)
     Any further DFT definition will be discarded
     Please, verify this is what you really want

     Subspace diagonalization in iterative solution of the eigenvalue problem:
     a serial algorithm will be used

     bravais-lattice index     =            0
     lattice parameter (alat)  =       1.8897  a.u.
     unit-cell volume          =     389.7208 (a.u.)^3
     number of atoms/cell      =            4
     number of atomic types    =            2
     number of electrons       =        60.00
     number of Kohn-Sham states=           50
     kinetic-energy cutoff     =      58.7989  Ry
     charge density cutoff     =     587.9892  Ry
     convergence threshold     =      7.3E-09
     mixing beta               =       0.1000
     number of iterations used =           10  local-TF  mixing
     Exchange-correlation      = BEEF-VDW ( 1  4 27 13 2)
     nstep                     =           50

     celldm(1)=   1.889726  celldm(2)=   0.000000  celldm(3)=   0.000000
     celldm(4)=   0.000000  celldm(5)=   0.000000  celldm(6)=   0.000000

     crystal axes: (cart. coord. in units of alat)
               a(1) = (   3.865322   0.000000   0.000000 )
               a(2) = (   0.000000   3.865322   0.000000 )
               a(3) = (   0.000000   0.000000   3.865322 )

     reciprocal axes: (cart. coord. in units 2 pi/alat)
               b(1) = (  0.258711  0.000000  0.000000 )
               b(2) = (  0.000000  0.258711  0.000000 )
               b(3) = (  0.000000  0.000000  0.258711 )

     PseudoPot. # 1 for Tc read from file:
     /home/vossj/suncat/psp/gbrv1.5pbe/Tc.UPF
     MD5 check sum: 9eb49e5b028550b2339a02317eb7b844
     Pseudo is Ultrasoft + core correction, Zval = 15.0
     Generated by new atomic code, or converted to UPF format
     Using radial grid of  965 points,  6 beta functions with:
                l(1) =   0
                l(2) =   0
                l(3) =   1
                l(4) =   1
                l(5) =   2
                l(6) =   2
     Q(r) pseudized with  8 coefficients,  rinner =    1.300   1.300   1.300
                                                       1.300   1.300

     PseudoPot. # 2 for Rh read from file:
     /home/vossj/suncat/psp/gbrv1.5pbe/Rh.UPF
     MD5 check sum: 761627e959a2e3a1f56b0b5fe687810e
     Pseudo is Ultrasoft + core correction, Zval = 15.0
     Generated by new atomic code, or converted to UPF format
     Using radial grid of  969 points,  7 beta functions with:
                l(1) =   0
                l(2) =   0
                l(3) =   1
                l(4) =   1
                l(5) =   2
                l(6) =   2
                l(7) =   2
     Q(r) pseudized with  8 coefficients,  rinner =    1.200   1.200   1.200
                                                       1.200   1.200

     vdW kernel table read from file vdW_kernel_table
     MD5 check sum: 095c7af220d748ca6e76c0b4c6cfb241

     atomic species   valence    mass     pseudopotential
        Tc1           15.00    97.90721     Tc( 1.00)
        Rh1           15.00   102.90550     Rh( 1.00)

     48 Sym. Ops., with inversion, found (32 have fractional translation)

   Cartesian axes

     site n.     atom                  positions (alat units)
         1           Tc1 tau(   1) = (   0.0000000   0.0000000   0.0000000  )
         2           Tc1 tau(   2) = (   0.0000000   1.9326609   1.9326609  )
         3           Tc1 tau(   3) = (   1.9326609   0.0000000   1.9326609  )
         4           Rh1 tau(   4) = (   1.9326609   1.9326609   0.0000000  )

     number of k points=    84  Fermi-Dirac smearing, width (Ry)=  0.0073
                       cart. coord. in units 2pi/alat
        k(    1) = (   0.0000000   0.0000000   0.0000000), wk =   0.0011574
        k(    2) = (   0.0000000   0.0000000   0.0215592), wk =   0.0069444
        k(    3) = (   0.0000000   0.0000000   0.0431184), wk =   0.0069444
        k(    4) = (   0.0000000   0.0000000   0.0646777), wk =   0.0069444
        k(    5) = (   0.0000000   0.0000000   0.0862369), wk =   0.0069444
        k(    6) = (   0.0000000   0.0000000   0.1077961), wk =   0.0069444
        k(    7) = (   0.0000000   0.0000000  -0.1293553), wk =   0.0034722
        k(    8) = (   0.0000000   0.0215592   0.0215592), wk =   0.0138889
        k(    9) = (   0.0000000   0.0215592   0.0431184), wk =   0.0277778
        k(   10) = (   0.0000000   0.0215592   0.0646777), wk =   0.0277778
        k(   11) = (   0.0000000   0.0215592   0.0862369), wk =   0.0277778
        k(   12) = (   0.0000000   0.0215592   0.1077961), wk =   0.0277778
        k(   13) = (   0.0000000   0.0215592  -0.1293553), wk =   0.0138889
        k(   14) = (   0.0000000   0.0431184   0.0431184), wk =   0.0138889
        k(   15) = (   0.0000000   0.0431184   0.0646777), wk =   0.0277778
        k(   16) = (   0.0000000   0.0431184   0.0862369), wk =   0.0277778
        k(   17) = (   0.0000000   0.0431184   0.1077961), wk =   0.0277778
        k(   18) = (   0.0000000   0.0431184  -0.1293553), wk =   0.0138889
        k(   19) = (   0.0000000   0.0646777   0.0646777), wk =   0.0138889
        k(   20) = (   0.0000000   0.0646777   0.0862369), wk =   0.0277778
        k(   21) = (   0.0000000   0.0646777   0.1077961), wk =   0.0277778
        k(   22) = (   0.0000000   0.0646777  -0.1293553), wk =   0.0138889
        k(   23) = (   0.0000000   0.0862369   0.0862369), wk =   0.0138889
        k(   24) = (   0.0000000   0.0862369   0.1077961), wk =   0.0277778
        k(   25) = (   0.0000000   0.0862369  -0.1293553), wk =   0.0138889
        k(   26) = (   0.0000000   0.1077961   0.1077961), wk =   0.0138889
        k(   27) = (   0.0000000   0.1077961  -0.1293553), wk =   0.0138889
        k(   28) = (   0.0000000  -0.1293553  -0.1293553), wk =   0.0034722
        k(   29) = (   0.0215592   0.0215592   0.0215592), wk =   0.0092593
        k(   30) = (   0.0215592   0.0215592   0.0431184), wk =   0.0277778
        k(   31) = (   0.0215592   0.0215592   0.0646777), wk =   0.0277778
        k(   32) = (   0.0215592   0.0215592   0.0862369), wk =   0.0277778
        k(   33) = (   0.0215592   0.0215592   0.1077961), wk =   0.0277778
        k(   34) = (   0.0215592   0.0215592  -0.1293553), wk =   0.0138889
        k(   35) = (   0.0215592   0.0431184   0.0431184), wk =   0.0277778
        k(   36) = (   0.0215592   0.0431184   0.0646777), wk =   0.0555556
        k(   37) = (   0.0215592   0.0431184   0.0862369), wk =   0.0555556
        k(   38) = (   0.0215592   0.0431184   0.1077961), wk =   0.0555556
        k(   39) = (   0.0215592   0.0431184  -0.1293553), wk =   0.0277778
        k(   40) = (   0.0215592   0.0646777   0.0646777), wk =   0.0277778
        k(   41) = (   0.0215592   0.0646777   0.0862369), wk =   0.0555556
        k(   42) = (   0.0215592   0.0646777   0.1077961), wk =   0.0555556
        k(   43) = (   0.0215592   0.0646777  -0.1293553), wk =   0.0277778
        k(   44) = (   0.0215592   0.0862369   0.0862369), wk =   0.0277778
        k(   45) = (   0.0215592   0.0862369   0.1077961), wk =   0.0555556
        k(   46) = (   0.0215592   0.0862369  -0.1293553), wk =   0.0277778
        k(   47) = (   0.0215592   0.1077961   0.1077961), wk =   0.0277778
        k(   48) = (   0.0215592   0.1077961  -0.1293553), wk =   0.0277778
        k(   49) = (   0.0215592  -0.1293553  -0.1293553), wk =   0.0069444
        k(   50) = (   0.0431184   0.0431184   0.0431184), wk =   0.0092593
        k(   51) = (   0.0431184   0.0431184   0.0646777), wk =   0.0277778
        k(   52) = (   0.0431184   0.0431184   0.0862369), wk =   0.0277778
        k(   53) = (   0.0431184   0.0431184   0.1077961), wk =   0.0277778
        k(   54) = (   0.0431184   0.0431184  -0.1293553), wk =   0.0138889
        k(   55) = (   0.0431184   0.0646777   0.0646777), wk =   0.0277778
        k(   56) = (   0.0431184   0.0646777   0.0862369), wk =   0.0555556
        k(   57) = (   0.0431184   0.0646777   0.1077961), wk =   0.0555556
        k(   58) = (   0.0431184   0.0646777  -0.1293553), wk =   0.0277778
        k(   59) = (   0.0431184   0.0862369   0.0862369), wk =   0.0277778
        k(   60) = (   0.0431184   0.0862369   0.1077961), wk =   0.0555556
[...]
        k(   70) = (   0.0646777   0.0862369   0.1077961), wk =   0.0555556
        k(   71) = (   0.0646777   0.0862369  -0.1293553), wk =   0.0277778
        k(   72) = (   0.0646777   0.1077961   0.1077961), wk =   0.0277778
        k(   73) = (   0.0646777   0.1077961  -0.1293553), wk =   0.0277778
        k(   74) = (   0.0646777  -0.1293553  -0.1293553), wk =   0.0069444
        k(   75) = (   0.0862369   0.0862369   0.0862369), wk =   0.0092593
        k(   76) = (   0.0862369   0.0862369   0.1077961), wk =   0.0277778
        k(   77) = (   0.0862369   0.0862369  -0.1293553), wk =   0.0138889
        k(   78) = (   0.0862369   0.1077961   0.1077961), wk =   0.0277778
        k(   79) = (   0.0862369   0.1077961  -0.1293553), wk =   0.0277778
        k(   80) = (   0.0862369  -0.1293553  -0.1293553), wk =   0.0069444
        k(   81) = (   0.1077961   0.1077961   0.1077961), wk =   0.0092593
        k(   82) = (   0.1077961   0.1077961  -0.1293553), wk =   0.0138889
        k(   83) = (   0.1077961  -0.1293553  -0.1293553), wk =   0.0069444
        k(   84) = (  -0.1293553  -0.1293553  -0.1293553), wk =   0.0011574

     Largest allocated arrays     est. size (Mb)     dimensions
     Largest temporary arrays     est. size (Mb)     dimensions

     Check: negative/imaginary core charge=   -0.000008    0.000000

     Initial potential from superposition of free atoms
     Check: negative starting charge=   -0.428896

     starting charge   56.49982, renormalised to   60.00000

     negative rho (up, down):  4.555E-01 0.000E+00

     *
     * You are using vdW-DF for exchange-correlation in this calculation.
     * Please cite the following three references that made this development
     * possible:
     *
     *   M. Dion, H. Rydberg, E. Schroder, D. C. Langreth, and
     *   B. I. Lundqvist, Phys. Rev. Lett. 92, 246401 (2004).
     *
     *   T. Thonhauser, V. R. Cooper, S. Li, A. Puzder, P. Hyldgaard, and
     *   D. C. Langreth, Phys. Rev. B 76, 125112 (2007).
     *
     *   G. Roman-Perez and J. M. Soler, Phys. Rev. Lett. 103, 096102 (2009).
     *
     *
     * If you are using vdW-DF2, please also cite:
     *
     *   K. Lee, E. D. Murray, L. Kong, B. I. Lundqvist, and
     *   D. C. Langreth, Phys. Rev. B 82, 081101(R) (2010).
     *
     *
     * If you are calculating the stress with vdW-DF, please also cite:
     *
     *   R. Sabatini, E. Kucukbenli, B. Kolb, T. Thonhauser, and
     *   S. de Gironcoli, J. Phys.: Condens. Matter 24, 424209 (2012).
     *

     Carrying out vdW-DF run using the following parameters:

     Nqs =      20    Nr_points =    1024   r_max =   100.000
     q_mesh =
               0.00001000     0.04494208     0.09755937     0.15916263
               0.23128650     0.31572767     0.41458969     0.53033537
               0.66584808     0.82450364     1.01025438     1.22772762
               1.48234092     1.78043706     2.12944203     2.53805004
               3.01644009     3.57652955     4.23227104     5.00000000

     Gradients computed in reciprocal space

     Starting wfc are   51 randomized atomic wfcs

     Self-consistent Calculation

     iteration #  1     ecut=    58.80 Ry     beta=0.10
     Davidson diagonalization with overlap
     ethr =  1.00E-02,  avg # of iterations =  4.6

[...]

     total energy              =    -699.21601691 Ry
     Harris-Foulkes estimate   =    -699.50729346 Ry
     estimated scf accuracy    <       4.44015601 Ry

[...]

     total energy              =    -698.24256197 Ry
     Harris-Foulkes estimate   =    -698.24256178 Ry
     estimated scf accuracy    <       0.00000002 Ry

     iteration # 14     ecut=    58.80 Ry     beta=0.10
     Davidson diagonalization with overlap
     ethr =  3.28E-11,  avg # of iterations =  1.7

     negative rho (up, down):  4.527E-01 0.000E+00

     End of self-consistent calculation

          k = 0.0000 0.0000 0.0000 (  2945 PWs)   bands (ev):

   -45.6059 -45.3976 -45.3976 -25.0141 -25.0141 -25.0141 -17.8850 -17.8850
   -17.8850 -17.3921 -17.3921 -17.3921 -17.0916 -17.0916 -17.0916  14.3058
    15.8150  15.8475  15.8475  16.3349  16.3349  16.3349  19.5396  19.5396
    19.5396  21.7532  21.7532  23.7126  23.7126  23.8145  23.8145  23.8145
    24.3602  24.9473  24.9473  24.9473  25.4430  25.4430  25.4430  34.4077
    34.4077  34.4077  35.0571  35.3188  35.3188  35.3421  35.3421  35.3421
    36.2929  41.7290

[...]

          k = 0.1078-0.1294-0.1294 (  2984 PWs)   bands (ev):

[...]

          k =-0.1294-0.1294-0.1294 (  3016 PWs)   bands (ev):

   -45.4659 -45.4659 -45.4659 -25.0230 -25.0230 -25.0230 -18.1696 -17.8003
   -17.8003 -17.8003 -17.1251 -17.1251 -17.1206 -17.1206 -17.1206  16.1127
    16.1724  16.1724  16.1724  18.9897  18.9897  19.3751  19.3751  19.3751
    19.7594  19.7594  19.7594  22.8237  22.8237  22.8237  23.0295  23.4858
    23.4858  23.4858  23.6575  23.6575  24.4016  24.4016  24.4016  31.4274
    31.9394  31.9394  31.9394  35.7749  35.9374  35.9374  35.9374  41.4640
    41.4640  41.4640

     the Fermi energy is    21.7357 ev

!    total energy              =    -698.24256286 Ry
     Harris-Foulkes estimate   =    -698.24256197 Ry
     estimated scf accuracy    <          1.9E-09 Ry

     The total energy is the sum of the following terms:

     one-electron contribution =     -96.64766826 Ry
     hartree contribution      =      93.85973727 Ry
     xc contribution           =    -130.52831432 Ry
     ewald contribution        =    -564.91651407 Ry
     smearing contrib. (-TS)   =      -0.00980348 Ry

     convergence has been achieved in  14 iterations

     Forces acting on atoms (Ry/au):

     negative rho (up, down):  4.527E-01 0.000E+00
     atom    1 type  1   force =     0.00000000    0.00000000    0.00000000
     atom    2 type  1   force =     0.00000000    0.00000000    0.00000000
     atom    3 type  1   force =     0.00000000    0.00000000    0.00000000
     atom    4 type  2   force =     0.00000000    0.00000000    0.00000000

     Total force =     0.000000     Total SCF correction =     0.000000
 !ASE

     General routines

     Parallel routines

   This run was terminated on:  18:10:15  25Oct2017

   JOB DONE.