     Program PWSCF v.5.1rc2 (svn rev. ) starts on 25Oct2017 at  1:31:51

     Current dimensions of program PWSCF are:
     Max number of different atomic species (ntypx) = 10
     Max number of k-points (npk) =  40000
     Max angular momentum in pseudopotentials (lmaxx) =  3

     IMPORTANT: XC functional enforced from input :
     Exchange-correlation      = BEEF-VDW ( 1  4 27 13 2)
     Any further DFT definition will be discarded
     Please, verify this is what you really want

     Subspace diagonalization in iterative solution of the eigenvalue problem:
     a serial algorithm will be used

     bravais-lattice index     =            0
     lattice parameter (alat)  =       1.8897  a.u.
     unit-cell volume          =     435.1115 (a.u.)^3
     number of atoms/cell      =            4
     number of atomic types    =            2
     number of electrons       =        61.00
     number of Kohn-Sham states=           50
     kinetic-energy cutoff     =      58.7989  Ry
     charge density cutoff     =     587.9892  Ry
     convergence threshold     =      7.3E-09
     mixing beta               =       0.1000
     number of iterations used =           10  local-TF  mixing
     Exchange-correlation      = BEEF-VDW ( 1  4 27 13 2)
     nstep                     =           50

     celldm(1)=   1.889726  celldm(2)=   0.000000  celldm(3)=   0.000000
     celldm(4)=   0.000000  celldm(5)=   0.000000  celldm(6)=   0.000000

     crystal axes: (cart. coord. in units of alat)
               a(1) = (   4.009910   0.000000   0.000000 )
               a(2) = (   0.000000   4.009910   0.000000 )
               a(3) = (   0.000000   0.000000   4.009910 )

     reciprocal axes: (cart. coord. in units 2 pi/alat)
               b(1) = (  0.249382  0.000000  0.000000 )
               b(2) = (  0.000000  0.249382  0.000000 )
               b(3) = (  0.000000  0.000000  0.249382 )

     PseudoPot. # 1 for Mo read from file:
     /home/vossj/suncat/psp/gbrv1.5pbe/Mo.UPF
     MD5 check sum: 30c4dcd161f5d35cd49bb5239c51a633
     Pseudo is Ultrasoft + core correction, Zval = 14.0
     Generated by new atomic code, or converted to UPF format
     Using radial grid of  889 points,  6 beta functions with:
                l(1) =   0
                l(2) =   0
                l(3) =   1
                l(4) =   1
                l(5) =   2
                l(6) =   2
     Q(r) pseudized with  6 coefficients,  rinner =    1.000   1.000   1.000
                                                       1.000   1.000

     PseudoPot. # 2 for Ag read from file:
     /home/vossj/suncat/psp/gbrv1.5pbe/Ag.UPF
     MD5 check sum: d66d668201baa78d5eb5b04ef7011058
     Pseudo is Ultrasoft + core correction, Zval = 19.0
     Generated by new atomic code, or converted to UPF format
     Using radial grid of  887 points,  6 beta functions with:
                l(1) =   0
                l(2) =   0
                l(3) =   1
                l(4) =   1
                l(5) =   2
                l(6) =   2
     Q(r) pseudized with  6 coefficients,  rinner =    1.300   1.300   1.300
                                                       1.300   1.300

     vdW kernel table read from file vdW_kernel_table
     MD5 check sum: 095c7af220d748ca6e76c0b4c6cfb241

     atomic species   valence    mass     pseudopotential
        Mo1           14.00    95.95000     Mo( 1.00)
        Ag1           19.00   107.86820     Ag( 1.00)

     48 Sym. Ops., with inversion, found (32 have fractional translation)

   Cartesian axes

     site n.     atom                  positions (alat units)
         1           Mo1 tau(   1) = (   0.0000000   0.0000000   0.0000000  )
         2           Mo1 tau(   2) = (   0.0000000   2.0049551   2.0049551  )
         3           Mo1 tau(   3) = (   2.0049551   0.0000000   2.0049551  )
         4           Ag1 tau(   4) = (   2.0049551   2.0049551   0.0000000  )

     number of k points=    84  Fermi-Dirac smearing, width (Ry)=  0.0073
                       cart. coord. in units 2pi/alat
        k(    1) = (   0.0000000   0.0000000   0.0000000), wk =   0.0011574
        k(    2) = (   0.0000000   0.0000000   0.0207818), wk =   0.0069444
        k(    3) = (   0.0000000   0.0000000   0.0415637), wk =   0.0069444
        k(    4) = (   0.0000000   0.0000000   0.0623455), wk =   0.0069444
        k(    5) = (   0.0000000   0.0000000   0.0831274), wk =   0.0069444
        k(    6) = (   0.0000000   0.0000000   0.1039092), wk =   0.0069444
        k(    7) = (   0.0000000   0.0000000  -0.1246911), wk =   0.0034722
        k(    8) = (   0.0000000   0.0207818   0.0207818), wk =   0.0138889
        k(    9) = (   0.0000000   0.0207818   0.0415637), wk =   0.0277778
        k(   10) = (   0.0000000   0.0207818   0.0623455), wk =   0.0277778
        k(   11) = (   0.0000000   0.0207818   0.0831274), wk =   0.0277778
        k(   12) = (   0.0000000   0.0207818   0.1039092), wk =   0.0277778
        k(   13) = (   0.0000000   0.0207818  -0.1246911), wk =   0.0138889
        k(   14) = (   0.0000000   0.0415637   0.0415637), wk =   0.0138889
        k(   15) = (   0.0000000   0.0415637   0.0623455), wk =   0.0277778
        k(   16) = (   0.0000000   0.0415637   0.0831274), wk =   0.0277778
        k(   17) = (   0.0000000   0.0415637   0.1039092), wk =   0.0277778
        k(   18) = (   0.0000000   0.0415637  -0.1246911), wk =   0.0138889
        k(   19) = (   0.0000000   0.0623455   0.0623455), wk =   0.0138889
        k(   20) = (   0.0000000   0.0623455   0.0831274), wk =   0.0277778
        k(   21) = (   0.0000000   0.0623455   0.1039092), wk =   0.0277778
        k(   22) = (   0.0000000   0.0623455  -0.1246911), wk =   0.0138889
        k(   23) = (   0.0000000   0.0831274   0.0831274), wk =   0.0138889
        k(   24) = (   0.0000000   0.0831274   0.1039092), wk =   0.0277778
        k(   25) = (   0.0000000   0.0831274  -0.1246911), wk =   0.0138889
        k(   26) = (   0.0000000   0.1039092   0.1039092), wk =   0.0138889
        k(   27) = (   0.0000000   0.1039092  -0.1246911), wk =   0.0138889
        k(   28) = (   0.0000000  -0.1246911  -0.1246911), wk =   0.0034722
        k(   29) = (   0.0207818   0.0207818   0.0207818), wk =   0.0092593
        k(   30) = (   0.0207818   0.0207818   0.0415637), wk =   0.0277778
        k(   31) = (   0.0207818   0.0207818   0.0623455), wk =   0.0277778
        k(   32) = (   0.0207818   0.0207818   0.0831274), wk =   0.0277778
        k(   33) = (   0.0207818   0.0207818   0.1039092), wk =   0.0277778
        k(   34) = (   0.0207818   0.0207818  -0.1246911), wk =   0.0138889
        k(   35) = (   0.0207818   0.0415637   0.0415637), wk =   0.0277778
        k(   36) = (   0.0207818   0.0415637   0.0623455), wk =   0.0555556
        k(   37) = (   0.0207818   0.0415637   0.0831274), wk =   0.0555556
        k(   38) = (   0.0207818   0.0415637   0.1039092), wk =   0.0555556
        k(   39) = (   0.0207818   0.0415637  -0.1246911), wk =   0.0277778
        k(   40) = (   0.0207818   0.0623455   0.0623455), wk =   0.0277778
        k(   41) = (   0.0207818   0.0623455   0.0831274), wk =   0.0555556
        k(   42) = (   0.0207818   0.0623455   0.1039092), wk =   0.0555556
        k(   43) = (   0.0207818   0.0623455  -0.1246911), wk =   0.0277778
        k(   44) = (   0.0207818   0.0831274   0.0831274), wk =   0.0277778
        k(   45) = (   0.0207818   0.0831274   0.1039092), wk =   0.0555556
        k(   46) = (   0.0207818   0.0831274  -0.1246911), wk =   0.0277778
        k(   47) = (   0.0207818   0.1039092   0.1039092), wk =   0.0277778
        k(   48) = (   0.0207818   0.1039092  -0.1246911), wk =   0.0277778
        k(   49) = (   0.0207818  -0.1246911  -0.1246911), wk =   0.0069444
        k(   50) = (   0.0415637   0.0415637   0.0415637), wk =   0.0092593
        k(   51) = (   0.0415637   0.0415637   0.0623455), wk =   0.0277778
        k(   52) = (   0.0415637   0.0415637   0.0831274), wk =   0.0277778
        k(   53) = (   0.0415637   0.0415637   0.1039092), wk =   0.0277778
        k(   54) = (   0.0415637   0.0415637  -0.1246911), wk =   0.0138889
        k(   55) = (   0.0415637   0.0623455   0.0623455), wk =   0.0277778
        k(   56) = (   0.0415637   0.0623455   0.0831274), wk =   0.0555556
        k(   57) = (   0.0415637   0.0623455   0.1039092), wk =   0.0555556
        k(   58) = (   0.0415637   0.0623455  -0.1246911), wk =   0.0277778
        k(   59) = (   0.0415637   0.0831274   0.0831274), wk =   0.0277778
        k(   60) = (   0.0415637   0.0831274   0.1039092), wk =   0.0555556
[...]
        k(   70) = (   0.0623455   0.0831274   0.1039092), wk =   0.0555556
        k(   71) = (   0.0623455   0.0831274  -0.1246911), wk =   0.0277778
        k(   72) = (   0.0623455   0.1039092   0.1039092), wk =   0.0277778
        k(   73) = (   0.0623455   0.1039092  -0.1246911), wk =   0.0277778
        k(   74) = (   0.0623455  -0.1246911  -0.1246911), wk =   0.0069444
        k(   75) = (   0.0831274   0.0831274   0.0831274), wk =   0.0092593
        k(   76) = (   0.0831274   0.0831274   0.1039092), wk =   0.0277778
        k(   77) = (   0.0831274   0.0831274  -0.1246911), wk =   0.0138889
        k(   78) = (   0.0831274   0.1039092   0.1039092), wk =   0.0277778
        k(   79) = (   0.0831274   0.1039092  -0.1246911), wk =   0.0277778
        k(   80) = (   0.0831274  -0.1246911  -0.1246911), wk =   0.0069444
        k(   81) = (   0.1039092   0.1039092   0.1039092), wk =   0.0092593
        k(   82) = (   0.1039092   0.1039092  -0.1246911), wk =   0.0138889
        k(   83) = (   0.1039092  -0.1246911  -0.1246911), wk =   0.0069444
        k(   84) = (  -0.1246911  -0.1246911  -0.1246911), wk =   0.0011574

     Largest allocated arrays     est. size (Mb)     dimensions
     Largest temporary arrays     est. size (Mb)     dimensions

     Initial potential from superposition of free atoms

     starting charge   60.49676, renormalised to   61.00000

     *
     * You are using vdW-DF for exchange-correlation in this calculation.
     * Please cite the following three references that made this development
     * possible:
     *
     *   M. Dion, H. Rydberg, E. Schroder, D. C. Langreth, and
     *   B. I. Lundqvist, Phys. Rev. Lett. 92, 246401 (2004).
     *
     *   T. Thonhauser, V. R. Cooper, S. Li, A. Puzder, P. Hyldgaard, and
     *   D. C. Langreth, Phys. Rev. B 76, 125112 (2007).
     *
     *   G. Roman-Perez and J. M. Soler, Phys. Rev. Lett. 103, 096102 (2009).
     *
     *
     * If you are using vdW-DF2, please also cite:
     *
     *   K. Lee, E. D. Murray, L. Kong, B. I. Lundqvist, and
     *   D. C. Langreth, Phys. Rev. B 82, 081101(R) (2010).
     *
     *
     * If you are calculating the stress with vdW-DF, please also cite:
     *
     *   R. Sabatini, E. Kucukbenli, B. Kolb, T. Thonhauser, and
     *   S. de Gironcoli, J. Phys.: Condens. Matter 24, 424209 (2012).
     *

     Carrying out vdW-DF run using the following parameters:

     Nqs =      20    Nr_points =    1024   r_max =   100.000
     q_mesh =
               0.00001000     0.04494208     0.09755937     0.15916263
               0.23128650     0.31572767     0.41458969     0.53033537
               0.66584808     0.82450364     1.01025438     1.22772762
               1.48234092     1.78043706     2.12944203     2.53805004
               3.01644009     3.57652955     4.23227104     5.00000000

     Gradients computed in reciprocal space

     Starting wfc are   52 randomized atomic wfcs

     Self-consistent Calculation

     iteration #  1     ecut=    58.80 Ry     beta=0.10
     Davidson diagonalization with overlap
     ethr =  1.00E-02,  avg # of iterations =  4.6

     total energy              =    -716.78590874 Ry
     Harris-Foulkes estimate   =    -716.92671090 Ry
     estimated scf accuracy    <       2.79664490 Ry

[...]

     total energy              =    -716.58284391 Ry
     Harris-Foulkes estimate   =    -716.58284279 Ry
     estimated scf accuracy    <       0.00000002 Ry

     iteration # 13     ecut=    58.80 Ry     beta=0.10
     Davidson diagonalization with overlap
     ethr =  2.52E-11,  avg # of iterations =  2.0

     End of self-consistent calculation

          k = 0.0000 0.0000 0.0000 (  3287 PWs)   bands (ev):

   -73.2111 -41.4894 -41.2793 -41.2793 -36.6754 -36.6754 -36.6754 -15.8099
   -15.8099 -15.8099 -15.3233 -15.3233 -15.3233 -14.9876 -14.9876 -14.9876
    12.4608  13.3046  13.3046  13.7017  13.7017  13.7017  14.6098  17.2258
    17.2258  17.2258  18.3333  18.3333  21.3015  21.3015  21.3015  22.3551
    22.3551  22.7902  22.7902  22.7902  23.3111  23.9411  23.9411  23.9411
    30.9144  30.9144  30.9144  31.0229  32.3134  32.3134  32.7071  32.7071
    32.7071  33.4507

[...]

          k = 0.1039-0.1247-0.1247 (  3308 PWs)   bands (ev):

[...]

          k =-0.1247-0.1247-0.1247 (  3328 PWs)   bands (ev):

   -73.2110 -41.3481 -41.3481 -41.3481 -36.6766 -36.6766 -36.6766 -16.0591
   -15.7621 -15.7621 -15.7621 -15.0468 -15.0468 -15.0468 -14.9897 -14.9897
    13.5637  13.5637  13.5637  14.3405  14.6310  14.6310  16.9920  16.9920
    16.9920  18.6620  18.6620  18.6620  20.2978  20.2978  20.2978  21.1563
    21.1563  21.1563  21.1962  21.7725  21.7725  23.3695  23.3695  23.3695
    27.7256  29.4196  29.4196  29.4196  32.9362  33.0598  33.0598  33.0598
    37.3800  37.3800

     the Fermi energy is    19.7124 ev

!    total energy              =    -716.58284872 Ry
     Harris-Foulkes estimate   =    -716.58284391 Ry
     estimated scf accuracy    <          4.5E-10 Ry

     The total energy is the sum of the following terms:

     one-electron contribution =    -188.95816352 Ry
     hartree contribution      =     131.05125259 Ry
     xc contribution           =     -90.24033306 Ry
     ewald contribution        =    -568.42890383 Ry
     smearing contrib. (-TS)   =      -0.00670090 Ry

     convergence has been achieved in  13 iterations

     Forces acting on atoms (Ry/au):

     atom    1 type  1   force =     0.00000000    0.00000000    0.00000000
     atom    2 type  1   force =     0.00000000    0.00000000   -0.00000000
     atom    3 type  1   force =     0.00000000    0.00000000    0.00000000
     atom    4 type  2   force =     0.00000000    0.00000000    0.00000000

     Total force =     0.000000     Total SCF correction =     0.000000
 !ASE

     General routines

     Parallel routines

   This run was terminated on:   1:32:45  25Oct2017

   JOB DONE.