     Program PWSCF v.5.1rc2 (svn rev. ) starts on 25Oct2017 at 11:26: 2

     Current dimensions of program PWSCF are:
     Max number of different atomic species (ntypx) = 10
     Max number of k-points (npk) =  40000
     Max angular momentum in pseudopotentials (lmaxx) =  3

     IMPORTANT: XC functional enforced from input :
     Exchange-correlation      = BEEF-VDW ( 1  4 27 13 2)
     Any further DFT definition will be discarded
     Please, verify this is what you really want

     Subspace diagonalization in iterative solution of the eigenvalue problem:
     a serial algorithm will be used

     bravais-lattice index     =            0
     lattice parameter (alat)  =       1.8897  a.u.
     unit-cell volume          =     396.2266 (a.u.)^3
     number of atoms/cell      =            4
     number of atomic types    =            2
     number of electrons       =        56.00
     number of Kohn-Sham states=           48
     kinetic-energy cutoff     =      58.7989  Ry
     charge density cutoff     =     587.9892  Ry
     convergence threshold     =      7.3E-09
     mixing beta               =       0.1000
     number of iterations used =           10  local-TF  mixing
     Exchange-correlation      = BEEF-VDW ( 1  4 27 13 2)
     nstep                     =           50

     celldm(1)=   1.889726  celldm(2)=   0.000000  celldm(3)=   0.000000
     celldm(4)=   0.000000  celldm(5)=   0.000000  celldm(6)=   0.000000

     crystal axes: (cart. coord. in units of alat)
               a(1) = (   3.886712   0.000000   0.000000 )
               a(2) = (   0.000000   3.886712   0.000000 )
               a(3) = (   0.000000   0.000000   3.886712 )

     reciprocal axes: (cart. coord. in units 2 pi/alat)
               b(1) = (  0.257287  0.000000  0.000000 )
               b(2) = (  0.000000  0.257287  0.000000 )
               b(3) = (  0.000000  0.000000  0.257287 )

     PseudoPot. # 1 for Cr read from file:
     /home/vossj/suncat/psp/gbrv1.5pbe/Cr.UPF
     MD5 check sum: 0d52af634a40206e4dee301ad30da4bf
     Pseudo is Ultrasoft + core correction, Zval = 14.0
     Generated by new atomic code, or converted to UPF format
     Using radial grid of  857 points,  6 beta functions with:
                l(1) =   0
                l(2) =   0
                l(3) =   1
                l(4) =   1
                l(5) =   2
                l(6) =   2
     Q(r) pseudized with  8 coefficients,  rinner =    0.950   0.950   0.950
                                                       0.950   0.950

     PseudoPot. # 2 for Pb read from file:
     /home/vossj/suncat/psp/gbrv1.5pbe/Pb.UPF
     MD5 check sum: 3d1c1779aa92214d1e8f3a7db79003e2
     Pseudo is Ultrasoft + core correction, Zval = 14.0
     Generated by new atomic code, or converted to UPF format
     Using radial grid of  899 points,  6 beta functions with:
                l(1) =   0
                l(2) =   0
                l(3) =   1
                l(4) =   1
                l(5) =   2
                l(6) =   2
     Q(r) pseudized with  6 coefficients,  rinner =    1.000   1.000   1.000
                                                       1.000   1.000

     vdW kernel table read from file vdW_kernel_table
     MD5 check sum: 095c7af220d748ca6e76c0b4c6cfb241

     atomic species   valence    mass     pseudopotential
        Cr1           14.00    51.99610     Cr( 1.00)
        Pb1           14.00   207.20000     Pb( 1.00)

     48 Sym. Ops., with inversion, found (32 have fractional translation)

   Cartesian axes

     site n.     atom                  positions (alat units)
         1           Cr1 tau(   1) = (   0.0000000   0.0000000   0.0000000  )
         2           Cr1 tau(   2) = (   0.0000000   1.9433559   1.9433559  )
         3           Cr1 tau(   3) = (   1.9433559   0.0000000   1.9433559  )
         4           Pb1 tau(   4) = (   1.9433559   1.9433559   0.0000000  )

     number of k points=    84  Fermi-Dirac smearing, width (Ry)=  0.0073
                       cart. coord. in units 2pi/alat
        k(    1) = (   0.0000000   0.0000000   0.0000000), wk =   0.0011574
        k(    2) = (   0.0000000   0.0000000   0.0214406), wk =   0.0069444
        k(    3) = (   0.0000000   0.0000000   0.0428811), wk =   0.0069444
        k(    4) = (   0.0000000   0.0000000   0.0643217), wk =   0.0069444
        k(    5) = (   0.0000000   0.0000000   0.0857623), wk =   0.0069444
        k(    6) = (   0.0000000   0.0000000   0.1072029), wk =   0.0069444
        k(    7) = (   0.0000000   0.0000000  -0.1286434), wk =   0.0034722
        k(    8) = (   0.0000000   0.0214406   0.0214406), wk =   0.0138889
        k(    9) = (   0.0000000   0.0214406   0.0428811), wk =   0.0277778
        k(   10) = (   0.0000000   0.0214406   0.0643217), wk =   0.0277778
        k(   11) = (   0.0000000   0.0214406   0.0857623), wk =   0.0277778
        k(   12) = (   0.0000000   0.0214406   0.1072029), wk =   0.0277778
        k(   13) = (   0.0000000   0.0214406  -0.1286434), wk =   0.0138889
        k(   14) = (   0.0000000   0.0428811   0.0428811), wk =   0.0138889
        k(   15) = (   0.0000000   0.0428811   0.0643217), wk =   0.0277778
        k(   16) = (   0.0000000   0.0428811   0.0857623), wk =   0.0277778
        k(   17) = (   0.0000000   0.0428811   0.1072029), wk =   0.0277778
        k(   18) = (   0.0000000   0.0428811  -0.1286434), wk =   0.0138889
        k(   19) = (   0.0000000   0.0643217   0.0643217), wk =   0.0138889
        k(   20) = (   0.0000000   0.0643217   0.0857623), wk =   0.0277778
        k(   21) = (   0.0000000   0.0643217   0.1072029), wk =   0.0277778
        k(   22) = (   0.0000000   0.0643217  -0.1286434), wk =   0.0138889
        k(   23) = (   0.0000000   0.0857623   0.0857623), wk =   0.0138889
        k(   24) = (   0.0000000   0.0857623   0.1072029), wk =   0.0277778
        k(   25) = (   0.0000000   0.0857623  -0.1286434), wk =   0.0138889
        k(   26) = (   0.0000000   0.1072029   0.1072029), wk =   0.0138889
        k(   27) = (   0.0000000   0.1072029  -0.1286434), wk =   0.0138889
        k(   28) = (   0.0000000  -0.1286434  -0.1286434), wk =   0.0034722
        k(   29) = (   0.0214406   0.0214406   0.0214406), wk =   0.0092593
        k(   30) = (   0.0214406   0.0214406   0.0428811), wk =   0.0277778
        k(   31) = (   0.0214406   0.0214406   0.0643217), wk =   0.0277778
        k(   32) = (   0.0214406   0.0214406   0.0857623), wk =   0.0277778
        k(   33) = (   0.0214406   0.0214406   0.1072029), wk =   0.0277778
        k(   34) = (   0.0214406   0.0214406  -0.1286434), wk =   0.0138889
        k(   35) = (   0.0214406   0.0428811   0.0428811), wk =   0.0277778
        k(   36) = (   0.0214406   0.0428811   0.0643217), wk =   0.0555556
        k(   37) = (   0.0214406   0.0428811   0.0857623), wk =   0.0555556
        k(   38) = (   0.0214406   0.0428811   0.1072029), wk =   0.0555556
        k(   39) = (   0.0214406   0.0428811  -0.1286434), wk =   0.0277778
        k(   40) = (   0.0214406   0.0643217   0.0643217), wk =   0.0277778
        k(   41) = (   0.0214406   0.0643217   0.0857623), wk =   0.0555556
        k(   42) = (   0.0214406   0.0643217   0.1072029), wk =   0.0555556
        k(   43) = (   0.0214406   0.0643217  -0.1286434), wk =   0.0277778
        k(   44) = (   0.0214406   0.0857623   0.0857623), wk =   0.0277778
        k(   45) = (   0.0214406   0.0857623   0.1072029), wk =   0.0555556
        k(   46) = (   0.0214406   0.0857623  -0.1286434), wk =   0.0277778
        k(   47) = (   0.0214406   0.1072029   0.1072029), wk =   0.0277778
        k(   48) = (   0.0214406   0.1072029  -0.1286434), wk =   0.0277778
        k(   49) = (   0.0214406  -0.1286434  -0.1286434), wk =   0.0069444
        k(   50) = (   0.0428811   0.0428811   0.0428811), wk =   0.0092593
        k(   51) = (   0.0428811   0.0428811   0.0643217), wk =   0.0277778
        k(   52) = (   0.0428811   0.0428811   0.0857623), wk =   0.0277778
        k(   53) = (   0.0428811   0.0428811   0.1072029), wk =   0.0277778
        k(   54) = (   0.0428811   0.0428811  -0.1286434), wk =   0.0138889
        k(   55) = (   0.0428811   0.0643217   0.0643217), wk =   0.0277778
        k(   56) = (   0.0428811   0.0643217   0.0857623), wk =   0.0555556
        k(   57) = (   0.0428811   0.0643217   0.1072029), wk =   0.0555556
        k(   58) = (   0.0428811   0.0643217  -0.1286434), wk =   0.0277778
        k(   59) = (   0.0428811   0.0857623   0.0857623), wk =   0.0277778
        k(   60) = (   0.0428811   0.0857623   0.1072029), wk =   0.0555556
[...]
        k(   70) = (   0.0643217   0.0857623   0.1072029), wk =   0.0555556
        k(   71) = (   0.0643217   0.0857623  -0.1286434), wk =   0.0277778
        k(   72) = (   0.0643217   0.1072029   0.1072029), wk =   0.0277778
        k(   73) = (   0.0643217   0.1072029  -0.1286434), wk =   0.0277778
        k(   74) = (   0.0643217  -0.1286434  -0.1286434), wk =   0.0069444
        k(   75) = (   0.0857623   0.0857623   0.0857623), wk =   0.0092593
        k(   76) = (   0.0857623   0.0857623   0.1072029), wk =   0.0277778
        k(   77) = (   0.0857623   0.0857623  -0.1286434), wk =   0.0138889
        k(   78) = (   0.0857623   0.1072029   0.1072029), wk =   0.0277778
        k(   79) = (   0.0857623   0.1072029  -0.1286434), wk =   0.0277778
        k(   80) = (   0.0857623  -0.1286434  -0.1286434), wk =   0.0069444
        k(   81) = (   0.1072029   0.1072029   0.1072029), wk =   0.0092593
        k(   82) = (   0.1072029   0.1072029  -0.1286434), wk =   0.0138889
        k(   83) = (   0.1072029  -0.1286434  -0.1286434), wk =   0.0069444
        k(   84) = (  -0.1286434  -0.1286434  -0.1286434), wk =   0.0011574

     Largest allocated arrays     est. size (Mb)     dimensions
     Largest temporary arrays     est. size (Mb)     dimensions

     Check: negative/imaginary core charge=   -0.000006    0.000000

     Initial potential from superposition of free atoms
     Check: negative starting charge=   -0.017059

     starting charge   52.99760, renormalised to   56.00000

     negative rho (up, down):  1.803E-02 0.000E+00

     *
     * You are using vdW-DF for exchange-correlation in this calculation.
     * Please cite the following three references that made this development
     * possible:
     *
     *   M. Dion, H. Rydberg, E. Schroder, D. C. Langreth, and
     *   B. I. Lundqvist, Phys. Rev. Lett. 92, 246401 (2004).
     *
     *   T. Thonhauser, V. R. Cooper, S. Li, A. Puzder, P. Hyldgaard, and
     *   D. C. Langreth, Phys. Rev. B 76, 125112 (2007).
     *
     *   G. Roman-Perez and J. M. Soler, Phys. Rev. Lett. 103, 096102 (2009).
     *
     *
     * If you are using vdW-DF2, please also cite:
     *
     *   K. Lee, E. D. Murray, L. Kong, B. I. Lundqvist, and
     *   D. C. Langreth, Phys. Rev. B 82, 081101(R) (2010).
     *
     *
     * If you are calculating the stress with vdW-DF, please also cite:
     *
     *   R. Sabatini, E. Kucukbenli, B. Kolb, T. Thonhauser, and
     *   S. de Gironcoli, J. Phys.: Condens. Matter 24, 424209 (2012).
     *

     Carrying out vdW-DF run using the following parameters:

     Nqs =      20    Nr_points =    1024   r_max =   100.000
     q_mesh =
               0.00001000     0.04494208     0.09755937     0.15916263
               0.23128650     0.31572767     0.41458969     0.53033537
               0.66584808     0.82450364     1.01025438     1.22772762
               1.48234092     1.78043706     2.12944203     2.53805004
               3.01644009     3.57652955     4.23227104     5.00000000

     Gradients computed in reciprocal space

     Starting wfc are   39 randomized atomic wfcs +    9 random wfc

     Self-consistent Calculation

     iteration #  1     ecut=    58.80 Ry     beta=0.10
     Davidson diagonalization with overlap
     ethr =  1.00E-02,  avg # of iterations =  4.8

[...]

     total energy              =    -695.45911320 Ry
     Harris-Foulkes estimate   =    -695.70795849 Ry
     estimated scf accuracy    <       3.26065664 Ry

[...]

     total energy              =    -694.72104098 Ry
     Harris-Foulkes estimate   =    -694.72102204 Ry
     estimated scf accuracy    <       0.00000005 Ry

     iteration # 15     ecut=    58.80 Ry     beta=0.10
     Davidson diagonalization with overlap
     ethr =  2.03E-11,  avg # of iterations =  2.1

     negative rho (up, down):  2.166E-02 0.000E+00

     End of self-consistent calculation

          k = 0.0000 0.0000 0.0000 (  2969 PWs)   bands (ev):

   -54.4195 -54.3461 -54.3461 -25.8322 -25.8322 -25.8322 -25.6787 -25.6787
   -25.6787 -25.5349 -25.5349 -25.5349  -0.0677  -0.0677   0.0156   0.0156
     0.0156   5.7480  13.5663  15.0315  15.0315  15.3269  15.3269  15.3269
    17.0999  17.0999  17.0999  17.6781  17.6781  17.6781  18.5365  18.5365
    18.9204  19.2693  19.2693  19.2693  21.6054  25.5218  25.5218  27.1317
    27.1317  27.1317  28.0766  28.3609  28.3609  28.3609  32.9828  32.9850

[...]

          k = 0.1072-0.1286-0.1286 (  3056 PWs)   bands (ev):

[...]

          k =-0.1286-0.1286-0.1286 (  3016 PWs)   bands (ev):

   -54.3701 -54.3701 -54.3701 -25.8856 -25.8335 -25.8335 -25.8335 -25.5806
   -25.5806 -25.5806 -25.5219 -25.5219  -0.0450  -0.0450  -0.0450   0.1451
     0.1451   8.2122  14.4842  14.4842  14.4842  14.7163  14.7163  14.7163
    16.5741  16.5741  16.5741  17.4314  17.7058  17.7058  17.7058  18.0028
    18.0028  18.9991  18.9991  18.9991  19.3010  23.1885  23.1885  23.1885
    28.0694  31.6336  31.6336  31.6336  32.9457  34.8018  34.8018  34.8018

     the Fermi energy is    17.5317 ev

!    total energy              =    -694.72112168 Ry
     Harris-Foulkes estimate   =    -694.72104098 Ry
     estimated scf accuracy    <          3.4E-09 Ry

     The total energy is the sum of the following terms:

     one-electron contribution =    -213.01401090 Ry
     hartree contribution      =     143.20315297 Ry
     xc contribution           =    -135.49615612 Ry
     ewald contribution        =    -489.39681334 Ry
     smearing contrib. (-TS)   =      -0.01729429 Ry

     convergence has been achieved in  15 iterations

     Forces acting on atoms (Ry/au):

     negative rho (up, down):  2.166E-02 0.000E+00
     atom    1 type  1   force =     0.00000000   -0.00000000    0.00000000
     atom    2 type  1   force =     0.00000000    0.00000000    0.00000000
     atom    3 type  1   force =     0.00000000    0.00000000   -0.00000000
     atom    4 type  2   force =     0.00000000    0.00000000    0.00000000

     Total force =     0.000000     Total SCF correction =     0.000000
 !ASE

     General routines

     Parallel routines

   This run was terminated on:  11:27: 6  25Oct2017

   JOB DONE.