     Program PWSCF v.5.1rc2 (svn rev. ) starts on 31Oct2017 at 15:20:12

     Current dimensions of program PWSCF are:
     Max number of different atomic species (ntypx) = 10
     Max number of k-points (npk) =  40000
     Max angular momentum in pseudopotentials (lmaxx) =  3

     IMPORTANT: XC functional enforced from input :
     Exchange-correlation      = BEEF-VDW ( 1  4 27 13 2)
     Any further DFT definition will be discarded
     Please, verify this is what you really want

     Subspace diagonalization in iterative solution of the eigenvalue problem:
     a serial algorithm will be used

     bravais-lattice index     =            0
     lattice parameter (alat)  =       1.8897  a.u.
     unit-cell volume          =     302.7380 (a.u.)^3
     number of atoms/cell      =            4
     number of atomic types    =            2
     number of electrons       =        71.00
     number of Kohn-Sham states=           55
     kinetic-energy cutoff     =      58.7989  Ry
     charge density cutoff     =     587.9892  Ry
     convergence threshold     =      7.3E-09
     mixing beta               =       0.1000
     number of iterations used =           10  local-TF  mixing
     Exchange-correlation      = BEEF-VDW ( 1  4 27 13 2)
     nstep                     =           50

     celldm(1)=   1.889726  celldm(2)=   0.000000  celldm(3)=   0.000000
     celldm(4)=   0.000000  celldm(5)=   0.000000  celldm(6)=   0.000000

     crystal axes: (cart. coord. in units of alat)
               a(1) = (   3.553231   0.000000   0.000000 )
               a(2) = (   0.000000   3.553231   0.000000 )
               a(3) = (   0.000000   0.000000   3.553231 )

     reciprocal axes: (cart. coord. in units 2 pi/alat)
               b(1) = (  0.281434  0.000000  0.000000 )
               b(2) = (  0.000000  0.281434  0.000000 )
               b(3) = (  0.000000  0.000000  0.281434 )

     PseudoPot. # 1 for Co read from file:
     /home/vossj/suncat/psp/gbrv1.5pbe/Co.UPF
     MD5 check sum: 5f91765df6ddd3222702df6e7b74a16d
     Pseudo is Ultrasoft + core correction, Zval = 17.0
     Generated by new atomic code, or converted to UPF format
     Using radial grid of  863 points,  6 beta functions with:
                l(1) =   0
                l(2) =   0
                l(3) =   1
                l(4) =   1
                l(5) =   2
                l(6) =   2
     Q(r) pseudized with  8 coefficients,  rinner =    1.200   1.200   1.200
                                                       1.200   1.200

     PseudoPot. # 2 for Zn read from file:
     /home/vossj/suncat/psp/gbrv1.5pbe/Zn.UPF
     MD5 check sum: df62231357ef9e81f77b2b3087fa5675
     Pseudo is Ultrasoft, Zval = 20.0
     Generated by new atomic code, or converted to UPF format
     Using radial grid of  943 points,  6 beta functions with:
                l(1) =   0
                l(2) =   0
                l(3) =   1
                l(4) =   1
                l(5) =   2
                l(6) =   2
     Q(r) pseudized with  8 coefficients,  rinner =    1.100   1.100   1.100
                                                       1.100   1.100

     vdW kernel table read from file vdW_kernel_table
     MD5 check sum: 095c7af220d748ca6e76c0b4c6cfb241

     atomic species   valence    mass     pseudopotential
        Co1           17.00    58.93319     Co( 1.00)
        Zn1           20.00    65.38000     Zn( 1.00)

     48 Sym. Ops., with inversion, found (32 have fractional translation)

   Cartesian axes

     site n.     atom                  positions (alat units)
         1           Co1 tau(   1) = (   0.0000000   0.0000000   0.0000000  )
         2           Co1 tau(   2) = (   0.0000000   1.7766155   1.7766155  )
         3           Co1 tau(   3) = (   1.7766155   0.0000000   1.7766155  )
         4           Zn1 tau(   4) = (   1.7766155   1.7766155   0.0000000  )

     number of k points=    84  Fermi-Dirac smearing, width (Ry)=  0.0073
                       cart. coord. in units 2pi/alat
        k(    1) = (   0.0000000   0.0000000   0.0000000), wk =   0.0011574
        k(    2) = (   0.0000000   0.0000000   0.0234528), wk =   0.0069444
        k(    3) = (   0.0000000   0.0000000   0.0469057), wk =   0.0069444
        k(    4) = (   0.0000000   0.0000000   0.0703585), wk =   0.0069444
        k(    5) = (   0.0000000   0.0000000   0.0938113), wk =   0.0069444
        k(    6) = (   0.0000000   0.0000000   0.1172642), wk =   0.0069444
        k(    7) = (   0.0000000   0.0000000  -0.1407170), wk =   0.0034722
        k(    8) = (   0.0000000   0.0234528   0.0234528), wk =   0.0138889
        k(    9) = (   0.0000000   0.0234528   0.0469057), wk =   0.0277778
        k(   10) = (   0.0000000   0.0234528   0.0703585), wk =   0.0277778
        k(   11) = (   0.0000000   0.0234528   0.0938113), wk =   0.0277778
        k(   12) = (   0.0000000   0.0234528   0.1172642), wk =   0.0277778
        k(   13) = (   0.0000000   0.0234528  -0.1407170), wk =   0.0138889
        k(   14) = (   0.0000000   0.0469057   0.0469057), wk =   0.0138889
        k(   15) = (   0.0000000   0.0469057   0.0703585), wk =   0.0277778
        k(   16) = (   0.0000000   0.0469057   0.0938113), wk =   0.0277778
        k(   17) = (   0.0000000   0.0469057   0.1172642), wk =   0.0277778
        k(   18) = (   0.0000000   0.0469057  -0.1407170), wk =   0.0138889
        k(   19) = (   0.0000000   0.0703585   0.0703585), wk =   0.0138889
        k(   20) = (   0.0000000   0.0703585   0.0938113), wk =   0.0277778
        k(   21) = (   0.0000000   0.0703585   0.1172642), wk =   0.0277778
        k(   22) = (   0.0000000   0.0703585  -0.1407170), wk =   0.0138889
        k(   23) = (   0.0000000   0.0938113   0.0938113), wk =   0.0138889
        k(   24) = (   0.0000000   0.0938113   0.1172642), wk =   0.0277778
        k(   25) = (   0.0000000   0.0938113  -0.1407170), wk =   0.0138889
        k(   26) = (   0.0000000   0.1172642   0.1172642), wk =   0.0138889
        k(   27) = (   0.0000000   0.1172642  -0.1407170), wk =   0.0138889
        k(   28) = (   0.0000000  -0.1407170  -0.1407170), wk =   0.0034722
        k(   29) = (   0.0234528   0.0234528   0.0234528), wk =   0.0092593
        k(   30) = (   0.0234528   0.0234528   0.0469057), wk =   0.0277778
        k(   31) = (   0.0234528   0.0234528   0.0703585), wk =   0.0277778
        k(   32) = (   0.0234528   0.0234528   0.0938113), wk =   0.0277778
        k(   33) = (   0.0234528   0.0234528   0.1172642), wk =   0.0277778
        k(   34) = (   0.0234528   0.0234528  -0.1407170), wk =   0.0138889
        k(   35) = (   0.0234528   0.0469057   0.0469057), wk =   0.0277778
        k(   36) = (   0.0234528   0.0469057   0.0703585), wk =   0.0555556
        k(   37) = (   0.0234528   0.0469057   0.0938113), wk =   0.0555556
        k(   38) = (   0.0234528   0.0469057   0.1172642), wk =   0.0555556
        k(   39) = (   0.0234528   0.0469057  -0.1407170), wk =   0.0277778
        k(   40) = (   0.0234528   0.0703585   0.0703585), wk =   0.0277778
        k(   41) = (   0.0234528   0.0703585   0.0938113), wk =   0.0555556
        k(   42) = (   0.0234528   0.0703585   0.1172642), wk =   0.0555556
        k(   43) = (   0.0234528   0.0703585  -0.1407170), wk =   0.0277778
        k(   44) = (   0.0234528   0.0938113   0.0938113), wk =   0.0277778
        k(   45) = (   0.0234528   0.0938113   0.1172642), wk =   0.0555556
        k(   46) = (   0.0234528   0.0938113  -0.1407170), wk =   0.0277778
        k(   47) = (   0.0234528   0.1172642   0.1172642), wk =   0.0277778
        k(   48) = (   0.0234528   0.1172642  -0.1407170), wk =   0.0277778
        k(   49) = (   0.0234528  -0.1407170  -0.1407170), wk =   0.0069444
        k(   50) = (   0.0469057   0.0469057   0.0469057), wk =   0.0092593
        k(   51) = (   0.0469057   0.0469057   0.0703585), wk =   0.0277778
        k(   52) = (   0.0469057   0.0469057   0.0938113), wk =   0.0277778
        k(   53) = (   0.0469057   0.0469057   0.1172642), wk =   0.0277778
        k(   54) = (   0.0469057   0.0469057  -0.1407170), wk =   0.0138889
        k(   55) = (   0.0469057   0.0703585   0.0703585), wk =   0.0277778
        k(   56) = (   0.0469057   0.0703585   0.0938113), wk =   0.0555556
        k(   57) = (   0.0469057   0.0703585   0.1172642), wk =   0.0555556
        k(   58) = (   0.0469057   0.0703585  -0.1407170), wk =   0.0277778
        k(   59) = (   0.0469057   0.0938113   0.0938113), wk =   0.0277778
        k(   60) = (   0.0469057   0.0938113   0.1172642), wk =   0.0555556
[...]
        k(   70) = (   0.0703585   0.0938113   0.1172642), wk =   0.0555556
        k(   71) = (   0.0703585   0.0938113  -0.1407170), wk =   0.0277778
        k(   72) = (   0.0703585   0.1172642   0.1172642), wk =   0.0277778
        k(   73) = (   0.0703585   0.1172642  -0.1407170), wk =   0.0277778
        k(   74) = (   0.0703585  -0.1407170  -0.1407170), wk =   0.0069444
        k(   75) = (   0.0938113   0.0938113   0.0938113), wk =   0.0092593
        k(   76) = (   0.0938113   0.0938113   0.1172642), wk =   0.0277778
        k(   77) = (   0.0938113   0.0938113  -0.1407170), wk =   0.0138889
        k(   78) = (   0.0938113   0.1172642   0.1172642), wk =   0.0277778
        k(   79) = (   0.0938113   0.1172642  -0.1407170), wk =   0.0277778
        k(   80) = (   0.0938113  -0.1407170  -0.1407170), wk =   0.0069444
        k(   81) = (   0.1172642   0.1172642   0.1172642), wk =   0.0092593
        k(   82) = (   0.1172642   0.1172642  -0.1407170), wk =   0.0138889
        k(   83) = (   0.1172642  -0.1407170  -0.1407170), wk =   0.0069444
        k(   84) = (  -0.1407170  -0.1407170  -0.1407170), wk =   0.0011574

     Largest allocated arrays     est. size (Mb)     dimensions
     Largest temporary arrays     est. size (Mb)     dimensions

     Check: negative/imaginary core charge=   -0.000037    0.000000

     Initial potential from superposition of free atoms

     starting charge   67.99984, renormalised to   71.00000

     *
     * You are using vdW-DF for exchange-correlation in this calculation.
     * Please cite the following three references that made this development
     * possible:
     *
     *   M. Dion, H. Rydberg, E. Schroder, D. C. Langreth, and
     *   B. I. Lundqvist, Phys. Rev. Lett. 92, 246401 (2004).
     *
     *   T. Thonhauser, V. R. Cooper, S. Li, A. Puzder, P. Hyldgaard, and
     *   D. C. Langreth, Phys. Rev. B 76, 125112 (2007).
     *
     *   G. Roman-Perez and J. M. Soler, Phys. Rev. Lett. 103, 096102 (2009).
     *
     *
     * If you are using vdW-DF2, please also cite:
     *
     *   K. Lee, E. D. Murray, L. Kong, B. I. Lundqvist, and
     *   D. C. Langreth, Phys. Rev. B 82, 081101(R) (2010).
     *
     *
     * If you are calculating the stress with vdW-DF, please also cite:
     *
     *   R. Sabatini, E. Kucukbenli, B. Kolb, T. Thonhauser, and
     *   S. de Gironcoli, J. Phys.: Condens. Matter 24, 424209 (2012).
     *

     Carrying out vdW-DF run using the following parameters:

     Nqs =      20    Nr_points =    1024   r_max =   100.000
     q_mesh =
               0.00001000     0.04494208     0.09755937     0.15916263
               0.23128650     0.31572767     0.41458969     0.53033537
               0.66584808     0.82450364     1.01025438     1.22772762
               1.48234092     1.78043706     2.12944203     2.53805004
               3.01644009     3.57652955     4.23227104     5.00000000

     Gradients computed in reciprocal space

     Starting wfc are   52 randomized atomic wfcs +    3 random wfc

     Self-consistent Calculation

     iteration #  1     ecut=    58.80 Ry     beta=0.10
     Davidson diagonalization with overlap
     ethr =  1.00E-02,  avg # of iterations =  4.1

     total energy              =   -1363.27314228 Ry
     Harris-Foulkes estimate   =   -1366.30648474 Ry
     estimated scf accuracy    <      46.47742737 Ry

[...]

     total energy              =   -1361.39135477 Ry
     Harris-Foulkes estimate   =   -1361.39135364 Ry
     estimated scf accuracy    <       0.00000002 Ry

     iteration # 15     ecut=    58.80 Ry     beta=0.10
     Davidson diagonalization with overlap
     ethr =  3.09E-11,  avg # of iterations =  2.0

     End of self-consistent calculation

          k = 0.0000 0.0000 0.0000 (  2325 PWs)   bands (ev):

  -108.6147 -77.2958 -77.2473 -77.2473 -62.7895 -62.7895 -62.7895 -40.6934
   -40.6934 -40.6934 -40.5323 -40.5323 -40.5323 -40.4877 -40.4877 -40.4877
     8.0479   9.9729   9.9729  10.2563  10.2563  10.2563  13.1162  14.7927
    14.7927  14.7927  15.0139  15.0139  16.9469  16.9469  16.9469  17.4858
    17.4858  17.9873  18.2039  18.2039  18.2039  19.3313  19.3313  19.3313
    25.6168  26.4558  26.4558  30.8556  30.8556  30.8556  32.2474  32.2474
    32.2474  36.3008  36.3008  36.3008  38.2795  40.7178  40.7178

[...]

          k = 0.1173-0.1407-0.1407 (  2296 PWs)   bands (ev):

[...]

          k =-0.1407-0.1407-0.1407 (  2320 PWs)   bands (ev):

  -108.6147 -77.2633 -77.2633 -77.2633 -62.7898 -62.7898 -62.7898 -40.7893
   -40.6350 -40.6350 -40.6350 -40.5356 -40.5356 -40.4641 -40.4641 -40.4641
    10.0309  10.0309  10.0309  10.5412  10.5412  12.1676  14.3559  14.3559
    14.3559  15.8973  15.8973  15.8973  16.4438  16.4438  16.4438  16.8692
    16.8692  16.8692  17.2212  17.2212  17.4925  18.0005  18.0005  18.0005
    21.8262  23.3504  23.3504  23.3504  38.4169  38.4169  38.4169  38.7352
    39.8277  39.8277  39.8277  42.0697  42.0697  42.1515  42.1515

     the Fermi energy is    17.4472 ev

!    total energy              =   -1361.39135955 Ry
     Harris-Foulkes estimate   =   -1361.39135478 Ry
     estimated scf accuracy    <          6.8E-10 Ry

     The total energy is the sum of the following terms:

     one-electron contribution =    -796.52545027 Ry
     hartree contribution      =     442.82817279 Ry
     xc contribution           =    -144.88817752 Ry
     ewald contribution        =    -862.78604322 Ry
     smearing contrib. (-TS)   =      -0.01986134 Ry

     convergence has been achieved in  15 iterations

     Forces acting on atoms (Ry/au):

     atom    1 type  1   force =     0.00000000    0.00000000    0.00000000
     atom    2 type  1   force =     0.00000000    0.00000000    0.00000000
     atom    3 type  1   force =     0.00000000    0.00000000    0.00000000
     atom    4 type  2   force =     0.00000000    0.00000000    0.00000000

     Total force =     0.000000     Total SCF correction =     0.000000
 !ASE

     General routines

     Parallel routines

   This run was terminated on:  15:21:11  31Oct2017

   JOB DONE.