     Program PWSCF v.5.1rc2 (svn rev. ) starts on 31Oct2017 at 15:54:43

     Current dimensions of program PWSCF are:
     Max number of different atomic species (ntypx) = 10
     Max number of k-points (npk) =  40000
     Max angular momentum in pseudopotentials (lmaxx) =  3

     IMPORTANT: XC functional enforced from input :
     Exchange-correlation      = BEEF-VDW ( 1  4 27 13 2)
     Any further DFT definition will be discarded
     Please, verify this is what you really want

     Subspace diagonalization in iterative solution of the eigenvalue problem:
     a serial algorithm will be used

     bravais-lattice index     =            0
     lattice parameter (alat)  =       1.8897  a.u.
     unit-cell volume          =     362.7149 (a.u.)^3
     number of atoms/cell      =            4
     number of atomic types    =            2
     number of electrons       =        62.00
     number of Kohn-Sham states=           51
     kinetic-energy cutoff     =      58.7989  Ry
     charge density cutoff     =     587.9892  Ry
     convergence threshold     =      7.3E-09
     mixing beta               =       0.1000
     number of iterations used =           10  local-TF  mixing
     Exchange-correlation      = BEEF-VDW ( 1  4 27 13 2)
     nstep                     =           50

     celldm(1)=   1.889726  celldm(2)=   0.000000  celldm(3)=   0.000000
     celldm(4)=   0.000000  celldm(5)=   0.000000  celldm(6)=   0.000000

     crystal axes: (cart. coord. in units of alat)
               a(1) = (   3.773893   0.000000   0.000000 )
               a(2) = (   0.000000   3.773893   0.000000 )
               a(3) = (   0.000000   0.000000   3.773893 )

     reciprocal axes: (cart. coord. in units 2 pi/alat)
               b(1) = (  0.264978  0.000000  0.000000 )
               b(2) = (  0.000000  0.264978  0.000000 )
               b(3) = (  0.000000  0.000000  0.264978 )

     PseudoPot. # 1 for Rh read from file:
     /home/vossj/suncat/psp/gbrv1.5pbe/Rh.UPF
     MD5 check sum: 761627e959a2e3a1f56b0b5fe687810e
     Pseudo is Ultrasoft + core correction, Zval = 15.0
     Generated by new atomic code, or converted to UPF format
     Using radial grid of  969 points,  7 beta functions with:
                l(1) =   0
                l(2) =   0
                l(3) =   1
                l(4) =   1
                l(5) =   2
                l(6) =   2
                l(7) =   2
     Q(r) pseudized with  8 coefficients,  rinner =    1.200   1.200   1.200
                                                       1.200   1.200

     PseudoPot. # 2 for Co read from file:
     /home/vossj/suncat/psp/gbrv1.5pbe/Co.UPF
     MD5 check sum: 5f91765df6ddd3222702df6e7b74a16d
     Pseudo is Ultrasoft + core correction, Zval = 17.0
     Generated by new atomic code, or converted to UPF format
     Using radial grid of  863 points,  6 beta functions with:
                l(1) =   0
                l(2) =   0
                l(3) =   1
                l(4) =   1
                l(5) =   2
                l(6) =   2
     Q(r) pseudized with  8 coefficients,  rinner =    1.200   1.200   1.200
                                                       1.200   1.200

     vdW kernel table read from file vdW_kernel_table
     MD5 check sum: 095c7af220d748ca6e76c0b4c6cfb241

     atomic species   valence    mass     pseudopotential
        Rh1           15.00   102.90550     Rh( 1.00)
        Co1           17.00    58.93319     Co( 1.00)

     48 Sym. Ops., with inversion, found (32 have fractional translation)

   Cartesian axes

     site n.     atom                  positions (alat units)
         1           Rh1 tau(   1) = (   0.0000000   0.0000000   0.0000000  )
         2           Rh1 tau(   2) = (   0.0000000   1.8869466   1.8869466  )
         3           Rh1 tau(   3) = (   1.8869466   0.0000000   1.8869466  )
         4           Co1 tau(   4) = (   1.8869466   1.8869466   0.0000000  )

     number of k points=    84  Fermi-Dirac smearing, width (Ry)=  0.0073
                       cart. coord. in units 2pi/alat
        k(    1) = (   0.0000000   0.0000000   0.0000000), wk =   0.0011574
        k(    2) = (   0.0000000   0.0000000   0.0220815), wk =   0.0069444
        k(    3) = (   0.0000000   0.0000000   0.0441631), wk =   0.0069444
        k(    4) = (   0.0000000   0.0000000   0.0662446), wk =   0.0069444
        k(    5) = (   0.0000000   0.0000000   0.0883261), wk =   0.0069444
        k(    6) = (   0.0000000   0.0000000   0.1104076), wk =   0.0069444
        k(    7) = (   0.0000000   0.0000000  -0.1324892), wk =   0.0034722
        k(    8) = (   0.0000000   0.0220815   0.0220815), wk =   0.0138889
        k(    9) = (   0.0000000   0.0220815   0.0441631), wk =   0.0277778
        k(   10) = (   0.0000000   0.0220815   0.0662446), wk =   0.0277778
        k(   11) = (   0.0000000   0.0220815   0.0883261), wk =   0.0277778
        k(   12) = (   0.0000000   0.0220815   0.1104076), wk =   0.0277778
        k(   13) = (   0.0000000   0.0220815  -0.1324892), wk =   0.0138889
        k(   14) = (   0.0000000   0.0441631   0.0441631), wk =   0.0138889
        k(   15) = (   0.0000000   0.0441631   0.0662446), wk =   0.0277778
        k(   16) = (   0.0000000   0.0441631   0.0883261), wk =   0.0277778
        k(   17) = (   0.0000000   0.0441631   0.1104076), wk =   0.0277778
        k(   18) = (   0.0000000   0.0441631  -0.1324892), wk =   0.0138889
        k(   19) = (   0.0000000   0.0662446   0.0662446), wk =   0.0138889
        k(   20) = (   0.0000000   0.0662446   0.0883261), wk =   0.0277778
        k(   21) = (   0.0000000   0.0662446   0.1104076), wk =   0.0277778
        k(   22) = (   0.0000000   0.0662446  -0.1324892), wk =   0.0138889
        k(   23) = (   0.0000000   0.0883261   0.0883261), wk =   0.0138889
        k(   24) = (   0.0000000   0.0883261   0.1104076), wk =   0.0277778
        k(   25) = (   0.0000000   0.0883261  -0.1324892), wk =   0.0138889
        k(   26) = (   0.0000000   0.1104076   0.1104076), wk =   0.0138889
        k(   27) = (   0.0000000   0.1104076  -0.1324892), wk =   0.0138889
        k(   28) = (   0.0000000  -0.1324892  -0.1324892), wk =   0.0034722
        k(   29) = (   0.0220815   0.0220815   0.0220815), wk =   0.0092593
        k(   30) = (   0.0220815   0.0220815   0.0441631), wk =   0.0277778
        k(   31) = (   0.0220815   0.0220815   0.0662446), wk =   0.0277778
        k(   32) = (   0.0220815   0.0220815   0.0883261), wk =   0.0277778
        k(   33) = (   0.0220815   0.0220815   0.1104076), wk =   0.0277778
        k(   34) = (   0.0220815   0.0220815  -0.1324892), wk =   0.0138889
        k(   35) = (   0.0220815   0.0441631   0.0441631), wk =   0.0277778
        k(   36) = (   0.0220815   0.0441631   0.0662446), wk =   0.0555556
        k(   37) = (   0.0220815   0.0441631   0.0883261), wk =   0.0555556
        k(   38) = (   0.0220815   0.0441631   0.1104076), wk =   0.0555556
        k(   39) = (   0.0220815   0.0441631  -0.1324892), wk =   0.0277778
        k(   40) = (   0.0220815   0.0662446   0.0662446), wk =   0.0277778
        k(   41) = (   0.0220815   0.0662446   0.0883261), wk =   0.0555556
        k(   42) = (   0.0220815   0.0662446   0.1104076), wk =   0.0555556
        k(   43) = (   0.0220815   0.0662446  -0.1324892), wk =   0.0277778
        k(   44) = (   0.0220815   0.0883261   0.0883261), wk =   0.0277778
        k(   45) = (   0.0220815   0.0883261   0.1104076), wk =   0.0555556
        k(   46) = (   0.0220815   0.0883261  -0.1324892), wk =   0.0277778
        k(   47) = (   0.0220815   0.1104076   0.1104076), wk =   0.0277778
        k(   48) = (   0.0220815   0.1104076  -0.1324892), wk =   0.0277778
        k(   49) = (   0.0220815  -0.1324892  -0.1324892), wk =   0.0069444
        k(   50) = (   0.0441631   0.0441631   0.0441631), wk =   0.0092593
        k(   51) = (   0.0441631   0.0441631   0.0662446), wk =   0.0277778
        k(   52) = (   0.0441631   0.0441631   0.0883261), wk =   0.0277778
        k(   53) = (   0.0441631   0.0441631   0.1104076), wk =   0.0277778
        k(   54) = (   0.0441631   0.0441631  -0.1324892), wk =   0.0138889
        k(   55) = (   0.0441631   0.0662446   0.0662446), wk =   0.0277778
        k(   56) = (   0.0441631   0.0662446   0.0883261), wk =   0.0555556
        k(   57) = (   0.0441631   0.0662446   0.1104076), wk =   0.0555556
        k(   58) = (   0.0441631   0.0662446  -0.1324892), wk =   0.0277778
        k(   59) = (   0.0441631   0.0883261   0.0883261), wk =   0.0277778
        k(   60) = (   0.0441631   0.0883261   0.1104076), wk =   0.0555556
[...]
        k(   70) = (   0.0662446   0.0883261   0.1104076), wk =   0.0555556
        k(   71) = (   0.0662446   0.0883261  -0.1324892), wk =   0.0277778
        k(   72) = (   0.0662446   0.1104076   0.1104076), wk =   0.0277778
        k(   73) = (   0.0662446   0.1104076  -0.1324892), wk =   0.0277778
        k(   74) = (   0.0662446  -0.1324892  -0.1324892), wk =   0.0069444
        k(   75) = (   0.0883261   0.0883261   0.0883261), wk =   0.0092593
        k(   76) = (   0.0883261   0.0883261   0.1104076), wk =   0.0277778
        k(   77) = (   0.0883261   0.0883261  -0.1324892), wk =   0.0138889
        k(   78) = (   0.0883261   0.1104076   0.1104076), wk =   0.0277778
        k(   79) = (   0.0883261   0.1104076  -0.1324892), wk =   0.0277778
        k(   80) = (   0.0883261  -0.1324892  -0.1324892), wk =   0.0069444
        k(   81) = (   0.1104076   0.1104076   0.1104076), wk =   0.0092593
        k(   82) = (   0.1104076   0.1104076  -0.1324892), wk =   0.0138889
        k(   83) = (   0.1104076  -0.1324892  -0.1324892), wk =   0.0069444
        k(   84) = (  -0.1324892  -0.1324892  -0.1324892), wk =   0.0011574

     Largest allocated arrays     est. size (Mb)     dimensions
     Largest temporary arrays     est. size (Mb)     dimensions

     Check: negative/imaginary core charge=   -0.000008    0.000000

     Initial potential from superposition of free atoms
     Check: negative starting charge=   -0.167747

     starting charge   59.49970, renormalised to   62.00000

     negative rho (up, down):  1.748E-01 0.000E+00

     *
     * You are using vdW-DF for exchange-correlation in this calculation.
     * Please cite the following three references that made this development
     * possible:
     *
     *   M. Dion, H. Rydberg, E. Schroder, D. C. Langreth, and
     *   B. I. Lundqvist, Phys. Rev. Lett. 92, 246401 (2004).
     *
     *   T. Thonhauser, V. R. Cooper, S. Li, A. Puzder, P. Hyldgaard, and
     *   D. C. Langreth, Phys. Rev. B 76, 125112 (2007).
     *
     *   G. Roman-Perez and J. M. Soler, Phys. Rev. Lett. 103, 096102 (2009).
     *
     *
     * If you are using vdW-DF2, please also cite:
     *
     *   K. Lee, E. D. Murray, L. Kong, B. I. Lundqvist, and
     *   D. C. Langreth, Phys. Rev. B 82, 081101(R) (2010).
     *
     *
     * If you are calculating the stress with vdW-DF, please also cite:
     *
     *   R. Sabatini, E. Kucukbenli, B. Kolb, T. Thonhauser, and
     *   S. de Gironcoli, J. Phys.: Condens. Matter 24, 424209 (2012).
     *

     Carrying out vdW-DF run using the following parameters:

     Nqs =      20    Nr_points =    1024   r_max =   100.000
     q_mesh =
               0.00001000     0.04494208     0.09755937     0.15916263
               0.23128650     0.31572767     0.41458969     0.53033537
               0.66584808     0.82450364     1.01025438     1.22772762
               1.48234092     1.78043706     2.12944203     2.53805004
               3.01644009     3.57652955     4.23227104     5.00000000

     Gradients computed in reciprocal space

     Starting wfc are   49 randomized atomic wfcs +    2 random wfc

     Self-consistent Calculation

     iteration #  1     ecut=    58.80 Ry     beta=0.10
     Davidson diagonalization with overlap
     ethr =  1.00E-02,  avg # of iterations =  4.3

[...]

     total energy              =    -816.82880733 Ry
     Harris-Foulkes estimate   =    -817.84859062 Ry
     estimated scf accuracy    <      16.34134106 Ry

[...]

     total energy              =    -816.24715419 Ry
     Harris-Foulkes estimate   =    -816.24715370 Ry
     estimated scf accuracy    <       0.00000001 Ry

     iteration # 15     ecut=    58.80 Ry     beta=0.10
     Davidson diagonalization with overlap
     ethr =  2.14E-11,  avg # of iterations =  1.0

     negative rho (up, down):  1.778E-01 0.000E+00

     End of self-consistent calculation

          k = 0.0000 0.0000 0.0000 (  2777 PWs)   bands (ev):

   -75.3454 -38.6418 -38.6418 -38.6418 -27.3883 -27.3883 -27.3883 -27.0538
   -27.0538 -27.0538 -26.8749 -26.8749 -26.8749  11.8581  13.3031  14.3028
    14.3028  14.3323  14.3323  14.3323  17.1725  17.1725  17.1725  18.8341
    18.8341  19.9233  19.9233  20.1164  20.1164  20.1164  20.3222  20.7684
    20.7684  20.7684  22.8510  22.8510  22.8510  30.9035  31.2114  31.2114
    32.5550  32.5550  32.5550  34.3825  34.3825  34.3825  37.5193  41.4301
    41.4301  41.4301  41.4952

[...]

          k = 0.1104-0.1325-0.1325 (  2780 PWs)   bands (ev):

[...]

          k =-0.1325-0.1325-0.1325 (  2800 PWs)   bands (ev):

   -75.3453 -38.6430 -38.6430 -38.6430 -27.5786 -27.3209 -27.3209 -27.3209
   -26.9120 -26.9120 -26.8781 -26.8781 -26.8781  13.5174  14.2291  14.2291
    14.2291  16.6035  16.6035  16.6035  17.1016  17.1016  17.1016  17.4964
    17.4964  19.8954  19.8954  19.8954  19.9533  19.9533  20.2256  20.2256
    20.2256  20.3493  20.3493  20.3493  20.7390  27.1015  27.8747  27.8747
    27.8747  36.5847  36.8212  36.8212  36.8212  40.3980  40.3980  40.3980
    42.2317  42.2317  43.5848

     the Fermi energy is    19.6015 ev

!    total energy              =    -816.24715633 Ry
     Harris-Foulkes estimate   =    -816.24715419 Ry
     estimated scf accuracy    <          1.5E-09 Ry

     The total energy is the sum of the following terms:

     one-electron contribution =    -244.66810581 Ry
     hartree contribution      =     174.14054785 Ry
     xc contribution           =    -126.93471261 Ry
     ewald contribution        =    -618.76740683 Ry
     smearing contrib. (-TS)   =      -0.01747893 Ry

     convergence has been achieved in  15 iterations

     Forces acting on atoms (Ry/au):

     negative rho (up, down):  1.778E-01 0.000E+00
     atom    1 type  1   force =     0.00000000    0.00000000   -0.00000000
     atom    2 type  1   force =     0.00000000    0.00000000   -0.00000000
     atom    3 type  1   force =     0.00000000    0.00000000    0.00000000
     atom    4 type  2   force =     0.00000000    0.00000000    0.00000000

     Total force =     0.000000     Total SCF correction =     0.000000
 !ASE

     General routines

     Parallel routines

   This run was terminated on:  15:55:51  31Oct2017

   JOB DONE.