     Program PWSCF v.5.1rc2 (svn rev. ) starts on 17Feb2018 at 13:27:14

     Current dimensions of program PWSCF are:
     Max number of different atomic species (ntypx) = 10
     Max number of k-points (npk) =  40000
     Max angular momentum in pseudopotentials (lmaxx) =  3

     IMPORTANT: XC functional enforced from input :
     Exchange-correlation      = BEEF-VDW ( 1  4 27 13 2)
     Any further DFT definition will be discarded
     Please, verify this is what you really want

     Subspace diagonalization in iterative solution of the eigenvalue problem:
     a serial algorithm will be used

     bravais-lattice index     =            0
     lattice parameter (alat)  =       1.8897  a.u.
     unit-cell volume          =     529.0628 (a.u.)^3
     number of atoms/cell      =            4
     number of atomic types    =            2
     number of electrons       =        54.00
     number of Kohn-Sham states=           47
     kinetic-energy cutoff     =      58.7989  Ry
     charge density cutoff     =     587.9892  Ry
     convergence threshold     =      7.3E-09
     mixing beta               =       0.1000
     number of iterations used =           10  local-TF  mixing
     Exchange-correlation      = BEEF-VDW ( 1  4 27 13 2)
     nstep                     =           50

     celldm(1)=   1.889726  celldm(2)=   0.000000  celldm(3)=   0.000000
     celldm(4)=   0.000000  celldm(5)=   0.000000  celldm(6)=   0.000000

     crystal axes: (cart. coord. in units of alat)
               a(1) = (   4.279932   0.000000   0.000000 )
               a(2) = (   0.000000   4.279932   0.000000 )
               a(3) = (   0.000000   0.000000   4.279932 )

     reciprocal axes: (cart. coord. in units 2 pi/alat)
               b(1) = (  0.233649  0.000000  0.000000 )
               b(2) = (  0.000000  0.233649  0.000000 )
               b(3) = (  0.000000  0.000000  0.233649 )

     PseudoPot. # 1 for Ta read from file:
     /home/mamunm/src/pseudo/gbrv1.5pbe/Ta.UPF
     MD5 check sum: f8bbe9446314a3b8ea5d9f3e3836c939
     Pseudo is Ultrasoft + core correction, Zval = 13.0
     Generated by new atomic code, or converted to UPF format
     Using radial grid of  921 points,  7 beta functions with:
                l(1) =   0
                l(2) =   0
                l(3) =   1
                l(4) =   1
                l(5) =   2
                l(6) =   2
                l(7) =   3
     Q(r) pseudized with  6 coefficients,  rinner =    1.300   1.300   1.300
                                                       1.300   1.300   1.300
                                                       1.300

     PseudoPot. # 2 for Bi read from file:
     /home/mamunm/src/pseudo/gbrv1.5pbe/Bi.UPF
     MD5 check sum: 81103212dc04adf40945787f699eab19
     Pseudo is Ultrasoft + core correction, Zval = 15.0
     Generated by new atomic code, or converted to UPF format
     Using radial grid of  899 points,  6 beta functions with:
                l(1) =   0
                l(2) =   0
                l(3) =   1
                l(4) =   1
                l(5) =   2
                l(6) =   2
     Q(r) pseudized with  6 coefficients,  rinner =    1.000   1.000   1.000
                                                       1.000   1.000

     vdW kernel table read from file vdW_kernel_table
     MD5 check sum: 095c7af220d748ca6e76c0b4c6cfb241

     atomic species   valence    mass     pseudopotential
        Ta1           13.00   180.94788     Ta( 1.00)
        Bi1           15.00   208.98040     Bi( 1.00)

     48 Sym. Ops., with inversion, found (32 have fractional translation)

   Cartesian axes

     site n.     atom                  positions (alat units)
         1           Ta1 tau(   1) = (   0.0000000   0.0000000   0.0000000  )
         2           Ta1 tau(   2) = (   0.0000000   2.1399660   2.1399660  )
         3           Ta1 tau(   3) = (   2.1399660   0.0000000   2.1399660  )
         4           Bi1 tau(   4) = (   2.1399660   2.1399660   0.0000000  )

     number of k points=    84  Fermi-Dirac smearing, width (Ry)=  0.0073
                       cart. coord. in units 2pi/alat
        k(    1) = (   0.0000000   0.0000000   0.0000000), wk =   0.0011574
        k(    2) = (   0.0000000   0.0000000   0.0194707), wk =   0.0069444
        k(    3) = (   0.0000000   0.0000000   0.0389414), wk =   0.0069444
        k(    4) = (   0.0000000   0.0000000   0.0584121), wk =   0.0069444
        k(    5) = (   0.0000000   0.0000000   0.0778829), wk =   0.0069444
        k(    6) = (   0.0000000   0.0000000   0.0973536), wk =   0.0069444
        k(    7) = (   0.0000000   0.0000000  -0.1168243), wk =   0.0034722
        k(    8) = (   0.0000000   0.0194707   0.0194707), wk =   0.0138889
        k(    9) = (   0.0000000   0.0194707   0.0389414), wk =   0.0277778
        k(   10) = (   0.0000000   0.0194707   0.0584121), wk =   0.0277778
        k(   11) = (   0.0000000   0.0194707   0.0778829), wk =   0.0277778
        k(   12) = (   0.0000000   0.0194707   0.0973536), wk =   0.0277778
        k(   13) = (   0.0000000   0.0194707  -0.1168243), wk =   0.0138889
        k(   14) = (   0.0000000   0.0389414   0.0389414), wk =   0.0138889
        k(   15) = (   0.0000000   0.0389414   0.0584121), wk =   0.0277778
        k(   16) = (   0.0000000   0.0389414   0.0778829), wk =   0.0277778
        k(   17) = (   0.0000000   0.0389414   0.0973536), wk =   0.0277778
        k(   18) = (   0.0000000   0.0389414  -0.1168243), wk =   0.0138889
        k(   19) = (   0.0000000   0.0584121   0.0584121), wk =   0.0138889
        k(   20) = (   0.0000000   0.0584121   0.0778829), wk =   0.0277778
        k(   21) = (   0.0000000   0.0584121   0.0973536), wk =   0.0277778
        k(   22) = (   0.0000000   0.0584121  -0.1168243), wk =   0.0138889
        k(   23) = (   0.0000000   0.0778829   0.0778829), wk =   0.0138889
        k(   24) = (   0.0000000   0.0778829   0.0973536), wk =   0.0277778
        k(   25) = (   0.0000000   0.0778829  -0.1168243), wk =   0.0138889
        k(   26) = (   0.0000000   0.0973536   0.0973536), wk =   0.0138889
        k(   27) = (   0.0000000   0.0973536  -0.1168243), wk =   0.0138889
        k(   28) = (   0.0000000  -0.1168243  -0.1168243), wk =   0.0034722
        k(   29) = (   0.0194707   0.0194707   0.0194707), wk =   0.0092593
        k(   30) = (   0.0194707   0.0194707   0.0389414), wk =   0.0277778
        k(   31) = (   0.0194707   0.0194707   0.0584121), wk =   0.0277778
        k(   32) = (   0.0194707   0.0194707   0.0778829), wk =   0.0277778
        k(   33) = (   0.0194707   0.0194707   0.0973536), wk =   0.0277778
        k(   34) = (   0.0194707   0.0194707  -0.1168243), wk =   0.0138889
        k(   35) = (   0.0194707   0.0389414   0.0389414), wk =   0.0277778
        k(   36) = (   0.0194707   0.0389414   0.0584121), wk =   0.0555556
        k(   37) = (   0.0194707   0.0389414   0.0778829), wk =   0.0555556
        k(   38) = (   0.0194707   0.0389414   0.0973536), wk =   0.0555556
        k(   39) = (   0.0194707   0.0389414  -0.1168243), wk =   0.0277778
        k(   40) = (   0.0194707   0.0584121   0.0584121), wk =   0.0277778
        k(   41) = (   0.0194707   0.0584121   0.0778829), wk =   0.0555556
        k(   42) = (   0.0194707   0.0584121   0.0973536), wk =   0.0555556
        k(   43) = (   0.0194707   0.0584121  -0.1168243), wk =   0.0277778
        k(   44) = (   0.0194707   0.0778829   0.0778829), wk =   0.0277778
        k(   45) = (   0.0194707   0.0778829   0.0973536), wk =   0.0555556
        k(   46) = (   0.0194707   0.0778829  -0.1168243), wk =   0.0277778
        k(   47) = (   0.0194707   0.0973536   0.0973536), wk =   0.0277778
        k(   48) = (   0.0194707   0.0973536  -0.1168243), wk =   0.0277778
        k(   49) = (   0.0194707  -0.1168243  -0.1168243), wk =   0.0069444
        k(   50) = (   0.0389414   0.0389414   0.0389414), wk =   0.0092593
        k(   51) = (   0.0389414   0.0389414   0.0584121), wk =   0.0277778
        k(   52) = (   0.0389414   0.0389414   0.0778829), wk =   0.0277778
        k(   53) = (   0.0389414   0.0389414   0.0973536), wk =   0.0277778
        k(   54) = (   0.0389414   0.0389414  -0.1168243), wk =   0.0138889
        k(   55) = (   0.0389414   0.0584121   0.0584121), wk =   0.0277778
        k(   56) = (   0.0389414   0.0584121   0.0778829), wk =   0.0555556
        k(   57) = (   0.0389414   0.0584121   0.0973536), wk =   0.0555556
        k(   58) = (   0.0389414   0.0584121  -0.1168243), wk =   0.0277778
        k(   59) = (   0.0389414   0.0778829   0.0778829), wk =   0.0277778
        k(   60) = (   0.0389414   0.0778829   0.0973536), wk =   0.0555556
[...]
        k(   70) = (   0.0584121   0.0778829   0.0973536), wk =   0.0555556
        k(   71) = (   0.0584121   0.0778829  -0.1168243), wk =   0.0277778
        k(   72) = (   0.0584121   0.0973536   0.0973536), wk =   0.0277778
        k(   73) = (   0.0584121   0.0973536  -0.1168243), wk =   0.0277778
        k(   74) = (   0.0584121  -0.1168243  -0.1168243), wk =   0.0069444
        k(   75) = (   0.0778829   0.0778829   0.0778829), wk =   0.0092593
        k(   76) = (   0.0778829   0.0778829   0.0973536), wk =   0.0277778
        k(   77) = (   0.0778829   0.0778829  -0.1168243), wk =   0.0138889
        k(   78) = (   0.0778829   0.0973536   0.0973536), wk =   0.0277778
        k(   79) = (   0.0778829   0.0973536  -0.1168243), wk =   0.0277778
        k(   80) = (   0.0778829  -0.1168243  -0.1168243), wk =   0.0069444
        k(   81) = (   0.0973536   0.0973536   0.0973536), wk =   0.0092593
        k(   82) = (   0.0973536   0.0973536  -0.1168243), wk =   0.0138889
        k(   83) = (   0.0973536  -0.1168243  -0.1168243), wk =   0.0069444
        k(   84) = (  -0.1168243  -0.1168243  -0.1168243), wk =   0.0011574

     Largest allocated arrays     est. size (Mb)     dimensions
     Largest temporary arrays     est. size (Mb)     dimensions

     Initial potential from superposition of free atoms
     Check: negative starting charge=   -0.324324

     starting charge   52.99662, renormalised to   54.00000

     negative rho (up, down):  3.305E-01 0.000E+00

     *
     * You are using vdW-DF for exchange-correlation in this calculation.
     * Please cite the following three references that made this development
     * possible:
     *
     *   M. Dion, H. Rydberg, E. Schroder, D. C. Langreth, and
     *   B. I. Lundqvist, Phys. Rev. Lett. 92, 246401 (2004).
     *
     *   T. Thonhauser, V. R. Cooper, S. Li, A. Puzder, P. Hyldgaard, and
     *   D. C. Langreth, Phys. Rev. B 76, 125112 (2007).
     *
     *   G. Roman-Perez and J. M. Soler, Phys. Rev. Lett. 103, 096102 (2009).
     *
     *
     * If you are using vdW-DF2, please also cite:
     *
     *   K. Lee, E. D. Murray, L. Kong, B. I. Lundqvist, and
     *   D. C. Langreth, Phys. Rev. B 82, 081101(R) (2010).
     *
     *
     * If you are calculating the stress with vdW-DF, please also cite:
     *
     *   R. Sabatini, E. Kucukbenli, B. Kolb, T. Thonhauser, and
     *   S. de Gironcoli, J. Phys.: Condens. Matter 24, 424209 (2012).
     *

     Carrying out vdW-DF run using the following parameters:

     Nqs =      20    Nr_points =    1024   r_max =   100.000
     q_mesh =
               0.00001000     0.04494208     0.09755937     0.15916263
               0.23128650     0.31572767     0.41458969     0.53033537
               0.66584808     0.82450364     1.01025438     1.22772762
               1.48234092     1.78043706     2.12944203     2.53805004
               3.01644009     3.57652955     4.23227104     5.00000000

     Gradients computed in reciprocal space

     Starting wfc are   48 randomized atomic wfcs

     Self-consistent Calculation

     iteration #  1     ecut=    58.80 Ry     beta=0.10
     Davidson diagonalization with overlap
     ethr =  1.00E-02,  avg # of iterations =  4.5

     Threshold (ethr) on eigenvalues was too large:
     Diagonalizing with lowered threshold

     Davidson diagonalization with overlap
     ethr =  4.73E-04,  avg # of iterations =  1.2

[...]

     total energy              =    -616.94279841 Ry
     Harris-Foulkes estimate   =    -616.95526731 Ry
     estimated scf accuracy    <       0.25531657 Ry

[...]

     total energy              =    -616.86095669 Ry
     Harris-Foulkes estimate   =    -616.86094956 Ry
     estimated scf accuracy    <       0.00000025 Ry

     iteration # 10     ecut=    58.80 Ry     beta=0.10
     Davidson diagonalization with overlap
     ethr =  3.30E-10,  avg # of iterations =  2.8

     negative rho (up, down):  3.506E-01 0.000E+00

     End of self-consistent calculation

          k = 0.0000 0.0000 0.0000 (  3959 PWs)   bands (ev):

   -50.1838 -50.1137 -50.1137 -16.8034 -16.8034 -16.8034 -16.5310 -16.5310
   -16.5310 -16.1580 -16.1580 -16.1580  -5.4839  -5.4839  -5.4839  -5.4821
    -5.4821   4.9841  12.9507  14.7944  14.7944  15.6348  15.6348  15.6348
    16.2450  16.2450  16.2450  19.0919  19.7109  19.7109  19.7109  21.9596
    21.9596  23.0849  23.9850  23.9850  23.9850  25.0206  25.0206  25.0206
    27.7232  27.7232  27.7232  27.8685  27.8685  29.0999  33.5454

[...]

          k = 0.0974-0.1168-0.1168 (  4016 PWs)   bands (ev):

[...]

          k =-0.1168-0.1168-0.1168 (  4032 PWs)   bands (ev):

   -50.1368 -50.1368 -50.1368 -16.8436 -16.8436 -16.8436 -16.8303 -16.3344
   -16.3344 -16.3344 -16.0914 -16.0914  -5.4911  -5.4911  -5.4911  -5.4462
    -5.4462   6.1537  14.2700  14.2700  14.2700  14.4476  14.4476  14.4476
    17.9432  17.9432  17.9432  18.5489  19.5488  19.5488  19.5488  19.8977
    20.4735  20.4735  23.2542  23.2542  23.2542  26.0914  26.0914  26.0914
    27.8529  27.8529  27.8529  29.0755  30.2915  30.2915  30.2915

     the Fermi energy is    18.2900 ev

!    total energy              =    -616.86098749 Ry
     Harris-Foulkes estimate   =    -616.86095671 Ry
     estimated scf accuracy    <          4.4E-09 Ry

     The total energy is the sum of the following terms:

     one-electron contribution =     -74.44387994 Ry
     hartree contribution      =      69.48441544 Ry
     xc contribution           =    -197.80706680 Ry
     ewald contribution        =    -414.09131015 Ry
     smearing contrib. (-TS)   =      -0.00314604 Ry

     convergence has been achieved in  10 iterations

     Forces acting on atoms (Ry/au):

     negative rho (up, down):  3.506E-01 0.000E+00
     atom    1 type  1   force =     0.00000000   -0.00000000    0.00000000
     atom    2 type  1   force =     0.00000000    0.00000000    0.00000000
     atom    3 type  1   force =     0.00000000    0.00000000    0.00000000
     atom    4 type  2   force =     0.00000000    0.00000000    0.00000000

     Total force =     0.000000     Total SCF correction =     0.000000
 !ASE

     General routines

     Parallel routines

   This run was terminated on:  13:28:10  17Feb2018

   JOB DONE.