     Program PWSCF v.5.1rc2 (svn rev. ) starts on 24Oct2017 at 20:10: 4

     Current dimensions of program PWSCF are:
     Max number of different atomic species (ntypx) = 10
     Max number of k-points (npk) =  40000
     Max angular momentum in pseudopotentials (lmaxx) =  3

     IMPORTANT: XC functional enforced from input :
     Exchange-correlation      = BEEF-VDW ( 1  4 27 13 2)
     Any further DFT definition will be discarded
     Please, verify this is what you really want

     Subspace diagonalization in iterative solution of the eigenvalue problem:
     a serial algorithm will be used

     bravais-lattice index     =            0
     lattice parameter (alat)  =       1.8897  a.u.
     unit-cell volume          =     462.5327 (a.u.)^3
     number of atoms/cell      =            4
     number of atomic types    =            2
     number of electrons       =        73.00
     number of Kohn-Sham states=           56
     kinetic-energy cutoff     =      58.7989  Ry
     charge density cutoff     =     587.9892  Ry
     convergence threshold     =      7.3E-09
     mixing beta               =       0.1000
     number of iterations used =           10  local-TF  mixing
     Exchange-correlation      = BEEF-VDW ( 1  4 27 13 2)
     nstep                     =           50

     celldm(1)=   1.889726  celldm(2)=   0.000000  celldm(3)=   0.000000
     celldm(4)=   0.000000  celldm(5)=   0.000000  celldm(6)=   0.000000

     crystal axes: (cart. coord. in units of alat)
               a(1) = (   4.092436   0.000000   0.000000 )
               a(2) = (   0.000000   4.092436   0.000000 )
               a(3) = (   0.000000   0.000000   4.092436 )

     reciprocal axes: (cart. coord. in units 2 pi/alat)
               b(1) = (  0.244353  0.000000  0.000000 )
               b(2) = (  0.000000  0.244353  0.000000 )
               b(3) = (  0.000000  0.000000  0.244353 )

     PseudoPot. # 1 for Ag read from file:
     /home/vossj/suncat/psp/gbrv1.5pbe/Ag.UPF
     MD5 check sum: d66d668201baa78d5eb5b04ef7011058
     Pseudo is Ultrasoft + core correction, Zval = 19.0
     Generated by new atomic code, or converted to UPF format
     Using radial grid of  887 points,  6 beta functions with:
                l(1) =   0
                l(2) =   0
                l(3) =   1
                l(4) =   1
                l(5) =   2
                l(6) =   2
     Q(r) pseudized with  6 coefficients,  rinner =    1.300   1.300   1.300
                                                       1.300   1.300

     PseudoPot. # 2 for Os read from file:
     /home/vossj/suncat/psp/gbrv1.5pbe/Os.UPF
     MD5 check sum: a3fb40a04f0c37c25c34bbc47164c9a8
     Pseudo is Ultrasoft + core correction, Zval = 16.0
     Generated by new atomic code, or converted to UPF format
     Using radial grid of  983 points,  8 beta functions with:
                l(1) =   0
                l(2) =   0
                l(3) =   1
                l(4) =   1
                l(5) =   2
                l(6) =   2
                l(7) =   3
                l(8) =   3
     Q(r) pseudized with  8 coefficients,  rinner =    1.150   1.150   1.150
                                                       1.150   1.150   1.150
                                                       1.150

     vdW kernel table read from file vdW_kernel_table
     MD5 check sum: 095c7af220d748ca6e76c0b4c6cfb241

     atomic species   valence    mass     pseudopotential
        Ag1           19.00   107.86820     Ag( 1.00)
        Os1           16.00   190.23000     Os( 1.00)

     48 Sym. Ops., with inversion, found (32 have fractional translation)

   Cartesian axes

     site n.     atom                  positions (alat units)
         1           Ag1 tau(   1) = (   0.0000000   0.0000000   0.0000000  )
         2           Ag1 tau(   2) = (   0.0000000   2.0462182   2.0462182  )
         3           Ag1 tau(   3) = (   2.0462182   0.0000000   2.0462182  )
         4           Os1 tau(   4) = (   2.0462182   2.0462182   0.0000000  )

     number of k points=    84  Fermi-Dirac smearing, width (Ry)=  0.0073
                       cart. coord. in units 2pi/alat
        k(    1) = (   0.0000000   0.0000000   0.0000000), wk =   0.0011574
        k(    2) = (   0.0000000   0.0000000   0.0203628), wk =   0.0069444
        k(    3) = (   0.0000000   0.0000000   0.0407255), wk =   0.0069444
        k(    4) = (   0.0000000   0.0000000   0.0610883), wk =   0.0069444
        k(    5) = (   0.0000000   0.0000000   0.0814511), wk =   0.0069444
        k(    6) = (   0.0000000   0.0000000   0.1018138), wk =   0.0069444
        k(    7) = (   0.0000000   0.0000000  -0.1221766), wk =   0.0034722
        k(    8) = (   0.0000000   0.0203628   0.0203628), wk =   0.0138889
        k(    9) = (   0.0000000   0.0203628   0.0407255), wk =   0.0277778
        k(   10) = (   0.0000000   0.0203628   0.0610883), wk =   0.0277778
        k(   11) = (   0.0000000   0.0203628   0.0814511), wk =   0.0277778
        k(   12) = (   0.0000000   0.0203628   0.1018138), wk =   0.0277778
        k(   13) = (   0.0000000   0.0203628  -0.1221766), wk =   0.0138889
        k(   14) = (   0.0000000   0.0407255   0.0407255), wk =   0.0138889
        k(   15) = (   0.0000000   0.0407255   0.0610883), wk =   0.0277778
        k(   16) = (   0.0000000   0.0407255   0.0814511), wk =   0.0277778
        k(   17) = (   0.0000000   0.0407255   0.1018138), wk =   0.0277778
        k(   18) = (   0.0000000   0.0407255  -0.1221766), wk =   0.0138889
        k(   19) = (   0.0000000   0.0610883   0.0610883), wk =   0.0138889
        k(   20) = (   0.0000000   0.0610883   0.0814511), wk =   0.0277778
        k(   21) = (   0.0000000   0.0610883   0.1018138), wk =   0.0277778
        k(   22) = (   0.0000000   0.0610883  -0.1221766), wk =   0.0138889
        k(   23) = (   0.0000000   0.0814511   0.0814511), wk =   0.0138889
        k(   24) = (   0.0000000   0.0814511   0.1018138), wk =   0.0277778
        k(   25) = (   0.0000000   0.0814511  -0.1221766), wk =   0.0138889
        k(   26) = (   0.0000000   0.1018138   0.1018138), wk =   0.0138889
        k(   27) = (   0.0000000   0.1018138  -0.1221766), wk =   0.0138889
        k(   28) = (   0.0000000  -0.1221766  -0.1221766), wk =   0.0034722
        k(   29) = (   0.0203628   0.0203628   0.0203628), wk =   0.0092593
        k(   30) = (   0.0203628   0.0203628   0.0407255), wk =   0.0277778
        k(   31) = (   0.0203628   0.0203628   0.0610883), wk =   0.0277778
        k(   32) = (   0.0203628   0.0203628   0.0814511), wk =   0.0277778
        k(   33) = (   0.0203628   0.0203628   0.1018138), wk =   0.0277778
        k(   34) = (   0.0203628   0.0203628  -0.1221766), wk =   0.0138889
        k(   35) = (   0.0203628   0.0407255   0.0407255), wk =   0.0277778
        k(   36) = (   0.0203628   0.0407255   0.0610883), wk =   0.0555556
        k(   37) = (   0.0203628   0.0407255   0.0814511), wk =   0.0555556
        k(   38) = (   0.0203628   0.0407255   0.1018138), wk =   0.0555556
        k(   39) = (   0.0203628   0.0407255  -0.1221766), wk =   0.0277778
        k(   40) = (   0.0203628   0.0610883   0.0610883), wk =   0.0277778
        k(   41) = (   0.0203628   0.0610883   0.0814511), wk =   0.0555556
        k(   42) = (   0.0203628   0.0610883   0.1018138), wk =   0.0555556
        k(   43) = (   0.0203628   0.0610883  -0.1221766), wk =   0.0277778
        k(   44) = (   0.0203628   0.0814511   0.0814511), wk =   0.0277778
        k(   45) = (   0.0203628   0.0814511   0.1018138), wk =   0.0555556
        k(   46) = (   0.0203628   0.0814511  -0.1221766), wk =   0.0277778
        k(   47) = (   0.0203628   0.1018138   0.1018138), wk =   0.0277778
        k(   48) = (   0.0203628   0.1018138  -0.1221766), wk =   0.0277778
        k(   49) = (   0.0203628  -0.1221766  -0.1221766), wk =   0.0069444
        k(   50) = (   0.0407255   0.0407255   0.0407255), wk =   0.0092593
        k(   51) = (   0.0407255   0.0407255   0.0610883), wk =   0.0277778
        k(   52) = (   0.0407255   0.0407255   0.0814511), wk =   0.0277778
        k(   53) = (   0.0407255   0.0407255   0.1018138), wk =   0.0277778
        k(   54) = (   0.0407255   0.0407255  -0.1221766), wk =   0.0138889
        k(   55) = (   0.0407255   0.0610883   0.0610883), wk =   0.0277778
        k(   56) = (   0.0407255   0.0610883   0.0814511), wk =   0.0555556
        k(   57) = (   0.0407255   0.0610883   0.1018138), wk =   0.0555556
        k(   58) = (   0.0407255   0.0610883  -0.1221766), wk =   0.0277778
        k(   59) = (   0.0407255   0.0814511   0.0814511), wk =   0.0277778
        k(   60) = (   0.0407255   0.0814511   0.1018138), wk =   0.0555556
[...]
        k(   70) = (   0.0610883   0.0814511   0.1018138), wk =   0.0555556
        k(   71) = (   0.0610883   0.0814511  -0.1221766), wk =   0.0277778
        k(   72) = (   0.0610883   0.1018138   0.1018138), wk =   0.0277778
        k(   73) = (   0.0610883   0.1018138  -0.1221766), wk =   0.0277778
        k(   74) = (   0.0610883  -0.1221766  -0.1221766), wk =   0.0069444
        k(   75) = (   0.0814511   0.0814511   0.0814511), wk =   0.0092593
        k(   76) = (   0.0814511   0.0814511   0.1018138), wk =   0.0277778
        k(   77) = (   0.0814511   0.0814511  -0.1221766), wk =   0.0138889
        k(   78) = (   0.0814511   0.1018138   0.1018138), wk =   0.0277778
        k(   79) = (   0.0814511   0.1018138  -0.1221766), wk =   0.0277778
        k(   80) = (   0.0814511  -0.1221766  -0.1221766), wk =   0.0069444
        k(   81) = (   0.1018138   0.1018138   0.1018138), wk =   0.0092593
        k(   82) = (   0.1018138   0.1018138  -0.1221766), wk =   0.0138889
        k(   83) = (   0.1018138  -0.1221766  -0.1221766), wk =   0.0069444
        k(   84) = (  -0.1221766  -0.1221766  -0.1221766), wk =   0.0011574

     Largest allocated arrays     est. size (Mb)     dimensions
     Largest temporary arrays     est. size (Mb)     dimensions

     Initial potential from superposition of free atoms
     Check: negative starting charge=   -0.123948

     starting charge   70.99982, renormalised to   73.00000

     negative rho (up, down):  1.274E-01 0.000E+00

     *
     * You are using vdW-DF for exchange-correlation in this calculation.
     * Please cite the following three references that made this development
     * possible:
     *
     *   M. Dion, H. Rydberg, E. Schroder, D. C. Langreth, and
     *   B. I. Lundqvist, Phys. Rev. Lett. 92, 246401 (2004).
     *
     *   T. Thonhauser, V. R. Cooper, S. Li, A. Puzder, P. Hyldgaard, and
     *   D. C. Langreth, Phys. Rev. B 76, 125112 (2007).
     *
     *   G. Roman-Perez and J. M. Soler, Phys. Rev. Lett. 103, 096102 (2009).
     *
     *
     * If you are using vdW-DF2, please also cite:
     *
     *   K. Lee, E. D. Murray, L. Kong, B. I. Lundqvist, and
     *   D. C. Langreth, Phys. Rev. B 82, 081101(R) (2010).
     *
     *
     * If you are calculating the stress with vdW-DF, please also cite:
     *
     *   R. Sabatini, E. Kucukbenli, B. Kolb, T. Thonhauser, and
     *   S. de Gironcoli, J. Phys.: Condens. Matter 24, 424209 (2012).
     *

     Carrying out vdW-DF run using the following parameters:

     Nqs =      20    Nr_points =    1024   r_max =   100.000
     q_mesh =
               0.00001000     0.04494208     0.09755937     0.15916263
               0.23128650     0.31572767     0.41458969     0.53033537
               0.66584808     0.82450364     1.01025438     1.22772762
               1.48234092     1.78043706     2.12944203     2.53805004
               3.01644009     3.57652955     4.23227104     5.00000000

     Gradients computed in reciprocal space

     Starting wfc are   52 randomized atomic wfcs +    4 random wfc

     Self-consistent Calculation

     iteration #  1     ecut=    58.80 Ry     beta=0.10
     Davidson diagonalization with overlap
     ethr =  1.00E-02,  avg # of iterations =  4.3

[...]

     total energy              =   -1090.58254008 Ry
     Harris-Foulkes estimate   =   -1091.07667806 Ry
     estimated scf accuracy    <       8.97963343 Ry

[...]

     total energy              =   -1089.61638151 Ry
     Harris-Foulkes estimate   =   -1089.61637955 Ry
     estimated scf accuracy    <       0.00000002 Ry

     iteration # 16     ecut=    58.80 Ry     beta=0.10
     Davidson diagonalization with overlap
     ethr =  2.39E-11,  avg # of iterations =  2.0

     negative rho (up, down):  1.149E-01 0.000E+00

     End of self-consistent calculation

          k = 0.0000 0.0000 0.0000 (  3575 PWs)   bands (ev):

   -74.4434 -74.4268 -74.4268 -68.1778 -37.9734 -37.9734 -37.9734 -37.9246
   -37.9246 -37.9246 -37.8568 -37.8568 -37.8568 -27.4718 -27.4718 -27.4718
     9.8754  11.2880  11.5790  11.5790  11.6259  11.6259  11.6259  13.2107
    13.2107  13.2107  14.1207  14.1207  14.6375  14.8805  14.8805  14.8805
    17.2430  17.2430  18.1184  18.1184  18.1184  19.6690  19.6690  19.6690
    24.5131  25.9867  25.9867  28.2512  28.2512  28.2512  29.2282  29.2282
    29.2282  33.5563  35.3658  35.6745  35.6745  36.2081  36.2081  36.2081

[...]

          k = 0.1018-0.1222-0.1222 (  3504 PWs)   bands (ev):

[...]

          k =-0.1222-0.1222-0.1222 (  3544 PWs)   bands (ev):

   -74.4323 -74.4323 -74.4323 -68.1777 -37.9798 -37.9774 -37.9774 -37.9774
   -37.8879 -37.8879 -37.8879 -37.8468 -37.8468 -27.4746 -27.4746 -27.4746
    11.1584  11.5961  11.5961  11.5961  12.8750  12.8750  12.8750  13.2470
    13.2470  13.2470  13.4930  13.4930  14.6748  14.6748  14.6748  16.8569
    16.8569  16.8569  17.5312  17.6729  17.6729  17.6729  17.8274  17.8274
    21.1161  23.0447  23.0447  23.0447  32.7680  32.7680  32.7680  33.0213
    35.0799  35.0799  35.0799  35.9185  35.9185  37.0491  37.0491  37.0491

     the Fermi energy is    17.3295 ev

!    total energy              =   -1089.61638986 Ry
     Harris-Foulkes estimate   =   -1089.61638151 Ry
     estimated scf accuracy    <          1.1E-10 Ry

     The total energy is the sum of the following terms:

     one-electron contribution =    -416.48200194 Ry
     hartree contribution      =     247.68534268 Ry
     xc contribution           =    -129.01676394 Ry
     ewald contribution        =    -791.79358021 Ry
     smearing contrib. (-TS)   =      -0.00938645 Ry

     convergence has been achieved in  16 iterations

     Forces acting on atoms (Ry/au):

     negative rho (up, down):  1.149E-01 0.000E+00
     atom    1 type  1   force =     0.00000000    0.00000000    0.00000000
     atom    2 type  1   force =     0.00000000    0.00000000    0.00000000
     atom    3 type  1   force =     0.00000000    0.00000000    0.00000000
     atom    4 type  2   force =     0.00000000    0.00000000    0.00000000

     Total force =     0.000000     Total SCF correction =     0.000000
 !ASE

     General routines

     Parallel routines

   This run was terminated on:  20:11:25  24Oct2017

   JOB DONE.