     Program PWSCF v.5.1rc2 (svn rev. ) starts on 25Oct2017 at 10:51:32

     Current dimensions of program PWSCF are:
     Max number of different atomic species (ntypx) = 10
     Max number of k-points (npk) =  40000
     Max angular momentum in pseudopotentials (lmaxx) =  3

     IMPORTANT: XC functional enforced from input :
     Exchange-correlation      = BEEF-VDW ( 1  4 27 13 2)
     Any further DFT definition will be discarded
     Please, verify this is what you really want

     Subspace diagonalization in iterative solution of the eigenvalue problem:
     a serial algorithm will be used

     bravais-lattice index     =            0
     lattice parameter (alat)  =       1.8897  a.u.
     unit-cell volume          =     452.2725 (a.u.)^3
     number of atoms/cell      =            4
     number of atomic types    =            2
     number of electrons       =        60.00
     number of Kohn-Sham states=           50
     kinetic-energy cutoff     =      58.7989  Ry
     charge density cutoff     =     587.9892  Ry
     convergence threshold     =      7.3E-09
     mixing beta               =       0.1000
     number of iterations used =           10  local-TF  mixing
     Exchange-correlation      = BEEF-VDW ( 1  4 27 13 2)
     nstep                     =           50

     celldm(1)=   1.889726  celldm(2)=   0.000000  celldm(3)=   0.000000
     celldm(4)=   0.000000  celldm(5)=   0.000000  celldm(6)=   0.000000

     crystal axes: (cart. coord. in units of alat)
               a(1) = (   4.061949   0.000000   0.000000 )
               a(2) = (   0.000000   4.061949   0.000000 )
               a(3) = (   0.000000   0.000000   4.061949 )

     reciprocal axes: (cart. coord. in units 2 pi/alat)
               b(1) = (  0.246187  0.000000  0.000000 )
               b(2) = (  0.000000  0.246187  0.000000 )
               b(3) = (  0.000000  0.000000  0.246187 )

     PseudoPot. # 1 for Pd read from file:
     /home/vossj/suncat/psp/gbrv1.5pbe/Pd.UPF
     MD5 check sum: 2d733d2bc2cbfd217af676df1668a4bc
     Pseudo is Ultrasoft + core correction, Zval = 16.0
     Generated by new atomic code, or converted to UPF format
     Using radial grid of  887 points,  6 beta functions with:
                l(1) =   0
                l(2) =   0
                l(3) =   1
                l(4) =   1
                l(5) =   2
                l(6) =   2
     Q(r) pseudized with  8 coefficients,  rinner =    1.130   1.130   1.130
                                                       1.130   1.130

     PseudoPot. # 2 for Cd read from file:
     /home/vossj/suncat/psp/gbrv1.5pbe/Cd.UPF
     MD5 check sum: 17164a7926edb8e0dc231208abae86a6
     Pseudo is Ultrasoft + core correction, Zval = 12.0
     Generated by new atomic code, or converted to UPF format
     Using radial grid of  889 points,  6 beta functions with:
                l(1) =   0
                l(2) =   0
                l(3) =   1
                l(4) =   1
                l(5) =   2
                l(6) =   2
     Q(r) pseudized with  6 coefficients,  rinner =    1.000   1.000   1.000
                                                       1.000   1.000

     vdW kernel table read from file vdW_kernel_table
     MD5 check sum: 095c7af220d748ca6e76c0b4c6cfb241

     atomic species   valence    mass     pseudopotential
        Pd1           16.00   106.42000     Pd( 1.00)
        Cd1           12.00   112.41400     Cd( 1.00)

     48 Sym. Ops., with inversion, found (32 have fractional translation)

   Cartesian axes

     site n.     atom                  positions (alat units)
         1           Pd1 tau(   1) = (   0.0000000   0.0000000   0.0000000  )
         2           Pd1 tau(   2) = (   0.0000000   2.0309747   2.0309747  )
         3           Pd1 tau(   3) = (   2.0309747   0.0000000   2.0309747  )
         4           Cd1 tau(   4) = (   2.0309747   2.0309747   0.0000000  )

     number of k points=    84  Fermi-Dirac smearing, width (Ry)=  0.0073
                       cart. coord. in units 2pi/alat
        k(    1) = (   0.0000000   0.0000000   0.0000000), wk =   0.0011574
        k(    2) = (   0.0000000   0.0000000   0.0205156), wk =   0.0069444
        k(    3) = (   0.0000000   0.0000000   0.0410312), wk =   0.0069444
        k(    4) = (   0.0000000   0.0000000   0.0615468), wk =   0.0069444
        k(    5) = (   0.0000000   0.0000000   0.0820624), wk =   0.0069444
        k(    6) = (   0.0000000   0.0000000   0.1025780), wk =   0.0069444
        k(    7) = (   0.0000000   0.0000000  -0.1230936), wk =   0.0034722
        k(    8) = (   0.0000000   0.0205156   0.0205156), wk =   0.0138889
        k(    9) = (   0.0000000   0.0205156   0.0410312), wk =   0.0277778
        k(   10) = (   0.0000000   0.0205156   0.0615468), wk =   0.0277778
        k(   11) = (   0.0000000   0.0205156   0.0820624), wk =   0.0277778
        k(   12) = (   0.0000000   0.0205156   0.1025780), wk =   0.0277778
        k(   13) = (   0.0000000   0.0205156  -0.1230936), wk =   0.0138889
        k(   14) = (   0.0000000   0.0410312   0.0410312), wk =   0.0138889
        k(   15) = (   0.0000000   0.0410312   0.0615468), wk =   0.0277778
        k(   16) = (   0.0000000   0.0410312   0.0820624), wk =   0.0277778
        k(   17) = (   0.0000000   0.0410312   0.1025780), wk =   0.0277778
        k(   18) = (   0.0000000   0.0410312  -0.1230936), wk =   0.0138889
        k(   19) = (   0.0000000   0.0615468   0.0615468), wk =   0.0138889
        k(   20) = (   0.0000000   0.0615468   0.0820624), wk =   0.0277778
        k(   21) = (   0.0000000   0.0615468   0.1025780), wk =   0.0277778
        k(   22) = (   0.0000000   0.0615468  -0.1230936), wk =   0.0138889
        k(   23) = (   0.0000000   0.0820624   0.0820624), wk =   0.0138889
        k(   24) = (   0.0000000   0.0820624   0.1025780), wk =   0.0277778
        k(   25) = (   0.0000000   0.0820624  -0.1230936), wk =   0.0138889
        k(   26) = (   0.0000000   0.1025780   0.1025780), wk =   0.0138889
        k(   27) = (   0.0000000   0.1025780  -0.1230936), wk =   0.0138889
        k(   28) = (   0.0000000  -0.1230936  -0.1230936), wk =   0.0034722
        k(   29) = (   0.0205156   0.0205156   0.0205156), wk =   0.0092593
        k(   30) = (   0.0205156   0.0205156   0.0410312), wk =   0.0277778
        k(   31) = (   0.0205156   0.0205156   0.0615468), wk =   0.0277778
        k(   32) = (   0.0205156   0.0205156   0.0820624), wk =   0.0277778
        k(   33) = (   0.0205156   0.0205156   0.1025780), wk =   0.0277778
        k(   34) = (   0.0205156   0.0205156  -0.1230936), wk =   0.0138889
        k(   35) = (   0.0205156   0.0410312   0.0410312), wk =   0.0277778
        k(   36) = (   0.0205156   0.0410312   0.0615468), wk =   0.0555556
        k(   37) = (   0.0205156   0.0410312   0.0820624), wk =   0.0555556
        k(   38) = (   0.0205156   0.0410312   0.1025780), wk =   0.0555556
        k(   39) = (   0.0205156   0.0410312  -0.1230936), wk =   0.0277778
        k(   40) = (   0.0205156   0.0615468   0.0615468), wk =   0.0277778
        k(   41) = (   0.0205156   0.0615468   0.0820624), wk =   0.0555556
        k(   42) = (   0.0205156   0.0615468   0.1025780), wk =   0.0555556
        k(   43) = (   0.0205156   0.0615468  -0.1230936), wk =   0.0277778
        k(   44) = (   0.0205156   0.0820624   0.0820624), wk =   0.0277778
        k(   45) = (   0.0205156   0.0820624   0.1025780), wk =   0.0555556
        k(   46) = (   0.0205156   0.0820624  -0.1230936), wk =   0.0277778
        k(   47) = (   0.0205156   0.1025780   0.1025780), wk =   0.0277778
        k(   48) = (   0.0205156   0.1025780  -0.1230936), wk =   0.0277778
        k(   49) = (   0.0205156  -0.1230936  -0.1230936), wk =   0.0069444
        k(   50) = (   0.0410312   0.0410312   0.0410312), wk =   0.0092593
        k(   51) = (   0.0410312   0.0410312   0.0615468), wk =   0.0277778
        k(   52) = (   0.0410312   0.0410312   0.0820624), wk =   0.0277778
        k(   53) = (   0.0410312   0.0410312   0.1025780), wk =   0.0277778
        k(   54) = (   0.0410312   0.0410312  -0.1230936), wk =   0.0138889
        k(   55) = (   0.0410312   0.0615468   0.0615468), wk =   0.0277778
        k(   56) = (   0.0410312   0.0615468   0.0820624), wk =   0.0555556
        k(   57) = (   0.0410312   0.0615468   0.1025780), wk =   0.0555556
        k(   58) = (   0.0410312   0.0615468  -0.1230936), wk =   0.0277778
        k(   59) = (   0.0410312   0.0820624   0.0820624), wk =   0.0277778
        k(   60) = (   0.0410312   0.0820624   0.1025780), wk =   0.0555556
[...]
        k(   70) = (   0.0615468   0.0820624   0.1025780), wk =   0.0555556
        k(   71) = (   0.0615468   0.0820624  -0.1230936), wk =   0.0277778
        k(   72) = (   0.0615468   0.1025780   0.1025780), wk =   0.0277778
        k(   73) = (   0.0615468   0.1025780  -0.1230936), wk =   0.0277778
        k(   74) = (   0.0615468  -0.1230936  -0.1230936), wk =   0.0069444
        k(   75) = (   0.0820624   0.0820624   0.0820624), wk =   0.0092593
        k(   76) = (   0.0820624   0.0820624   0.1025780), wk =   0.0277778
        k(   77) = (   0.0820624   0.0820624  -0.1230936), wk =   0.0138889
        k(   78) = (   0.0820624   0.1025780   0.1025780), wk =   0.0277778
        k(   79) = (   0.0820624   0.1025780  -0.1230936), wk =   0.0277778
        k(   80) = (   0.0820624  -0.1230936  -0.1230936), wk =   0.0069444
        k(   81) = (   0.1025780   0.1025780   0.1025780), wk =   0.0092593
        k(   82) = (   0.1025780   0.1025780  -0.1230936), wk =   0.0138889
        k(   83) = (   0.1025780  -0.1230936  -0.1230936), wk =   0.0069444
        k(   84) = (  -0.1230936  -0.1230936  -0.1230936), wk =   0.0011574

     Largest allocated arrays     est. size (Mb)     dimensions
     Largest temporary arrays     est. size (Mb)     dimensions

     Initial potential from superposition of free atoms
     Check: negative starting charge=   -0.251973

     starting charge   57.99994, renormalised to   60.00000

     negative rho (up, down):  2.607E-01 0.000E+00

     *
     * You are using vdW-DF for exchange-correlation in this calculation.
     * Please cite the following three references that made this development
     * possible:
     *
     *   M. Dion, H. Rydberg, E. Schroder, D. C. Langreth, and
     *   B. I. Lundqvist, Phys. Rev. Lett. 92, 246401 (2004).
     *
     *   T. Thonhauser, V. R. Cooper, S. Li, A. Puzder, P. Hyldgaard, and
     *   D. C. Langreth, Phys. Rev. B 76, 125112 (2007).
     *
     *   G. Roman-Perez and J. M. Soler, Phys. Rev. Lett. 103, 096102 (2009).
     *
     *
     * If you are using vdW-DF2, please also cite:
     *
     *   K. Lee, E. D. Murray, L. Kong, B. I. Lundqvist, and
     *   D. C. Langreth, Phys. Rev. B 82, 081101(R) (2010).
     *
     *
     * If you are calculating the stress with vdW-DF, please also cite:
     *
     *   R. Sabatini, E. Kucukbenli, B. Kolb, T. Thonhauser, and
     *   S. de Gironcoli, J. Phys.: Condens. Matter 24, 424209 (2012).
     *

     Carrying out vdW-DF run using the following parameters:

     Nqs =      20    Nr_points =    1024   r_max =   100.000
     q_mesh =
               0.00001000     0.04494208     0.09755937     0.15916263
               0.23128650     0.31572767     0.41458969     0.53033537
               0.66584808     0.82450364     1.01025438     1.22772762
               1.48234092     1.78043706     2.12944203     2.53805004
               3.01644009     3.57652955     4.23227104     5.00000000

     Gradients computed in reciprocal space

     Starting wfc are   45 randomized atomic wfcs +    5 random wfc

     Self-consistent Calculation

     iteration #  1     ecut=    58.80 Ry     beta=0.10
     Davidson diagonalization with overlap
     ethr =  1.00E-02,  avg # of iterations =  4.5

[...]

     total energy              =    -716.36756621 Ry
     Harris-Foulkes estimate   =    -716.67805211 Ry
     estimated scf accuracy    <       4.85820208 Ry

[...]

     total energy              =    -715.59793868 Ry
     Harris-Foulkes estimate   =    -715.59793194 Ry
     estimated scf accuracy    <          8.2E-09 Ry

     iteration # 12     ecut=    58.80 Ry     beta=0.10
     Davidson diagonalization with overlap
     ethr =  1.36E-11,  avg # of iterations =  2.9

     negative rho (up, down):  2.629E-01 0.000E+00

     End of self-consistent calculation

          k = 0.0000 0.0000 0.0000 (  3407 PWs)   bands (ev):

   -34.3062 -34.3062 -34.3062 -34.2201 -34.2201 -34.2201 -34.1263 -34.1263
   -34.1263   6.8251   6.8251   6.9735   6.9735   6.9735   8.1905  10.8488
    11.9417  11.9417  11.9417  12.3448  12.3448  14.0608  14.0608  14.0608
    14.7119  14.7119  15.1785  15.5291  15.5291  15.5291  17.7902  17.7902
    17.7902  22.8588  23.9022  23.9022  26.7242  26.7242  26.7242  27.5985
    27.5985  27.5985  32.4601  33.5913  33.9112  33.9112  33.9112  34.2855
    34.2855  36.3021

[...]

          k = 0.1026-0.1231-0.1231 (  3440 PWs)   bands (ev):

[...]

          k =-0.1231-0.1231-0.1231 (  3448 PWs)   bands (ev):

   -34.3329 -34.3065 -34.3065 -34.3065 -34.1609 -34.1609 -34.1609 -34.1171
   -34.1171   6.8774   6.8774   6.8774   7.2290   7.2290  10.1063  11.8397
    11.8397  11.8397  12.9039  12.9039  12.9039  14.1158  14.1158  14.1158
    14.3185  14.3185  15.2466  15.2466  15.2466  15.5065  15.5065  15.5065
    16.6627  19.4120  20.9415  20.9415  20.9415  31.4877  31.4877  31.4877
    31.8909  33.7695  33.7695  33.7695  34.9545  34.9545  34.9545  35.4992
    35.4992  37.9936

     the Fermi energy is    15.3787 ev

!    total energy              =    -715.59796753 Ry
     Harris-Foulkes estimate   =    -715.59793868 Ry
     estimated scf accuracy    <          1.1E-09 Ry

     The total energy is the sum of the following terms:

     one-electron contribution =    -176.47226064 Ry
     hartree contribution      =     140.60811325 Ry
     xc contribution           =    -138.62966457 Ry
     ewald contribution        =    -541.09539946 Ry
     smearing contrib. (-TS)   =      -0.00875611 Ry

     convergence has been achieved in  12 iterations

     Forces acting on atoms (Ry/au):

     negative rho (up, down):  2.629E-01 0.000E+00
     atom    1 type  1   force =     0.00000000    0.00000000    0.00000000
     atom    2 type  1   force =     0.00000000    0.00000000    0.00000000
     atom    3 type  1   force =     0.00000000    0.00000000    0.00000000
     atom    4 type  2   force =     0.00000000   -0.00000000    0.00000000

     Total force =     0.000000     Total SCF correction =     0.000000
 !ASE

     General routines

     Parallel routines

   This run was terminated on:  10:52:27  25Oct2017

   JOB DONE.