     Program PWSCF v.5.1rc2 (svn rev. ) starts on 25Oct2017 at  8:10:38

     Current dimensions of program PWSCF are:
     Max number of different atomic species (ntypx) = 10
     Max number of k-points (npk) =  40000
     Max angular momentum in pseudopotentials (lmaxx) =  3

     IMPORTANT: XC functional enforced from input :
     Exchange-correlation      = BEEF-VDW ( 1  4 27 13 2)
     Any further DFT definition will be discarded
     Please, verify this is what you really want

     Subspace diagonalization in iterative solution of the eigenvalue problem:
     a serial algorithm will be used

     bravais-lattice index     =            0
     lattice parameter (alat)  =       1.8897  a.u.
     unit-cell volume          =     548.4305 (a.u.)^3
     number of atoms/cell      =            4
     number of atomic types    =            2
     number of electrons       =        47.00
     number of Kohn-Sham states=           43
     kinetic-energy cutoff     =      58.7989  Ry
     charge density cutoff     =     587.9892  Ry
     convergence threshold     =      7.3E-09
     mixing beta               =       0.1000
     number of iterations used =           10  local-TF  mixing
     Exchange-correlation      = BEEF-VDW ( 1  4 27 13 2)
     nstep                     =           50

     celldm(1)=   1.889726  celldm(2)=   0.000000  celldm(3)=   0.000000
     celldm(4)=   0.000000  celldm(5)=   0.000000  celldm(6)=   0.000000

     crystal axes: (cart. coord. in units of alat)
               a(1) = (   4.331533   0.000000   0.000000 )
               a(2) = (   0.000000   4.331533   0.000000 )
               a(3) = (   0.000000   0.000000   4.331533 )

     reciprocal axes: (cart. coord. in units 2 pi/alat)
               b(1) = (  0.230865  0.000000  0.000000 )
               b(2) = (  0.000000  0.230865  0.000000 )
               b(3) = (  0.000000  0.000000  0.230865 )

     PseudoPot. # 1 for Au read from file:
     /home/vossj/suncat/psp/gbrv1.5pbe/Au.UPF
     MD5 check sum: 9d7f43293ad2c663164586bc4b293ffc
     Pseudo is Ultrasoft + core correction, Zval = 11.0
     Generated by new atomic code, or converted to UPF format
     Using radial grid of  985 points,  7 beta functions with:
                l(1) =   0
                l(2) =   0
                l(3) =   1
                l(4) =   1
                l(5) =   2
                l(6) =   2
                l(7) =   3
     Q(r) pseudized with  6 coefficients,  rinner =    1.900   1.900   1.900
                                                       1.900   1.900   1.900
                                                       1.900

     PseudoPot. # 2 for Sn read from file:
     /home/vossj/suncat/psp/gbrv1.5pbe/Sn.UPF
     MD5 check sum: 469debedee59599fedebd795477fea03
     Pseudo is Ultrasoft + core correction, Zval = 14.0
     Generated by new atomic code, or converted to UPF format
     Using radial grid of  891 points,  6 beta functions with:
                l(1) =   0
                l(2) =   0
                l(3) =   1
                l(4) =   1
                l(5) =   2
                l(6) =   2
     Q(r) pseudized with  8 coefficients,  rinner =    1.350   1.350   1.350
                                                       1.350   1.350

     vdW kernel table read from file vdW_kernel_table
     MD5 check sum: 095c7af220d748ca6e76c0b4c6cfb241

     atomic species   valence    mass     pseudopotential
        Au1           11.00   196.96657     Au( 1.00)
        Sn1           14.00   118.71000     Sn( 1.00)

     48 Sym. Ops., with inversion, found (32 have fractional translation)

   Cartesian axes

     site n.     atom                  positions (alat units)
         1           Au1 tau(   1) = (   0.0000000   0.0000000   0.0000000  )
         2           Au1 tau(   2) = (   0.0000000   2.1657667   2.1657667  )
         3           Au1 tau(   3) = (   2.1657667   0.0000000   2.1657667  )
         4           Sn1 tau(   4) = (   2.1657667   2.1657667   0.0000000  )

     number of k points=    84  Fermi-Dirac smearing, width (Ry)=  0.0073
                       cart. coord. in units 2pi/alat
        k(    1) = (   0.0000000   0.0000000   0.0000000), wk =   0.0011574
        k(    2) = (   0.0000000   0.0000000   0.0192388), wk =   0.0069444
        k(    3) = (   0.0000000   0.0000000   0.0384775), wk =   0.0069444
        k(    4) = (   0.0000000   0.0000000   0.0577163), wk =   0.0069444
        k(    5) = (   0.0000000   0.0000000   0.0769550), wk =   0.0069444
        k(    6) = (   0.0000000   0.0000000   0.0961938), wk =   0.0069444
        k(    7) = (   0.0000000   0.0000000  -0.1154326), wk =   0.0034722
        k(    8) = (   0.0000000   0.0192388   0.0192388), wk =   0.0138889
        k(    9) = (   0.0000000   0.0192388   0.0384775), wk =   0.0277778
        k(   10) = (   0.0000000   0.0192388   0.0577163), wk =   0.0277778
        k(   11) = (   0.0000000   0.0192388   0.0769550), wk =   0.0277778
        k(   12) = (   0.0000000   0.0192388   0.0961938), wk =   0.0277778
        k(   13) = (   0.0000000   0.0192388  -0.1154326), wk =   0.0138889
        k(   14) = (   0.0000000   0.0384775   0.0384775), wk =   0.0138889
        k(   15) = (   0.0000000   0.0384775   0.0577163), wk =   0.0277778
        k(   16) = (   0.0000000   0.0384775   0.0769550), wk =   0.0277778
        k(   17) = (   0.0000000   0.0384775   0.0961938), wk =   0.0277778
        k(   18) = (   0.0000000   0.0384775  -0.1154326), wk =   0.0138889
        k(   19) = (   0.0000000   0.0577163   0.0577163), wk =   0.0138889
        k(   20) = (   0.0000000   0.0577163   0.0769550), wk =   0.0277778
        k(   21) = (   0.0000000   0.0577163   0.0961938), wk =   0.0277778
        k(   22) = (   0.0000000   0.0577163  -0.1154326), wk =   0.0138889
        k(   23) = (   0.0000000   0.0769550   0.0769550), wk =   0.0138889
        k(   24) = (   0.0000000   0.0769550   0.0961938), wk =   0.0277778
        k(   25) = (   0.0000000   0.0769550  -0.1154326), wk =   0.0138889
        k(   26) = (   0.0000000   0.0961938   0.0961938), wk =   0.0138889
        k(   27) = (   0.0000000   0.0961938  -0.1154326), wk =   0.0138889
        k(   28) = (   0.0000000  -0.1154326  -0.1154326), wk =   0.0034722
        k(   29) = (   0.0192388   0.0192388   0.0192388), wk =   0.0092593
        k(   30) = (   0.0192388   0.0192388   0.0384775), wk =   0.0277778
        k(   31) = (   0.0192388   0.0192388   0.0577163), wk =   0.0277778
        k(   32) = (   0.0192388   0.0192388   0.0769550), wk =   0.0277778
        k(   33) = (   0.0192388   0.0192388   0.0961938), wk =   0.0277778
        k(   34) = (   0.0192388   0.0192388  -0.1154326), wk =   0.0138889
        k(   35) = (   0.0192388   0.0384775   0.0384775), wk =   0.0277778
        k(   36) = (   0.0192388   0.0384775   0.0577163), wk =   0.0555556
        k(   37) = (   0.0192388   0.0384775   0.0769550), wk =   0.0555556
        k(   38) = (   0.0192388   0.0384775   0.0961938), wk =   0.0555556
        k(   39) = (   0.0192388   0.0384775  -0.1154326), wk =   0.0277778
        k(   40) = (   0.0192388   0.0577163   0.0577163), wk =   0.0277778
        k(   41) = (   0.0192388   0.0577163   0.0769550), wk =   0.0555556
        k(   42) = (   0.0192388   0.0577163   0.0961938), wk =   0.0555556
        k(   43) = (   0.0192388   0.0577163  -0.1154326), wk =   0.0277778
        k(   44) = (   0.0192388   0.0769550   0.0769550), wk =   0.0277778
        k(   45) = (   0.0192388   0.0769550   0.0961938), wk =   0.0555556
        k(   46) = (   0.0192388   0.0769550  -0.1154326), wk =   0.0277778
        k(   47) = (   0.0192388   0.0961938   0.0961938), wk =   0.0277778
        k(   48) = (   0.0192388   0.0961938  -0.1154326), wk =   0.0277778
        k(   49) = (   0.0192388  -0.1154326  -0.1154326), wk =   0.0069444
        k(   50) = (   0.0384775   0.0384775   0.0384775), wk =   0.0092593
        k(   51) = (   0.0384775   0.0384775   0.0577163), wk =   0.0277778
        k(   52) = (   0.0384775   0.0384775   0.0769550), wk =   0.0277778
        k(   53) = (   0.0384775   0.0384775   0.0961938), wk =   0.0277778
        k(   54) = (   0.0384775   0.0384775  -0.1154326), wk =   0.0138889
        k(   55) = (   0.0384775   0.0577163   0.0577163), wk =   0.0277778
        k(   56) = (   0.0384775   0.0577163   0.0769550), wk =   0.0555556
        k(   57) = (   0.0384775   0.0577163   0.0961938), wk =   0.0555556
        k(   58) = (   0.0384775   0.0577163  -0.1154326), wk =   0.0277778
        k(   59) = (   0.0384775   0.0769550   0.0769550), wk =   0.0277778
        k(   60) = (   0.0384775   0.0769550   0.0961938), wk =   0.0555556
[...]
        k(   70) = (   0.0577163   0.0769550   0.0961938), wk =   0.0555556
        k(   71) = (   0.0577163   0.0769550  -0.1154326), wk =   0.0277778
        k(   72) = (   0.0577163   0.0961938   0.0961938), wk =   0.0277778
        k(   73) = (   0.0577163   0.0961938  -0.1154326), wk =   0.0277778
        k(   74) = (   0.0577163  -0.1154326  -0.1154326), wk =   0.0069444
        k(   75) = (   0.0769550   0.0769550   0.0769550), wk =   0.0092593
        k(   76) = (   0.0769550   0.0769550   0.0961938), wk =   0.0277778
        k(   77) = (   0.0769550   0.0769550  -0.1154326), wk =   0.0138889
        k(   78) = (   0.0769550   0.0961938   0.0961938), wk =   0.0277778
        k(   79) = (   0.0769550   0.0961938  -0.1154326), wk =   0.0277778
        k(   80) = (   0.0769550  -0.1154326  -0.1154326), wk =   0.0069444
        k(   81) = (   0.0961938   0.0961938   0.0961938), wk =   0.0092593
        k(   82) = (   0.0961938   0.0961938  -0.1154326), wk =   0.0138889
        k(   83) = (   0.0961938  -0.1154326  -0.1154326), wk =   0.0069444
        k(   84) = (  -0.1154326  -0.1154326  -0.1154326), wk =   0.0011574

     Largest allocated arrays     est. size (Mb)     dimensions
     Largest temporary arrays     est. size (Mb)     dimensions

     Initial potential from superposition of free atoms

     starting charge   45.99959, renormalised to   47.00000

     *
     * You are using vdW-DF for exchange-correlation in this calculation.
     * Please cite the following three references that made this development
     * possible:
     *
     *   M. Dion, H. Rydberg, E. Schroder, D. C. Langreth, and
     *   B. I. Lundqvist, Phys. Rev. Lett. 92, 246401 (2004).
     *
     *   T. Thonhauser, V. R. Cooper, S. Li, A. Puzder, P. Hyldgaard, and
     *   D. C. Langreth, Phys. Rev. B 76, 125112 (2007).
     *
     *   G. Roman-Perez and J. M. Soler, Phys. Rev. Lett. 103, 096102 (2009).
     *
     *
     * If you are using vdW-DF2, please also cite:
     *
     *   K. Lee, E. D. Murray, L. Kong, B. I. Lundqvist, and
     *   D. C. Langreth, Phys. Rev. B 82, 081101(R) (2010).
     *
     *
     * If you are calculating the stress with vdW-DF, please also cite:
     *
     *   R. Sabatini, E. Kucukbenli, B. Kolb, T. Thonhauser, and
     *   S. de Gironcoli, J. Phys.: Condens. Matter 24, 424209 (2012).
     *

     Carrying out vdW-DF run using the following parameters:

     Nqs =      20    Nr_points =    1024   r_max =   100.000
     q_mesh =
               0.00001000     0.04494208     0.09755937     0.15916263
               0.23128650     0.31572767     0.41458969     0.53033537
               0.66584808     0.82450364     1.01025438     1.22772762
               1.48234092     1.78043706     2.12944203     2.53805004
               3.01644009     3.57652955     4.23227104     5.00000000

     Gradients computed in reciprocal space

     Starting wfc are   36 randomized atomic wfcs +    7 random wfc

     Self-consistent Calculation

     iteration #  1     ecut=    58.80 Ry     beta=0.10
     Davidson diagonalization with overlap
     ethr =  1.00E-02,  avg # of iterations =  5.6

     total energy              =    -511.01561795 Ry
     Harris-Foulkes estimate   =    -511.05935010 Ry
     estimated scf accuracy    <       0.63701245 Ry

[...]

     total energy              =    -510.88198357 Ry
     Harris-Foulkes estimate   =    -510.88197964 Ry
     estimated scf accuracy    <       0.00000006 Ry

     iteration # 13     ecut=    58.80 Ry     beta=0.10
     Davidson diagonalization with overlap
     ethr =  1.30E-10,  avg # of iterations =  1.8

     End of self-consistent calculation

          k = 0.0000 0.0000 0.0000 (  4139 PWs)   bands (ev):

    -8.9511  -8.9511  -8.9442  -8.9442  -8.9442   2.8732   6.7379   7.5673
     7.5673   7.5673   7.5906   7.5906   9.2540   9.2540   9.2540  10.0109
    10.0109  10.4396  10.7984  10.7984  10.7984  12.1247  12.1247  12.1247
    13.3013  16.0930  16.0930  19.6573  19.6573  19.6573  21.6209  21.6209
    21.6209  25.6679  25.6679  26.6820  26.7491  26.7491  26.7491  26.9137
    29.1692  29.1692  29.1692

[...]

          k = 0.0962-0.1154-0.1154 (  4200 PWs)   bands (ev):

[...]

          k =-0.1154-0.1154-0.1154 (  4224 PWs)   bands (ev):

    -8.9506  -8.9506  -8.9506  -8.9309  -8.9309   4.7161   7.1992   7.1992
     7.1992   8.5144   8.5144   8.5144   9.3165   9.3165   9.3165   9.5390
     9.5390  10.3341  10.3341  10.3341  10.5316  10.5316  10.5316  11.4737
    12.5464  13.8538  13.8538  13.8538  24.1831  24.1831  24.1831  26.1893
    26.1893  26.1893  26.4214  27.6681  27.6681  27.6681  28.3587  28.3587
    28.8537  28.8537  31.1644

     the Fermi energy is    13.0474 ev

!    total energy              =    -510.88200046 Ry
     Harris-Foulkes estimate   =    -510.88198358 Ry
     estimated scf accuracy    <          3.6E-09 Ry

     The total energy is the sum of the following terms:

     one-electron contribution =     -27.42551186 Ry
     hartree contribution      =      64.40924934 Ry
     xc contribution           =    -236.67342034 Ry
     ewald contribution        =    -311.18895892 Ry
     smearing contrib. (-TS)   =      -0.00335868 Ry

     convergence has been achieved in  13 iterations

     Forces acting on atoms (Ry/au):

     atom    1 type  1   force =     0.00000000    0.00000000    0.00000000
     atom    2 type  1   force =     0.00000000    0.00000000    0.00000000
     atom    3 type  1   force =     0.00000000   -0.00000000   -0.00000000
     atom    4 type  2   force =     0.00000000    0.00000000    0.00000000

     Total force =     0.000000     Total SCF correction =     0.000000
 !ASE

     General routines

     Parallel routines

   This run was terminated on:   8:11:37  25Oct2017

   JOB DONE.