     Program PWSCF v.5.1rc2 (svn rev. ) starts on 25Oct2017 at 23:27:28

     Current dimensions of program PWSCF are:
     Max number of different atomic species (ntypx) = 10
     Max number of k-points (npk) =  40000
     Max angular momentum in pseudopotentials (lmaxx) =  3

     IMPORTANT: XC functional enforced from input :
     Exchange-correlation      = BEEF-VDW ( 1  4 27 13 2)
     Any further DFT definition will be discarded
     Please, verify this is what you really want

     Subspace diagonalization in iterative solution of the eigenvalue problem:
     a serial algorithm will be used

     bravais-lattice index     =            0
     lattice parameter (alat)  =       1.8897  a.u.
     unit-cell volume          =     664.4097 (a.u.)^3
     number of atoms/cell      =            4
     number of atomic types    =            2
     number of electrons       =        54.00
     number of Kohn-Sham states=           47
     kinetic-energy cutoff     =      58.7989  Ry
     charge density cutoff     =     587.9892  Ry
     convergence threshold     =      7.3E-09
     mixing beta               =       0.1000
     number of iterations used =           10  local-TF  mixing
     Exchange-correlation      = BEEF-VDW ( 1  4 27 13 2)
     nstep                     =           50

     celldm(1)=   1.889726  celldm(2)=   0.000000  celldm(3)=   0.000000
     celldm(4)=   0.000000  celldm(5)=   0.000000  celldm(6)=   0.000000

     crystal axes: (cart. coord. in units of alat)
               a(1) = (   4.617566   0.000000   0.000000 )
               a(2) = (   0.000000   4.617566   0.000000 )
               a(3) = (   0.000000   0.000000   4.617566 )

     reciprocal axes: (cart. coord. in units 2 pi/alat)
               b(1) = (  0.216564  0.000000  0.000000 )
               b(2) = (  0.000000  0.216564  0.000000 )
               b(3) = (  0.000000  0.000000  0.216564 )

     PseudoPot. # 1 for Tl read from file:
     /home/vossj/suncat/psp/gbrv1.5pbe/Tl.UPF
     MD5 check sum: b76cf1f7e72655a2b2c53cf6385d7059
     Pseudo is Ultrasoft + core correction, Zval = 13.0
     Generated by new atomic code, or converted to UPF format
     Using radial grid of  899 points,  6 beta functions with:
                l(1) =   0
                l(2) =   0
                l(3) =   1
                l(4) =   1
                l(5) =   2
                l(6) =   2
     Q(r) pseudized with  6 coefficients,  rinner =    1.100   1.100   1.100
                                                       1.100   1.100

     PseudoPot. # 2 for Ir read from file:
     /home/vossj/suncat/psp/gbrv1.5pbe/Ir.UPF
     MD5 check sum: 8836f839c3459d2b385c504ce6d91f2c
     Pseudo is Ultrasoft + core correction, Zval = 15.0
     Generated by new atomic code, or converted to UPF format
     Using radial grid of  983 points,  7 beta functions with:
                l(1) =   0
                l(2) =   0
                l(3) =   1
                l(4) =   1
                l(5) =   1
                l(6) =   2
                l(7) =   2
     Q(r) pseudized with  8 coefficients,  rinner =    1.400   1.400   1.400
                                                       1.400   1.400

     vdW kernel table read from file vdW_kernel_table
     MD5 check sum: 095c7af220d748ca6e76c0b4c6cfb241

     atomic species   valence    mass     pseudopotential
        Tl1           13.00   204.38000     Tl( 1.00)
        Ir1           15.00   192.21700     Ir( 1.00)

     48 Sym. Ops., with inversion, found (32 have fractional translation)

   Cartesian axes

     site n.     atom                  positions (alat units)
         1           Tl1 tau(   1) = (   0.0000000   0.0000000   0.0000000  )
         2           Tl1 tau(   2) = (   0.0000000   2.3087830   2.3087830  )
         3           Tl1 tau(   3) = (   2.3087830   0.0000000   2.3087830  )
         4           Ir1 tau(   4) = (   2.3087830   2.3087830   0.0000000  )

     number of k points=    84  Fermi-Dirac smearing, width (Ry)=  0.0073
                       cart. coord. in units 2pi/alat
        k(    1) = (   0.0000000   0.0000000   0.0000000), wk =   0.0011574
        k(    2) = (   0.0000000   0.0000000   0.0180470), wk =   0.0069444
        k(    3) = (   0.0000000   0.0000000   0.0360941), wk =   0.0069444
        k(    4) = (   0.0000000   0.0000000   0.0541411), wk =   0.0069444
        k(    5) = (   0.0000000   0.0000000   0.0721881), wk =   0.0069444
        k(    6) = (   0.0000000   0.0000000   0.0902351), wk =   0.0069444
        k(    7) = (   0.0000000   0.0000000  -0.1082822), wk =   0.0034722
        k(    8) = (   0.0000000   0.0180470   0.0180470), wk =   0.0138889
        k(    9) = (   0.0000000   0.0180470   0.0360941), wk =   0.0277778
        k(   10) = (   0.0000000   0.0180470   0.0541411), wk =   0.0277778
        k(   11) = (   0.0000000   0.0180470   0.0721881), wk =   0.0277778
        k(   12) = (   0.0000000   0.0180470   0.0902351), wk =   0.0277778
        k(   13) = (   0.0000000   0.0180470  -0.1082822), wk =   0.0138889
        k(   14) = (   0.0000000   0.0360941   0.0360941), wk =   0.0138889
        k(   15) = (   0.0000000   0.0360941   0.0541411), wk =   0.0277778
        k(   16) = (   0.0000000   0.0360941   0.0721881), wk =   0.0277778
        k(   17) = (   0.0000000   0.0360941   0.0902351), wk =   0.0277778
        k(   18) = (   0.0000000   0.0360941  -0.1082822), wk =   0.0138889
        k(   19) = (   0.0000000   0.0541411   0.0541411), wk =   0.0138889
        k(   20) = (   0.0000000   0.0541411   0.0721881), wk =   0.0277778
        k(   21) = (   0.0000000   0.0541411   0.0902351), wk =   0.0277778
        k(   22) = (   0.0000000   0.0541411  -0.1082822), wk =   0.0138889
        k(   23) = (   0.0000000   0.0721881   0.0721881), wk =   0.0138889
        k(   24) = (   0.0000000   0.0721881   0.0902351), wk =   0.0277778
        k(   25) = (   0.0000000   0.0721881  -0.1082822), wk =   0.0138889
        k(   26) = (   0.0000000   0.0902351   0.0902351), wk =   0.0138889
        k(   27) = (   0.0000000   0.0902351  -0.1082822), wk =   0.0138889
        k(   28) = (   0.0000000  -0.1082822  -0.1082822), wk =   0.0034722
        k(   29) = (   0.0180470   0.0180470   0.0180470), wk =   0.0092593
        k(   30) = (   0.0180470   0.0180470   0.0360941), wk =   0.0277778
        k(   31) = (   0.0180470   0.0180470   0.0541411), wk =   0.0277778
        k(   32) = (   0.0180470   0.0180470   0.0721881), wk =   0.0277778
        k(   33) = (   0.0180470   0.0180470   0.0902351), wk =   0.0277778
        k(   34) = (   0.0180470   0.0180470  -0.1082822), wk =   0.0138889
        k(   35) = (   0.0180470   0.0360941   0.0360941), wk =   0.0277778
        k(   36) = (   0.0180470   0.0360941   0.0541411), wk =   0.0555556
        k(   37) = (   0.0180470   0.0360941   0.0721881), wk =   0.0555556
        k(   38) = (   0.0180470   0.0360941   0.0902351), wk =   0.0555556
        k(   39) = (   0.0180470   0.0360941  -0.1082822), wk =   0.0277778
        k(   40) = (   0.0180470   0.0541411   0.0541411), wk =   0.0277778
        k(   41) = (   0.0180470   0.0541411   0.0721881), wk =   0.0555556
        k(   42) = (   0.0180470   0.0541411   0.0902351), wk =   0.0555556
        k(   43) = (   0.0180470   0.0541411  -0.1082822), wk =   0.0277778
        k(   44) = (   0.0180470   0.0721881   0.0721881), wk =   0.0277778
        k(   45) = (   0.0180470   0.0721881   0.0902351), wk =   0.0555556
        k(   46) = (   0.0180470   0.0721881  -0.1082822), wk =   0.0277778
        k(   47) = (   0.0180470   0.0902351   0.0902351), wk =   0.0277778
        k(   48) = (   0.0180470   0.0902351  -0.1082822), wk =   0.0277778
        k(   49) = (   0.0180470  -0.1082822  -0.1082822), wk =   0.0069444
        k(   50) = (   0.0360941   0.0360941   0.0360941), wk =   0.0092593
        k(   51) = (   0.0360941   0.0360941   0.0541411), wk =   0.0277778
        k(   52) = (   0.0360941   0.0360941   0.0721881), wk =   0.0277778
        k(   53) = (   0.0360941   0.0360941   0.0902351), wk =   0.0277778
        k(   54) = (   0.0360941   0.0360941  -0.1082822), wk =   0.0138889
        k(   55) = (   0.0360941   0.0541411   0.0541411), wk =   0.0277778
        k(   56) = (   0.0360941   0.0541411   0.0721881), wk =   0.0555556
        k(   57) = (   0.0360941   0.0541411   0.0902351), wk =   0.0555556
        k(   58) = (   0.0360941   0.0541411  -0.1082822), wk =   0.0277778
        k(   59) = (   0.0360941   0.0721881   0.0721881), wk =   0.0277778
        k(   60) = (   0.0360941   0.0721881   0.0902351), wk =   0.0555556
[...]
        k(   70) = (   0.0541411   0.0721881   0.0902351), wk =   0.0555556
        k(   71) = (   0.0541411   0.0721881  -0.1082822), wk =   0.0277778
        k(   72) = (   0.0541411   0.0902351   0.0902351), wk =   0.0277778
        k(   73) = (   0.0541411   0.0902351  -0.1082822), wk =   0.0277778
        k(   74) = (   0.0541411  -0.1082822  -0.1082822), wk =   0.0069444
        k(   75) = (   0.0721881   0.0721881   0.0721881), wk =   0.0092593
        k(   76) = (   0.0721881   0.0721881   0.0902351), wk =   0.0277778
        k(   77) = (   0.0721881   0.0721881  -0.1082822), wk =   0.0138889
        k(   78) = (   0.0721881   0.0902351   0.0902351), wk =   0.0277778
        k(   79) = (   0.0721881   0.0902351  -0.1082822), wk =   0.0277778
        k(   80) = (   0.0721881  -0.1082822  -0.1082822), wk =   0.0069444
        k(   81) = (   0.0902351   0.0902351   0.0902351), wk =   0.0092593
        k(   82) = (   0.0902351   0.0902351  -0.1082822), wk =   0.0138889
        k(   83) = (   0.0902351  -0.1082822  -0.1082822), wk =   0.0069444
        k(   84) = (  -0.1082822  -0.1082822  -0.1082822), wk =   0.0011574

     Largest allocated arrays     est. size (Mb)     dimensions
     Largest temporary arrays     est. size (Mb)     dimensions

     Initial potential from superposition of free atoms
     Check: negative starting charge=   -0.513720

     starting charge   53.48537, renormalised to   54.00000

     negative rho (up, down):  5.187E-01 0.000E+00

     *
     * You are using vdW-DF for exchange-correlation in this calculation.
     * Please cite the following three references that made this development
     * possible:
     *
     *   M. Dion, H. Rydberg, E. Schroder, D. C. Langreth, and
     *   B. I. Lundqvist, Phys. Rev. Lett. 92, 246401 (2004).
     *
     *   T. Thonhauser, V. R. Cooper, S. Li, A. Puzder, P. Hyldgaard, and
     *   D. C. Langreth, Phys. Rev. B 76, 125112 (2007).
     *
     *   G. Roman-Perez and J. M. Soler, Phys. Rev. Lett. 103, 096102 (2009).
     *
     *
     * If you are using vdW-DF2, please also cite:
     *
     *   K. Lee, E. D. Murray, L. Kong, B. I. Lundqvist, and
     *   D. C. Langreth, Phys. Rev. B 82, 081101(R) (2010).
     *
     *
     * If you are calculating the stress with vdW-DF, please also cite:
     *
     *   R. Sabatini, E. Kucukbenli, B. Kolb, T. Thonhauser, and
     *   S. de Gironcoli, J. Phys.: Condens. Matter 24, 424209 (2012).
     *

     Carrying out vdW-DF run using the following parameters:

     Nqs =      20    Nr_points =    1024   r_max =   100.000
     q_mesh =
               0.00001000     0.04494208     0.09755937     0.15916263
               0.23128650     0.31572767     0.41458969     0.53033537
               0.66584808     0.82450364     1.01025438     1.22772762
               1.48234092     1.78043706     2.12944203     2.53805004
               3.01644009     3.57652955     4.23227104     5.00000000

     Gradients computed in reciprocal space

     Starting wfc are   39 randomized atomic wfcs +    8 random wfc

     Self-consistent Calculation

     iteration #  1     ecut=    58.80 Ry     beta=0.10
     Davidson diagonalization with overlap
     ethr =  1.00E-02,  avg # of iterations =  5.0

     Threshold (ethr) on eigenvalues was too large:
     Diagonalizing with lowered threshold

     Davidson diagonalization with overlap
     ethr =  4.10E-04,  avg # of iterations =  1.3

[...]

     total energy              =    -623.66434791 Ry
     Harris-Foulkes estimate   =    -623.67528699 Ry
     estimated scf accuracy    <       0.22288340 Ry

[...]

     total energy              =    -623.62049119 Ry
     Harris-Foulkes estimate   =    -623.62041540 Ry
     estimated scf accuracy    <       0.00000007 Ry

     iteration # 17     ecut=    58.80 Ry     beta=0.10
     Davidson diagonalization with overlap
     ethr =  1.20E-10,  avg # of iterations =  2.0

     negative rho (up, down):  4.981E-01 0.000E+00

     End of self-consistent calculation

          k = 0.0000 0.0000 0.0000 (  5041 PWs)   bands (ev):

   -35.3063 -35.3063 -35.3063   0.0623   0.1833   0.1833   0.1833   0.5343
     0.5343   0.9082   0.9082   0.9082   0.9863   0.9863   1.2849   1.2925
     1.2925   1.2925   2.4619   8.9068   8.9068  11.2691  11.2691  11.2691
    11.6329  11.6329  11.6329  12.4815  12.4815  13.7371  17.5682  17.5682
    17.5682  18.7764  18.7764  18.7764  22.3554  23.1443  23.1444  24.1284
    24.1284  24.1284  24.5774  24.8519  25.8190  25.8190  25.8190

[...]

          k = 0.0902-0.1083-0.1083 (  5020 PWs)   bands (ev):

[...]

          k =-0.1083-0.1083-0.1083 (  5040 PWs)   bands (ev):

   -35.3066 -35.3066 -35.3066   0.2904   0.2904   0.2904   0.4425   0.5619
     0.5619   0.5619   0.8511   0.8511   0.8512   1.0214   1.0214   1.2527
     1.2527   1.2527   6.9861   6.9861   6.9861   9.1088  10.4157  10.4157
    10.4157  11.7885  11.7885  12.2096  12.4778  12.4778  12.4778  21.9676
    21.9676  22.4836  22.4836  22.4836  23.6180  23.9602  23.9602  23.9602
    24.8500  25.1391  25.1391  25.1391  27.4116  27.4116  27.4116

     the Fermi energy is    12.3393 ev

!    total energy              =    -623.62081134 Ry
     Harris-Foulkes estimate   =    -623.62049106 Ry
     estimated scf accuracy    <          4.3E-09 Ry

     The total energy is the sum of the following terms:

     one-electron contribution =     -83.42593992 Ry
     hartree contribution      =      87.76121702 Ry
     xc contribution           =    -244.13528840 Ry
     ewald contribution        =    -383.81316532 Ry
     smearing contrib. (-TS)   =      -0.00763472 Ry

     convergence has been achieved in  17 iterations

     Forces acting on atoms (Ry/au):

     negative rho (up, down):  4.981E-01 0.000E+00
     atom    1 type  1   force =     0.00000000    0.00000000    0.00000000
     atom    2 type  1   force =     0.00000000    0.00000000    0.00000000
     atom    3 type  1   force =     0.00000000    0.00000000    0.00000000
     atom    4 type  2   force =     0.00000000    0.00000000    0.00000000

     Total force =     0.000000     Total SCF correction =     0.000000
 !ASE

     General routines

     Parallel routines

   This run was terminated on:  23:29:15  25Oct2017

   JOB DONE.