     Program PWSCF v.5.1rc2 (svn rev. ) starts on 25Oct2017 at  5: 5:30

     Current dimensions of program PWSCF are:
     Max number of different atomic species (ntypx) = 10
     Max number of k-points (npk) =  40000
     Max angular momentum in pseudopotentials (lmaxx) =  3

     IMPORTANT: XC functional enforced from input :
     Exchange-correlation      = BEEF-VDW ( 1  4 27 13 2)
     Any further DFT definition will be discarded
     Please, verify this is what you really want

     Subspace diagonalization in iterative solution of the eigenvalue problem:
     a serial algorithm will be used

     bravais-lattice index     =            0
     lattice parameter (alat)  =       1.8897  a.u.
     unit-cell volume          =     609.2961 (a.u.)^3
     number of atoms/cell      =            4
     number of atomic types    =            2
     number of electrons       =        50.00
     number of Kohn-Sham states=           45
     kinetic-energy cutoff     =      58.7989  Ry
     charge density cutoff     =     587.9892  Ry
     convergence threshold     =      7.3E-09
     mixing beta               =       0.1000
     number of iterations used =           10  local-TF  mixing
     Exchange-correlation      = BEEF-VDW ( 1  4 27 13 2)
     nstep                     =           50

     celldm(1)=   1.889726  celldm(2)=   0.000000  celldm(3)=   0.000000
     celldm(4)=   0.000000  celldm(5)=   0.000000  celldm(6)=   0.000000

     crystal axes: (cart. coord. in units of alat)
               a(1) = (   4.486186   0.000000   0.000000 )
               a(2) = (   0.000000   4.486186   0.000000 )
               a(3) = (   0.000000   0.000000   4.486186 )

     reciprocal axes: (cart. coord. in units 2 pi/alat)
               b(1) = (  0.222906  0.000000  0.000000 )
               b(2) = (  0.000000  0.222906  0.000000 )
               b(3) = (  0.000000  0.000000  0.222906 )

     PseudoPot. # 1 for Hf read from file:
     /home/vossj/suncat/psp/gbrv1.5pbe/Hf.UPF
     MD5 check sum: 8ee9378dfe14276e333edf04c5e4aa26
     Pseudo is Ultrasoft + core correction, Zval = 12.0
     Generated by new atomic code, or converted to UPF format
     Using radial grid of  921 points,  8 beta functions with:
                l(1) =   0
                l(2) =   0
                l(3) =   0
                l(4) =   1
                l(5) =   1
                l(6) =   2
                l(7) =   2
                l(8) =   3
     Q(r) pseudized with  6 coefficients,  rinner =    1.200   1.200   1.200
                                                       1.200   1.200   1.200
                                                       1.200

     PseudoPot. # 2 for Pb read from file:
     /home/vossj/suncat/psp/gbrv1.5pbe/Pb.UPF
     MD5 check sum: 3d1c1779aa92214d1e8f3a7db79003e2
     Pseudo is Ultrasoft + core correction, Zval = 14.0
     Generated by new atomic code, or converted to UPF format
     Using radial grid of  899 points,  6 beta functions with:
                l(1) =   0
                l(2) =   0
                l(3) =   1
                l(4) =   1
                l(5) =   2
                l(6) =   2
     Q(r) pseudized with  6 coefficients,  rinner =    1.000   1.000   1.000
                                                       1.000   1.000

     vdW kernel table read from file vdW_kernel_table
     MD5 check sum: 095c7af220d748ca6e76c0b4c6cfb241

     atomic species   valence    mass     pseudopotential
        Hf1           12.00   178.49000     Hf( 1.00)
        Pb1           14.00   207.20000     Pb( 1.00)

     48 Sym. Ops., with inversion, found (32 have fractional translation)

   Cartesian axes

     site n.     atom                  positions (alat units)
         1           Hf1 tau(   1) = (   0.0000000   0.0000000   0.0000000  )
         2           Hf1 tau(   2) = (   0.0000000   2.2430930   2.2430930  )
         3           Hf1 tau(   3) = (   2.2430930   0.0000000   2.2430930  )
         4           Pb1 tau(   4) = (   2.2430930   2.2430930   0.0000000  )

     number of k points=    84  Fermi-Dirac smearing, width (Ry)=  0.0073
                       cart. coord. in units 2pi/alat
        k(    1) = (   0.0000000   0.0000000   0.0000000), wk =   0.0011574
        k(    2) = (   0.0000000   0.0000000   0.0185755), wk =   0.0069444
        k(    3) = (   0.0000000   0.0000000   0.0371511), wk =   0.0069444
        k(    4) = (   0.0000000   0.0000000   0.0557266), wk =   0.0069444
        k(    5) = (   0.0000000   0.0000000   0.0743022), wk =   0.0069444
        k(    6) = (   0.0000000   0.0000000   0.0928777), wk =   0.0069444
        k(    7) = (   0.0000000   0.0000000  -0.1114532), wk =   0.0034722
        k(    8) = (   0.0000000   0.0185755   0.0185755), wk =   0.0138889
        k(    9) = (   0.0000000   0.0185755   0.0371511), wk =   0.0277778
        k(   10) = (   0.0000000   0.0185755   0.0557266), wk =   0.0277778
        k(   11) = (   0.0000000   0.0185755   0.0743022), wk =   0.0277778
        k(   12) = (   0.0000000   0.0185755   0.0928777), wk =   0.0277778
        k(   13) = (   0.0000000   0.0185755  -0.1114532), wk =   0.0138889
        k(   14) = (   0.0000000   0.0371511   0.0371511), wk =   0.0138889
        k(   15) = (   0.0000000   0.0371511   0.0557266), wk =   0.0277778
        k(   16) = (   0.0000000   0.0371511   0.0743022), wk =   0.0277778
        k(   17) = (   0.0000000   0.0371511   0.0928777), wk =   0.0277778
        k(   18) = (   0.0000000   0.0371511  -0.1114532), wk =   0.0138889
        k(   19) = (   0.0000000   0.0557266   0.0557266), wk =   0.0138889
        k(   20) = (   0.0000000   0.0557266   0.0743022), wk =   0.0277778
        k(   21) = (   0.0000000   0.0557266   0.0928777), wk =   0.0277778
        k(   22) = (   0.0000000   0.0557266  -0.1114532), wk =   0.0138889
        k(   23) = (   0.0000000   0.0743022   0.0743022), wk =   0.0138889
        k(   24) = (   0.0000000   0.0743022   0.0928777), wk =   0.0277778
        k(   25) = (   0.0000000   0.0743022  -0.1114532), wk =   0.0138889
        k(   26) = (   0.0000000   0.0928777   0.0928777), wk =   0.0138889
        k(   27) = (   0.0000000   0.0928777  -0.1114532), wk =   0.0138889
        k(   28) = (   0.0000000  -0.1114532  -0.1114532), wk =   0.0034722
        k(   29) = (   0.0185755   0.0185755   0.0185755), wk =   0.0092593
        k(   30) = (   0.0185755   0.0185755   0.0371511), wk =   0.0277778
        k(   31) = (   0.0185755   0.0185755   0.0557266), wk =   0.0277778
        k(   32) = (   0.0185755   0.0185755   0.0743022), wk =   0.0277778
        k(   33) = (   0.0185755   0.0185755   0.0928777), wk =   0.0277778
        k(   34) = (   0.0185755   0.0185755  -0.1114532), wk =   0.0138889
        k(   35) = (   0.0185755   0.0371511   0.0371511), wk =   0.0277778
        k(   36) = (   0.0185755   0.0371511   0.0557266), wk =   0.0555556
        k(   37) = (   0.0185755   0.0371511   0.0743022), wk =   0.0555556
        k(   38) = (   0.0185755   0.0371511   0.0928777), wk =   0.0555556
        k(   39) = (   0.0185755   0.0371511  -0.1114532), wk =   0.0277778
        k(   40) = (   0.0185755   0.0557266   0.0557266), wk =   0.0277778
        k(   41) = (   0.0185755   0.0557266   0.0743022), wk =   0.0555556
        k(   42) = (   0.0185755   0.0557266   0.0928777), wk =   0.0555556
        k(   43) = (   0.0185755   0.0557266  -0.1114532), wk =   0.0277778
        k(   44) = (   0.0185755   0.0743022   0.0743022), wk =   0.0277778
        k(   45) = (   0.0185755   0.0743022   0.0928777), wk =   0.0555556
        k(   46) = (   0.0185755   0.0743022  -0.1114532), wk =   0.0277778
        k(   47) = (   0.0185755   0.0928777   0.0928777), wk =   0.0277778
        k(   48) = (   0.0185755   0.0928777  -0.1114532), wk =   0.0277778
        k(   49) = (   0.0185755  -0.1114532  -0.1114532), wk =   0.0069444
        k(   50) = (   0.0371511   0.0371511   0.0371511), wk =   0.0092593
        k(   51) = (   0.0371511   0.0371511   0.0557266), wk =   0.0277778
        k(   52) = (   0.0371511   0.0371511   0.0743022), wk =   0.0277778
        k(   53) = (   0.0371511   0.0371511   0.0928777), wk =   0.0277778
        k(   54) = (   0.0371511   0.0371511  -0.1114532), wk =   0.0138889
        k(   55) = (   0.0371511   0.0557266   0.0557266), wk =   0.0277778
        k(   56) = (   0.0371511   0.0557266   0.0743022), wk =   0.0555556
        k(   57) = (   0.0371511   0.0557266   0.0928777), wk =   0.0555556
        k(   58) = (   0.0371511   0.0557266  -0.1114532), wk =   0.0277778
        k(   59) = (   0.0371511   0.0743022   0.0743022), wk =   0.0277778
        k(   60) = (   0.0371511   0.0743022   0.0928777), wk =   0.0555556
[...]
        k(   70) = (   0.0557266   0.0743022   0.0928777), wk =   0.0555556
        k(   71) = (   0.0557266   0.0743022  -0.1114532), wk =   0.0277778
        k(   72) = (   0.0557266   0.0928777   0.0928777), wk =   0.0277778
        k(   73) = (   0.0557266   0.0928777  -0.1114532), wk =   0.0277778
        k(   74) = (   0.0557266  -0.1114532  -0.1114532), wk =   0.0069444
        k(   75) = (   0.0743022   0.0743022   0.0743022), wk =   0.0092593
        k(   76) = (   0.0743022   0.0743022   0.0928777), wk =   0.0277778
        k(   77) = (   0.0743022   0.0743022  -0.1114532), wk =   0.0138889
        k(   78) = (   0.0743022   0.0928777   0.0928777), wk =   0.0277778
        k(   79) = (   0.0743022   0.0928777  -0.1114532), wk =   0.0277778
        k(   80) = (   0.0743022  -0.1114532  -0.1114532), wk =   0.0069444
        k(   81) = (   0.0928777   0.0928777   0.0928777), wk =   0.0092593
        k(   82) = (   0.0928777   0.0928777  -0.1114532), wk =   0.0138889
        k(   83) = (   0.0928777  -0.1114532  -0.1114532), wk =   0.0069444
        k(   84) = (  -0.1114532  -0.1114532  -0.1114532), wk =   0.0011574

     Largest allocated arrays     est. size (Mb)     dimensions
     Largest temporary arrays     est. size (Mb)     dimensions

     Initial potential from superposition of free atoms
     Check: negative starting charge=   -0.337682

     starting charge   43.99764, renormalised to   50.00000

     negative rho (up, down):  3.838E-01 0.000E+00

     *
     * You are using vdW-DF for exchange-correlation in this calculation.
     * Please cite the following three references that made this development
     * possible:
     *
     *   M. Dion, H. Rydberg, E. Schroder, D. C. Langreth, and
     *   B. I. Lundqvist, Phys. Rev. Lett. 92, 246401 (2004).
     *
     *   T. Thonhauser, V. R. Cooper, S. Li, A. Puzder, P. Hyldgaard, and
     *   D. C. Langreth, Phys. Rev. B 76, 125112 (2007).
     *
     *   G. Roman-Perez and J. M. Soler, Phys. Rev. Lett. 103, 096102 (2009).
     *
     *
     * If you are using vdW-DF2, please also cite:
     *
     *   K. Lee, E. D. Murray, L. Kong, B. I. Lundqvist, and
     *   D. C. Langreth, Phys. Rev. B 82, 081101(R) (2010).
     *
     *
     * If you are calculating the stress with vdW-DF, please also cite:
     *
     *   R. Sabatini, E. Kucukbenli, B. Kolb, T. Thonhauser, and
     *   S. de Gironcoli, J. Phys.: Condens. Matter 24, 424209 (2012).
     *

     Carrying out vdW-DF run using the following parameters:

     Nqs =      20    Nr_points =    1024   r_max =   100.000
     q_mesh =
               0.00001000     0.04494208     0.09755937     0.15916263
               0.23128650     0.31572767     0.41458969     0.53033537
               0.66584808     0.82450364     1.01025438     1.22772762
               1.48234092     1.78043706     2.12944203     2.53805004
               3.01644009     3.57652955     4.23227104     5.00000000

     Gradients computed in reciprocal space

     Starting wfc are   48 randomized atomic wfcs

     Self-consistent Calculation

     iteration #  1     ecut=    58.80 Ry     beta=0.10
     Davidson diagonalization with overlap
     ethr =  1.00E-02,  avg # of iterations =  4.0

[...]

     total energy              =    -650.21279635 Ry
     Harris-Foulkes estimate   =    -650.58119288 Ry
     estimated scf accuracy    <       6.88808676 Ry

[...]

     total energy              =    -647.81494713 Ry
     Harris-Foulkes estimate   =    -647.81490361 Ry
     estimated scf accuracy    <       0.00000001 Ry

     iteration # 13     ecut=    58.80 Ry     beta=0.10
     Davidson diagonalization with overlap
     ethr =  2.30E-11,  avg # of iterations =  2.0

     negative rho (up, down):  3.695E-01 0.000E+00

     End of self-consistent calculation

          k = 0.0000 0.0000 0.0000 (  4697 PWs)   bands (ev):

   -47.6591 -47.6023 -47.6016 -16.4382 -16.4382 -16.4381 -16.2085 -16.2085
   -16.2080 -15.8514 -15.8508 -15.8508  -2.3858  -2.3858  -2.3815  -2.3815
    -2.3815   4.2526  10.6085  12.5996  12.5999  13.4314  13.4314  13.4316
    14.2149  14.2149  14.2149  16.8135  17.3769  17.3773  17.3773  19.4647
    19.4650  20.5222  21.3441  21.3441  21.3445  21.6515  21.6516  21.6516
    24.0992  24.0992  24.0993  24.3650  24.3650

[...]

          k = 0.0929-0.1115-0.1115 (  4656 PWs)   bands (ev):

[...]

          k =-0.1115-0.1115-0.1115 (  4680 PWs)   bands (ev):

   -47.6215 -47.6204 -47.6204 -16.4821 -16.4821 -16.4816 -16.4371 -16.0364
   -16.0364 -16.0358 -15.7818 -15.7812  -2.3951  -2.3951  -2.3951  -2.3293
    -2.3293   5.6445  11.8827  11.8828  11.8828  12.4424  12.4424  12.4426
    15.3321  15.6068  15.6071  15.6071  17.1520  17.1526  17.1526  17.6876
    18.1124  18.1128  20.6561  20.6561  20.6561  22.9125  22.9125  22.9125
    24.5917  24.5917  24.5918  25.4140  25.4241

     the Fermi energy is    14.7701 ev

!    total energy              =    -647.81515448 Ry
     Harris-Foulkes estimate   =    -647.81494713 Ry
     estimated scf accuracy    <          3.4E-09 Ry

     The total energy is the sum of the following terms:

     one-electron contribution =     -75.38188189 Ry
     hartree contribution      =      64.05306537 Ry
     xc contribution           =    -297.66830874 Ry
     ewald contribution        =    -338.80837028 Ry
     smearing contrib. (-TS)   =      -0.00965894 Ry

     convergence has been achieved in  13 iterations

     Forces acting on atoms (Ry/au):

     negative rho (up, down):  3.695E-01 0.000E+00
     atom    1 type  1   force =     0.00000000    0.00000000    0.00000000
     atom    2 type  1   force =     0.00000000    0.00000000    0.00000000
     atom    3 type  1   force =     0.00000000    0.00000000    0.00000000
     atom    4 type  2   force =     0.00000000    0.00000000    0.00000000

     Total force =     0.000000     Total SCF correction =     0.000000
 !ASE

     General routines

     Parallel routines

   This run was terminated on:   5: 6:43  25Oct2017

   JOB DONE.