     Program PWSCF v.5.1rc2 (svn rev. ) starts on 25Oct2017 at  2:38:14

     Current dimensions of program PWSCF are:
     Max number of different atomic species (ntypx) = 10
     Max number of k-points (npk) =  40000
     Max angular momentum in pseudopotentials (lmaxx) =  3

     IMPORTANT: XC functional enforced from input :
     Exchange-correlation      = BEEF-VDW ( 1  4 27 13 2)
     Any further DFT definition will be discarded
     Please, verify this is what you really want

     Subspace diagonalization in iterative solution of the eigenvalue problem:
     a serial algorithm will be used

     bravais-lattice index     =            0
     lattice parameter (alat)  =       1.8897  a.u.
     unit-cell volume          =     640.5518 (a.u.)^3
     number of atoms/cell      =            4
     number of atomic types    =            2
     number of electrons       =        45.00
     number of Kohn-Sham states=           42
     kinetic-energy cutoff     =      58.7989  Ry
     charge density cutoff     =     587.9892  Ry
     convergence threshold     =      7.3E-09
     mixing beta               =       0.1000
     number of iterations used =           10  local-TF  mixing
     Exchange-correlation      = BEEF-VDW ( 1  4 27 13 2)
     nstep                     =           50

     celldm(1)=   1.889726  celldm(2)=   0.000000  celldm(3)=   0.000000
     celldm(4)=   0.000000  celldm(5)=   0.000000  celldm(6)=   0.000000

     crystal axes: (cart. coord. in units of alat)
               a(1) = (   4.561621   0.000000   0.000000 )
               a(2) = (   0.000000   4.561621   0.000000 )
               a(3) = (   0.000000   0.000000   4.561621 )

     reciprocal axes: (cart. coord. in units 2 pi/alat)
               b(1) = (  0.219220  0.000000  0.000000 )
               b(2) = (  0.000000  0.219220  0.000000 )
               b(3) = (  0.000000  0.000000  0.219220 )

     PseudoPot. # 1 for Sc read from file:
     /home/vossj/suncat/psp/gbrv1.5pbe/Sc.UPF
     MD5 check sum: db30a2753ba66ef00f23801d899b7e7f
     Pseudo is Ultrasoft + core correction, Zval = 11.0
     Generated by new atomic code, or converted to UPF format
     Using radial grid of  849 points,  6 beta functions with:
                l(1) =   0
                l(2) =   0
                l(3) =   1
                l(4) =   1
                l(5) =   2
                l(6) =   2
     Q(r) pseudized with  6 coefficients,  rinner =    1.200   1.200   1.200
                                                       1.200   1.200

     PseudoPot. # 2 for Zr read from file:
     /home/vossj/suncat/psp/gbrv1.5pbe/Zr.UPF
     MD5 check sum: 5db81b1e868ab7776c4564c113de050b
     Pseudo is Ultrasoft + core correction, Zval = 12.0
     Generated by new atomic code, or converted to UPF format
     Using radial grid of  887 points,  6 beta functions with:
                l(1) =   0
                l(2) =   0
                l(3) =   1
                l(4) =   1
                l(5) =   2
                l(6) =   2
     Q(r) pseudized with  6 coefficients,  rinner =    1.200   1.200   1.200
                                                       1.200   1.200

     vdW kernel table read from file vdW_kernel_table
     MD5 check sum: 095c7af220d748ca6e76c0b4c6cfb241

     atomic species   valence    mass     pseudopotential
        Sc1           11.00    44.95591     Sc( 1.00)
        Zr1           12.00    91.22400     Zr( 1.00)

     48 Sym. Ops., with inversion, found (32 have fractional translation)

   Cartesian axes

     site n.     atom                  positions (alat units)
         1           Sc1 tau(   1) = (   0.0000000   0.0000000   0.0000000  )
         2           Sc1 tau(   2) = (   0.0000000   2.2808106   2.2808106  )
         3           Sc1 tau(   3) = (   2.2808106   0.0000000   2.2808106  )
         4           Zr1 tau(   4) = (   2.2808106   2.2808106   0.0000000  )

     number of k points=    84  Fermi-Dirac smearing, width (Ry)=  0.0073
                       cart. coord. in units 2pi/alat
        k(    1) = (   0.0000000   0.0000000   0.0000000), wk =   0.0011574
        k(    2) = (   0.0000000   0.0000000   0.0182684), wk =   0.0069444
        k(    3) = (   0.0000000   0.0000000   0.0365367), wk =   0.0069444
        k(    4) = (   0.0000000   0.0000000   0.0548051), wk =   0.0069444
        k(    5) = (   0.0000000   0.0000000   0.0730734), wk =   0.0069444
        k(    6) = (   0.0000000   0.0000000   0.0913418), wk =   0.0069444
        k(    7) = (   0.0000000   0.0000000  -0.1096102), wk =   0.0034722
        k(    8) = (   0.0000000   0.0182684   0.0182684), wk =   0.0138889
        k(    9) = (   0.0000000   0.0182684   0.0365367), wk =   0.0277778
        k(   10) = (   0.0000000   0.0182684   0.0548051), wk =   0.0277778
        k(   11) = (   0.0000000   0.0182684   0.0730734), wk =   0.0277778
        k(   12) = (   0.0000000   0.0182684   0.0913418), wk =   0.0277778
        k(   13) = (   0.0000000   0.0182684  -0.1096102), wk =   0.0138889
        k(   14) = (   0.0000000   0.0365367   0.0365367), wk =   0.0138889
        k(   15) = (   0.0000000   0.0365367   0.0548051), wk =   0.0277778
        k(   16) = (   0.0000000   0.0365367   0.0730734), wk =   0.0277778
        k(   17) = (   0.0000000   0.0365367   0.0913418), wk =   0.0277778
        k(   18) = (   0.0000000   0.0365367  -0.1096102), wk =   0.0138889
        k(   19) = (   0.0000000   0.0548051   0.0548051), wk =   0.0138889
        k(   20) = (   0.0000000   0.0548051   0.0730734), wk =   0.0277778
        k(   21) = (   0.0000000   0.0548051   0.0913418), wk =   0.0277778
        k(   22) = (   0.0000000   0.0548051  -0.1096102), wk =   0.0138889
        k(   23) = (   0.0000000   0.0730734   0.0730734), wk =   0.0138889
        k(   24) = (   0.0000000   0.0730734   0.0913418), wk =   0.0277778
        k(   25) = (   0.0000000   0.0730734  -0.1096102), wk =   0.0138889
        k(   26) = (   0.0000000   0.0913418   0.0913418), wk =   0.0138889
        k(   27) = (   0.0000000   0.0913418  -0.1096102), wk =   0.0138889
        k(   28) = (   0.0000000  -0.1096102  -0.1096102), wk =   0.0034722
        k(   29) = (   0.0182684   0.0182684   0.0182684), wk =   0.0092593
        k(   30) = (   0.0182684   0.0182684   0.0365367), wk =   0.0277778
        k(   31) = (   0.0182684   0.0182684   0.0548051), wk =   0.0277778
        k(   32) = (   0.0182684   0.0182684   0.0730734), wk =   0.0277778
        k(   33) = (   0.0182684   0.0182684   0.0913418), wk =   0.0277778
        k(   34) = (   0.0182684   0.0182684  -0.1096102), wk =   0.0138889
        k(   35) = (   0.0182684   0.0365367   0.0365367), wk =   0.0277778
        k(   36) = (   0.0182684   0.0365367   0.0548051), wk =   0.0555556
        k(   37) = (   0.0182684   0.0365367   0.0730734), wk =   0.0555556
        k(   38) = (   0.0182684   0.0365367   0.0913418), wk =   0.0555556
        k(   39) = (   0.0182684   0.0365367  -0.1096102), wk =   0.0277778
        k(   40) = (   0.0182684   0.0548051   0.0548051), wk =   0.0277778
        k(   41) = (   0.0182684   0.0548051   0.0730734), wk =   0.0555556
        k(   42) = (   0.0182684   0.0548051   0.0913418), wk =   0.0555556
        k(   43) = (   0.0182684   0.0548051  -0.1096102), wk =   0.0277778
        k(   44) = (   0.0182684   0.0730734   0.0730734), wk =   0.0277778
        k(   45) = (   0.0182684   0.0730734   0.0913418), wk =   0.0555556
        k(   46) = (   0.0182684   0.0730734  -0.1096102), wk =   0.0277778
        k(   47) = (   0.0182684   0.0913418   0.0913418), wk =   0.0277778
        k(   48) = (   0.0182684   0.0913418  -0.1096102), wk =   0.0277778
        k(   49) = (   0.0182684  -0.1096102  -0.1096102), wk =   0.0069444
        k(   50) = (   0.0365367   0.0365367   0.0365367), wk =   0.0092593
        k(   51) = (   0.0365367   0.0365367   0.0548051), wk =   0.0277778
        k(   52) = (   0.0365367   0.0365367   0.0730734), wk =   0.0277778
        k(   53) = (   0.0365367   0.0365367   0.0913418), wk =   0.0277778
        k(   54) = (   0.0365367   0.0365367  -0.1096102), wk =   0.0138889
        k(   55) = (   0.0365367   0.0548051   0.0548051), wk =   0.0277778
        k(   56) = (   0.0365367   0.0548051   0.0730734), wk =   0.0555556
        k(   57) = (   0.0365367   0.0548051   0.0913418), wk =   0.0555556
        k(   58) = (   0.0365367   0.0548051  -0.1096102), wk =   0.0277778
        k(   59) = (   0.0365367   0.0730734   0.0730734), wk =   0.0277778
        k(   60) = (   0.0365367   0.0730734   0.0913418), wk =   0.0555556
[...]
        k(   70) = (   0.0548051   0.0730734   0.0913418), wk =   0.0555556
        k(   71) = (   0.0548051   0.0730734  -0.1096102), wk =   0.0277778
        k(   72) = (   0.0548051   0.0913418   0.0913418), wk =   0.0277778
        k(   73) = (   0.0548051   0.0913418  -0.1096102), wk =   0.0277778
        k(   74) = (   0.0548051  -0.1096102  -0.1096102), wk =   0.0069444
        k(   75) = (   0.0730734   0.0730734   0.0730734), wk =   0.0092593
        k(   76) = (   0.0730734   0.0730734   0.0913418), wk =   0.0277778
        k(   77) = (   0.0730734   0.0730734  -0.1096102), wk =   0.0138889
        k(   78) = (   0.0730734   0.0913418   0.0913418), wk =   0.0277778
        k(   79) = (   0.0730734   0.0913418  -0.1096102), wk =   0.0277778
        k(   80) = (   0.0730734  -0.1096102  -0.1096102), wk =   0.0069444
        k(   81) = (   0.0913418   0.0913418   0.0913418), wk =   0.0092593
        k(   82) = (   0.0913418   0.0913418  -0.1096102), wk =   0.0138889
        k(   83) = (   0.0913418  -0.1096102  -0.1096102), wk =   0.0069444
        k(   84) = (  -0.1096102  -0.1096102  -0.1096102), wk =   0.0011574

     Largest allocated arrays     est. size (Mb)     dimensions
     Largest temporary arrays     est. size (Mb)     dimensions

     Initial potential from superposition of free atoms
     Check: negative starting charge=   -0.060804

     starting charge   44.99064, renormalised to   45.00000

     negative rho (up, down):  6.082E-02 0.000E+00

     *
     * You are using vdW-DF for exchange-correlation in this calculation.
     * Please cite the following three references that made this development
     * possible:
     *
     *   M. Dion, H. Rydberg, E. Schroder, D. C. Langreth, and
     *   B. I. Lundqvist, Phys. Rev. Lett. 92, 246401 (2004).
     *
     *   T. Thonhauser, V. R. Cooper, S. Li, A. Puzder, P. Hyldgaard, and
     *   D. C. Langreth, Phys. Rev. B 76, 125112 (2007).
     *
     *   G. Roman-Perez and J. M. Soler, Phys. Rev. Lett. 103, 096102 (2009).
     *
     *
     * If you are using vdW-DF2, please also cite:
     *
     *   K. Lee, E. D. Murray, L. Kong, B. I. Lundqvist, and
     *   D. C. Langreth, Phys. Rev. B 82, 081101(R) (2010).
     *
     *
     * If you are calculating the stress with vdW-DF, please also cite:
     *
     *   R. Sabatini, E. Kucukbenli, B. Kolb, T. Thonhauser, and
     *   S. de Gironcoli, J. Phys.: Condens. Matter 24, 424209 (2012).
     *

     Carrying out vdW-DF run using the following parameters:

     Nqs =      20    Nr_points =    1024   r_max =   100.000
     q_mesh =
               0.00001000     0.04494208     0.09755937     0.15916263
               0.23128650     0.31572767     0.41458969     0.53033537
               0.66584808     0.82450364     1.01025438     1.22772762
               1.48234092     1.78043706     2.12944203     2.53805004
               3.01644009     3.57652955     4.23227104     5.00000000

     Gradients computed in reciprocal space

     Starting wfc are   52 randomized atomic wfcs

     Self-consistent Calculation

     iteration #  1     ecut=    58.80 Ry     beta=0.10
     Davidson diagonalization with overlap
     ethr =  1.00E-02,  avg # of iterations =  2.5

     Threshold (ethr) on eigenvalues was too large:
     Diagonalizing with lowered threshold

     Davidson diagonalization with overlap
     ethr =  6.44E-05,  avg # of iterations =  4.1

[...]

     total energy              =    -384.27975646 Ry
     Harris-Foulkes estimate   =    -384.28042147 Ry
     estimated scf accuracy    <       0.03174484 Ry

[...]

     total energy              =    -384.27831553 Ry
     Harris-Foulkes estimate   =    -384.27831309 Ry
     estimated scf accuracy    <       0.00000015 Ry

     iteration # 10     ecut=    58.80 Ry     beta=0.10
     Davidson diagonalization with overlap
     ethr =  3.40E-10,  avg # of iterations =  1.1

     negative rho (up, down):  6.184E-02 0.000E+00

     End of self-consistent calculation

          k = 0.0000 0.0000 0.0000 (  4945 PWs)   bands (ev):

   -39.1255 -39.0543 -39.0543 -38.4272 -17.8529 -17.8529 -17.8529 -17.6361
   -17.6361 -17.6361 -17.5577 -17.5577 -17.5577 -16.3728 -16.3728 -16.3728
     5.2162   8.4238   8.4238   8.8467   9.4252   9.4252   9.4252  11.9382
    11.9382  11.9382  12.7392  12.7392  12.7392  13.5038  13.5038  14.3825
    14.5907  14.5907  14.5907  14.7001  14.7001  15.1393  15.1393  15.1393
    19.5601  19.5918

[...]

          k = 0.0913-0.1096-0.1096 (  4836 PWs)   bands (ev):

[...]

          k =-0.1096-0.1096-0.1096 (  4776 PWs)   bands (ev):

   -39.0763 -39.0763 -39.0763 -38.4304 -17.9506 -17.8342 -17.8342 -17.8342
   -17.5730 -17.5730 -17.5386 -17.5386 -17.5386 -16.3686 -16.3686 -16.3686
     8.3263   8.3263   8.3263   8.6982  10.7089  11.0472  11.0472  11.0472
    11.6299  11.6299  11.7998  11.7998  11.7998  11.9236  11.9236  11.9236
    14.3662  14.3662  14.3662  14.6733  14.6733  14.6733  14.7172  14.7172
    17.7568  18.1762

     the Fermi energy is    10.4256 ev

!    total energy              =    -384.27831742 Ry
     Harris-Foulkes estimate   =    -384.27831555 Ry
     estimated scf accuracy    <          3.1E-09 Ry

     The total energy is the sum of the following terms:

     one-electron contribution =    -131.63749669 Ry
     hartree contribution      =      76.94363538 Ry
     xc contribution           =     -60.11197998 Ry
     ewald contribution        =    -269.45703994 Ry
     smearing contrib. (-TS)   =      -0.01543618 Ry

     convergence has been achieved in  10 iterations

     Forces acting on atoms (Ry/au):

     negative rho (up, down):  6.184E-02 0.000E+00
     atom    1 type  1   force =     0.00000000    0.00000000    0.00000000
     atom    2 type  1   force =     0.00000000    0.00000000    0.00000000
     atom    3 type  1   force =     0.00000000    0.00000000    0.00000000
     atom    4 type  2   force =     0.00000000    0.00000000    0.00000000

     Total force =     0.000000     Total SCF correction =     0.000000
 !ASE

     General routines

     Parallel routines

   This run was terminated on:   2:39: 6  25Oct2017

   JOB DONE.