     Program PWSCF v.5.1rc2 (svn rev. ) starts on 24Oct2017 at 21:49:43

     Current dimensions of program PWSCF are:
     Max number of different atomic species (ntypx) = 10
     Max number of k-points (npk) =  40000
     Max angular momentum in pseudopotentials (lmaxx) =  3

     IMPORTANT: XC functional enforced from input :
     Exchange-correlation      = BEEF-VDW ( 1  4 27 13 2)
     Any further DFT definition will be discarded
     Please, verify this is what you really want

     Subspace diagonalization in iterative solution of the eigenvalue problem:
     a serial algorithm will be used

     bravais-lattice index     =            0
     lattice parameter (alat)  =       1.8897  a.u.
     unit-cell volume          =     399.4188 (a.u.)^3
     number of atoms/cell      =            4
     number of atomic types    =            2
     number of electrons       =        71.00
     number of Kohn-Sham states=           55
     kinetic-energy cutoff     =      58.7989  Ry
     charge density cutoff     =     587.9892  Ry
     convergence threshold     =      7.3E-09
     mixing beta               =       0.1000
     number of iterations used =           10  local-TF  mixing
     Exchange-correlation      = BEEF-VDW ( 1  4 27 13 2)
     nstep                     =           50

     celldm(1)=   1.889726  celldm(2)=   0.000000  celldm(3)=   0.000000
     celldm(4)=   0.000000  celldm(5)=   0.000000  celldm(6)=   0.000000

     crystal axes: (cart. coord. in units of alat)
               a(1) = (   3.897122   0.000000   0.000000 )
               a(2) = (   0.000000   3.897122   0.000000 )
               a(3) = (   0.000000   0.000000   3.897122 )

     reciprocal axes: (cart. coord. in units 2 pi/alat)
               b(1) = (  0.256600  0.000000  0.000000 )
               b(2) = (  0.000000  0.256600  0.000000 )
               b(3) = (  0.000000  0.000000  0.256600 )

     PseudoPot. # 1 for Ga read from file:
     /home/vossj/suncat/psp/gbrv1.5pbe/Ga.UPF
     MD5 check sum: ccd671392a58a050fbb373893b4fcd66
     Pseudo is Ultrasoft + core correction, Zval = 19.0
     Generated by new atomic code, or converted to UPF format
     Using radial grid of  871 points,  6 beta functions with:
                l(1) =   0
                l(2) =   0
                l(3) =   1
                l(4) =   1
                l(5) =   2
                l(6) =   2
     Q(r) pseudized with  8 coefficients,  rinner =    1.250   1.250   1.250
                                                       1.250   1.250

     PseudoPot. # 2 for Cr read from file:
     /home/vossj/suncat/psp/gbrv1.5pbe/Cr.UPF
     MD5 check sum: 0d52af634a40206e4dee301ad30da4bf
     Pseudo is Ultrasoft + core correction, Zval = 14.0
     Generated by new atomic code, or converted to UPF format
     Using radial grid of  857 points,  6 beta functions with:
                l(1) =   0
                l(2) =   0
                l(3) =   1
                l(4) =   1
                l(5) =   2
                l(6) =   2
     Q(r) pseudized with  8 coefficients,  rinner =    0.950   0.950   0.950
                                                       0.950   0.950

     vdW kernel table read from file vdW_kernel_table
     MD5 check sum: 095c7af220d748ca6e76c0b4c6cfb241

     atomic species   valence    mass     pseudopotential
        Ga1           19.00    69.72300     Ga( 1.00)
        Cr1           14.00    51.99610     Cr( 1.00)

     48 Sym. Ops., with inversion, found (32 have fractional translation)

   Cartesian axes

     site n.     atom                  positions (alat units)
         1           Ga1 tau(   1) = (   0.0000000   0.0000000   0.0000000  )
         2           Ga1 tau(   2) = (   0.0000000   1.9485608   1.9485608  )
         3           Ga1 tau(   3) = (   1.9485608   0.0000000   1.9485608  )
         4           Cr1 tau(   4) = (   1.9485608   1.9485608   0.0000000  )

     number of k points=    84  Fermi-Dirac smearing, width (Ry)=  0.0073
                       cart. coord. in units 2pi/alat
        k(    1) = (   0.0000000   0.0000000   0.0000000), wk =   0.0011574
        k(    2) = (   0.0000000   0.0000000   0.0213833), wk =   0.0069444
        k(    3) = (   0.0000000   0.0000000   0.0427666), wk =   0.0069444
        k(    4) = (   0.0000000   0.0000000   0.0641499), wk =   0.0069444
        k(    5) = (   0.0000000   0.0000000   0.0855332), wk =   0.0069444
        k(    6) = (   0.0000000   0.0000000   0.1069165), wk =   0.0069444
        k(    7) = (   0.0000000   0.0000000  -0.1282998), wk =   0.0034722
        k(    8) = (   0.0000000   0.0213833   0.0213833), wk =   0.0138889
        k(    9) = (   0.0000000   0.0213833   0.0427666), wk =   0.0277778
        k(   10) = (   0.0000000   0.0213833   0.0641499), wk =   0.0277778
        k(   11) = (   0.0000000   0.0213833   0.0855332), wk =   0.0277778
        k(   12) = (   0.0000000   0.0213833   0.1069165), wk =   0.0277778
        k(   13) = (   0.0000000   0.0213833  -0.1282998), wk =   0.0138889
        k(   14) = (   0.0000000   0.0427666   0.0427666), wk =   0.0138889
        k(   15) = (   0.0000000   0.0427666   0.0641499), wk =   0.0277778
        k(   16) = (   0.0000000   0.0427666   0.0855332), wk =   0.0277778
        k(   17) = (   0.0000000   0.0427666   0.1069165), wk =   0.0277778
        k(   18) = (   0.0000000   0.0427666  -0.1282998), wk =   0.0138889
        k(   19) = (   0.0000000   0.0641499   0.0641499), wk =   0.0138889
        k(   20) = (   0.0000000   0.0641499   0.0855332), wk =   0.0277778
        k(   21) = (   0.0000000   0.0641499   0.1069165), wk =   0.0277778
        k(   22) = (   0.0000000   0.0641499  -0.1282998), wk =   0.0138889
        k(   23) = (   0.0000000   0.0855332   0.0855332), wk =   0.0138889
        k(   24) = (   0.0000000   0.0855332   0.1069165), wk =   0.0277778
        k(   25) = (   0.0000000   0.0855332  -0.1282998), wk =   0.0138889
        k(   26) = (   0.0000000   0.1069165   0.1069165), wk =   0.0138889
        k(   27) = (   0.0000000   0.1069165  -0.1282998), wk =   0.0138889
        k(   28) = (   0.0000000  -0.1282998  -0.1282998), wk =   0.0034722
        k(   29) = (   0.0213833   0.0213833   0.0213833), wk =   0.0092593
        k(   30) = (   0.0213833   0.0213833   0.0427666), wk =   0.0277778
        k(   31) = (   0.0213833   0.0213833   0.0641499), wk =   0.0277778
        k(   32) = (   0.0213833   0.0213833   0.0855332), wk =   0.0277778
        k(   33) = (   0.0213833   0.0213833   0.1069165), wk =   0.0277778
        k(   34) = (   0.0213833   0.0213833  -0.1282998), wk =   0.0138889
        k(   35) = (   0.0213833   0.0427666   0.0427666), wk =   0.0277778
        k(   36) = (   0.0213833   0.0427666   0.0641499), wk =   0.0555556
        k(   37) = (   0.0213833   0.0427666   0.0855332), wk =   0.0555556
        k(   38) = (   0.0213833   0.0427666   0.1069165), wk =   0.0555556
        k(   39) = (   0.0213833   0.0427666  -0.1282998), wk =   0.0277778
        k(   40) = (   0.0213833   0.0641499   0.0641499), wk =   0.0277778
        k(   41) = (   0.0213833   0.0641499   0.0855332), wk =   0.0555556
        k(   42) = (   0.0213833   0.0641499   0.1069165), wk =   0.0555556
        k(   43) = (   0.0213833   0.0641499  -0.1282998), wk =   0.0277778
        k(   44) = (   0.0213833   0.0855332   0.0855332), wk =   0.0277778
        k(   45) = (   0.0213833   0.0855332   0.1069165), wk =   0.0555556
        k(   46) = (   0.0213833   0.0855332  -0.1282998), wk =   0.0277778
        k(   47) = (   0.0213833   0.1069165   0.1069165), wk =   0.0277778
        k(   48) = (   0.0213833   0.1069165  -0.1282998), wk =   0.0277778
        k(   49) = (   0.0213833  -0.1282998  -0.1282998), wk =   0.0069444
        k(   50) = (   0.0427666   0.0427666   0.0427666), wk =   0.0092593
        k(   51) = (   0.0427666   0.0427666   0.0641499), wk =   0.0277778
        k(   52) = (   0.0427666   0.0427666   0.0855332), wk =   0.0277778
        k(   53) = (   0.0427666   0.0427666   0.1069165), wk =   0.0277778
        k(   54) = (   0.0427666   0.0427666  -0.1282998), wk =   0.0138889
        k(   55) = (   0.0427666   0.0641499   0.0641499), wk =   0.0277778
        k(   56) = (   0.0427666   0.0641499   0.0855332), wk =   0.0555556
        k(   57) = (   0.0427666   0.0641499   0.1069165), wk =   0.0555556
        k(   58) = (   0.0427666   0.0641499  -0.1282998), wk =   0.0277778
        k(   59) = (   0.0427666   0.0855332   0.0855332), wk =   0.0277778
        k(   60) = (   0.0427666   0.0855332   0.1069165), wk =   0.0555556
[...]
        k(   70) = (   0.0641499   0.0855332   0.1069165), wk =   0.0555556
        k(   71) = (   0.0641499   0.0855332  -0.1282998), wk =   0.0277778
        k(   72) = (   0.0641499   0.1069165   0.1069165), wk =   0.0277778
        k(   73) = (   0.0641499   0.1069165  -0.1282998), wk =   0.0277778
        k(   74) = (   0.0641499  -0.1282998  -0.1282998), wk =   0.0069444
        k(   75) = (   0.0855332   0.0855332   0.0855332), wk =   0.0092593
        k(   76) = (   0.0855332   0.0855332   0.1069165), wk =   0.0277778
        k(   77) = (   0.0855332   0.0855332  -0.1282998), wk =   0.0138889
        k(   78) = (   0.0855332   0.1069165   0.1069165), wk =   0.0277778
        k(   79) = (   0.0855332   0.1069165  -0.1282998), wk =   0.0277778
        k(   80) = (   0.0855332  -0.1282998  -0.1282998), wk =   0.0069444
        k(   81) = (   0.1069165   0.1069165   0.1069165), wk =   0.0092593
        k(   82) = (   0.1069165   0.1069165  -0.1282998), wk =   0.0138889
        k(   83) = (   0.1069165  -0.1282998  -0.1282998), wk =   0.0069444
        k(   84) = (  -0.1282998  -0.1282998  -0.1282998), wk =   0.0011574

     Largest allocated arrays     est. size (Mb)     dimensions
     Largest temporary arrays     est. size (Mb)     dimensions

     Check: negative/imaginary core charge=   -0.000003    0.000000

     Initial potential from superposition of free atoms
     Check: negative starting charge=   -0.000591

     starting charge   66.99998, renormalised to   71.00000

     negative rho (up, down):  6.258E-04 0.000E+00

     *
     * You are using vdW-DF for exchange-correlation in this calculation.
     * Please cite the following three references that made this development
     * possible:
     *
     *   M. Dion, H. Rydberg, E. Schroder, D. C. Langreth, and
     *   B. I. Lundqvist, Phys. Rev. Lett. 92, 246401 (2004).
     *
     *   T. Thonhauser, V. R. Cooper, S. Li, A. Puzder, P. Hyldgaard, and
     *   D. C. Langreth, Phys. Rev. B 76, 125112 (2007).
     *
     *   G. Roman-Perez and J. M. Soler, Phys. Rev. Lett. 103, 096102 (2009).
     *
     *
     * If you are using vdW-DF2, please also cite:
     *
     *   K. Lee, E. D. Murray, L. Kong, B. I. Lundqvist, and
     *   D. C. Langreth, Phys. Rev. B 82, 081101(R) (2010).
     *
     *
     * If you are calculating the stress with vdW-DF, please also cite:
     *
     *   R. Sabatini, E. Kucukbenli, B. Kolb, T. Thonhauser, and
     *   S. de Gironcoli, J. Phys.: Condens. Matter 24, 424209 (2012).
     *

     Carrying out vdW-DF run using the following parameters:

     Nqs =      20    Nr_points =    1024   r_max =   100.000
     q_mesh =
               0.00001000     0.04494208     0.09755937     0.15916263
               0.23128650     0.31572767     0.41458969     0.53033537
               0.66584808     0.82450364     1.01025438     1.22772762
               1.48234092     1.78043706     2.12944203     2.53805004
               3.01644009     3.57652955     4.23227104     5.00000000

     Gradients computed in reciprocal space

     Starting wfc are   46 randomized atomic wfcs +    9 random wfc

     Self-consistent Calculation

     iteration #  1     ecut=    58.80 Ry     beta=0.10
     Davidson diagonalization with overlap
     ethr =  1.00E-02,  avg # of iterations =  4.4

[...]

     total energy              =   -1429.70824886 Ry
     Harris-Foulkes estimate   =   -1433.83728297 Ry
     estimated scf accuracy    <      61.70847795 Ry

[...]

     total energy              =   -1426.03095356 Ry
     Harris-Foulkes estimate   =   -1426.03095295 Ry
     estimated scf accuracy    <       0.00000099 Ry

     iteration # 16     ecut=    58.80 Ry     beta=0.10
     Davidson diagonalization with overlap
     ethr =  1.40E-09,  avg # of iterations =  1.3

     negative rho (up, down):  5.173E-04 0.000E+00

     End of self-consistent calculation

          k = 0.0000 0.0000 0.0000 (  2969 PWs)   bands (ev):

   -80.1315 -80.1315 -80.1315 -80.0894 -80.0894 -80.0894 -80.0889 -80.0889
   -80.0889 -56.6314 -27.9718 -27.9718 -27.9718  -0.8525  -0.7960  -0.7960
    -0.7960  -0.6189  -0.6189  -0.4032  -0.4032  -0.4032  -0.3270  -0.3270
    -0.1833  -0.1652  -0.1652  -0.1652   2.8143  11.6756  11.6756  12.4856
    12.4856  12.4856  14.7241  14.7241  14.7241  16.9625  16.9625  17.3429
    20.8282  20.8282  20.8282  23.4023  23.4023  23.4023  26.1047  26.1047
    26.1047  26.8041  26.8041  30.2166  33.0553  33.0556  33.0556

[...]

          k = 0.1069-0.1283-0.1283 (  3064 PWs)   bands (ev):

[...]

          k =-0.1283-0.1283-0.1283 (  3112 PWs)   bands (ev):

   -80.1376 -80.1279 -80.1279 -80.0926 -80.0926 -80.0926 -80.0862 -80.0862
   -80.0862 -56.6309 -27.9760 -27.9760 -27.9760  -0.7084  -0.7084  -0.7084
    -0.6799  -0.5755  -0.5755  -0.5755  -0.4079  -0.4079  -0.4079  -0.3428
    -0.3428  -0.1932  -0.1932  -0.1932   9.1222   9.1222   9.1222   9.6849
    11.1100  11.1100  11.1100  15.1388  15.1388  16.0020  16.2690  16.2690
    16.2690  27.1279  27.1279  27.2453  27.2453  27.2453  30.7860  30.7860
    30.7860  30.8079  31.4015  31.4015  31.4015  32.0307  32.0307

     the Fermi energy is    15.0388 ev

!    total energy              =   -1426.03095681 Ry
     Harris-Foulkes estimate   =   -1426.03095364 Ry
     estimated scf accuracy    <          5.8E-09 Ry

     The total energy is the sum of the following terms:

     one-electron contribution =   -1000.98533485 Ry
     hartree contribution      =     538.19756059 Ry
     xc contribution           =    -172.90253231 Ry
     ewald contribution        =    -790.32592465 Ry
     smearing contrib. (-TS)   =      -0.01472559 Ry

     convergence has been achieved in  16 iterations

     Forces acting on atoms (Ry/au):

     negative rho (up, down):  5.173E-04 0.000E+00
     atom    1 type  1   force =     0.00000000    0.00000000    0.00000000
     atom    2 type  1   force =     0.00000000    0.00000000   -0.00000000
     atom    3 type  1   force =     0.00000000    0.00000000    0.00000000
     atom    4 type  2   force =     0.00000000    0.00000000    0.00000000

     Total force =     0.000000     Total SCF correction =     0.000000
 !ASE

     General routines

     Parallel routines

   This run was terminated on:  21:50:55  24Oct2017

   JOB DONE.