     Program PWSCF v.5.1rc2 (svn rev. ) starts on 25Oct2017 at  8:37:38

     Current dimensions of program PWSCF are:
     Max number of different atomic species (ntypx) = 10
     Max number of k-points (npk) =  40000
     Max angular momentum in pseudopotentials (lmaxx) =  3

     IMPORTANT: XC functional enforced from input :
     Exchange-correlation      = BEEF-VDW ( 1  4 27 13 2)
     Any further DFT definition will be discarded
     Please, verify this is what you really want

     Subspace diagonalization in iterative solution of the eigenvalue problem:
     a serial algorithm will be used

     bravais-lattice index     =            0
     lattice parameter (alat)  =       1.8897  a.u.
     unit-cell volume          =     529.3319 (a.u.)^3
     number of atoms/cell      =            4
     number of atomic types    =            2
     number of electrons       =        45.00
     number of Kohn-Sham states=           42
     kinetic-energy cutoff     =      58.7989  Ry
     charge density cutoff     =     587.9892  Ry
     convergence threshold     =      7.3E-09
     mixing beta               =       0.1000
     number of iterations used =           10  local-TF  mixing
     Exchange-correlation      = BEEF-VDW ( 1  4 27 13 2)
     nstep                     =           50

     celldm(1)=   1.889726  celldm(2)=   0.000000  celldm(3)=   0.000000
     celldm(4)=   0.000000  celldm(5)=   0.000000  celldm(6)=   0.000000

     crystal axes: (cart. coord. in units of alat)
               a(1) = (   4.280657   0.000000   0.000000 )
               a(2) = (   0.000000   4.280657   0.000000 )
               a(3) = (   0.000000   0.000000   4.280657 )

     reciprocal axes: (cart. coord. in units 2 pi/alat)
               b(1) = (  0.233609  0.000000  0.000000 )
               b(2) = (  0.000000  0.233609  0.000000 )
               b(3) = (  0.000000  0.000000  0.233609 )

     PseudoPot. # 1 for Au read from file:
     /home/vossj/suncat/psp/gbrv1.5pbe/Au.UPF
     MD5 check sum: 9d7f43293ad2c663164586bc4b293ffc
     Pseudo is Ultrasoft + core correction, Zval = 11.0
     Generated by new atomic code, or converted to UPF format
     Using radial grid of  985 points,  7 beta functions with:
                l(1) =   0
                l(2) =   0
                l(3) =   1
                l(4) =   1
                l(5) =   2
                l(6) =   2
                l(7) =   3
     Q(r) pseudized with  6 coefficients,  rinner =    1.900   1.900   1.900
                                                       1.900   1.900   1.900
                                                       1.900

     PseudoPot. # 2 for Zr read from file:
     /home/vossj/suncat/psp/gbrv1.5pbe/Zr.UPF
     MD5 check sum: 5db81b1e868ab7776c4564c113de050b
     Pseudo is Ultrasoft + core correction, Zval = 12.0
     Generated by new atomic code, or converted to UPF format
     Using radial grid of  887 points,  6 beta functions with:
                l(1) =   0
                l(2) =   0
                l(3) =   1
                l(4) =   1
                l(5) =   2
                l(6) =   2
     Q(r) pseudized with  6 coefficients,  rinner =    1.200   1.200   1.200
                                                       1.200   1.200

     vdW kernel table read from file vdW_kernel_table
     MD5 check sum: 095c7af220d748ca6e76c0b4c6cfb241

     atomic species   valence    mass     pseudopotential
        Au1           11.00   196.96657     Au( 1.00)
        Zr1           12.00    91.22400     Zr( 1.00)

     48 Sym. Ops., with inversion, found (32 have fractional translation)

   Cartesian axes

     site n.     atom                  positions (alat units)
         1           Au1 tau(   1) = (   0.0000000   0.0000000   0.0000000  )
         2           Au1 tau(   2) = (   0.0000000   2.1403287   2.1403287  )
         3           Au1 tau(   3) = (   2.1403287   0.0000000   2.1403287  )
         4           Zr1 tau(   4) = (   2.1403287   2.1403287   0.0000000  )

     number of k points=    84  Fermi-Dirac smearing, width (Ry)=  0.0073
                       cart. coord. in units 2pi/alat
        k(    1) = (   0.0000000   0.0000000   0.0000000), wk =   0.0011574
        k(    2) = (   0.0000000   0.0000000   0.0194674), wk =   0.0069444
        k(    3) = (   0.0000000   0.0000000   0.0389348), wk =   0.0069444
        k(    4) = (   0.0000000   0.0000000   0.0584022), wk =   0.0069444
        k(    5) = (   0.0000000   0.0000000   0.0778697), wk =   0.0069444
        k(    6) = (   0.0000000   0.0000000   0.0973371), wk =   0.0069444
        k(    7) = (   0.0000000   0.0000000  -0.1168045), wk =   0.0034722
        k(    8) = (   0.0000000   0.0194674   0.0194674), wk =   0.0138889
        k(    9) = (   0.0000000   0.0194674   0.0389348), wk =   0.0277778
        k(   10) = (   0.0000000   0.0194674   0.0584022), wk =   0.0277778
        k(   11) = (   0.0000000   0.0194674   0.0778697), wk =   0.0277778
        k(   12) = (   0.0000000   0.0194674   0.0973371), wk =   0.0277778
        k(   13) = (   0.0000000   0.0194674  -0.1168045), wk =   0.0138889
        k(   14) = (   0.0000000   0.0389348   0.0389348), wk =   0.0138889
        k(   15) = (   0.0000000   0.0389348   0.0584022), wk =   0.0277778
        k(   16) = (   0.0000000   0.0389348   0.0778697), wk =   0.0277778
        k(   17) = (   0.0000000   0.0389348   0.0973371), wk =   0.0277778
        k(   18) = (   0.0000000   0.0389348  -0.1168045), wk =   0.0138889
        k(   19) = (   0.0000000   0.0584022   0.0584022), wk =   0.0138889
        k(   20) = (   0.0000000   0.0584022   0.0778697), wk =   0.0277778
        k(   21) = (   0.0000000   0.0584022   0.0973371), wk =   0.0277778
        k(   22) = (   0.0000000   0.0584022  -0.1168045), wk =   0.0138889
        k(   23) = (   0.0000000   0.0778697   0.0778697), wk =   0.0138889
        k(   24) = (   0.0000000   0.0778697   0.0973371), wk =   0.0277778
        k(   25) = (   0.0000000   0.0778697  -0.1168045), wk =   0.0138889
        k(   26) = (   0.0000000   0.0973371   0.0973371), wk =   0.0138889
        k(   27) = (   0.0000000   0.0973371  -0.1168045), wk =   0.0138889
        k(   28) = (   0.0000000  -0.1168045  -0.1168045), wk =   0.0034722
        k(   29) = (   0.0194674   0.0194674   0.0194674), wk =   0.0092593
        k(   30) = (   0.0194674   0.0194674   0.0389348), wk =   0.0277778
        k(   31) = (   0.0194674   0.0194674   0.0584022), wk =   0.0277778
        k(   32) = (   0.0194674   0.0194674   0.0778697), wk =   0.0277778
        k(   33) = (   0.0194674   0.0194674   0.0973371), wk =   0.0277778
        k(   34) = (   0.0194674   0.0194674  -0.1168045), wk =   0.0138889
        k(   35) = (   0.0194674   0.0389348   0.0389348), wk =   0.0277778
        k(   36) = (   0.0194674   0.0389348   0.0584022), wk =   0.0555556
        k(   37) = (   0.0194674   0.0389348   0.0778697), wk =   0.0555556
        k(   38) = (   0.0194674   0.0389348   0.0973371), wk =   0.0555556
        k(   39) = (   0.0194674   0.0389348  -0.1168045), wk =   0.0277778
        k(   40) = (   0.0194674   0.0584022   0.0584022), wk =   0.0277778
        k(   41) = (   0.0194674   0.0584022   0.0778697), wk =   0.0555556
        k(   42) = (   0.0194674   0.0584022   0.0973371), wk =   0.0555556
        k(   43) = (   0.0194674   0.0584022  -0.1168045), wk =   0.0277778
        k(   44) = (   0.0194674   0.0778697   0.0778697), wk =   0.0277778
        k(   45) = (   0.0194674   0.0778697   0.0973371), wk =   0.0555556
        k(   46) = (   0.0194674   0.0778697  -0.1168045), wk =   0.0277778
        k(   47) = (   0.0194674   0.0973371   0.0973371), wk =   0.0277778
        k(   48) = (   0.0194674   0.0973371  -0.1168045), wk =   0.0277778
        k(   49) = (   0.0194674  -0.1168045  -0.1168045), wk =   0.0069444
        k(   50) = (   0.0389348   0.0389348   0.0389348), wk =   0.0092593
        k(   51) = (   0.0389348   0.0389348   0.0584022), wk =   0.0277778
        k(   52) = (   0.0389348   0.0389348   0.0778697), wk =   0.0277778
        k(   53) = (   0.0389348   0.0389348   0.0973371), wk =   0.0277778
        k(   54) = (   0.0389348   0.0389348  -0.1168045), wk =   0.0138889
        k(   55) = (   0.0389348   0.0584022   0.0584022), wk =   0.0277778
        k(   56) = (   0.0389348   0.0584022   0.0778697), wk =   0.0555556
        k(   57) = (   0.0389348   0.0584022   0.0973371), wk =   0.0555556
        k(   58) = (   0.0389348   0.0584022  -0.1168045), wk =   0.0277778
        k(   59) = (   0.0389348   0.0778697   0.0778697), wk =   0.0277778
        k(   60) = (   0.0389348   0.0778697   0.0973371), wk =   0.0555556
[...]
        k(   70) = (   0.0584022   0.0778697   0.0973371), wk =   0.0555556
        k(   71) = (   0.0584022   0.0778697  -0.1168045), wk =   0.0277778
        k(   72) = (   0.0584022   0.0973371   0.0973371), wk =   0.0277778
        k(   73) = (   0.0584022   0.0973371  -0.1168045), wk =   0.0277778
        k(   74) = (   0.0584022  -0.1168045  -0.1168045), wk =   0.0069444
        k(   75) = (   0.0778697   0.0778697   0.0778697), wk =   0.0092593
        k(   76) = (   0.0778697   0.0778697   0.0973371), wk =   0.0277778
        k(   77) = (   0.0778697   0.0778697  -0.1168045), wk =   0.0138889
        k(   78) = (   0.0778697   0.0973371   0.0973371), wk =   0.0277778
        k(   79) = (   0.0778697   0.0973371  -0.1168045), wk =   0.0277778
        k(   80) = (   0.0778697  -0.1168045  -0.1168045), wk =   0.0069444
        k(   81) = (   0.0973371   0.0973371   0.0973371), wk =   0.0092593
        k(   82) = (   0.0973371   0.0973371  -0.1168045), wk =   0.0138889
        k(   83) = (   0.0973371  -0.1168045  -0.1168045), wk =   0.0069444
        k(   84) = (  -0.1168045  -0.1168045  -0.1168045), wk =   0.0011574

     Largest allocated arrays     est. size (Mb)     dimensions
     Largest temporary arrays     est. size (Mb)     dimensions

     Initial potential from superposition of free atoms
     Check: negative starting charge=   -0.060799

     starting charge   44.99748, renormalised to   45.00000

     negative rho (up, down):  6.080E-02 0.000E+00

     *
     * You are using vdW-DF for exchange-correlation in this calculation.
     * Please cite the following three references that made this development
     * possible:
     *
     *   M. Dion, H. Rydberg, E. Schroder, D. C. Langreth, and
     *   B. I. Lundqvist, Phys. Rev. Lett. 92, 246401 (2004).
     *
     *   T. Thonhauser, V. R. Cooper, S. Li, A. Puzder, P. Hyldgaard, and
     *   D. C. Langreth, Phys. Rev. B 76, 125112 (2007).
     *
     *   G. Roman-Perez and J. M. Soler, Phys. Rev. Lett. 103, 096102 (2009).
     *
     *
     * If you are using vdW-DF2, please also cite:
     *
     *   K. Lee, E. D. Murray, L. Kong, B. I. Lundqvist, and
     *   D. C. Langreth, Phys. Rev. B 82, 081101(R) (2010).
     *
     *
     * If you are calculating the stress with vdW-DF, please also cite:
     *
     *   R. Sabatini, E. Kucukbenli, B. Kolb, T. Thonhauser, and
     *   S. de Gironcoli, J. Phys.: Condens. Matter 24, 424209 (2012).
     *

     Carrying out vdW-DF run using the following parameters:

     Nqs =      20    Nr_points =    1024   r_max =   100.000
     q_mesh =
               0.00001000     0.04494208     0.09755937     0.15916263
               0.23128650     0.31572767     0.41458969     0.53033537
               0.66584808     0.82450364     1.01025438     1.22772762
               1.48234092     1.78043706     2.12944203     2.53805004
               3.01644009     3.57652955     4.23227104     5.00000000

     Gradients computed in reciprocal space

     Starting wfc are   40 randomized atomic wfcs +    2 random wfc

     Self-consistent Calculation

     iteration #  1     ecut=    58.80 Ry     beta=0.10
     Davidson diagonalization with overlap
     ethr =  1.00E-02,  avg # of iterations =  5.3

     Threshold (ethr) on eigenvalues was too large:
     Diagonalizing with lowered threshold

     Davidson diagonalization with overlap
     ethr =  7.16E-04,  avg # of iterations =  1.0

[...]

     total energy              =    -450.04655943 Ry
     Harris-Foulkes estimate   =    -450.06623952 Ry
     estimated scf accuracy    <       0.32577575 Ry

[...]

     total energy              =    -450.00220524 Ry
     Harris-Foulkes estimate   =    -450.00220461 Ry
     estimated scf accuracy    <       0.00000005 Ry

     iteration # 13     ecut=    58.80 Ry     beta=0.10
     Davidson diagonalization with overlap
     ethr =  2.39E-11,  avg # of iterations =  2.0

     negative rho (up, down):  6.288E-02 0.000E+00

     End of self-consistent calculation

          k = 0.0000 0.0000 0.0000 (  3959 PWs)   bands (ev):

   -36.2205 -14.1135 -14.1135 -14.1135   5.7038   7.8358   7.8358   8.0155
     8.1485   8.1485   8.1485   9.8359   9.8359   9.8359  10.9555  10.9555
    11.4081  11.8687  11.8687  11.8687  14.8969  14.8969  15.5795  15.5795
    15.5795  16.5765  16.5765  16.5765  20.0150  20.0150  22.5017  22.5017
    22.5017  22.7037  24.9411  24.9411  24.9411  27.3442  30.0556  30.0556
    31.1839  31.1839

[...]

          k = 0.0973-0.1168-0.1168 (  4016 PWs)   bands (ev):

[...]

          k =-0.1168-0.1168-0.1168 (  4032 PWs)   bands (ev):

   -36.2180 -14.1331 -14.1331 -14.1331   7.7094   7.7094   7.7094   7.9322
     9.3872   9.3872   9.3872   9.9731   9.9731   9.9731  10.1130  10.1130
    11.5559  11.5559  11.5559  13.6326  13.8421  13.8421  13.8421  13.9224
    13.9224  13.9224  16.2770  16.2770  18.9717  18.9717  18.9717  20.5284
    26.6756  26.6756  26.6756  27.3646  28.4805  28.4805  28.4805  29.7635
    29.7635  32.1920

     the Fermi energy is    14.1664 ev

!    total energy              =    -450.00220801 Ry
     Harris-Foulkes estimate   =    -450.00220525 Ry
     estimated scf accuracy    <          4.4E-10 Ry

     The total energy is the sum of the following terms:

     one-electron contribution =       6.11094973 Ry
     hartree contribution      =      41.46918130 Ry
     xc contribution           =    -210.42774613 Ry
     ewald contribution        =    -287.14302084 Ry
     smearing contrib. (-TS)   =      -0.01157206 Ry

     convergence has been achieved in  13 iterations

     Forces acting on atoms (Ry/au):

     negative rho (up, down):  6.288E-02 0.000E+00
     atom    1 type  1   force =     0.00000000    0.00000000    0.00000000
     atom    2 type  1   force =     0.00000000    0.00000000    0.00000000
     atom    3 type  1   force =     0.00000000    0.00000000    0.00000000
     atom    4 type  2   force =     0.00000000   -0.00000000    0.00000000

     Total force =     0.000000     Total SCF correction =     0.000000
 !ASE

     General routines

     Parallel routines

   This run was terminated on:   8:38:34  25Oct2017

   JOB DONE.