     Program PWSCF v.5.1rc2 (svn rev. ) starts on 26Oct2017 at  0: 5:42

     Current dimensions of program PWSCF are:
     Max number of different atomic species (ntypx) = 10
     Max number of k-points (npk) =  40000
     Max angular momentum in pseudopotentials (lmaxx) =  3

     IMPORTANT: XC functional enforced from input :
     Exchange-correlation      = BEEF-VDW ( 1  4 27 13 2)
     Any further DFT definition will be discarded
     Please, verify this is what you really want

     Subspace diagonalization in iterative solution of the eigenvalue problem:
     a serial algorithm will be used

     bravais-lattice index     =            0
     lattice parameter (alat)  =       1.8897  a.u.
     unit-cell volume          =     381.1557 (a.u.)^3
     number of atoms/cell      =            4
     number of atomic types    =            2
     number of electrons       =        79.00
     number of Kohn-Sham states=           59
     kinetic-energy cutoff     =      58.7989  Ry
     charge density cutoff     =     587.9892  Ry
     convergence threshold     =      7.3E-09
     mixing beta               =       0.1000
     number of iterations used =           10  local-TF  mixing
     Exchange-correlation      = BEEF-VDW ( 1  4 27 13 2)
     nstep                     =           50

     celldm(1)=   1.889726  celldm(2)=   0.000000  celldm(3)=   0.000000
     celldm(4)=   0.000000  celldm(5)=   0.000000  celldm(6)=   0.000000

     crystal axes: (cart. coord. in units of alat)
               a(1) = (   3.836795   0.000000   0.000000 )
               a(2) = (   0.000000   3.836795   0.000000 )
               a(3) = (   0.000000   0.000000   3.836795 )

     reciprocal axes: (cart. coord. in units 2 pi/alat)
               b(1) = (  0.260634  0.000000  0.000000 )
               b(2) = (  0.000000  0.260634  0.000000 )
               b(3) = (  0.000000  0.000000  0.260634 )

     PseudoPot. # 1 for Zn read from file:
     /home/vossj/suncat/psp/gbrv1.5pbe/Zn.UPF
     MD5 check sum: df62231357ef9e81f77b2b3087fa5675
     Pseudo is Ultrasoft, Zval = 20.0
     Generated by new atomic code, or converted to UPF format
     Using radial grid of  943 points,  6 beta functions with:
                l(1) =   0
                l(2) =   0
                l(3) =   1
                l(4) =   1
                l(5) =   2
                l(6) =   2
     Q(r) pseudized with  8 coefficients,  rinner =    1.100   1.100   1.100
                                                       1.100   1.100

     PseudoPot. # 2 for Cu read from file:
     /home/vossj/suncat/psp/gbrv1.5pbe/Cu.UPF
     MD5 check sum: 6e991ff952a84172a2a52a1c1e996048
     Pseudo is Ultrasoft + core correction, Zval = 19.0
     Generated by new atomic code, or converted to UPF format
     Using radial grid of  867 points,  6 beta functions with:
                l(1) =   0
                l(2) =   0
                l(3) =   1
                l(4) =   1
                l(5) =   2
                l(6) =   2
     Q(r) pseudized with  8 coefficients,  rinner =    1.150   1.150   1.150
                                                       1.150   1.150

     vdW kernel table read from file vdW_kernel_table
     MD5 check sum: 095c7af220d748ca6e76c0b4c6cfb241

     atomic species   valence    mass     pseudopotential
        Zn1           20.00    65.38000     Zn( 1.00)
        Cu1           19.00    63.54600     Cu( 1.00)

     48 Sym. Ops., with inversion, found (32 have fractional translation)

   Cartesian axes

     site n.     atom                  positions (alat units)
         1           Zn1 tau(   1) = (   0.0000000   0.0000000   0.0000000  )
         2           Zn1 tau(   2) = (   0.0000000   1.9183976   1.9183976  )
         3           Zn1 tau(   3) = (   1.9183976   0.0000000   1.9183976  )
         4           Cu1 tau(   4) = (   1.9183976   1.9183976   0.0000000  )

     number of k points=    84  Fermi-Dirac smearing, width (Ry)=  0.0073
                       cart. coord. in units 2pi/alat
        k(    1) = (   0.0000000   0.0000000   0.0000000), wk =   0.0011574
        k(    2) = (   0.0000000   0.0000000   0.0217195), wk =   0.0069444
        k(    3) = (   0.0000000   0.0000000   0.0434390), wk =   0.0069444
        k(    4) = (   0.0000000   0.0000000   0.0651585), wk =   0.0069444
        k(    5) = (   0.0000000   0.0000000   0.0868781), wk =   0.0069444
        k(    6) = (   0.0000000   0.0000000   0.1085976), wk =   0.0069444
        k(    7) = (   0.0000000   0.0000000  -0.1303171), wk =   0.0034722
        k(    8) = (   0.0000000   0.0217195   0.0217195), wk =   0.0138889
        k(    9) = (   0.0000000   0.0217195   0.0434390), wk =   0.0277778
        k(   10) = (   0.0000000   0.0217195   0.0651585), wk =   0.0277778
        k(   11) = (   0.0000000   0.0217195   0.0868781), wk =   0.0277778
        k(   12) = (   0.0000000   0.0217195   0.1085976), wk =   0.0277778
        k(   13) = (   0.0000000   0.0217195  -0.1303171), wk =   0.0138889
        k(   14) = (   0.0000000   0.0434390   0.0434390), wk =   0.0138889
        k(   15) = (   0.0000000   0.0434390   0.0651585), wk =   0.0277778
        k(   16) = (   0.0000000   0.0434390   0.0868781), wk =   0.0277778
        k(   17) = (   0.0000000   0.0434390   0.1085976), wk =   0.0277778
        k(   18) = (   0.0000000   0.0434390  -0.1303171), wk =   0.0138889
        k(   19) = (   0.0000000   0.0651585   0.0651585), wk =   0.0138889
        k(   20) = (   0.0000000   0.0651585   0.0868781), wk =   0.0277778
        k(   21) = (   0.0000000   0.0651585   0.1085976), wk =   0.0277778
        k(   22) = (   0.0000000   0.0651585  -0.1303171), wk =   0.0138889
        k(   23) = (   0.0000000   0.0868781   0.0868781), wk =   0.0138889
        k(   24) = (   0.0000000   0.0868781   0.1085976), wk =   0.0277778
        k(   25) = (   0.0000000   0.0868781  -0.1303171), wk =   0.0138889
        k(   26) = (   0.0000000   0.1085976   0.1085976), wk =   0.0138889
        k(   27) = (   0.0000000   0.1085976  -0.1303171), wk =   0.0138889
        k(   28) = (   0.0000000  -0.1303171  -0.1303171), wk =   0.0034722
        k(   29) = (   0.0217195   0.0217195   0.0217195), wk =   0.0092593
        k(   30) = (   0.0217195   0.0217195   0.0434390), wk =   0.0277778
        k(   31) = (   0.0217195   0.0217195   0.0651585), wk =   0.0277778
        k(   32) = (   0.0217195   0.0217195   0.0868781), wk =   0.0277778
        k(   33) = (   0.0217195   0.0217195   0.1085976), wk =   0.0277778
        k(   34) = (   0.0217195   0.0217195  -0.1303171), wk =   0.0138889
        k(   35) = (   0.0217195   0.0434390   0.0434390), wk =   0.0277778
        k(   36) = (   0.0217195   0.0434390   0.0651585), wk =   0.0555556
        k(   37) = (   0.0217195   0.0434390   0.0868781), wk =   0.0555556
        k(   38) = (   0.0217195   0.0434390   0.1085976), wk =   0.0555556
        k(   39) = (   0.0217195   0.0434390  -0.1303171), wk =   0.0277778
        k(   40) = (   0.0217195   0.0651585   0.0651585), wk =   0.0277778
        k(   41) = (   0.0217195   0.0651585   0.0868781), wk =   0.0555556
        k(   42) = (   0.0217195   0.0651585   0.1085976), wk =   0.0555556
        k(   43) = (   0.0217195   0.0651585  -0.1303171), wk =   0.0277778
        k(   44) = (   0.0217195   0.0868781   0.0868781), wk =   0.0277778
        k(   45) = (   0.0217195   0.0868781   0.1085976), wk =   0.0555556
        k(   46) = (   0.0217195   0.0868781  -0.1303171), wk =   0.0277778
        k(   47) = (   0.0217195   0.1085976   0.1085976), wk =   0.0277778
        k(   48) = (   0.0217195   0.1085976  -0.1303171), wk =   0.0277778
        k(   49) = (   0.0217195  -0.1303171  -0.1303171), wk =   0.0069444
        k(   50) = (   0.0434390   0.0434390   0.0434390), wk =   0.0092593
        k(   51) = (   0.0434390   0.0434390   0.0651585), wk =   0.0277778
        k(   52) = (   0.0434390   0.0434390   0.0868781), wk =   0.0277778
        k(   53) = (   0.0434390   0.0434390   0.1085976), wk =   0.0277778
        k(   54) = (   0.0434390   0.0434390  -0.1303171), wk =   0.0138889
        k(   55) = (   0.0434390   0.0651585   0.0651585), wk =   0.0277778
        k(   56) = (   0.0434390   0.0651585   0.0868781), wk =   0.0555556
        k(   57) = (   0.0434390   0.0651585   0.1085976), wk =   0.0555556
        k(   58) = (   0.0434390   0.0651585  -0.1303171), wk =   0.0277778
        k(   59) = (   0.0434390   0.0868781   0.0868781), wk =   0.0277778
        k(   60) = (   0.0434390   0.0868781   0.1085976), wk =   0.0555556
[...]
        k(   70) = (   0.0651585   0.0868781   0.1085976), wk =   0.0555556
        k(   71) = (   0.0651585   0.0868781  -0.1303171), wk =   0.0277778
        k(   72) = (   0.0651585   0.1085976   0.1085976), wk =   0.0277778
        k(   73) = (   0.0651585   0.1085976  -0.1303171), wk =   0.0277778
        k(   74) = (   0.0651585  -0.1303171  -0.1303171), wk =   0.0069444
        k(   75) = (   0.0868781   0.0868781   0.0868781), wk =   0.0092593
        k(   76) = (   0.0868781   0.0868781   0.1085976), wk =   0.0277778
        k(   77) = (   0.0868781   0.0868781  -0.1303171), wk =   0.0138889
        k(   78) = (   0.0868781   0.1085976   0.1085976), wk =   0.0277778
        k(   79) = (   0.0868781   0.1085976  -0.1303171), wk =   0.0277778
        k(   80) = (   0.0868781  -0.1303171  -0.1303171), wk =   0.0069444
        k(   81) = (   0.1085976   0.1085976   0.1085976), wk =   0.0092593
        k(   82) = (   0.1085976   0.1085976  -0.1303171), wk =   0.0138889
        k(   83) = (   0.1085976  -0.1303171  -0.1303171), wk =   0.0069444
        k(   84) = (  -0.1303171  -0.1303171  -0.1303171), wk =   0.0011574

     Largest allocated arrays     est. size (Mb)     dimensions
     Largest temporary arrays     est. size (Mb)     dimensions

     Initial potential from superposition of free atoms

     starting charge   77.99958, renormalised to   79.00000

     *
     * You are using vdW-DF for exchange-correlation in this calculation.
     * Please cite the following three references that made this development
     * possible:
     *
     *   M. Dion, H. Rydberg, E. Schroder, D. C. Langreth, and
     *   B. I. Lundqvist, Phys. Rev. Lett. 92, 246401 (2004).
     *
     *   T. Thonhauser, V. R. Cooper, S. Li, A. Puzder, P. Hyldgaard, and
     *   D. C. Langreth, Phys. Rev. B 76, 125112 (2007).
     *
     *   G. Roman-Perez and J. M. Soler, Phys. Rev. Lett. 103, 096102 (2009).
     *
     *
     * If you are using vdW-DF2, please also cite:
     *
     *   K. Lee, E. D. Murray, L. Kong, B. I. Lundqvist, and
     *   D. C. Langreth, Phys. Rev. B 82, 081101(R) (2010).
     *
     *
     * If you are calculating the stress with vdW-DF, please also cite:
     *
     *   R. Sabatini, E. Kucukbenli, B. Kolb, T. Thonhauser, and
     *   S. de Gironcoli, J. Phys.: Condens. Matter 24, 424209 (2012).
     *

     Carrying out vdW-DF run using the following parameters:

     Nqs =      20    Nr_points =    1024   r_max =   100.000
     q_mesh =
               0.00001000     0.04494208     0.09755937     0.15916263
               0.23128650     0.31572767     0.41458969     0.53033537
               0.66584808     0.82450364     1.01025438     1.22772762
               1.48234092     1.78043706     2.12944203     2.53805004
               3.01644009     3.57652955     4.23227104     5.00000000

     Gradients computed in reciprocal space

     Starting wfc are   52 randomized atomic wfcs +    7 random wfc

     Self-consistent Calculation

     iteration #  1     ecut=    58.80 Ry     beta=0.10
     Davidson diagonalization with overlap
     ethr =  1.00E-02,  avg # of iterations =  4.6

     total energy              =   -1794.12176599 Ry
     Harris-Foulkes estimate   =   -1794.45026272 Ry
     estimated scf accuracy    <       5.40819307 Ry

[...]

     total energy              =   -1793.32098907 Ry
     Harris-Foulkes estimate   =   -1793.32098776 Ry
     estimated scf accuracy    <       0.00000008 Ry

     iteration # 15     ecut=    58.80 Ry     beta=0.10
     Davidson diagonalization with overlap
     ethr =  9.90E-11,  avg # of iterations =  2.0

     End of self-consistent calculation

          k = 0.0000 0.0000 0.0000 (  2945 PWs)   bands (ev):

  -112.6384-112.6355-112.6355 -98.9732 -66.8294 -66.8294 -66.8294 -66.8057
   -66.8057 -66.8057 -66.8035 -66.8035 -66.8035 -56.3663 -56.3663 -56.3663
     3.8362   5.5337   5.7913   5.7913   5.7913   5.8990   5.8990   6.5541
     6.5541   6.5541   6.8050   6.8050   7.0049   7.0856   7.0856   7.0856
    10.7090  10.7090  11.1104  11.1104  11.1104  13.6095  13.6095  13.6095
    16.9467  16.9467  17.4346  23.3029  23.3029  23.3029  23.9253  23.9253
    23.9253  27.4583  27.4583  27.4583  28.7598  28.7598  29.4397  33.7250
    34.1834  34.1834  34.1834

[...]

          k = 0.1086-0.1303-0.1303 (  2912 PWs)   bands (ev):

[...]

          k =-0.1303-0.1303-0.1303 (  2872 PWs)   bands (ev):

  -112.6365-112.6365-112.6365 -98.9732 -66.8411 -66.8167 -66.8167 -66.8151
   -66.8151 -66.8151 -66.7988 -66.7988 -66.7988 -56.3665 -56.3665 -56.3665
     5.6478   5.7221   5.7221   5.7221   6.2691   6.2691   6.2691   6.5589
     6.5589   6.5589   6.6843   6.6843   7.0117   7.0117   7.0117  10.3011
    10.3011  10.3011  11.1450  11.1450  11.1511  11.7214  11.7214  11.7214
    13.9281  13.9281  13.9281  14.6381  30.4212  30.4212  30.6197  30.6197
    30.6197  31.6952  31.6952  31.6952  32.1472  32.4357  32.4357  32.4357
    34.0836  34.0836  34.0836

     the Fermi energy is    14.2556 ev

!    total energy              =   -1793.32099399 Ry
     Harris-Foulkes estimate   =   -1793.32098908 Ry
     estimated scf accuracy    <          7.7E-10 Ry

     The total energy is the sum of the following terms:

     one-electron contribution =   -1341.82696749 Ry
     hartree contribution      =     705.76514740 Ry
     xc contribution           =    -170.39597967 Ry
     ewald contribution        =    -986.86021821 Ry
     smearing contrib. (-TS)   =      -0.00297601 Ry

     convergence has been achieved in  15 iterations

     Forces acting on atoms (Ry/au):

     atom    1 type  1   force =     0.00000000    0.00000000   -0.00000000
     atom    2 type  1   force =     0.00000000    0.00000000   -0.00000000
     atom    3 type  1   force =     0.00000000    0.00000000    0.00000000
     atom    4 type  2   force =     0.00000000    0.00000000    0.00000000

     Total force =     0.000000     Total SCF correction =     0.000000
 !ASE

     General routines

     Parallel routines

   This run was terminated on:   0: 6:55  26Oct2017

   JOB DONE.