     Program PWSCF v.5.1rc2 (svn rev. ) starts on 25Oct2017 at  8: 2: 0

     Current dimensions of program PWSCF are:
     Max number of different atomic species (ntypx) = 10
     Max number of k-points (npk) =  40000
     Max angular momentum in pseudopotentials (lmaxx) =  3

     IMPORTANT: XC functional enforced from input :
     Exchange-correlation      = BEEF-VDW ( 1  4 27 13 2)
     Any further DFT definition will be discarded
     Please, verify this is what you really want

     Subspace diagonalization in iterative solution of the eigenvalue problem:
     a serial algorithm will be used

     bravais-lattice index     =            0
     lattice parameter (alat)  =       1.8897  a.u.
     unit-cell volume          =     572.5791 (a.u.)^3
     number of atoms/cell      =            4
     number of atomic types    =            2
     number of electrons       =        49.00
     number of Kohn-Sham states=           44
     kinetic-energy cutoff     =      58.7989  Ry
     charge density cutoff     =     587.9892  Ry
     convergence threshold     =      7.3E-09
     mixing beta               =       0.1000
     number of iterations used =           10  local-TF  mixing
     Exchange-correlation      = BEEF-VDW ( 1  4 27 13 2)
     nstep                     =           50

     celldm(1)=   1.889726  celldm(2)=   0.000000  celldm(3)=   0.000000
     celldm(4)=   0.000000  celldm(5)=   0.000000  celldm(6)=   0.000000

     crystal axes: (cart. coord. in units of alat)
               a(1) = (   4.394198   0.000000   0.000000 )
               a(2) = (   0.000000   4.394198   0.000000 )
               a(3) = (   0.000000   0.000000   4.394198 )

     reciprocal axes: (cart. coord. in units 2 pi/alat)
               b(1) = (  0.227573  0.000000  0.000000 )
               b(2) = (  0.000000  0.227573  0.000000 )
               b(3) = (  0.000000  0.000000  0.227573 )

     PseudoPot. # 1 for Hg read from file:
     /home/vossj/suncat/psp/gbrv1.5pbe/Hg.UPF
     MD5 check sum: 8f42caffe07f7fd9c0a564347f8c5498
     Pseudo is Ultrasoft + core correction, Zval = 12.0
     Generated by new atomic code, or converted to UPF format
     Using radial grid of  985 points,  6 beta functions with:
                l(1) =   0
                l(2) =   0
                l(3) =   1
                l(4) =   1
                l(5) =   2
                l(6) =   2
     Q(r) pseudized with  8 coefficients,  rinner =    2.000   2.000   2.000
                                                       2.000   2.000

     PseudoPot. # 2 for Nb read from file:
     /home/vossj/suncat/psp/gbrv1.5pbe/Nb.UPF
     MD5 check sum: 573aab8a2fa660278ed4a62cd769473f
     Pseudo is Ultrasoft + core correction, Zval = 13.0
     Generated by new atomic code, or converted to UPF format
     Using radial grid of  887 points,  6 beta functions with:
                l(1) =   0
                l(2) =   0
                l(3) =   1
                l(4) =   1
                l(5) =   2
                l(6) =   2
     Q(r) pseudized with  6 coefficients,  rinner =    1.000   1.000   1.000
                                                       1.000   1.000

     vdW kernel table read from file vdW_kernel_table
     MD5 check sum: 095c7af220d748ca6e76c0b4c6cfb241

     atomic species   valence    mass     pseudopotential
        Hg1           12.00   200.59200     Hg( 1.00)
        Nb1           13.00    92.90637     Nb( 1.00)

     48 Sym. Ops., with inversion, found (32 have fractional translation)

   Cartesian axes

     site n.     atom                  positions (alat units)
         1           Hg1 tau(   1) = (   0.0000000   0.0000000   0.0000000  )
         2           Hg1 tau(   2) = (   0.0000000   2.1970990   2.1970990  )
         3           Hg1 tau(   3) = (   2.1970990   0.0000000   2.1970990  )
         4           Nb1 tau(   4) = (   2.1970990   2.1970990   0.0000000  )

     number of k points=    84  Fermi-Dirac smearing, width (Ry)=  0.0073
                       cart. coord. in units 2pi/alat
        k(    1) = (   0.0000000   0.0000000   0.0000000), wk =   0.0011574
        k(    2) = (   0.0000000   0.0000000   0.0189644), wk =   0.0069444
        k(    3) = (   0.0000000   0.0000000   0.0379288), wk =   0.0069444
        k(    4) = (   0.0000000   0.0000000   0.0568932), wk =   0.0069444
        k(    5) = (   0.0000000   0.0000000   0.0758576), wk =   0.0069444
        k(    6) = (   0.0000000   0.0000000   0.0948220), wk =   0.0069444
        k(    7) = (   0.0000000   0.0000000  -0.1137864), wk =   0.0034722
        k(    8) = (   0.0000000   0.0189644   0.0189644), wk =   0.0138889
        k(    9) = (   0.0000000   0.0189644   0.0379288), wk =   0.0277778
        k(   10) = (   0.0000000   0.0189644   0.0568932), wk =   0.0277778
        k(   11) = (   0.0000000   0.0189644   0.0758576), wk =   0.0277778
        k(   12) = (   0.0000000   0.0189644   0.0948220), wk =   0.0277778
        k(   13) = (   0.0000000   0.0189644  -0.1137864), wk =   0.0138889
        k(   14) = (   0.0000000   0.0379288   0.0379288), wk =   0.0138889
        k(   15) = (   0.0000000   0.0379288   0.0568932), wk =   0.0277778
        k(   16) = (   0.0000000   0.0379288   0.0758576), wk =   0.0277778
        k(   17) = (   0.0000000   0.0379288   0.0948220), wk =   0.0277778
        k(   18) = (   0.0000000   0.0379288  -0.1137864), wk =   0.0138889
        k(   19) = (   0.0000000   0.0568932   0.0568932), wk =   0.0138889
        k(   20) = (   0.0000000   0.0568932   0.0758576), wk =   0.0277778
        k(   21) = (   0.0000000   0.0568932   0.0948220), wk =   0.0277778
        k(   22) = (   0.0000000   0.0568932  -0.1137864), wk =   0.0138889
        k(   23) = (   0.0000000   0.0758576   0.0758576), wk =   0.0138889
        k(   24) = (   0.0000000   0.0758576   0.0948220), wk =   0.0277778
        k(   25) = (   0.0000000   0.0758576  -0.1137864), wk =   0.0138889
        k(   26) = (   0.0000000   0.0948220   0.0948220), wk =   0.0138889
        k(   27) = (   0.0000000   0.0948220  -0.1137864), wk =   0.0138889
        k(   28) = (   0.0000000  -0.1137864  -0.1137864), wk =   0.0034722
        k(   29) = (   0.0189644   0.0189644   0.0189644), wk =   0.0092593
        k(   30) = (   0.0189644   0.0189644   0.0379288), wk =   0.0277778
        k(   31) = (   0.0189644   0.0189644   0.0568932), wk =   0.0277778
        k(   32) = (   0.0189644   0.0189644   0.0758576), wk =   0.0277778
        k(   33) = (   0.0189644   0.0189644   0.0948220), wk =   0.0277778
        k(   34) = (   0.0189644   0.0189644  -0.1137864), wk =   0.0138889
        k(   35) = (   0.0189644   0.0379288   0.0379288), wk =   0.0277778
        k(   36) = (   0.0189644   0.0379288   0.0568932), wk =   0.0555556
        k(   37) = (   0.0189644   0.0379288   0.0758576), wk =   0.0555556
        k(   38) = (   0.0189644   0.0379288   0.0948220), wk =   0.0555556
        k(   39) = (   0.0189644   0.0379288  -0.1137864), wk =   0.0277778
        k(   40) = (   0.0189644   0.0568932   0.0568932), wk =   0.0277778
        k(   41) = (   0.0189644   0.0568932   0.0758576), wk =   0.0555556
        k(   42) = (   0.0189644   0.0568932   0.0948220), wk =   0.0555556
        k(   43) = (   0.0189644   0.0568932  -0.1137864), wk =   0.0277778
        k(   44) = (   0.0189644   0.0758576   0.0758576), wk =   0.0277778
        k(   45) = (   0.0189644   0.0758576   0.0948220), wk =   0.0555556
        k(   46) = (   0.0189644   0.0758576  -0.1137864), wk =   0.0277778
        k(   47) = (   0.0189644   0.0948220   0.0948220), wk =   0.0277778
        k(   48) = (   0.0189644   0.0948220  -0.1137864), wk =   0.0277778
        k(   49) = (   0.0189644  -0.1137864  -0.1137864), wk =   0.0069444
        k(   50) = (   0.0379288   0.0379288   0.0379288), wk =   0.0092593
        k(   51) = (   0.0379288   0.0379288   0.0568932), wk =   0.0277778
        k(   52) = (   0.0379288   0.0379288   0.0758576), wk =   0.0277778
        k(   53) = (   0.0379288   0.0379288   0.0948220), wk =   0.0277778
        k(   54) = (   0.0379288   0.0379288  -0.1137864), wk =   0.0138889
        k(   55) = (   0.0379288   0.0568932   0.0568932), wk =   0.0277778
        k(   56) = (   0.0379288   0.0568932   0.0758576), wk =   0.0555556
        k(   57) = (   0.0379288   0.0568932   0.0948220), wk =   0.0555556
        k(   58) = (   0.0379288   0.0568932  -0.1137864), wk =   0.0277778
        k(   59) = (   0.0379288   0.0758576   0.0758576), wk =   0.0277778
        k(   60) = (   0.0379288   0.0758576   0.0948220), wk =   0.0555556
[...]
        k(   70) = (   0.0568932   0.0758576   0.0948220), wk =   0.0555556
        k(   71) = (   0.0568932   0.0758576  -0.1137864), wk =   0.0277778
        k(   72) = (   0.0568932   0.0948220   0.0948220), wk =   0.0277778
        k(   73) = (   0.0568932   0.0948220  -0.1137864), wk =   0.0277778
        k(   74) = (   0.0568932  -0.1137864  -0.1137864), wk =   0.0069444
        k(   75) = (   0.0758576   0.0758576   0.0758576), wk =   0.0092593
        k(   76) = (   0.0758576   0.0758576   0.0948220), wk =   0.0277778
        k(   77) = (   0.0758576   0.0758576  -0.1137864), wk =   0.0138889
        k(   78) = (   0.0758576   0.0948220   0.0948220), wk =   0.0277778
        k(   79) = (   0.0758576   0.0948220  -0.1137864), wk =   0.0277778
        k(   80) = (   0.0758576  -0.1137864  -0.1137864), wk =   0.0069444
        k(   81) = (   0.0948220   0.0948220   0.0948220), wk =   0.0092593
        k(   82) = (   0.0948220   0.0948220  -0.1137864), wk =   0.0138889
        k(   83) = (   0.0948220  -0.1137864  -0.1137864), wk =   0.0069444
        k(   84) = (  -0.1137864  -0.1137864  -0.1137864), wk =   0.0011574

     Largest allocated arrays     est. size (Mb)     dimensions
     Largest temporary arrays     est. size (Mb)     dimensions

     Initial potential from superposition of free atoms

     starting charge   48.99709, renormalised to   49.00000

     *
     * You are using vdW-DF for exchange-correlation in this calculation.
     * Please cite the following three references that made this development
     * possible:
     *
     *   M. Dion, H. Rydberg, E. Schroder, D. C. Langreth, and
     *   B. I. Lundqvist, Phys. Rev. Lett. 92, 246401 (2004).
     *
     *   T. Thonhauser, V. R. Cooper, S. Li, A. Puzder, P. Hyldgaard, and
     *   D. C. Langreth, Phys. Rev. B 76, 125112 (2007).
     *
     *   G. Roman-Perez and J. M. Soler, Phys. Rev. Lett. 103, 096102 (2009).
     *
     *
     * If you are using vdW-DF2, please also cite:
     *
     *   K. Lee, E. D. Murray, L. Kong, B. I. Lundqvist, and
     *   D. C. Langreth, Phys. Rev. B 82, 081101(R) (2010).
     *
     *
     * If you are calculating the stress with vdW-DF, please also cite:
     *
     *   R. Sabatini, E. Kucukbenli, B. Kolb, T. Thonhauser, and
     *   S. de Gironcoli, J. Phys.: Condens. Matter 24, 424209 (2012).
     *

     Carrying out vdW-DF run using the following parameters:

     Nqs =      20    Nr_points =    1024   r_max =   100.000
     q_mesh =
               0.00001000     0.04494208     0.09755937     0.15916263
               0.23128650     0.31572767     0.41458969     0.53033537
               0.66584808     0.82450364     1.01025438     1.22772762
               1.48234092     1.78043706     2.12944203     2.53805004
               3.01644009     3.57652955     4.23227104     5.00000000

     Gradients computed in reciprocal space

     Starting wfc are   40 randomized atomic wfcs +    4 random wfc

     Self-consistent Calculation

     iteration #  1     ecut=    58.80 Ry     beta=0.10
     Davidson diagonalization with overlap
     ethr =  1.00E-02,  avg # of iterations =  5.7

     Threshold (ethr) on eigenvalues was too large:
     Diagonalizing with lowered threshold

     Davidson diagonalization with overlap
     ethr =  1.56E-04,  avg # of iterations =  2.6

     total energy              =    -445.81509739 Ry
     Harris-Foulkes estimate   =    -445.81775847 Ry
     estimated scf accuracy    <       0.07633947 Ry

[...]

     total energy              =    -445.80036650 Ry
     Harris-Foulkes estimate   =    -445.80036602 Ry
     estimated scf accuracy    <          9.4E-09 Ry

     iteration # 13     ecut=    58.80 Ry     beta=0.10
     Davidson diagonalization with overlap
     ethr =  1.92E-11,  avg # of iterations =  1.1

     End of self-consistent calculation

          k = 0.0000 0.0000 0.0000 (  4385 PWs)   bands (ev):

   -42.0171 -18.0104 -18.0104 -18.0104   4.2758   5.1424   5.2478   5.2478
     5.2478   5.4318   5.4318   6.4700   6.4700   6.4700   7.0106   7.0106
     7.4406   7.6250   7.6250   7.6250  12.4528  12.4528  13.7764  13.7764
    13.7764  14.7071  14.7071  14.7071  16.9087  16.9087  19.4169  20.6301
    20.6301  20.6301  22.5267  22.5267  22.5267  26.3169  27.2252  27.2252
    28.6477  29.1872  29.1872  29.4698

[...]

          k = 0.0948-0.1138-0.1138 (  4344 PWs)   bands (ev):

[...]

          k =-0.1138-0.1138-0.1138 (  4272 PWs)   bands (ev):

   -42.0163 -18.0182 -18.0182 -18.0182   5.1696   5.1696   5.1696   5.3025
     6.0344   6.0344   6.0344   6.5003   6.5003   6.5003   6.7106   6.7106
     7.4628   7.4628   7.4628  10.8218  10.8218  10.8218  11.6416  12.4097
    12.4097  12.4097  14.7550  14.7550  16.4282  16.4282  16.4282  17.5809
    25.6920  25.6920  25.6920  25.9443  26.3666  26.3666  26.3666  26.7835
    26.7835  29.6085  29.6085  29.6085

     the Fermi energy is    13.5789 ev

!    total energy              =    -445.80036858 Ry
     Harris-Foulkes estimate   =    -445.80036651 Ry
     estimated scf accuracy    <          1.5E-09 Ry

     The total energy is the sum of the following terms:

     one-electron contribution =     -36.48805622 Ry
     hartree contribution      =      62.79026196 Ry
     xc contribution           =    -140.47319722 Ry
     ewald contribution        =    -331.62459418 Ry
     smearing contrib. (-TS)   =      -0.00478292 Ry

     convergence has been achieved in  13 iterations

     Forces acting on atoms (Ry/au):

     atom    1 type  1   force =     0.00000000    0.00000000    0.00000000
     atom    2 type  1   force =     0.00000000    0.00000000    0.00000000
     atom    3 type  1   force =     0.00000000    0.00000000    0.00000000
     atom    4 type  2   force =     0.00000000    0.00000000    0.00000000

     Total force =     0.000000     Total SCF correction =     0.000000
 !ASE

     General routines

     Parallel routines

   This run was terminated on:   8: 3: 4  25Oct2017

   JOB DONE.