     Program PWSCF v.5.1rc2 (svn rev. ) starts on 25Oct2017 at 11:22:18

     Current dimensions of program PWSCF are:
     Max number of different atomic species (ntypx) = 10
     Max number of k-points (npk) =  40000
     Max angular momentum in pseudopotentials (lmaxx) =  3

     IMPORTANT: XC functional enforced from input :
     Exchange-correlation      = BEEF-VDW ( 1  4 27 13 2)
     Any further DFT definition will be discarded
     Please, verify this is what you really want

     Subspace diagonalization in iterative solution of the eigenvalue problem:
     a serial algorithm will be used

     bravais-lattice index     =            0
     lattice parameter (alat)  =       1.8897  a.u.
     unit-cell volume          =     758.2475 (a.u.)^3
     number of atoms/cell      =            4
     number of atomic types    =            2
     number of electrons       =        54.00
     number of Kohn-Sham states=           47
     kinetic-energy cutoff     =      58.7989  Ry
     charge density cutoff     =     587.9892  Ry
     convergence threshold     =      7.3E-09
     mixing beta               =       0.1000
     number of iterations used =           10  local-TF  mixing
     Exchange-correlation      = BEEF-VDW ( 1  4 27 13 2)
     nstep                     =           50

     celldm(1)=   1.889726  celldm(2)=   0.000000  celldm(3)=   0.000000
     celldm(4)=   0.000000  celldm(5)=   0.000000  celldm(6)=   0.000000

     crystal axes: (cart. coord. in units of alat)
               a(1) = (   4.825454   0.000000   0.000000 )
               a(2) = (   0.000000   4.825454   0.000000 )
               a(3) = (   0.000000   0.000000   4.825454 )

     reciprocal axes: (cart. coord. in units 2 pi/alat)
               b(1) = (  0.207234  0.000000  0.000000 )
               b(2) = (  0.000000  0.207234  0.000000 )
               b(3) = (  0.000000  0.000000  0.207234 )

     PseudoPot. # 1 for Pb read from file:
     /home/vossj/suncat/psp/gbrv1.5pbe/Pb.UPF
     MD5 check sum: 3d1c1779aa92214d1e8f3a7db79003e2
     Pseudo is Ultrasoft + core correction, Zval = 14.0
     Generated by new atomic code, or converted to UPF format
     Using radial grid of  899 points,  6 beta functions with:
                l(1) =   0
                l(2) =   0
                l(3) =   1
                l(4) =   1
                l(5) =   2
                l(6) =   2
     Q(r) pseudized with  6 coefficients,  rinner =    1.000   1.000   1.000
                                                       1.000   1.000

     PseudoPot. # 2 for Hf read from file:
     /home/vossj/suncat/psp/gbrv1.5pbe/Hf.UPF
     MD5 check sum: 8ee9378dfe14276e333edf04c5e4aa26
     Pseudo is Ultrasoft + core correction, Zval = 12.0
     Generated by new atomic code, or converted to UPF format
     Using radial grid of  921 points,  8 beta functions with:
                l(1) =   0
                l(2) =   0
                l(3) =   0
                l(4) =   1
                l(5) =   1
                l(6) =   2
                l(7) =   2
                l(8) =   3
     Q(r) pseudized with  6 coefficients,  rinner =    1.200   1.200   1.200
                                                       1.200   1.200   1.200
                                                       1.200

     vdW kernel table read from file vdW_kernel_table
     MD5 check sum: 095c7af220d748ca6e76c0b4c6cfb241

     atomic species   valence    mass     pseudopotential
        Pb1           14.00   207.20000     Pb( 1.00)
        Hf1           12.00   178.49000     Hf( 1.00)

     48 Sym. Ops., with inversion, found (32 have fractional translation)

   Cartesian axes

     site n.     atom                  positions (alat units)
         1           Pb1 tau(   1) = (   0.0000000   0.0000000   0.0000000  )
         2           Pb1 tau(   2) = (   0.0000000   2.4127268   2.4127268  )
         3           Pb1 tau(   3) = (   2.4127268   0.0000000   2.4127268  )
         4           Hf1 tau(   4) = (   2.4127268   2.4127268   0.0000000  )

     number of k points=    84  Fermi-Dirac smearing, width (Ry)=  0.0073
                       cart. coord. in units 2pi/alat
        k(    1) = (   0.0000000   0.0000000   0.0000000), wk =   0.0011574
        k(    2) = (   0.0000000   0.0000000   0.0172695), wk =   0.0069444
        k(    3) = (   0.0000000   0.0000000   0.0345391), wk =   0.0069444
        k(    4) = (   0.0000000   0.0000000   0.0518086), wk =   0.0069444
        k(    5) = (   0.0000000   0.0000000   0.0690781), wk =   0.0069444
        k(    6) = (   0.0000000   0.0000000   0.0863477), wk =   0.0069444
        k(    7) = (   0.0000000   0.0000000  -0.1036172), wk =   0.0034722
        k(    8) = (   0.0000000   0.0172695   0.0172695), wk =   0.0138889
        k(    9) = (   0.0000000   0.0172695   0.0345391), wk =   0.0277778
        k(   10) = (   0.0000000   0.0172695   0.0518086), wk =   0.0277778
        k(   11) = (   0.0000000   0.0172695   0.0690781), wk =   0.0277778
        k(   12) = (   0.0000000   0.0172695   0.0863477), wk =   0.0277778
        k(   13) = (   0.0000000   0.0172695  -0.1036172), wk =   0.0138889
        k(   14) = (   0.0000000   0.0345391   0.0345391), wk =   0.0138889
        k(   15) = (   0.0000000   0.0345391   0.0518086), wk =   0.0277778
        k(   16) = (   0.0000000   0.0345391   0.0690781), wk =   0.0277778
        k(   17) = (   0.0000000   0.0345391   0.0863477), wk =   0.0277778
        k(   18) = (   0.0000000   0.0345391  -0.1036172), wk =   0.0138889
        k(   19) = (   0.0000000   0.0518086   0.0518086), wk =   0.0138889
        k(   20) = (   0.0000000   0.0518086   0.0690781), wk =   0.0277778
        k(   21) = (   0.0000000   0.0518086   0.0863477), wk =   0.0277778
        k(   22) = (   0.0000000   0.0518086  -0.1036172), wk =   0.0138889
        k(   23) = (   0.0000000   0.0690781   0.0690781), wk =   0.0138889
        k(   24) = (   0.0000000   0.0690781   0.0863477), wk =   0.0277778
        k(   25) = (   0.0000000   0.0690781  -0.1036172), wk =   0.0138889
        k(   26) = (   0.0000000   0.0863477   0.0863477), wk =   0.0138889
        k(   27) = (   0.0000000   0.0863477  -0.1036172), wk =   0.0138889
        k(   28) = (   0.0000000  -0.1036172  -0.1036172), wk =   0.0034722
        k(   29) = (   0.0172695   0.0172695   0.0172695), wk =   0.0092593
        k(   30) = (   0.0172695   0.0172695   0.0345391), wk =   0.0277778
        k(   31) = (   0.0172695   0.0172695   0.0518086), wk =   0.0277778
        k(   32) = (   0.0172695   0.0172695   0.0690781), wk =   0.0277778
        k(   33) = (   0.0172695   0.0172695   0.0863477), wk =   0.0277778
        k(   34) = (   0.0172695   0.0172695  -0.1036172), wk =   0.0138889
        k(   35) = (   0.0172695   0.0345391   0.0345391), wk =   0.0277778
        k(   36) = (   0.0172695   0.0345391   0.0518086), wk =   0.0555556
        k(   37) = (   0.0172695   0.0345391   0.0690781), wk =   0.0555556
        k(   38) = (   0.0172695   0.0345391   0.0863477), wk =   0.0555556
        k(   39) = (   0.0172695   0.0345391  -0.1036172), wk =   0.0277778
        k(   40) = (   0.0172695   0.0518086   0.0518086), wk =   0.0277778
        k(   41) = (   0.0172695   0.0518086   0.0690781), wk =   0.0555556
        k(   42) = (   0.0172695   0.0518086   0.0863477), wk =   0.0555556
        k(   43) = (   0.0172695   0.0518086  -0.1036172), wk =   0.0277778
        k(   44) = (   0.0172695   0.0690781   0.0690781), wk =   0.0277778
        k(   45) = (   0.0172695   0.0690781   0.0863477), wk =   0.0555556
        k(   46) = (   0.0172695   0.0690781  -0.1036172), wk =   0.0277778
        k(   47) = (   0.0172695   0.0863477   0.0863477), wk =   0.0277778
        k(   48) = (   0.0172695   0.0863477  -0.1036172), wk =   0.0277778
        k(   49) = (   0.0172695  -0.1036172  -0.1036172), wk =   0.0069444
        k(   50) = (   0.0345391   0.0345391   0.0345391), wk =   0.0092593
        k(   51) = (   0.0345391   0.0345391   0.0518086), wk =   0.0277778
        k(   52) = (   0.0345391   0.0345391   0.0690781), wk =   0.0277778
        k(   53) = (   0.0345391   0.0345391   0.0863477), wk =   0.0277778
        k(   54) = (   0.0345391   0.0345391  -0.1036172), wk =   0.0138889
        k(   55) = (   0.0345391   0.0518086   0.0518086), wk =   0.0277778
        k(   56) = (   0.0345391   0.0518086   0.0690781), wk =   0.0555556
        k(   57) = (   0.0345391   0.0518086   0.0863477), wk =   0.0555556
        k(   58) = (   0.0345391   0.0518086  -0.1036172), wk =   0.0277778
        k(   59) = (   0.0345391   0.0690781   0.0690781), wk =   0.0277778
        k(   60) = (   0.0345391   0.0690781   0.0863477), wk =   0.0555556
[...]
        k(   70) = (   0.0518086   0.0690781   0.0863477), wk =   0.0555556
        k(   71) = (   0.0518086   0.0690781  -0.1036172), wk =   0.0277778
        k(   72) = (   0.0518086   0.0863477   0.0863477), wk =   0.0277778
        k(   73) = (   0.0518086   0.0863477  -0.1036172), wk =   0.0277778
        k(   74) = (   0.0518086  -0.1036172  -0.1036172), wk =   0.0069444
        k(   75) = (   0.0690781   0.0690781   0.0690781), wk =   0.0092593
        k(   76) = (   0.0690781   0.0690781   0.0863477), wk =   0.0277778
        k(   77) = (   0.0690781   0.0690781  -0.1036172), wk =   0.0138889
        k(   78) = (   0.0690781   0.0863477   0.0863477), wk =   0.0277778
        k(   79) = (   0.0690781   0.0863477  -0.1036172), wk =   0.0277778
        k(   80) = (   0.0690781  -0.1036172  -0.1036172), wk =   0.0069444
        k(   81) = (   0.0863477   0.0863477   0.0863477), wk =   0.0092593
        k(   82) = (   0.0863477   0.0863477  -0.1036172), wk =   0.0138889
        k(   83) = (   0.0863477  -0.1036172  -0.1036172), wk =   0.0069444
        k(   84) = (  -0.1036172  -0.1036172  -0.1036172), wk =   0.0011574

     Largest allocated arrays     est. size (Mb)     dimensions
     Largest temporary arrays     est. size (Mb)     dimensions

     Initial potential from superposition of free atoms
     Check: negative starting charge=   -0.154109

     starting charge   51.99294, renormalised to   54.00000

     negative rho (up, down):  1.601E-01 0.000E+00

     *
     * You are using vdW-DF for exchange-correlation in this calculation.
     * Please cite the following three references that made this development
     * possible:
     *
     *   M. Dion, H. Rydberg, E. Schroder, D. C. Langreth, and
     *   B. I. Lundqvist, Phys. Rev. Lett. 92, 246401 (2004).
     *
     *   T. Thonhauser, V. R. Cooper, S. Li, A. Puzder, P. Hyldgaard, and
     *   D. C. Langreth, Phys. Rev. B 76, 125112 (2007).
     *
     *   G. Roman-Perez and J. M. Soler, Phys. Rev. Lett. 103, 096102 (2009).
     *
     *
     * If you are using vdW-DF2, please also cite:
     *
     *   K. Lee, E. D. Murray, L. Kong, B. I. Lundqvist, and
     *   D. C. Langreth, Phys. Rev. B 82, 081101(R) (2010).
     *
     *
     * If you are calculating the stress with vdW-DF, please also cite:
     *
     *   R. Sabatini, E. Kucukbenli, B. Kolb, T. Thonhauser, and
     *   S. de Gironcoli, J. Phys.: Condens. Matter 24, 424209 (2012).
     *

     Carrying out vdW-DF run using the following parameters:

     Nqs =      20    Nr_points =    1024   r_max =   100.000
     q_mesh =
               0.00001000     0.04494208     0.09755937     0.15916263
               0.23128650     0.31572767     0.41458969     0.53033537
               0.66584808     0.82450364     1.01025438     1.22772762
               1.48234092     1.78043706     2.12944203     2.53805004
               3.01644009     3.57652955     4.23227104     5.00000000

     Gradients computed in reciprocal space

     Starting wfc are   40 randomized atomic wfcs +    7 random wfc

     Self-consistent Calculation

     iteration #  1     ecut=    58.80 Ry     beta=0.10
     Davidson diagonalization with overlap
     ethr =  1.00E-02,  avg # of iterations =  4.5

[...]

     total energy              =    -658.90835304 Ry
     Harris-Foulkes estimate   =    -658.95633906 Ry
     estimated scf accuracy    <       1.11910176 Ry

[...]

     iteration #  4     ecut=    58.80 Ry     beta=0.10
     Davidson diagonalization with overlap
     c_bands:  1 eigenvalues not converged
     c_bands:  2 eigenvalues not converged
     c_bands:  2 eigenvalues not converged
     ethr =  4.96E-05,  avg # of iterations =  7.0

[...]

     total energy              =    -658.58454645 Ry
     Harris-Foulkes estimate   =    -658.58451815 Ry
     estimated scf accuracy    <          7.9E-09 Ry

     iteration # 23     ecut=    58.80 Ry     beta=0.10
     Davidson diagonalization with overlap
     ethr =  1.46E-11,  avg # of iterations =  2.0

     negative rho (up, down):  1.694E-01 0.000E+00

     End of self-consistent calculation

          k = 0.0000 0.0000 0.0000 (  5743 PWs)   bands (ev):

   -51.7442 -20.1907 -20.1907 -20.1907  -5.3381  -5.3351  -5.3351  -5.3350
    -5.1355  -5.1354  -5.0218  -5.0218  -5.0218  -5.0073  -5.0072  -4.8486
    -4.8486  -4.8485  -4.8385   0.6110   5.4681   5.4681   9.3596   9.3596
     9.3596  12.2603  12.7971  12.7971  12.7971  12.9370  12.9370  14.4061
    14.4061  14.4061  16.3961  16.3961  16.3961  19.6957  21.1527  21.1527
    21.3845  21.3845  21.3845  22.0863  22.7076  22.7180  22.7181

[...]

          k = 0.0863-0.1036-0.1036 (  5812 PWs)   bands (ev):

[...]

          k =-0.1036-0.1036-0.1036 (  5832 PWs)   bands (ev):

   -51.7442 -20.1932 -20.1932 -20.1932  -5.2414  -5.2414  -5.2414  -5.1856
    -5.1716  -5.1716  -5.1716  -5.0434  -5.0434  -5.0434  -4.9763  -4.9763
    -4.8589  -4.8588  -4.8588   3.8531   3.8531   3.8531   7.6726   8.6254
     8.6254   8.6254  11.1309  13.4008  13.4008  13.8176  13.8176  13.8176
    18.2625  18.2625  18.2652  18.2653  18.2653  21.4363  21.4363  21.4363
    21.5397  22.5477  22.5478  22.5478  23.1303  23.1303  23.1303

     the Fermi energy is    12.2360 ev

!    total energy              =    -658.58466659 Ry
     Harris-Foulkes estimate   =    -658.58454646 Ry
     estimated scf accuracy    <          6.0E-09 Ry

     The total energy is the sum of the following terms:

     one-electron contribution =    -110.55061974 Ry
     hartree contribution      =      92.57654665 Ry
     xc contribution           =    -273.32433708 Ry
     ewald contribution        =    -367.27794049 Ry
     smearing contrib. (-TS)   =      -0.00831593 Ry

     convergence has been achieved in  23 iterations

     Forces acting on atoms (Ry/au):

     negative rho (up, down):  1.694E-01 0.000E+00
     atom    1 type  1   force =     0.00000000    0.00000000    0.00000000
     atom    2 type  1   force =     0.00000000    0.00000000    0.00000000
     atom    3 type  1   force =     0.00000000   -0.00000000    0.00000000
     atom    4 type  2   force =     0.00000000    0.00000000    0.00000000

     Total force =     0.000000     Total SCF correction =     0.000000
 !ASE

     General routines

     Parallel routines

   This run was terminated on:  11:24:33  25Oct2017

   JOB DONE.