     Program PWSCF v.5.1rc2 (svn rev. ) starts on 18Feb2018 at 16:24: 9

     Current dimensions of program PWSCF are:
     Max number of different atomic species (ntypx) = 10
     Max number of k-points (npk) =  40000
     Max angular momentum in pseudopotentials (lmaxx) =  3

     IMPORTANT: XC functional enforced from input :
     Exchange-correlation      = BEEF-VDW ( 1  4 27 13 2)
     Any further DFT definition will be discarded
     Please, verify this is what you really want

     Subspace diagonalization in iterative solution of the eigenvalue problem:
     a serial algorithm will be used

     bravais-lattice index     =            0
     lattice parameter (alat)  =       1.8897  a.u.
     unit-cell volume          =     572.2874 (a.u.)^3
     number of atoms/cell      =            4
     number of atomic types    =            2
     number of electrons       =        75.00
     number of Kohn-Sham states=           57
     kinetic-energy cutoff     =      58.7989  Ry
     charge density cutoff     =     587.9892  Ry
     convergence threshold     =      7.3E-09
     mixing beta               =       0.1000
     number of iterations used =           10  local-TF  mixing
     Exchange-correlation      = BEEF-VDW ( 1  4 27 13 2)
     nstep                     =           50

     celldm(1)=   1.889726  celldm(2)=   0.000000  celldm(3)=   0.000000
     celldm(4)=   0.000000  celldm(5)=   0.000000  celldm(6)=   0.000000

     crystal axes: (cart. coord. in units of alat)
               a(1) = (   4.393452   0.000000   0.000000 )
               a(2) = (   0.000000   4.393452   0.000000 )
               a(3) = (   0.000000   0.000000   4.393452 )

     reciprocal axes: (cart. coord. in units 2 pi/alat)
               b(1) = (  0.227611  0.000000  0.000000 )
               b(2) = (  0.000000  0.227611  0.000000 )
               b(3) = (  0.000000  0.000000  0.227611 )

     PseudoPot. # 1 for Zn read from file:
     /home/mamunm/src/pseudo/gbrv1.5pbe/Zn.UPF
     MD5 check sum: df62231357ef9e81f77b2b3087fa5675
     Pseudo is Ultrasoft, Zval = 20.0
     Generated by new atomic code, or converted to UPF format
     Using radial grid of  943 points,  6 beta functions with:
                l(1) =   0
                l(2) =   0
                l(3) =   1
                l(4) =   1
                l(5) =   2
                l(6) =   2
     Q(r) pseudized with  8 coefficients,  rinner =    1.100   1.100   1.100
                                                       1.100   1.100

     PseudoPot. # 2 for Bi read from file:
     /home/mamunm/src/pseudo/gbrv1.5pbe/Bi.UPF
     MD5 check sum: 81103212dc04adf40945787f699eab19
     Pseudo is Ultrasoft + core correction, Zval = 15.0
     Generated by new atomic code, or converted to UPF format
     Using radial grid of  899 points,  6 beta functions with:
                l(1) =   0
                l(2) =   0
                l(3) =   1
                l(4) =   1
                l(5) =   2
                l(6) =   2
     Q(r) pseudized with  6 coefficients,  rinner =    1.000   1.000   1.000
                                                       1.000   1.000

     vdW kernel table read from file vdW_kernel_table
     MD5 check sum: 095c7af220d748ca6e76c0b4c6cfb241

     atomic species   valence    mass     pseudopotential
        Zn1           20.00    65.38000     Zn( 1.00)
        Bi1           15.00   208.98040     Bi( 1.00)

     48 Sym. Ops., with inversion, found (32 have fractional translation)

   Cartesian axes

     site n.     atom                  positions (alat units)
         1           Zn1 tau(   1) = (   0.0000000   0.0000000   0.0000000  )
         2           Zn1 tau(   2) = (   0.0000000   2.1967259   2.1967259  )
         3           Zn1 tau(   3) = (   2.1967259   0.0000000   2.1967259  )
         4           Bi1 tau(   4) = (   2.1967259   2.1967259   0.0000000  )

     number of k points=    84  Fermi-Dirac smearing, width (Ry)=  0.0073
                       cart. coord. in units 2pi/alat
        k(    1) = (   0.0000000   0.0000000   0.0000000), wk =   0.0011574
        k(    2) = (   0.0000000   0.0000000   0.0189676), wk =   0.0069444
        k(    3) = (   0.0000000   0.0000000   0.0379352), wk =   0.0069444
        k(    4) = (   0.0000000   0.0000000   0.0569029), wk =   0.0069444
        k(    5) = (   0.0000000   0.0000000   0.0758705), wk =   0.0069444
        k(    6) = (   0.0000000   0.0000000   0.0948381), wk =   0.0069444
        k(    7) = (   0.0000000   0.0000000  -0.1138057), wk =   0.0034722
        k(    8) = (   0.0000000   0.0189676   0.0189676), wk =   0.0138889
        k(    9) = (   0.0000000   0.0189676   0.0379352), wk =   0.0277778
        k(   10) = (   0.0000000   0.0189676   0.0569029), wk =   0.0277778
        k(   11) = (   0.0000000   0.0189676   0.0758705), wk =   0.0277778
        k(   12) = (   0.0000000   0.0189676   0.0948381), wk =   0.0277778
        k(   13) = (   0.0000000   0.0189676  -0.1138057), wk =   0.0138889
        k(   14) = (   0.0000000   0.0379352   0.0379352), wk =   0.0138889
        k(   15) = (   0.0000000   0.0379352   0.0569029), wk =   0.0277778
        k(   16) = (   0.0000000   0.0379352   0.0758705), wk =   0.0277778
        k(   17) = (   0.0000000   0.0379352   0.0948381), wk =   0.0277778
        k(   18) = (   0.0000000   0.0379352  -0.1138057), wk =   0.0138889
        k(   19) = (   0.0000000   0.0569029   0.0569029), wk =   0.0138889
        k(   20) = (   0.0000000   0.0569029   0.0758705), wk =   0.0277778
        k(   21) = (   0.0000000   0.0569029   0.0948381), wk =   0.0277778
        k(   22) = (   0.0000000   0.0569029  -0.1138057), wk =   0.0138889
        k(   23) = (   0.0000000   0.0758705   0.0758705), wk =   0.0138889
        k(   24) = (   0.0000000   0.0758705   0.0948381), wk =   0.0277778
        k(   25) = (   0.0000000   0.0758705  -0.1138057), wk =   0.0138889
        k(   26) = (   0.0000000   0.0948381   0.0948381), wk =   0.0138889
        k(   27) = (   0.0000000   0.0948381  -0.1138057), wk =   0.0138889
        k(   28) = (   0.0000000  -0.1138057  -0.1138057), wk =   0.0034722
        k(   29) = (   0.0189676   0.0189676   0.0189676), wk =   0.0092593
        k(   30) = (   0.0189676   0.0189676   0.0379352), wk =   0.0277778
        k(   31) = (   0.0189676   0.0189676   0.0569029), wk =   0.0277778
        k(   32) = (   0.0189676   0.0189676   0.0758705), wk =   0.0277778
        k(   33) = (   0.0189676   0.0189676   0.0948381), wk =   0.0277778
        k(   34) = (   0.0189676   0.0189676  -0.1138057), wk =   0.0138889
        k(   35) = (   0.0189676   0.0379352   0.0379352), wk =   0.0277778
        k(   36) = (   0.0189676   0.0379352   0.0569029), wk =   0.0555556
        k(   37) = (   0.0189676   0.0379352   0.0758705), wk =   0.0555556
        k(   38) = (   0.0189676   0.0379352   0.0948381), wk =   0.0555556
        k(   39) = (   0.0189676   0.0379352  -0.1138057), wk =   0.0277778
        k(   40) = (   0.0189676   0.0569029   0.0569029), wk =   0.0277778
        k(   41) = (   0.0189676   0.0569029   0.0758705), wk =   0.0555556
        k(   42) = (   0.0189676   0.0569029   0.0948381), wk =   0.0555556
        k(   43) = (   0.0189676   0.0569029  -0.1138057), wk =   0.0277778
        k(   44) = (   0.0189676   0.0758705   0.0758705), wk =   0.0277778
        k(   45) = (   0.0189676   0.0758705   0.0948381), wk =   0.0555556
        k(   46) = (   0.0189676   0.0758705  -0.1138057), wk =   0.0277778
        k(   47) = (   0.0189676   0.0948381   0.0948381), wk =   0.0277778
        k(   48) = (   0.0189676   0.0948381  -0.1138057), wk =   0.0277778
        k(   49) = (   0.0189676  -0.1138057  -0.1138057), wk =   0.0069444
        k(   50) = (   0.0379352   0.0379352   0.0379352), wk =   0.0092593
        k(   51) = (   0.0379352   0.0379352   0.0569029), wk =   0.0277778
        k(   52) = (   0.0379352   0.0379352   0.0758705), wk =   0.0277778
        k(   53) = (   0.0379352   0.0379352   0.0948381), wk =   0.0277778
        k(   54) = (   0.0379352   0.0379352  -0.1138057), wk =   0.0138889
        k(   55) = (   0.0379352   0.0569029   0.0569029), wk =   0.0277778
        k(   56) = (   0.0379352   0.0569029   0.0758705), wk =   0.0555556
        k(   57) = (   0.0379352   0.0569029   0.0948381), wk =   0.0555556
        k(   58) = (   0.0379352   0.0569029  -0.1138057), wk =   0.0277778
        k(   59) = (   0.0379352   0.0758705   0.0758705), wk =   0.0277778
        k(   60) = (   0.0379352   0.0758705   0.0948381), wk =   0.0555556
[...]
        k(   70) = (   0.0569029   0.0758705   0.0948381), wk =   0.0555556
        k(   71) = (   0.0569029   0.0758705  -0.1138057), wk =   0.0277778
        k(   72) = (   0.0569029   0.0948381   0.0948381), wk =   0.0277778
        k(   73) = (   0.0569029   0.0948381  -0.1138057), wk =   0.0277778
        k(   74) = (   0.0569029  -0.1138057  -0.1138057), wk =   0.0069444
        k(   75) = (   0.0758705   0.0758705   0.0758705), wk =   0.0092593
        k(   76) = (   0.0758705   0.0758705   0.0948381), wk =   0.0277778
        k(   77) = (   0.0758705   0.0758705  -0.1138057), wk =   0.0138889
        k(   78) = (   0.0758705   0.0948381   0.0948381), wk =   0.0277778
        k(   79) = (   0.0758705   0.0948381  -0.1138057), wk =   0.0277778
        k(   80) = (   0.0758705  -0.1138057  -0.1138057), wk =   0.0069444
        k(   81) = (   0.0948381   0.0948381   0.0948381), wk =   0.0092593
        k(   82) = (   0.0948381   0.0948381  -0.1138057), wk =   0.0138889
        k(   83) = (   0.0948381  -0.1138057  -0.1138057), wk =   0.0069444
        k(   84) = (  -0.1138057  -0.1138057  -0.1138057), wk =   0.0011574

     Largest allocated arrays     est. size (Mb)     dimensions
     Largest temporary arrays     est. size (Mb)     dimensions

     Check: negative/imaginary core charge=   -0.000001    0.000000

     Initial potential from superposition of free atoms
     Check: negative starting charge=   -0.041720

     starting charge   73.99954, renormalised to   75.00000

     negative rho (up, down):  4.228E-02 0.000E+00

     *
     * You are using vdW-DF for exchange-correlation in this calculation.
     * Please cite the following three references that made this development
     * possible:
     *
     *   M. Dion, H. Rydberg, E. Schroder, D. C. Langreth, and
     *   B. I. Lundqvist, Phys. Rev. Lett. 92, 246401 (2004).
     *
     *   T. Thonhauser, V. R. Cooper, S. Li, A. Puzder, P. Hyldgaard, and
     *   D. C. Langreth, Phys. Rev. B 76, 125112 (2007).
     *
     *   G. Roman-Perez and J. M. Soler, Phys. Rev. Lett. 103, 096102 (2009).
     *
     *
     * If you are using vdW-DF2, please also cite:
     *
     *   K. Lee, E. D. Murray, L. Kong, B. I. Lundqvist, and
     *   D. C. Langreth, Phys. Rev. B 82, 081101(R) (2010).
     *
     *
     * If you are calculating the stress with vdW-DF, please also cite:
     *
     *   R. Sabatini, E. Kucukbenli, B. Kolb, T. Thonhauser, and
     *   S. de Gironcoli, J. Phys.: Condens. Matter 24, 424209 (2012).
     *

     Carrying out vdW-DF run using the following parameters:

     Nqs =      20    Nr_points =    1024   r_max =   100.000
     q_mesh =
               0.00001000     0.04494208     0.09755937     0.15916263
               0.23128650     0.31572767     0.41458969     0.53033537
               0.66584808     0.82450364     1.01025438     1.22772762
               1.48234092     1.78043706     2.12944203     2.53805004
               3.01644009     3.57652955     4.23227104     5.00000000

     Gradients computed in reciprocal space

     Starting wfc are   48 randomized atomic wfcs +    9 random wfc

     Self-consistent Calculation

     iteration #  1     ecut=    58.80 Ry     beta=0.10
     Davidson diagonalization with overlap
     ethr =  1.00E-02,  avg # of iterations =  5.2

[...]

     total energy              =   -1575.89169919 Ry
     Harris-Foulkes estimate   =   -1576.09160639 Ry
     estimated scf accuracy    <       2.94407175 Ry

[...]

     total energy              =   -1575.47618970 Ry
     Harris-Foulkes estimate   =   -1575.47618145 Ry
     estimated scf accuracy    <       0.00000001 Ry

     iteration # 14     ecut=    58.80 Ry     beta=0.10
     Davidson diagonalization with overlap
     ethr =  1.94E-11,  avg # of iterations =  2.0

     negative rho (up, down):  4.412E-02 0.000E+00

     End of self-consistent calculation

          k = 0.0000 0.0000 0.0000 (  4385 PWs)   bands (ev):

  -115.3510-115.3507-115.3507 -69.5388 -69.5388 -69.5388 -69.5384 -69.5384
   -69.5384 -69.5249 -69.5249 -69.5249 -12.2550 -12.2550 -12.2418 -12.2418
   -12.2418  -1.0510   3.3769   3.4710   3.4710   3.4710   3.5308   3.5308
     3.7865   3.7865   3.7865   3.9184   3.9184   3.9835   4.0510   4.0510
     4.0510   6.9915   8.7901   8.7901   8.7901  10.9284  10.9284  15.7943
    15.7943  15.7943  16.9239  16.9239  16.9239  19.5912  20.1961  20.1961
    20.1961  20.2201  20.2201  23.7742  23.7742  23.7742  25.1727  27.4244
    27.4244

[...]

          k = 0.0948-0.1138-0.1138 (  4328 PWs)   bands (ev):

[...]

          k =-0.1138-0.1138-0.1138 (  4272 PWs)   bands (ev):

  -115.3508-115.3508-115.3508 -69.5397 -69.5397 -69.5397 -69.5373 -69.5373
   -69.5373 -69.5274 -69.5239 -69.5239 -12.2500 -12.2500 -12.2500 -12.2334
   -12.2334   0.2288   3.4960   3.4960   3.4960   3.6487   3.6487   3.6487
     3.8268   3.8268   3.8268   3.8323   3.8323   4.0045   4.0045   4.0045
     4.1235   7.1836   7.1836   7.1836   8.6207   8.6207   8.6207   9.1951
    19.9668  19.9668  19.9668  21.5729  21.5729  21.5729  22.5206  22.5206
    24.1297  24.1297  24.1297  24.4306  25.0201  25.2037  25.2037  25.9598
    25.9598

     the Fermi energy is    11.1910 ev

!    total energy              =   -1575.47622486 Ry
     Harris-Foulkes estimate   =   -1575.47618970 Ry
     estimated scf accuracy    <          1.0E-09 Ry

     The total energy is the sum of the following terms:

     one-electron contribution =   -1250.83877736 Ry
     hartree contribution      =     653.86822284 Ry
     xc contribution           =    -196.83361926 Ry
     ewald contribution        =    -781.66833734 Ry
     smearing contrib. (-TS)   =      -0.00371374 Ry

     convergence has been achieved in  14 iterations

     Forces acting on atoms (Ry/au):

     negative rho (up, down):  4.412E-02 0.000E+00
     atom    1 type  1   force =     0.00000000    0.00000000    0.00000000
     atom    2 type  1   force =     0.00000000   -0.00000000    0.00000000
     atom    3 type  1   force =     0.00000000    0.00000000    0.00000000
     atom    4 type  2   force =     0.00000000    0.00000000    0.00000000

     Total force =     0.000000     Total SCF correction =     0.000000
 !ASE

     General routines

     Parallel routines

   This run was terminated on:  16:25:42  18Feb2018

   JOB DONE.