     Program PWSCF v.5.1rc2 (svn rev. ) starts on 26Oct2017 at  0: 7: 1

     Current dimensions of program PWSCF are:
     Max number of different atomic species (ntypx) = 10
     Max number of k-points (npk) =  40000
     Max angular momentum in pseudopotentials (lmaxx) =  3

     IMPORTANT: XC functional enforced from input :
     Exchange-correlation      = BEEF-VDW ( 1  4 27 13 2)
     Any further DFT definition will be discarded
     Please, verify this is what you really want

     Subspace diagonalization in iterative solution of the eigenvalue problem:
     a serial algorithm will be used

     bravais-lattice index     =            0
     lattice parameter (alat)  =       1.8897  a.u.
     unit-cell volume          =     396.8651 (a.u.)^3
     number of atoms/cell      =            4
     number of atomic types    =            2
     number of electrons       =        65.00
     number of Kohn-Sham states=           52
     kinetic-energy cutoff     =      58.7989  Ry
     charge density cutoff     =     587.9892  Ry
     convergence threshold     =      7.3E-09
     mixing beta               =       0.1000
     number of iterations used =           10  local-TF  mixing
     Exchange-correlation      = BEEF-VDW ( 1  4 27 13 2)
     nstep                     =           50

     celldm(1)=   1.889726  celldm(2)=   0.000000  celldm(3)=   0.000000
     celldm(4)=   0.000000  celldm(5)=   0.000000  celldm(6)=   0.000000

     crystal axes: (cart. coord. in units of alat)
               a(1) = (   3.888798   0.000000   0.000000 )
               a(2) = (   0.000000   3.888798   0.000000 )
               a(3) = (   0.000000   0.000000   3.888798 )

     reciprocal axes: (cart. coord. in units 2 pi/alat)
               b(1) = (  0.257149  0.000000  0.000000 )
               b(2) = (  0.000000  0.257149  0.000000 )
               b(3) = (  0.000000  0.000000  0.257149 )

     PseudoPot. # 1 for Re read from file:
     /home/vossj/suncat/psp/gbrv1.5pbe/Re.UPF
     MD5 check sum: 85f993410f3e006da9d71c142b4ad953
     Pseudo is Ultrasoft + core correction, Zval = 15.0
     Generated by new atomic code, or converted to UPF format
     Using radial grid of  981 points,  8 beta functions with:
                l(1) =   0
                l(2) =   0
                l(3) =   1
                l(4) =   1
                l(5) =   2
                l(6) =   2
                l(7) =   3
                l(8) =   3
     Q(r) pseudized with  8 coefficients,  rinner =    1.150   1.150   1.150
                                                       1.150   1.150   1.150
                                                       1.150

     PseudoPot. # 2 for Zn read from file:
     /home/vossj/suncat/psp/gbrv1.5pbe/Zn.UPF
     MD5 check sum: df62231357ef9e81f77b2b3087fa5675
     Pseudo is Ultrasoft, Zval = 20.0
     Generated by new atomic code, or converted to UPF format
     Using radial grid of  943 points,  6 beta functions with:
                l(1) =   0
                l(2) =   0
                l(3) =   1
                l(4) =   1
                l(5) =   2
                l(6) =   2
     Q(r) pseudized with  8 coefficients,  rinner =    1.100   1.100   1.100
                                                       1.100   1.100

     vdW kernel table read from file vdW_kernel_table
     MD5 check sum: 095c7af220d748ca6e76c0b4c6cfb241

     atomic species   valence    mass     pseudopotential
        Re1           15.00   186.20700     Re( 1.00)
        Zn1           20.00    65.38000     Zn( 1.00)

     48 Sym. Ops., with inversion, found (32 have fractional translation)

   Cartesian axes

     site n.     atom                  positions (alat units)
         1           Re1 tau(   1) = (   0.0000000   0.0000000   0.0000000  )
         2           Re1 tau(   2) = (   0.0000000   1.9443992   1.9443992  )
         3           Re1 tau(   3) = (   1.9443992   0.0000000   1.9443992  )
         4           Zn1 tau(   4) = (   1.9443992   1.9443992   0.0000000  )

     number of k points=    84  Fermi-Dirac smearing, width (Ry)=  0.0073
                       cart. coord. in units 2pi/alat
        k(    1) = (   0.0000000   0.0000000   0.0000000), wk =   0.0011574
        k(    2) = (   0.0000000   0.0000000   0.0214291), wk =   0.0069444
        k(    3) = (   0.0000000   0.0000000   0.0428581), wk =   0.0069444
        k(    4) = (   0.0000000   0.0000000   0.0642872), wk =   0.0069444
        k(    5) = (   0.0000000   0.0000000   0.0857163), wk =   0.0069444
        k(    6) = (   0.0000000   0.0000000   0.1071454), wk =   0.0069444
        k(    7) = (   0.0000000   0.0000000  -0.1285744), wk =   0.0034722
        k(    8) = (   0.0000000   0.0214291   0.0214291), wk =   0.0138889
        k(    9) = (   0.0000000   0.0214291   0.0428581), wk =   0.0277778
        k(   10) = (   0.0000000   0.0214291   0.0642872), wk =   0.0277778
        k(   11) = (   0.0000000   0.0214291   0.0857163), wk =   0.0277778
        k(   12) = (   0.0000000   0.0214291   0.1071454), wk =   0.0277778
        k(   13) = (   0.0000000   0.0214291  -0.1285744), wk =   0.0138889
        k(   14) = (   0.0000000   0.0428581   0.0428581), wk =   0.0138889
        k(   15) = (   0.0000000   0.0428581   0.0642872), wk =   0.0277778
        k(   16) = (   0.0000000   0.0428581   0.0857163), wk =   0.0277778
        k(   17) = (   0.0000000   0.0428581   0.1071454), wk =   0.0277778
        k(   18) = (   0.0000000   0.0428581  -0.1285744), wk =   0.0138889
        k(   19) = (   0.0000000   0.0642872   0.0642872), wk =   0.0138889
        k(   20) = (   0.0000000   0.0642872   0.0857163), wk =   0.0277778
        k(   21) = (   0.0000000   0.0642872   0.1071454), wk =   0.0277778
        k(   22) = (   0.0000000   0.0642872  -0.1285744), wk =   0.0138889
        k(   23) = (   0.0000000   0.0857163   0.0857163), wk =   0.0138889
        k(   24) = (   0.0000000   0.0857163   0.1071454), wk =   0.0277778
        k(   25) = (   0.0000000   0.0857163  -0.1285744), wk =   0.0138889
        k(   26) = (   0.0000000   0.1071454   0.1071454), wk =   0.0138889
        k(   27) = (   0.0000000   0.1071454  -0.1285744), wk =   0.0138889
        k(   28) = (   0.0000000  -0.1285744  -0.1285744), wk =   0.0034722
        k(   29) = (   0.0214291   0.0214291   0.0214291), wk =   0.0092593
        k(   30) = (   0.0214291   0.0214291   0.0428581), wk =   0.0277778
        k(   31) = (   0.0214291   0.0214291   0.0642872), wk =   0.0277778
        k(   32) = (   0.0214291   0.0214291   0.0857163), wk =   0.0277778
        k(   33) = (   0.0214291   0.0214291   0.1071454), wk =   0.0277778
        k(   34) = (   0.0214291   0.0214291  -0.1285744), wk =   0.0138889
        k(   35) = (   0.0214291   0.0428581   0.0428581), wk =   0.0277778
        k(   36) = (   0.0214291   0.0428581   0.0642872), wk =   0.0555556
        k(   37) = (   0.0214291   0.0428581   0.0857163), wk =   0.0555556
        k(   38) = (   0.0214291   0.0428581   0.1071454), wk =   0.0555556
        k(   39) = (   0.0214291   0.0428581  -0.1285744), wk =   0.0277778
        k(   40) = (   0.0214291   0.0642872   0.0642872), wk =   0.0277778
        k(   41) = (   0.0214291   0.0642872   0.0857163), wk =   0.0555556
        k(   42) = (   0.0214291   0.0642872   0.1071454), wk =   0.0555556
        k(   43) = (   0.0214291   0.0642872  -0.1285744), wk =   0.0277778
        k(   44) = (   0.0214291   0.0857163   0.0857163), wk =   0.0277778
        k(   45) = (   0.0214291   0.0857163   0.1071454), wk =   0.0555556
        k(   46) = (   0.0214291   0.0857163  -0.1285744), wk =   0.0277778
        k(   47) = (   0.0214291   0.1071454   0.1071454), wk =   0.0277778
        k(   48) = (   0.0214291   0.1071454  -0.1285744), wk =   0.0277778
        k(   49) = (   0.0214291  -0.1285744  -0.1285744), wk =   0.0069444
        k(   50) = (   0.0428581   0.0428581   0.0428581), wk =   0.0092593
        k(   51) = (   0.0428581   0.0428581   0.0642872), wk =   0.0277778
        k(   52) = (   0.0428581   0.0428581   0.0857163), wk =   0.0277778
        k(   53) = (   0.0428581   0.0428581   0.1071454), wk =   0.0277778
        k(   54) = (   0.0428581   0.0428581  -0.1285744), wk =   0.0138889
        k(   55) = (   0.0428581   0.0642872   0.0642872), wk =   0.0277778
        k(   56) = (   0.0428581   0.0642872   0.0857163), wk =   0.0555556
        k(   57) = (   0.0428581   0.0642872   0.1071454), wk =   0.0555556
        k(   58) = (   0.0428581   0.0642872  -0.1285744), wk =   0.0277778
        k(   59) = (   0.0428581   0.0857163   0.0857163), wk =   0.0277778
        k(   60) = (   0.0428581   0.0857163   0.1071454), wk =   0.0555556
[...]
        k(   70) = (   0.0642872   0.0857163   0.1071454), wk =   0.0555556
        k(   71) = (   0.0642872   0.0857163  -0.1285744), wk =   0.0277778
        k(   72) = (   0.0642872   0.1071454   0.1071454), wk =   0.0277778
        k(   73) = (   0.0642872   0.1071454  -0.1285744), wk =   0.0277778
        k(   74) = (   0.0642872  -0.1285744  -0.1285744), wk =   0.0069444
        k(   75) = (   0.0857163   0.0857163   0.0857163), wk =   0.0092593
        k(   76) = (   0.0857163   0.0857163   0.1071454), wk =   0.0277778
        k(   77) = (   0.0857163   0.0857163  -0.1285744), wk =   0.0138889
        k(   78) = (   0.0857163   0.1071454   0.1071454), wk =   0.0277778
        k(   79) = (   0.0857163   0.1071454  -0.1285744), wk =   0.0277778
        k(   80) = (   0.0857163  -0.1285744  -0.1285744), wk =   0.0069444
        k(   81) = (   0.1071454   0.1071454   0.1071454), wk =   0.0092593
        k(   82) = (   0.1071454   0.1071454  -0.1285744), wk =   0.0138889
        k(   83) = (   0.1071454  -0.1285744  -0.1285744), wk =   0.0069444
        k(   84) = (  -0.1285744  -0.1285744  -0.1285744), wk =   0.0011574

     Largest allocated arrays     est. size (Mb)     dimensions
     Largest temporary arrays     est. size (Mb)     dimensions

     Initial potential from superposition of free atoms
     Check: negative starting charge=   -0.386132

     starting charge   63.49972, renormalised to   65.00000

     negative rho (up, down):  3.953E-01 0.000E+00

     *
     * You are using vdW-DF for exchange-correlation in this calculation.
     * Please cite the following three references that made this development
     * possible:
     *
     *   M. Dion, H. Rydberg, E. Schroder, D. C. Langreth, and
     *   B. I. Lundqvist, Phys. Rev. Lett. 92, 246401 (2004).
     *
     *   T. Thonhauser, V. R. Cooper, S. Li, A. Puzder, P. Hyldgaard, and
     *   D. C. Langreth, Phys. Rev. B 76, 125112 (2007).
     *
     *   G. Roman-Perez and J. M. Soler, Phys. Rev. Lett. 103, 096102 (2009).
     *
     *
     * If you are using vdW-DF2, please also cite:
     *
     *   K. Lee, E. D. Murray, L. Kong, B. I. Lundqvist, and
     *   D. C. Langreth, Phys. Rev. B 82, 081101(R) (2010).
     *
     *
     * If you are calculating the stress with vdW-DF, please also cite:
     *
     *   R. Sabatini, E. Kucukbenli, B. Kolb, T. Thonhauser, and
     *   S. de Gironcoli, J. Phys.: Condens. Matter 24, 424209 (2012).
     *

     Carrying out vdW-DF run using the following parameters:

     Nqs =      20    Nr_points =    1024   r_max =   100.000
     q_mesh =
               0.00001000     0.04494208     0.09755937     0.15916263
               0.23128650     0.31572767     0.41458969     0.53033537
               0.66584808     0.82450364     1.01025438     1.22772762
               1.48234092     1.78043706     2.12944203     2.53805004
               3.01644009     3.57652955     4.23227104     5.00000000

     Gradients computed in reciprocal space

     Starting wfc are   52 randomized atomic wfcs

     Self-consistent Calculation

     iteration #  1     ecut=    58.80 Ry     beta=0.10
     Davidson diagonalization with overlap
     ethr =  1.00E-02,  avg # of iterations =  4.5

[...]

     total energy              =   -1038.55083052 Ry
     Harris-Foulkes estimate   =   -1041.14041231 Ry
     estimated scf accuracy    <      45.98219457 Ry

[...]

     total energy              =   -1039.29583678 Ry
     Harris-Foulkes estimate   =   -1039.29583643 Ry
     estimated scf accuracy    <       0.00000001 Ry

     iteration # 16     ecut=    58.80 Ry     beta=0.10
     Davidson diagonalization with overlap
     ethr =  1.74E-11,  avg # of iterations =  1.6

     negative rho (up, down):  4.125E-01 0.000E+00

     End of self-consistent calculation

          k = 0.0000 0.0000 0.0000 (  2969 PWs)   bands (ev):

  -104.8548 -59.0245 -59.0245 -59.0245 -58.9408 -58.8283 -58.8283 -20.9858
   -20.9858 -20.9858 -20.5148 -20.5148 -20.5148 -20.1990 -20.1990 -20.1990
    11.4512  13.6496  13.6496  13.8742  13.8742  13.8742  14.8025  17.3340
    17.3340  17.3340  17.6919  17.6919  22.0901  22.0901  22.0901  22.9896
    22.9896  22.9896  23.9919  23.9919  25.3990  26.2129  26.2129  26.2129
    29.7585  31.5696  31.5696  31.5696  33.0324  33.0324  34.7405  34.7405
    34.7405  35.9624  41.1649  41.1649

[...]

          k = 0.1071-0.1286-0.1286 (  3056 PWs)   bands (ev):

[...]

          k =-0.1286-0.1286-0.1286 (  3016 PWs)   bands (ev):

  -104.8548 -59.0246 -59.0246 -59.0246 -58.8654 -58.8654 -58.8654 -21.2277
   -20.9298 -20.9298 -20.9298 -20.2485 -20.2485 -20.2485 -20.2110 -20.2110
    13.6849  13.6849  13.6849  14.2420  14.2420  14.2606  16.5863  16.5863
    16.5863  19.6488  19.6488  19.6488  20.5181  20.5181  20.5181  21.7969
    21.7969  21.7969  22.0054  22.9591  22.9591  25.4688  25.4688  25.4688
    27.7573  30.1721  30.1721  30.1721  35.2778  35.4338  35.4338  35.4338
    37.9894  37.9894  37.9894  41.1718

     the Fermi energy is    21.9853 ev

!    total energy              =   -1039.29583835 Ry
     Harris-Foulkes estimate   =   -1039.29583679 Ry
     estimated scf accuracy    <          2.3E-10 Ry

     The total energy is the sum of the following terms:

     one-electron contribution =    -418.96448760 Ry
     hartree contribution      =     250.42748081 Ry
     xc contribution           =    -206.00508669 Ry
     ewald contribution        =    -664.74276135 Ry
     smearing contrib. (-TS)   =      -0.01098352 Ry

     convergence has been achieved in  16 iterations

     Forces acting on atoms (Ry/au):

     negative rho (up, down):  4.125E-01 0.000E+00
     atom    1 type  1   force =     0.00000000    0.00000000    0.00000000
     atom    2 type  1   force =     0.00000000    0.00000000    0.00000000
     atom    3 type  1   force =     0.00000000    0.00000000    0.00000000
     atom    4 type  2   force =     0.00000000    0.00000000    0.00000000

     Total force =     0.000000     Total SCF correction =     0.000000
 !ASE

     General routines

     Parallel routines

   This run was terminated on:   0: 8:21  26Oct2017

   JOB DONE.