     Program PWSCF v.5.1rc2 (svn rev. ) starts on 25Oct2017 at  1:48:28

     Current dimensions of program PWSCF are:
     Max number of different atomic species (ntypx) = 10
     Max number of k-points (npk) =  40000
     Max angular momentum in pseudopotentials (lmaxx) =  3

     IMPORTANT: XC functional enforced from input :
     Exchange-correlation      = BEEF-VDW ( 1  4 27 13 2)
     Any further DFT definition will be discarded
     Please, verify this is what you really want

     Subspace diagonalization in iterative solution of the eigenvalue problem:
     a serial algorithm will be used

     bravais-lattice index     =            0
     lattice parameter (alat)  =       1.8897  a.u.
     unit-cell volume          =     669.6136 (a.u.)^3
     number of atoms/cell      =            4
     number of atomic types    =            2
     number of electrons       =        52.00
     number of Kohn-Sham states=           46
     kinetic-energy cutoff     =      58.7989  Ry
     charge density cutoff     =     587.9892  Ry
     convergence threshold     =      7.3E-09
     mixing beta               =       0.1000
     number of iterations used =           10  local-TF  mixing
     Exchange-correlation      = BEEF-VDW ( 1  4 27 13 2)
     nstep                     =           50

     celldm(1)=   1.889726  celldm(2)=   0.000000  celldm(3)=   0.000000
     celldm(4)=   0.000000  celldm(5)=   0.000000  celldm(6)=   0.000000

     crystal axes: (cart. coord. in units of alat)
               a(1) = (   4.629590   0.000000   0.000000 )
               a(2) = (   0.000000   4.629590   0.000000 )
               a(3) = (   0.000000   0.000000   4.629590 )

     reciprocal axes: (cart. coord. in units 2 pi/alat)
               b(1) = (  0.216002  0.000000  0.000000 )
               b(2) = (  0.000000  0.216002  0.000000 )
               b(3) = (  0.000000  0.000000  0.216002 )

     PseudoPot. # 1 for Tl read from file:
     /home/vossj/suncat/psp/gbrv1.5pbe/Tl.UPF
     MD5 check sum: b76cf1f7e72655a2b2c53cf6385d7059
     Pseudo is Ultrasoft + core correction, Zval = 13.0
     Generated by new atomic code, or converted to UPF format
     Using radial grid of  899 points,  6 beta functions with:
                l(1) =   0
                l(2) =   0
                l(3) =   1
                l(4) =   1
                l(5) =   2
                l(6) =   2
     Q(r) pseudized with  6 coefficients,  rinner =    1.100   1.100   1.100
                                                       1.100   1.100

     PseudoPot. # 2 for Ta read from file:
     /home/vossj/suncat/psp/gbrv1.5pbe/Ta.UPF
     MD5 check sum: f8bbe9446314a3b8ea5d9f3e3836c939
     Pseudo is Ultrasoft + core correction, Zval = 13.0
     Generated by new atomic code, or converted to UPF format
     Using radial grid of  921 points,  7 beta functions with:
                l(1) =   0
                l(2) =   0
                l(3) =   1
                l(4) =   1
                l(5) =   2
                l(6) =   2
                l(7) =   3
     Q(r) pseudized with  6 coefficients,  rinner =    1.300   1.300   1.300
                                                       1.300   1.300   1.300
                                                       1.300

     vdW kernel table read from file vdW_kernel_table
     MD5 check sum: 095c7af220d748ca6e76c0b4c6cfb241

     atomic species   valence    mass     pseudopotential
        Tl1           13.00   204.38000     Tl( 1.00)
        Ta1           13.00   180.94788     Ta( 1.00)

     48 Sym. Ops., with inversion, found (32 have fractional translation)

   Cartesian axes

     site n.     atom                  positions (alat units)
         1           Tl1 tau(   1) = (   0.0000000   0.0000000   0.0000000  )
         2           Tl1 tau(   2) = (   0.0000000   2.3147951   2.3147951  )
         3           Tl1 tau(   3) = (   2.3147951   0.0000000   2.3147951  )
         4           Ta1 tau(   4) = (   2.3147951   2.3147951   0.0000000  )

     number of k points=    84  Fermi-Dirac smearing, width (Ry)=  0.0073
                       cart. coord. in units 2pi/alat
        k(    1) = (   0.0000000   0.0000000   0.0000000), wk =   0.0011574
        k(    2) = (   0.0000000   0.0000000   0.0180002), wk =   0.0069444
        k(    3) = (   0.0000000   0.0000000   0.0360003), wk =   0.0069444
        k(    4) = (   0.0000000   0.0000000   0.0540005), wk =   0.0069444
        k(    5) = (   0.0000000   0.0000000   0.0720006), wk =   0.0069444
        k(    6) = (   0.0000000   0.0000000   0.0900008), wk =   0.0069444
        k(    7) = (   0.0000000   0.0000000  -0.1080009), wk =   0.0034722
        k(    8) = (   0.0000000   0.0180002   0.0180002), wk =   0.0138889
        k(    9) = (   0.0000000   0.0180002   0.0360003), wk =   0.0277778
        k(   10) = (   0.0000000   0.0180002   0.0540005), wk =   0.0277778
        k(   11) = (   0.0000000   0.0180002   0.0720006), wk =   0.0277778
        k(   12) = (   0.0000000   0.0180002   0.0900008), wk =   0.0277778
        k(   13) = (   0.0000000   0.0180002  -0.1080009), wk =   0.0138889
        k(   14) = (   0.0000000   0.0360003   0.0360003), wk =   0.0138889
        k(   15) = (   0.0000000   0.0360003   0.0540005), wk =   0.0277778
        k(   16) = (   0.0000000   0.0360003   0.0720006), wk =   0.0277778
        k(   17) = (   0.0000000   0.0360003   0.0900008), wk =   0.0277778
        k(   18) = (   0.0000000   0.0360003  -0.1080009), wk =   0.0138889
        k(   19) = (   0.0000000   0.0540005   0.0540005), wk =   0.0138889
        k(   20) = (   0.0000000   0.0540005   0.0720006), wk =   0.0277778
        k(   21) = (   0.0000000   0.0540005   0.0900008), wk =   0.0277778
        k(   22) = (   0.0000000   0.0540005  -0.1080009), wk =   0.0138889
        k(   23) = (   0.0000000   0.0720006   0.0720006), wk =   0.0138889
        k(   24) = (   0.0000000   0.0720006   0.0900008), wk =   0.0277778
        k(   25) = (   0.0000000   0.0720006  -0.1080009), wk =   0.0138889
        k(   26) = (   0.0000000   0.0900008   0.0900008), wk =   0.0138889
        k(   27) = (   0.0000000   0.0900008  -0.1080009), wk =   0.0138889
        k(   28) = (   0.0000000  -0.1080009  -0.1080009), wk =   0.0034722
        k(   29) = (   0.0180002   0.0180002   0.0180002), wk =   0.0092593
        k(   30) = (   0.0180002   0.0180002   0.0360003), wk =   0.0277778
        k(   31) = (   0.0180002   0.0180002   0.0540005), wk =   0.0277778
        k(   32) = (   0.0180002   0.0180002   0.0720006), wk =   0.0277778
        k(   33) = (   0.0180002   0.0180002   0.0900008), wk =   0.0277778
        k(   34) = (   0.0180002   0.0180002  -0.1080009), wk =   0.0138889
        k(   35) = (   0.0180002   0.0360003   0.0360003), wk =   0.0277778
        k(   36) = (   0.0180002   0.0360003   0.0540005), wk =   0.0555556
        k(   37) = (   0.0180002   0.0360003   0.0720006), wk =   0.0555556
        k(   38) = (   0.0180002   0.0360003   0.0900008), wk =   0.0555556
        k(   39) = (   0.0180002   0.0360003  -0.1080009), wk =   0.0277778
        k(   40) = (   0.0180002   0.0540005   0.0540005), wk =   0.0277778
        k(   41) = (   0.0180002   0.0540005   0.0720006), wk =   0.0555556
        k(   42) = (   0.0180002   0.0540005   0.0900008), wk =   0.0555556
        k(   43) = (   0.0180002   0.0540005  -0.1080009), wk =   0.0277778
        k(   44) = (   0.0180002   0.0720006   0.0720006), wk =   0.0277778
        k(   45) = (   0.0180002   0.0720006   0.0900008), wk =   0.0555556
        k(   46) = (   0.0180002   0.0720006  -0.1080009), wk =   0.0277778
        k(   47) = (   0.0180002   0.0900008   0.0900008), wk =   0.0277778
        k(   48) = (   0.0180002   0.0900008  -0.1080009), wk =   0.0277778
        k(   49) = (   0.0180002  -0.1080009  -0.1080009), wk =   0.0069444
        k(   50) = (   0.0360003   0.0360003   0.0360003), wk =   0.0092593
        k(   51) = (   0.0360003   0.0360003   0.0540005), wk =   0.0277778
        k(   52) = (   0.0360003   0.0360003   0.0720006), wk =   0.0277778
        k(   53) = (   0.0360003   0.0360003   0.0900008), wk =   0.0277778
        k(   54) = (   0.0360003   0.0360003  -0.1080009), wk =   0.0138889
        k(   55) = (   0.0360003   0.0540005   0.0540005), wk =   0.0277778
        k(   56) = (   0.0360003   0.0540005   0.0720006), wk =   0.0555556
        k(   57) = (   0.0360003   0.0540005   0.0900008), wk =   0.0555556
        k(   58) = (   0.0360003   0.0540005  -0.1080009), wk =   0.0277778
        k(   59) = (   0.0360003   0.0720006   0.0720006), wk =   0.0277778
        k(   60) = (   0.0360003   0.0720006   0.0900008), wk =   0.0555556
[...]
        k(   70) = (   0.0540005   0.0720006   0.0900008), wk =   0.0555556
        k(   71) = (   0.0540005   0.0720006  -0.1080009), wk =   0.0277778
        k(   72) = (   0.0540005   0.0900008   0.0900008), wk =   0.0277778
        k(   73) = (   0.0540005   0.0900008  -0.1080009), wk =   0.0277778
        k(   74) = (   0.0540005  -0.1080009  -0.1080009), wk =   0.0069444
        k(   75) = (   0.0720006   0.0720006   0.0720006), wk =   0.0092593
        k(   76) = (   0.0720006   0.0720006   0.0900008), wk =   0.0277778
        k(   77) = (   0.0720006   0.0720006  -0.1080009), wk =   0.0138889
        k(   78) = (   0.0720006   0.0900008   0.0900008), wk =   0.0277778
        k(   79) = (   0.0720006   0.0900008  -0.1080009), wk =   0.0277778
        k(   80) = (   0.0720006  -0.1080009  -0.1080009), wk =   0.0069444
        k(   81) = (   0.0900008   0.0900008   0.0900008), wk =   0.0092593
        k(   82) = (   0.0900008   0.0900008  -0.1080009), wk =   0.0138889
        k(   83) = (   0.0900008  -0.1080009  -0.1080009), wk =   0.0069444
        k(   84) = (  -0.1080009  -0.1080009  -0.1080009), wk =   0.0011574

     Largest allocated arrays     est. size (Mb)     dimensions
     Largest temporary arrays     est. size (Mb)     dimensions

     Initial potential from superposition of free atoms
     Check: negative starting charge=   -0.243299

     starting charge   51.98429, renormalised to   52.00000

     negative rho (up, down):  2.434E-01 0.000E+00

     *
     * You are using vdW-DF for exchange-correlation in this calculation.
     * Please cite the following three references that made this development
     * possible:
     *
     *   M. Dion, H. Rydberg, E. Schroder, D. C. Langreth, and
     *   B. I. Lundqvist, Phys. Rev. Lett. 92, 246401 (2004).
     *
     *   T. Thonhauser, V. R. Cooper, S. Li, A. Puzder, P. Hyldgaard, and
     *   D. C. Langreth, Phys. Rev. B 76, 125112 (2007).
     *
     *   G. Roman-Perez and J. M. Soler, Phys. Rev. Lett. 103, 096102 (2009).
     *
     *
     * If you are using vdW-DF2, please also cite:
     *
     *   K. Lee, E. D. Murray, L. Kong, B. I. Lundqvist, and
     *   D. C. Langreth, Phys. Rev. B 82, 081101(R) (2010).
     *
     *
     * If you are calculating the stress with vdW-DF, please also cite:
     *
     *   R. Sabatini, E. Kucukbenli, B. Kolb, T. Thonhauser, and
     *   S. de Gironcoli, J. Phys.: Condens. Matter 24, 424209 (2012).
     *

     Carrying out vdW-DF run using the following parameters:

     Nqs =      20    Nr_points =    1024   r_max =   100.000
     q_mesh =
               0.00001000     0.04494208     0.09755937     0.15916263
               0.23128650     0.31572767     0.41458969     0.53033537
               0.66584808     0.82450364     1.01025438     1.22772762
               1.48234092     1.78043706     2.12944203     2.53805004
               3.01644009     3.57652955     4.23227104     5.00000000

     Gradients computed in reciprocal space

     Starting wfc are   40 randomized atomic wfcs +    6 random wfc

     Self-consistent Calculation

     iteration #  1     ecut=    58.80 Ry     beta=0.10
     Davidson diagonalization with overlap
     ethr =  1.00E-02,  avg # of iterations =  5.6

     Threshold (ethr) on eigenvalues was too large:
     Diagonalizing with lowered threshold

     Davidson diagonalization with overlap
     ethr =  4.57E-05,  avg # of iterations =  3.7

[...]

     total energy              =    -583.45116754 Ry
     Harris-Foulkes estimate   =    -583.44943027 Ry
     estimated scf accuracy    <       0.02403009 Ry

[...]

     total energy              =    -583.45645499 Ry
     Harris-Foulkes estimate   =    -583.45645279 Ry
     estimated scf accuracy    <       0.00000005 Ry

     iteration # 33     ecut=    58.80 Ry     beta=0.10
     Davidson diagonalization with overlap
     ethr =  6.94E-11,  avg # of iterations =  2.2

     negative rho (up, down):  2.602E-01 0.000E+00

     End of self-consistent calculation

          k = 0.0000 0.0000 0.0000 (  5041 PWs)   bands (ev):

   -56.4477 -22.7239 -22.7238 -22.7238   0.5070   0.5990   0.5991   0.5991
     0.8974   0.8974   1.2515   1.2515   1.2516   1.3946   1.3946   1.6818
     1.7143   1.7144   1.7144   2.5890   9.1302   9.1302  11.3933  11.3933
    11.3933  13.4044  13.4044  13.4044  14.2815  14.2815  14.4815  17.4257
    17.4257  17.4257  19.1150  19.1150  19.1150  23.2184  23.7802  23.7802
    24.1258  24.7520  24.7521  24.7521  25.9572  25.9572

[...]

          k = 0.0900-0.1080-0.1080 (  5072 PWs)   bands (ev):

[...]

          k =-0.1080-0.1080-0.1080 (  5040 PWs)   bands (ev):

   -56.4476 -22.7263 -22.7263 -22.7263   0.7233   0.7233   0.7233   0.7549
     0.9711   0.9711   0.9712   1.2403   1.2403   1.2403   1.3641   1.3641
     1.6621   1.6621   1.6621   7.1806   7.1806   7.1806   9.5204  10.3586
    10.3586  10.3586  12.7872  13.7482  13.7482  14.6769  14.6769  14.6769
    22.2253  22.2254  22.2254  22.2658  22.2658  23.5212  23.5212  23.5212
    23.5766  25.7214  25.7214  25.7214  27.5291  27.5291

     the Fermi energy is    13.0777 ev

!    total energy              =    -583.45646433 Ry
     Harris-Foulkes estimate   =    -583.45645500 Ry
     estimated scf accuracy    <          4.2E-09 Ry

     The total energy is the sum of the following terms:

     one-electron contribution =     -69.07103932 Ry
     hartree contribution      =      75.55870380 Ry
     xc contribution           =    -235.66736329 Ry
     ewald contribution        =    -354.26769368 Ry
     smearing contrib. (-TS)   =      -0.00907185 Ry

     convergence has been achieved in  33 iterations

     Forces acting on atoms (Ry/au):

     negative rho (up, down):  2.602E-01 0.000E+00
     atom    1 type  1   force =     0.00000000    0.00000000    0.00000000
     atom    2 type  1   force =     0.00000000    0.00000000   -0.00000000
     atom    3 type  1   force =     0.00000000    0.00000000    0.00000000
     atom    4 type  2   force =     0.00000000    0.00000000    0.00000000

     Total force =     0.000000     Total SCF correction =     0.000000
 !ASE

     General routines

     Parallel routines

   This run was terminated on:   1:51:34  25Oct2017

   JOB DONE.