     Program PWSCF v.5.1rc2 (svn rev. ) starts on 25Oct2017 at 10:48:13

     Current dimensions of program PWSCF are:
     Max number of different atomic species (ntypx) = 10
     Max number of k-points (npk) =  40000
     Max angular momentum in pseudopotentials (lmaxx) =  3

     IMPORTANT: XC functional enforced from input :
     Exchange-correlation      = BEEF-VDW ( 1  4 27 13 2)
     Any further DFT definition will be discarded
     Please, verify this is what you really want

     Subspace diagonalization in iterative solution of the eigenvalue problem:
     a serial algorithm will be used

     bravais-lattice index     =            0
     lattice parameter (alat)  =       1.8897  a.u.
     unit-cell volume          =     439.2621 (a.u.)^3
     number of atoms/cell      =            4
     number of atomic types    =            2
     number of electrons       =        67.00
     number of Kohn-Sham states=           53
     kinetic-energy cutoff     =      58.7989  Ry
     charge density cutoff     =     587.9892  Ry
     convergence threshold     =      7.3E-09
     mixing beta               =       0.1000
     number of iterations used =           10  local-TF  mixing
     Exchange-correlation      = BEEF-VDW ( 1  4 27 13 2)
     nstep                     =           50

     celldm(1)=   1.889726  celldm(2)=   0.000000  celldm(3)=   0.000000
     celldm(4)=   0.000000  celldm(5)=   0.000000  celldm(6)=   0.000000

     crystal axes: (cart. coord. in units of alat)
               a(1) = (   4.022620   0.000000   0.000000 )
               a(2) = (   0.000000   4.022620   0.000000 )
               a(3) = (   0.000000   0.000000   4.022620 )

     reciprocal axes: (cart. coord. in units 2 pi/alat)
               b(1) = (  0.248594  0.000000  0.000000 )
               b(2) = (  0.000000  0.248594  0.000000 )
               b(3) = (  0.000000  0.000000  0.248594 )

     PseudoPot. # 1 for Pd read from file:
     /home/vossj/suncat/psp/gbrv1.5pbe/Pd.UPF
     MD5 check sum: 2d733d2bc2cbfd217af676df1668a4bc
     Pseudo is Ultrasoft + core correction, Zval = 16.0
     Generated by new atomic code, or converted to UPF format
     Using radial grid of  887 points,  6 beta functions with:
                l(1) =   0
                l(2) =   0
                l(3) =   1
                l(4) =   1
                l(5) =   2
                l(6) =   2
     Q(r) pseudized with  8 coefficients,  rinner =    1.130   1.130   1.130
                                                       1.130   1.130

     PseudoPot. # 2 for Ag read from file:
     /home/vossj/suncat/psp/gbrv1.5pbe/Ag.UPF
     MD5 check sum: d66d668201baa78d5eb5b04ef7011058
     Pseudo is Ultrasoft + core correction, Zval = 19.0
     Generated by new atomic code, or converted to UPF format
     Using radial grid of  887 points,  6 beta functions with:
                l(1) =   0
                l(2) =   0
                l(3) =   1
                l(4) =   1
                l(5) =   2
                l(6) =   2
     Q(r) pseudized with  6 coefficients,  rinner =    1.300   1.300   1.300
                                                       1.300   1.300

     vdW kernel table read from file vdW_kernel_table
     MD5 check sum: 095c7af220d748ca6e76c0b4c6cfb241

     atomic species   valence    mass     pseudopotential
        Pd1           16.00   106.42000     Pd( 1.00)
        Ag1           19.00   107.86820     Ag( 1.00)

     48 Sym. Ops., with inversion, found (32 have fractional translation)

   Cartesian axes

     site n.     atom                  positions (alat units)
         1           Pd1 tau(   1) = (   0.0000000   0.0000000   0.0000000  )
         2           Pd1 tau(   2) = (   0.0000000   2.0113102   2.0113102  )
         3           Pd1 tau(   3) = (   2.0113102   0.0000000   2.0113102  )
         4           Ag1 tau(   4) = (   2.0113102   2.0113102   0.0000000  )

     number of k points=    84  Fermi-Dirac smearing, width (Ry)=  0.0073
                       cart. coord. in units 2pi/alat
        k(    1) = (   0.0000000   0.0000000   0.0000000), wk =   0.0011574
        k(    2) = (   0.0000000   0.0000000   0.0207162), wk =   0.0069444
        k(    3) = (   0.0000000   0.0000000   0.0414324), wk =   0.0069444
        k(    4) = (   0.0000000   0.0000000   0.0621485), wk =   0.0069444
        k(    5) = (   0.0000000   0.0000000   0.0828647), wk =   0.0069444
        k(    6) = (   0.0000000   0.0000000   0.1035809), wk =   0.0069444
        k(    7) = (   0.0000000   0.0000000  -0.1242971), wk =   0.0034722
        k(    8) = (   0.0000000   0.0207162   0.0207162), wk =   0.0138889
        k(    9) = (   0.0000000   0.0207162   0.0414324), wk =   0.0277778
        k(   10) = (   0.0000000   0.0207162   0.0621485), wk =   0.0277778
        k(   11) = (   0.0000000   0.0207162   0.0828647), wk =   0.0277778
        k(   12) = (   0.0000000   0.0207162   0.1035809), wk =   0.0277778
        k(   13) = (   0.0000000   0.0207162  -0.1242971), wk =   0.0138889
        k(   14) = (   0.0000000   0.0414324   0.0414324), wk =   0.0138889
        k(   15) = (   0.0000000   0.0414324   0.0621485), wk =   0.0277778
        k(   16) = (   0.0000000   0.0414324   0.0828647), wk =   0.0277778
        k(   17) = (   0.0000000   0.0414324   0.1035809), wk =   0.0277778
        k(   18) = (   0.0000000   0.0414324  -0.1242971), wk =   0.0138889
        k(   19) = (   0.0000000   0.0621485   0.0621485), wk =   0.0138889
        k(   20) = (   0.0000000   0.0621485   0.0828647), wk =   0.0277778
        k(   21) = (   0.0000000   0.0621485   0.1035809), wk =   0.0277778
        k(   22) = (   0.0000000   0.0621485  -0.1242971), wk =   0.0138889
        k(   23) = (   0.0000000   0.0828647   0.0828647), wk =   0.0138889
        k(   24) = (   0.0000000   0.0828647   0.1035809), wk =   0.0277778
        k(   25) = (   0.0000000   0.0828647  -0.1242971), wk =   0.0138889
        k(   26) = (   0.0000000   0.1035809   0.1035809), wk =   0.0138889
        k(   27) = (   0.0000000   0.1035809  -0.1242971), wk =   0.0138889
        k(   28) = (   0.0000000  -0.1242971  -0.1242971), wk =   0.0034722
        k(   29) = (   0.0207162   0.0207162   0.0207162), wk =   0.0092593
        k(   30) = (   0.0207162   0.0207162   0.0414324), wk =   0.0277778
        k(   31) = (   0.0207162   0.0207162   0.0621485), wk =   0.0277778
        k(   32) = (   0.0207162   0.0207162   0.0828647), wk =   0.0277778
        k(   33) = (   0.0207162   0.0207162   0.1035809), wk =   0.0277778
        k(   34) = (   0.0207162   0.0207162  -0.1242971), wk =   0.0138889
        k(   35) = (   0.0207162   0.0414324   0.0414324), wk =   0.0277778
        k(   36) = (   0.0207162   0.0414324   0.0621485), wk =   0.0555556
        k(   37) = (   0.0207162   0.0414324   0.0828647), wk =   0.0555556
        k(   38) = (   0.0207162   0.0414324   0.1035809), wk =   0.0555556
        k(   39) = (   0.0207162   0.0414324  -0.1242971), wk =   0.0277778
        k(   40) = (   0.0207162   0.0621485   0.0621485), wk =   0.0277778
        k(   41) = (   0.0207162   0.0621485   0.0828647), wk =   0.0555556
        k(   42) = (   0.0207162   0.0621485   0.1035809), wk =   0.0555556
        k(   43) = (   0.0207162   0.0621485  -0.1242971), wk =   0.0277778
        k(   44) = (   0.0207162   0.0828647   0.0828647), wk =   0.0277778
        k(   45) = (   0.0207162   0.0828647   0.1035809), wk =   0.0555556
        k(   46) = (   0.0207162   0.0828647  -0.1242971), wk =   0.0277778
        k(   47) = (   0.0207162   0.1035809   0.1035809), wk =   0.0277778
        k(   48) = (   0.0207162   0.1035809  -0.1242971), wk =   0.0277778
        k(   49) = (   0.0207162  -0.1242971  -0.1242971), wk =   0.0069444
        k(   50) = (   0.0414324   0.0414324   0.0414324), wk =   0.0092593
        k(   51) = (   0.0414324   0.0414324   0.0621485), wk =   0.0277778
        k(   52) = (   0.0414324   0.0414324   0.0828647), wk =   0.0277778
        k(   53) = (   0.0414324   0.0414324   0.1035809), wk =   0.0277778
        k(   54) = (   0.0414324   0.0414324  -0.1242971), wk =   0.0138889
        k(   55) = (   0.0414324   0.0621485   0.0621485), wk =   0.0277778
        k(   56) = (   0.0414324   0.0621485   0.0828647), wk =   0.0555556
        k(   57) = (   0.0414324   0.0621485   0.1035809), wk =   0.0555556
        k(   58) = (   0.0414324   0.0621485  -0.1242971), wk =   0.0277778
        k(   59) = (   0.0414324   0.0828647   0.0828647), wk =   0.0277778
        k(   60) = (   0.0414324   0.0828647   0.1035809), wk =   0.0555556
[...]
        k(   70) = (   0.0621485   0.0828647   0.1035809), wk =   0.0555556
        k(   71) = (   0.0621485   0.0828647  -0.1242971), wk =   0.0277778
        k(   72) = (   0.0621485   0.1035809   0.1035809), wk =   0.0277778
        k(   73) = (   0.0621485   0.1035809  -0.1242971), wk =   0.0277778
        k(   74) = (   0.0621485  -0.1242971  -0.1242971), wk =   0.0069444
        k(   75) = (   0.0828647   0.0828647   0.0828647), wk =   0.0092593
        k(   76) = (   0.0828647   0.0828647   0.1035809), wk =   0.0277778
        k(   77) = (   0.0828647   0.0828647  -0.1242971), wk =   0.0138889
        k(   78) = (   0.0828647   0.1035809   0.1035809), wk =   0.0277778
        k(   79) = (   0.0828647   0.1035809  -0.1242971), wk =   0.0277778
        k(   80) = (   0.0828647  -0.1242971  -0.1242971), wk =   0.0069444
        k(   81) = (   0.1035809   0.1035809   0.1035809), wk =   0.0092593
        k(   82) = (   0.1035809   0.1035809  -0.1242971), wk =   0.0138889
        k(   83) = (   0.1035809  -0.1242971  -0.1242971), wk =   0.0069444
        k(   84) = (  -0.1242971  -0.1242971  -0.1242971), wk =   0.0011574

     Largest allocated arrays     est. size (Mb)     dimensions
     Largest temporary arrays     est. size (Mb)     dimensions

     Initial potential from superposition of free atoms
     Check: negative starting charge=   -0.232357

     starting charge   64.99993, renormalised to   67.00000

     negative rho (up, down):  2.395E-01 0.000E+00

     *
     * You are using vdW-DF for exchange-correlation in this calculation.
     * Please cite the following three references that made this development
     * possible:
     *
     *   M. Dion, H. Rydberg, E. Schroder, D. C. Langreth, and
     *   B. I. Lundqvist, Phys. Rev. Lett. 92, 246401 (2004).
     *
     *   T. Thonhauser, V. R. Cooper, S. Li, A. Puzder, P. Hyldgaard, and
     *   D. C. Langreth, Phys. Rev. B 76, 125112 (2007).
     *
     *   G. Roman-Perez and J. M. Soler, Phys. Rev. Lett. 103, 096102 (2009).
     *
     *
     * If you are using vdW-DF2, please also cite:
     *
     *   K. Lee, E. D. Murray, L. Kong, B. I. Lundqvist, and
     *   D. C. Langreth, Phys. Rev. B 82, 081101(R) (2010).
     *
     *
     * If you are calculating the stress with vdW-DF, please also cite:
     *
     *   R. Sabatini, E. Kucukbenli, B. Kolb, T. Thonhauser, and
     *   S. de Gironcoli, J. Phys.: Condens. Matter 24, 424209 (2012).
     *

     Carrying out vdW-DF run using the following parameters:

     Nqs =      20    Nr_points =    1024   r_max =   100.000
     q_mesh =
               0.00001000     0.04494208     0.09755937     0.15916263
               0.23128650     0.31572767     0.41458969     0.53033537
               0.66584808     0.82450364     1.01025438     1.22772762
               1.48234092     1.78043706     2.12944203     2.53805004
               3.01644009     3.57652955     4.23227104     5.00000000

     Gradients computed in reciprocal space

     Starting wfc are   49 randomized atomic wfcs +    4 random wfc

     Self-consistent Calculation

     iteration #  1     ecut=    58.80 Ry     beta=0.10
     Davidson diagonalization with overlap
     ethr =  1.00E-02,  avg # of iterations =  4.5

[...]

     total energy              =    -896.85803701 Ry
     Harris-Foulkes estimate   =    -897.12363833 Ry
     estimated scf accuracy    <       3.74804417 Ry

[...]

     total energy              =    -896.10644337 Ry
     Harris-Foulkes estimate   =    -896.10644003 Ry
     estimated scf accuracy    <       0.00000016 Ry

     iteration # 12     ecut=    58.80 Ry     beta=0.10
     Davidson diagonalization with overlap
     ethr =  2.38E-10,  avg # of iterations =  2.0

     negative rho (up, down):  2.427E-01 0.000E+00

     End of self-consistent calculation

          k = 0.0000 0.0000 0.0000 (  3407 PWs)   bands (ev):

   -75.0100 -38.5028 -38.5028 -38.5028 -33.2607 -33.2607 -33.2607 -33.1215
   -33.1215 -33.1215 -33.0691 -33.0691 -33.0691   9.9627  11.2232  11.2232
    11.5533  11.5533  11.5533  11.8522  13.5477  13.5477  13.5477  14.6164
    14.6164  15.8437  15.8437  15.8437  15.9526  15.9526  16.3976  16.6860
    16.6860  16.6860  19.7408  19.7408  19.7408  25.7187  25.9593  25.9593
    29.0206  29.0206  29.0206  29.3740  29.3740  29.3740  34.2282  36.1395
    36.3608  36.3608  36.3608  36.4673  36.4673

[...]

          k = 0.1036-0.1243-0.1243 (  3348 PWs)   bands (ev):

[...]

          k =-0.1243-0.1243-0.1243 (  3328 PWs)   bands (ev):

   -75.0099 -38.5037 -38.5037 -38.5037 -33.3434 -33.2151 -33.2151 -33.2151
   -33.1039 -33.1039 -33.0560 -33.0560 -33.0560  11.3586  11.3586  11.3586
    11.7859  12.6322  12.6322  13.4829  13.4829  13.4829  14.0156  14.0156
    14.0156  15.7308  15.7308  15.7308  15.8597  15.8597  16.4224  16.4224
    16.4224  17.5239  17.5239  17.5239  17.8139  22.3961  22.7734  22.7734
    22.7734  33.3860  33.3860  33.3860  33.4562  36.5351  36.5351  36.5351
    37.0685  37.0685  37.0685  37.1342  37.1342

     the Fermi energy is    16.4222 ev

!    total energy              =    -896.10645878 Ry
     Harris-Foulkes estimate   =    -896.10644340 Ry
     estimated scf accuracy    <          4.3E-09 Ry

     The total energy is the sum of the following terms:

     one-electron contribution =    -278.48465183 Ry
     hartree contribution      =     189.07973872 Ry
     xc contribution           =    -127.81467902 Ry
     ewald contribution        =    -678.87638169 Ry
     smearing contrib. (-TS)   =      -0.01048496 Ry

     convergence has been achieved in  12 iterations

     Forces acting on atoms (Ry/au):

     negative rho (up, down):  2.427E-01 0.000E+00
     atom    1 type  1   force =     0.00000000    0.00000000    0.00000000
     atom    2 type  1   force =     0.00000000    0.00000000    0.00000000
     atom    3 type  1   force =     0.00000000    0.00000000    0.00000000
     atom    4 type  2   force =     0.00000000    0.00000000    0.00000000

     Total force =     0.000000     Total SCF correction =     0.000000
 !ASE

     General routines

     Parallel routines

   This run was terminated on:  10:49: 7  25Oct2017

   JOB DONE.