     Program PWSCF v.5.1rc2 (svn rev. ) starts on 25Oct2017 at 13:45: 0

     Current dimensions of program PWSCF are:
     Max number of different atomic species (ntypx) = 10
     Max number of k-points (npk) =  40000
     Max angular momentum in pseudopotentials (lmaxx) =  3

     IMPORTANT: XC functional enforced from input :
     Exchange-correlation      = BEEF-VDW ( 1  4 27 13 2)
     Any further DFT definition will be discarded
     Please, verify this is what you really want

     Subspace diagonalization in iterative solution of the eigenvalue problem:
     a serial algorithm will be used

     bravais-lattice index     =            0
     lattice parameter (alat)  =       1.8897  a.u.
     unit-cell volume          =     782.2036 (a.u.)^3
     number of atoms/cell      =            4
     number of atomic types    =            2
     number of electrons       =        48.00
     number of Kohn-Sham states=           44
     kinetic-energy cutoff     =      58.7989  Ry
     charge density cutoff     =     587.9892  Ry
     convergence threshold     =      7.3E-09
     mixing beta               =       0.1000
     number of iterations used =           10  local-TF  mixing
     Exchange-correlation      = BEEF-VDW ( 1  4 27 13 2)
     nstep                     =           50

     celldm(1)=   1.889726  celldm(2)=   0.000000  celldm(3)=   0.000000
     celldm(4)=   0.000000  celldm(5)=   0.000000  celldm(6)=   0.000000

     crystal axes: (cart. coord. in units of alat)
               a(1) = (   4.875746   0.000000   0.000000 )
               a(2) = (   0.000000   4.875746   0.000000 )
               a(3) = (   0.000000   0.000000   4.875746 )

     reciprocal axes: (cart. coord. in units 2 pi/alat)
               b(1) = (  0.205097  0.000000  0.000000 )
               b(2) = (  0.000000  0.205097  0.000000 )
               b(3) = (  0.000000  0.000000  0.205097 )

     PseudoPot. # 1 for La read from file:
     /home/vossj/suncat/psp/gbrv1.5pbe/La.UPF
     MD5 check sum: 5937b0c7494ba0601a847275249473aa
     Pseudo is Ultrasoft + core correction, Zval = 11.0
     Generated by new atomic code, or converted to UPF format
     Using radial grid of  995 points,  8 beta functions with:
                l(1) =   0
                l(2) =   0
                l(3) =   1
                l(4) =   1
                l(5) =   2
                l(6) =   2
                l(7) =   3
                l(8) =   3
     Q(r) pseudized with  8 coefficients,  rinner =    1.700   1.700   1.700
                                                       1.700   1.700   1.700
                                                       1.700

     PseudoPot. # 2 for Rh read from file:
     /home/vossj/suncat/psp/gbrv1.5pbe/Rh.UPF
     MD5 check sum: 761627e959a2e3a1f56b0b5fe687810e
     Pseudo is Ultrasoft + core correction, Zval = 15.0
     Generated by new atomic code, or converted to UPF format
     Using radial grid of  969 points,  7 beta functions with:
                l(1) =   0
                l(2) =   0
                l(3) =   1
                l(4) =   1
                l(5) =   2
                l(6) =   2
                l(7) =   2
     Q(r) pseudized with  8 coefficients,  rinner =    1.200   1.200   1.200
                                                       1.200   1.200

     vdW kernel table read from file vdW_kernel_table
     MD5 check sum: 095c7af220d748ca6e76c0b4c6cfb241

     atomic species   valence    mass     pseudopotential
        La1           11.00   138.90547     La( 1.00)
        Rh1           15.00   102.90550     Rh( 1.00)

     48 Sym. Ops., with inversion, found (32 have fractional translation)

   Cartesian axes

     site n.     atom                  positions (alat units)
         1           La1 tau(   1) = (   0.0000000   0.0000000   0.0000000  )
         2           La1 tau(   2) = (   0.0000000   2.4378730   2.4378730  )
         3           La1 tau(   3) = (   2.4378730   0.0000000   2.4378730  )
         4           Rh1 tau(   4) = (   2.4378730   2.4378730   0.0000000  )

     number of k points=    84  Fermi-Dirac smearing, width (Ry)=  0.0073
                       cart. coord. in units 2pi/alat
        k(    1) = (   0.0000000   0.0000000   0.0000000), wk =   0.0011574
        k(    2) = (   0.0000000   0.0000000   0.0170914), wk =   0.0069444
        k(    3) = (   0.0000000   0.0000000   0.0341828), wk =   0.0069444
        k(    4) = (   0.0000000   0.0000000   0.0512742), wk =   0.0069444
        k(    5) = (   0.0000000   0.0000000   0.0683656), wk =   0.0069444
        k(    6) = (   0.0000000   0.0000000   0.0854570), wk =   0.0069444
        k(    7) = (   0.0000000   0.0000000  -0.1025484), wk =   0.0034722
        k(    8) = (   0.0000000   0.0170914   0.0170914), wk =   0.0138889
        k(    9) = (   0.0000000   0.0170914   0.0341828), wk =   0.0277778
        k(   10) = (   0.0000000   0.0170914   0.0512742), wk =   0.0277778
        k(   11) = (   0.0000000   0.0170914   0.0683656), wk =   0.0277778
        k(   12) = (   0.0000000   0.0170914   0.0854570), wk =   0.0277778
        k(   13) = (   0.0000000   0.0170914  -0.1025484), wk =   0.0138889
        k(   14) = (   0.0000000   0.0341828   0.0341828), wk =   0.0138889
        k(   15) = (   0.0000000   0.0341828   0.0512742), wk =   0.0277778
        k(   16) = (   0.0000000   0.0341828   0.0683656), wk =   0.0277778
        k(   17) = (   0.0000000   0.0341828   0.0854570), wk =   0.0277778
        k(   18) = (   0.0000000   0.0341828  -0.1025484), wk =   0.0138889
        k(   19) = (   0.0000000   0.0512742   0.0512742), wk =   0.0138889
        k(   20) = (   0.0000000   0.0512742   0.0683656), wk =   0.0277778
        k(   21) = (   0.0000000   0.0512742   0.0854570), wk =   0.0277778
        k(   22) = (   0.0000000   0.0512742  -0.1025484), wk =   0.0138889
        k(   23) = (   0.0000000   0.0683656   0.0683656), wk =   0.0138889
        k(   24) = (   0.0000000   0.0683656   0.0854570), wk =   0.0277778
        k(   25) = (   0.0000000   0.0683656  -0.1025484), wk =   0.0138889
        k(   26) = (   0.0000000   0.0854570   0.0854570), wk =   0.0138889
        k(   27) = (   0.0000000   0.0854570  -0.1025484), wk =   0.0138889
        k(   28) = (   0.0000000  -0.1025484  -0.1025484), wk =   0.0034722
        k(   29) = (   0.0170914   0.0170914   0.0170914), wk =   0.0092593
        k(   30) = (   0.0170914   0.0170914   0.0341828), wk =   0.0277778
        k(   31) = (   0.0170914   0.0170914   0.0512742), wk =   0.0277778
        k(   32) = (   0.0170914   0.0170914   0.0683656), wk =   0.0277778
        k(   33) = (   0.0170914   0.0170914   0.0854570), wk =   0.0277778
        k(   34) = (   0.0170914   0.0170914  -0.1025484), wk =   0.0138889
        k(   35) = (   0.0170914   0.0341828   0.0341828), wk =   0.0277778
        k(   36) = (   0.0170914   0.0341828   0.0512742), wk =   0.0555556
        k(   37) = (   0.0170914   0.0341828   0.0683656), wk =   0.0555556
        k(   38) = (   0.0170914   0.0341828   0.0854570), wk =   0.0555556
        k(   39) = (   0.0170914   0.0341828  -0.1025484), wk =   0.0277778
        k(   40) = (   0.0170914   0.0512742   0.0512742), wk =   0.0277778
        k(   41) = (   0.0170914   0.0512742   0.0683656), wk =   0.0555556
        k(   42) = (   0.0170914   0.0512742   0.0854570), wk =   0.0555556
        k(   43) = (   0.0170914   0.0512742  -0.1025484), wk =   0.0277778
        k(   44) = (   0.0170914   0.0683656   0.0683656), wk =   0.0277778
        k(   45) = (   0.0170914   0.0683656   0.0854570), wk =   0.0555556
        k(   46) = (   0.0170914   0.0683656  -0.1025484), wk =   0.0277778
        k(   47) = (   0.0170914   0.0854570   0.0854570), wk =   0.0277778
        k(   48) = (   0.0170914   0.0854570  -0.1025484), wk =   0.0277778
        k(   49) = (   0.0170914  -0.1025484  -0.1025484), wk =   0.0069444
        k(   50) = (   0.0341828   0.0341828   0.0341828), wk =   0.0092593
        k(   51) = (   0.0341828   0.0341828   0.0512742), wk =   0.0277778
        k(   52) = (   0.0341828   0.0341828   0.0683656), wk =   0.0277778
        k(   53) = (   0.0341828   0.0341828   0.0854570), wk =   0.0277778
        k(   54) = (   0.0341828   0.0341828  -0.1025484), wk =   0.0138889
        k(   55) = (   0.0341828   0.0512742   0.0512742), wk =   0.0277778
        k(   56) = (   0.0341828   0.0512742   0.0683656), wk =   0.0555556
        k(   57) = (   0.0341828   0.0512742   0.0854570), wk =   0.0555556
        k(   58) = (   0.0341828   0.0512742  -0.1025484), wk =   0.0277778
        k(   59) = (   0.0341828   0.0683656   0.0683656), wk =   0.0277778
        k(   60) = (   0.0341828   0.0683656   0.0854570), wk =   0.0555556
[...]
        k(   70) = (   0.0512742   0.0683656   0.0854570), wk =   0.0555556
        k(   71) = (   0.0512742   0.0683656  -0.1025484), wk =   0.0277778
        k(   72) = (   0.0512742   0.0854570   0.0854570), wk =   0.0277778
        k(   73) = (   0.0512742   0.0854570  -0.1025484), wk =   0.0277778
        k(   74) = (   0.0512742  -0.1025484  -0.1025484), wk =   0.0069444
        k(   75) = (   0.0683656   0.0683656   0.0683656), wk =   0.0092593
        k(   76) = (   0.0683656   0.0683656   0.0854570), wk =   0.0277778
        k(   77) = (   0.0683656   0.0683656  -0.1025484), wk =   0.0138889
        k(   78) = (   0.0683656   0.0854570   0.0854570), wk =   0.0277778
        k(   79) = (   0.0683656   0.0854570  -0.1025484), wk =   0.0277778
        k(   80) = (   0.0683656  -0.1025484  -0.1025484), wk =   0.0069444
        k(   81) = (   0.0854570   0.0854570   0.0854570), wk =   0.0092593
        k(   82) = (   0.0854570   0.0854570  -0.1025484), wk =   0.0138889
        k(   83) = (   0.0854570  -0.1025484  -0.1025484), wk =   0.0069444
        k(   84) = (  -0.1025484  -0.1025484  -0.1025484), wk =   0.0011574

     Largest allocated arrays     est. size (Mb)     dimensions
     Largest temporary arrays     est. size (Mb)     dimensions

     Initial potential from superposition of free atoms
     Check: negative starting charge=   -0.261114

     starting charge   47.40370, renormalised to   48.00000

     negative rho (up, down):  2.644E-01 0.000E+00

     *
     * You are using vdW-DF for exchange-correlation in this calculation.
     * Please cite the following three references that made this development
     * possible:
     *
     *   M. Dion, H. Rydberg, E. Schroder, D. C. Langreth, and
     *   B. I. Lundqvist, Phys. Rev. Lett. 92, 246401 (2004).
     *
     *   T. Thonhauser, V. R. Cooper, S. Li, A. Puzder, P. Hyldgaard, and
     *   D. C. Langreth, Phys. Rev. B 76, 125112 (2007).
     *
     *   G. Roman-Perez and J. M. Soler, Phys. Rev. Lett. 103, 096102 (2009).
     *
     *
     * If you are using vdW-DF2, please also cite:
     *
     *   K. Lee, E. D. Murray, L. Kong, B. I. Lundqvist, and
     *   D. C. Langreth, Phys. Rev. B 82, 081101(R) (2010).
     *
     *
     * If you are calculating the stress with vdW-DF, please also cite:
     *
     *   R. Sabatini, E. Kucukbenli, B. Kolb, T. Thonhauser, and
     *   S. de Gironcoli, J. Phys.: Condens. Matter 24, 424209 (2012).
     *

     Carrying out vdW-DF run using the following parameters:

     Nqs =      20    Nr_points =    1024   r_max =   100.000
     q_mesh =
               0.00001000     0.04494208     0.09755937     0.15916263
               0.23128650     0.31572767     0.41458969     0.53033537
               0.66584808     0.82450364     1.01025438     1.22772762
               1.48234092     1.78043706     2.12944203     2.53805004
               3.01644009     3.57652955     4.23227104     5.00000000

     Gradients computed in reciprocal space

     Starting wfc are   72 randomized atomic wfcs

     Self-consistent Calculation

     iteration #  1     ecut=    58.80 Ry     beta=0.10
     Davidson diagonalization with overlap
     ethr =  1.00E-02,  avg # of iterations =  1.9

     Threshold (ethr) on eigenvalues was too large:
     Diagonalizing with lowered threshold

     Davidson diagonalization with overlap
     ethr =  3.01E-04,  avg # of iterations =  2.4

[...]

     total energy              =    -484.39048294 Ry
     Harris-Foulkes estimate   =    -484.40073491 Ry
     estimated scf accuracy    <       0.18526759 Ry

[...]

     total energy              =    -484.36515938 Ry
     Harris-Foulkes estimate   =    -484.36513003 Ry
     estimated scf accuracy    <       0.00000013 Ry

     iteration # 16     ecut=    58.80 Ry     beta=0.10
     Davidson diagonalization with overlap
     ethr =  2.81E-10,  avg # of iterations =  3.8

     negative rho (up, down):  1.898E-01 0.000E+00

     End of self-consistent calculation

          k = 0.0000 0.0000 0.0000 (  6031 PWs)   bands (ev):

   -32.5280 -32.5280 -32.5280 -19.9961 -19.5254 -19.5253  -4.2692  -4.2692
    -4.2692  -3.1372  -3.1372  -3.1372  -2.5758  -2.5758  -2.5758   9.3585
    10.2383  10.4990  10.4990  10.7955  10.7955  10.7955  13.1217  13.1217
    13.1217  14.1463  14.1463  14.6049  14.8762  14.8762  14.8762  15.0697
    15.0697  15.0697  15.1391  15.1391  15.1391  15.3989  15.3989  15.3989
    15.5425  15.5425  15.5425  15.6264

[...]

          k = 0.0855-0.1025-0.1025 (  5948 PWs)   bands (ev):

[...]

          k =-0.1025-0.1025-0.1025 (  5904 PWs)   bands (ev):

   -32.5282 -32.5282 -32.5282 -19.6794 -19.6794 -19.6794  -4.9149  -4.1072
    -4.1072  -4.1072  -2.6529  -2.6529  -2.5535  -2.5535  -2.5535   9.9670
    10.8689  10.8689  10.8689  11.7711  11.7711  12.9088  12.9088  12.9088
    14.3700  14.5856  14.5856  14.5856  14.6312  14.6312  14.6312  14.8870
    14.8870  14.8870  15.0263  15.0263  15.2894  15.2894  15.2894  15.5289
    15.5291  15.5291  15.6805  15.6805

     the Fermi energy is    13.2118 ev

!    total energy              =    -484.36524827 Ry
     Harris-Foulkes estimate   =    -484.36515951 Ry
     estimated scf accuracy    <          1.9E-09 Ry

     The total energy is the sum of the following terms:

     one-electron contribution =     -76.47610688 Ry
     hartree contribution      =      65.25291236 Ry
     xc contribution           =    -183.56718713 Ry
     ewald contribution        =    -289.55814061 Ry
     smearing contrib. (-TS)   =      -0.01672602 Ry

     convergence has been achieved in  16 iterations

     Forces acting on atoms (Ry/au):

     negative rho (up, down):  1.898E-01 0.000E+00
     atom    1 type  1   force =     0.00000000    0.00000000    0.00000000
     atom    2 type  1   force =     0.00000000    0.00000000   -0.00000000
     atom    3 type  1   force =     0.00000000   -0.00000000    0.00000000
     atom    4 type  2   force =     0.00000000    0.00000000    0.00000000

     Total force =     0.000000     Total SCF correction =     0.000000
 !ASE

     General routines

     Parallel routines

   This run was terminated on:  13:46:47  25Oct2017

   JOB DONE.