     Program PWSCF v.5.1rc2 (svn rev. ) starts on 25Oct2017 at  1: 9:47

     Current dimensions of program PWSCF are:
     Max number of different atomic species (ntypx) = 10
     Max number of k-points (npk) =  40000
     Max angular momentum in pseudopotentials (lmaxx) =  3

     IMPORTANT: XC functional enforced from input :
     Exchange-correlation      = BEEF-VDW ( 1  4 27 13 2)
     Any further DFT definition will be discarded
     Please, verify this is what you really want

     Subspace diagonalization in iterative solution of the eigenvalue problem:
     a serial algorithm will be used

     bravais-lattice index     =            0
     lattice parameter (alat)  =       1.8897  a.u.
     unit-cell volume          =     711.3013 (a.u.)^3
     number of atoms/cell      =            4
     number of atomic types    =            2
     number of electrons       =        55.00
     number of Kohn-Sham states=           47
     kinetic-energy cutoff     =      58.7989  Ry
     charge density cutoff     =     587.9892  Ry
     convergence threshold     =      7.3E-09
     mixing beta               =       0.1000
     number of iterations used =           10  local-TF  mixing
     Exchange-correlation      = BEEF-VDW ( 1  4 27 13 2)
     nstep                     =           50

     celldm(1)=   1.889726  celldm(2)=   0.000000  celldm(3)=   0.000000
     celldm(4)=   0.000000  celldm(5)=   0.000000  celldm(6)=   0.000000

     crystal axes: (cart. coord. in units of alat)
               a(1) = (   4.723737   0.000000   0.000000 )
               a(2) = (   0.000000   4.723737   0.000000 )
               a(3) = (   0.000000   0.000000   4.723737 )

     reciprocal axes: (cart. coord. in units 2 pi/alat)
               b(1) = (  0.211697  0.000000  0.000000 )
               b(2) = (  0.000000  0.211697  0.000000 )
               b(3) = (  0.000000  0.000000  0.211697 )

     PseudoPot. # 1 for Tl read from file:
     /home/vossj/suncat/psp/gbrv1.5pbe/Tl.UPF
     MD5 check sum: b76cf1f7e72655a2b2c53cf6385d7059
     Pseudo is Ultrasoft + core correction, Zval = 13.0
     Generated by new atomic code, or converted to UPF format
     Using radial grid of  899 points,  6 beta functions with:
                l(1) =   0
                l(2) =   0
                l(3) =   1
                l(4) =   1
                l(5) =   2
                l(6) =   2
     Q(r) pseudized with  6 coefficients,  rinner =    1.100   1.100   1.100
                                                       1.100   1.100

     PseudoPot. # 2 for Pd read from file:
     /home/vossj/suncat/psp/gbrv1.5pbe/Pd.UPF
     MD5 check sum: 2d733d2bc2cbfd217af676df1668a4bc
     Pseudo is Ultrasoft + core correction, Zval = 16.0
     Generated by new atomic code, or converted to UPF format
     Using radial grid of  887 points,  6 beta functions with:
                l(1) =   0
                l(2) =   0
                l(3) =   1
                l(4) =   1
                l(5) =   2
                l(6) =   2
     Q(r) pseudized with  8 coefficients,  rinner =    1.130   1.130   1.130
                                                       1.130   1.130

     vdW kernel table read from file vdW_kernel_table
     MD5 check sum: 095c7af220d748ca6e76c0b4c6cfb241

     atomic species   valence    mass     pseudopotential
        Tl1           13.00   204.38000     Tl( 1.00)
        Pd1           16.00   106.42000     Pd( 1.00)

     48 Sym. Ops., with inversion, found (32 have fractional translation)

   Cartesian axes

     site n.     atom                  positions (alat units)
         1           Tl1 tau(   1) = (   0.0000000   0.0000000   0.0000000  )
         2           Tl1 tau(   2) = (   0.0000000   2.3618683   2.3618683  )
         3           Tl1 tau(   3) = (   2.3618683   0.0000000   2.3618683  )
         4           Pd1 tau(   4) = (   2.3618683   2.3618683   0.0000000  )

     number of k points=    84  Fermi-Dirac smearing, width (Ry)=  0.0073
                       cart. coord. in units 2pi/alat
        k(    1) = (   0.0000000   0.0000000   0.0000000), wk =   0.0011574
        k(    2) = (   0.0000000   0.0000000   0.0176414), wk =   0.0069444
        k(    3) = (   0.0000000   0.0000000   0.0352828), wk =   0.0069444
        k(    4) = (   0.0000000   0.0000000   0.0529242), wk =   0.0069444
        k(    5) = (   0.0000000   0.0000000   0.0705656), wk =   0.0069444
        k(    6) = (   0.0000000   0.0000000   0.0882070), wk =   0.0069444
        k(    7) = (   0.0000000   0.0000000  -0.1058484), wk =   0.0034722
        k(    8) = (   0.0000000   0.0176414   0.0176414), wk =   0.0138889
        k(    9) = (   0.0000000   0.0176414   0.0352828), wk =   0.0277778
        k(   10) = (   0.0000000   0.0176414   0.0529242), wk =   0.0277778
        k(   11) = (   0.0000000   0.0176414   0.0705656), wk =   0.0277778
        k(   12) = (   0.0000000   0.0176414   0.0882070), wk =   0.0277778
        k(   13) = (   0.0000000   0.0176414  -0.1058484), wk =   0.0138889
        k(   14) = (   0.0000000   0.0352828   0.0352828), wk =   0.0138889
        k(   15) = (   0.0000000   0.0352828   0.0529242), wk =   0.0277778
        k(   16) = (   0.0000000   0.0352828   0.0705656), wk =   0.0277778
        k(   17) = (   0.0000000   0.0352828   0.0882070), wk =   0.0277778
        k(   18) = (   0.0000000   0.0352828  -0.1058484), wk =   0.0138889
        k(   19) = (   0.0000000   0.0529242   0.0529242), wk =   0.0138889
        k(   20) = (   0.0000000   0.0529242   0.0705656), wk =   0.0277778
        k(   21) = (   0.0000000   0.0529242   0.0882070), wk =   0.0277778
        k(   22) = (   0.0000000   0.0529242  -0.1058484), wk =   0.0138889
        k(   23) = (   0.0000000   0.0705656   0.0705656), wk =   0.0138889
        k(   24) = (   0.0000000   0.0705656   0.0882070), wk =   0.0277778
        k(   25) = (   0.0000000   0.0705656  -0.1058484), wk =   0.0138889
        k(   26) = (   0.0000000   0.0882070   0.0882070), wk =   0.0138889
        k(   27) = (   0.0000000   0.0882070  -0.1058484), wk =   0.0138889
        k(   28) = (   0.0000000  -0.1058484  -0.1058484), wk =   0.0034722
        k(   29) = (   0.0176414   0.0176414   0.0176414), wk =   0.0092593
        k(   30) = (   0.0176414   0.0176414   0.0352828), wk =   0.0277778
        k(   31) = (   0.0176414   0.0176414   0.0529242), wk =   0.0277778
        k(   32) = (   0.0176414   0.0176414   0.0705656), wk =   0.0277778
        k(   33) = (   0.0176414   0.0176414   0.0882070), wk =   0.0277778
        k(   34) = (   0.0176414   0.0176414  -0.1058484), wk =   0.0138889
        k(   35) = (   0.0176414   0.0352828   0.0352828), wk =   0.0277778
        k(   36) = (   0.0176414   0.0352828   0.0529242), wk =   0.0555556
        k(   37) = (   0.0176414   0.0352828   0.0705656), wk =   0.0555556
        k(   38) = (   0.0176414   0.0352828   0.0882070), wk =   0.0555556
        k(   39) = (   0.0176414   0.0352828  -0.1058484), wk =   0.0277778
        k(   40) = (   0.0176414   0.0529242   0.0529242), wk =   0.0277778
        k(   41) = (   0.0176414   0.0529242   0.0705656), wk =   0.0555556
        k(   42) = (   0.0176414   0.0529242   0.0882070), wk =   0.0555556
        k(   43) = (   0.0176414   0.0529242  -0.1058484), wk =   0.0277778
        k(   44) = (   0.0176414   0.0705656   0.0705656), wk =   0.0277778
        k(   45) = (   0.0176414   0.0705656   0.0882070), wk =   0.0555556
        k(   46) = (   0.0176414   0.0705656  -0.1058484), wk =   0.0277778
        k(   47) = (   0.0176414   0.0882070   0.0882070), wk =   0.0277778
        k(   48) = (   0.0176414   0.0882070  -0.1058484), wk =   0.0277778
        k(   49) = (   0.0176414  -0.1058484  -0.1058484), wk =   0.0069444
        k(   50) = (   0.0352828   0.0352828   0.0352828), wk =   0.0092593
        k(   51) = (   0.0352828   0.0352828   0.0529242), wk =   0.0277778
        k(   52) = (   0.0352828   0.0352828   0.0705656), wk =   0.0277778
        k(   53) = (   0.0352828   0.0352828   0.0882070), wk =   0.0277778
        k(   54) = (   0.0352828   0.0352828  -0.1058484), wk =   0.0138889
        k(   55) = (   0.0352828   0.0529242   0.0529242), wk =   0.0277778
        k(   56) = (   0.0352828   0.0529242   0.0705656), wk =   0.0555556
        k(   57) = (   0.0352828   0.0529242   0.0882070), wk =   0.0555556
        k(   58) = (   0.0352828   0.0529242  -0.1058484), wk =   0.0277778
        k(   59) = (   0.0352828   0.0705656   0.0705656), wk =   0.0277778
        k(   60) = (   0.0352828   0.0705656   0.0882070), wk =   0.0555556
[...]
        k(   70) = (   0.0529242   0.0705656   0.0882070), wk =   0.0555556
        k(   71) = (   0.0529242   0.0705656  -0.1058484), wk =   0.0277778
        k(   72) = (   0.0529242   0.0882070   0.0882070), wk =   0.0277778
        k(   73) = (   0.0529242   0.0882070  -0.1058484), wk =   0.0277778
        k(   74) = (   0.0529242  -0.1058484  -0.1058484), wk =   0.0069444
        k(   75) = (   0.0705656   0.0705656   0.0705656), wk =   0.0092593
        k(   76) = (   0.0705656   0.0705656   0.0882070), wk =   0.0277778
        k(   77) = (   0.0705656   0.0705656  -0.1058484), wk =   0.0138889
        k(   78) = (   0.0705656   0.0882070   0.0882070), wk =   0.0277778
        k(   79) = (   0.0705656   0.0882070  -0.1058484), wk =   0.0277778
        k(   80) = (   0.0705656  -0.1058484  -0.1058484), wk =   0.0069444
        k(   81) = (   0.0882070   0.0882070   0.0882070), wk =   0.0092593
        k(   82) = (   0.0882070   0.0882070  -0.1058484), wk =   0.0138889
        k(   83) = (   0.0882070  -0.1058484  -0.1058484), wk =   0.0069444
        k(   84) = (  -0.1058484  -0.1058484  -0.1058484), wk =   0.0011574

     Largest allocated arrays     est. size (Mb)     dimensions
     Largest temporary arrays     est. size (Mb)     dimensions

     Initial potential from superposition of free atoms
     Check: negative starting charge=   -0.225775

     starting charge   54.48540, renormalised to   55.00000

     negative rho (up, down):  2.279E-01 0.000E+00

     *
     * You are using vdW-DF for exchange-correlation in this calculation.
     * Please cite the following three references that made this development
     * possible:
     *
     *   M. Dion, H. Rydberg, E. Schroder, D. C. Langreth, and
     *   B. I. Lundqvist, Phys. Rev. Lett. 92, 246401 (2004).
     *
     *   T. Thonhauser, V. R. Cooper, S. Li, A. Puzder, P. Hyldgaard, and
     *   D. C. Langreth, Phys. Rev. B 76, 125112 (2007).
     *
     *   G. Roman-Perez and J. M. Soler, Phys. Rev. Lett. 103, 096102 (2009).
     *
     *
     * If you are using vdW-DF2, please also cite:
     *
     *   K. Lee, E. D. Murray, L. Kong, B. I. Lundqvist, and
     *   D. C. Langreth, Phys. Rev. B 82, 081101(R) (2010).
     *
     *
     * If you are calculating the stress with vdW-DF, please also cite:
     *
     *   R. Sabatini, E. Kucukbenli, B. Kolb, T. Thonhauser, and
     *   S. de Gironcoli, J. Phys.: Condens. Matter 24, 424209 (2012).
     *

     Carrying out vdW-DF run using the following parameters:

     Nqs =      20    Nr_points =    1024   r_max =   100.000
     q_mesh =
               0.00001000     0.04494208     0.09755937     0.15916263
               0.23128650     0.31572767     0.41458969     0.53033537
               0.66584808     0.82450364     1.01025438     1.22772762
               1.48234092     1.78043706     2.12944203     2.53805004
               3.01644009     3.57652955     4.23227104     5.00000000

     Gradients computed in reciprocal space

     Starting wfc are   39 randomized atomic wfcs +    8 random wfc

     Self-consistent Calculation

     iteration #  1     ecut=    58.80 Ry     beta=0.10
     Davidson diagonalization with overlap
     ethr =  1.00E-02,  avg # of iterations =  4.9

     Threshold (ethr) on eigenvalues was too large:
     Diagonalizing with lowered threshold

     Davidson diagonalization with overlap
     ethr =  4.28E-04,  avg # of iterations =  1.3

[...]

     total energy              =    -640.25416282 Ry
     Harris-Foulkes estimate   =    -640.26499697 Ry
     estimated scf accuracy    <       0.23855535 Ry

[...]

     total energy              =    -640.22562445 Ry
     Harris-Foulkes estimate   =    -640.22557261 Ry
     estimated scf accuracy    <       0.00000008 Ry

     iteration # 20     ecut=    58.80 Ry     beta=0.10
     Davidson diagonalization with overlap
     ethr =  7.89E-11,  avg # of iterations =  2.0

     negative rho (up, down):  2.362E-01 0.000E+00

     End of self-consistent calculation

          k = 0.0000 0.0000 0.0000 (  5449 PWs)   bands (ev):

   -38.2842 -38.2842 -38.2842  -1.2918  -1.2312  -1.2311  -1.2311  -0.9500
    -0.9499  -0.6399  -0.6399  -0.6397  -0.5483  -0.5482  -0.3352  -0.2986
    -0.2985  -0.2985   1.4591   7.2901   7.2902   9.3748   9.3748   9.3748
     9.9193   9.9193   9.9193   9.9373   9.9373  13.0120  15.8293  15.8293
    15.8293  17.0466  17.0466  17.0466  20.4739  20.4739  20.6582  21.6282
    21.6283  21.6283  23.1641  23.6534  23.6534  23.6534  28.1775

[...]

          k = 0.0882-0.1058-0.1058 (  5460 PWs)   bands (ev):

[...]

          k =-0.1058-0.1058-0.1058 (  5400 PWs)   bands (ev):

   -38.2843 -38.2843 -38.2843  -1.1203  -1.1203  -1.1203  -1.0015  -0.9319
    -0.9319  -0.9318  -0.6548  -0.6548  -0.6546  -0.5510  -0.5508  -0.3465
    -0.3465  -0.3465   5.5042   5.5042   5.5043   7.9037   9.1217   9.1217
     9.1217   9.4605   9.4605   9.8747   9.8747   9.8748  11.8191  19.8889
    19.8890  20.4251  20.4251  20.4251  22.1281  22.2841  22.2841  22.2841
    23.1842  23.1842  23.1842  25.0873  25.0873  25.0873  25.8494

     the Fermi energy is    10.9834 ev

!    total energy              =    -640.22585594 Ry
     Harris-Foulkes estimate   =    -640.22562443 Ry
     estimated scf accuracy    <          6.0E-09 Ry

     The total energy is the sum of the following terms:

     one-electron contribution =    -141.01086467 Ry
     hartree contribution      =     115.59752152 Ry
     xc contribution           =    -224.67908773 Ry
     ewald contribution        =    -390.12994997 Ry
     smearing contrib. (-TS)   =      -0.00347510 Ry

     convergence has been achieved in  20 iterations

     Forces acting on atoms (Ry/au):

     negative rho (up, down):  2.362E-01 0.000E+00
     atom    1 type  1   force =     0.00000000    0.00000000    0.00000000
     atom    2 type  1   force =     0.00000000    0.00000000    0.00000000
     atom    3 type  1   force =     0.00000000    0.00000000    0.00000000
     atom    4 type  2   force =     0.00000000    0.00000000    0.00000000

     Total force =     0.000000     Total SCF correction =     0.000000
 !ASE

     General routines

     Parallel routines

   This run was terminated on:   1:11:34  25Oct2017

   JOB DONE.