     Program PWSCF v.5.1rc2 (svn rev. ) starts on 26Oct2017 at  0:22:37

     Current dimensions of program PWSCF are:
     Max number of different atomic species (ntypx) = 10
     Max number of k-points (npk) =  40000
     Max angular momentum in pseudopotentials (lmaxx) =  3

     IMPORTANT: XC functional enforced from input :
     Exchange-correlation      = BEEF-VDW ( 1  4 27 13 2)
     Any further DFT definition will be discarded
     Please, verify this is what you really want

     Subspace diagonalization in iterative solution of the eigenvalue problem:
     a serial algorithm will be used

     bravais-lattice index     =            0
     lattice parameter (alat)  =       1.8897  a.u.
     unit-cell volume          =     398.0161 (a.u.)^3
     number of atoms/cell      =            4
     number of atomic types    =            2
     number of electrons       =        76.00
     number of Kohn-Sham states=           58
     kinetic-energy cutoff     =      58.7989  Ry
     charge density cutoff     =     587.9892  Ry
     convergence threshold     =      7.3E-09
     mixing beta               =       0.1000
     number of iterations used =           10  local-TF  mixing
     Exchange-correlation      = BEEF-VDW ( 1  4 27 13 2)
     nstep                     =           50

     celldm(1)=   1.889726  celldm(2)=   0.000000  celldm(3)=   0.000000
     celldm(4)=   0.000000  celldm(5)=   0.000000  celldm(6)=   0.000000

     crystal axes: (cart. coord. in units of alat)
               a(1) = (   3.892554   0.000000   0.000000 )
               a(2) = (   0.000000   3.892554   0.000000 )
               a(3) = (   0.000000   0.000000   3.892554 )

     reciprocal axes: (cart. coord. in units 2 pi/alat)
               b(1) = (  0.256901  0.000000  0.000000 )
               b(2) = (  0.000000  0.256901  0.000000 )
               b(3) = (  0.000000  0.000000  0.256901 )

     PseudoPot. # 1 for Zn read from file:
     /home/vossj/suncat/psp/gbrv1.5pbe/Zn.UPF
     MD5 check sum: df62231357ef9e81f77b2b3087fa5675
     Pseudo is Ultrasoft, Zval = 20.0
     Generated by new atomic code, or converted to UPF format
     Using radial grid of  943 points,  6 beta functions with:
                l(1) =   0
                l(2) =   0
                l(3) =   1
                l(4) =   1
                l(5) =   2
                l(6) =   2
     Q(r) pseudized with  8 coefficients,  rinner =    1.100   1.100   1.100
                                                       1.100   1.100

     PseudoPot. # 2 for Pd read from file:
     /home/vossj/suncat/psp/gbrv1.5pbe/Pd.UPF
     MD5 check sum: 2d733d2bc2cbfd217af676df1668a4bc
     Pseudo is Ultrasoft + core correction, Zval = 16.0
     Generated by new atomic code, or converted to UPF format
     Using radial grid of  887 points,  6 beta functions with:
                l(1) =   0
                l(2) =   0
                l(3) =   1
                l(4) =   1
                l(5) =   2
                l(6) =   2
     Q(r) pseudized with  8 coefficients,  rinner =    1.130   1.130   1.130
                                                       1.130   1.130

     vdW kernel table read from file vdW_kernel_table
     MD5 check sum: 095c7af220d748ca6e76c0b4c6cfb241

     atomic species   valence    mass     pseudopotential
        Zn1           20.00    65.38000     Zn( 1.00)
        Pd1           16.00   106.42000     Pd( 1.00)

     48 Sym. Ops., with inversion, found (32 have fractional translation)

   Cartesian axes

     site n.     atom                  positions (alat units)
         1           Zn1 tau(   1) = (   0.0000000   0.0000000   0.0000000  )
         2           Zn1 tau(   2) = (   0.0000000   1.9462772   1.9462772  )
         3           Zn1 tau(   3) = (   1.9462772   0.0000000   1.9462772  )
         4           Pd1 tau(   4) = (   1.9462772   1.9462772   0.0000000  )

     number of k points=    84  Fermi-Dirac smearing, width (Ry)=  0.0073
                       cart. coord. in units 2pi/alat
        k(    1) = (   0.0000000   0.0000000   0.0000000), wk =   0.0011574
        k(    2) = (   0.0000000   0.0000000   0.0214084), wk =   0.0069444
        k(    3) = (   0.0000000   0.0000000   0.0428168), wk =   0.0069444
        k(    4) = (   0.0000000   0.0000000   0.0642252), wk =   0.0069444
        k(    5) = (   0.0000000   0.0000000   0.0856336), wk =   0.0069444
        k(    6) = (   0.0000000   0.0000000   0.1070420), wk =   0.0069444
        k(    7) = (   0.0000000   0.0000000  -0.1284504), wk =   0.0034722
        k(    8) = (   0.0000000   0.0214084   0.0214084), wk =   0.0138889
        k(    9) = (   0.0000000   0.0214084   0.0428168), wk =   0.0277778
        k(   10) = (   0.0000000   0.0214084   0.0642252), wk =   0.0277778
        k(   11) = (   0.0000000   0.0214084   0.0856336), wk =   0.0277778
        k(   12) = (   0.0000000   0.0214084   0.1070420), wk =   0.0277778
        k(   13) = (   0.0000000   0.0214084  -0.1284504), wk =   0.0138889
        k(   14) = (   0.0000000   0.0428168   0.0428168), wk =   0.0138889
        k(   15) = (   0.0000000   0.0428168   0.0642252), wk =   0.0277778
        k(   16) = (   0.0000000   0.0428168   0.0856336), wk =   0.0277778
        k(   17) = (   0.0000000   0.0428168   0.1070420), wk =   0.0277778
        k(   18) = (   0.0000000   0.0428168  -0.1284504), wk =   0.0138889
        k(   19) = (   0.0000000   0.0642252   0.0642252), wk =   0.0138889
        k(   20) = (   0.0000000   0.0642252   0.0856336), wk =   0.0277778
        k(   21) = (   0.0000000   0.0642252   0.1070420), wk =   0.0277778
        k(   22) = (   0.0000000   0.0642252  -0.1284504), wk =   0.0138889
        k(   23) = (   0.0000000   0.0856336   0.0856336), wk =   0.0138889
        k(   24) = (   0.0000000   0.0856336   0.1070420), wk =   0.0277778
        k(   25) = (   0.0000000   0.0856336  -0.1284504), wk =   0.0138889
        k(   26) = (   0.0000000   0.1070420   0.1070420), wk =   0.0138889
        k(   27) = (   0.0000000   0.1070420  -0.1284504), wk =   0.0138889
        k(   28) = (   0.0000000  -0.1284504  -0.1284504), wk =   0.0034722
        k(   29) = (   0.0214084   0.0214084   0.0214084), wk =   0.0092593
        k(   30) = (   0.0214084   0.0214084   0.0428168), wk =   0.0277778
        k(   31) = (   0.0214084   0.0214084   0.0642252), wk =   0.0277778
        k(   32) = (   0.0214084   0.0214084   0.0856336), wk =   0.0277778
        k(   33) = (   0.0214084   0.0214084   0.1070420), wk =   0.0277778
        k(   34) = (   0.0214084   0.0214084  -0.1284504), wk =   0.0138889
        k(   35) = (   0.0214084   0.0428168   0.0428168), wk =   0.0277778
        k(   36) = (   0.0214084   0.0428168   0.0642252), wk =   0.0555556
        k(   37) = (   0.0214084   0.0428168   0.0856336), wk =   0.0555556
        k(   38) = (   0.0214084   0.0428168   0.1070420), wk =   0.0555556
        k(   39) = (   0.0214084   0.0428168  -0.1284504), wk =   0.0277778
        k(   40) = (   0.0214084   0.0642252   0.0642252), wk =   0.0277778
        k(   41) = (   0.0214084   0.0642252   0.0856336), wk =   0.0555556
        k(   42) = (   0.0214084   0.0642252   0.1070420), wk =   0.0555556
        k(   43) = (   0.0214084   0.0642252  -0.1284504), wk =   0.0277778
        k(   44) = (   0.0214084   0.0856336   0.0856336), wk =   0.0277778
        k(   45) = (   0.0214084   0.0856336   0.1070420), wk =   0.0555556
        k(   46) = (   0.0214084   0.0856336  -0.1284504), wk =   0.0277778
        k(   47) = (   0.0214084   0.1070420   0.1070420), wk =   0.0277778
        k(   48) = (   0.0214084   0.1070420  -0.1284504), wk =   0.0277778
        k(   49) = (   0.0214084  -0.1284504  -0.1284504), wk =   0.0069444
        k(   50) = (   0.0428168   0.0428168   0.0428168), wk =   0.0092593
        k(   51) = (   0.0428168   0.0428168   0.0642252), wk =   0.0277778
        k(   52) = (   0.0428168   0.0428168   0.0856336), wk =   0.0277778
        k(   53) = (   0.0428168   0.0428168   0.1070420), wk =   0.0277778
        k(   54) = (   0.0428168   0.0428168  -0.1284504), wk =   0.0138889
        k(   55) = (   0.0428168   0.0642252   0.0642252), wk =   0.0277778
        k(   56) = (   0.0428168   0.0642252   0.0856336), wk =   0.0555556
        k(   57) = (   0.0428168   0.0642252   0.1070420), wk =   0.0555556
        k(   58) = (   0.0428168   0.0642252  -0.1284504), wk =   0.0277778
        k(   59) = (   0.0428168   0.0856336   0.0856336), wk =   0.0277778
        k(   60) = (   0.0428168   0.0856336   0.1070420), wk =   0.0555556
[...]
        k(   70) = (   0.0642252   0.0856336   0.1070420), wk =   0.0555556
        k(   71) = (   0.0642252   0.0856336  -0.1284504), wk =   0.0277778
        k(   72) = (   0.0642252   0.1070420   0.1070420), wk =   0.0277778
        k(   73) = (   0.0642252   0.1070420  -0.1284504), wk =   0.0277778
        k(   74) = (   0.0642252  -0.1284504  -0.1284504), wk =   0.0069444
        k(   75) = (   0.0856336   0.0856336   0.0856336), wk =   0.0092593
        k(   76) = (   0.0856336   0.0856336   0.1070420), wk =   0.0277778
        k(   77) = (   0.0856336   0.0856336  -0.1284504), wk =   0.0138889
        k(   78) = (   0.0856336   0.1070420   0.1070420), wk =   0.0277778
        k(   79) = (   0.0856336   0.1070420  -0.1284504), wk =   0.0277778
        k(   80) = (   0.0856336  -0.1284504  -0.1284504), wk =   0.0069444
        k(   81) = (   0.1070420   0.1070420   0.1070420), wk =   0.0092593
        k(   82) = (   0.1070420   0.1070420  -0.1284504), wk =   0.0138889
        k(   83) = (   0.1070420  -0.1284504  -0.1284504), wk =   0.0069444
        k(   84) = (  -0.1284504  -0.1284504  -0.1284504), wk =   0.0011574

     Largest allocated arrays     est. size (Mb)     dimensions
     Largest temporary arrays     est. size (Mb)     dimensions

     Initial potential from superposition of free atoms
     Check: negative starting charge=   -0.077621

     starting charge   75.49957, renormalised to   76.00000

     negative rho (up, down):  7.814E-02 0.000E+00

     *
     * You are using vdW-DF for exchange-correlation in this calculation.
     * Please cite the following three references that made this development
     * possible:
     *
     *   M. Dion, H. Rydberg, E. Schroder, D. C. Langreth, and
     *   B. I. Lundqvist, Phys. Rev. Lett. 92, 246401 (2004).
     *
     *   T. Thonhauser, V. R. Cooper, S. Li, A. Puzder, P. Hyldgaard, and
     *   D. C. Langreth, Phys. Rev. B 76, 125112 (2007).
     *
     *   G. Roman-Perez and J. M. Soler, Phys. Rev. Lett. 103, 096102 (2009).
     *
     *
     * If you are using vdW-DF2, please also cite:
     *
     *   K. Lee, E. D. Murray, L. Kong, B. I. Lundqvist, and
     *   D. C. Langreth, Phys. Rev. B 82, 081101(R) (2010).
     *
     *
     * If you are calculating the stress with vdW-DF, please also cite:
     *
     *   R. Sabatini, E. Kucukbenli, B. Kolb, T. Thonhauser, and
     *   S. de Gironcoli, J. Phys.: Condens. Matter 24, 424209 (2012).
     *

     Carrying out vdW-DF run using the following parameters:

     Nqs =      20    Nr_points =    1024   r_max =   100.000
     q_mesh =
               0.00001000     0.04494208     0.09755937     0.15916263
               0.23128650     0.31572767     0.41458969     0.53033537
               0.66584808     0.82450364     1.01025438     1.22772762
               1.48234092     1.78043706     2.12944203     2.53805004
               3.01644009     3.57652955     4.23227104     5.00000000

     Gradients computed in reciprocal space

     Starting wfc are   51 randomized atomic wfcs +    7 random wfc

     Self-consistent Calculation

     iteration #  1     ecut=    58.80 Ry     beta=0.10
     Davidson diagonalization with overlap
     ethr =  1.00E-02,  avg # of iterations =  4.7

[...]

     total energy              =   -1588.39822943 Ry
     Harris-Foulkes estimate   =   -1588.45886238 Ry
     estimated scf accuracy    <       0.83412075 Ry

[...]

     total energy              =   -1588.25582017 Ry
     Harris-Foulkes estimate   =   -1588.25581917 Ry
     estimated scf accuracy    <       0.00000004 Ry

     iteration # 12     ecut=    58.80 Ry     beta=0.10
     Davidson diagonalization with overlap
     ethr =  4.97E-11,  avg # of iterations =  2.0

     negative rho (up, down):  8.154E-02 0.000E+00

     End of self-consistent calculation

          k = 0.0000 0.0000 0.0000 (  2969 PWs)   bands (ev):

  -111.6049-111.6026-111.6026 -65.8039 -65.8039 -65.8039 -65.7729 -65.7729
   -65.7729 -65.7725 -65.7725 -65.7725 -35.5481 -35.5481 -35.5481   5.1750
     6.6607   6.8068   6.8068   6.8068   6.8515   6.8515   7.5170   7.5170
     7.5170   7.7890   7.7890   7.9943   8.0608   8.0608   8.0608  11.5940
    11.5940  12.5145  12.5145  12.5145  14.8848  14.8848  14.8848  18.8421
    18.8421  19.4971  23.6581  23.6581  23.6581  25.8623  25.8623  25.8623
    29.2284  29.2284  29.2284  30.0016  30.0016  32.2769  33.6213  35.5416
    35.5416  35.5416

[...]

          k = 0.1070-0.1285-0.1285 (  3064 PWs)   bands (ev):

[...]

          k =-0.1285-0.1285-0.1285 (  3016 PWs)   bands (ev):

  -111.6033-111.6033-111.6033 -65.8152 -65.7949 -65.7949 -65.7807 -65.7807
   -65.7807 -65.7672 -65.7672 -65.7672 -35.5507 -35.5507 -35.5507   6.7238
     6.7238   6.7238   6.8059   7.3047   7.3047   7.3047   7.5158   7.5158
     7.5158   7.6505   7.6505   7.9956   7.9956   7.9956  10.9028  10.9028
    10.9028  12.1602  12.6466  12.6466  13.2070  13.2070  13.2070  16.1085
    16.1085  16.1085  17.3290  30.5593  30.5593  30.5593  30.7320  30.7320
    32.2859  32.2859  32.2859  32.3722  34.3046  34.3046  34.3046  35.2370
    35.2370  35.2370

     the Fermi energy is    15.0754 ev

!    total energy              =   -1588.25582450 Ry
     Harris-Foulkes estimate   =   -1588.25582017 Ry
     estimated scf accuracy    <          4.0E-09 Ry

     The total energy is the sum of the following terms:

     one-electron contribution =   -1120.26072261 Ry
     hartree contribution      =     598.71657053 Ry
     xc contribution           =    -162.99440646 Ry
     ewald contribution        =    -903.71439506 Ry
     smearing contrib. (-TS)   =      -0.00287090 Ry

     convergence has been achieved in  12 iterations

     Forces acting on atoms (Ry/au):

     negative rho (up, down):  8.154E-02 0.000E+00
     atom    1 type  1   force =     0.00000000    0.00000000    0.00000000
     atom    2 type  1   force =     0.00000000    0.00000000   -0.00000000
     atom    3 type  1   force =     0.00000000    0.00000000   -0.00000000
     atom    4 type  2   force =     0.00000000    0.00000000    0.00000000

     Total force =     0.000000     Total SCF correction =     0.000000
 !ASE

     General routines

     Parallel routines

   This run was terminated on:   0:23:45  26Oct2017

   JOB DONE.