     Program PWSCF v.5.1rc2 (svn rev. ) starts on 25Oct2017 at 21:26:30

     Current dimensions of program PWSCF are:
     Max number of different atomic species (ntypx) = 10
     Max number of k-points (npk) =  40000
     Max angular momentum in pseudopotentials (lmaxx) =  3

     IMPORTANT: XC functional enforced from input :
     Exchange-correlation      = BEEF-VDW ( 1  4 27 13 2)
     Any further DFT definition will be discarded
     Please, verify this is what you really want

     Subspace diagonalization in iterative solution of the eigenvalue problem:
     a serial algorithm will be used

     bravais-lattice index     =            0
     lattice parameter (alat)  =       1.8897  a.u.
     unit-cell volume          =     417.0314 (a.u.)^3
     number of atoms/cell      =            4
     number of atomic types    =            2
     number of electrons       =        56.00
     number of Kohn-Sham states=           48
     kinetic-energy cutoff     =      58.7989  Ry
     charge density cutoff     =     587.9892  Ry
     convergence threshold     =      7.3E-09
     mixing beta               =       0.1000
     number of iterations used =           10  local-TF  mixing
     Exchange-correlation      = BEEF-VDW ( 1  4 27 13 2)
     nstep                     =           50

     celldm(1)=   1.889726  celldm(2)=   0.000000  celldm(3)=   0.000000
     celldm(4)=   0.000000  celldm(5)=   0.000000  celldm(6)=   0.000000

     crystal axes: (cart. coord. in units of alat)
               a(1) = (   3.953582   0.000000   0.000000 )
               a(2) = (   0.000000   3.953582   0.000000 )
               a(3) = (   0.000000   0.000000   3.953582 )

     reciprocal axes: (cart. coord. in units 2 pi/alat)
               b(1) = (  0.252935  0.000000  0.000000 )
               b(2) = (  0.000000  0.252935  0.000000 )
               b(3) = (  0.000000  0.000000  0.252935 )

     PseudoPot. # 1 for Ir read from file:
     /home/vossj/suncat/psp/gbrv1.5pbe/Ir.UPF
     MD5 check sum: 8836f839c3459d2b385c504ce6d91f2c
     Pseudo is Ultrasoft + core correction, Zval = 15.0
     Generated by new atomic code, or converted to UPF format
     Using radial grid of  983 points,  7 beta functions with:
                l(1) =   0
                l(2) =   0
                l(3) =   1
                l(4) =   1
                l(5) =   1
                l(6) =   2
                l(7) =   2
     Q(r) pseudized with  8 coefficients,  rinner =    1.400   1.400   1.400
                                                       1.400   1.400

     PseudoPot. # 2 for Au read from file:
     /home/vossj/suncat/psp/gbrv1.5pbe/Au.UPF
     MD5 check sum: 9d7f43293ad2c663164586bc4b293ffc
     Pseudo is Ultrasoft + core correction, Zval = 11.0
     Generated by new atomic code, or converted to UPF format
     Using radial grid of  985 points,  7 beta functions with:
                l(1) =   0
                l(2) =   0
                l(3) =   1
                l(4) =   1
                l(5) =   2
                l(6) =   2
                l(7) =   3
     Q(r) pseudized with  6 coefficients,  rinner =    1.900   1.900   1.900
                                                       1.900   1.900   1.900
                                                       1.900

     vdW kernel table read from file vdW_kernel_table
     MD5 check sum: 095c7af220d748ca6e76c0b4c6cfb241

     atomic species   valence    mass     pseudopotential
        Ir1           15.00   192.21700     Ir( 1.00)
        Au1           11.00   196.96657     Au( 1.00)

     48 Sym. Ops., with inversion, found (32 have fractional translation)

   Cartesian axes

     site n.     atom                  positions (alat units)
         1           Ir1 tau(   1) = (   0.0000000   0.0000000   0.0000000  )
         2           Ir1 tau(   2) = (   0.0000000   1.9767909   1.9767909  )
         3           Ir1 tau(   3) = (   1.9767909   0.0000000   1.9767909  )
         4           Au1 tau(   4) = (   1.9767909   1.9767909   0.0000000  )

     number of k points=    84  Fermi-Dirac smearing, width (Ry)=  0.0073
                       cart. coord. in units 2pi/alat
        k(    1) = (   0.0000000   0.0000000   0.0000000), wk =   0.0011574
        k(    2) = (   0.0000000   0.0000000   0.0210779), wk =   0.0069444
        k(    3) = (   0.0000000   0.0000000   0.0421559), wk =   0.0069444
        k(    4) = (   0.0000000   0.0000000   0.0632338), wk =   0.0069444
        k(    5) = (   0.0000000   0.0000000   0.0843117), wk =   0.0069444
        k(    6) = (   0.0000000   0.0000000   0.1053897), wk =   0.0069444
        k(    7) = (   0.0000000   0.0000000  -0.1264676), wk =   0.0034722
        k(    8) = (   0.0000000   0.0210779   0.0210779), wk =   0.0138889
        k(    9) = (   0.0000000   0.0210779   0.0421559), wk =   0.0277778
        k(   10) = (   0.0000000   0.0210779   0.0632338), wk =   0.0277778
        k(   11) = (   0.0000000   0.0210779   0.0843117), wk =   0.0277778
        k(   12) = (   0.0000000   0.0210779   0.1053897), wk =   0.0277778
        k(   13) = (   0.0000000   0.0210779  -0.1264676), wk =   0.0138889
        k(   14) = (   0.0000000   0.0421559   0.0421559), wk =   0.0138889
        k(   15) = (   0.0000000   0.0421559   0.0632338), wk =   0.0277778
        k(   16) = (   0.0000000   0.0421559   0.0843117), wk =   0.0277778
        k(   17) = (   0.0000000   0.0421559   0.1053897), wk =   0.0277778
        k(   18) = (   0.0000000   0.0421559  -0.1264676), wk =   0.0138889
        k(   19) = (   0.0000000   0.0632338   0.0632338), wk =   0.0138889
        k(   20) = (   0.0000000   0.0632338   0.0843117), wk =   0.0277778
        k(   21) = (   0.0000000   0.0632338   0.1053897), wk =   0.0277778
        k(   22) = (   0.0000000   0.0632338  -0.1264676), wk =   0.0138889
        k(   23) = (   0.0000000   0.0843117   0.0843117), wk =   0.0138889
        k(   24) = (   0.0000000   0.0843117   0.1053897), wk =   0.0277778
        k(   25) = (   0.0000000   0.0843117  -0.1264676), wk =   0.0138889
        k(   26) = (   0.0000000   0.1053897   0.1053897), wk =   0.0138889
        k(   27) = (   0.0000000   0.1053897  -0.1264676), wk =   0.0138889
        k(   28) = (   0.0000000  -0.1264676  -0.1264676), wk =   0.0034722
        k(   29) = (   0.0210779   0.0210779   0.0210779), wk =   0.0092593
        k(   30) = (   0.0210779   0.0210779   0.0421559), wk =   0.0277778
        k(   31) = (   0.0210779   0.0210779   0.0632338), wk =   0.0277778
        k(   32) = (   0.0210779   0.0210779   0.0843117), wk =   0.0277778
        k(   33) = (   0.0210779   0.0210779   0.1053897), wk =   0.0277778
        k(   34) = (   0.0210779   0.0210779  -0.1264676), wk =   0.0138889
        k(   35) = (   0.0210779   0.0421559   0.0421559), wk =   0.0277778
        k(   36) = (   0.0210779   0.0421559   0.0632338), wk =   0.0555556
        k(   37) = (   0.0210779   0.0421559   0.0843117), wk =   0.0555556
        k(   38) = (   0.0210779   0.0421559   0.1053897), wk =   0.0555556
        k(   39) = (   0.0210779   0.0421559  -0.1264676), wk =   0.0277778
        k(   40) = (   0.0210779   0.0632338   0.0632338), wk =   0.0277778
        k(   41) = (   0.0210779   0.0632338   0.0843117), wk =   0.0555556
        k(   42) = (   0.0210779   0.0632338   0.1053897), wk =   0.0555556
        k(   43) = (   0.0210779   0.0632338  -0.1264676), wk =   0.0277778
        k(   44) = (   0.0210779   0.0843117   0.0843117), wk =   0.0277778
        k(   45) = (   0.0210779   0.0843117   0.1053897), wk =   0.0555556
        k(   46) = (   0.0210779   0.0843117  -0.1264676), wk =   0.0277778
        k(   47) = (   0.0210779   0.1053897   0.1053897), wk =   0.0277778
        k(   48) = (   0.0210779   0.1053897  -0.1264676), wk =   0.0277778
        k(   49) = (   0.0210779  -0.1264676  -0.1264676), wk =   0.0069444
        k(   50) = (   0.0421559   0.0421559   0.0421559), wk =   0.0092593
        k(   51) = (   0.0421559   0.0421559   0.0632338), wk =   0.0277778
        k(   52) = (   0.0421559   0.0421559   0.0843117), wk =   0.0277778
        k(   53) = (   0.0421559   0.0421559   0.1053897), wk =   0.0277778
        k(   54) = (   0.0421559   0.0421559  -0.1264676), wk =   0.0138889
        k(   55) = (   0.0421559   0.0632338   0.0632338), wk =   0.0277778
        k(   56) = (   0.0421559   0.0632338   0.0843117), wk =   0.0555556
        k(   57) = (   0.0421559   0.0632338   0.1053897), wk =   0.0555556
        k(   58) = (   0.0421559   0.0632338  -0.1264676), wk =   0.0277778
        k(   59) = (   0.0421559   0.0843117   0.0843117), wk =   0.0277778
        k(   60) = (   0.0421559   0.0843117   0.1053897), wk =   0.0555556
[...]
        k(   70) = (   0.0632338   0.0843117   0.1053897), wk =   0.0555556
        k(   71) = (   0.0632338   0.0843117  -0.1264676), wk =   0.0277778
        k(   72) = (   0.0632338   0.1053897   0.1053897), wk =   0.0277778
        k(   73) = (   0.0632338   0.1053897  -0.1264676), wk =   0.0277778
        k(   74) = (   0.0632338  -0.1264676  -0.1264676), wk =   0.0069444
        k(   75) = (   0.0843117   0.0843117   0.0843117), wk =   0.0092593
        k(   76) = (   0.0843117   0.0843117   0.1053897), wk =   0.0277778
        k(   77) = (   0.0843117   0.0843117  -0.1264676), wk =   0.0138889
        k(   78) = (   0.0843117   0.1053897   0.1053897), wk =   0.0277778
        k(   79) = (   0.0843117   0.1053897  -0.1264676), wk =   0.0277778
        k(   80) = (   0.0843117  -0.1264676  -0.1264676), wk =   0.0069444
        k(   81) = (   0.1053897   0.1053897   0.1053897), wk =   0.0092593
        k(   82) = (   0.1053897   0.1053897  -0.1264676), wk =   0.0138889
        k(   83) = (   0.1053897  -0.1264676  -0.1264676), wk =   0.0069444
        k(   84) = (  -0.1264676  -0.1264676  -0.1264676), wk =   0.0011574

     Largest allocated arrays     est. size (Mb)     dimensions
     Largest temporary arrays     est. size (Mb)     dimensions

     Initial potential from superposition of free atoms
     Check: negative starting charge=   -1.094836

     starting charge   54.49978, renormalised to   56.00000

     negative rho (up, down):  1.125E+00 0.000E+00

     *
     * You are using vdW-DF for exchange-correlation in this calculation.
     * Please cite the following three references that made this development
     * possible:
     *
     *   M. Dion, H. Rydberg, E. Schroder, D. C. Langreth, and
     *   B. I. Lundqvist, Phys. Rev. Lett. 92, 246401 (2004).
     *
     *   T. Thonhauser, V. R. Cooper, S. Li, A. Puzder, P. Hyldgaard, and
     *   D. C. Langreth, Phys. Rev. B 76, 125112 (2007).
     *
     *   G. Roman-Perez and J. M. Soler, Phys. Rev. Lett. 103, 096102 (2009).
     *
     *
     * If you are using vdW-DF2, please also cite:
     *
     *   K. Lee, E. D. Murray, L. Kong, B. I. Lundqvist, and
     *   D. C. Langreth, Phys. Rev. B 82, 081101(R) (2010).
     *
     *
     * If you are calculating the stress with vdW-DF, please also cite:
     *
     *   R. Sabatini, E. Kucukbenli, B. Kolb, T. Thonhauser, and
     *   S. de Gironcoli, J. Phys.: Condens. Matter 24, 424209 (2012).
     *

     Carrying out vdW-DF run using the following parameters:

     Nqs =      20    Nr_points =    1024   r_max =   100.000
     q_mesh =
               0.00001000     0.04494208     0.09755937     0.15916263
               0.23128650     0.31572767     0.41458969     0.53033537
               0.66584808     0.82450364     1.01025438     1.22772762
               1.48234092     1.78043706     2.12944203     2.53805004
               3.01644009     3.57652955     4.23227104     5.00000000

     Gradients computed in reciprocal space

     Starting wfc are   45 randomized atomic wfcs +    3 random wfc

     Self-consistent Calculation

     iteration #  1     ecut=    58.80 Ry     beta=0.10
     Davidson diagonalization with overlap
     ethr =  1.00E-02,  avg # of iterations =  5.1

[...]

     total energy              =    -667.09515571 Ry
     Harris-Foulkes estimate   =    -667.20186778 Ry
     estimated scf accuracy    <       1.60711150 Ry

[...]

     total energy              =    -666.67748082 Ry
     Harris-Foulkes estimate   =    -666.67747843 Ry
     estimated scf accuracy    <       0.00000007 Ry

     iteration # 13     ecut=    58.80 Ry     beta=0.10
     Davidson diagonalization with overlap
     ethr =  7.58E-11,  avg # of iterations =  2.0

     negative rho (up, down):  9.795E-01 0.000E+00

     End of self-consistent calculation

          k = 0.0000 0.0000 0.0000 (  3191 PWs)   bands (ev):

   -28.7321 -28.7321 -28.7321 -28.4727 -28.4727 -28.4727 -28.3534 -28.3534
   -28.3534  10.7045  13.4033  13.4033  13.9612  13.9612  13.9612  14.0190
    16.9227  16.9227  16.9227  18.7059  18.7059  20.7942  20.7942  20.7942
    20.9334  20.9334  21.6880  22.2276  22.2276  22.2276  22.5291  22.5291
    22.5291  29.0391  30.1114  30.1114  31.7123  31.7123  31.7123  31.8994
    31.9088  31.9088  32.3352  32.3352  32.3352  35.0616  39.9098  39.9098

[...]

          k = 0.1054-0.1265-0.1265 (  3148 PWs)   bands (ev):

[...]

          k =-0.1265-0.1265-0.1265 (  3184 PWs)   bands (ev):

   -28.8809 -28.6661 -28.6661 -28.6661 -28.3987 -28.3987 -28.3421 -28.3421
   -28.3421  13.3493  13.3493  13.3493  13.5135  15.7275  15.7275  16.7460
    16.7460  16.7460  17.5466  17.5466  17.5466  20.1997  20.1997  20.1997
    20.5203  20.5203  20.5203  20.5878  20.7867  20.7867  21.7312  21.7312
    21.7312  26.2287  27.0228  27.0228  27.0228  31.9012  31.9012  31.9012
    34.6239  34.6239  34.6239  34.6470  38.9099  38.9099  38.9099  39.6614

     the Fermi energy is    20.6615 ev

!    total energy              =    -666.67749103 Ry
     Harris-Foulkes estimate   =    -666.67748083 Ry
     estimated scf accuracy    <          2.7E-09 Ry

     The total energy is the sum of the following terms:

     one-electron contribution =     -31.18459120 Ry
     hartree contribution      =      69.39815376 Ry
     xc contribution           =    -220.13401903 Ry
     ewald contribution        =    -484.74081149 Ry
     smearing contrib. (-TS)   =      -0.01622307 Ry

     convergence has been achieved in  13 iterations

     Forces acting on atoms (Ry/au):

     negative rho (up, down):  9.795E-01 0.000E+00
     atom    1 type  1   force =     0.00000000    0.00000000   -0.00000000
     atom    2 type  1   force =     0.00000000    0.00000000    0.00000000
     atom    3 type  1   force =     0.00000000    0.00000000    0.00000000
     atom    4 type  2   force =     0.00000000    0.00000000    0.00000000

     Total force =     0.000000     Total SCF correction =     0.000000
 !ASE

     General routines

     Parallel routines

   This run was terminated on:  21:27:29  25Oct2017

   JOB DONE.