     Program PWSCF v.5.1rc2 (svn rev. ) starts on 25Oct2017 at 16:47:25

     Current dimensions of program PWSCF are:
     Max number of different atomic species (ntypx) = 10
     Max number of k-points (npk) =  40000
     Max angular momentum in pseudopotentials (lmaxx) =  3

     IMPORTANT: XC functional enforced from input :
     Exchange-correlation      = BEEF-VDW ( 1  4 27 13 2)
     Any further DFT definition will be discarded
     Please, verify this is what you really want

     Subspace diagonalization in iterative solution of the eigenvalue problem:
     a serial algorithm will be used

     bravais-lattice index     =            0
     lattice parameter (alat)  =       1.8897  a.u.
     unit-cell volume          =     446.8245 (a.u.)^3
     number of atoms/cell      =            4
     number of atomic types    =            2
     number of electrons       =        57.00
     number of Kohn-Sham states=           48
     kinetic-energy cutoff     =      58.7989  Ry
     charge density cutoff     =     587.9892  Ry
     convergence threshold     =      7.3E-09
     mixing beta               =       0.1000
     number of iterations used =           10  local-TF  mixing
     Exchange-correlation      = BEEF-VDW ( 1  4 27 13 2)
     nstep                     =           50

     celldm(1)=   1.889726  celldm(2)=   0.000000  celldm(3)=   0.000000
     celldm(4)=   0.000000  celldm(5)=   0.000000  celldm(6)=   0.000000

     crystal axes: (cart. coord. in units of alat)
               a(1) = (   4.045574   0.000000   0.000000 )
               a(2) = (   0.000000   4.045574   0.000000 )
               a(3) = (   0.000000   0.000000   4.045574 )

     reciprocal axes: (cart. coord. in units 2 pi/alat)
               b(1) = (  0.247184  0.000000  0.000000 )
               b(2) = (  0.000000  0.247184  0.000000 )
               b(3) = (  0.000000  0.000000  0.247184 )

     PseudoPot. # 1 for Re read from file:
     /home/vossj/suncat/psp/gbrv1.5pbe/Re.UPF
     MD5 check sum: 85f993410f3e006da9d71c142b4ad953
     Pseudo is Ultrasoft + core correction, Zval = 15.0
     Generated by new atomic code, or converted to UPF format
     Using radial grid of  981 points,  8 beta functions with:
                l(1) =   0
                l(2) =   0
                l(3) =   1
                l(4) =   1
                l(5) =   2
                l(6) =   2
                l(7) =   3
                l(8) =   3
     Q(r) pseudized with  8 coefficients,  rinner =    1.150   1.150   1.150
                                                       1.150   1.150   1.150
                                                       1.150

     PseudoPot. # 2 for Zr read from file:
     /home/vossj/suncat/psp/gbrv1.5pbe/Zr.UPF
     MD5 check sum: 5db81b1e868ab7776c4564c113de050b
     Pseudo is Ultrasoft + core correction, Zval = 12.0
     Generated by new atomic code, or converted to UPF format
     Using radial grid of  887 points,  6 beta functions with:
                l(1) =   0
                l(2) =   0
                l(3) =   1
                l(4) =   1
                l(5) =   2
                l(6) =   2
     Q(r) pseudized with  6 coefficients,  rinner =    1.200   1.200   1.200
                                                       1.200   1.200

     vdW kernel table read from file vdW_kernel_table
     MD5 check sum: 095c7af220d748ca6e76c0b4c6cfb241

     atomic species   valence    mass     pseudopotential
        Re1           15.00   186.20700     Re( 1.00)
        Zr1           12.00    91.22400     Zr( 1.00)

     48 Sym. Ops., with inversion, found (32 have fractional translation)

   Cartesian axes

     site n.     atom                  positions (alat units)
         1           Re1 tau(   1) = (   0.0000000   0.0000000   0.0000000  )
         2           Re1 tau(   2) = (   0.0000000   2.0227869   2.0227869  )
         3           Re1 tau(   3) = (   2.0227869   0.0000000   2.0227869  )
         4           Zr1 tau(   4) = (   2.0227869   2.0227869   0.0000000  )

     number of k points=    84  Fermi-Dirac smearing, width (Ry)=  0.0073
                       cart. coord. in units 2pi/alat
        k(    1) = (   0.0000000   0.0000000   0.0000000), wk =   0.0011574
        k(    2) = (   0.0000000   0.0000000   0.0205986), wk =   0.0069444
        k(    3) = (   0.0000000   0.0000000   0.0411973), wk =   0.0069444
        k(    4) = (   0.0000000   0.0000000   0.0617959), wk =   0.0069444
        k(    5) = (   0.0000000   0.0000000   0.0823946), wk =   0.0069444
        k(    6) = (   0.0000000   0.0000000   0.1029932), wk =   0.0069444
        k(    7) = (   0.0000000   0.0000000  -0.1235919), wk =   0.0034722
        k(    8) = (   0.0000000   0.0205986   0.0205986), wk =   0.0138889
        k(    9) = (   0.0000000   0.0205986   0.0411973), wk =   0.0277778
        k(   10) = (   0.0000000   0.0205986   0.0617959), wk =   0.0277778
        k(   11) = (   0.0000000   0.0205986   0.0823946), wk =   0.0277778
        k(   12) = (   0.0000000   0.0205986   0.1029932), wk =   0.0277778
        k(   13) = (   0.0000000   0.0205986  -0.1235919), wk =   0.0138889
        k(   14) = (   0.0000000   0.0411973   0.0411973), wk =   0.0138889
        k(   15) = (   0.0000000   0.0411973   0.0617959), wk =   0.0277778
        k(   16) = (   0.0000000   0.0411973   0.0823946), wk =   0.0277778
        k(   17) = (   0.0000000   0.0411973   0.1029932), wk =   0.0277778
        k(   18) = (   0.0000000   0.0411973  -0.1235919), wk =   0.0138889
        k(   19) = (   0.0000000   0.0617959   0.0617959), wk =   0.0138889
        k(   20) = (   0.0000000   0.0617959   0.0823946), wk =   0.0277778
        k(   21) = (   0.0000000   0.0617959   0.1029932), wk =   0.0277778
        k(   22) = (   0.0000000   0.0617959  -0.1235919), wk =   0.0138889
        k(   23) = (   0.0000000   0.0823946   0.0823946), wk =   0.0138889
        k(   24) = (   0.0000000   0.0823946   0.1029932), wk =   0.0277778
        k(   25) = (   0.0000000   0.0823946  -0.1235919), wk =   0.0138889
        k(   26) = (   0.0000000   0.1029932   0.1029932), wk =   0.0138889
        k(   27) = (   0.0000000   0.1029932  -0.1235919), wk =   0.0138889
        k(   28) = (   0.0000000  -0.1235919  -0.1235919), wk =   0.0034722
        k(   29) = (   0.0205986   0.0205986   0.0205986), wk =   0.0092593
        k(   30) = (   0.0205986   0.0205986   0.0411973), wk =   0.0277778
        k(   31) = (   0.0205986   0.0205986   0.0617959), wk =   0.0277778
        k(   32) = (   0.0205986   0.0205986   0.0823946), wk =   0.0277778
        k(   33) = (   0.0205986   0.0205986   0.1029932), wk =   0.0277778
        k(   34) = (   0.0205986   0.0205986  -0.1235919), wk =   0.0138889
        k(   35) = (   0.0205986   0.0411973   0.0411973), wk =   0.0277778
        k(   36) = (   0.0205986   0.0411973   0.0617959), wk =   0.0555556
        k(   37) = (   0.0205986   0.0411973   0.0823946), wk =   0.0555556
        k(   38) = (   0.0205986   0.0411973   0.1029932), wk =   0.0555556
        k(   39) = (   0.0205986   0.0411973  -0.1235919), wk =   0.0277778
        k(   40) = (   0.0205986   0.0617959   0.0617959), wk =   0.0277778
        k(   41) = (   0.0205986   0.0617959   0.0823946), wk =   0.0555556
        k(   42) = (   0.0205986   0.0617959   0.1029932), wk =   0.0555556
        k(   43) = (   0.0205986   0.0617959  -0.1235919), wk =   0.0277778
        k(   44) = (   0.0205986   0.0823946   0.0823946), wk =   0.0277778
        k(   45) = (   0.0205986   0.0823946   0.1029932), wk =   0.0555556
        k(   46) = (   0.0205986   0.0823946  -0.1235919), wk =   0.0277778
        k(   47) = (   0.0205986   0.1029932   0.1029932), wk =   0.0277778
        k(   48) = (   0.0205986   0.1029932  -0.1235919), wk =   0.0277778
        k(   49) = (   0.0205986  -0.1235919  -0.1235919), wk =   0.0069444
        k(   50) = (   0.0411973   0.0411973   0.0411973), wk =   0.0092593
        k(   51) = (   0.0411973   0.0411973   0.0617959), wk =   0.0277778
        k(   52) = (   0.0411973   0.0411973   0.0823946), wk =   0.0277778
        k(   53) = (   0.0411973   0.0411973   0.1029932), wk =   0.0277778
        k(   54) = (   0.0411973   0.0411973  -0.1235919), wk =   0.0138889
        k(   55) = (   0.0411973   0.0617959   0.0617959), wk =   0.0277778
        k(   56) = (   0.0411973   0.0617959   0.0823946), wk =   0.0555556
        k(   57) = (   0.0411973   0.0617959   0.1029932), wk =   0.0555556
        k(   58) = (   0.0411973   0.0617959  -0.1235919), wk =   0.0277778
        k(   59) = (   0.0411973   0.0823946   0.0823946), wk =   0.0277778
        k(   60) = (   0.0411973   0.0823946   0.1029932), wk =   0.0555556
[...]
        k(   70) = (   0.0617959   0.0823946   0.1029932), wk =   0.0555556
        k(   71) = (   0.0617959   0.0823946  -0.1235919), wk =   0.0277778
        k(   72) = (   0.0617959   0.1029932   0.1029932), wk =   0.0277778
        k(   73) = (   0.0617959   0.1029932  -0.1235919), wk =   0.0277778
        k(   74) = (   0.0617959  -0.1235919  -0.1235919), wk =   0.0069444
        k(   75) = (   0.0823946   0.0823946   0.0823946), wk =   0.0092593
        k(   76) = (   0.0823946   0.0823946   0.1029932), wk =   0.0277778
        k(   77) = (   0.0823946   0.0823946  -0.1235919), wk =   0.0138889
        k(   78) = (   0.0823946   0.1029932   0.1029932), wk =   0.0277778
        k(   79) = (   0.0823946   0.1029932  -0.1235919), wk =   0.0277778
        k(   80) = (   0.0823946  -0.1235919  -0.1235919), wk =   0.0069444
        k(   81) = (   0.1029932   0.1029932   0.1029932), wk =   0.0092593
        k(   82) = (   0.1029932   0.1029932  -0.1235919), wk =   0.0138889
        k(   83) = (   0.1029932  -0.1235919  -0.1235919), wk =   0.0069444
        k(   84) = (  -0.1235919  -0.1235919  -0.1235919), wk =   0.0011574

     Largest allocated arrays     est. size (Mb)     dimensions
     Largest temporary arrays     est. size (Mb)     dimensions

     Initial potential from superposition of free atoms
     Check: negative starting charge=   -0.443135

     starting charge   55.49772, renormalised to   57.00000

     negative rho (up, down):  4.551E-01 0.000E+00

     *
     * You are using vdW-DF for exchange-correlation in this calculation.
     * Please cite the following three references that made this development
     * possible:
     *
     *   M. Dion, H. Rydberg, E. Schroder, D. C. Langreth, and
     *   B. I. Lundqvist, Phys. Rev. Lett. 92, 246401 (2004).
     *
     *   T. Thonhauser, V. R. Cooper, S. Li, A. Puzder, P. Hyldgaard, and
     *   D. C. Langreth, Phys. Rev. B 76, 125112 (2007).
     *
     *   G. Roman-Perez and J. M. Soler, Phys. Rev. Lett. 103, 096102 (2009).
     *
     *
     * If you are using vdW-DF2, please also cite:
     *
     *   K. Lee, E. D. Murray, L. Kong, B. I. Lundqvist, and
     *   D. C. Langreth, Phys. Rev. B 82, 081101(R) (2010).
     *
     *
     * If you are calculating the stress with vdW-DF, please also cite:
     *
     *   R. Sabatini, E. Kucukbenli, B. Kolb, T. Thonhauser, and
     *   S. de Gironcoli, J. Phys.: Condens. Matter 24, 424209 (2012).
     *

     Carrying out vdW-DF run using the following parameters:

     Nqs =      20    Nr_points =    1024   r_max =   100.000
     q_mesh =
               0.00001000     0.04494208     0.09755937     0.15916263
               0.23128650     0.31572767     0.41458969     0.53033537
               0.66584808     0.82450364     1.01025438     1.22772762
               1.48234092     1.78043706     2.12944203     2.53805004
               3.01644009     3.57652955     4.23227104     5.00000000

     Gradients computed in reciprocal space

     Starting wfc are   52 randomized atomic wfcs

     Self-consistent Calculation

     iteration #  1     ecut=    58.80 Ry     beta=0.10
     Davidson diagonalization with overlap
     ethr =  1.00E-02,  avg # of iterations =  4.4

     Threshold (ethr) on eigenvalues was too large:
     Diagonalizing with lowered threshold

     Davidson diagonalization with overlap
     ethr =  8.44E-04,  avg # of iterations =  1.2

[...]

     total energy              =    -676.47959851 Ry
     Harris-Foulkes estimate   =    -676.50844822 Ry
     estimated scf accuracy    <       0.48560212 Ry

[...]

     total energy              =    -676.34448225 Ry
     Harris-Foulkes estimate   =    -676.34447649 Ry
     estimated scf accuracy    <       0.00000002 Ry

     iteration # 13     ecut=    58.80 Ry     beta=0.10
     Davidson diagonalization with overlap
     ethr =  3.23E-11,  avg # of iterations =  2.0

     negative rho (up, down):  4.723E-01 0.000E+00

     End of self-consistent calculation

          k = 0.0000 0.0000 0.0000 (  3407 PWs)   bands (ev):

   -59.5209 -59.4545 -59.4545 -27.3157 -21.4630 -21.4630 -21.4630 -21.1049
   -21.1049 -21.1049 -20.9293 -20.9293 -20.9293  -5.3725  -5.3725  -5.3725
    12.2980  15.3630  15.3630  15.4868  16.1624  16.1624  16.1624  19.8646
    19.8646  19.8646  22.4735  22.4735  23.9153  23.9153  23.9153  24.1108
    24.7582  24.7582  24.7582  26.0794  26.0794  27.2833  27.2833  27.2833
    31.7050  31.7050  31.7050  32.7211  32.7211  33.5174  33.5174  33.5174

[...]

          k = 0.1030-0.1236-0.1236 (  3408 PWs)   bands (ev):

[...]

          k =-0.1236-0.1236-0.1236 (  3448 PWs)   bands (ev):

   -59.4764 -59.4764 -59.4764 -27.3097 -21.6564 -21.3955 -21.3955 -21.3955
   -20.9726 -20.9726 -20.9214 -20.9214 -20.9214  -5.4071  -5.4071  -5.4071
    15.0757  15.0757  15.0757  16.1523  19.1292  19.1292  19.1292  19.7022
    19.7022  19.7022  20.3308  20.3308  20.8243  21.9073  21.9073  21.9073
    24.1487  24.1487  24.1487  25.7804  25.7804  25.7804  26.2855  26.2855
    30.5419  30.5419  30.5419  33.1551  33.1551  33.1551  33.2356  33.3800

     the Fermi energy is    20.6973 ev

!    total energy              =    -676.34448582 Ry
     Harris-Foulkes estimate   =    -676.34448226 Ry
     estimated scf accuracy    <          5.7E-10 Ry

     The total energy is the sum of the following terms:

     one-electron contribution =     -80.77240244 Ry
     hartree contribution      =      74.55735949 Ry
     xc contribution           =    -181.00599846 Ry
     ewald contribution        =    -489.11197995 Ry
     smearing contrib. (-TS)   =      -0.01146445 Ry

     convergence has been achieved in  13 iterations

     Forces acting on atoms (Ry/au):

     negative rho (up, down):  4.723E-01 0.000E+00
     atom    1 type  1   force =     0.00000000    0.00000000    0.00000000
     atom    2 type  1   force =     0.00000000    0.00000000    0.00000000
     atom    3 type  1   force =     0.00000000    0.00000000    0.00000000
     atom    4 type  2   force =     0.00000000    0.00000000    0.00000000

     Total force =     0.000000     Total SCF correction =     0.000000
 !ASE

     General routines

     Parallel routines

   This run was terminated on:  16:48:31  25Oct2017

   JOB DONE.