     Program PWSCF v.5.1rc2 (svn rev. ) starts on 31Oct2017 at 18:14:44

     Current dimensions of program PWSCF are:
     Max number of different atomic species (ntypx) = 10
     Max number of k-points (npk) =  40000
     Max angular momentum in pseudopotentials (lmaxx) =  3

     IMPORTANT: XC functional enforced from input :
     Exchange-correlation      = BEEF-VDW ( 1  4 27 13 2)
     Any further DFT definition will be discarded
     Please, verify this is what you really want

     Subspace diagonalization in iterative solution of the eigenvalue problem:
     a serial algorithm will be used

     Generating pointlists ...
     new r_m :   0.4125 (alat units)  0.7795 (a.u.) for type    1
     new r_m :   0.4125 (alat units)  0.7795 (a.u.) for type    2

     bravais-lattice index     =            0
     lattice parameter (alat)  =       1.8897  a.u.
     unit-cell volume          =     329.9196 (a.u.)^3
     number of atoms/cell      =            4
     number of atomic types    =            2
     number of electrons       =        60.00
     number of Kohn-Sham states=           50
     kinetic-energy cutoff     =      58.7989  Ry
     charge density cutoff     =     587.9892  Ry
     convergence threshold     =      7.3E-09
     mixing beta               =       0.3000
     number of iterations used =           10  local-TF  mixing
     Exchange-correlation      = BEEF-VDW ( 1  4 27 13 2)
     nstep                     =           50

     celldm(1)=   1.889726  celldm(2)=   0.000000  celldm(3)=   0.000000
     celldm(4)=   0.000000  celldm(5)=   0.000000  celldm(6)=   0.000000

     crystal axes: (cart. coord. in units of alat)
               a(1) = (   3.656541   0.000000   0.000000 )
               a(2) = (   0.000000   3.656541   0.000000 )
               a(3) = (   0.000000   0.000000   3.656541 )

     reciprocal axes: (cart. coord. in units 2 pi/alat)
               b(1) = (  0.273482  0.000000  0.000000 )
               b(2) = (  0.000000  0.273482  0.000000 )
               b(3) = (  0.000000  0.000000  0.273482 )

     PseudoPot. # 1 for Mn read from file:
     /home/vossj/suncat/psp/gbrv1.5pbe/Mn.UPF
     MD5 check sum: 82ef2b46521d7a7d9e736dc3972e4928
     Pseudo is Ultrasoft + core correction, Zval = 15.0
     Generated by new atomic code, or converted to UPF format
     Using radial grid of  859 points,  6 beta functions with:
                l(1) =   0
                l(2) =   0
                l(3) =   1
                l(4) =   1
                l(5) =   2
                l(6) =   2
     Q(r) pseudized with  8 coefficients,  rinner =    0.950   0.950   0.950
                                                       0.950   0.950

     PseudoPot. # 2 for Tc read from file:
     /home/vossj/suncat/psp/gbrv1.5pbe/Tc.UPF
     MD5 check sum: 9eb49e5b028550b2339a02317eb7b844
     Pseudo is Ultrasoft + core correction, Zval = 15.0
     Generated by new atomic code, or converted to UPF format
     Using radial grid of  965 points,  6 beta functions with:
                l(1) =   0
                l(2) =   0
                l(3) =   1
                l(4) =   1
                l(5) =   2
                l(6) =   2
     Q(r) pseudized with  8 coefficients,  rinner =    1.300   1.300   1.300
                                                       1.300   1.300

     vdW kernel table read from file vdW_kernel_table
     MD5 check sum: 095c7af220d748ca6e76c0b4c6cfb241

     atomic species   valence    mass     pseudopotential
        Mn1           15.00    54.93804     Mn( 1.00)
        Tc1           15.00    97.90721     Tc( 1.00)

     Starting magnetic structure
     atomic species   magnetization
        Mn1          0.133
        Tc1          0.133

     48 Sym. Ops., with inversion, found (32 have fractional translation)

   Cartesian axes

     site n.     atom                  positions (alat units)
         1           Mn1 tau(   1) = (   0.0000000   0.0000000   0.0000000  )
         2           Mn1 tau(   2) = (   0.0000000   1.8282707   1.8282707  )
         3           Mn1 tau(   3) = (   1.8282707   0.0000000   1.8282707  )
         4           Tc1 tau(   4) = (   1.8282707   1.8282707   0.0000000  )

     number of k points=   168  Fermi-Dirac smearing, width (Ry)=  0.0073

     Number of k-points >= 100: set verbosity='high' to print them.

     Largest allocated arrays     est. size (Mb)     dimensions
     Largest temporary arrays     est. size (Mb)     dimensions

     Check: negative/imaginary core charge=   -0.000050    0.000000

     Initial potential from superposition of free atoms
     Check: negative starting charge=(component1):   -0.069828
     Check: negative starting charge=(component2):   -0.053398

     starting charge   57.49972, renormalised to   60.00000

     negative rho (up, down):  7.286E-02 5.572E-02

     *
     * You are using vdW-DF for exchange-correlation in this calculation.
     * Please cite the following three references that made this development
     * possible:
     *
     *   M. Dion, H. Rydberg, E. Schroder, D. C. Langreth, and
     *   B. I. Lundqvist, Phys. Rev. Lett. 92, 246401 (2004).
     *
     *   T. Thonhauser, V. R. Cooper, S. Li, A. Puzder, P. Hyldgaard, and
     *   D. C. Langreth, Phys. Rev. B 76, 125112 (2007).
     *
     *   G. Roman-Perez and J. M. Soler, Phys. Rev. Lett. 103, 096102 (2009).
     *
     *
     * If you are using vdW-DF2, please also cite:
     *
     *   K. Lee, E. D. Murray, L. Kong, B. I. Lundqvist, and
     *   D. C. Langreth, Phys. Rev. B 82, 081101(R) (2010).
     *
     *
     * If you are calculating the stress with vdW-DF, please also cite:
     *
     *   R. Sabatini, E. Kucukbenli, B. Kolb, T. Thonhauser, and
     *   S. de Gironcoli, J. Phys.: Condens. Matter 24, 424209 (2012).
     *

     Carrying out vdW-DF run using the following parameters:

     Nqs =      20    Nr_points =    1024   r_max =   100.000
     q_mesh =
               0.00001000     0.04494208     0.09755937     0.15916263
               0.23128650     0.31572767     0.41458969     0.53033537
               0.66584808     0.82450364     1.01025438     1.22772762
               1.48234092     1.78043706     2.12944203     2.53805004
               3.01644009     3.57652955     4.23227104     5.00000000

     Gradients computed in reciprocal space

     Starting wfc are   52 randomized atomic wfcs

     Self-consistent Calculation

     iteration #  1     ecut=    58.80 Ry     beta=0.30
     Davidson diagonalization with overlap
     ethr =  1.00E-02,  avg # of iterations =  4.3

[...]

     Magnetic moment per site:
     atom:    1    charge:    6.0693    magn:    0.6770    constr:    0.0000
     atom:    2    charge:    6.0693    magn:    0.6770    constr:    0.0000
     atom:    3    charge:    6.0693    magn:    0.6770    constr:    0.0000
     atom:    4    charge:    2.3342    magn:    0.2356    constr:    0.0000

     total energy              =    -811.65661673 Ry
     Harris-Foulkes estimate   =    -813.24764083 Ry
     estimated scf accuracy    <       8.27309657 Ry

     total magnetization       =     3.10 Bohr mag/cell
     absolute magnetization    =     3.11 Bohr mag/cell

[...]

     total energy              =    -811.75114089 Ry
     Harris-Foulkes estimate   =    -811.75114088 Ry
     estimated scf accuracy    <          8.7E-09 Ry

[...]

     iteration # 16     ecut=    58.80 Ry     beta=0.30
     Davidson diagonalization with overlap
     ethr =  1.45E-11,  avg # of iterations =  1.0

     negative rho (up, down):  6.685E-02 6.352E-02

     Magnetic moment per site:
     atom:    1    charge:    5.9669    magn:    0.4034    constr:    0.0000
     atom:    2    charge:    5.9669    magn:    0.4034    constr:    0.0000
     atom:    3    charge:    5.9669    magn:    0.4034    constr:    0.0000
     atom:    4    charge:    2.2588    magn:   -0.0468    constr:    0.0000

     End of self-consistent calculation

     Number of k-points >= 100: set verbosity='high' to print the bands.

     the Fermi energy is    19.4789 ev

!    total energy              =    -811.75114090 Ry
     Harris-Foulkes estimate   =    -811.75114089 Ry
     estimated scf accuracy    <          6.0E-09 Ry

     The total energy is the sum of the following terms:

     one-electron contribution =    -274.51301333 Ry
     hartree contribution      =     175.66034318 Ry
     xc contribution           =    -115.71344605 Ry
     ewald contribution        =    -597.17199306 Ry
     smearing contrib. (-TS)   =      -0.01303165 Ry

     total magnetization       =     2.46 Bohr mag/cell
     absolute magnetization    =     3.45 Bohr mag/cell

     convergence has been achieved in  16 iterations

     Forces acting on atoms (Ry/au):

     negative rho (up, down):  6.685E-02 6.352E-02
     atom    1 type  1   force =     0.00000000   -0.00000000    0.00000000
     atom    2 type  1   force =     0.00000000   -0.00000000    0.00000000
     atom    3 type  1   force =     0.00000000    0.00000000    0.00000000
     atom    4 type  2   force =     0.00000000    0.00000000    0.00000000

     Total force =     0.000000     Total SCF correction =     0.000000
 !ASE

     General routines

     Parallel routines

   This run was terminated on:  18:16:44  31Oct2017

   JOB DONE.