     Program PWSCF v.5.1rc2 (svn rev. ) starts on 25Oct2017 at 17:25:55

     Current dimensions of program PWSCF are:
     Max number of different atomic species (ntypx) = 10
     Max number of k-points (npk) =  40000
     Max angular momentum in pseudopotentials (lmaxx) =  3

     IMPORTANT: XC functional enforced from input :
     Exchange-correlation      = BEEF-VDW ( 1  4 27 13 2)
     Any further DFT definition will be discarded
     Please, verify this is what you really want

     Subspace diagonalization in iterative solution of the eigenvalue problem:
     a serial algorithm will be used

     bravais-lattice index     =            0
     lattice parameter (alat)  =       1.8897  a.u.
     unit-cell volume          =     368.9066 (a.u.)^3
     number of atoms/cell      =            4
     number of atomic types    =            2
     number of electrons       =        67.00
     number of Kohn-Sham states=           53
     kinetic-energy cutoff     =      58.7989  Ry
     charge density cutoff     =     587.9892  Ry
     convergence threshold     =      7.3E-09
     mixing beta               =       0.1000
     number of iterations used =           10  local-TF  mixing
     Exchange-correlation      = BEEF-VDW ( 1  4 27 13 2)
     nstep                     =           50

     celldm(1)=   1.889726  celldm(2)=   0.000000  celldm(3)=   0.000000
     celldm(4)=   0.000000  celldm(5)=   0.000000  celldm(6)=   0.000000

     crystal axes: (cart. coord. in units of alat)
               a(1) = (   3.795246   0.000000   0.000000 )
               a(2) = (   0.000000   3.795246   0.000000 )
               a(3) = (   0.000000   0.000000   3.795246 )

     reciprocal axes: (cart. coord. in units 2 pi/alat)
               b(1) = (  0.263488  0.000000  0.000000 )
               b(2) = (  0.000000  0.263488  0.000000 )
               b(3) = (  0.000000  0.000000  0.263488 )

     PseudoPot. # 1 for Ru read from file:
     /home/vossj/suncat/psp/gbrv1.5pbe/Ru.UPF
     MD5 check sum: 7158a806dd851261a58e6920c40ebe78
     Pseudo is Ultrasoft + core correction, Zval = 16.0
     Generated by new atomic code, or converted to UPF format
     Using radial grid of  967 points,  6 beta functions with:
                l(1) =   0
                l(2) =   0
                l(3) =   1
                l(4) =   1
                l(5) =   2
                l(6) =   2
     Q(r) pseudized with  8 coefficients,  rinner =    1.300   1.300   1.300
                                                       1.300   1.300

     PseudoPot. # 2 for Cu read from file:
     /home/vossj/suncat/psp/gbrv1.5pbe/Cu.UPF
     MD5 check sum: 6e991ff952a84172a2a52a1c1e996048
     Pseudo is Ultrasoft + core correction, Zval = 19.0
     Generated by new atomic code, or converted to UPF format
     Using radial grid of  867 points,  6 beta functions with:
                l(1) =   0
                l(2) =   0
                l(3) =   1
                l(4) =   1
                l(5) =   2
                l(6) =   2
     Q(r) pseudized with  8 coefficients,  rinner =    1.150   1.150   1.150
                                                       1.150   1.150

     vdW kernel table read from file vdW_kernel_table
     MD5 check sum: 095c7af220d748ca6e76c0b4c6cfb241

     atomic species   valence    mass     pseudopotential
        Ru1           16.00   101.07000     Ru( 1.00)
        Cu1           19.00    63.54600     Cu( 1.00)

     48 Sym. Ops., with inversion, found (32 have fractional translation)

   Cartesian axes

     site n.     atom                  positions (alat units)
         1           Ru1 tau(   1) = (   0.0000000   0.0000000   0.0000000  )
         2           Ru1 tau(   2) = (   0.0000000   1.8976231   1.8976231  )
         3           Ru1 tau(   3) = (   1.8976231   0.0000000   1.8976231  )
         4           Cu1 tau(   4) = (   1.8976231   1.8976231   0.0000000  )

     number of k points=    84  Fermi-Dirac smearing, width (Ry)=  0.0073
                       cart. coord. in units 2pi/alat
        k(    1) = (   0.0000000   0.0000000   0.0000000), wk =   0.0011574
        k(    2) = (   0.0000000   0.0000000   0.0219573), wk =   0.0069444
        k(    3) = (   0.0000000   0.0000000   0.0439146), wk =   0.0069444
        k(    4) = (   0.0000000   0.0000000   0.0658719), wk =   0.0069444
        k(    5) = (   0.0000000   0.0000000   0.0878292), wk =   0.0069444
        k(    6) = (   0.0000000   0.0000000   0.1097865), wk =   0.0069444
        k(    7) = (   0.0000000   0.0000000  -0.1317438), wk =   0.0034722
        k(    8) = (   0.0000000   0.0219573   0.0219573), wk =   0.0138889
        k(    9) = (   0.0000000   0.0219573   0.0439146), wk =   0.0277778
        k(   10) = (   0.0000000   0.0219573   0.0658719), wk =   0.0277778
        k(   11) = (   0.0000000   0.0219573   0.0878292), wk =   0.0277778
        k(   12) = (   0.0000000   0.0219573   0.1097865), wk =   0.0277778
        k(   13) = (   0.0000000   0.0219573  -0.1317438), wk =   0.0138889
        k(   14) = (   0.0000000   0.0439146   0.0439146), wk =   0.0138889
        k(   15) = (   0.0000000   0.0439146   0.0658719), wk =   0.0277778
        k(   16) = (   0.0000000   0.0439146   0.0878292), wk =   0.0277778
        k(   17) = (   0.0000000   0.0439146   0.1097865), wk =   0.0277778
        k(   18) = (   0.0000000   0.0439146  -0.1317438), wk =   0.0138889
        k(   19) = (   0.0000000   0.0658719   0.0658719), wk =   0.0138889
        k(   20) = (   0.0000000   0.0658719   0.0878292), wk =   0.0277778
        k(   21) = (   0.0000000   0.0658719   0.1097865), wk =   0.0277778
        k(   22) = (   0.0000000   0.0658719  -0.1317438), wk =   0.0138889
        k(   23) = (   0.0000000   0.0878292   0.0878292), wk =   0.0138889
        k(   24) = (   0.0000000   0.0878292   0.1097865), wk =   0.0277778
        k(   25) = (   0.0000000   0.0878292  -0.1317438), wk =   0.0138889
        k(   26) = (   0.0000000   0.1097865   0.1097865), wk =   0.0138889
        k(   27) = (   0.0000000   0.1097865  -0.1317438), wk =   0.0138889
        k(   28) = (   0.0000000  -0.1317438  -0.1317438), wk =   0.0034722
        k(   29) = (   0.0219573   0.0219573   0.0219573), wk =   0.0092593
        k(   30) = (   0.0219573   0.0219573   0.0439146), wk =   0.0277778
        k(   31) = (   0.0219573   0.0219573   0.0658719), wk =   0.0277778
        k(   32) = (   0.0219573   0.0219573   0.0878292), wk =   0.0277778
        k(   33) = (   0.0219573   0.0219573   0.1097865), wk =   0.0277778
        k(   34) = (   0.0219573   0.0219573  -0.1317438), wk =   0.0138889
        k(   35) = (   0.0219573   0.0439146   0.0439146), wk =   0.0277778
        k(   36) = (   0.0219573   0.0439146   0.0658719), wk =   0.0555556
        k(   37) = (   0.0219573   0.0439146   0.0878292), wk =   0.0555556
        k(   38) = (   0.0219573   0.0439146   0.1097865), wk =   0.0555556
        k(   39) = (   0.0219573   0.0439146  -0.1317438), wk =   0.0277778
        k(   40) = (   0.0219573   0.0658719   0.0658719), wk =   0.0277778
        k(   41) = (   0.0219573   0.0658719   0.0878292), wk =   0.0555556
        k(   42) = (   0.0219573   0.0658719   0.1097865), wk =   0.0555556
        k(   43) = (   0.0219573   0.0658719  -0.1317438), wk =   0.0277778
        k(   44) = (   0.0219573   0.0878292   0.0878292), wk =   0.0277778
        k(   45) = (   0.0219573   0.0878292   0.1097865), wk =   0.0555556
        k(   46) = (   0.0219573   0.0878292  -0.1317438), wk =   0.0277778
        k(   47) = (   0.0219573   0.1097865   0.1097865), wk =   0.0277778
        k(   48) = (   0.0219573   0.1097865  -0.1317438), wk =   0.0277778
        k(   49) = (   0.0219573  -0.1317438  -0.1317438), wk =   0.0069444
        k(   50) = (   0.0439146   0.0439146   0.0439146), wk =   0.0092593
        k(   51) = (   0.0439146   0.0439146   0.0658719), wk =   0.0277778
        k(   52) = (   0.0439146   0.0439146   0.0878292), wk =   0.0277778
        k(   53) = (   0.0439146   0.0439146   0.1097865), wk =   0.0277778
        k(   54) = (   0.0439146   0.0439146  -0.1317438), wk =   0.0138889
        k(   55) = (   0.0439146   0.0658719   0.0658719), wk =   0.0277778
        k(   56) = (   0.0439146   0.0658719   0.0878292), wk =   0.0555556
        k(   57) = (   0.0439146   0.0658719   0.1097865), wk =   0.0555556
        k(   58) = (   0.0439146   0.0658719  -0.1317438), wk =   0.0277778
        k(   59) = (   0.0439146   0.0878292   0.0878292), wk =   0.0277778
        k(   60) = (   0.0439146   0.0878292   0.1097865), wk =   0.0555556
[...]
        k(   70) = (   0.0658719   0.0878292   0.1097865), wk =   0.0555556
        k(   71) = (   0.0658719   0.0878292  -0.1317438), wk =   0.0277778
        k(   72) = (   0.0658719   0.1097865   0.1097865), wk =   0.0277778
        k(   73) = (   0.0658719   0.1097865  -0.1317438), wk =   0.0277778
        k(   74) = (   0.0658719  -0.1317438  -0.1317438), wk =   0.0069444
        k(   75) = (   0.0878292   0.0878292   0.0878292), wk =   0.0092593
        k(   76) = (   0.0878292   0.0878292   0.1097865), wk =   0.0277778
        k(   77) = (   0.0878292   0.0878292  -0.1317438), wk =   0.0138889
        k(   78) = (   0.0878292   0.1097865   0.1097865), wk =   0.0277778
        k(   79) = (   0.0878292   0.1097865  -0.1317438), wk =   0.0277778
        k(   80) = (   0.0878292  -0.1317438  -0.1317438), wk =   0.0069444
        k(   81) = (   0.1097865   0.1097865   0.1097865), wk =   0.0092593
        k(   82) = (   0.1097865   0.1097865  -0.1317438), wk =   0.0138889
        k(   83) = (   0.1097865  -0.1317438  -0.1317438), wk =   0.0069444
        k(   84) = (  -0.1317438  -0.1317438  -0.1317438), wk =   0.0011574

     Largest allocated arrays     est. size (Mb)     dimensions
     Largest temporary arrays     est. size (Mb)     dimensions

     Initial potential from superposition of free atoms
     Check: negative starting charge=   -0.221229

     starting charge   62.99995, renormalised to   67.00000

     negative rho (up, down):  2.353E-01 0.000E+00

     *
     * You are using vdW-DF for exchange-correlation in this calculation.
     * Please cite the following three references that made this development
     * possible:
     *
     *   M. Dion, H. Rydberg, E. Schroder, D. C. Langreth, and
     *   B. I. Lundqvist, Phys. Rev. Lett. 92, 246401 (2004).
     *
     *   T. Thonhauser, V. R. Cooper, S. Li, A. Puzder, P. Hyldgaard, and
     *   D. C. Langreth, Phys. Rev. B 76, 125112 (2007).
     *
     *   G. Roman-Perez and J. M. Soler, Phys. Rev. Lett. 103, 096102 (2009).
     *
     *
     * If you are using vdW-DF2, please also cite:
     *
     *   K. Lee, E. D. Murray, L. Kong, B. I. Lundqvist, and
     *   D. C. Langreth, Phys. Rev. B 82, 081101(R) (2010).
     *
     *
     * If you are calculating the stress with vdW-DF, please also cite:
     *
     *   R. Sabatini, E. Kucukbenli, B. Kolb, T. Thonhauser, and
     *   S. de Gironcoli, J. Phys.: Condens. Matter 24, 424209 (2012).
     *

     Carrying out vdW-DF run using the following parameters:

     Nqs =      20    Nr_points =    1024   r_max =   100.000
     q_mesh =
               0.00001000     0.04494208     0.09755937     0.15916263
               0.23128650     0.31572767     0.41458969     0.53033537
               0.66584808     0.82450364     1.01025438     1.22772762
               1.48234092     1.78043706     2.12944203     2.53805004
               3.01644009     3.57652955     4.23227104     5.00000000

     Gradients computed in reciprocal space

     Starting wfc are   52 randomized atomic wfcs +    1 random wfc

     Self-consistent Calculation

     iteration #  1     ecut=    58.80 Ry     beta=0.10
     Davidson diagonalization with overlap
     ethr =  1.00E-02,  avg # of iterations =  4.3

[...]

     total energy              =    -991.30422623 Ry
     Harris-Foulkes estimate   =    -993.59737445 Ry
     estimated scf accuracy    <      36.04633342 Ry

[...]

     total energy              =    -990.31942138 Ry
     Harris-Foulkes estimate   =    -990.31942095 Ry
     estimated scf accuracy    <          9.7E-09 Ry

     iteration # 19     ecut=    58.80 Ry     beta=0.10
     Davidson diagonalization with overlap
     ethr =  1.45E-11,  avg # of iterations =  1.0

     negative rho (up, down):  2.273E-01 0.000E+00

     End of self-consistent calculation

          k = 0.0000 0.0000 0.0000 (  2801 PWs)   bands (ev):

   -92.4108 -52.3985 -52.2273 -52.2273 -49.7867 -49.7867 -49.7867 -22.6201
   -22.6201 -22.6201 -22.1614 -22.1614 -22.1614 -21.9430 -21.9430 -21.9430
    12.6764  14.3611  15.2496  15.2496  15.4339  15.4339  15.4339  17.7402
    17.7402  17.7402  18.8505  18.8505  20.6743  20.6743  20.6743  21.4287
    21.4287  22.4247  22.9300  22.9300  22.9300  23.5827  23.5827  23.5827
    31.0766  32.5722  32.5722  32.5722  32.6600  32.6600  35.2960  35.2960
    35.2960  37.0040  41.6544  42.2121  42.2121

[...]

          k = 0.1098-0.1317-0.1317 (  2828 PWs)   bands (ev):

[...]

          k =-0.1317-0.1317-0.1317 (  2800 PWs)   bands (ev):

   -92.4108 -52.2834 -52.2834 -52.2834 -49.7869 -49.7869 -49.7869 -22.8865
   -22.5219 -22.5219 -22.5219 -22.0028 -22.0028 -21.9304 -21.9304 -21.9304
    14.3329  15.3159  15.3159  15.3159  17.4011  17.4011  17.6331  17.6331
    17.6331  18.1802  18.1802  18.1802  20.5274  20.5274  20.5274  20.9639
    20.9639  20.9639  21.0470  21.0470  21.9202  22.4472  22.4472  22.4472
    27.3933  29.5108  29.5108  29.5108  36.2109  36.4874  36.4874  36.4874
    39.5391  39.5391  39.5391  41.9218  41.9218

     the Fermi energy is    20.6703 ev

!    total energy              =    -990.31942322 Ry
     Harris-Foulkes estimate   =    -990.31942138 Ry
     estimated scf accuracy    <          8.9E-10 Ry

     The total energy is the sum of the following terms:

     one-electron contribution =    -394.10529535 Ry
     hartree contribution      =     244.03049521 Ry
     xc contribution           =    -120.67792775 Ry
     ewald contribution        =    -719.54804855 Ry
     smearing contrib. (-TS)   =      -0.01864678 Ry

     convergence has been achieved in  19 iterations

     Forces acting on atoms (Ry/au):

     negative rho (up, down):  2.273E-01 0.000E+00
     atom    1 type  1   force =     0.00000000    0.00000000    0.00000000
     atom    2 type  1   force =     0.00000000    0.00000000    0.00000000
     atom    3 type  1   force =     0.00000000    0.00000000    0.00000000
     atom    4 type  2   force =     0.00000000    0.00000000    0.00000000

     Total force =     0.000000     Total SCF correction =     0.000000
 !ASE

     General routines

     Parallel routines

   This run was terminated on:  17:27:24  25Oct2017

   JOB DONE.