     Program PWSCF v.5.1rc2 (svn rev. ) starts on 25Oct2017 at  9:58:56

     Current dimensions of program PWSCF are:
     Max number of different atomic species (ntypx) = 10
     Max number of k-points (npk) =  40000
     Max angular momentum in pseudopotentials (lmaxx) =  3

     IMPORTANT: XC functional enforced from input :
     Exchange-correlation      = BEEF-VDW ( 1  4 27 13 2)
     Any further DFT definition will be discarded
     Please, verify this is what you really want

     Subspace diagonalization in iterative solution of the eigenvalue problem:
     a serial algorithm will be used

     bravais-lattice index     =            0
     lattice parameter (alat)  =       1.8897  a.u.
     unit-cell volume          =     561.3764 (a.u.)^3
     number of atoms/cell      =            4
     number of atomic types    =            2
     number of electrons       =        53.00
     number of Kohn-Sham states=           46
     kinetic-energy cutoff     =      58.7989  Ry
     charge density cutoff     =     587.9892  Ry
     convergence threshold     =      7.3E-09
     mixing beta               =       0.1000
     number of iterations used =           10  local-TF  mixing
     Exchange-correlation      = BEEF-VDW ( 1  4 27 13 2)
     nstep                     =           50

     celldm(1)=   1.889726  celldm(2)=   0.000000  celldm(3)=   0.000000
     celldm(4)=   0.000000  celldm(5)=   0.000000  celldm(6)=   0.000000

     crystal axes: (cart. coord. in units of alat)
               a(1) = (   4.365351   0.000000   0.000000 )
               a(2) = (   0.000000   4.365351   0.000000 )
               a(3) = (   0.000000   0.000000   4.365351 )

     reciprocal axes: (cart. coord. in units 2 pi/alat)
               b(1) = (  0.229077  0.000000  0.000000 )
               b(2) = (  0.000000  0.229077  0.000000 )
               b(3) = (  0.000000  0.000000  0.229077 )

     PseudoPot. # 1 for In read from file:
     /home/vossj/suncat/psp/gbrv1.5pbe/In.UPF
     MD5 check sum: 90777abd96fbb83f2e67db2a40c566b9
     Pseudo is Ultrasoft + core correction, Zval = 13.0
     Generated by new atomic code, or converted to UPF format
     Using radial grid of  889 points,  6 beta functions with:
                l(1) =   0
                l(2) =   0
                l(3) =   1
                l(4) =   1
                l(5) =   2
                l(6) =   2
     Q(r) pseudized with  6 coefficients,  rinner =    1.400   1.400   1.400
                                                       1.400   1.400

     PseudoPot. # 2 for Cr read from file:
     /home/vossj/suncat/psp/gbrv1.5pbe/Cr.UPF
     MD5 check sum: 0d52af634a40206e4dee301ad30da4bf
     Pseudo is Ultrasoft + core correction, Zval = 14.0
     Generated by new atomic code, or converted to UPF format
     Using radial grid of  857 points,  6 beta functions with:
                l(1) =   0
                l(2) =   0
                l(3) =   1
                l(4) =   1
                l(5) =   2
                l(6) =   2
     Q(r) pseudized with  8 coefficients,  rinner =    0.950   0.950   0.950
                                                       0.950   0.950

     vdW kernel table read from file vdW_kernel_table
     MD5 check sum: 095c7af220d748ca6e76c0b4c6cfb241

     atomic species   valence    mass     pseudopotential
        In1           13.00   114.81800     In( 1.00)
        Cr1           14.00    51.99610     Cr( 1.00)

     48 Sym. Ops., with inversion, found (32 have fractional translation)

   Cartesian axes

     site n.     atom                  positions (alat units)
         1           In1 tau(   1) = (   0.0000000   0.0000000   0.0000000  )
         2           In1 tau(   2) = (   0.0000000   2.1826756   2.1826756  )
         3           In1 tau(   3) = (   2.1826756   0.0000000   2.1826756  )
         4           Cr1 tau(   4) = (   2.1826756   2.1826756   0.0000000  )

     number of k points=    84  Fermi-Dirac smearing, width (Ry)=  0.0073
                       cart. coord. in units 2pi/alat
        k(    1) = (   0.0000000   0.0000000   0.0000000), wk =   0.0011574
        k(    2) = (   0.0000000   0.0000000   0.0190897), wk =   0.0069444
        k(    3) = (   0.0000000   0.0000000   0.0381794), wk =   0.0069444
        k(    4) = (   0.0000000   0.0000000   0.0572692), wk =   0.0069444
        k(    5) = (   0.0000000   0.0000000   0.0763589), wk =   0.0069444
        k(    6) = (   0.0000000   0.0000000   0.0954486), wk =   0.0069444
        k(    7) = (   0.0000000   0.0000000  -0.1145383), wk =   0.0034722
        k(    8) = (   0.0000000   0.0190897   0.0190897), wk =   0.0138889
        k(    9) = (   0.0000000   0.0190897   0.0381794), wk =   0.0277778
        k(   10) = (   0.0000000   0.0190897   0.0572692), wk =   0.0277778
        k(   11) = (   0.0000000   0.0190897   0.0763589), wk =   0.0277778
        k(   12) = (   0.0000000   0.0190897   0.0954486), wk =   0.0277778
        k(   13) = (   0.0000000   0.0190897  -0.1145383), wk =   0.0138889
        k(   14) = (   0.0000000   0.0381794   0.0381794), wk =   0.0138889
        k(   15) = (   0.0000000   0.0381794   0.0572692), wk =   0.0277778
        k(   16) = (   0.0000000   0.0381794   0.0763589), wk =   0.0277778
        k(   17) = (   0.0000000   0.0381794   0.0954486), wk =   0.0277778
        k(   18) = (   0.0000000   0.0381794  -0.1145383), wk =   0.0138889
        k(   19) = (   0.0000000   0.0572692   0.0572692), wk =   0.0138889
        k(   20) = (   0.0000000   0.0572692   0.0763589), wk =   0.0277778
        k(   21) = (   0.0000000   0.0572692   0.0954486), wk =   0.0277778
        k(   22) = (   0.0000000   0.0572692  -0.1145383), wk =   0.0138889
        k(   23) = (   0.0000000   0.0763589   0.0763589), wk =   0.0138889
        k(   24) = (   0.0000000   0.0763589   0.0954486), wk =   0.0277778
        k(   25) = (   0.0000000   0.0763589  -0.1145383), wk =   0.0138889
        k(   26) = (   0.0000000   0.0954486   0.0954486), wk =   0.0138889
        k(   27) = (   0.0000000   0.0954486  -0.1145383), wk =   0.0138889
        k(   28) = (   0.0000000  -0.1145383  -0.1145383), wk =   0.0034722
        k(   29) = (   0.0190897   0.0190897   0.0190897), wk =   0.0092593
        k(   30) = (   0.0190897   0.0190897   0.0381794), wk =   0.0277778
        k(   31) = (   0.0190897   0.0190897   0.0572692), wk =   0.0277778
        k(   32) = (   0.0190897   0.0190897   0.0763589), wk =   0.0277778
        k(   33) = (   0.0190897   0.0190897   0.0954486), wk =   0.0277778
        k(   34) = (   0.0190897   0.0190897  -0.1145383), wk =   0.0138889
        k(   35) = (   0.0190897   0.0381794   0.0381794), wk =   0.0277778
        k(   36) = (   0.0190897   0.0381794   0.0572692), wk =   0.0555556
        k(   37) = (   0.0190897   0.0381794   0.0763589), wk =   0.0555556
        k(   38) = (   0.0190897   0.0381794   0.0954486), wk =   0.0555556
        k(   39) = (   0.0190897   0.0381794  -0.1145383), wk =   0.0277778
        k(   40) = (   0.0190897   0.0572692   0.0572692), wk =   0.0277778
        k(   41) = (   0.0190897   0.0572692   0.0763589), wk =   0.0555556
        k(   42) = (   0.0190897   0.0572692   0.0954486), wk =   0.0555556
        k(   43) = (   0.0190897   0.0572692  -0.1145383), wk =   0.0277778
        k(   44) = (   0.0190897   0.0763589   0.0763589), wk =   0.0277778
        k(   45) = (   0.0190897   0.0763589   0.0954486), wk =   0.0555556
        k(   46) = (   0.0190897   0.0763589  -0.1145383), wk =   0.0277778
        k(   47) = (   0.0190897   0.0954486   0.0954486), wk =   0.0277778
        k(   48) = (   0.0190897   0.0954486  -0.1145383), wk =   0.0277778
        k(   49) = (   0.0190897  -0.1145383  -0.1145383), wk =   0.0069444
        k(   50) = (   0.0381794   0.0381794   0.0381794), wk =   0.0092593
        k(   51) = (   0.0381794   0.0381794   0.0572692), wk =   0.0277778
        k(   52) = (   0.0381794   0.0381794   0.0763589), wk =   0.0277778
        k(   53) = (   0.0381794   0.0381794   0.0954486), wk =   0.0277778
        k(   54) = (   0.0381794   0.0381794  -0.1145383), wk =   0.0138889
        k(   55) = (   0.0381794   0.0572692   0.0572692), wk =   0.0277778
        k(   56) = (   0.0381794   0.0572692   0.0763589), wk =   0.0555556
        k(   57) = (   0.0381794   0.0572692   0.0954486), wk =   0.0555556
        k(   58) = (   0.0381794   0.0572692  -0.1145383), wk =   0.0277778
        k(   59) = (   0.0381794   0.0763589   0.0763589), wk =   0.0277778
        k(   60) = (   0.0381794   0.0763589   0.0954486), wk =   0.0555556
[...]
        k(   70) = (   0.0572692   0.0763589   0.0954486), wk =   0.0555556
        k(   71) = (   0.0572692   0.0763589  -0.1145383), wk =   0.0277778
        k(   72) = (   0.0572692   0.0954486   0.0954486), wk =   0.0277778
        k(   73) = (   0.0572692   0.0954486  -0.1145383), wk =   0.0277778
        k(   74) = (   0.0572692  -0.1145383  -0.1145383), wk =   0.0069444
        k(   75) = (   0.0763589   0.0763589   0.0763589), wk =   0.0092593
        k(   76) = (   0.0763589   0.0763589   0.0954486), wk =   0.0277778
        k(   77) = (   0.0763589   0.0763589  -0.1145383), wk =   0.0138889
        k(   78) = (   0.0763589   0.0954486   0.0954486), wk =   0.0277778
        k(   79) = (   0.0763589   0.0954486  -0.1145383), wk =   0.0277778
        k(   80) = (   0.0763589  -0.1145383  -0.1145383), wk =   0.0069444
        k(   81) = (   0.0954486   0.0954486   0.0954486), wk =   0.0092593
        k(   82) = (   0.0954486   0.0954486  -0.1145383), wk =   0.0138889
        k(   83) = (   0.0954486  -0.1145383  -0.1145383), wk =   0.0069444
        k(   84) = (  -0.1145383  -0.1145383  -0.1145383), wk =   0.0011574

     Largest allocated arrays     est. size (Mb)     dimensions
     Largest temporary arrays     est. size (Mb)     dimensions

     Check: negative/imaginary core charge=   -0.000002    0.000000

     Initial potential from superposition of free atoms
     Check: negative starting charge=   -0.000685

     starting charge   47.49998, renormalised to   53.00000

     negative rho (up, down):  7.645E-04 0.000E+00

     *
     * You are using vdW-DF for exchange-correlation in this calculation.
     * Please cite the following three references that made this development
     * possible:
     *
     *   M. Dion, H. Rydberg, E. Schroder, D. C. Langreth, and
     *   B. I. Lundqvist, Phys. Rev. Lett. 92, 246401 (2004).
     *
     *   T. Thonhauser, V. R. Cooper, S. Li, A. Puzder, P. Hyldgaard, and
     *   D. C. Langreth, Phys. Rev. B 76, 125112 (2007).
     *
     *   G. Roman-Perez and J. M. Soler, Phys. Rev. Lett. 103, 096102 (2009).
     *
     *
     * If you are using vdW-DF2, please also cite:
     *
     *   K. Lee, E. D. Murray, L. Kong, B. I. Lundqvist, and
     *   D. C. Langreth, Phys. Rev. B 82, 081101(R) (2010).
     *
     *
     * If you are calculating the stress with vdW-DF, please also cite:
     *
     *   R. Sabatini, E. Kucukbenli, B. Kolb, T. Thonhauser, and
     *   S. de Gironcoli, J. Phys.: Condens. Matter 24, 424209 (2012).
     *

     Carrying out vdW-DF run using the following parameters:

     Nqs =      20    Nr_points =    1024   r_max =   100.000
     q_mesh =
               0.00001000     0.04494208     0.09755937     0.15916263
               0.23128650     0.31572767     0.41458969     0.53033537
               0.66584808     0.82450364     1.01025438     1.22772762
               1.48234092     1.78043706     2.12944203     2.53805004
               3.01644009     3.57652955     4.23227104     5.00000000

     Gradients computed in reciprocal space

     Starting wfc are   37 randomized atomic wfcs +    9 random wfc

     Self-consistent Calculation

     iteration #  1     ecut=    58.80 Ry     beta=0.10
     Davidson diagonalization with overlap
     ethr =  1.00E-02,  avg # of iterations =  5.0

[...]

     total energy              =    -584.05541242 Ry
     Harris-Foulkes estimate   =    -585.24926675 Ry
     estimated scf accuracy    <      17.09756078 Ry

[...]

     total energy              =    -580.49745599 Ry
     Harris-Foulkes estimate   =    -580.49745590 Ry
     estimated scf accuracy    <       0.00000002 Ry

     iteration # 28     ecut=    58.80 Ry     beta=0.10
     Davidson diagonalization with overlap
     ethr =  3.97E-11,  avg # of iterations =  2.0

     negative rho (up, down):  5.698E-04 0.000E+00

     End of self-consistent calculation

          k = 0.0000 0.0000 0.0000 (  4337 PWs)   bands (ev):

   -58.8786 -30.2136 -30.2136 -30.2136  -2.9630  -2.9203  -2.9203  -2.9203
    -2.6321  -2.6321  -2.3685  -2.3685  -2.3685  -2.2933  -2.2933  -2.0757
    -2.0564  -2.0564  -2.0564   2.3802  10.2420  10.2420  10.5883  10.5883
    10.5883  12.5614  12.5614  12.5614  14.0483  14.0483  14.5574  17.7597
    17.7597  17.7597  19.0151  19.0151  19.0151  22.6226  22.6226  22.6226
    22.7639  22.7639  24.1789  25.3051  26.8603  26.8603

[...]

          k = 0.0954-0.1145-0.1145 (  4276 PWs)   bands (ev):

[...]

          k =-0.1145-0.1145-0.1145 (  4272 PWs)   bands (ev):

   -58.8785 -30.2143 -30.2143 -30.2143  -2.7780  -2.7780  -2.7780  -2.7066
    -2.6320  -2.6320  -2.6320  -2.3832  -2.3832  -2.3832  -2.2869  -2.2869
    -2.0932  -2.0932  -2.0932   7.9328   7.9328   7.9328   8.2664   9.4833
     9.4833   9.4833  12.7690  12.7690  13.0421  13.5282  13.5282  13.5282
    22.8796  22.8796  23.4497  23.4497  23.4497  24.2295  24.5426  24.5426
    24.5426  25.9178  25.9178  25.9178  27.4608  27.4857

     the Fermi energy is    12.6991 ev

!    total energy              =    -580.49745636 Ry
     Harris-Foulkes estimate   =    -580.49745599 Ry
     estimated scf accuracy    <          1.0E-10 Ry

     The total energy is the sum of the following terms:

     one-electron contribution =    -182.25522969 Ry
     hartree contribution      =     133.19357587 Ry
     xc contribution           =    -140.91096202 Ry
     ewald contribution        =    -390.50627484 Ry
     smearing contrib. (-TS)   =      -0.01856569 Ry

     convergence has been achieved in  28 iterations

     Forces acting on atoms (Ry/au):

     negative rho (up, down):  5.698E-04 0.000E+00
     atom    1 type  1   force =     0.00000000    0.00000000    0.00000000
     atom    2 type  1   force =     0.00000000    0.00000000   -0.00000000
     atom    3 type  1   force =     0.00000000    0.00000000   -0.00000000
     atom    4 type  2   force =     0.00000000    0.00000000    0.00000000

     Total force =     0.000000     Total SCF correction =     0.000000
 !ASE

     General routines

     Parallel routines

   This run was terminated on:  10: 0:57  25Oct2017

   JOB DONE.