     Program PWSCF v.5.1rc2 (svn rev. ) starts on 31Oct2017 at 18:50:17

     Current dimensions of program PWSCF are:
     Max number of different atomic species (ntypx) = 10
     Max number of k-points (npk) =  40000
     Max angular momentum in pseudopotentials (lmaxx) =  3

     IMPORTANT: XC functional enforced from input :
     Exchange-correlation      = BEEF-VDW ( 1  4 27 13 2)
     Any further DFT definition will be discarded
     Please, verify this is what you really want

     Subspace diagonalization in iterative solution of the eigenvalue problem:
     a serial algorithm will be used

     bravais-lattice index     =            0
     lattice parameter (alat)  =       1.8897  a.u.
     unit-cell volume          =     768.9166 (a.u.)^3
     number of atoms/cell      =            4
     number of atomic types    =            2
     number of electrons       =        50.00
     number of Kohn-Sham states=           45
     kinetic-energy cutoff     =      58.7989  Ry
     charge density cutoff     =     587.9892  Ry
     convergence threshold     =      7.3E-09
     mixing beta               =       0.1000
     number of iterations used =           10  local-TF  mixing
     Exchange-correlation      = BEEF-VDW ( 1  4 27 13 2)
     nstep                     =           50

     celldm(1)=   1.889726  celldm(2)=   0.000000  celldm(3)=   0.000000
     celldm(4)=   0.000000  celldm(5)=   0.000000  celldm(6)=   0.000000

     crystal axes: (cart. coord. in units of alat)
               a(1) = (   4.847981   0.000000   0.000000 )
               a(2) = (   0.000000   4.847981   0.000000 )
               a(3) = (   0.000000   0.000000   4.847981 )

     reciprocal axes: (cart. coord. in units 2 pi/alat)
               b(1) = (  0.206271  0.000000  0.000000 )
               b(2) = (  0.000000  0.206271  0.000000 )
               b(3) = (  0.000000  0.000000  0.206271 )

     PseudoPot. # 1 for La read from file:
     /home/vossj/suncat/psp/gbrv1.5pbe/La.UPF
     MD5 check sum: 5937b0c7494ba0601a847275249473aa
     Pseudo is Ultrasoft + core correction, Zval = 11.0
     Generated by new atomic code, or converted to UPF format
     Using radial grid of  995 points,  8 beta functions with:
                l(1) =   0
                l(2) =   0
                l(3) =   1
                l(4) =   1
                l(5) =   2
                l(6) =   2
                l(7) =   3
                l(8) =   3
     Q(r) pseudized with  8 coefficients,  rinner =    1.700   1.700   1.700
                                                       1.700   1.700   1.700
                                                       1.700

     PseudoPot. # 2 for Co read from file:
     /home/vossj/suncat/psp/gbrv1.5pbe/Co.UPF
     MD5 check sum: 5f91765df6ddd3222702df6e7b74a16d
     Pseudo is Ultrasoft + core correction, Zval = 17.0
     Generated by new atomic code, or converted to UPF format
     Using radial grid of  863 points,  6 beta functions with:
                l(1) =   0
                l(2) =   0
                l(3) =   1
                l(4) =   1
                l(5) =   2
                l(6) =   2
     Q(r) pseudized with  8 coefficients,  rinner =    1.200   1.200   1.200
                                                       1.200   1.200

     vdW kernel table read from file vdW_kernel_table
     MD5 check sum: 095c7af220d748ca6e76c0b4c6cfb241

     atomic species   valence    mass     pseudopotential
        La1           11.00   138.90547     La( 1.00)
        Co1           17.00    58.93319     Co( 1.00)

     48 Sym. Ops., with inversion, found (32 have fractional translation)

   Cartesian axes

     site n.     atom                  positions (alat units)
         1           La1 tau(   1) = (   0.0000000   0.0000000   0.0000000  )
         2           La1 tau(   2) = (   0.0000000   2.4239904   2.4239904  )
         3           La1 tau(   3) = (   2.4239904   0.0000000   2.4239904  )
         4           Co1 tau(   4) = (   2.4239904   2.4239904   0.0000000  )

     number of k points=    84  Fermi-Dirac smearing, width (Ry)=  0.0073
                       cart. coord. in units 2pi/alat
        k(    1) = (   0.0000000   0.0000000   0.0000000), wk =   0.0011574
        k(    2) = (   0.0000000   0.0000000   0.0171893), wk =   0.0069444
        k(    3) = (   0.0000000   0.0000000   0.0343786), wk =   0.0069444
        k(    4) = (   0.0000000   0.0000000   0.0515679), wk =   0.0069444
        k(    5) = (   0.0000000   0.0000000   0.0687571), wk =   0.0069444
        k(    6) = (   0.0000000   0.0000000   0.0859464), wk =   0.0069444
        k(    7) = (   0.0000000   0.0000000  -0.1031357), wk =   0.0034722
        k(    8) = (   0.0000000   0.0171893   0.0171893), wk =   0.0138889
        k(    9) = (   0.0000000   0.0171893   0.0343786), wk =   0.0277778
        k(   10) = (   0.0000000   0.0171893   0.0515679), wk =   0.0277778
        k(   11) = (   0.0000000   0.0171893   0.0687571), wk =   0.0277778
        k(   12) = (   0.0000000   0.0171893   0.0859464), wk =   0.0277778
        k(   13) = (   0.0000000   0.0171893  -0.1031357), wk =   0.0138889
        k(   14) = (   0.0000000   0.0343786   0.0343786), wk =   0.0138889
        k(   15) = (   0.0000000   0.0343786   0.0515679), wk =   0.0277778
        k(   16) = (   0.0000000   0.0343786   0.0687571), wk =   0.0277778
        k(   17) = (   0.0000000   0.0343786   0.0859464), wk =   0.0277778
        k(   18) = (   0.0000000   0.0343786  -0.1031357), wk =   0.0138889
        k(   19) = (   0.0000000   0.0515679   0.0515679), wk =   0.0138889
        k(   20) = (   0.0000000   0.0515679   0.0687571), wk =   0.0277778
        k(   21) = (   0.0000000   0.0515679   0.0859464), wk =   0.0277778
        k(   22) = (   0.0000000   0.0515679  -0.1031357), wk =   0.0138889
        k(   23) = (   0.0000000   0.0687571   0.0687571), wk =   0.0138889
        k(   24) = (   0.0000000   0.0687571   0.0859464), wk =   0.0277778
        k(   25) = (   0.0000000   0.0687571  -0.1031357), wk =   0.0138889
        k(   26) = (   0.0000000   0.0859464   0.0859464), wk =   0.0138889
        k(   27) = (   0.0000000   0.0859464  -0.1031357), wk =   0.0138889
        k(   28) = (   0.0000000  -0.1031357  -0.1031357), wk =   0.0034722
        k(   29) = (   0.0171893   0.0171893   0.0171893), wk =   0.0092593
        k(   30) = (   0.0171893   0.0171893   0.0343786), wk =   0.0277778
        k(   31) = (   0.0171893   0.0171893   0.0515679), wk =   0.0277778
        k(   32) = (   0.0171893   0.0171893   0.0687571), wk =   0.0277778
        k(   33) = (   0.0171893   0.0171893   0.0859464), wk =   0.0277778
        k(   34) = (   0.0171893   0.0171893  -0.1031357), wk =   0.0138889
        k(   35) = (   0.0171893   0.0343786   0.0343786), wk =   0.0277778
        k(   36) = (   0.0171893   0.0343786   0.0515679), wk =   0.0555556
        k(   37) = (   0.0171893   0.0343786   0.0687571), wk =   0.0555556
        k(   38) = (   0.0171893   0.0343786   0.0859464), wk =   0.0555556
        k(   39) = (   0.0171893   0.0343786  -0.1031357), wk =   0.0277778
        k(   40) = (   0.0171893   0.0515679   0.0515679), wk =   0.0277778
        k(   41) = (   0.0171893   0.0515679   0.0687571), wk =   0.0555556
        k(   42) = (   0.0171893   0.0515679   0.0859464), wk =   0.0555556
        k(   43) = (   0.0171893   0.0515679  -0.1031357), wk =   0.0277778
        k(   44) = (   0.0171893   0.0687571   0.0687571), wk =   0.0277778
        k(   45) = (   0.0171893   0.0687571   0.0859464), wk =   0.0555556
        k(   46) = (   0.0171893   0.0687571  -0.1031357), wk =   0.0277778
        k(   47) = (   0.0171893   0.0859464   0.0859464), wk =   0.0277778
        k(   48) = (   0.0171893   0.0859464  -0.1031357), wk =   0.0277778
        k(   49) = (   0.0171893  -0.1031357  -0.1031357), wk =   0.0069444
        k(   50) = (   0.0343786   0.0343786   0.0343786), wk =   0.0092593
        k(   51) = (   0.0343786   0.0343786   0.0515679), wk =   0.0277778
        k(   52) = (   0.0343786   0.0343786   0.0687571), wk =   0.0277778
        k(   53) = (   0.0343786   0.0343786   0.0859464), wk =   0.0277778
        k(   54) = (   0.0343786   0.0343786  -0.1031357), wk =   0.0138889
        k(   55) = (   0.0343786   0.0515679   0.0515679), wk =   0.0277778
        k(   56) = (   0.0343786   0.0515679   0.0687571), wk =   0.0555556
        k(   57) = (   0.0343786   0.0515679   0.0859464), wk =   0.0555556
        k(   58) = (   0.0343786   0.0515679  -0.1031357), wk =   0.0277778
        k(   59) = (   0.0343786   0.0687571   0.0687571), wk =   0.0277778
        k(   60) = (   0.0343786   0.0687571   0.0859464), wk =   0.0555556
[...]
        k(   70) = (   0.0515679   0.0687571   0.0859464), wk =   0.0555556
        k(   71) = (   0.0515679   0.0687571  -0.1031357), wk =   0.0277778
        k(   72) = (   0.0515679   0.0859464   0.0859464), wk =   0.0277778
        k(   73) = (   0.0515679   0.0859464  -0.1031357), wk =   0.0277778
        k(   74) = (   0.0515679  -0.1031357  -0.1031357), wk =   0.0069444
        k(   75) = (   0.0687571   0.0687571   0.0687571), wk =   0.0092593
        k(   76) = (   0.0687571   0.0687571   0.0859464), wk =   0.0277778
        k(   77) = (   0.0687571   0.0687571  -0.1031357), wk =   0.0138889
        k(   78) = (   0.0687571   0.0859464   0.0859464), wk =   0.0277778
        k(   79) = (   0.0687571   0.0859464  -0.1031357), wk =   0.0277778
        k(   80) = (   0.0687571  -0.1031357  -0.1031357), wk =   0.0069444
        k(   81) = (   0.0859464   0.0859464   0.0859464), wk =   0.0092593
        k(   82) = (   0.0859464   0.0859464  -0.1031357), wk =   0.0138889
        k(   83) = (   0.0859464  -0.1031357  -0.1031357), wk =   0.0069444
        k(   84) = (  -0.1031357  -0.1031357  -0.1031357), wk =   0.0011574

     Largest allocated arrays     est. size (Mb)     dimensions
     Largest temporary arrays     est. size (Mb)     dimensions

     Check: negative/imaginary core charge=   -0.000008    0.000000

     Initial potential from superposition of free atoms
     Check: negative starting charge=   -0.205396

     starting charge   48.90379, renormalised to   50.00000

     negative rho (up, down):  2.100E-01 0.000E+00

     *
     * You are using vdW-DF for exchange-correlation in this calculation.
     * Please cite the following three references that made this development
     * possible:
     *
     *   M. Dion, H. Rydberg, E. Schroder, D. C. Langreth, and
     *   B. I. Lundqvist, Phys. Rev. Lett. 92, 246401 (2004).
     *
     *   T. Thonhauser, V. R. Cooper, S. Li, A. Puzder, P. Hyldgaard, and
     *   D. C. Langreth, Phys. Rev. B 76, 125112 (2007).
     *
     *   G. Roman-Perez and J. M. Soler, Phys. Rev. Lett. 103, 096102 (2009).
     *
     *
     * If you are using vdW-DF2, please also cite:
     *
     *   K. Lee, E. D. Murray, L. Kong, B. I. Lundqvist, and
     *   D. C. Langreth, Phys. Rev. B 82, 081101(R) (2010).
     *
     *
     * If you are calculating the stress with vdW-DF, please also cite:
     *
     *   R. Sabatini, E. Kucukbenli, B. Kolb, T. Thonhauser, and
     *   S. de Gironcoli, J. Phys.: Condens. Matter 24, 424209 (2012).
     *

     Carrying out vdW-DF run using the following parameters:

     Nqs =      20    Nr_points =    1024   r_max =   100.000
     q_mesh =
               0.00001000     0.04494208     0.09755937     0.15916263
               0.23128650     0.31572767     0.41458969     0.53033537
               0.66584808     0.82450364     1.01025438     1.22772762
               1.48234092     1.78043706     2.12944203     2.53805004
               3.01644009     3.57652955     4.23227104     5.00000000

     Gradients computed in reciprocal space

     Starting wfc are   73 randomized atomic wfcs

     Self-consistent Calculation

     iteration #  1     ecut=    58.80 Ry     beta=0.10
     Davidson diagonalization with overlap
     ethr =  1.00E-02,  avg # of iterations =  2.0

[...]

     total energy              =    -611.29811683 Ry
     Harris-Foulkes estimate   =    -611.94593817 Ry
     estimated scf accuracy    <      11.69403058 Ry

[...]

     iteration # 10     ecut=    58.80 Ry     beta=0.10
     Davidson diagonalization with overlap
     c_bands:  3 eigenvalues not converged
     ethr =  9.05E-07,  avg # of iterations =  6.2

[...]

     total energy              =    -611.56738135 Ry
     Harris-Foulkes estimate   =    -611.56737335 Ry
     estimated scf accuracy    <       0.00000005 Ry

     iteration # 24     ecut=    58.80 Ry     beta=0.10
     Davidson diagonalization with overlap
     ethr =  7.13E-11,  avg # of iterations =  1.3

     negative rho (up, down):  1.308E-01 0.000E+00

     End of self-consistent calculation

          k = 0.0000 0.0000 0.0000 (  5887 PWs)   bands (ev):

   -81.6392 -44.9479 -44.9479 -44.9479 -20.5722 -20.0718 -20.0718  -4.8749
    -4.8749  -4.8749  -3.6802  -3.6802  -3.6802  -3.1076  -3.1076  -3.1076
     8.5838   9.5973  10.6599  10.6599  10.8681  10.8681  10.8681  12.5379
    12.5379  12.5379  13.2038  13.2038  14.0442  14.2194  14.2194  14.2195
    14.5146  14.5146  14.5146  14.5916  14.5916  14.5916  14.8537  14.8537
    14.8537  15.0051  15.0052  15.0053  15.0892

[...]

          k = 0.0859-0.1031-0.1031 (  5868 PWs)   bands (ev):

[...]

          k =-0.1031-0.1031-0.1031 (  5904 PWs)   bands (ev):

   -81.6392 -44.9479 -44.9479 -44.9479 -20.2355 -20.2355 -20.2355  -5.5592
    -4.6986  -4.6986  -4.6986  -3.1969  -3.1969  -3.0704  -3.0704  -3.0704
     9.1226  10.9310  10.9310  10.9310  11.9087  11.9087  12.3901  12.3901
    12.3901  13.7865  13.9497  13.9497  13.9497  14.0771  14.0771  14.0771
    14.2654  14.2654  14.2654  14.4737  14.4738  14.7453  14.7453  14.7453
    15.0011  15.0011  15.0012  15.1410  15.1410

     the Fermi energy is    12.5702 ev

!    total energy              =    -611.56739329 Ry
     Harris-Foulkes estimate   =    -611.56738154 Ry
     estimated scf accuracy    <          3.2E-09 Ry

     The total energy is the sum of the following terms:

     one-electron contribution =    -261.01518877 Ry
     hartree contribution      =     155.13459087 Ry
     xc contribution           =    -186.23737767 Ry
     ewald contribution        =    -319.43063865 Ry
     smearing contrib. (-TS)   =      -0.01877907 Ry

     convergence has been achieved in  24 iterations

     Forces acting on atoms (Ry/au):

     negative rho (up, down):  1.308E-01 0.000E+00
     atom    1 type  1   force =     0.00000000    0.00000000    0.00000000
     atom    2 type  1   force =     0.00000000    0.00000000    0.00000000
     atom    3 type  1   force =     0.00000000    0.00000000    0.00000000
     atom    4 type  2   force =     0.00000000   -0.00000000    0.00000000

     Total force =     0.000000     Total SCF correction =     0.000000
 !ASE

     General routines

     Parallel routines

   This run was terminated on:  18:52:38  31Oct2017

   JOB DONE.