     Program PWSCF v.5.1rc2 (svn rev. ) starts on 25Oct2017 at  2:29:22

     Current dimensions of program PWSCF are:
     Max number of different atomic species (ntypx) = 10
     Max number of k-points (npk) =  40000
     Max angular momentum in pseudopotentials (lmaxx) =  3

     IMPORTANT: XC functional enforced from input :
     Exchange-correlation      = BEEF-VDW ( 1  4 27 13 2)
     Any further DFT definition will be discarded
     Please, verify this is what you really want

     Subspace diagonalization in iterative solution of the eigenvalue problem:
     a serial algorithm will be used

     bravais-lattice index     =            0
     lattice parameter (alat)  =       1.8897  a.u.
     unit-cell volume          =     545.9294 (a.u.)^3
     number of atoms/cell      =            4
     number of atomic types    =            2
     number of electrons       =        49.00
     number of Kohn-Sham states=           44
     kinetic-energy cutoff     =      58.7989  Ry
     charge density cutoff     =     587.9892  Ry
     convergence threshold     =      7.3E-09
     mixing beta               =       0.1000
     number of iterations used =           10  local-TF  mixing
     Exchange-correlation      = BEEF-VDW ( 1  4 27 13 2)
     nstep                     =           50

     celldm(1)=   1.889726  celldm(2)=   0.000000  celldm(3)=   0.000000
     celldm(4)=   0.000000  celldm(5)=   0.000000  celldm(6)=   0.000000

     crystal axes: (cart. coord. in units of alat)
               a(1) = (   4.324939   0.000000   0.000000 )
               a(2) = (   0.000000   4.324939   0.000000 )
               a(3) = (   0.000000   0.000000   4.324939 )

     reciprocal axes: (cart. coord. in units 2 pi/alat)
               b(1) = (  0.231217  0.000000  0.000000 )
               b(2) = (  0.000000  0.231217  0.000000 )
               b(3) = (  0.000000  0.000000  0.231217 )

     PseudoPot. # 1 for Sc read from file:
     /home/vossj/suncat/psp/gbrv1.5pbe/Sc.UPF
     MD5 check sum: db30a2753ba66ef00f23801d899b7e7f
     Pseudo is Ultrasoft + core correction, Zval = 11.0
     Generated by new atomic code, or converted to UPF format
     Using radial grid of  849 points,  6 beta functions with:
                l(1) =   0
                l(2) =   0
                l(3) =   1
                l(4) =   1
                l(5) =   2
                l(6) =   2
     Q(r) pseudized with  6 coefficients,  rinner =    1.200   1.200   1.200
                                                       1.200   1.200

     PseudoPot. # 2 for Pt read from file:
     /home/vossj/suncat/psp/gbrv1.5pbe/Pt.UPF
     MD5 check sum: f09d6de1a584b5a045c4fc126da2d0c4
     Pseudo is Ultrasoft + core correction, Zval = 16.0
     Generated by new atomic code, or converted to UPF format
     Using radial grid of  985 points,  6 beta functions with:
                l(1) =   0
                l(2) =   0
                l(3) =   1
                l(4) =   1
                l(5) =   2
                l(6) =   2
     Q(r) pseudized with  8 coefficients,  rinner =    1.300   1.300   1.300
                                                       1.300   1.300

     vdW kernel table read from file vdW_kernel_table
     MD5 check sum: 095c7af220d748ca6e76c0b4c6cfb241

     atomic species   valence    mass     pseudopotential
        Sc1           11.00    44.95591     Sc( 1.00)
        Pt1           16.00   195.08400     Pt( 1.00)

     48 Sym. Ops., with inversion, found (32 have fractional translation)

   Cartesian axes

     site n.     atom                  positions (alat units)
         1           Sc1 tau(   1) = (   0.0000000   0.0000000   0.0000000  )
         2           Sc1 tau(   2) = (   0.0000000   2.1624694   2.1624694  )
         3           Sc1 tau(   3) = (   2.1624694   0.0000000   2.1624694  )
         4           Pt1 tau(   4) = (   2.1624694   2.1624694   0.0000000  )

     number of k points=    84  Fermi-Dirac smearing, width (Ry)=  0.0073
                       cart. coord. in units 2pi/alat
        k(    1) = (   0.0000000   0.0000000   0.0000000), wk =   0.0011574
        k(    2) = (   0.0000000   0.0000000   0.0192681), wk =   0.0069444
        k(    3) = (   0.0000000   0.0000000   0.0385362), wk =   0.0069444
        k(    4) = (   0.0000000   0.0000000   0.0578043), wk =   0.0069444
        k(    5) = (   0.0000000   0.0000000   0.0770724), wk =   0.0069444
        k(    6) = (   0.0000000   0.0000000   0.0963405), wk =   0.0069444
        k(    7) = (   0.0000000   0.0000000  -0.1156086), wk =   0.0034722
        k(    8) = (   0.0000000   0.0192681   0.0192681), wk =   0.0138889
        k(    9) = (   0.0000000   0.0192681   0.0385362), wk =   0.0277778
        k(   10) = (   0.0000000   0.0192681   0.0578043), wk =   0.0277778
        k(   11) = (   0.0000000   0.0192681   0.0770724), wk =   0.0277778
        k(   12) = (   0.0000000   0.0192681   0.0963405), wk =   0.0277778
        k(   13) = (   0.0000000   0.0192681  -0.1156086), wk =   0.0138889
        k(   14) = (   0.0000000   0.0385362   0.0385362), wk =   0.0138889
        k(   15) = (   0.0000000   0.0385362   0.0578043), wk =   0.0277778
        k(   16) = (   0.0000000   0.0385362   0.0770724), wk =   0.0277778
        k(   17) = (   0.0000000   0.0385362   0.0963405), wk =   0.0277778
        k(   18) = (   0.0000000   0.0385362  -0.1156086), wk =   0.0138889
        k(   19) = (   0.0000000   0.0578043   0.0578043), wk =   0.0138889
        k(   20) = (   0.0000000   0.0578043   0.0770724), wk =   0.0277778
        k(   21) = (   0.0000000   0.0578043   0.0963405), wk =   0.0277778
        k(   22) = (   0.0000000   0.0578043  -0.1156086), wk =   0.0138889
        k(   23) = (   0.0000000   0.0770724   0.0770724), wk =   0.0138889
        k(   24) = (   0.0000000   0.0770724   0.0963405), wk =   0.0277778
        k(   25) = (   0.0000000   0.0770724  -0.1156086), wk =   0.0138889
        k(   26) = (   0.0000000   0.0963405   0.0963405), wk =   0.0138889
        k(   27) = (   0.0000000   0.0963405  -0.1156086), wk =   0.0138889
        k(   28) = (   0.0000000  -0.1156086  -0.1156086), wk =   0.0034722
        k(   29) = (   0.0192681   0.0192681   0.0192681), wk =   0.0092593
        k(   30) = (   0.0192681   0.0192681   0.0385362), wk =   0.0277778
        k(   31) = (   0.0192681   0.0192681   0.0578043), wk =   0.0277778
        k(   32) = (   0.0192681   0.0192681   0.0770724), wk =   0.0277778
        k(   33) = (   0.0192681   0.0192681   0.0963405), wk =   0.0277778
        k(   34) = (   0.0192681   0.0192681  -0.1156086), wk =   0.0138889
        k(   35) = (   0.0192681   0.0385362   0.0385362), wk =   0.0277778
        k(   36) = (   0.0192681   0.0385362   0.0578043), wk =   0.0555556
        k(   37) = (   0.0192681   0.0385362   0.0770724), wk =   0.0555556
        k(   38) = (   0.0192681   0.0385362   0.0963405), wk =   0.0555556
        k(   39) = (   0.0192681   0.0385362  -0.1156086), wk =   0.0277778
        k(   40) = (   0.0192681   0.0578043   0.0578043), wk =   0.0277778
        k(   41) = (   0.0192681   0.0578043   0.0770724), wk =   0.0555556
        k(   42) = (   0.0192681   0.0578043   0.0963405), wk =   0.0555556
        k(   43) = (   0.0192681   0.0578043  -0.1156086), wk =   0.0277778
        k(   44) = (   0.0192681   0.0770724   0.0770724), wk =   0.0277778
        k(   45) = (   0.0192681   0.0770724   0.0963405), wk =   0.0555556
        k(   46) = (   0.0192681   0.0770724  -0.1156086), wk =   0.0277778
        k(   47) = (   0.0192681   0.0963405   0.0963405), wk =   0.0277778
        k(   48) = (   0.0192681   0.0963405  -0.1156086), wk =   0.0277778
        k(   49) = (   0.0192681  -0.1156086  -0.1156086), wk =   0.0069444
        k(   50) = (   0.0385362   0.0385362   0.0385362), wk =   0.0092593
        k(   51) = (   0.0385362   0.0385362   0.0578043), wk =   0.0277778
        k(   52) = (   0.0385362   0.0385362   0.0770724), wk =   0.0277778
        k(   53) = (   0.0385362   0.0385362   0.0963405), wk =   0.0277778
        k(   54) = (   0.0385362   0.0385362  -0.1156086), wk =   0.0138889
        k(   55) = (   0.0385362   0.0578043   0.0578043), wk =   0.0277778
        k(   56) = (   0.0385362   0.0578043   0.0770724), wk =   0.0555556
        k(   57) = (   0.0385362   0.0578043   0.0963405), wk =   0.0555556
        k(   58) = (   0.0385362   0.0578043  -0.1156086), wk =   0.0277778
        k(   59) = (   0.0385362   0.0770724   0.0770724), wk =   0.0277778
        k(   60) = (   0.0385362   0.0770724   0.0963405), wk =   0.0555556
[...]
        k(   70) = (   0.0578043   0.0770724   0.0963405), wk =   0.0555556
        k(   71) = (   0.0578043   0.0770724  -0.1156086), wk =   0.0277778
        k(   72) = (   0.0578043   0.0963405   0.0963405), wk =   0.0277778
        k(   73) = (   0.0578043   0.0963405  -0.1156086), wk =   0.0277778
        k(   74) = (   0.0578043  -0.1156086  -0.1156086), wk =   0.0069444
        k(   75) = (   0.0770724   0.0770724   0.0770724), wk =   0.0092593
        k(   76) = (   0.0770724   0.0770724   0.0963405), wk =   0.0277778
        k(   77) = (   0.0770724   0.0770724  -0.1156086), wk =   0.0138889
        k(   78) = (   0.0770724   0.0963405   0.0963405), wk =   0.0277778
        k(   79) = (   0.0770724   0.0963405  -0.1156086), wk =   0.0277778
        k(   80) = (   0.0770724  -0.1156086  -0.1156086), wk =   0.0069444
        k(   81) = (   0.0963405   0.0963405   0.0963405), wk =   0.0092593
        k(   82) = (   0.0963405   0.0963405  -0.1156086), wk =   0.0138889
        k(   83) = (   0.0963405  -0.1156086  -0.1156086), wk =   0.0069444
        k(   84) = (  -0.1156086  -0.1156086  -0.1156086), wk =   0.0011574

     Largest allocated arrays     est. size (Mb)     dimensions
     Largest temporary arrays     est. size (Mb)     dimensions

     Initial potential from superposition of free atoms
     Check: negative starting charge=   -0.182223

     starting charge   48.49278, renormalised to   49.00000

     negative rho (up, down):  1.841E-01 0.000E+00

     *
     * You are using vdW-DF for exchange-correlation in this calculation.
     * Please cite the following three references that made this development
     * possible:
     *
     *   M. Dion, H. Rydberg, E. Schroder, D. C. Langreth, and
     *   B. I. Lundqvist, Phys. Rev. Lett. 92, 246401 (2004).
     *
     *   T. Thonhauser, V. R. Cooper, S. Li, A. Puzder, P. Hyldgaard, and
     *   D. C. Langreth, Phys. Rev. B 76, 125112 (2007).
     *
     *   G. Roman-Perez and J. M. Soler, Phys. Rev. Lett. 103, 096102 (2009).
     *
     *
     * If you are using vdW-DF2, please also cite:
     *
     *   K. Lee, E. D. Murray, L. Kong, B. I. Lundqvist, and
     *   D. C. Langreth, Phys. Rev. B 82, 081101(R) (2010).
     *
     *
     * If you are calculating the stress with vdW-DF, please also cite:
     *
     *   R. Sabatini, E. Kucukbenli, B. Kolb, T. Thonhauser, and
     *   S. de Gironcoli, J. Phys.: Condens. Matter 24, 424209 (2012).
     *

     Carrying out vdW-DF run using the following parameters:

     Nqs =      20    Nr_points =    1024   r_max =   100.000
     q_mesh =
               0.00001000     0.04494208     0.09755937     0.15916263
               0.23128650     0.31572767     0.41458969     0.53033537
               0.66584808     0.82450364     1.01025438     1.22772762
               1.48234092     1.78043706     2.12944203     2.53805004
               3.01644009     3.57652955     4.23227104     5.00000000

     Gradients computed in reciprocal space

     Starting wfc are   51 randomized atomic wfcs

     Self-consistent Calculation

     iteration #  1     ecut=    58.80 Ry     beta=0.10
     Davidson diagonalization with overlap
     ethr =  1.00E-02,  avg # of iterations =  3.5

[...]

     total energy              =    -497.20034751 Ry
     Harris-Foulkes estimate   =    -497.31065564 Ry
     estimated scf accuracy    <       2.19431843 Ry

[...]

     total energy              =    -497.03669066 Ry
     Harris-Foulkes estimate   =    -497.03668797 Ry
     estimated scf accuracy    <       0.00000068 Ry

     iteration # 13     ecut=    58.80 Ry     beta=0.10
     Davidson diagonalization with overlap
     ethr =  1.40E-09,  avg # of iterations =  1.1

     negative rho (up, down):  1.743E-01 0.000E+00

     End of self-consistent calculation

          k = 0.0000 0.0000 0.0000 (  4139 PWs)   bands (ev):

   -40.1739 -40.1739 -40.1739 -37.1165 -36.9900 -36.9900 -15.8916 -15.8916
   -15.8916 -15.5861 -15.5861 -15.5861 -15.4269 -15.4269 -15.4269   6.2150
     8.6819   8.6819   9.2362   9.2362   9.2362  10.0494  12.9395  12.9395
    12.9395  13.8642  13.8642  14.9678  14.9678  14.9678  15.8398  15.8398
    15.8398  16.2566  16.2566  16.8486  17.0931  17.0931  17.0931  20.3553
    22.5663  22.5663  22.5663  22.7997

[...]

          k = 0.0963-0.1156-0.1156 (  4168 PWs)   bands (ev):

[...]

          k =-0.1156-0.1156-0.1156 (  4224 PWs)   bands (ev):

   -40.1746 -40.1746 -40.1746 -37.0311 -37.0311 -37.0311 -16.0716 -15.8405
   -15.8405 -15.8405 -15.4494 -15.4494 -15.4314 -15.4314 -15.4314   8.7996
     8.7996   8.7996   8.8184  10.0280  10.0280  12.4482  12.4482  12.4482
    12.9704  12.9704  12.9704  13.2222  13.9991  13.9991  13.9991  15.6646
    15.6646  15.6646  16.0397  16.0397  16.8269  16.8269  16.8269  18.2232
    20.5411  20.5411  20.5411  25.5398

     the Fermi energy is    12.6632 ev

!    total energy              =    -497.03670282 Ry
     Harris-Foulkes estimate   =    -497.03669073 Ry
     estimated scf accuracy    <          6.0E-09 Ry

     The total energy is the sum of the following terms:

     one-electron contribution =    -148.58182003 Ry
     hartree contribution      =      93.90290612 Ry
     xc contribution           =    -100.44074991 Ry
     ewald contribution        =    -341.90110040 Ry
     smearing contrib. (-TS)   =      -0.01593860 Ry

     convergence has been achieved in  13 iterations

     Forces acting on atoms (Ry/au):

     negative rho (up, down):  1.743E-01 0.000E+00
     atom    1 type  1   force =     0.00000000    0.00000000    0.00000000
     atom    2 type  1   force =     0.00000000    0.00000000    0.00000000
     atom    3 type  1   force =     0.00000000    0.00000000    0.00000000
     atom    4 type  2   force =     0.00000000    0.00000000    0.00000000

     Total force =     0.000000     Total SCF correction =     0.000000
 !ASE

     General routines

     Parallel routines

   This run was terminated on:   2:30:16  25Oct2017

   JOB DONE.