     Program PWSCF v.5.1rc2 (svn rev. ) starts on 25Oct2017 at  5:34:43

     Current dimensions of program PWSCF are:
     Max number of different atomic species (ntypx) = 10
     Max number of k-points (npk) =  40000
     Max angular momentum in pseudopotentials (lmaxx) =  3

     IMPORTANT: XC functional enforced from input :
     Exchange-correlation      = BEEF-VDW ( 1  4 27 13 2)
     Any further DFT definition will be discarded
     Please, verify this is what you really want

     Subspace diagonalization in iterative solution of the eigenvalue problem:
     a serial algorithm will be used

     bravais-lattice index     =            0
     lattice parameter (alat)  =       1.8897  a.u.
     unit-cell volume          =     451.2903 (a.u.)^3
     number of atoms/cell      =            4
     number of atomic types    =            2
     number of electrons       =        54.00
     number of Kohn-Sham states=           47
     kinetic-energy cutoff     =      58.7989  Ry
     charge density cutoff     =     587.9892  Ry
     convergence threshold     =      7.3E-09
     mixing beta               =       0.1000
     number of iterations used =           10  local-TF  mixing
     Exchange-correlation      = BEEF-VDW ( 1  4 27 13 2)
     nstep                     =           50

     celldm(1)=   1.889726  celldm(2)=   0.000000  celldm(3)=   0.000000
     celldm(4)=   0.000000  celldm(5)=   0.000000  celldm(6)=   0.000000

     crystal axes: (cart. coord. in units of alat)
               a(1) = (   4.059007   0.000000   0.000000 )
               a(2) = (   0.000000   4.059007   0.000000 )
               a(3) = (   0.000000   0.000000   4.059007 )

     reciprocal axes: (cart. coord. in units 2 pi/alat)
               b(1) = (  0.246366  0.000000  0.000000 )
               b(2) = (  0.000000  0.246366  0.000000 )
               b(3) = (  0.000000  0.000000  0.246366 )

     PseudoPot. # 1 for Mo read from file:
     /home/vossj/suncat/psp/gbrv1.5pbe/Mo.UPF
     MD5 check sum: 30c4dcd161f5d35cd49bb5239c51a633
     Pseudo is Ultrasoft + core correction, Zval = 14.0
     Generated by new atomic code, or converted to UPF format
     Using radial grid of  889 points,  6 beta functions with:
                l(1) =   0
                l(2) =   0
                l(3) =   1
                l(4) =   1
                l(5) =   2
                l(6) =   2
     Q(r) pseudized with  6 coefficients,  rinner =    1.000   1.000   1.000
                                                       1.000   1.000

     PseudoPot. # 2 for Hg read from file:
     /home/vossj/suncat/psp/gbrv1.5pbe/Hg.UPF
     MD5 check sum: 8f42caffe07f7fd9c0a564347f8c5498
     Pseudo is Ultrasoft + core correction, Zval = 12.0
     Generated by new atomic code, or converted to UPF format
     Using radial grid of  985 points,  6 beta functions with:
                l(1) =   0
                l(2) =   0
                l(3) =   1
                l(4) =   1
                l(5) =   2
                l(6) =   2
     Q(r) pseudized with  8 coefficients,  rinner =    2.000   2.000   2.000
                                                       2.000   2.000

     vdW kernel table read from file vdW_kernel_table
     MD5 check sum: 095c7af220d748ca6e76c0b4c6cfb241

     atomic species   valence    mass     pseudopotential
        Mo1           14.00    95.95000     Mo( 1.00)
        Hg1           12.00   200.59200     Hg( 1.00)

     48 Sym. Ops., with inversion, found (32 have fractional translation)

   Cartesian axes

     site n.     atom                  positions (alat units)
         1           Mo1 tau(   1) = (   0.0000000   0.0000000   0.0000000  )
         2           Mo1 tau(   2) = (   0.0000000   2.0295035   2.0295035  )
         3           Mo1 tau(   3) = (   2.0295035   0.0000000   2.0295035  )
         4           Hg1 tau(   4) = (   2.0295035   2.0295035   0.0000000  )

     number of k points=    84  Fermi-Dirac smearing, width (Ry)=  0.0073
                       cart. coord. in units 2pi/alat
        k(    1) = (   0.0000000   0.0000000   0.0000000), wk =   0.0011574
        k(    2) = (   0.0000000   0.0000000   0.0205305), wk =   0.0069444
        k(    3) = (   0.0000000   0.0000000   0.0410609), wk =   0.0069444
        k(    4) = (   0.0000000   0.0000000   0.0615914), wk =   0.0069444
        k(    5) = (   0.0000000   0.0000000   0.0821219), wk =   0.0069444
        k(    6) = (   0.0000000   0.0000000   0.1026524), wk =   0.0069444
        k(    7) = (   0.0000000   0.0000000  -0.1231828), wk =   0.0034722
        k(    8) = (   0.0000000   0.0205305   0.0205305), wk =   0.0138889
        k(    9) = (   0.0000000   0.0205305   0.0410609), wk =   0.0277778
        k(   10) = (   0.0000000   0.0205305   0.0615914), wk =   0.0277778
        k(   11) = (   0.0000000   0.0205305   0.0821219), wk =   0.0277778
        k(   12) = (   0.0000000   0.0205305   0.1026524), wk =   0.0277778
        k(   13) = (   0.0000000   0.0205305  -0.1231828), wk =   0.0138889
        k(   14) = (   0.0000000   0.0410609   0.0410609), wk =   0.0138889
        k(   15) = (   0.0000000   0.0410609   0.0615914), wk =   0.0277778
        k(   16) = (   0.0000000   0.0410609   0.0821219), wk =   0.0277778
        k(   17) = (   0.0000000   0.0410609   0.1026524), wk =   0.0277778
        k(   18) = (   0.0000000   0.0410609  -0.1231828), wk =   0.0138889
        k(   19) = (   0.0000000   0.0615914   0.0615914), wk =   0.0138889
        k(   20) = (   0.0000000   0.0615914   0.0821219), wk =   0.0277778
        k(   21) = (   0.0000000   0.0615914   0.1026524), wk =   0.0277778
        k(   22) = (   0.0000000   0.0615914  -0.1231828), wk =   0.0138889
        k(   23) = (   0.0000000   0.0821219   0.0821219), wk =   0.0138889
        k(   24) = (   0.0000000   0.0821219   0.1026524), wk =   0.0277778
        k(   25) = (   0.0000000   0.0821219  -0.1231828), wk =   0.0138889
        k(   26) = (   0.0000000   0.1026524   0.1026524), wk =   0.0138889
        k(   27) = (   0.0000000   0.1026524  -0.1231828), wk =   0.0138889
        k(   28) = (   0.0000000  -0.1231828  -0.1231828), wk =   0.0034722
        k(   29) = (   0.0205305   0.0205305   0.0205305), wk =   0.0092593
        k(   30) = (   0.0205305   0.0205305   0.0410609), wk =   0.0277778
        k(   31) = (   0.0205305   0.0205305   0.0615914), wk =   0.0277778
        k(   32) = (   0.0205305   0.0205305   0.0821219), wk =   0.0277778
        k(   33) = (   0.0205305   0.0205305   0.1026524), wk =   0.0277778
        k(   34) = (   0.0205305   0.0205305  -0.1231828), wk =   0.0138889
        k(   35) = (   0.0205305   0.0410609   0.0410609), wk =   0.0277778
        k(   36) = (   0.0205305   0.0410609   0.0615914), wk =   0.0555556
        k(   37) = (   0.0205305   0.0410609   0.0821219), wk =   0.0555556
        k(   38) = (   0.0205305   0.0410609   0.1026524), wk =   0.0555556
        k(   39) = (   0.0205305   0.0410609  -0.1231828), wk =   0.0277778
        k(   40) = (   0.0205305   0.0615914   0.0615914), wk =   0.0277778
        k(   41) = (   0.0205305   0.0615914   0.0821219), wk =   0.0555556
        k(   42) = (   0.0205305   0.0615914   0.1026524), wk =   0.0555556
        k(   43) = (   0.0205305   0.0615914  -0.1231828), wk =   0.0277778
        k(   44) = (   0.0205305   0.0821219   0.0821219), wk =   0.0277778
        k(   45) = (   0.0205305   0.0821219   0.1026524), wk =   0.0555556
        k(   46) = (   0.0205305   0.0821219  -0.1231828), wk =   0.0277778
        k(   47) = (   0.0205305   0.1026524   0.1026524), wk =   0.0277778
        k(   48) = (   0.0205305   0.1026524  -0.1231828), wk =   0.0277778
        k(   49) = (   0.0205305  -0.1231828  -0.1231828), wk =   0.0069444
        k(   50) = (   0.0410609   0.0410609   0.0410609), wk =   0.0092593
        k(   51) = (   0.0410609   0.0410609   0.0615914), wk =   0.0277778
        k(   52) = (   0.0410609   0.0410609   0.0821219), wk =   0.0277778
        k(   53) = (   0.0410609   0.0410609   0.1026524), wk =   0.0277778
        k(   54) = (   0.0410609   0.0410609  -0.1231828), wk =   0.0138889
        k(   55) = (   0.0410609   0.0615914   0.0615914), wk =   0.0277778
        k(   56) = (   0.0410609   0.0615914   0.0821219), wk =   0.0555556
        k(   57) = (   0.0410609   0.0615914   0.1026524), wk =   0.0555556
        k(   58) = (   0.0410609   0.0615914  -0.1231828), wk =   0.0277778
        k(   59) = (   0.0410609   0.0821219   0.0821219), wk =   0.0277778
        k(   60) = (   0.0410609   0.0821219   0.1026524), wk =   0.0555556
[...]
        k(   70) = (   0.0615914   0.0821219   0.1026524), wk =   0.0555556
        k(   71) = (   0.0615914   0.0821219  -0.1231828), wk =   0.0277778
        k(   72) = (   0.0615914   0.1026524   0.1026524), wk =   0.0277778
        k(   73) = (   0.0615914   0.1026524  -0.1231828), wk =   0.0277778
        k(   74) = (   0.0615914  -0.1231828  -0.1231828), wk =   0.0069444
        k(   75) = (   0.0821219   0.0821219   0.0821219), wk =   0.0092593
        k(   76) = (   0.0821219   0.0821219   0.1026524), wk =   0.0277778
        k(   77) = (   0.0821219   0.0821219  -0.1231828), wk =   0.0138889
        k(   78) = (   0.0821219   0.1026524   0.1026524), wk =   0.0277778
        k(   79) = (   0.0821219   0.1026524  -0.1231828), wk =   0.0277778
        k(   80) = (   0.0821219  -0.1231828  -0.1231828), wk =   0.0069444
        k(   81) = (   0.1026524   0.1026524   0.1026524), wk =   0.0092593
        k(   82) = (   0.1026524   0.1026524  -0.1231828), wk =   0.0138889
        k(   83) = (   0.1026524  -0.1231828  -0.1231828), wk =   0.0069444
        k(   84) = (  -0.1231828  -0.1231828  -0.1231828), wk =   0.0011574

     Largest allocated arrays     est. size (Mb)     dimensions
     Largest temporary arrays     est. size (Mb)     dimensions

     Initial potential from superposition of free atoms

     starting charge   53.99675, renormalised to   54.00000

     *
     * You are using vdW-DF for exchange-correlation in this calculation.
     * Please cite the following three references that made this development
     * possible:
     *
     *   M. Dion, H. Rydberg, E. Schroder, D. C. Langreth, and
     *   B. I. Lundqvist, Phys. Rev. Lett. 92, 246401 (2004).
     *
     *   T. Thonhauser, V. R. Cooper, S. Li, A. Puzder, P. Hyldgaard, and
     *   D. C. Langreth, Phys. Rev. B 76, 125112 (2007).
     *
     *   G. Roman-Perez and J. M. Soler, Phys. Rev. Lett. 103, 096102 (2009).
     *
     *
     * If you are using vdW-DF2, please also cite:
     *
     *   K. Lee, E. D. Murray, L. Kong, B. I. Lundqvist, and
     *   D. C. Langreth, Phys. Rev. B 82, 081101(R) (2010).
     *
     *
     * If you are calculating the stress with vdW-DF, please also cite:
     *
     *   R. Sabatini, E. Kucukbenli, B. Kolb, T. Thonhauser, and
     *   S. de Gironcoli, J. Phys.: Condens. Matter 24, 424209 (2012).
     *

     Carrying out vdW-DF run using the following parameters:

     Nqs =      20    Nr_points =    1024   r_max =   100.000
     q_mesh =
               0.00001000     0.04494208     0.09755937     0.15916263
               0.23128650     0.31572767     0.41458969     0.53033537
               0.66584808     0.82450364     1.01025438     1.22772762
               1.48234092     1.78043706     2.12944203     2.53805004
               3.01644009     3.57652955     4.23227104     5.00000000

     Gradients computed in reciprocal space

     Starting wfc are   48 randomized atomic wfcs

     Self-consistent Calculation

     iteration #  1     ecut=    58.80 Ry     beta=0.10
     Davidson diagonalization with overlap
     ethr =  1.00E-02,  avg # of iterations =  4.8

     total energy              =    -529.10702644 Ry
     Harris-Foulkes estimate   =    -529.13524337 Ry
     estimated scf accuracy    <       0.59157980 Ry

[...]

     total energy              =    -529.00665412 Ry
     Harris-Foulkes estimate   =    -529.00665366 Ry
     estimated scf accuracy    <       0.00000055 Ry

     iteration # 11     ecut=    58.80 Ry     beta=0.10
     Davidson diagonalization with overlap
     ethr =  1.03E-09,  avg # of iterations =  2.0

     End of self-consistent calculation

          k = 0.0000 0.0000 0.0000 (  3407 PWs)   bands (ev):

   -42.3488 -42.1666 -42.1666 -16.6434 -16.6434 -16.6434 -16.2252 -16.2252
   -16.2252 -15.8961 -15.8961 -15.8961  10.1681  10.3588  10.3588  10.6367
    10.6367  10.6367  13.8595  16.1992  16.1992  16.1992  16.9859  16.9859
    20.1969  20.1969  20.1969  21.0006  21.0006  21.0006  21.3292  21.3292
    22.1978  22.8503  22.8503  22.8503  26.6979  29.1795  29.1795  29.1795
    30.9126  30.9126  30.9502  30.9502  30.9502  31.8886  36.8175

[...]

          k = 0.1027-0.1232-0.1232 (  3432 PWs)   bands (ev):

[...]

          k =-0.1232-0.1232-0.1232 (  3448 PWs)   bands (ev):

   -42.2262 -42.2262 -42.2262 -16.8332 -16.6221 -16.6221 -16.6221 -15.9760
   -15.9760 -15.9760 -15.8797 -15.8797  10.5311  10.5311  10.5311  11.2227
    11.2227  11.8985  15.9289  15.9289  15.9289  17.7590  17.7590  17.7590
    18.5596  18.5596  18.5596  20.1036  20.1036  20.1036  20.1854  20.6681
    20.6681  22.2867  22.2867  22.2867  23.9357  28.0622  28.0622  28.0622
    31.4322  31.4322  31.4322  31.5607  35.5261  35.5262  35.5262

     the Fermi energy is    19.0002 ev

!    total energy              =    -529.00665696 Ry
     Harris-Foulkes estimate   =    -529.00665423 Ry
     estimated scf accuracy    <          6.4E-09 Ry

     The total energy is the sum of the following terms:

     one-electron contribution =     -61.69875743 Ry
     hartree contribution      =      70.01845483 Ry
     xc contribution           =    -100.69076408 Ry
     ewald contribution        =    -436.62961143 Ry
     smearing contrib. (-TS)   =      -0.00597885 Ry

     convergence has been achieved in  11 iterations

     Forces acting on atoms (Ry/au):

     atom    1 type  1   force =     0.00000000    0.00000000    0.00000000
     atom    2 type  1   force =     0.00000000    0.00000000    0.00000000
     atom    3 type  1   force =     0.00000000   -0.00000000    0.00000000
     atom    4 type  2   force =     0.00000000    0.00000000    0.00000000

     Total force =     0.000000     Total SCF correction =     0.000000
 !ASE

     General routines

     Parallel routines

   This run was terminated on:   5:35:29  25Oct2017

   JOB DONE.