     Program PWSCF v.5.1rc2 (svn rev. ) starts on 25Oct2017 at 21:23: 9

     Current dimensions of program PWSCF are:
     Max number of different atomic species (ntypx) = 10
     Max number of k-points (npk) =  40000
     Max angular momentum in pseudopotentials (lmaxx) =  3

     IMPORTANT: XC functional enforced from input :
     Exchange-correlation      = BEEF-VDW ( 1  4 27 13 2)
     Any further DFT definition will be discarded
     Please, verify this is what you really want

     Subspace diagonalization in iterative solution of the eigenvalue problem:
     a serial algorithm will be used

     bravais-lattice index     =            0
     lattice parameter (alat)  =       1.8897  a.u.
     unit-cell volume          =     420.2743 (a.u.)^3
     number of atoms/cell      =            4
     number of atomic types    =            2
     number of electrons       =        69.00
     number of Kohn-Sham states=           54
     kinetic-energy cutoff     =      58.7989  Ry
     charge density cutoff     =     587.9892  Ry
     convergence threshold     =      7.3E-09
     mixing beta               =       0.1000
     number of iterations used =           10  local-TF  mixing
     Exchange-correlation      = BEEF-VDW ( 1  4 27 13 2)
     nstep                     =           50

     celldm(1)=   1.889726  celldm(2)=   0.000000  celldm(3)=   0.000000
     celldm(4)=   0.000000  celldm(5)=   0.000000  celldm(6)=   0.000000

     crystal axes: (cart. coord. in units of alat)
               a(1) = (   3.963803   0.000000   0.000000 )
               a(2) = (   0.000000   3.963803   0.000000 )
               a(3) = (   0.000000   0.000000   3.963803 )

     reciprocal axes: (cart. coord. in units 2 pi/alat)
               b(1) = (  0.252283  0.000000  0.000000 )
               b(2) = (  0.000000  0.252283  0.000000 )
               b(3) = (  0.000000  0.000000  0.252283 )

     PseudoPot. # 1 for Cu read from file:
     /home/vossj/suncat/psp/gbrv1.5pbe/Cu.UPF
     MD5 check sum: 6e991ff952a84172a2a52a1c1e996048
     Pseudo is Ultrasoft + core correction, Zval = 19.0
     Generated by new atomic code, or converted to UPF format
     Using radial grid of  867 points,  6 beta functions with:
                l(1) =   0
                l(2) =   0
                l(3) =   1
                l(4) =   1
                l(5) =   2
                l(6) =   2
     Q(r) pseudized with  8 coefficients,  rinner =    1.150   1.150   1.150
                                                       1.150   1.150

     PseudoPot. # 2 for Zr read from file:
     /home/vossj/suncat/psp/gbrv1.5pbe/Zr.UPF
     MD5 check sum: 5db81b1e868ab7776c4564c113de050b
     Pseudo is Ultrasoft + core correction, Zval = 12.0
     Generated by new atomic code, or converted to UPF format
     Using radial grid of  887 points,  6 beta functions with:
                l(1) =   0
                l(2) =   0
                l(3) =   1
                l(4) =   1
                l(5) =   2
                l(6) =   2
     Q(r) pseudized with  6 coefficients,  rinner =    1.200   1.200   1.200
                                                       1.200   1.200

     vdW kernel table read from file vdW_kernel_table
     MD5 check sum: 095c7af220d748ca6e76c0b4c6cfb241

     atomic species   valence    mass     pseudopotential
        Cu1           19.00    63.54600     Cu( 1.00)
        Zr1           12.00    91.22400     Zr( 1.00)

     48 Sym. Ops., with inversion, found (32 have fractional translation)

   Cartesian axes

     site n.     atom                  positions (alat units)
         1           Cu1 tau(   1) = (   0.0000000   0.0000000   0.0000000  )
         2           Cu1 tau(   2) = (   0.0000000   1.9819015   1.9819015  )
         3           Cu1 tau(   3) = (   1.9819015   0.0000000   1.9819015  )
         4           Zr1 tau(   4) = (   1.9819015   1.9819015   0.0000000  )

     number of k points=    84  Fermi-Dirac smearing, width (Ry)=  0.0073
                       cart. coord. in units 2pi/alat
        k(    1) = (   0.0000000   0.0000000   0.0000000), wk =   0.0011574
        k(    2) = (   0.0000000   0.0000000   0.0210236), wk =   0.0069444
        k(    3) = (   0.0000000   0.0000000   0.0420472), wk =   0.0069444
        k(    4) = (   0.0000000   0.0000000   0.0630707), wk =   0.0069444
        k(    5) = (   0.0000000   0.0000000   0.0840943), wk =   0.0069444
        k(    6) = (   0.0000000   0.0000000   0.1051179), wk =   0.0069444
        k(    7) = (   0.0000000   0.0000000  -0.1261415), wk =   0.0034722
        k(    8) = (   0.0000000   0.0210236   0.0210236), wk =   0.0138889
        k(    9) = (   0.0000000   0.0210236   0.0420472), wk =   0.0277778
        k(   10) = (   0.0000000   0.0210236   0.0630707), wk =   0.0277778
        k(   11) = (   0.0000000   0.0210236   0.0840943), wk =   0.0277778
        k(   12) = (   0.0000000   0.0210236   0.1051179), wk =   0.0277778
        k(   13) = (   0.0000000   0.0210236  -0.1261415), wk =   0.0138889
        k(   14) = (   0.0000000   0.0420472   0.0420472), wk =   0.0138889
        k(   15) = (   0.0000000   0.0420472   0.0630707), wk =   0.0277778
        k(   16) = (   0.0000000   0.0420472   0.0840943), wk =   0.0277778
        k(   17) = (   0.0000000   0.0420472   0.1051179), wk =   0.0277778
        k(   18) = (   0.0000000   0.0420472  -0.1261415), wk =   0.0138889
        k(   19) = (   0.0000000   0.0630707   0.0630707), wk =   0.0138889
        k(   20) = (   0.0000000   0.0630707   0.0840943), wk =   0.0277778
        k(   21) = (   0.0000000   0.0630707   0.1051179), wk =   0.0277778
        k(   22) = (   0.0000000   0.0630707  -0.1261415), wk =   0.0138889
        k(   23) = (   0.0000000   0.0840943   0.0840943), wk =   0.0138889
        k(   24) = (   0.0000000   0.0840943   0.1051179), wk =   0.0277778
        k(   25) = (   0.0000000   0.0840943  -0.1261415), wk =   0.0138889
        k(   26) = (   0.0000000   0.1051179   0.1051179), wk =   0.0138889
        k(   27) = (   0.0000000   0.1051179  -0.1261415), wk =   0.0138889
        k(   28) = (   0.0000000  -0.1261415  -0.1261415), wk =   0.0034722
        k(   29) = (   0.0210236   0.0210236   0.0210236), wk =   0.0092593
        k(   30) = (   0.0210236   0.0210236   0.0420472), wk =   0.0277778
        k(   31) = (   0.0210236   0.0210236   0.0630707), wk =   0.0277778
        k(   32) = (   0.0210236   0.0210236   0.0840943), wk =   0.0277778
        k(   33) = (   0.0210236   0.0210236   0.1051179), wk =   0.0277778
        k(   34) = (   0.0210236   0.0210236  -0.1261415), wk =   0.0138889
        k(   35) = (   0.0210236   0.0420472   0.0420472), wk =   0.0277778
        k(   36) = (   0.0210236   0.0420472   0.0630707), wk =   0.0555556
        k(   37) = (   0.0210236   0.0420472   0.0840943), wk =   0.0555556
        k(   38) = (   0.0210236   0.0420472   0.1051179), wk =   0.0555556
        k(   39) = (   0.0210236   0.0420472  -0.1261415), wk =   0.0277778
        k(   40) = (   0.0210236   0.0630707   0.0630707), wk =   0.0277778
        k(   41) = (   0.0210236   0.0630707   0.0840943), wk =   0.0555556
        k(   42) = (   0.0210236   0.0630707   0.1051179), wk =   0.0555556
        k(   43) = (   0.0210236   0.0630707  -0.1261415), wk =   0.0277778
        k(   44) = (   0.0210236   0.0840943   0.0840943), wk =   0.0277778
        k(   45) = (   0.0210236   0.0840943   0.1051179), wk =   0.0555556
        k(   46) = (   0.0210236   0.0840943  -0.1261415), wk =   0.0277778
        k(   47) = (   0.0210236   0.1051179   0.1051179), wk =   0.0277778
        k(   48) = (   0.0210236   0.1051179  -0.1261415), wk =   0.0277778
        k(   49) = (   0.0210236  -0.1261415  -0.1261415), wk =   0.0069444
        k(   50) = (   0.0420472   0.0420472   0.0420472), wk =   0.0092593
        k(   51) = (   0.0420472   0.0420472   0.0630707), wk =   0.0277778
        k(   52) = (   0.0420472   0.0420472   0.0840943), wk =   0.0277778
        k(   53) = (   0.0420472   0.0420472   0.1051179), wk =   0.0277778
        k(   54) = (   0.0420472   0.0420472  -0.1261415), wk =   0.0138889
        k(   55) = (   0.0420472   0.0630707   0.0630707), wk =   0.0277778
        k(   56) = (   0.0420472   0.0630707   0.0840943), wk =   0.0555556
        k(   57) = (   0.0420472   0.0630707   0.1051179), wk =   0.0555556
        k(   58) = (   0.0420472   0.0630707  -0.1261415), wk =   0.0277778
        k(   59) = (   0.0420472   0.0840943   0.0840943), wk =   0.0277778
        k(   60) = (   0.0420472   0.0840943   0.1051179), wk =   0.0555556
[...]
        k(   70) = (   0.0630707   0.0840943   0.1051179), wk =   0.0555556
        k(   71) = (   0.0630707   0.0840943  -0.1261415), wk =   0.0277778
        k(   72) = (   0.0630707   0.1051179   0.1051179), wk =   0.0277778
        k(   73) = (   0.0630707   0.1051179  -0.1261415), wk =   0.0277778
        k(   74) = (   0.0630707  -0.1261415  -0.1261415), wk =   0.0069444
        k(   75) = (   0.0840943   0.0840943   0.0840943), wk =   0.0092593
        k(   76) = (   0.0840943   0.0840943   0.1051179), wk =   0.0277778
        k(   77) = (   0.0840943   0.0840943  -0.1261415), wk =   0.0138889
        k(   78) = (   0.0840943   0.1051179   0.1051179), wk =   0.0277778
        k(   79) = (   0.0840943   0.1051179  -0.1261415), wk =   0.0277778
        k(   80) = (   0.0840943  -0.1261415  -0.1261415), wk =   0.0069444
        k(   81) = (   0.1051179   0.1051179   0.1051179), wk =   0.0092593
        k(   82) = (   0.1051179   0.1051179  -0.1261415), wk =   0.0138889
        k(   83) = (   0.1051179  -0.1261415  -0.1261415), wk =   0.0069444
        k(   84) = (  -0.1261415  -0.1261415  -0.1261415), wk =   0.0011574

     Largest allocated arrays     est. size (Mb)     dimensions
     Largest temporary arrays     est. size (Mb)     dimensions

     Initial potential from superposition of free atoms
     Check: negative starting charge=   -0.061018

     starting charge   65.99784, renormalised to   69.00000

     negative rho (up, down):  6.379E-02 0.000E+00

     *
     * You are using vdW-DF for exchange-correlation in this calculation.
     * Please cite the following three references that made this development
     * possible:
     *
     *   M. Dion, H. Rydberg, E. Schroder, D. C. Langreth, and
     *   B. I. Lundqvist, Phys. Rev. Lett. 92, 246401 (2004).
     *
     *   T. Thonhauser, V. R. Cooper, S. Li, A. Puzder, P. Hyldgaard, and
     *   D. C. Langreth, Phys. Rev. B 76, 125112 (2007).
     *
     *   G. Roman-Perez and J. M. Soler, Phys. Rev. Lett. 103, 096102 (2009).
     *
     *
     * If you are using vdW-DF2, please also cite:
     *
     *   K. Lee, E. D. Murray, L. Kong, B. I. Lundqvist, and
     *   D. C. Langreth, Phys. Rev. B 82, 081101(R) (2010).
     *
     *
     * If you are calculating the stress with vdW-DF, please also cite:
     *
     *   R. Sabatini, E. Kucukbenli, B. Kolb, T. Thonhauser, and
     *   S. de Gironcoli, J. Phys.: Condens. Matter 24, 424209 (2012).
     *

     Carrying out vdW-DF run using the following parameters:

     Nqs =      20    Nr_points =    1024   r_max =   100.000
     q_mesh =
               0.00001000     0.04494208     0.09755937     0.15916263
               0.23128650     0.31572767     0.41458969     0.53033537
               0.66584808     0.82450364     1.01025438     1.22772762
               1.48234092     1.78043706     2.12944203     2.53805004
               3.01644009     3.57652955     4.23227104     5.00000000

     Gradients computed in reciprocal space

     Starting wfc are   52 randomized atomic wfcs +    2 random wfc

     Self-consistent Calculation

     iteration #  1     ecut=    58.80 Ry     beta=0.10
     Davidson diagonalization with overlap
     ethr =  1.00E-02,  avg # of iterations =  4.1

[...]

     total energy              =   -1315.36674184 Ry
     Harris-Foulkes estimate   =   -1316.43097313 Ry
     estimated scf accuracy    <      14.07173991 Ry

[...]

     total energy              =   -1314.63115407 Ry
     Harris-Foulkes estimate   =   -1314.63115198 Ry
     estimated scf accuracy    <       0.00000002 Ry

     iteration # 18     ecut=    58.80 Ry     beta=0.10
     Davidson diagonalization with overlap
     ethr =  1.50E-11,  avg # of iterations =  2.0

     negative rho (up, down):  6.302E-02 0.000E+00

     End of self-consistent calculation

          k = 0.0000 0.0000 0.0000 (  3191 PWs)   bands (ev):

   -98.7673 -98.7640 -98.7640 -56.2006 -56.2006 -56.2006 -56.1968 -56.1968
   -56.1968 -56.0466 -56.0466 -56.0466 -35.5110 -13.4419 -13.4419 -13.4419
     6.3184   9.4356   9.4356  10.0598  10.0598  10.0598  10.0664  11.0942
    11.0942  11.0942  11.6741  11.6741  11.8128  12.0452  12.0452  12.0452
    14.4823  14.4823  15.8450  15.8450  15.8450  16.7149  16.7149  16.7149
    21.8905  22.5800  22.5800  23.0899  23.0899  23.0899  27.5346  27.5346
    27.5346  31.1107  31.1107  31.1107  31.2802  31.2802

[...]

          k = 0.1051-0.1261-0.1261 (  3184 PWs)   bands (ev):

[...]

          k =-0.1261-0.1261-0.1261 (  3184 PWs)   bands (ev):

   -98.7651 -98.7651 -98.7651 -56.2081 -56.2081 -56.2081 -56.1886 -56.1886
   -56.1886 -56.0667 -56.0380 -56.0380 -35.5024 -13.4939 -13.4939 -13.4939
     9.3544   9.3544   9.3544   9.9779  10.9123  10.9123  10.9123  11.1802
    11.1802  11.1929  11.1929  11.1929  11.9049  11.9049  11.9049  13.3151
    13.6413  13.6413  13.6413  14.1185  14.1185  14.1185  16.9552  16.9552
    20.2508  20.8173  20.8173  20.8173  29.5407  29.5407  29.5407  29.8606
    29.8606  29.8606  31.1671  31.4937  31.4937  33.8502

     the Fermi energy is    14.0475 ev

!    total energy              =   -1314.63116300 Ry
     Harris-Foulkes estimate   =   -1314.63115407 Ry
     estimated scf accuracy    <          1.5E-10 Ry

     The total energy is the sum of the following terms:

     one-electron contribution =    -945.26297978 Ry
     hartree contribution      =     508.61289692 Ry
     xc contribution           =    -138.36714549 Ry
     ewald contribution        =    -739.60263326 Ry
     smearing contrib. (-TS)   =      -0.01130139 Ry

     convergence has been achieved in  18 iterations

     Forces acting on atoms (Ry/au):

     negative rho (up, down):  6.302E-02 0.000E+00
     atom    1 type  1   force =     0.00000000    0.00000000    0.00000000
     atom    2 type  1   force =     0.00000000   -0.00000000    0.00000000
     atom    3 type  1   force =     0.00000000    0.00000000    0.00000000
     atom    4 type  2   force =     0.00000000    0.00000000    0.00000000

     Total force =     0.000000     Total SCF correction =     0.000000
 !ASE

     General routines

     Parallel routines

   This run was terminated on:  21:24:34  25Oct2017

   JOB DONE.