     Program PWSCF v.5.1rc2 (svn rev. ) starts on 25Oct2017 at  5:25: 2

     Current dimensions of program PWSCF are:
     Max number of different atomic species (ntypx) = 10
     Max number of k-points (npk) =  40000
     Max angular momentum in pseudopotentials (lmaxx) =  3

     IMPORTANT: XC functional enforced from input :
     Exchange-correlation      = BEEF-VDW ( 1  4 27 13 2)
     Any further DFT definition will be discarded
     Please, verify this is what you really want

     Subspace diagonalization in iterative solution of the eigenvalue problem:
     a serial algorithm will be used

     bravais-lattice index     =            0
     lattice parameter (alat)  =       1.8897  a.u.
     unit-cell volume          =     531.5829 (a.u.)^3
     number of atoms/cell      =            4
     number of atomic types    =            2
     number of electrons       =        50.00
     number of Kohn-Sham states=           45
     kinetic-energy cutoff     =      58.7989  Ry
     charge density cutoff     =     587.9892  Ry
     convergence threshold     =      7.3E-09
     mixing beta               =       0.1000
     number of iterations used =           10  local-TF  mixing
     Exchange-correlation      = BEEF-VDW ( 1  4 27 13 2)
     nstep                     =           50

     celldm(1)=   1.889726  celldm(2)=   0.000000  celldm(3)=   0.000000
     celldm(4)=   0.000000  celldm(5)=   0.000000  celldm(6)=   0.000000

     crystal axes: (cart. coord. in units of alat)
               a(1) = (   4.286717   0.000000   0.000000 )
               a(2) = (   0.000000   4.286717   0.000000 )
               a(3) = (   0.000000   0.000000   4.286717 )

     reciprocal axes: (cart. coord. in units 2 pi/alat)
               b(1) = (  0.233279  0.000000  0.000000 )
               b(2) = (  0.000000  0.233279  0.000000 )
               b(3) = (  0.000000  0.000000  0.233279 )

     PseudoPot. # 1 for Hf read from file:
     /home/vossj/suncat/psp/gbrv1.5pbe/Hf.UPF
     MD5 check sum: 8ee9378dfe14276e333edf04c5e4aa26
     Pseudo is Ultrasoft + core correction, Zval = 12.0
     Generated by new atomic code, or converted to UPF format
     Using radial grid of  921 points,  8 beta functions with:
                l(1) =   0
                l(2) =   0
                l(3) =   0
                l(4) =   1
                l(5) =   1
                l(6) =   2
                l(7) =   2
                l(8) =   3
     Q(r) pseudized with  6 coefficients,  rinner =    1.200   1.200   1.200
                                                       1.200   1.200   1.200
                                                       1.200

     PseudoPot. # 2 for Cr read from file:
     /home/vossj/suncat/psp/gbrv1.5pbe/Cr.UPF
     MD5 check sum: 0d52af634a40206e4dee301ad30da4bf
     Pseudo is Ultrasoft + core correction, Zval = 14.0
     Generated by new atomic code, or converted to UPF format
     Using radial grid of  857 points,  6 beta functions with:
                l(1) =   0
                l(2) =   0
                l(3) =   1
                l(4) =   1
                l(5) =   2
                l(6) =   2
     Q(r) pseudized with  8 coefficients,  rinner =    0.950   0.950   0.950
                                                       0.950   0.950

     vdW kernel table read from file vdW_kernel_table
     MD5 check sum: 095c7af220d748ca6e76c0b4c6cfb241

     atomic species   valence    mass     pseudopotential
        Hf1           12.00   178.49000     Hf( 1.00)
        Cr1           14.00    51.99610     Cr( 1.00)

     48 Sym. Ops., with inversion, found (32 have fractional translation)

   Cartesian axes

     site n.     atom                  positions (alat units)
         1           Hf1 tau(   1) = (   0.0000000   0.0000000   0.0000000  )
         2           Hf1 tau(   2) = (   0.0000000   2.1433584   2.1433584  )
         3           Hf1 tau(   3) = (   2.1433584   0.0000000   2.1433584  )
         4           Cr1 tau(   4) = (   2.1433584   2.1433584   0.0000000  )

     number of k points=    84  Fermi-Dirac smearing, width (Ry)=  0.0073
                       cart. coord. in units 2pi/alat
        k(    1) = (   0.0000000   0.0000000   0.0000000), wk =   0.0011574
        k(    2) = (   0.0000000   0.0000000   0.0194399), wk =   0.0069444
        k(    3) = (   0.0000000   0.0000000   0.0388798), wk =   0.0069444
        k(    4) = (   0.0000000   0.0000000   0.0583197), wk =   0.0069444
        k(    5) = (   0.0000000   0.0000000   0.0777596), wk =   0.0069444
        k(    6) = (   0.0000000   0.0000000   0.0971995), wk =   0.0069444
        k(    7) = (   0.0000000   0.0000000  -0.1166394), wk =   0.0034722
        k(    8) = (   0.0000000   0.0194399   0.0194399), wk =   0.0138889
        k(    9) = (   0.0000000   0.0194399   0.0388798), wk =   0.0277778
        k(   10) = (   0.0000000   0.0194399   0.0583197), wk =   0.0277778
        k(   11) = (   0.0000000   0.0194399   0.0777596), wk =   0.0277778
        k(   12) = (   0.0000000   0.0194399   0.0971995), wk =   0.0277778
        k(   13) = (   0.0000000   0.0194399  -0.1166394), wk =   0.0138889
        k(   14) = (   0.0000000   0.0388798   0.0388798), wk =   0.0138889
        k(   15) = (   0.0000000   0.0388798   0.0583197), wk =   0.0277778
        k(   16) = (   0.0000000   0.0388798   0.0777596), wk =   0.0277778
        k(   17) = (   0.0000000   0.0388798   0.0971995), wk =   0.0277778
        k(   18) = (   0.0000000   0.0388798  -0.1166394), wk =   0.0138889
        k(   19) = (   0.0000000   0.0583197   0.0583197), wk =   0.0138889
        k(   20) = (   0.0000000   0.0583197   0.0777596), wk =   0.0277778
        k(   21) = (   0.0000000   0.0583197   0.0971995), wk =   0.0277778
        k(   22) = (   0.0000000   0.0583197  -0.1166394), wk =   0.0138889
        k(   23) = (   0.0000000   0.0777596   0.0777596), wk =   0.0138889
        k(   24) = (   0.0000000   0.0777596   0.0971995), wk =   0.0277778
        k(   25) = (   0.0000000   0.0777596  -0.1166394), wk =   0.0138889
        k(   26) = (   0.0000000   0.0971995   0.0971995), wk =   0.0138889
        k(   27) = (   0.0000000   0.0971995  -0.1166394), wk =   0.0138889
        k(   28) = (   0.0000000  -0.1166394  -0.1166394), wk =   0.0034722
        k(   29) = (   0.0194399   0.0194399   0.0194399), wk =   0.0092593
        k(   30) = (   0.0194399   0.0194399   0.0388798), wk =   0.0277778
        k(   31) = (   0.0194399   0.0194399   0.0583197), wk =   0.0277778
        k(   32) = (   0.0194399   0.0194399   0.0777596), wk =   0.0277778
        k(   33) = (   0.0194399   0.0194399   0.0971995), wk =   0.0277778
        k(   34) = (   0.0194399   0.0194399  -0.1166394), wk =   0.0138889
        k(   35) = (   0.0194399   0.0388798   0.0388798), wk =   0.0277778
        k(   36) = (   0.0194399   0.0388798   0.0583197), wk =   0.0555556
        k(   37) = (   0.0194399   0.0388798   0.0777596), wk =   0.0555556
        k(   38) = (   0.0194399   0.0388798   0.0971995), wk =   0.0555556
        k(   39) = (   0.0194399   0.0388798  -0.1166394), wk =   0.0277778
        k(   40) = (   0.0194399   0.0583197   0.0583197), wk =   0.0277778
        k(   41) = (   0.0194399   0.0583197   0.0777596), wk =   0.0555556
        k(   42) = (   0.0194399   0.0583197   0.0971995), wk =   0.0555556
        k(   43) = (   0.0194399   0.0583197  -0.1166394), wk =   0.0277778
        k(   44) = (   0.0194399   0.0777596   0.0777596), wk =   0.0277778
        k(   45) = (   0.0194399   0.0777596   0.0971995), wk =   0.0555556
        k(   46) = (   0.0194399   0.0777596  -0.1166394), wk =   0.0277778
        k(   47) = (   0.0194399   0.0971995   0.0971995), wk =   0.0277778
        k(   48) = (   0.0194399   0.0971995  -0.1166394), wk =   0.0277778
        k(   49) = (   0.0194399  -0.1166394  -0.1166394), wk =   0.0069444
        k(   50) = (   0.0388798   0.0388798   0.0388798), wk =   0.0092593
        k(   51) = (   0.0388798   0.0388798   0.0583197), wk =   0.0277778
        k(   52) = (   0.0388798   0.0388798   0.0777596), wk =   0.0277778
        k(   53) = (   0.0388798   0.0388798   0.0971995), wk =   0.0277778
        k(   54) = (   0.0388798   0.0388798  -0.1166394), wk =   0.0138889
        k(   55) = (   0.0388798   0.0583197   0.0583197), wk =   0.0277778
        k(   56) = (   0.0388798   0.0583197   0.0777596), wk =   0.0555556
        k(   57) = (   0.0388798   0.0583197   0.0971995), wk =   0.0555556
        k(   58) = (   0.0388798   0.0583197  -0.1166394), wk =   0.0277778
        k(   59) = (   0.0388798   0.0777596   0.0777596), wk =   0.0277778
        k(   60) = (   0.0388798   0.0777596   0.0971995), wk =   0.0555556
[...]
        k(   70) = (   0.0583197   0.0777596   0.0971995), wk =   0.0555556
        k(   71) = (   0.0583197   0.0777596  -0.1166394), wk =   0.0277778
        k(   72) = (   0.0583197   0.0971995   0.0971995), wk =   0.0277778
        k(   73) = (   0.0583197   0.0971995  -0.1166394), wk =   0.0277778
        k(   74) = (   0.0583197  -0.1166394  -0.1166394), wk =   0.0069444
        k(   75) = (   0.0777596   0.0777596   0.0777596), wk =   0.0092593
        k(   76) = (   0.0777596   0.0777596   0.0971995), wk =   0.0277778
        k(   77) = (   0.0777596   0.0777596  -0.1166394), wk =   0.0138889
        k(   78) = (   0.0777596   0.0971995   0.0971995), wk =   0.0277778
        k(   79) = (   0.0777596   0.0971995  -0.1166394), wk =   0.0277778
        k(   80) = (   0.0777596  -0.1166394  -0.1166394), wk =   0.0069444
        k(   81) = (   0.0971995   0.0971995   0.0971995), wk =   0.0092593
        k(   82) = (   0.0971995   0.0971995  -0.1166394), wk =   0.0138889
        k(   83) = (   0.0971995  -0.1166394  -0.1166394), wk =   0.0069444
        k(   84) = (  -0.1166394  -0.1166394  -0.1166394), wk =   0.0011574

     Largest allocated arrays     est. size (Mb)     dimensions
     Largest temporary arrays     est. size (Mb)     dimensions

     Check: negative/imaginary core charge=   -0.000001    0.000000

     Initial potential from superposition of free atoms
     Check: negative starting charge=   -0.325493

     starting charge   42.99998, renormalised to   50.00000

     negative rho (up, down):  3.785E-01 0.000E+00

     *
     * You are using vdW-DF for exchange-correlation in this calculation.
     * Please cite the following three references that made this development
     * possible:
     *
     *   M. Dion, H. Rydberg, E. Schroder, D. C. Langreth, and
     *   B. I. Lundqvist, Phys. Rev. Lett. 92, 246401 (2004).
     *
     *   T. Thonhauser, V. R. Cooper, S. Li, A. Puzder, P. Hyldgaard, and
     *   D. C. Langreth, Phys. Rev. B 76, 125112 (2007).
     *
     *   G. Roman-Perez and J. M. Soler, Phys. Rev. Lett. 103, 096102 (2009).
     *
     *
     * If you are using vdW-DF2, please also cite:
     *
     *   K. Lee, E. D. Murray, L. Kong, B. I. Lundqvist, and
     *   D. C. Langreth, Phys. Rev. B 82, 081101(R) (2010).
     *
     *
     * If you are calculating the stress with vdW-DF, please also cite:
     *
     *   R. Sabatini, E. Kucukbenli, B. Kolb, T. Thonhauser, and
     *   S. de Gironcoli, J. Phys.: Condens. Matter 24, 424209 (2012).
     *

     Carrying out vdW-DF run using the following parameters:

     Nqs =      20    Nr_points =    1024   r_max =   100.000
     q_mesh =
               0.00001000     0.04494208     0.09755937     0.15916263
               0.23128650     0.31572767     0.41458969     0.53033537
               0.66584808     0.82450364     1.01025438     1.22772762
               1.48234092     1.78043706     2.12944203     2.53805004
               3.01644009     3.57652955     4.23227104     5.00000000

     Gradients computed in reciprocal space

     Starting wfc are   49 randomized atomic wfcs

     Self-consistent Calculation

     iteration #  1     ecut=    58.80 Ry     beta=0.10
     Davidson diagonalization with overlap
     ethr =  1.00E-02,  avg # of iterations =  4.3

[...]

     total energy              =    -663.44198224 Ry
     Harris-Foulkes estimate   =    -664.53420885 Ry
     estimated scf accuracy    <      19.68282655 Ry

[...]

     total energy              =    -658.00989355 Ry
     Harris-Foulkes estimate   =    -658.00989355 Ry
     estimated scf accuracy    <       0.00000003 Ry

     iteration # 53     ecut=    58.80 Ry     beta=0.10
     Davidson diagonalization with overlap
     ethr =  5.08E-11,  avg # of iterations =  2.1

     negative rho (up, down):  3.537E-01 0.000E+00

     End of self-consistent calculation

          k = 0.0000 0.0000 0.0000 (  3959 PWs)   bands (ev):

   -56.6339 -47.1046 -46.9997 -46.9997 -27.9207 -27.9207 -27.9207 -16.0397
   -16.0397 -16.0397 -15.5284 -15.5284 -15.5284 -15.2660 -15.2660 -15.2660
     7.7149  11.1493  11.8512  11.8512  12.6583  12.6583  12.6583  15.4849
    15.4849  15.4849  16.7915  16.7915  17.6481  17.6481  17.6481  19.3971
    19.3971  19.3971  20.6386  20.6386  22.0858  22.7242  22.7242  22.7242
    24.8309  24.8309  24.8309  26.3454  26.8081

[...]

          k = 0.0972-0.1166-0.1166 (  4048 PWs)   bands (ev):

[...]

          k =-0.1166-0.1166-0.1166 (  4032 PWs)   bands (ev):

   -56.6338 -47.0342 -47.0342 -47.0342 -27.9221 -27.9221 -27.9221 -16.3386
   -15.9450 -15.9450 -15.9450 -15.3135 -15.3135 -15.2671 -15.2671 -15.2671
    11.2685  11.4037  11.4037  11.4037  14.8426  14.8426  15.2152  15.2152
    15.2152  15.4974  15.4974  15.4974  15.9379  16.2230  16.2230  16.2230
    18.8923  18.8923  18.8923  20.0017  20.0017  22.0246  22.0246  22.0246
    24.8302  25.0066  25.0066  25.0066  26.9303

     the Fermi energy is    14.8845 ev

!    total energy              =    -658.00989357 Ry
     Harris-Foulkes estimate   =    -658.00989355 Ry
     estimated scf accuracy    <          1.4E-09 Ry

     The total energy is the sum of the following terms:

     one-electron contribution =    -136.72933412 Ry
     hartree contribution      =      88.85450681 Ry
     xc contribution           =    -255.54240485 Ry
     ewald contribution        =    -354.57377961 Ry
     smearing contrib. (-TS)   =      -0.01888180 Ry

     convergence has been achieved in  53 iterations

     Forces acting on atoms (Ry/au):

     negative rho (up, down):  3.537E-01 0.000E+00
     atom    1 type  1   force =     0.00000000   -0.00000000    0.00000000
     atom    2 type  1   force =     0.00000000    0.00000000    0.00000000
     atom    3 type  1   force =     0.00000000   -0.00000000    0.00000000
     atom    4 type  2   force =     0.00000000    0.00000000    0.00000000

     Total force =     0.000000     Total SCF correction =     0.000000
 !ASE

     General routines

     Parallel routines

   This run was terminated on:   5:28:22  25Oct2017

   JOB DONE.