     Program PWSCF v.5.1rc2 (svn rev. ) starts on 25Oct2017 at 16:12:40

     Current dimensions of program PWSCF are:
     Max number of different atomic species (ntypx) = 10
     Max number of k-points (npk) =  40000
     Max angular momentum in pseudopotentials (lmaxx) =  3

     IMPORTANT: XC functional enforced from input :
     Exchange-correlation      = BEEF-VDW ( 1  4 27 13 2)
     Any further DFT definition will be discarded
     Please, verify this is what you really want

     Subspace diagonalization in iterative solution of the eigenvalue problem:
     a serial algorithm will be used

     bravais-lattice index     =            0
     lattice parameter (alat)  =       1.8897  a.u.
     unit-cell volume          =     486.8221 (a.u.)^3
     number of atoms/cell      =            4
     number of atomic types    =            2
     number of electrons       =        50.00
     number of Kohn-Sham states=           45
     kinetic-energy cutoff     =      58.7989  Ry
     charge density cutoff     =     587.9892  Ry
     convergence threshold     =      7.3E-09
     mixing beta               =       0.1000
     number of iterations used =           10  local-TF  mixing
     Exchange-correlation      = BEEF-VDW ( 1  4 27 13 2)
     nstep                     =           50

     celldm(1)=   1.889726  celldm(2)=   0.000000  celldm(3)=   0.000000
     celldm(4)=   0.000000  celldm(5)=   0.000000  celldm(6)=   0.000000

     crystal axes: (cart. coord. in units of alat)
               a(1) = (   4.162855   0.000000   0.000000 )
               a(2) = (   0.000000   4.162855   0.000000 )
               a(3) = (   0.000000   0.000000   4.162855 )

     reciprocal axes: (cart. coord. in units 2 pi/alat)
               b(1) = (  0.240220  0.000000  0.000000 )
               b(2) = (  0.000000  0.240220  0.000000 )
               b(3) = (  0.000000  0.000000  0.240220 )

     PseudoPot. # 1 for Nb read from file:
     /home/vossj/suncat/psp/gbrv1.5pbe/Nb.UPF
     MD5 check sum: 573aab8a2fa660278ed4a62cd769473f
     Pseudo is Ultrasoft + core correction, Zval = 13.0
     Generated by new atomic code, or converted to UPF format
     Using radial grid of  887 points,  6 beta functions with:
                l(1) =   0
                l(2) =   0
                l(3) =   1
                l(4) =   1
                l(5) =   2
                l(6) =   2
     Q(r) pseudized with  6 coefficients,  rinner =    1.000   1.000   1.000
                                                       1.000   1.000

     PseudoPot. # 2 for Au read from file:
     /home/vossj/suncat/psp/gbrv1.5pbe/Au.UPF
     MD5 check sum: 9d7f43293ad2c663164586bc4b293ffc
     Pseudo is Ultrasoft + core correction, Zval = 11.0
     Generated by new atomic code, or converted to UPF format
     Using radial grid of  985 points,  7 beta functions with:
                l(1) =   0
                l(2) =   0
                l(3) =   1
                l(4) =   1
                l(5) =   2
                l(6) =   2
                l(7) =   3
     Q(r) pseudized with  6 coefficients,  rinner =    1.900   1.900   1.900
                                                       1.900   1.900   1.900
                                                       1.900

     vdW kernel table read from file vdW_kernel_table
     MD5 check sum: 095c7af220d748ca6e76c0b4c6cfb241

     atomic species   valence    mass     pseudopotential
        Nb1           13.00    92.90637     Nb( 1.00)
        Au1           11.00   196.96657     Au( 1.00)

     48 Sym. Ops., with inversion, found (32 have fractional translation)

   Cartesian axes

     site n.     atom                  positions (alat units)
         1           Nb1 tau(   1) = (   0.0000000   0.0000000   0.0000000  )
         2           Nb1 tau(   2) = (   0.0000000   2.0814273   2.0814273  )
         3           Nb1 tau(   3) = (   2.0814273   0.0000000   2.0814273  )
         4           Au1 tau(   4) = (   2.0814273   2.0814273   0.0000000  )

     number of k points=    84  Fermi-Dirac smearing, width (Ry)=  0.0073
                       cart. coord. in units 2pi/alat
        k(    1) = (   0.0000000   0.0000000   0.0000000), wk =   0.0011574
        k(    2) = (   0.0000000   0.0000000   0.0200183), wk =   0.0069444
        k(    3) = (   0.0000000   0.0000000   0.0400366), wk =   0.0069444
        k(    4) = (   0.0000000   0.0000000   0.0600549), wk =   0.0069444
        k(    5) = (   0.0000000   0.0000000   0.0800733), wk =   0.0069444
        k(    6) = (   0.0000000   0.0000000   0.1000916), wk =   0.0069444
        k(    7) = (   0.0000000   0.0000000  -0.1201099), wk =   0.0034722
        k(    8) = (   0.0000000   0.0200183   0.0200183), wk =   0.0138889
        k(    9) = (   0.0000000   0.0200183   0.0400366), wk =   0.0277778
        k(   10) = (   0.0000000   0.0200183   0.0600549), wk =   0.0277778
        k(   11) = (   0.0000000   0.0200183   0.0800733), wk =   0.0277778
        k(   12) = (   0.0000000   0.0200183   0.1000916), wk =   0.0277778
        k(   13) = (   0.0000000   0.0200183  -0.1201099), wk =   0.0138889
        k(   14) = (   0.0000000   0.0400366   0.0400366), wk =   0.0138889
        k(   15) = (   0.0000000   0.0400366   0.0600549), wk =   0.0277778
        k(   16) = (   0.0000000   0.0400366   0.0800733), wk =   0.0277778
        k(   17) = (   0.0000000   0.0400366   0.1000916), wk =   0.0277778
        k(   18) = (   0.0000000   0.0400366  -0.1201099), wk =   0.0138889
        k(   19) = (   0.0000000   0.0600549   0.0600549), wk =   0.0138889
        k(   20) = (   0.0000000   0.0600549   0.0800733), wk =   0.0277778
        k(   21) = (   0.0000000   0.0600549   0.1000916), wk =   0.0277778
        k(   22) = (   0.0000000   0.0600549  -0.1201099), wk =   0.0138889
        k(   23) = (   0.0000000   0.0800733   0.0800733), wk =   0.0138889
        k(   24) = (   0.0000000   0.0800733   0.1000916), wk =   0.0277778
        k(   25) = (   0.0000000   0.0800733  -0.1201099), wk =   0.0138889
        k(   26) = (   0.0000000   0.1000916   0.1000916), wk =   0.0138889
        k(   27) = (   0.0000000   0.1000916  -0.1201099), wk =   0.0138889
        k(   28) = (   0.0000000  -0.1201099  -0.1201099), wk =   0.0034722
        k(   29) = (   0.0200183   0.0200183   0.0200183), wk =   0.0092593
        k(   30) = (   0.0200183   0.0200183   0.0400366), wk =   0.0277778
        k(   31) = (   0.0200183   0.0200183   0.0600549), wk =   0.0277778
        k(   32) = (   0.0200183   0.0200183   0.0800733), wk =   0.0277778
        k(   33) = (   0.0200183   0.0200183   0.1000916), wk =   0.0277778
        k(   34) = (   0.0200183   0.0200183  -0.1201099), wk =   0.0138889
        k(   35) = (   0.0200183   0.0400366   0.0400366), wk =   0.0277778
        k(   36) = (   0.0200183   0.0400366   0.0600549), wk =   0.0555556
        k(   37) = (   0.0200183   0.0400366   0.0800733), wk =   0.0555556
        k(   38) = (   0.0200183   0.0400366   0.1000916), wk =   0.0555556
        k(   39) = (   0.0200183   0.0400366  -0.1201099), wk =   0.0277778
        k(   40) = (   0.0200183   0.0600549   0.0600549), wk =   0.0277778
        k(   41) = (   0.0200183   0.0600549   0.0800733), wk =   0.0555556
        k(   42) = (   0.0200183   0.0600549   0.1000916), wk =   0.0555556
        k(   43) = (   0.0200183   0.0600549  -0.1201099), wk =   0.0277778
        k(   44) = (   0.0200183   0.0800733   0.0800733), wk =   0.0277778
        k(   45) = (   0.0200183   0.0800733   0.1000916), wk =   0.0555556
        k(   46) = (   0.0200183   0.0800733  -0.1201099), wk =   0.0277778
        k(   47) = (   0.0200183   0.1000916   0.1000916), wk =   0.0277778
        k(   48) = (   0.0200183   0.1000916  -0.1201099), wk =   0.0277778
        k(   49) = (   0.0200183  -0.1201099  -0.1201099), wk =   0.0069444
        k(   50) = (   0.0400366   0.0400366   0.0400366), wk =   0.0092593
        k(   51) = (   0.0400366   0.0400366   0.0600549), wk =   0.0277778
        k(   52) = (   0.0400366   0.0400366   0.0800733), wk =   0.0277778
        k(   53) = (   0.0400366   0.0400366   0.1000916), wk =   0.0277778
        k(   54) = (   0.0400366   0.0400366  -0.1201099), wk =   0.0138889
        k(   55) = (   0.0400366   0.0600549   0.0600549), wk =   0.0277778
        k(   56) = (   0.0400366   0.0600549   0.0800733), wk =   0.0555556
        k(   57) = (   0.0400366   0.0600549   0.1000916), wk =   0.0555556
        k(   58) = (   0.0400366   0.0600549  -0.1201099), wk =   0.0277778
        k(   59) = (   0.0400366   0.0800733   0.0800733), wk =   0.0277778
        k(   60) = (   0.0400366   0.0800733   0.1000916), wk =   0.0555556
[...]
        k(   70) = (   0.0600549   0.0800733   0.1000916), wk =   0.0555556
        k(   71) = (   0.0600549   0.0800733  -0.1201099), wk =   0.0277778
        k(   72) = (   0.0600549   0.1000916   0.1000916), wk =   0.0277778
        k(   73) = (   0.0600549   0.1000916  -0.1201099), wk =   0.0277778
        k(   74) = (   0.0600549  -0.1201099  -0.1201099), wk =   0.0069444
        k(   75) = (   0.0800733   0.0800733   0.0800733), wk =   0.0092593
        k(   76) = (   0.0800733   0.0800733   0.1000916), wk =   0.0277778
        k(   77) = (   0.0800733   0.0800733  -0.1201099), wk =   0.0138889
        k(   78) = (   0.0800733   0.1000916   0.1000916), wk =   0.0277778
        k(   79) = (   0.0800733   0.1000916  -0.1201099), wk =   0.0277778
        k(   80) = (   0.0800733  -0.1201099  -0.1201099), wk =   0.0069444
        k(   81) = (   0.1000916   0.1000916   0.1000916), wk =   0.0092593
        k(   82) = (   0.1000916   0.1000916  -0.1201099), wk =   0.0138889
        k(   83) = (   0.1000916  -0.1201099  -0.1201099), wk =   0.0069444
        k(   84) = (  -0.1201099  -0.1201099  -0.1201099), wk =   0.0011574

     Largest allocated arrays     est. size (Mb)     dimensions
     Largest temporary arrays     est. size (Mb)     dimensions

     Initial potential from superposition of free atoms

     starting charge   49.99168, renormalised to   50.00000

     *
     * You are using vdW-DF for exchange-correlation in this calculation.
     * Please cite the following three references that made this development
     * possible:
     *
     *   M. Dion, H. Rydberg, E. Schroder, D. C. Langreth, and
     *   B. I. Lundqvist, Phys. Rev. Lett. 92, 246401 (2004).
     *
     *   T. Thonhauser, V. R. Cooper, S. Li, A. Puzder, P. Hyldgaard, and
     *   D. C. Langreth, Phys. Rev. B 76, 125112 (2007).
     *
     *   G. Roman-Perez and J. M. Soler, Phys. Rev. Lett. 103, 096102 (2009).
     *
     *
     * If you are using vdW-DF2, please also cite:
     *
     *   K. Lee, E. D. Murray, L. Kong, B. I. Lundqvist, and
     *   D. C. Langreth, Phys. Rev. B 82, 081101(R) (2010).
     *
     *
     * If you are calculating the stress with vdW-DF, please also cite:
     *
     *   R. Sabatini, E. Kucukbenli, B. Kolb, T. Thonhauser, and
     *   S. de Gironcoli, J. Phys.: Condens. Matter 24, 424209 (2012).
     *

     Carrying out vdW-DF run using the following parameters:

     Nqs =      20    Nr_points =    1024   r_max =   100.000
     q_mesh =
               0.00001000     0.04494208     0.09755937     0.15916263
               0.23128650     0.31572767     0.41458969     0.53033537
               0.66584808     0.82450364     1.01025438     1.22772762
               1.48234092     1.78043706     2.12944203     2.53805004
               3.01644009     3.57652955     4.23227104     5.00000000

     Gradients computed in reciprocal space

     Starting wfc are   48 randomized atomic wfcs

     Self-consistent Calculation

     iteration #  1     ecut=    58.80 Ry     beta=0.10
     Davidson diagonalization with overlap
     ethr =  1.00E-02,  avg # of iterations =  4.5

     total energy              =    -472.53712395 Ry
     Harris-Foulkes estimate   =    -472.56346394 Ry
     estimated scf accuracy    <       0.50409794 Ry

[...]

     total energy              =    -472.45779044 Ry
     Harris-Foulkes estimate   =    -472.45779016 Ry
     estimated scf accuracy    <          8.7E-09 Ry

     iteration # 17     ecut=    58.80 Ry     beta=0.10
     Davidson diagonalization with overlap
     ethr =  1.73E-11,  avg # of iterations =  1.0

     End of self-consistent calculation

          k = 0.0000 0.0000 0.0000 (  3743 PWs)   bands (ev):

   -37.9125 -37.6937 -37.6937 -14.2532 -14.2532 -14.2532 -13.7384 -13.7384
   -13.7384 -13.3880 -13.3880 -13.3880   9.6958  11.1669  11.1669  11.6026
    11.6026  11.6026  12.7268  15.6059  15.6059  15.6059  16.7947  16.7947
    19.8917  19.8917  19.8917  20.0022  20.0022  20.0022  20.8836  20.8836
    21.8420  22.4637  22.4637  22.4637  26.1239  27.4841  27.4841  27.4841
    29.3146  29.3146  29.3146  30.0009  30.0017

[...]

          k = 0.1001-0.1201-0.1201 (  3700 PWs)   bands (ev):

[...]

          k =-0.1201-0.1201-0.1201 (  3648 PWs)   bands (ev):

   -37.7652 -37.7652 -37.7652 -14.5159 -14.2070 -14.2070 -14.2070 -13.4491
   -13.4491 -13.4491 -13.3872 -13.3872  11.4249  11.4249  11.4249  11.4598
    12.5423  12.5423  15.2838  15.2838  15.2838  17.0449  17.0449  17.0449
    17.6861  17.6861  17.6861  18.7922  19.6805  19.6805  19.6805  20.3342
    20.3342  21.8790  21.8790  21.8790  23.6535  27.2488  27.2488  27.2488
    29.2809  29.3239  29.3239  29.3239  33.4074

     the Fermi energy is    17.1368 ev

!    total energy              =    -472.45779167 Ry
     Harris-Foulkes estimate   =    -472.45779044 Ry
     estimated scf accuracy    <          2.2E-09 Ry

     The total energy is the sum of the following terms:

     one-electron contribution =     -40.68342152 Ry
     hartree contribution      =      54.67672122 Ry
     xc contribution           =    -121.31515996 Ry
     ewald contribution        =    -365.12381572 Ry
     smearing contrib. (-TS)   =      -0.01211568 Ry

     convergence has been achieved in  17 iterations

     Forces acting on atoms (Ry/au):

     atom    1 type  1   force =     0.00000000    0.00000000   -0.00000000
     atom    2 type  1   force =     0.00000000    0.00000000    0.00000000
     atom    3 type  1   force =     0.00000000    0.00000000    0.00000000
     atom    4 type  2   force =     0.00000000    0.00000000    0.00000000

     Total force =     0.000000     Total SCF correction =     0.000000
 !ASE

     General routines

     Parallel routines

   This run was terminated on:  16:13:51  25Oct2017

   JOB DONE.