     Program PWSCF v.5.1rc2 (svn rev. ) starts on 26Oct2017 at  0: 2:28

     Current dimensions of program PWSCF are:
     Max number of different atomic species (ntypx) = 10
     Max number of k-points (npk) =  40000
     Max angular momentum in pseudopotentials (lmaxx) =  3

     IMPORTANT: XC functional enforced from input :
     Exchange-correlation      = BEEF-VDW ( 1  4 27 13 2)
     Any further DFT definition will be discarded
     Please, verify this is what you really want

     Subspace diagonalization in iterative solution of the eigenvalue problem:
     a serial algorithm will be used

     bravais-lattice index     =            0
     lattice parameter (alat)  =       1.8897  a.u.
     unit-cell volume          =     449.2245 (a.u.)^3
     number of atoms/cell      =            4
     number of atomic types    =            2
     number of electrons       =        72.00
     number of Kohn-Sham states=           56
     kinetic-energy cutoff     =      58.7989  Ry
     charge density cutoff     =     587.9892  Ry
     convergence threshold     =      7.3E-09
     mixing beta               =       0.1000
     number of iterations used =           10  local-TF  mixing
     Exchange-correlation      = BEEF-VDW ( 1  4 27 13 2)
     nstep                     =           50

     celldm(1)=   1.889726  celldm(2)=   0.000000  celldm(3)=   0.000000
     celldm(4)=   0.000000  celldm(5)=   0.000000  celldm(6)=   0.000000

     crystal axes: (cart. coord. in units of alat)
               a(1) = (   4.052804   0.000000   0.000000 )
               a(2) = (   0.000000   4.052804   0.000000 )
               a(3) = (   0.000000   0.000000   4.052804 )

     reciprocal axes: (cart. coord. in units 2 pi/alat)
               b(1) = (  0.246743  0.000000  0.000000 )
               b(2) = (  0.000000  0.246743  0.000000 )
               b(3) = (  0.000000  0.000000  0.246743 )

     PseudoPot. # 1 for Zn read from file:
     /home/vossj/suncat/psp/gbrv1.5pbe/Zn.UPF
     MD5 check sum: df62231357ef9e81f77b2b3087fa5675
     Pseudo is Ultrasoft, Zval = 20.0
     Generated by new atomic code, or converted to UPF format
     Using radial grid of  943 points,  6 beta functions with:
                l(1) =   0
                l(2) =   0
                l(3) =   1
                l(4) =   1
                l(5) =   2
                l(6) =   2
     Q(r) pseudized with  8 coefficients,  rinner =    1.100   1.100   1.100
                                                       1.100   1.100

     PseudoPot. # 2 for Hf read from file:
     /home/vossj/suncat/psp/gbrv1.5pbe/Hf.UPF
     MD5 check sum: 8ee9378dfe14276e333edf04c5e4aa26
     Pseudo is Ultrasoft + core correction, Zval = 12.0
     Generated by new atomic code, or converted to UPF format
     Using radial grid of  921 points,  8 beta functions with:
                l(1) =   0
                l(2) =   0
                l(3) =   0
                l(4) =   1
                l(5) =   1
                l(6) =   2
                l(7) =   2
                l(8) =   3
     Q(r) pseudized with  6 coefficients,  rinner =    1.200   1.200   1.200
                                                       1.200   1.200   1.200
                                                       1.200

     vdW kernel table read from file vdW_kernel_table
     MD5 check sum: 095c7af220d748ca6e76c0b4c6cfb241

     atomic species   valence    mass     pseudopotential
        Zn1           20.00    65.38000     Zn( 1.00)
        Hf1           12.00   178.49000     Hf( 1.00)

     48 Sym. Ops., with inversion, found (32 have fractional translation)

   Cartesian axes

     site n.     atom                  positions (alat units)
         1           Zn1 tau(   1) = (   0.0000000   0.0000000   0.0000000  )
         2           Zn1 tau(   2) = (   0.0000000   2.0264020   2.0264020  )
         3           Zn1 tau(   3) = (   2.0264020   0.0000000   2.0264020  )
         4           Hf1 tau(   4) = (   2.0264020   2.0264020   0.0000000  )

     number of k points=    84  Fermi-Dirac smearing, width (Ry)=  0.0073
                       cart. coord. in units 2pi/alat
        k(    1) = (   0.0000000   0.0000000   0.0000000), wk =   0.0011574
        k(    2) = (   0.0000000   0.0000000   0.0205619), wk =   0.0069444
        k(    3) = (   0.0000000   0.0000000   0.0411238), wk =   0.0069444
        k(    4) = (   0.0000000   0.0000000   0.0616857), wk =   0.0069444
        k(    5) = (   0.0000000   0.0000000   0.0822476), wk =   0.0069444
        k(    6) = (   0.0000000   0.0000000   0.1028095), wk =   0.0069444
        k(    7) = (   0.0000000   0.0000000  -0.1233714), wk =   0.0034722
        k(    8) = (   0.0000000   0.0205619   0.0205619), wk =   0.0138889
        k(    9) = (   0.0000000   0.0205619   0.0411238), wk =   0.0277778
        k(   10) = (   0.0000000   0.0205619   0.0616857), wk =   0.0277778
        k(   11) = (   0.0000000   0.0205619   0.0822476), wk =   0.0277778
        k(   12) = (   0.0000000   0.0205619   0.1028095), wk =   0.0277778
        k(   13) = (   0.0000000   0.0205619  -0.1233714), wk =   0.0138889
        k(   14) = (   0.0000000   0.0411238   0.0411238), wk =   0.0138889
        k(   15) = (   0.0000000   0.0411238   0.0616857), wk =   0.0277778
        k(   16) = (   0.0000000   0.0411238   0.0822476), wk =   0.0277778
        k(   17) = (   0.0000000   0.0411238   0.1028095), wk =   0.0277778
        k(   18) = (   0.0000000   0.0411238  -0.1233714), wk =   0.0138889
        k(   19) = (   0.0000000   0.0616857   0.0616857), wk =   0.0138889
        k(   20) = (   0.0000000   0.0616857   0.0822476), wk =   0.0277778
        k(   21) = (   0.0000000   0.0616857   0.1028095), wk =   0.0277778
        k(   22) = (   0.0000000   0.0616857  -0.1233714), wk =   0.0138889
        k(   23) = (   0.0000000   0.0822476   0.0822476), wk =   0.0138889
        k(   24) = (   0.0000000   0.0822476   0.1028095), wk =   0.0277778
        k(   25) = (   0.0000000   0.0822476  -0.1233714), wk =   0.0138889
        k(   26) = (   0.0000000   0.1028095   0.1028095), wk =   0.0138889
        k(   27) = (   0.0000000   0.1028095  -0.1233714), wk =   0.0138889
        k(   28) = (   0.0000000  -0.1233714  -0.1233714), wk =   0.0034722
        k(   29) = (   0.0205619   0.0205619   0.0205619), wk =   0.0092593
        k(   30) = (   0.0205619   0.0205619   0.0411238), wk =   0.0277778
        k(   31) = (   0.0205619   0.0205619   0.0616857), wk =   0.0277778
        k(   32) = (   0.0205619   0.0205619   0.0822476), wk =   0.0277778
        k(   33) = (   0.0205619   0.0205619   0.1028095), wk =   0.0277778
        k(   34) = (   0.0205619   0.0205619  -0.1233714), wk =   0.0138889
        k(   35) = (   0.0205619   0.0411238   0.0411238), wk =   0.0277778
        k(   36) = (   0.0205619   0.0411238   0.0616857), wk =   0.0555556
        k(   37) = (   0.0205619   0.0411238   0.0822476), wk =   0.0555556
        k(   38) = (   0.0205619   0.0411238   0.1028095), wk =   0.0555556
        k(   39) = (   0.0205619   0.0411238  -0.1233714), wk =   0.0277778
        k(   40) = (   0.0205619   0.0616857   0.0616857), wk =   0.0277778
        k(   41) = (   0.0205619   0.0616857   0.0822476), wk =   0.0555556
        k(   42) = (   0.0205619   0.0616857   0.1028095), wk =   0.0555556
        k(   43) = (   0.0205619   0.0616857  -0.1233714), wk =   0.0277778
        k(   44) = (   0.0205619   0.0822476   0.0822476), wk =   0.0277778
        k(   45) = (   0.0205619   0.0822476   0.1028095), wk =   0.0555556
        k(   46) = (   0.0205619   0.0822476  -0.1233714), wk =   0.0277778
        k(   47) = (   0.0205619   0.1028095   0.1028095), wk =   0.0277778
        k(   48) = (   0.0205619   0.1028095  -0.1233714), wk =   0.0277778
        k(   49) = (   0.0205619  -0.1233714  -0.1233714), wk =   0.0069444
        k(   50) = (   0.0411238   0.0411238   0.0411238), wk =   0.0092593
        k(   51) = (   0.0411238   0.0411238   0.0616857), wk =   0.0277778
        k(   52) = (   0.0411238   0.0411238   0.0822476), wk =   0.0277778
        k(   53) = (   0.0411238   0.0411238   0.1028095), wk =   0.0277778
        k(   54) = (   0.0411238   0.0411238  -0.1233714), wk =   0.0138889
        k(   55) = (   0.0411238   0.0616857   0.0616857), wk =   0.0277778
        k(   56) = (   0.0411238   0.0616857   0.0822476), wk =   0.0555556
        k(   57) = (   0.0411238   0.0616857   0.1028095), wk =   0.0555556
        k(   58) = (   0.0411238   0.0616857  -0.1233714), wk =   0.0277778
        k(   59) = (   0.0411238   0.0822476   0.0822476), wk =   0.0277778
        k(   60) = (   0.0411238   0.0822476   0.1028095), wk =   0.0555556
[...]
        k(   70) = (   0.0616857   0.0822476   0.1028095), wk =   0.0555556
        k(   71) = (   0.0616857   0.0822476  -0.1233714), wk =   0.0277778
        k(   72) = (   0.0616857   0.1028095   0.1028095), wk =   0.0277778
        k(   73) = (   0.0616857   0.1028095  -0.1233714), wk =   0.0277778
        k(   74) = (   0.0616857  -0.1233714  -0.1233714), wk =   0.0069444
        k(   75) = (   0.0822476   0.0822476   0.0822476), wk =   0.0092593
        k(   76) = (   0.0822476   0.0822476   0.1028095), wk =   0.0277778
        k(   77) = (   0.0822476   0.0822476  -0.1233714), wk =   0.0138889
        k(   78) = (   0.0822476   0.1028095   0.1028095), wk =   0.0277778
        k(   79) = (   0.0822476   0.1028095  -0.1233714), wk =   0.0277778
        k(   80) = (   0.0822476  -0.1233714  -0.1233714), wk =   0.0069444
        k(   81) = (   0.1028095   0.1028095   0.1028095), wk =   0.0092593
        k(   82) = (   0.1028095   0.1028095  -0.1233714), wk =   0.0138889
        k(   83) = (   0.1028095  -0.1233714  -0.1233714), wk =   0.0069444
        k(   84) = (  -0.1233714  -0.1233714  -0.1233714), wk =   0.0011574

     Largest allocated arrays     est. size (Mb)     dimensions
     Largest temporary arrays     est. size (Mb)     dimensions

     Check: negative/imaginary core charge=   -0.000003    0.000000

     Initial potential from superposition of free atoms
     Check: negative starting charge=   -0.107774

     starting charge   69.99958, renormalised to   72.00000

     negative rho (up, down):  1.109E-01 0.000E+00

     *
     * You are using vdW-DF for exchange-correlation in this calculation.
     * Please cite the following three references that made this development
     * possible:
     *
     *   M. Dion, H. Rydberg, E. Schroder, D. C. Langreth, and
     *   B. I. Lundqvist, Phys. Rev. Lett. 92, 246401 (2004).
     *
     *   T. Thonhauser, V. R. Cooper, S. Li, A. Puzder, P. Hyldgaard, and
     *   D. C. Langreth, Phys. Rev. B 76, 125112 (2007).
     *
     *   G. Roman-Perez and J. M. Soler, Phys. Rev. Lett. 103, 096102 (2009).
     *
     *
     * If you are using vdW-DF2, please also cite:
     *
     *   K. Lee, E. D. Murray, L. Kong, B. I. Lundqvist, and
     *   D. C. Langreth, Phys. Rev. B 82, 081101(R) (2010).
     *
     *
     * If you are calculating the stress with vdW-DF, please also cite:
     *
     *   R. Sabatini, E. Kucukbenli, B. Kolb, T. Thonhauser, and
     *   S. de Gironcoli, J. Phys.: Condens. Matter 24, 424209 (2012).
     *

     Carrying out vdW-DF run using the following parameters:

     Nqs =      20    Nr_points =    1024   r_max =   100.000
     q_mesh =
               0.00001000     0.04494208     0.09755937     0.15916263
               0.23128650     0.31572767     0.41458969     0.53033537
               0.66584808     0.82450364     1.01025438     1.22772762
               1.48234092     1.78043706     2.12944203     2.53805004
               3.01644009     3.57652955     4.23227104     5.00000000

     Gradients computed in reciprocal space

     Starting wfc are   52 randomized atomic wfcs +    4 random wfc

     Self-consistent Calculation

     iteration #  1     ecut=    58.80 Ry     beta=0.10
     Davidson diagonalization with overlap
     ethr =  1.00E-02,  avg # of iterations =  4.1

[...]

     total energy              =   -1550.20525471 Ry
     Harris-Foulkes estimate   =   -1552.36162134 Ry
     estimated scf accuracy    <      33.03125082 Ry

[...]

     total energy              =   -1549.00567963 Ry
     Harris-Foulkes estimate   =   -1549.00567947 Ry
     estimated scf accuracy    <       0.00000008 Ry

     iteration # 15     ecut=    58.80 Ry     beta=0.10
     Davidson diagonalization with overlap
     ethr =  1.13E-10,  avg # of iterations =  2.0

     negative rho (up, down):  1.177E-01 0.000E+00

     End of self-consistent calculation

          k = 0.0000 0.0000 0.0000 (  3407 PWs)   bands (ev):

  -112.5971-112.5960-112.5960 -66.7742 -66.7742 -66.7742 -66.7669 -66.7669
   -66.7669 -66.7644 -66.7644 -66.7644 -48.8253 -17.3530 -17.3530 -17.3530
     4.4592   5.8725   5.9727   5.9727   5.9727   5.9752   5.9752   6.5187
     6.5187   6.5187   6.7639   6.7639   6.9237   6.9946   6.9946   6.9946
    12.3741  12.3741  13.8562  13.8562  13.8562  16.1281  16.1281  16.1281
    18.3537  20.3352  20.3352  21.0142  21.0142  21.0142  24.7276  24.7276
    24.7276  28.5412  28.5412  28.5412  29.3838  29.3838  30.1764  30.9818

[...]

          k = 0.1028-0.1234-0.1234 (  3416 PWs)   bands (ev):

[...]

          k =-0.1234-0.1234-0.1234 (  3448 PWs)   bands (ev):

  -112.5963-112.5963-112.5963 -66.7783 -66.7714 -66.7714 -66.7714 -66.7667
   -66.7667 -66.7636 -66.7636 -66.7636 -48.8237 -17.3803 -17.3803 -17.3803
     5.9041   5.9266   5.9266   5.9266   6.3644   6.3644   6.3644   6.5469
     6.5469   6.5469   6.6118   6.6118   6.9347   6.9347   6.9347  10.6385
    10.6385  10.6385  11.3933  12.3872  12.3872  12.3872  16.3091  16.9888
    16.9888  19.7975  19.7975  19.7975  27.0658  27.0658  27.0658  28.0127
    28.0127  28.8629  28.8629  28.8629  29.7525  31.0332  31.0332  31.0332

     the Fermi energy is    13.5380 ev

!    total energy              =   -1549.00568049 Ry
     Harris-Foulkes estimate   =   -1549.00567965 Ry
     estimated scf accuracy    <          7.8E-10 Ry

     The total energy is the sum of the following terms:

     one-electron contribution =   -1159.70025669 Ry
     hartree contribution      =     608.42215384 Ry
     xc contribution           =    -207.74170385 Ry
     ewald contribution        =    -789.97984393 Ry
     smearing contrib. (-TS)   =      -0.00602986 Ry

     convergence has been achieved in  15 iterations

     Forces acting on atoms (Ry/au):

     negative rho (up, down):  1.177E-01 0.000E+00
     atom    1 type  1   force =     0.00000000    0.00000000    0.00000000
     atom    2 type  1   force =     0.00000000    0.00000000    0.00000000
     atom    3 type  1   force =     0.00000000    0.00000000    0.00000000
     atom    4 type  2   force =     0.00000000   -0.00000000    0.00000000

     Total force =     0.000000     Total SCF correction =     0.000000
 !ASE

     General routines

     Parallel routines

   This run was terminated on:   0: 3:48  26Oct2017

   JOB DONE.