     Program PWSCF v.5.1rc2 (svn rev. ) starts on 17Feb2018 at 12:37:36

     Current dimensions of program PWSCF are:
     Max number of different atomic species (ntypx) = 10
     Max number of k-points (npk) =  40000
     Max angular momentum in pseudopotentials (lmaxx) =  3

     IMPORTANT: XC functional enforced from input :
     Exchange-correlation      = BEEF-VDW ( 1  4 27 13 2)
     Any further DFT definition will be discarded
     Please, verify this is what you really want

     Subspace diagonalization in iterative solution of the eigenvalue problem:
     a serial algorithm will be used

     bravais-lattice index     =            0
     lattice parameter (alat)  =       1.8897  a.u.
     unit-cell volume          =     718.3027 (a.u.)^3
     number of atoms/cell      =            4
     number of atomic types    =            2
     number of electrons       =        60.00
     number of Kohn-Sham states=           50
     kinetic-energy cutoff     =      58.7989  Ry
     charge density cutoff     =     587.9892  Ry
     convergence threshold     =      7.3E-09
     mixing beta               =       0.1000
     number of iterations used =           10  local-TF  mixing
     Exchange-correlation      = BEEF-VDW ( 1  4 27 13 2)
     nstep                     =           50

     celldm(1)=   1.889726  celldm(2)=   0.000000  celldm(3)=   0.000000
     celldm(4)=   0.000000  celldm(5)=   0.000000  celldm(6)=   0.000000

     crystal axes: (cart. coord. in units of alat)
               a(1) = (   4.739185   0.000000   0.000000 )
               a(2) = (   0.000000   4.739185   0.000000 )
               a(3) = (   0.000000   0.000000   4.739185 )

     reciprocal axes: (cart. coord. in units 2 pi/alat)
               b(1) = (  0.211007  0.000000  0.000000 )
               b(2) = (  0.000000  0.211007  0.000000 )
               b(3) = (  0.000000  0.000000  0.211007 )

     PseudoPot. # 1 for Bi read from file:
     /home/mamunm/src/pseudo/gbrv1.5pbe/Bi.UPF
     MD5 check sum: 81103212dc04adf40945787f699eab19
     Pseudo is Ultrasoft + core correction, Zval = 15.0
     Generated by new atomic code, or converted to UPF format
     Using radial grid of  899 points,  6 beta functions with:
                l(1) =   0
                l(2) =   0
                l(3) =   1
                l(4) =   1
                l(5) =   2
                l(6) =   2
     Q(r) pseudized with  6 coefficients,  rinner =    1.000   1.000   1.000
                                                       1.000   1.000

     PseudoPot. # 2 for Re read from file:
     /home/mamunm/src/pseudo/gbrv1.5pbe/Re.UPF
     MD5 check sum: 85f993410f3e006da9d71c142b4ad953
     Pseudo is Ultrasoft + core correction, Zval = 15.0
     Generated by new atomic code, or converted to UPF format
     Using radial grid of  981 points,  8 beta functions with:
                l(1) =   0
                l(2) =   0
                l(3) =   1
                l(4) =   1
                l(5) =   2
                l(6) =   2
                l(7) =   3
                l(8) =   3
     Q(r) pseudized with  8 coefficients,  rinner =    1.150   1.150   1.150
                                                       1.150   1.150   1.150
                                                       1.150

     vdW kernel table read from file vdW_kernel_table
     MD5 check sum: 095c7af220d748ca6e76c0b4c6cfb241

     atomic species   valence    mass     pseudopotential
        Bi1           15.00   208.98040     Bi( 1.00)
        Re1           15.00   186.20700     Re( 1.00)

     48 Sym. Ops., with inversion, found (32 have fractional translation)

   Cartesian axes

     site n.     atom                  positions (alat units)
         1           Bi1 tau(   1) = (   0.0000000   0.0000000   0.0000000  )
         2           Bi1 tau(   2) = (   0.0000000   2.3695924   2.3695924  )
         3           Bi1 tau(   3) = (   2.3695924   0.0000000   2.3695924  )
         4           Re1 tau(   4) = (   2.3695924   2.3695924   0.0000000  )

     number of k points=    84  Fermi-Dirac smearing, width (Ry)=  0.0073
                       cart. coord. in units 2pi/alat
        k(    1) = (   0.0000000   0.0000000   0.0000000), wk =   0.0011574
        k(    2) = (   0.0000000   0.0000000   0.0175839), wk =   0.0069444
        k(    3) = (   0.0000000   0.0000000   0.0351678), wk =   0.0069444
        k(    4) = (   0.0000000   0.0000000   0.0527517), wk =   0.0069444
        k(    5) = (   0.0000000   0.0000000   0.0703356), wk =   0.0069444
        k(    6) = (   0.0000000   0.0000000   0.0879195), wk =   0.0069444
        k(    7) = (   0.0000000   0.0000000  -0.1055034), wk =   0.0034722
        k(    8) = (   0.0000000   0.0175839   0.0175839), wk =   0.0138889
        k(    9) = (   0.0000000   0.0175839   0.0351678), wk =   0.0277778
        k(   10) = (   0.0000000   0.0175839   0.0527517), wk =   0.0277778
        k(   11) = (   0.0000000   0.0175839   0.0703356), wk =   0.0277778
        k(   12) = (   0.0000000   0.0175839   0.0879195), wk =   0.0277778
        k(   13) = (   0.0000000   0.0175839  -0.1055034), wk =   0.0138889
        k(   14) = (   0.0000000   0.0351678   0.0351678), wk =   0.0138889
        k(   15) = (   0.0000000   0.0351678   0.0527517), wk =   0.0277778
        k(   16) = (   0.0000000   0.0351678   0.0703356), wk =   0.0277778
        k(   17) = (   0.0000000   0.0351678   0.0879195), wk =   0.0277778
        k(   18) = (   0.0000000   0.0351678  -0.1055034), wk =   0.0138889
        k(   19) = (   0.0000000   0.0527517   0.0527517), wk =   0.0138889
        k(   20) = (   0.0000000   0.0527517   0.0703356), wk =   0.0277778
        k(   21) = (   0.0000000   0.0527517   0.0879195), wk =   0.0277778
        k(   22) = (   0.0000000   0.0527517  -0.1055034), wk =   0.0138889
        k(   23) = (   0.0000000   0.0703356   0.0703356), wk =   0.0138889
        k(   24) = (   0.0000000   0.0703356   0.0879195), wk =   0.0277778
        k(   25) = (   0.0000000   0.0703356  -0.1055034), wk =   0.0138889
        k(   26) = (   0.0000000   0.0879195   0.0879195), wk =   0.0138889
        k(   27) = (   0.0000000   0.0879195  -0.1055034), wk =   0.0138889
        k(   28) = (   0.0000000  -0.1055034  -0.1055034), wk =   0.0034722
        k(   29) = (   0.0175839   0.0175839   0.0175839), wk =   0.0092593
        k(   30) = (   0.0175839   0.0175839   0.0351678), wk =   0.0277778
        k(   31) = (   0.0175839   0.0175839   0.0527517), wk =   0.0277778
        k(   32) = (   0.0175839   0.0175839   0.0703356), wk =   0.0277778
        k(   33) = (   0.0175839   0.0175839   0.0879195), wk =   0.0277778
        k(   34) = (   0.0175839   0.0175839  -0.1055034), wk =   0.0138889
        k(   35) = (   0.0175839   0.0351678   0.0351678), wk =   0.0277778
        k(   36) = (   0.0175839   0.0351678   0.0527517), wk =   0.0555556
        k(   37) = (   0.0175839   0.0351678   0.0703356), wk =   0.0555556
        k(   38) = (   0.0175839   0.0351678   0.0879195), wk =   0.0555556
        k(   39) = (   0.0175839   0.0351678  -0.1055034), wk =   0.0277778
        k(   40) = (   0.0175839   0.0527517   0.0527517), wk =   0.0277778
        k(   41) = (   0.0175839   0.0527517   0.0703356), wk =   0.0555556
        k(   42) = (   0.0175839   0.0527517   0.0879195), wk =   0.0555556
        k(   43) = (   0.0175839   0.0527517  -0.1055034), wk =   0.0277778
        k(   44) = (   0.0175839   0.0703356   0.0703356), wk =   0.0277778
        k(   45) = (   0.0175839   0.0703356   0.0879195), wk =   0.0555556
        k(   46) = (   0.0175839   0.0703356  -0.1055034), wk =   0.0277778
        k(   47) = (   0.0175839   0.0879195   0.0879195), wk =   0.0277778
        k(   48) = (   0.0175839   0.0879195  -0.1055034), wk =   0.0277778
        k(   49) = (   0.0175839  -0.1055034  -0.1055034), wk =   0.0069444
        k(   50) = (   0.0351678   0.0351678   0.0351678), wk =   0.0092593
        k(   51) = (   0.0351678   0.0351678   0.0527517), wk =   0.0277778
        k(   52) = (   0.0351678   0.0351678   0.0703356), wk =   0.0277778
        k(   53) = (   0.0351678   0.0351678   0.0879195), wk =   0.0277778
        k(   54) = (   0.0351678   0.0351678  -0.1055034), wk =   0.0138889
        k(   55) = (   0.0351678   0.0527517   0.0527517), wk =   0.0277778
        k(   56) = (   0.0351678   0.0527517   0.0703356), wk =   0.0555556
        k(   57) = (   0.0351678   0.0527517   0.0879195), wk =   0.0555556
        k(   58) = (   0.0351678   0.0527517  -0.1055034), wk =   0.0277778
        k(   59) = (   0.0351678   0.0703356   0.0703356), wk =   0.0277778
        k(   60) = (   0.0351678   0.0703356   0.0879195), wk =   0.0555556
[...]
        k(   70) = (   0.0527517   0.0703356   0.0879195), wk =   0.0555556
        k(   71) = (   0.0527517   0.0703356  -0.1055034), wk =   0.0277778
        k(   72) = (   0.0527517   0.0879195   0.0879195), wk =   0.0277778
        k(   73) = (   0.0527517   0.0879195  -0.1055034), wk =   0.0277778
        k(   74) = (   0.0527517  -0.1055034  -0.1055034), wk =   0.0069444
        k(   75) = (   0.0703356   0.0703356   0.0703356), wk =   0.0092593
        k(   76) = (   0.0703356   0.0703356   0.0879195), wk =   0.0277778
        k(   77) = (   0.0703356   0.0703356  -0.1055034), wk =   0.0138889
        k(   78) = (   0.0703356   0.0879195   0.0879195), wk =   0.0277778
        k(   79) = (   0.0703356   0.0879195  -0.1055034), wk =   0.0277778
        k(   80) = (   0.0703356  -0.1055034  -0.1055034), wk =   0.0069444
        k(   81) = (   0.0879195   0.0879195   0.0879195), wk =   0.0092593
        k(   82) = (   0.0879195   0.0879195  -0.1055034), wk =   0.0138889
        k(   83) = (   0.0879195  -0.1055034  -0.1055034), wk =   0.0069444
        k(   84) = (  -0.1055034  -0.1055034  -0.1055034), wk =   0.0011574

     Largest allocated arrays     est. size (Mb)     dimensions
     Largest temporary arrays     est. size (Mb)     dimensions

     Initial potential from superposition of free atoms
     Check: negative starting charge=   -0.257681

     starting charge   56.49983, renormalised to   60.00000

     negative rho (up, down):  2.736E-01 0.000E+00

     *
     * You are using vdW-DF for exchange-correlation in this calculation.
     * Please cite the following three references that made this development
     * possible:
     *
     *   M. Dion, H. Rydberg, E. Schroder, D. C. Langreth, and
     *   B. I. Lundqvist, Phys. Rev. Lett. 92, 246401 (2004).
     *
     *   T. Thonhauser, V. R. Cooper, S. Li, A. Puzder, P. Hyldgaard, and
     *   D. C. Langreth, Phys. Rev. B 76, 125112 (2007).
     *
     *   G. Roman-Perez and J. M. Soler, Phys. Rev. Lett. 103, 096102 (2009).
     *
     *
     * If you are using vdW-DF2, please also cite:
     *
     *   K. Lee, E. D. Murray, L. Kong, B. I. Lundqvist, and
     *   D. C. Langreth, Phys. Rev. B 82, 081101(R) (2010).
     *
     *
     * If you are calculating the stress with vdW-DF, please also cite:
     *
     *   R. Sabatini, E. Kucukbenli, B. Kolb, T. Thonhauser, and
     *   S. de Gironcoli, J. Phys.: Condens. Matter 24, 424209 (2012).
     *

     Carrying out vdW-DF run using the following parameters:

     Nqs =      20    Nr_points =    1024   r_max =   100.000
     q_mesh =
               0.00001000     0.04494208     0.09755937     0.15916263
               0.23128650     0.31572767     0.41458969     0.53033537
               0.66584808     0.82450364     1.01025438     1.22772762
               1.48234092     1.78043706     2.12944203     2.53805004
               3.01644009     3.57652955     4.23227104     5.00000000

     Gradients computed in reciprocal space

     Starting wfc are   40 randomized atomic wfcs +   10 random wfc

     Self-consistent Calculation

     iteration #  1     ecut=    58.80 Ry     beta=0.10
     Davidson diagonalization with overlap
     ethr =  1.00E-02,  avg # of iterations =  5.9

[...]

     total energy              =    -754.06645913 Ry
     Harris-Foulkes estimate   =    -754.19016444 Ry
     estimated scf accuracy    <       1.83857314 Ry

[...]

     iteration #  9     ecut=    58.80 Ry     beta=0.10
     Davidson diagonalization with overlap
     c_bands:  1 eigenvalues not converged
     ethr =  1.37E-07,  avg # of iterations =  2.8

[...]

     total energy              =    -753.40585568 Ry
     Harris-Foulkes estimate   =    -753.40583761 Ry
     estimated scf accuracy    <       0.00000004 Ry

     iteration # 15     ecut=    58.80 Ry     beta=0.10
     Davidson diagonalization with overlap
     ethr =  6.59E-11,  avg # of iterations =  2.0

     negative rho (up, down):  2.617E-01 0.000E+00

     End of self-consistent calculation

          k = 0.0000 0.0000 0.0000 (  5449 PWs)   bands (ev):

   -66.2689 -27.9700 -27.9700 -27.9700  -9.9409  -9.9408  -9.9408  -9.9243
    -9.7720  -9.7720  -9.7191  -9.7190  -9.6835  -9.6835  -9.6834  -9.6149
    -9.6148  -9.6148  -9.5895  -0.0388   4.3473   4.3474   9.5653   9.5653
     9.5654  12.8294  13.1046  13.1046  13.1046  13.1580  13.1580  14.6610
    14.6610  14.6610  16.6438  16.6438  16.6438  19.7855  21.4624  21.4625
    21.5350  21.5351  21.5351  23.6610  23.6631  23.6631  23.6631  28.5575
    28.6106  28.6107

[...]

          k = 0.0879-0.1055-0.1055 (  5496 PWs)   bands (ev):

[...]

          k =-0.1055-0.1055-0.1055 (  5520 PWs)   bands (ev):

   -66.2689 -27.9707 -27.9707 -27.9707  -9.8721  -9.8721  -9.8721  -9.8270
    -9.8270  -9.8270  -9.7721  -9.7331  -9.7331  -9.7330  -9.6545  -9.6544
    -9.6108  -9.6108  -9.6107   2.8469   2.8469   2.8470   7.6116   9.1275
     9.1275   9.1275  11.9917  13.5470  13.5470  13.7582  13.7582  13.7582
    17.9797  17.9797  18.3630  18.3631  18.3631  22.7841  22.8738  22.8738
    22.8738  23.2469  23.2469  23.2469  24.2011  24.2011  24.2011  24.7528
    24.7528  24.7528

     the Fermi energy is    13.6273 ev

!    total energy              =    -753.40593297 Ry
     Harris-Foulkes estimate   =    -753.40585580 Ry
     estimated scf accuracy    <          2.1E-09 Ry

     The total energy is the sum of the following terms:

     one-electron contribution =    -155.55008375 Ry
     hartree contribution      =     116.78245113 Ry
     xc contribution           =    -253.87240735 Ry
     ewald contribution        =    -460.75099559 Ry
     smearing contrib. (-TS)   =      -0.01489741 Ry

     convergence has been achieved in  15 iterations

     Forces acting on atoms (Ry/au):

     negative rho (up, down):  2.617E-01 0.000E+00
     atom    1 type  1   force =     0.00000000    0.00000000    0.00000000
     atom    2 type  1   force =     0.00000000    0.00000000    0.00000000
     atom    3 type  1   force =     0.00000000    0.00000000    0.00000000
     atom    4 type  2   force =     0.00000000    0.00000000    0.00000000

     Total force =     0.000000     Total SCF correction =     0.000000
 !ASE

     General routines

     Parallel routines

   This run was terminated on:  12:39:11  17Feb2018

   JOB DONE.