     Program PWSCF v.5.1rc2 (svn rev. ) starts on 24Oct2017 at 21:53:17

     Current dimensions of program PWSCF are:
     Max number of different atomic species (ntypx) = 10
     Max number of k-points (npk) =  40000
     Max angular momentum in pseudopotentials (lmaxx) =  3

     IMPORTANT: XC functional enforced from input :
     Exchange-correlation      = BEEF-VDW ( 1  4 27 13 2)
     Any further DFT definition will be discarded
     Please, verify this is what you really want

     Subspace diagonalization in iterative solution of the eigenvalue problem:
     a serial algorithm will be used

     bravais-lattice index     =            0
     lattice parameter (alat)  =       1.8897  a.u.
     unit-cell volume          =     381.5563 (a.u.)^3
     number of atoms/cell      =            4
     number of atomic types    =            2
     number of electrons       =        70.00
     number of Kohn-Sham states=           55
     kinetic-energy cutoff     =      58.7989  Ry
     charge density cutoff     =     587.9892  Ry
     convergence threshold     =      7.3E-09
     mixing beta               =       0.1000
     number of iterations used =           10  local-TF  mixing
     Exchange-correlation      = BEEF-VDW ( 1  4 27 13 2)
     nstep                     =           50

     celldm(1)=   1.889726  celldm(2)=   0.000000  celldm(3)=   0.000000
     celldm(4)=   0.000000  celldm(5)=   0.000000  celldm(6)=   0.000000

     crystal axes: (cart. coord. in units of alat)
               a(1) = (   3.838139   0.000000   0.000000 )
               a(2) = (   0.000000   3.838139   0.000000 )
               a(3) = (   0.000000   0.000000   3.838139 )

     reciprocal axes: (cart. coord. in units 2 pi/alat)
               b(1) = (  0.260543  0.000000  0.000000 )
               b(2) = (  0.000000  0.260543  0.000000 )
               b(3) = (  0.000000  0.000000  0.260543 )

     PseudoPot. # 1 for Cu read from file:
     /home/vossj/suncat/psp/gbrv1.5pbe/Cu.UPF
     MD5 check sum: 6e991ff952a84172a2a52a1c1e996048
     Pseudo is Ultrasoft + core correction, Zval = 19.0
     Generated by new atomic code, or converted to UPF format
     Using radial grid of  867 points,  6 beta functions with:
                l(1) =   0
                l(2) =   0
                l(3) =   1
                l(4) =   1
                l(5) =   2
                l(6) =   2
     Q(r) pseudized with  8 coefficients,  rinner =    1.150   1.150   1.150
                                                       1.150   1.150

     PseudoPot. # 2 for Ta read from file:
     /home/vossj/suncat/psp/gbrv1.5pbe/Ta.UPF
     MD5 check sum: f8bbe9446314a3b8ea5d9f3e3836c939
     Pseudo is Ultrasoft + core correction, Zval = 13.0
     Generated by new atomic code, or converted to UPF format
     Using radial grid of  921 points,  7 beta functions with:
                l(1) =   0
                l(2) =   0
                l(3) =   1
                l(4) =   1
                l(5) =   2
                l(6) =   2
                l(7) =   3
     Q(r) pseudized with  6 coefficients,  rinner =    1.300   1.300   1.300
                                                       1.300   1.300   1.300
                                                       1.300

     vdW kernel table read from file vdW_kernel_table
     MD5 check sum: 095c7af220d748ca6e76c0b4c6cfb241

     atomic species   valence    mass     pseudopotential
        Cu1           19.00    63.54600     Cu( 1.00)
        Ta1           13.00   180.94788     Ta( 1.00)

     48 Sym. Ops., with inversion, found (32 have fractional translation)

   Cartesian axes

     site n.     atom                  positions (alat units)
         1           Cu1 tau(   1) = (   0.0000000   0.0000000   0.0000000  )
         2           Cu1 tau(   2) = (   0.0000000   1.9190695   1.9190695  )
         3           Cu1 tau(   3) = (   1.9190695   0.0000000   1.9190695  )
         4           Ta1 tau(   4) = (   1.9190695   1.9190695   0.0000000  )

     number of k points=    84  Fermi-Dirac smearing, width (Ry)=  0.0073
                       cart. coord. in units 2pi/alat
        k(    1) = (   0.0000000   0.0000000   0.0000000), wk =   0.0011574
        k(    2) = (   0.0000000   0.0000000   0.0217119), wk =   0.0069444
        k(    3) = (   0.0000000   0.0000000   0.0434238), wk =   0.0069444
        k(    4) = (   0.0000000   0.0000000   0.0651357), wk =   0.0069444
        k(    5) = (   0.0000000   0.0000000   0.0868476), wk =   0.0069444
        k(    6) = (   0.0000000   0.0000000   0.1085596), wk =   0.0069444
        k(    7) = (   0.0000000   0.0000000  -0.1302715), wk =   0.0034722
        k(    8) = (   0.0000000   0.0217119   0.0217119), wk =   0.0138889
        k(    9) = (   0.0000000   0.0217119   0.0434238), wk =   0.0277778
        k(   10) = (   0.0000000   0.0217119   0.0651357), wk =   0.0277778
        k(   11) = (   0.0000000   0.0217119   0.0868476), wk =   0.0277778
        k(   12) = (   0.0000000   0.0217119   0.1085596), wk =   0.0277778
        k(   13) = (   0.0000000   0.0217119  -0.1302715), wk =   0.0138889
        k(   14) = (   0.0000000   0.0434238   0.0434238), wk =   0.0138889
        k(   15) = (   0.0000000   0.0434238   0.0651357), wk =   0.0277778
        k(   16) = (   0.0000000   0.0434238   0.0868476), wk =   0.0277778
        k(   17) = (   0.0000000   0.0434238   0.1085596), wk =   0.0277778
        k(   18) = (   0.0000000   0.0434238  -0.1302715), wk =   0.0138889
        k(   19) = (   0.0000000   0.0651357   0.0651357), wk =   0.0138889
        k(   20) = (   0.0000000   0.0651357   0.0868476), wk =   0.0277778
        k(   21) = (   0.0000000   0.0651357   0.1085596), wk =   0.0277778
        k(   22) = (   0.0000000   0.0651357  -0.1302715), wk =   0.0138889
        k(   23) = (   0.0000000   0.0868476   0.0868476), wk =   0.0138889
        k(   24) = (   0.0000000   0.0868476   0.1085596), wk =   0.0277778
        k(   25) = (   0.0000000   0.0868476  -0.1302715), wk =   0.0138889
        k(   26) = (   0.0000000   0.1085596   0.1085596), wk =   0.0138889
        k(   27) = (   0.0000000   0.1085596  -0.1302715), wk =   0.0138889
        k(   28) = (   0.0000000  -0.1302715  -0.1302715), wk =   0.0034722
        k(   29) = (   0.0217119   0.0217119   0.0217119), wk =   0.0092593
        k(   30) = (   0.0217119   0.0217119   0.0434238), wk =   0.0277778
        k(   31) = (   0.0217119   0.0217119   0.0651357), wk =   0.0277778
        k(   32) = (   0.0217119   0.0217119   0.0868476), wk =   0.0277778
        k(   33) = (   0.0217119   0.0217119   0.1085596), wk =   0.0277778
        k(   34) = (   0.0217119   0.0217119  -0.1302715), wk =   0.0138889
        k(   35) = (   0.0217119   0.0434238   0.0434238), wk =   0.0277778
        k(   36) = (   0.0217119   0.0434238   0.0651357), wk =   0.0555556
        k(   37) = (   0.0217119   0.0434238   0.0868476), wk =   0.0555556
        k(   38) = (   0.0217119   0.0434238   0.1085596), wk =   0.0555556
        k(   39) = (   0.0217119   0.0434238  -0.1302715), wk =   0.0277778
        k(   40) = (   0.0217119   0.0651357   0.0651357), wk =   0.0277778
        k(   41) = (   0.0217119   0.0651357   0.0868476), wk =   0.0555556
        k(   42) = (   0.0217119   0.0651357   0.1085596), wk =   0.0555556
        k(   43) = (   0.0217119   0.0651357  -0.1302715), wk =   0.0277778
        k(   44) = (   0.0217119   0.0868476   0.0868476), wk =   0.0277778
        k(   45) = (   0.0217119   0.0868476   0.1085596), wk =   0.0555556
        k(   46) = (   0.0217119   0.0868476  -0.1302715), wk =   0.0277778
        k(   47) = (   0.0217119   0.1085596   0.1085596), wk =   0.0277778
        k(   48) = (   0.0217119   0.1085596  -0.1302715), wk =   0.0277778
        k(   49) = (   0.0217119  -0.1302715  -0.1302715), wk =   0.0069444
        k(   50) = (   0.0434238   0.0434238   0.0434238), wk =   0.0092593
        k(   51) = (   0.0434238   0.0434238   0.0651357), wk =   0.0277778
        k(   52) = (   0.0434238   0.0434238   0.0868476), wk =   0.0277778
        k(   53) = (   0.0434238   0.0434238   0.1085596), wk =   0.0277778
        k(   54) = (   0.0434238   0.0434238  -0.1302715), wk =   0.0138889
        k(   55) = (   0.0434238   0.0651357   0.0651357), wk =   0.0277778
        k(   56) = (   0.0434238   0.0651357   0.0868476), wk =   0.0555556
        k(   57) = (   0.0434238   0.0651357   0.1085596), wk =   0.0555556
        k(   58) = (   0.0434238   0.0651357  -0.1302715), wk =   0.0277778
        k(   59) = (   0.0434238   0.0868476   0.0868476), wk =   0.0277778
        k(   60) = (   0.0434238   0.0868476   0.1085596), wk =   0.0555556
[...]
        k(   70) = (   0.0651357   0.0868476   0.1085596), wk =   0.0555556
        k(   71) = (   0.0651357   0.0868476  -0.1302715), wk =   0.0277778
        k(   72) = (   0.0651357   0.1085596   0.1085596), wk =   0.0277778
        k(   73) = (   0.0651357   0.1085596  -0.1302715), wk =   0.0277778
        k(   74) = (   0.0651357  -0.1302715  -0.1302715), wk =   0.0069444
        k(   75) = (   0.0868476   0.0868476   0.0868476), wk =   0.0092593
        k(   76) = (   0.0868476   0.0868476   0.1085596), wk =   0.0277778
        k(   77) = (   0.0868476   0.0868476  -0.1302715), wk =   0.0138889
        k(   78) = (   0.0868476   0.1085596   0.1085596), wk =   0.0277778
        k(   79) = (   0.0868476   0.1085596  -0.1302715), wk =   0.0277778
        k(   80) = (   0.0868476  -0.1302715  -0.1302715), wk =   0.0069444
        k(   81) = (   0.1085596   0.1085596   0.1085596), wk =   0.0092593
        k(   82) = (   0.1085596   0.1085596  -0.1302715), wk =   0.0138889
        k(   83) = (   0.1085596  -0.1302715  -0.1302715), wk =   0.0069444
        k(   84) = (  -0.1302715  -0.1302715  -0.1302715), wk =   0.0011574

     Largest allocated arrays     est. size (Mb)     dimensions
     Largest temporary arrays     est. size (Mb)     dimensions

     Initial potential from superposition of free atoms
     Check: negative starting charge=   -0.095417

     starting charge   66.99888, renormalised to   70.00000

     negative rho (up, down):  9.969E-02 0.000E+00

     *
     * You are using vdW-DF for exchange-correlation in this calculation.
     * Please cite the following three references that made this development
     * possible:
     *
     *   M. Dion, H. Rydberg, E. Schroder, D. C. Langreth, and
     *   B. I. Lundqvist, Phys. Rev. Lett. 92, 246401 (2004).
     *
     *   T. Thonhauser, V. R. Cooper, S. Li, A. Puzder, P. Hyldgaard, and
     *   D. C. Langreth, Phys. Rev. B 76, 125112 (2007).
     *
     *   G. Roman-Perez and J. M. Soler, Phys. Rev. Lett. 103, 096102 (2009).
     *
     *
     * If you are using vdW-DF2, please also cite:
     *
     *   K. Lee, E. D. Murray, L. Kong, B. I. Lundqvist, and
     *   D. C. Langreth, Phys. Rev. B 82, 081101(R) (2010).
     *
     *
     * If you are calculating the stress with vdW-DF, please also cite:
     *
     *   R. Sabatini, E. Kucukbenli, B. Kolb, T. Thonhauser, and
     *   S. de Gironcoli, J. Phys.: Condens. Matter 24, 424209 (2012).
     *

     Carrying out vdW-DF run using the following parameters:

     Nqs =      20    Nr_points =    1024   r_max =   100.000
     q_mesh =
               0.00001000     0.04494208     0.09755937     0.15916263
               0.23128650     0.31572767     0.41458969     0.53033537
               0.66584808     0.82450364     1.01025438     1.22772762
               1.48234092     1.78043706     2.12944203     2.53805004
               3.01644009     3.57652955     4.23227104     5.00000000

     Gradients computed in reciprocal space

     Starting wfc are   52 randomized atomic wfcs +    3 random wfc

     Self-consistent Calculation

     iteration #  1     ecut=    58.80 Ry     beta=0.10
     Davidson diagonalization with overlap
     ethr =  1.00E-02,  avg # of iterations =  4.1

[...]

     total energy              =   -1358.84126056 Ry
     Harris-Foulkes estimate   =   -1359.69240190 Ry
     estimated scf accuracy    <      10.83240306 Ry

[...]

     total energy              =   -1358.04390967 Ry
     Harris-Foulkes estimate   =   -1358.04390571 Ry
     estimated scf accuracy    <       0.00000002 Ry

     iteration # 14     ecut=    58.80 Ry     beta=0.10
     Davidson diagonalization with overlap
     ethr =  2.87E-11,  avg # of iterations =  3.0

     negative rho (up, down):  1.022E-01 0.000E+00

     End of self-consistent calculation

          k = 0.0000 0.0000 0.0000 (  2945 PWs)   bands (ev):

   -97.1155 -97.1099 -97.1099 -54.5379 -54.5379 -54.5379 -54.5311 -54.5311
   -54.5311 -54.3987 -54.3987 -54.3987 -53.0578 -19.3440 -19.3440 -19.3440
     7.0446  10.7644  10.7644  11.4181  11.4811  11.4811  11.4811  12.7363
    12.7363  12.7363  13.4017  13.4017  13.6096  13.8390  13.8390  13.8390
    16.1762  16.1762  17.5054  17.5054  17.5054  18.2591  18.2591  18.2591
    23.2067  25.3748  25.3748  25.7472  25.7472  25.7472  29.7382  29.7382
    29.7382  34.1133  34.1214  34.1214  34.1214  34.5939  34.5939

[...]

          k = 0.1086-0.1303-0.1303 (  2928 PWs)   bands (ev):

[...]

          k =-0.1303-0.1303-0.1303 (  2872 PWs)   bands (ev):

   -97.1117 -97.1117 -97.1117 -54.5482 -54.5482 -54.5482 -54.5189 -54.5189
   -54.5189 -54.4298 -54.3867 -54.3867 -53.0557 -19.3744 -19.3744 -19.3744
    10.6990  10.6990  10.6990  11.0908  12.5578  12.5578  12.5578  12.8111
    12.8111  12.8111  12.8325  12.8325  13.6902  13.6902  13.6902  14.9500
    15.4260  15.4260  15.4260  15.4780  15.4780  15.4780  18.4118  18.4118
    20.4338  23.0988  23.0988  23.0988  32.7735  32.7735  32.7735  32.8606
    32.8606  32.8606  33.9269  34.6928  34.6928  36.9874  36.9874

     the Fermi energy is    15.7485 ev

!    total energy              =   -1358.04392664 Ry
     Harris-Foulkes estimate   =   -1358.04390968 Ry
     estimated scf accuracy    <          4.5E-09 Ry

     The total energy is the sum of the following terms:

     one-electron contribution =    -902.96478732 Ry
     hartree contribution      =     491.23382417 Ry
     xc contribution           =    -163.54579891 Ry
     ewald contribution        =    -782.75339456 Ry
     smearing contrib. (-TS)   =      -0.01377002 Ry

     convergence has been achieved in  14 iterations

     Forces acting on atoms (Ry/au):

     negative rho (up, down):  1.022E-01 0.000E+00
     atom    1 type  1   force =     0.00000000    0.00000000    0.00000000
     atom    2 type  1   force =     0.00000000    0.00000000    0.00000000
     atom    3 type  1   force =     0.00000000    0.00000000    0.00000000
     atom    4 type  2   force =     0.00000000    0.00000000    0.00000000

     Total force =     0.000000     Total SCF correction =     0.000000
 !ASE

     General routines

     Parallel routines

   This run was terminated on:  21:54:18  24Oct2017

   JOB DONE.