     Program PWSCF v.5.1rc2 (svn rev. ) starts on 24Oct2017 at 21: 6: 0

     Current dimensions of program PWSCF are:
     Max number of different atomic species (ntypx) = 10
     Max number of k-points (npk) =  40000
     Max angular momentum in pseudopotentials (lmaxx) =  3

     IMPORTANT: XC functional enforced from input :
     Exchange-correlation      = BEEF-VDW ( 1  4 27 13 2)
     Any further DFT definition will be discarded
     Please, verify this is what you really want

     Subspace diagonalization in iterative solution of the eigenvalue problem:
     a serial algorithm will be used

     bravais-lattice index     =            0
     lattice parameter (alat)  =       1.8897  a.u.
     unit-cell volume          =     383.5019 (a.u.)^3
     number of atoms/cell      =            4
     number of atomic types    =            2
     number of electrons       =        75.00
     number of Kohn-Sham states=           57
     kinetic-energy cutoff     =      58.7989  Ry
     charge density cutoff     =     587.9892  Ry
     convergence threshold     =      7.3E-09
     mixing beta               =       0.1000
     number of iterations used =           10  local-TF  mixing
     Exchange-correlation      = BEEF-VDW ( 1  4 27 13 2)
     nstep                     =           50

     celldm(1)=   1.889726  celldm(2)=   0.000000  celldm(3)=   0.000000
     celldm(4)=   0.000000  celldm(5)=   0.000000  celldm(6)=   0.000000

     crystal axes: (cart. coord. in units of alat)
               a(1) = (   3.844651   0.000000   0.000000 )
               a(2) = (   0.000000   3.844651   0.000000 )
               a(3) = (   0.000000   0.000000   3.844651 )

     reciprocal axes: (cart. coord. in units 2 pi/alat)
               b(1) = (  0.260102  0.000000  0.000000 )
               b(2) = (  0.000000  0.260102  0.000000 )
               b(3) = (  0.000000  0.000000  0.260102 )

     PseudoPot. # 1 for Zn read from file:
     /home/vossj/suncat/psp/gbrv1.5pbe/Zn.UPF
     MD5 check sum: df62231357ef9e81f77b2b3087fa5675
     Pseudo is Ultrasoft, Zval = 20.0
     Generated by new atomic code, or converted to UPF format
     Using radial grid of  943 points,  6 beta functions with:
                l(1) =   0
                l(2) =   0
                l(3) =   1
                l(4) =   1
                l(5) =   2
                l(6) =   2
     Q(r) pseudized with  8 coefficients,  rinner =    1.100   1.100   1.100
                                                       1.100   1.100

     PseudoPot. # 2 for Rh read from file:
     /home/vossj/suncat/psp/gbrv1.5pbe/Rh.UPF
     MD5 check sum: 761627e959a2e3a1f56b0b5fe687810e
     Pseudo is Ultrasoft + core correction, Zval = 15.0
     Generated by new atomic code, or converted to UPF format
     Using radial grid of  969 points,  7 beta functions with:
                l(1) =   0
                l(2) =   0
                l(3) =   1
                l(4) =   1
                l(5) =   2
                l(6) =   2
                l(7) =   2
     Q(r) pseudized with  8 coefficients,  rinner =    1.200   1.200   1.200
                                                       1.200   1.200

     vdW kernel table read from file vdW_kernel_table
     MD5 check sum: 095c7af220d748ca6e76c0b4c6cfb241

     atomic species   valence    mass     pseudopotential
        Zn1           20.00    65.38000     Zn( 1.00)
        Rh1           15.00   102.90550     Rh( 1.00)

     48 Sym. Ops., with inversion, found (32 have fractional translation)

   Cartesian axes

     site n.     atom                  positions (alat units)
         1           Zn1 tau(   1) = (   0.0000000   0.0000000   0.0000000  )
         2           Zn1 tau(   2) = (   0.0000000   1.9223256   1.9223256  )
         3           Zn1 tau(   3) = (   1.9223256   0.0000000   1.9223256  )
         4           Rh1 tau(   4) = (   1.9223256   1.9223256   0.0000000  )

     number of k points=    84  Fermi-Dirac smearing, width (Ry)=  0.0073
                       cart. coord. in units 2pi/alat
        k(    1) = (   0.0000000   0.0000000   0.0000000), wk =   0.0011574
        k(    2) = (   0.0000000   0.0000000   0.0216751), wk =   0.0069444
        k(    3) = (   0.0000000   0.0000000   0.0433503), wk =   0.0069444
        k(    4) = (   0.0000000   0.0000000   0.0650254), wk =   0.0069444
        k(    5) = (   0.0000000   0.0000000   0.0867005), wk =   0.0069444
        k(    6) = (   0.0000000   0.0000000   0.1083757), wk =   0.0069444
        k(    7) = (   0.0000000   0.0000000  -0.1300508), wk =   0.0034722
        k(    8) = (   0.0000000   0.0216751   0.0216751), wk =   0.0138889
        k(    9) = (   0.0000000   0.0216751   0.0433503), wk =   0.0277778
        k(   10) = (   0.0000000   0.0216751   0.0650254), wk =   0.0277778
        k(   11) = (   0.0000000   0.0216751   0.0867005), wk =   0.0277778
        k(   12) = (   0.0000000   0.0216751   0.1083757), wk =   0.0277778
        k(   13) = (   0.0000000   0.0216751  -0.1300508), wk =   0.0138889
        k(   14) = (   0.0000000   0.0433503   0.0433503), wk =   0.0138889
        k(   15) = (   0.0000000   0.0433503   0.0650254), wk =   0.0277778
        k(   16) = (   0.0000000   0.0433503   0.0867005), wk =   0.0277778
        k(   17) = (   0.0000000   0.0433503   0.1083757), wk =   0.0277778
        k(   18) = (   0.0000000   0.0433503  -0.1300508), wk =   0.0138889
        k(   19) = (   0.0000000   0.0650254   0.0650254), wk =   0.0138889
        k(   20) = (   0.0000000   0.0650254   0.0867005), wk =   0.0277778
        k(   21) = (   0.0000000   0.0650254   0.1083757), wk =   0.0277778
        k(   22) = (   0.0000000   0.0650254  -0.1300508), wk =   0.0138889
        k(   23) = (   0.0000000   0.0867005   0.0867005), wk =   0.0138889
        k(   24) = (   0.0000000   0.0867005   0.1083757), wk =   0.0277778
        k(   25) = (   0.0000000   0.0867005  -0.1300508), wk =   0.0138889
        k(   26) = (   0.0000000   0.1083757   0.1083757), wk =   0.0138889
        k(   27) = (   0.0000000   0.1083757  -0.1300508), wk =   0.0138889
        k(   28) = (   0.0000000  -0.1300508  -0.1300508), wk =   0.0034722
        k(   29) = (   0.0216751   0.0216751   0.0216751), wk =   0.0092593
        k(   30) = (   0.0216751   0.0216751   0.0433503), wk =   0.0277778
        k(   31) = (   0.0216751   0.0216751   0.0650254), wk =   0.0277778
        k(   32) = (   0.0216751   0.0216751   0.0867005), wk =   0.0277778
        k(   33) = (   0.0216751   0.0216751   0.1083757), wk =   0.0277778
        k(   34) = (   0.0216751   0.0216751  -0.1300508), wk =   0.0138889
        k(   35) = (   0.0216751   0.0433503   0.0433503), wk =   0.0277778
        k(   36) = (   0.0216751   0.0433503   0.0650254), wk =   0.0555556
        k(   37) = (   0.0216751   0.0433503   0.0867005), wk =   0.0555556
        k(   38) = (   0.0216751   0.0433503   0.1083757), wk =   0.0555556
        k(   39) = (   0.0216751   0.0433503  -0.1300508), wk =   0.0277778
        k(   40) = (   0.0216751   0.0650254   0.0650254), wk =   0.0277778
        k(   41) = (   0.0216751   0.0650254   0.0867005), wk =   0.0555556
        k(   42) = (   0.0216751   0.0650254   0.1083757), wk =   0.0555556
        k(   43) = (   0.0216751   0.0650254  -0.1300508), wk =   0.0277778
        k(   44) = (   0.0216751   0.0867005   0.0867005), wk =   0.0277778
        k(   45) = (   0.0216751   0.0867005   0.1083757), wk =   0.0555556
        k(   46) = (   0.0216751   0.0867005  -0.1300508), wk =   0.0277778
        k(   47) = (   0.0216751   0.1083757   0.1083757), wk =   0.0277778
        k(   48) = (   0.0216751   0.1083757  -0.1300508), wk =   0.0277778
        k(   49) = (   0.0216751  -0.1300508  -0.1300508), wk =   0.0069444
        k(   50) = (   0.0433503   0.0433503   0.0433503), wk =   0.0092593
        k(   51) = (   0.0433503   0.0433503   0.0650254), wk =   0.0277778
        k(   52) = (   0.0433503   0.0433503   0.0867005), wk =   0.0277778
        k(   53) = (   0.0433503   0.0433503   0.1083757), wk =   0.0277778
        k(   54) = (   0.0433503   0.0433503  -0.1300508), wk =   0.0138889
        k(   55) = (   0.0433503   0.0650254   0.0650254), wk =   0.0277778
        k(   56) = (   0.0433503   0.0650254   0.0867005), wk =   0.0555556
        k(   57) = (   0.0433503   0.0650254   0.1083757), wk =   0.0555556
        k(   58) = (   0.0433503   0.0650254  -0.1300508), wk =   0.0277778
        k(   59) = (   0.0433503   0.0867005   0.0867005), wk =   0.0277778
        k(   60) = (   0.0433503   0.0867005   0.1083757), wk =   0.0555556
[...]
        k(   70) = (   0.0650254   0.0867005   0.1083757), wk =   0.0555556
        k(   71) = (   0.0650254   0.0867005  -0.1300508), wk =   0.0277778
        k(   72) = (   0.0650254   0.1083757   0.1083757), wk =   0.0277778
        k(   73) = (   0.0650254   0.1083757  -0.1300508), wk =   0.0277778
        k(   74) = (   0.0650254  -0.1300508  -0.1300508), wk =   0.0069444
        k(   75) = (   0.0867005   0.0867005   0.0867005), wk =   0.0092593
        k(   76) = (   0.0867005   0.0867005   0.1083757), wk =   0.0277778
        k(   77) = (   0.0867005   0.0867005  -0.1300508), wk =   0.0138889
        k(   78) = (   0.0867005   0.1083757   0.1083757), wk =   0.0277778
        k(   79) = (   0.0867005   0.1083757  -0.1300508), wk =   0.0277778
        k(   80) = (   0.0867005  -0.1300508  -0.1300508), wk =   0.0069444
        k(   81) = (   0.1083757   0.1083757   0.1083757), wk =   0.0092593
        k(   82) = (   0.1083757   0.1083757  -0.1300508), wk =   0.0138889
        k(   83) = (   0.1083757  -0.1300508  -0.1300508), wk =   0.0069444
        k(   84) = (  -0.1300508  -0.1300508  -0.1300508), wk =   0.0011574

     Largest allocated arrays     est. size (Mb)     dimensions
     Largest temporary arrays     est. size (Mb)     dimensions

     Initial potential from superposition of free atoms
     Check: negative starting charge=   -0.056247

     starting charge   74.49948, renormalised to   75.00000

     negative rho (up, down):  5.662E-02 0.000E+00

     *
     * You are using vdW-DF for exchange-correlation in this calculation.
     * Please cite the following three references that made this development
     * possible:
     *
     *   M. Dion, H. Rydberg, E. Schroder, D. C. Langreth, and
     *   B. I. Lundqvist, Phys. Rev. Lett. 92, 246401 (2004).
     *
     *   T. Thonhauser, V. R. Cooper, S. Li, A. Puzder, P. Hyldgaard, and
     *   D. C. Langreth, Phys. Rev. B 76, 125112 (2007).
     *
     *   G. Roman-Perez and J. M. Soler, Phys. Rev. Lett. 103, 096102 (2009).
     *
     *
     * If you are using vdW-DF2, please also cite:
     *
     *   K. Lee, E. D. Murray, L. Kong, B. I. Lundqvist, and
     *   D. C. Langreth, Phys. Rev. B 82, 081101(R) (2010).
     *
     *
     * If you are calculating the stress with vdW-DF, please also cite:
     *
     *   R. Sabatini, E. Kucukbenli, B. Kolb, T. Thonhauser, and
     *   S. de Gironcoli, J. Phys.: Condens. Matter 24, 424209 (2012).
     *

     Carrying out vdW-DF run using the following parameters:

     Nqs =      20    Nr_points =    1024   r_max =   100.000
     q_mesh =
               0.00001000     0.04494208     0.09755937     0.15916263
               0.23128650     0.31572767     0.41458969     0.53033537
               0.66584808     0.82450364     1.01025438     1.22772762
               1.48234092     1.78043706     2.12944203     2.53805004
               3.01644009     3.57652955     4.23227104     5.00000000

     Gradients computed in reciprocal space

     Starting wfc are   51 randomized atomic wfcs +    6 random wfc

     Self-consistent Calculation

     iteration #  1     ecut=    58.80 Ry     beta=0.10
     Davidson diagonalization with overlap
     ethr =  1.00E-02,  avg # of iterations =  4.7

[...]

     total energy              =   -1560.92563023 Ry
     Harris-Foulkes estimate   =   -1561.02406528 Ry
     estimated scf accuracy    <       1.69120998 Ry

[...]

     total energy              =   -1560.68828076 Ry
     Harris-Foulkes estimate   =   -1560.68828054 Ry
     estimated scf accuracy    <          7.6E-09 Ry

     iteration # 15     ecut=    58.80 Ry     beta=0.10
     Davidson diagonalization with overlap
     ethr =  1.01E-11,  avg # of iterations =  2.0

     negative rho (up, down):  5.746E-02 0.000E+00

     End of self-consistent calculation

          k = 0.0000 0.0000 0.0000 (  2945 PWs)   bands (ev):

  -110.9180-110.9152-110.9152 -65.1333 -65.1333 -65.1333 -65.0762 -65.0762
   -65.0762 -65.0756 -65.0756 -65.0756 -30.4160 -30.4160 -30.4160   5.6845
     7.2695   7.4348   7.4348   7.4348   7.4957   7.4957   8.2148   8.2148
     8.2148   8.4822   8.4822   8.7309   8.7790   8.7790   8.7790  12.9914
    12.9914  14.3201  14.3201  14.3201  15.6412  15.6412  15.6412  20.4024
    20.4024  20.6667  24.5314  24.5314  24.5314  27.1228  27.1228  27.1228
    30.5302  30.5302  30.5302  31.4221  31.4221  34.2172  34.3817  36.9468
    36.9468

[...]

          k = 0.1084-0.1301-0.1301 (  2936 PWs)   bands (ev):

[...]

          k =-0.1301-0.1301-0.1301 (  2872 PWs)   bands (ev):

  -110.9161-110.9161-110.9161 -65.1477 -65.1237 -65.1237 -65.0848 -65.0848
   -65.0848 -65.0688 -65.0688 -65.0688 -30.4214 -30.4214 -30.4214   7.3285
     7.3285   7.3285   7.4681   7.9798   7.9798   7.9798   8.1894   8.1894
     8.1894   8.3616   8.3616   8.7191   8.7191   8.7191  12.0185  12.0185
    12.0185  12.6722  13.9921  13.9921  13.9921  14.5344  14.5344  17.8350
    17.8350  17.8350  18.7544  31.6400  31.6400  31.6400  31.8959  31.8959
    33.0877  33.0877  33.0877  33.1792  35.4131  35.4131  35.4131  36.4468
    36.4468

     the Fermi energy is    15.7384 ev

!    total energy              =   -1560.68828171 Ry
     Harris-Foulkes estimate   =   -1560.68828076 Ry
     estimated scf accuracy    <          4.8E-11 Ry

     The total energy is the sum of the following terms:

     one-electron contribution =   -1090.91385313 Ry
     hartree contribution      =     585.05211347 Ry
     xc contribution           =    -161.57529048 Ry
     ewald contribution        =    -893.24672083 Ry
     smearing contrib. (-TS)   =      -0.00453074 Ry

     convergence has been achieved in  15 iterations

     Forces acting on atoms (Ry/au):

     negative rho (up, down):  5.746E-02 0.000E+00
     atom    1 type  1   force =     0.00000000    0.00000000    0.00000000
     atom    2 type  1   force =     0.00000000    0.00000000    0.00000000
     atom    3 type  1   force =     0.00000000    0.00000000    0.00000000
     atom    4 type  2   force =     0.00000000    0.00000000   -0.00000000

     Total force =     0.000000     Total SCF correction =     0.000000
 !ASE

     General routines

     Parallel routines

   This run was terminated on:  21: 7: 8  24Oct2017

   JOB DONE.