     Program PWSCF v.5.1rc2 (svn rev. ) starts on 25Oct2017 at 12:12:57

     Current dimensions of program PWSCF are:
     Max number of different atomic species (ntypx) = 10
     Max number of k-points (npk) =  40000
     Max angular momentum in pseudopotentials (lmaxx) =  3

     IMPORTANT: XC functional enforced from input :
     Exchange-correlation      = BEEF-VDW ( 1  4 27 13 2)
     Any further DFT definition will be discarded
     Please, verify this is what you really want

     Subspace diagonalization in iterative solution of the eigenvalue problem:
     a serial algorithm will be used

     bravais-lattice index     =            0
     lattice parameter (alat)  =       1.8897  a.u.
     unit-cell volume          =     549.5097 (a.u.)^3
     number of atoms/cell      =            4
     number of atomic types    =            2
     number of electrons       =        52.00
     number of Kohn-Sham states=           46
     kinetic-energy cutoff     =      58.7989  Ry
     charge density cutoff     =     587.9892  Ry
     convergence threshold     =      7.3E-09
     mixing beta               =       0.1000
     number of iterations used =           10  local-TF  mixing
     Exchange-correlation      = BEEF-VDW ( 1  4 27 13 2)
     nstep                     =           50

     celldm(1)=   1.889726  celldm(2)=   0.000000  celldm(3)=   0.000000
     celldm(4)=   0.000000  celldm(5)=   0.000000  celldm(6)=   0.000000

     crystal axes: (cart. coord. in units of alat)
               a(1) = (   4.334373   0.000000   0.000000 )
               a(2) = (   0.000000   4.334373   0.000000 )
               a(3) = (   0.000000   0.000000   4.334373 )

     reciprocal axes: (cart. coord. in units 2 pi/alat)
               b(1) = (  0.230714  0.000000  0.000000 )
               b(2) = (  0.000000  0.230714  0.000000 )
               b(3) = (  0.000000  0.000000  0.230714 )

     PseudoPot. # 1 for Zr read from file:
     /home/vossj/suncat/psp/gbrv1.5pbe/Zr.UPF
     MD5 check sum: 5db81b1e868ab7776c4564c113de050b
     Pseudo is Ultrasoft + core correction, Zval = 12.0
     Generated by new atomic code, or converted to UPF format
     Using radial grid of  887 points,  6 beta functions with:
                l(1) =   0
                l(2) =   0
                l(3) =   1
                l(4) =   1
                l(5) =   2
                l(6) =   2
     Q(r) pseudized with  6 coefficients,  rinner =    1.200   1.200   1.200
                                                       1.200   1.200

     PseudoPot. # 2 for Os read from file:
     /home/vossj/suncat/psp/gbrv1.5pbe/Os.UPF
     MD5 check sum: a3fb40a04f0c37c25c34bbc47164c9a8
     Pseudo is Ultrasoft + core correction, Zval = 16.0
     Generated by new atomic code, or converted to UPF format
     Using radial grid of  983 points,  8 beta functions with:
                l(1) =   0
                l(2) =   0
                l(3) =   1
                l(4) =   1
                l(5) =   2
                l(6) =   2
                l(7) =   3
                l(8) =   3
     Q(r) pseudized with  8 coefficients,  rinner =    1.150   1.150   1.150
                                                       1.150   1.150   1.150
                                                       1.150

     vdW kernel table read from file vdW_kernel_table
     MD5 check sum: 095c7af220d748ca6e76c0b4c6cfb241

     atomic species   valence    mass     pseudopotential
        Zr1           12.00    91.22400     Zr( 1.00)
        Os1           16.00   190.23000     Os( 1.00)

     48 Sym. Ops., with inversion, found (32 have fractional translation)

   Cartesian axes

     site n.     atom                  positions (alat units)
         1           Zr1 tau(   1) = (   0.0000000   0.0000000   0.0000000  )
         2           Zr1 tau(   2) = (   0.0000000   2.1671864   2.1671864  )
         3           Zr1 tau(   3) = (   2.1671864   0.0000000   2.1671864  )
         4           Os1 tau(   4) = (   2.1671864   2.1671864   0.0000000  )

     number of k points=    84  Fermi-Dirac smearing, width (Ry)=  0.0073
                       cart. coord. in units 2pi/alat
        k(    1) = (   0.0000000   0.0000000   0.0000000), wk =   0.0011574
        k(    2) = (   0.0000000   0.0000000   0.0192262), wk =   0.0069444
        k(    3) = (   0.0000000   0.0000000   0.0384523), wk =   0.0069444
        k(    4) = (   0.0000000   0.0000000   0.0576785), wk =   0.0069444
        k(    5) = (   0.0000000   0.0000000   0.0769046), wk =   0.0069444
        k(    6) = (   0.0000000   0.0000000   0.0961308), wk =   0.0069444
        k(    7) = (   0.0000000   0.0000000  -0.1153569), wk =   0.0034722
        k(    8) = (   0.0000000   0.0192262   0.0192262), wk =   0.0138889
        k(    9) = (   0.0000000   0.0192262   0.0384523), wk =   0.0277778
        k(   10) = (   0.0000000   0.0192262   0.0576785), wk =   0.0277778
        k(   11) = (   0.0000000   0.0192262   0.0769046), wk =   0.0277778
        k(   12) = (   0.0000000   0.0192262   0.0961308), wk =   0.0277778
        k(   13) = (   0.0000000   0.0192262  -0.1153569), wk =   0.0138889
        k(   14) = (   0.0000000   0.0384523   0.0384523), wk =   0.0138889
        k(   15) = (   0.0000000   0.0384523   0.0576785), wk =   0.0277778
        k(   16) = (   0.0000000   0.0384523   0.0769046), wk =   0.0277778
        k(   17) = (   0.0000000   0.0384523   0.0961308), wk =   0.0277778
        k(   18) = (   0.0000000   0.0384523  -0.1153569), wk =   0.0138889
        k(   19) = (   0.0000000   0.0576785   0.0576785), wk =   0.0138889
        k(   20) = (   0.0000000   0.0576785   0.0769046), wk =   0.0277778
        k(   21) = (   0.0000000   0.0576785   0.0961308), wk =   0.0277778
        k(   22) = (   0.0000000   0.0576785  -0.1153569), wk =   0.0138889
        k(   23) = (   0.0000000   0.0769046   0.0769046), wk =   0.0138889
        k(   24) = (   0.0000000   0.0769046   0.0961308), wk =   0.0277778
        k(   25) = (   0.0000000   0.0769046  -0.1153569), wk =   0.0138889
        k(   26) = (   0.0000000   0.0961308   0.0961308), wk =   0.0138889
        k(   27) = (   0.0000000   0.0961308  -0.1153569), wk =   0.0138889
        k(   28) = (   0.0000000  -0.1153569  -0.1153569), wk =   0.0034722
        k(   29) = (   0.0192262   0.0192262   0.0192262), wk =   0.0092593
        k(   30) = (   0.0192262   0.0192262   0.0384523), wk =   0.0277778
        k(   31) = (   0.0192262   0.0192262   0.0576785), wk =   0.0277778
        k(   32) = (   0.0192262   0.0192262   0.0769046), wk =   0.0277778
        k(   33) = (   0.0192262   0.0192262   0.0961308), wk =   0.0277778
        k(   34) = (   0.0192262   0.0192262  -0.1153569), wk =   0.0138889
        k(   35) = (   0.0192262   0.0384523   0.0384523), wk =   0.0277778
        k(   36) = (   0.0192262   0.0384523   0.0576785), wk =   0.0555556
        k(   37) = (   0.0192262   0.0384523   0.0769046), wk =   0.0555556
        k(   38) = (   0.0192262   0.0384523   0.0961308), wk =   0.0555556
        k(   39) = (   0.0192262   0.0384523  -0.1153569), wk =   0.0277778
        k(   40) = (   0.0192262   0.0576785   0.0576785), wk =   0.0277778
        k(   41) = (   0.0192262   0.0576785   0.0769046), wk =   0.0555556
        k(   42) = (   0.0192262   0.0576785   0.0961308), wk =   0.0555556
        k(   43) = (   0.0192262   0.0576785  -0.1153569), wk =   0.0277778
        k(   44) = (   0.0192262   0.0769046   0.0769046), wk =   0.0277778
        k(   45) = (   0.0192262   0.0769046   0.0961308), wk =   0.0555556
        k(   46) = (   0.0192262   0.0769046  -0.1153569), wk =   0.0277778
        k(   47) = (   0.0192262   0.0961308   0.0961308), wk =   0.0277778
        k(   48) = (   0.0192262   0.0961308  -0.1153569), wk =   0.0277778
        k(   49) = (   0.0192262  -0.1153569  -0.1153569), wk =   0.0069444
        k(   50) = (   0.0384523   0.0384523   0.0384523), wk =   0.0092593
        k(   51) = (   0.0384523   0.0384523   0.0576785), wk =   0.0277778
        k(   52) = (   0.0384523   0.0384523   0.0769046), wk =   0.0277778
        k(   53) = (   0.0384523   0.0384523   0.0961308), wk =   0.0277778
        k(   54) = (   0.0384523   0.0384523  -0.1153569), wk =   0.0138889
        k(   55) = (   0.0384523   0.0576785   0.0576785), wk =   0.0277778
        k(   56) = (   0.0384523   0.0576785   0.0769046), wk =   0.0555556
        k(   57) = (   0.0384523   0.0576785   0.0961308), wk =   0.0555556
        k(   58) = (   0.0384523   0.0576785  -0.1153569), wk =   0.0277778
        k(   59) = (   0.0384523   0.0769046   0.0769046), wk =   0.0277778
        k(   60) = (   0.0384523   0.0769046   0.0961308), wk =   0.0555556
[...]
        k(   70) = (   0.0576785   0.0769046   0.0961308), wk =   0.0555556
        k(   71) = (   0.0576785   0.0769046  -0.1153569), wk =   0.0277778
        k(   72) = (   0.0576785   0.0961308   0.0961308), wk =   0.0277778
        k(   73) = (   0.0576785   0.0961308  -0.1153569), wk =   0.0277778
        k(   74) = (   0.0576785  -0.1153569  -0.1153569), wk =   0.0069444
        k(   75) = (   0.0769046   0.0769046   0.0769046), wk =   0.0092593
        k(   76) = (   0.0769046   0.0769046   0.0961308), wk =   0.0277778
        k(   77) = (   0.0769046   0.0769046  -0.1153569), wk =   0.0138889
        k(   78) = (   0.0769046   0.0961308   0.0961308), wk =   0.0277778
        k(   79) = (   0.0769046   0.0961308  -0.1153569), wk =   0.0277778
        k(   80) = (   0.0769046  -0.1153569  -0.1153569), wk =   0.0069444
        k(   81) = (   0.0961308   0.0961308   0.0961308), wk =   0.0092593
        k(   82) = (   0.0961308   0.0961308  -0.1153569), wk =   0.0138889
        k(   83) = (   0.0961308  -0.1153569  -0.1153569), wk =   0.0069444
        k(   84) = (  -0.1153569  -0.1153569  -0.1153569), wk =   0.0011574

     Largest allocated arrays     est. size (Mb)     dimensions
     Largest temporary arrays     est. size (Mb)     dimensions

     Initial potential from superposition of free atoms
     Check: negative starting charge=   -0.301917

     starting charge   51.49352, renormalised to   52.00000

     negative rho (up, down):  3.049E-01 0.000E+00

     *
     * You are using vdW-DF for exchange-correlation in this calculation.
     * Please cite the following three references that made this development
     * possible:
     *
     *   M. Dion, H. Rydberg, E. Schroder, D. C. Langreth, and
     *   B. I. Lundqvist, Phys. Rev. Lett. 92, 246401 (2004).
     *
     *   T. Thonhauser, V. R. Cooper, S. Li, A. Puzder, P. Hyldgaard, and
     *   D. C. Langreth, Phys. Rev. B 76, 125112 (2007).
     *
     *   G. Roman-Perez and J. M. Soler, Phys. Rev. Lett. 103, 096102 (2009).
     *
     *
     * If you are using vdW-DF2, please also cite:
     *
     *   K. Lee, E. D. Murray, L. Kong, B. I. Lundqvist, and
     *   D. C. Langreth, Phys. Rev. B 82, 081101(R) (2010).
     *
     *
     * If you are calculating the stress with vdW-DF, please also cite:
     *
     *   R. Sabatini, E. Kucukbenli, B. Kolb, T. Thonhauser, and
     *   S. de Gironcoli, J. Phys.: Condens. Matter 24, 424209 (2012).
     *

     Carrying out vdW-DF run using the following parameters:

     Nqs =      20    Nr_points =    1024   r_max =   100.000
     q_mesh =
               0.00001000     0.04494208     0.09755937     0.15916263
               0.23128650     0.31572767     0.41458969     0.53033537
               0.66584808     0.82450364     1.01025438     1.22772762
               1.48234092     1.78043706     2.12944203     2.53805004
               3.01644009     3.57652955     4.23227104     5.00000000

     Gradients computed in reciprocal space

     Starting wfc are   52 randomized atomic wfcs

     Self-consistent Calculation

     iteration #  1     ecut=    58.80 Ry     beta=0.10
     Davidson diagonalization with overlap
     ethr =  1.00E-02,  avg # of iterations =  4.2

     Threshold (ethr) on eigenvalues was too large:
     Diagonalizing with lowered threshold

     Davidson diagonalization with overlap
     ethr =  9.85E-04,  avg # of iterations =  1.0

[...]

     total energy              =    -499.24012623 Ry
     Harris-Foulkes estimate   =    -499.26191755 Ry
     estimated scf accuracy    <       0.50953574 Ry

[...]

     total energy              =    -499.18244201 Ry
     Harris-Foulkes estimate   =    -499.18244077 Ry
     estimated scf accuracy    <       0.00000047 Ry

     iteration # 14     ecut=    58.80 Ry     beta=0.10
     Davidson diagonalization with overlap
     ethr =  8.95E-10,  avg # of iterations =  1.0

     negative rho (up, down):  3.067E-01 0.000E+00

     End of self-consistent calculation

          k = 0.0000 0.0000 0.0000 (  4139 PWs)   bands (ev):

   -69.6528 -32.8355 -32.6062 -32.6062 -28.9070 -28.9070 -28.9070 -11.1798
   -11.1798 -11.1798 -10.5857 -10.5857 -10.5857 -10.2724 -10.2724 -10.2724
     9.7441  12.3380  12.3630  12.3630  13.0263  13.0263  13.0263  16.2767
    16.2767  16.2767  18.2909  18.2909  19.3477  19.3477  19.3477  20.7129
    20.7129  20.7129  21.0154  21.0154  21.9931  22.5105  22.5105  22.5105
    26.1271  26.1271  26.1271  26.2525  27.6003  27.6889

[...]

          k = 0.0961-0.1154-0.1154 (  4208 PWs)   bands (ev):

[...]

          k =-0.1154-0.1154-0.1154 (  4224 PWs)   bands (ev):

   -69.6528 -32.6810 -32.6810 -32.6810 -28.9090 -28.9090 -28.9090 -11.5257
   -11.0830 -11.0830 -11.0830 -10.3153 -10.3153 -10.2801 -10.2801 -10.2801
    11.6747  12.5919  12.5919  12.5919  15.0202  15.0202  15.9775  15.9775
    15.9775  16.9867  16.9867  16.9867  17.1981  17.1981  17.1981  17.7878
    20.3281  20.3281  20.3281  20.8234  20.8234  21.9447  21.9447  21.9447
    24.0304  26.7488  26.7488  26.7488  27.2372  27.3615

     the Fermi energy is    16.1718 ev

!    total energy              =    -499.18244762 Ry
     Harris-Foulkes estimate   =    -499.18244204 Ry
     estimated scf accuracy    <          8.8E-10 Ry

     The total energy is the sum of the following terms:

     one-electron contribution =     -94.96027375 Ry
     hartree contribution      =      71.63613030 Ry
     xc contribution           =     -94.14377090 Ry
     ewald contribution        =    -381.70052470 Ry
     smearing contrib. (-TS)   =      -0.01400858 Ry

     convergence has been achieved in  14 iterations

     Forces acting on atoms (Ry/au):

     negative rho (up, down):  3.067E-01 0.000E+00
     atom    1 type  1   force =     0.00000000   -0.00000000    0.00000000
     atom    2 type  1   force =     0.00000000   -0.00000000    0.00000000
     atom    3 type  1   force =     0.00000000    0.00000000    0.00000000
     atom    4 type  2   force =     0.00000000    0.00000000    0.00000000

     Total force =     0.000000     Total SCF correction =     0.000000
 !ASE

     General routines

     Parallel routines

   This run was terminated on:  12:13:59  25Oct2017

   JOB DONE.