     Program PWSCF v.5.1rc2 (svn rev. ) starts on 25Oct2017 at  7:45:16

     Current dimensions of program PWSCF are:
     Max number of different atomic species (ntypx) = 10
     Max number of k-points (npk) =  40000
     Max angular momentum in pseudopotentials (lmaxx) =  3

     IMPORTANT: XC functional enforced from input :
     Exchange-correlation      = BEEF-VDW ( 1  4 27 13 2)
     Any further DFT definition will be discarded
     Please, verify this is what you really want

     Subspace diagonalization in iterative solution of the eigenvalue problem:
     a serial algorithm will be used

     bravais-lattice index     =            0
     lattice parameter (alat)  =       1.8897  a.u.
     unit-cell volume          =     417.6647 (a.u.)^3
     number of atoms/cell      =            4
     number of atomic types    =            2
     number of electrons       =        72.00
     number of Kohn-Sham states=           56
     kinetic-energy cutoff     =      58.7989  Ry
     charge density cutoff     =     587.9892  Ry
     convergence threshold     =      7.3E-09
     mixing beta               =       0.1000
     number of iterations used =           10  local-TF  mixing
     Exchange-correlation      = BEEF-VDW ( 1  4 27 13 2)
     nstep                     =           50

     celldm(1)=   1.889726  celldm(2)=   0.000000  celldm(3)=   0.000000
     celldm(4)=   0.000000  celldm(5)=   0.000000  celldm(6)=   0.000000

     crystal axes: (cart. coord. in units of alat)
               a(1) = (   3.955582   0.000000   0.000000 )
               a(2) = (   0.000000   3.955582   0.000000 )
               a(3) = (   0.000000   0.000000   3.955582 )

     reciprocal axes: (cart. coord. in units 2 pi/alat)
               b(1) = (  0.252807  0.000000  0.000000 )
               b(2) = (  0.000000  0.252807  0.000000 )
               b(3) = (  0.000000  0.000000  0.252807 )

     PseudoPot. # 1 for Ga read from file:
     /home/vossj/suncat/psp/gbrv1.5pbe/Ga.UPF
     MD5 check sum: ccd671392a58a050fbb373893b4fcd66
     Pseudo is Ultrasoft + core correction, Zval = 19.0
     Generated by new atomic code, or converted to UPF format
     Using radial grid of  871 points,  6 beta functions with:
                l(1) =   0
                l(2) =   0
                l(3) =   1
                l(4) =   1
                l(5) =   2
                l(6) =   2
     Q(r) pseudized with  8 coefficients,  rinner =    1.250   1.250   1.250
                                                       1.250   1.250

     PseudoPot. # 2 for Re read from file:
     /home/vossj/suncat/psp/gbrv1.5pbe/Re.UPF
     MD5 check sum: 85f993410f3e006da9d71c142b4ad953
     Pseudo is Ultrasoft + core correction, Zval = 15.0
     Generated by new atomic code, or converted to UPF format
     Using radial grid of  981 points,  8 beta functions with:
                l(1) =   0
                l(2) =   0
                l(3) =   1
                l(4) =   1
                l(5) =   2
                l(6) =   2
                l(7) =   3
                l(8) =   3
     Q(r) pseudized with  8 coefficients,  rinner =    1.150   1.150   1.150
                                                       1.150   1.150   1.150
                                                       1.150

     vdW kernel table read from file vdW_kernel_table
     MD5 check sum: 095c7af220d748ca6e76c0b4c6cfb241

     atomic species   valence    mass     pseudopotential
        Ga1           19.00    69.72300     Ga( 1.00)
        Re1           15.00   186.20700     Re( 1.00)

     48 Sym. Ops., with inversion, found (32 have fractional translation)

   Cartesian axes

     site n.     atom                  positions (alat units)
         1           Ga1 tau(   1) = (   0.0000000   0.0000000   0.0000000  )
         2           Ga1 tau(   2) = (   0.0000000   1.9777910   1.9777910  )
         3           Ga1 tau(   3) = (   1.9777910   0.0000000   1.9777910  )
         4           Re1 tau(   4) = (   1.9777910   1.9777910   0.0000000  )

     number of k points=    84  Fermi-Dirac smearing, width (Ry)=  0.0073
                       cart. coord. in units 2pi/alat
        k(    1) = (   0.0000000   0.0000000   0.0000000), wk =   0.0011574
        k(    2) = (   0.0000000   0.0000000   0.0210673), wk =   0.0069444
        k(    3) = (   0.0000000   0.0000000   0.0421345), wk =   0.0069444
        k(    4) = (   0.0000000   0.0000000   0.0632018), wk =   0.0069444
        k(    5) = (   0.0000000   0.0000000   0.0842691), wk =   0.0069444
        k(    6) = (   0.0000000   0.0000000   0.1053364), wk =   0.0069444
        k(    7) = (   0.0000000   0.0000000  -0.1264036), wk =   0.0034722
        k(    8) = (   0.0000000   0.0210673   0.0210673), wk =   0.0138889
        k(    9) = (   0.0000000   0.0210673   0.0421345), wk =   0.0277778
        k(   10) = (   0.0000000   0.0210673   0.0632018), wk =   0.0277778
        k(   11) = (   0.0000000   0.0210673   0.0842691), wk =   0.0277778
        k(   12) = (   0.0000000   0.0210673   0.1053364), wk =   0.0277778
        k(   13) = (   0.0000000   0.0210673  -0.1264036), wk =   0.0138889
        k(   14) = (   0.0000000   0.0421345   0.0421345), wk =   0.0138889
        k(   15) = (   0.0000000   0.0421345   0.0632018), wk =   0.0277778
        k(   16) = (   0.0000000   0.0421345   0.0842691), wk =   0.0277778
        k(   17) = (   0.0000000   0.0421345   0.1053364), wk =   0.0277778
        k(   18) = (   0.0000000   0.0421345  -0.1264036), wk =   0.0138889
        k(   19) = (   0.0000000   0.0632018   0.0632018), wk =   0.0138889
        k(   20) = (   0.0000000   0.0632018   0.0842691), wk =   0.0277778
        k(   21) = (   0.0000000   0.0632018   0.1053364), wk =   0.0277778
        k(   22) = (   0.0000000   0.0632018  -0.1264036), wk =   0.0138889
        k(   23) = (   0.0000000   0.0842691   0.0842691), wk =   0.0138889
        k(   24) = (   0.0000000   0.0842691   0.1053364), wk =   0.0277778
        k(   25) = (   0.0000000   0.0842691  -0.1264036), wk =   0.0138889
        k(   26) = (   0.0000000   0.1053364   0.1053364), wk =   0.0138889
        k(   27) = (   0.0000000   0.1053364  -0.1264036), wk =   0.0138889
        k(   28) = (   0.0000000  -0.1264036  -0.1264036), wk =   0.0034722
        k(   29) = (   0.0210673   0.0210673   0.0210673), wk =   0.0092593
        k(   30) = (   0.0210673   0.0210673   0.0421345), wk =   0.0277778
        k(   31) = (   0.0210673   0.0210673   0.0632018), wk =   0.0277778
        k(   32) = (   0.0210673   0.0210673   0.0842691), wk =   0.0277778
        k(   33) = (   0.0210673   0.0210673   0.1053364), wk =   0.0277778
        k(   34) = (   0.0210673   0.0210673  -0.1264036), wk =   0.0138889
        k(   35) = (   0.0210673   0.0421345   0.0421345), wk =   0.0277778
        k(   36) = (   0.0210673   0.0421345   0.0632018), wk =   0.0555556
        k(   37) = (   0.0210673   0.0421345   0.0842691), wk =   0.0555556
        k(   38) = (   0.0210673   0.0421345   0.1053364), wk =   0.0555556
        k(   39) = (   0.0210673   0.0421345  -0.1264036), wk =   0.0277778
        k(   40) = (   0.0210673   0.0632018   0.0632018), wk =   0.0277778
        k(   41) = (   0.0210673   0.0632018   0.0842691), wk =   0.0555556
        k(   42) = (   0.0210673   0.0632018   0.1053364), wk =   0.0555556
        k(   43) = (   0.0210673   0.0632018  -0.1264036), wk =   0.0277778
        k(   44) = (   0.0210673   0.0842691   0.0842691), wk =   0.0277778
        k(   45) = (   0.0210673   0.0842691   0.1053364), wk =   0.0555556
        k(   46) = (   0.0210673   0.0842691  -0.1264036), wk =   0.0277778
        k(   47) = (   0.0210673   0.1053364   0.1053364), wk =   0.0277778
        k(   48) = (   0.0210673   0.1053364  -0.1264036), wk =   0.0277778
        k(   49) = (   0.0210673  -0.1264036  -0.1264036), wk =   0.0069444
        k(   50) = (   0.0421345   0.0421345   0.0421345), wk =   0.0092593
        k(   51) = (   0.0421345   0.0421345   0.0632018), wk =   0.0277778
        k(   52) = (   0.0421345   0.0421345   0.0842691), wk =   0.0277778
        k(   53) = (   0.0421345   0.0421345   0.1053364), wk =   0.0277778
        k(   54) = (   0.0421345   0.0421345  -0.1264036), wk =   0.0138889
        k(   55) = (   0.0421345   0.0632018   0.0632018), wk =   0.0277778
        k(   56) = (   0.0421345   0.0632018   0.0842691), wk =   0.0555556
        k(   57) = (   0.0421345   0.0632018   0.1053364), wk =   0.0555556
        k(   58) = (   0.0421345   0.0632018  -0.1264036), wk =   0.0277778
        k(   59) = (   0.0421345   0.0842691   0.0842691), wk =   0.0277778
        k(   60) = (   0.0421345   0.0842691   0.1053364), wk =   0.0555556
[...]
        k(   70) = (   0.0632018   0.0842691   0.1053364), wk =   0.0555556
        k(   71) = (   0.0632018   0.0842691  -0.1264036), wk =   0.0277778
        k(   72) = (   0.0632018   0.1053364   0.1053364), wk =   0.0277778
        k(   73) = (   0.0632018   0.1053364  -0.1264036), wk =   0.0277778
        k(   74) = (   0.0632018  -0.1264036  -0.1264036), wk =   0.0069444
        k(   75) = (   0.0842691   0.0842691   0.0842691), wk =   0.0092593
        k(   76) = (   0.0842691   0.0842691   0.1053364), wk =   0.0277778
        k(   77) = (   0.0842691   0.0842691  -0.1264036), wk =   0.0138889
        k(   78) = (   0.0842691   0.1053364   0.1053364), wk =   0.0277778
        k(   79) = (   0.0842691   0.1053364  -0.1264036), wk =   0.0277778
        k(   80) = (   0.0842691  -0.1264036  -0.1264036), wk =   0.0069444
        k(   81) = (   0.1053364   0.1053364   0.1053364), wk =   0.0092593
        k(   82) = (   0.1053364   0.1053364  -0.1264036), wk =   0.0138889
        k(   83) = (   0.1053364  -0.1264036  -0.1264036), wk =   0.0069444
        k(   84) = (  -0.1264036  -0.1264036  -0.1264036), wk =   0.0011574

     Largest allocated arrays     est. size (Mb)     dimensions
     Largest temporary arrays     est. size (Mb)     dimensions

     Initial potential from superposition of free atoms
     Check: negative starting charge=   -0.129135

     starting charge   68.49995, renormalised to   72.00000

     negative rho (up, down):  1.357E-01 0.000E+00

     *
     * You are using vdW-DF for exchange-correlation in this calculation.
     * Please cite the following three references that made this development
     * possible:
     *
     *   M. Dion, H. Rydberg, E. Schroder, D. C. Langreth, and
     *   B. I. Lundqvist, Phys. Rev. Lett. 92, 246401 (2004).
     *
     *   T. Thonhauser, V. R. Cooper, S. Li, A. Puzder, P. Hyldgaard, and
     *   D. C. Langreth, Phys. Rev. B 76, 125112 (2007).
     *
     *   G. Roman-Perez and J. M. Soler, Phys. Rev. Lett. 103, 096102 (2009).
     *
     *
     * If you are using vdW-DF2, please also cite:
     *
     *   K. Lee, E. D. Murray, L. Kong, B. I. Lundqvist, and
     *   D. C. Langreth, Phys. Rev. B 82, 081101(R) (2010).
     *
     *
     * If you are calculating the stress with vdW-DF, please also cite:
     *
     *   R. Sabatini, E. Kucukbenli, B. Kolb, T. Thonhauser, and
     *   S. de Gironcoli, J. Phys.: Condens. Matter 24, 424209 (2012).
     *

     Carrying out vdW-DF run using the following parameters:

     Nqs =      20    Nr_points =    1024   r_max =   100.000
     q_mesh =
               0.00001000     0.04494208     0.09755937     0.15916263
               0.23128650     0.31572767     0.41458969     0.53033537
               0.66584808     0.82450364     1.01025438     1.22772762
               1.48234092     1.78043706     2.12944203     2.53805004
               3.01644009     3.57652955     4.23227104     5.00000000

     Gradients computed in reciprocal space

     Starting wfc are   49 randomized atomic wfcs +    7 random wfc

     Self-consistent Calculation

     iteration #  1     ecut=    58.80 Ry     beta=0.10
     Davidson diagonalization with overlap
     ethr =  1.00E-02,  avg # of iterations =  4.2

[...]

     total energy              =   -1445.07602230 Ry
     Harris-Foulkes estimate   =   -1447.01226722 Ry
     estimated scf accuracy    <      27.32002678 Ry

[...]

     total energy              =   -1441.88520175 Ry
     Harris-Foulkes estimate   =   -1441.88520101 Ry
     estimated scf accuracy    <       0.00000019 Ry

     iteration # 16     ecut=    58.80 Ry     beta=0.10
     Davidson diagonalization with overlap
     ethr =  4.61E-11,  avg # of iterations =  2.1

     negative rho (up, down):  1.290E-01 0.000E+00

     End of self-consistent calculation

          k = 0.0000 0.0000 0.0000 (  3191 PWs)   bands (ev):

   -78.6761 -78.6761 -78.6761 -78.6180 -78.6180 -78.6180 -78.6174 -78.6174
   -78.6174 -63.7112 -25.4588 -25.4588 -25.4588   0.6423   0.6904   0.6904
     0.6904   0.8591   0.8591   1.0482   1.0482   1.0482   1.1139   1.1139
     1.2677   1.2683   1.2683   1.2683   4.1664  12.0849  12.0849  13.9737
    13.9737  13.9737  15.6713  15.6713  15.6713  18.0265  19.2131  19.2131
    21.6064  21.6064  21.6064  24.9071  24.9071  24.9071  28.5400  28.5400
    28.5400  29.6578  29.6578  30.7090  32.1921  34.3642  34.3642  34.3642

[...]

          k = 0.1053-0.1264-0.1264 (  3156 PWs)   bands (ev):

[...]

          k =-0.1264-0.1264-0.1264 (  3184 PWs)   bands (ev):

   -78.6811 -78.6733 -78.6733 -78.6204 -78.6204 -78.6204 -78.6152 -78.6152
   -78.6152 -63.7108 -25.4686 -25.4686 -25.4686   0.7773   0.7773   0.7773
     0.7875   0.9036   0.9036   0.9036   1.0327   1.0327   1.0327   1.1088
     1.1088   1.2505   1.2505   1.2505   9.9039   9.9039   9.9039  11.2229
    12.7322  12.7322  12.7322  16.0988  16.4717  16.4717  18.6735  18.6735
    18.6735  27.5944  27.5944  27.5944  27.9880  27.9880  31.0094  31.0094
    31.0094  31.3171  32.0933  32.0933  32.0933  32.9278  32.9278  32.9278

     the Fermi energy is    16.4671 ev

!    total energy              =   -1441.88520523 Ry
     Harris-Foulkes estimate   =   -1441.88520179 Ry
     estimated scf accuracy    <          4.3E-10 Ry

     The total energy is the sum of the following terms:

     one-electron contribution =    -960.83866969 Ry
     hartree contribution      =     521.23190700 Ry
     xc contribution           =    -203.73298937 Ry
     ewald contribution        =    -798.53715114 Ry
     smearing contrib. (-TS)   =      -0.00830202 Ry

     convergence has been achieved in  16 iterations

     Forces acting on atoms (Ry/au):

     negative rho (up, down):  1.290E-01 0.000E+00
     atom    1 type  1   force =     0.00000000    0.00000000    0.00000000
     atom    2 type  1   force =     0.00000000    0.00000000    0.00000000
     atom    3 type  1   force =     0.00000000   -0.00000000    0.00000000
     atom    4 type  2   force =     0.00000000   -0.00000000    0.00000000

     Total force =     0.000000     Total SCF correction =     0.000000
 !ASE

     General routines

     Parallel routines

   This run was terminated on:   7:46:41  25Oct2017

   JOB DONE.