     Program PWSCF v.5.1rc2 (svn rev. ) starts on 25Oct2017 at 23: 0:39

     Current dimensions of program PWSCF are:
     Max number of different atomic species (ntypx) = 10
     Max number of k-points (npk) =  40000
     Max angular momentum in pseudopotentials (lmaxx) =  3

     IMPORTANT: XC functional enforced from input :
     Exchange-correlation      = BEEF-VDW ( 1  4 27 13 2)
     Any further DFT definition will be discarded
     Please, verify this is what you really want

     Subspace diagonalization in iterative solution of the eigenvalue problem:
     a serial algorithm will be used

     bravais-lattice index     =            0
     lattice parameter (alat)  =       1.8897  a.u.
     unit-cell volume          =     635.3458 (a.u.)^3
     number of atoms/cell      =            4
     number of atomic types    =            2
     number of electrons       =        55.00
     number of Kohn-Sham states=           47
     kinetic-energy cutoff     =      58.7989  Ry
     charge density cutoff     =     587.9892  Ry
     convergence threshold     =      7.3E-09
     mixing beta               =       0.1000
     number of iterations used =           10  local-TF  mixing
     Exchange-correlation      = BEEF-VDW ( 1  4 27 13 2)
     nstep                     =           50

     celldm(1)=   1.889726  celldm(2)=   0.000000  celldm(3)=   0.000000
     celldm(4)=   0.000000  celldm(5)=   0.000000  celldm(6)=   0.000000

     crystal axes: (cart. coord. in units of alat)
               a(1) = (   4.549230   0.000000   0.000000 )
               a(2) = (   0.000000   4.549230   0.000000 )
               a(3) = (   0.000000   0.000000   4.549230 )

     reciprocal axes: (cart. coord. in units 2 pi/alat)
               b(1) = (  0.219817  0.000000  0.000000 )
               b(2) = (  0.000000  0.219817  0.000000 )
               b(3) = (  0.000000  0.000000  0.219817 )

     PseudoPot. # 1 for Sn read from file:
     /home/vossj/suncat/psp/gbrv1.5pbe/Sn.UPF
     MD5 check sum: 469debedee59599fedebd795477fea03
     Pseudo is Ultrasoft + core correction, Zval = 14.0
     Generated by new atomic code, or converted to UPF format
     Using radial grid of  891 points,  6 beta functions with:
                l(1) =   0
                l(2) =   0
                l(3) =   1
                l(4) =   1
                l(5) =   2
                l(6) =   2
     Q(r) pseudized with  8 coefficients,  rinner =    1.350   1.350   1.350
                                                       1.350   1.350

     PseudoPot. # 2 for Ta read from file:
     /home/vossj/suncat/psp/gbrv1.5pbe/Ta.UPF
     MD5 check sum: f8bbe9446314a3b8ea5d9f3e3836c939
     Pseudo is Ultrasoft + core correction, Zval = 13.0
     Generated by new atomic code, or converted to UPF format
     Using radial grid of  921 points,  7 beta functions with:
                l(1) =   0
                l(2) =   0
                l(3) =   1
                l(4) =   1
                l(5) =   2
                l(6) =   2
                l(7) =   3
     Q(r) pseudized with  6 coefficients,  rinner =    1.300   1.300   1.300
                                                       1.300   1.300   1.300
                                                       1.300

     vdW kernel table read from file vdW_kernel_table
     MD5 check sum: 095c7af220d748ca6e76c0b4c6cfb241

     atomic species   valence    mass     pseudopotential
        Sn1           14.00   118.71000     Sn( 1.00)
        Ta1           13.00   180.94788     Ta( 1.00)

     48 Sym. Ops., with inversion, found (32 have fractional translation)

   Cartesian axes

     site n.     atom                  positions (alat units)
         1           Sn1 tau(   1) = (   0.0000000   0.0000000   0.0000000  )
         2           Sn1 tau(   2) = (   0.0000000   2.2746148   2.2746148  )
         3           Sn1 tau(   3) = (   2.2746148   0.0000000   2.2746148  )
         4           Ta1 tau(   4) = (   2.2746148   2.2746148   0.0000000  )

     number of k points=    84  Fermi-Dirac smearing, width (Ry)=  0.0073
                       cart. coord. in units 2pi/alat
        k(    1) = (   0.0000000   0.0000000   0.0000000), wk =   0.0011574
        k(    2) = (   0.0000000   0.0000000   0.0183181), wk =   0.0069444
        k(    3) = (   0.0000000   0.0000000   0.0366362), wk =   0.0069444
        k(    4) = (   0.0000000   0.0000000   0.0549544), wk =   0.0069444
        k(    5) = (   0.0000000   0.0000000   0.0732725), wk =   0.0069444
        k(    6) = (   0.0000000   0.0000000   0.0915906), wk =   0.0069444
        k(    7) = (   0.0000000   0.0000000  -0.1099087), wk =   0.0034722
        k(    8) = (   0.0000000   0.0183181   0.0183181), wk =   0.0138889
        k(    9) = (   0.0000000   0.0183181   0.0366362), wk =   0.0277778
        k(   10) = (   0.0000000   0.0183181   0.0549544), wk =   0.0277778
        k(   11) = (   0.0000000   0.0183181   0.0732725), wk =   0.0277778
        k(   12) = (   0.0000000   0.0183181   0.0915906), wk =   0.0277778
        k(   13) = (   0.0000000   0.0183181  -0.1099087), wk =   0.0138889
        k(   14) = (   0.0000000   0.0366362   0.0366362), wk =   0.0138889
        k(   15) = (   0.0000000   0.0366362   0.0549544), wk =   0.0277778
        k(   16) = (   0.0000000   0.0366362   0.0732725), wk =   0.0277778
        k(   17) = (   0.0000000   0.0366362   0.0915906), wk =   0.0277778
        k(   18) = (   0.0000000   0.0366362  -0.1099087), wk =   0.0138889
        k(   19) = (   0.0000000   0.0549544   0.0549544), wk =   0.0138889
        k(   20) = (   0.0000000   0.0549544   0.0732725), wk =   0.0277778
        k(   21) = (   0.0000000   0.0549544   0.0915906), wk =   0.0277778
        k(   22) = (   0.0000000   0.0549544  -0.1099087), wk =   0.0138889
        k(   23) = (   0.0000000   0.0732725   0.0732725), wk =   0.0138889
        k(   24) = (   0.0000000   0.0732725   0.0915906), wk =   0.0277778
        k(   25) = (   0.0000000   0.0732725  -0.1099087), wk =   0.0138889
        k(   26) = (   0.0000000   0.0915906   0.0915906), wk =   0.0138889
        k(   27) = (   0.0000000   0.0915906  -0.1099087), wk =   0.0138889
        k(   28) = (   0.0000000  -0.1099087  -0.1099087), wk =   0.0034722
        k(   29) = (   0.0183181   0.0183181   0.0183181), wk =   0.0092593
        k(   30) = (   0.0183181   0.0183181   0.0366362), wk =   0.0277778
        k(   31) = (   0.0183181   0.0183181   0.0549544), wk =   0.0277778
        k(   32) = (   0.0183181   0.0183181   0.0732725), wk =   0.0277778
        k(   33) = (   0.0183181   0.0183181   0.0915906), wk =   0.0277778
        k(   34) = (   0.0183181   0.0183181  -0.1099087), wk =   0.0138889
        k(   35) = (   0.0183181   0.0366362   0.0366362), wk =   0.0277778
        k(   36) = (   0.0183181   0.0366362   0.0549544), wk =   0.0555556
        k(   37) = (   0.0183181   0.0366362   0.0732725), wk =   0.0555556
        k(   38) = (   0.0183181   0.0366362   0.0915906), wk =   0.0555556
        k(   39) = (   0.0183181   0.0366362  -0.1099087), wk =   0.0277778
        k(   40) = (   0.0183181   0.0549544   0.0549544), wk =   0.0277778
        k(   41) = (   0.0183181   0.0549544   0.0732725), wk =   0.0555556
        k(   42) = (   0.0183181   0.0549544   0.0915906), wk =   0.0555556
        k(   43) = (   0.0183181   0.0549544  -0.1099087), wk =   0.0277778
        k(   44) = (   0.0183181   0.0732725   0.0732725), wk =   0.0277778
        k(   45) = (   0.0183181   0.0732725   0.0915906), wk =   0.0555556
        k(   46) = (   0.0183181   0.0732725  -0.1099087), wk =   0.0277778
        k(   47) = (   0.0183181   0.0915906   0.0915906), wk =   0.0277778
        k(   48) = (   0.0183181   0.0915906  -0.1099087), wk =   0.0277778
        k(   49) = (   0.0183181  -0.1099087  -0.1099087), wk =   0.0069444
        k(   50) = (   0.0366362   0.0366362   0.0366362), wk =   0.0092593
        k(   51) = (   0.0366362   0.0366362   0.0549544), wk =   0.0277778
        k(   52) = (   0.0366362   0.0366362   0.0732725), wk =   0.0277778
        k(   53) = (   0.0366362   0.0366362   0.0915906), wk =   0.0277778
        k(   54) = (   0.0366362   0.0366362  -0.1099087), wk =   0.0138889
        k(   55) = (   0.0366362   0.0549544   0.0549544), wk =   0.0277778
        k(   56) = (   0.0366362   0.0549544   0.0732725), wk =   0.0555556
        k(   57) = (   0.0366362   0.0549544   0.0915906), wk =   0.0555556
        k(   58) = (   0.0366362   0.0549544  -0.1099087), wk =   0.0277778
        k(   59) = (   0.0366362   0.0732725   0.0732725), wk =   0.0277778
        k(   60) = (   0.0366362   0.0732725   0.0915906), wk =   0.0555556
[...]
        k(   70) = (   0.0549544   0.0732725   0.0915906), wk =   0.0555556
        k(   71) = (   0.0549544   0.0732725  -0.1099087), wk =   0.0277778
        k(   72) = (   0.0549544   0.0915906   0.0915906), wk =   0.0277778
        k(   73) = (   0.0549544   0.0915906  -0.1099087), wk =   0.0277778
        k(   74) = (   0.0549544  -0.1099087  -0.1099087), wk =   0.0069444
        k(   75) = (   0.0732725   0.0732725   0.0732725), wk =   0.0092593
        k(   76) = (   0.0732725   0.0732725   0.0915906), wk =   0.0277778
        k(   77) = (   0.0732725   0.0732725  -0.1099087), wk =   0.0138889
        k(   78) = (   0.0732725   0.0915906   0.0915906), wk =   0.0277778
        k(   79) = (   0.0732725   0.0915906  -0.1099087), wk =   0.0277778
        k(   80) = (   0.0732725  -0.1099087  -0.1099087), wk =   0.0069444
        k(   81) = (   0.0915906   0.0915906   0.0915906), wk =   0.0092593
        k(   82) = (   0.0915906   0.0915906  -0.1099087), wk =   0.0138889
        k(   83) = (   0.0915906  -0.1099087  -0.1099087), wk =   0.0069444
        k(   84) = (  -0.1099087  -0.1099087  -0.1099087), wk =   0.0011574

     Largest allocated arrays     est. size (Mb)     dimensions
     Largest temporary arrays     est. size (Mb)     dimensions

     Initial potential from superposition of free atoms
     Check: negative starting charge=   -0.095605

     starting charge   51.99875, renormalised to   55.00000

     negative rho (up, down):  1.011E-01 0.000E+00

     *
     * You are using vdW-DF for exchange-correlation in this calculation.
     * Please cite the following three references that made this development
     * possible:
     *
     *   M. Dion, H. Rydberg, E. Schroder, D. C. Langreth, and
     *   B. I. Lundqvist, Phys. Rev. Lett. 92, 246401 (2004).
     *
     *   T. Thonhauser, V. R. Cooper, S. Li, A. Puzder, P. Hyldgaard, and
     *   D. C. Langreth, Phys. Rev. B 76, 125112 (2007).
     *
     *   G. Roman-Perez and J. M. Soler, Phys. Rev. Lett. 103, 096102 (2009).
     *
     *
     * If you are using vdW-DF2, please also cite:
     *
     *   K. Lee, E. D. Murray, L. Kong, B. I. Lundqvist, and
     *   D. C. Langreth, Phys. Rev. B 82, 081101(R) (2010).
     *
     *
     * If you are calculating the stress with vdW-DF, please also cite:
     *
     *   R. Sabatini, E. Kucukbenli, B. Kolb, T. Thonhauser, and
     *   S. de Gironcoli, J. Phys.: Condens. Matter 24, 424209 (2012).
     *

     Carrying out vdW-DF run using the following parameters:

     Nqs =      20    Nr_points =    1024   r_max =   100.000
     q_mesh =
               0.00001000     0.04494208     0.09755937     0.15916263
               0.23128650     0.31572767     0.41458969     0.53033537
               0.66584808     0.82450364     1.01025438     1.22772762
               1.48234092     1.78043706     2.12944203     2.53805004
               3.01644009     3.57652955     4.23227104     5.00000000

     Gradients computed in reciprocal space

     Starting wfc are   40 randomized atomic wfcs +    7 random wfc

     Self-consistent Calculation

     iteration #  1     ecut=    58.80 Ry     beta=0.10
     Davidson diagonalization with overlap
     ethr =  1.00E-02,  avg # of iterations =  5.2

[...]

     total energy              =    -626.00025690 Ry
     Harris-Foulkes estimate   =    -626.14921244 Ry
     estimated scf accuracy    <       2.13826390 Ry

[...]

     total energy              =    -625.25034701 Ry
     Harris-Foulkes estimate   =    -625.25034421 Ry
     estimated scf accuracy    <       0.00000027 Ry

     iteration # 20     ecut=    58.80 Ry     beta=0.10
     Davidson diagonalization with overlap
     ethr =  3.34E-10,  avg # of iterations =  2.0

     negative rho (up, down):  1.002E-01 0.000E+00

     End of self-consistent calculation

          k = 0.0000 0.0000 0.0000 (  4945 PWs)   bands (ev):

   -55.9013 -22.1893 -22.1893 -22.1893  -8.7915  -8.7877  -8.7877  -8.7877
    -8.6141  -8.6141  -8.5689  -8.5689  -8.5359  -8.5359  -8.5359  -8.4513
    -8.4513  -8.4513  -8.4151   1.8520   8.2136   8.2136   9.9837   9.9837
     9.9837  13.2871  13.2871  13.2871  13.3438  14.3919  14.3919  15.7392
    15.7392  15.7392  18.0555  18.0555  18.0555  22.0777  22.0777  22.0777
    22.2544  22.8042  22.8042  24.3496  25.4773  25.4773  25.4773

[...]

          k = 0.0916-0.1099-0.1099 (  4796 PWs)   bands (ev):

[...]

          k =-0.1099-0.1099-0.1099 (  4776 PWs)   bands (ev):

   -55.9012 -22.1928 -22.1928 -22.1928  -8.7192  -8.7192  -8.7192  -8.6635
    -8.6635  -8.6635  -8.6390  -8.5866  -8.5866  -8.5866  -8.5037  -8.5037
    -8.4415  -8.4415  -8.4415   6.0537   6.0537   6.0537   7.9401   9.2116
     9.2116   9.2116  11.9225  14.0459  14.0459  14.9916  14.9916  14.9916
    20.1182  20.1182  20.1645  20.1645  20.1645  23.6100  23.6100  23.6100
    23.6209  24.8546  24.8546  24.8546  24.9104  24.9104  24.9104

     the Fermi energy is    13.4370 ev

!    total energy              =    -625.25035971 Ry
     Harris-Foulkes estimate   =    -625.25034705 Ry
     estimated scf accuracy    <          4.1E-10 Ry

     The total energy is the sum of the following terms:

     one-electron contribution =    -166.49691609 Ry
     hartree contribution      =     122.02079225 Ry
     xc contribution           =    -177.24277285 Ry
     ewald contribution        =    -403.52151451 Ry
     smearing contrib. (-TS)   =      -0.00994852 Ry

     convergence has been achieved in  20 iterations

     Forces acting on atoms (Ry/au):

     negative rho (up, down):  1.002E-01 0.000E+00
     atom    1 type  1   force =     0.00000000    0.00000000   -0.00000000
     atom    2 type  1   force =     0.00000000    0.00000000    0.00000000
     atom    3 type  1   force =     0.00000000    0.00000000    0.00000000
     atom    4 type  2   force =     0.00000000    0.00000000    0.00000000

     Total force =     0.000000     Total SCF correction =     0.000000
 !ASE

     General routines

     Parallel routines

   This run was terminated on:  23: 2:31  25Oct2017

   JOB DONE.