     Program PWSCF v.5.1rc2 (svn rev. ) starts on 25Oct2017 at  6: 2: 4

     Current dimensions of program PWSCF are:
     Max number of different atomic species (ntypx) = 10
     Max number of k-points (npk) =  40000
     Max angular momentum in pseudopotentials (lmaxx) =  3

     IMPORTANT: XC functional enforced from input :
     Exchange-correlation      = BEEF-VDW ( 1  4 27 13 2)
     Any further DFT definition will be discarded
     Please, verify this is what you really want

     Subspace diagonalization in iterative solution of the eigenvalue problem:
     a serial algorithm will be used

     bravais-lattice index     =            0
     lattice parameter (alat)  =       1.8897  a.u.
     unit-cell volume          =     413.9755 (a.u.)^3
     number of atoms/cell      =            4
     number of atomic types    =            2
     number of electrons       =        63.00
     number of Kohn-Sham states=           51
     kinetic-energy cutoff     =      58.7989  Ry
     charge density cutoff     =     587.9892  Ry
     convergence threshold     =      7.3E-09
     mixing beta               =       0.1000
     number of iterations used =           10  local-TF  mixing
     Exchange-correlation      = BEEF-VDW ( 1  4 27 13 2)
     nstep                     =           50

     celldm(1)=   1.889726  celldm(2)=   0.000000  celldm(3)=   0.000000
     celldm(4)=   0.000000  celldm(5)=   0.000000  celldm(6)=   0.000000

     crystal axes: (cart. coord. in units of alat)
               a(1) = (   3.943901   0.000000   0.000000 )
               a(2) = (   0.000000   3.943901   0.000000 )
               a(3) = (   0.000000   0.000000   3.943901 )

     reciprocal axes: (cart. coord. in units 2 pi/alat)
               b(1) = (  0.253556  0.000000  0.000000 )
               b(2) = (  0.000000  0.253556  0.000000 )
               b(3) = (  0.000000  0.000000  0.253556 )

     PseudoPot. # 1 for Pd read from file:
     /home/vossj/suncat/psp/gbrv1.5pbe/Pd.UPF
     MD5 check sum: 2d733d2bc2cbfd217af676df1668a4bc
     Pseudo is Ultrasoft + core correction, Zval = 16.0
     Generated by new atomic code, or converted to UPF format
     Using radial grid of  887 points,  6 beta functions with:
                l(1) =   0
                l(2) =   0
                l(3) =   1
                l(4) =   1
                l(5) =   2
                l(6) =   2
     Q(r) pseudized with  8 coefficients,  rinner =    1.130   1.130   1.130
                                                       1.130   1.130

     PseudoPot. # 2 for Rh read from file:
     /home/vossj/suncat/psp/gbrv1.5pbe/Rh.UPF
     MD5 check sum: 761627e959a2e3a1f56b0b5fe687810e
     Pseudo is Ultrasoft + core correction, Zval = 15.0
     Generated by new atomic code, or converted to UPF format
     Using radial grid of  969 points,  7 beta functions with:
                l(1) =   0
                l(2) =   0
                l(3) =   1
                l(4) =   1
                l(5) =   2
                l(6) =   2
                l(7) =   2
     Q(r) pseudized with  8 coefficients,  rinner =    1.200   1.200   1.200
                                                       1.200   1.200

     vdW kernel table read from file vdW_kernel_table
     MD5 check sum: 095c7af220d748ca6e76c0b4c6cfb241

     atomic species   valence    mass     pseudopotential
        Pd1           16.00   106.42000     Pd( 1.00)
        Rh1           15.00   102.90550     Rh( 1.00)

     48 Sym. Ops., with inversion, found (32 have fractional translation)

   Cartesian axes

     site n.     atom                  positions (alat units)
         1           Pd1 tau(   1) = (   0.0000000   0.0000000   0.0000000  )
         2           Pd1 tau(   2) = (   0.0000000   1.9719505   1.9719505  )
         3           Pd1 tau(   3) = (   1.9719505   0.0000000   1.9719505  )
         4           Rh1 tau(   4) = (   1.9719505   1.9719505   0.0000000  )

     number of k points=    84  Fermi-Dirac smearing, width (Ry)=  0.0073
                       cart. coord. in units 2pi/alat
        k(    1) = (   0.0000000   0.0000000   0.0000000), wk =   0.0011574
        k(    2) = (   0.0000000   0.0000000   0.0211297), wk =   0.0069444
        k(    3) = (   0.0000000   0.0000000   0.0422593), wk =   0.0069444
        k(    4) = (   0.0000000   0.0000000   0.0633890), wk =   0.0069444
        k(    5) = (   0.0000000   0.0000000   0.0845187), wk =   0.0069444
        k(    6) = (   0.0000000   0.0000000   0.1056484), wk =   0.0069444
        k(    7) = (   0.0000000   0.0000000  -0.1267780), wk =   0.0034722
        k(    8) = (   0.0000000   0.0211297   0.0211297), wk =   0.0138889
        k(    9) = (   0.0000000   0.0211297   0.0422593), wk =   0.0277778
        k(   10) = (   0.0000000   0.0211297   0.0633890), wk =   0.0277778
        k(   11) = (   0.0000000   0.0211297   0.0845187), wk =   0.0277778
        k(   12) = (   0.0000000   0.0211297   0.1056484), wk =   0.0277778
        k(   13) = (   0.0000000   0.0211297  -0.1267780), wk =   0.0138889
        k(   14) = (   0.0000000   0.0422593   0.0422593), wk =   0.0138889
        k(   15) = (   0.0000000   0.0422593   0.0633890), wk =   0.0277778
        k(   16) = (   0.0000000   0.0422593   0.0845187), wk =   0.0277778
        k(   17) = (   0.0000000   0.0422593   0.1056484), wk =   0.0277778
        k(   18) = (   0.0000000   0.0422593  -0.1267780), wk =   0.0138889
        k(   19) = (   0.0000000   0.0633890   0.0633890), wk =   0.0138889
        k(   20) = (   0.0000000   0.0633890   0.0845187), wk =   0.0277778
        k(   21) = (   0.0000000   0.0633890   0.1056484), wk =   0.0277778
        k(   22) = (   0.0000000   0.0633890  -0.1267780), wk =   0.0138889
        k(   23) = (   0.0000000   0.0845187   0.0845187), wk =   0.0138889
        k(   24) = (   0.0000000   0.0845187   0.1056484), wk =   0.0277778
        k(   25) = (   0.0000000   0.0845187  -0.1267780), wk =   0.0138889
        k(   26) = (   0.0000000   0.1056484   0.1056484), wk =   0.0138889
        k(   27) = (   0.0000000   0.1056484  -0.1267780), wk =   0.0138889
        k(   28) = (   0.0000000  -0.1267780  -0.1267780), wk =   0.0034722
        k(   29) = (   0.0211297   0.0211297   0.0211297), wk =   0.0092593
        k(   30) = (   0.0211297   0.0211297   0.0422593), wk =   0.0277778
        k(   31) = (   0.0211297   0.0211297   0.0633890), wk =   0.0277778
        k(   32) = (   0.0211297   0.0211297   0.0845187), wk =   0.0277778
        k(   33) = (   0.0211297   0.0211297   0.1056484), wk =   0.0277778
        k(   34) = (   0.0211297   0.0211297  -0.1267780), wk =   0.0138889
        k(   35) = (   0.0211297   0.0422593   0.0422593), wk =   0.0277778
        k(   36) = (   0.0211297   0.0422593   0.0633890), wk =   0.0555556
        k(   37) = (   0.0211297   0.0422593   0.0845187), wk =   0.0555556
        k(   38) = (   0.0211297   0.0422593   0.1056484), wk =   0.0555556
        k(   39) = (   0.0211297   0.0422593  -0.1267780), wk =   0.0277778
        k(   40) = (   0.0211297   0.0633890   0.0633890), wk =   0.0277778
        k(   41) = (   0.0211297   0.0633890   0.0845187), wk =   0.0555556
        k(   42) = (   0.0211297   0.0633890   0.1056484), wk =   0.0555556
        k(   43) = (   0.0211297   0.0633890  -0.1267780), wk =   0.0277778
        k(   44) = (   0.0211297   0.0845187   0.0845187), wk =   0.0277778
        k(   45) = (   0.0211297   0.0845187   0.1056484), wk =   0.0555556
        k(   46) = (   0.0211297   0.0845187  -0.1267780), wk =   0.0277778
        k(   47) = (   0.0211297   0.1056484   0.1056484), wk =   0.0277778
        k(   48) = (   0.0211297   0.1056484  -0.1267780), wk =   0.0277778
        k(   49) = (   0.0211297  -0.1267780  -0.1267780), wk =   0.0069444
        k(   50) = (   0.0422593   0.0422593   0.0422593), wk =   0.0092593
        k(   51) = (   0.0422593   0.0422593   0.0633890), wk =   0.0277778
        k(   52) = (   0.0422593   0.0422593   0.0845187), wk =   0.0277778
        k(   53) = (   0.0422593   0.0422593   0.1056484), wk =   0.0277778
        k(   54) = (   0.0422593   0.0422593  -0.1267780), wk =   0.0138889
        k(   55) = (   0.0422593   0.0633890   0.0633890), wk =   0.0277778
        k(   56) = (   0.0422593   0.0633890   0.0845187), wk =   0.0555556
        k(   57) = (   0.0422593   0.0633890   0.1056484), wk =   0.0555556
        k(   58) = (   0.0422593   0.0633890  -0.1267780), wk =   0.0277778
        k(   59) = (   0.0422593   0.0845187   0.0845187), wk =   0.0277778
        k(   60) = (   0.0422593   0.0845187   0.1056484), wk =   0.0555556
[...]
        k(   70) = (   0.0633890   0.0845187   0.1056484), wk =   0.0555556
        k(   71) = (   0.0633890   0.0845187  -0.1267780), wk =   0.0277778
        k(   72) = (   0.0633890   0.1056484   0.1056484), wk =   0.0277778
        k(   73) = (   0.0633890   0.1056484  -0.1267780), wk =   0.0277778
        k(   74) = (   0.0633890  -0.1267780  -0.1267780), wk =   0.0069444
        k(   75) = (   0.0845187   0.0845187   0.0845187), wk =   0.0092593
        k(   76) = (   0.0845187   0.0845187   0.1056484), wk =   0.0277778
        k(   77) = (   0.0845187   0.0845187  -0.1267780), wk =   0.0138889
        k(   78) = (   0.0845187   0.1056484   0.1056484), wk =   0.0277778
        k(   79) = (   0.0845187   0.1056484  -0.1267780), wk =   0.0277778
        k(   80) = (   0.0845187  -0.1267780  -0.1267780), wk =   0.0069444
        k(   81) = (   0.1056484   0.1056484   0.1056484), wk =   0.0092593
        k(   82) = (   0.1056484   0.1056484  -0.1267780), wk =   0.0138889
        k(   83) = (   0.1056484  -0.1267780  -0.1267780), wk =   0.0069444
        k(   84) = (  -0.1267780  -0.1267780  -0.1267780), wk =   0.0011574

     Largest allocated arrays     est. size (Mb)     dimensions
     Largest temporary arrays     est. size (Mb)     dimensions

     Initial potential from superposition of free atoms
     Check: negative starting charge=   -0.290006

     starting charge   60.99988, renormalised to   63.00000

     negative rho (up, down):  2.995E-01 0.000E+00

     *
     * You are using vdW-DF for exchange-correlation in this calculation.
     * Please cite the following three references that made this development
     * possible:
     *
     *   M. Dion, H. Rydberg, E. Schroder, D. C. Langreth, and
     *   B. I. Lundqvist, Phys. Rev. Lett. 92, 246401 (2004).
     *
     *   T. Thonhauser, V. R. Cooper, S. Li, A. Puzder, P. Hyldgaard, and
     *   D. C. Langreth, Phys. Rev. B 76, 125112 (2007).
     *
     *   G. Roman-Perez and J. M. Soler, Phys. Rev. Lett. 103, 096102 (2009).
     *
     *
     * If you are using vdW-DF2, please also cite:
     *
     *   K. Lee, E. D. Murray, L. Kong, B. I. Lundqvist, and
     *   D. C. Langreth, Phys. Rev. B 82, 081101(R) (2010).
     *
     *
     * If you are calculating the stress with vdW-DF, please also cite:
     *
     *   R. Sabatini, E. Kucukbenli, B. Kolb, T. Thonhauser, and
     *   S. de Gironcoli, J. Phys.: Condens. Matter 24, 424209 (2012).
     *

     Carrying out vdW-DF run using the following parameters:

     Nqs =      20    Nr_points =    1024   r_max =   100.000
     q_mesh =
               0.00001000     0.04494208     0.09755937     0.15916263
               0.23128650     0.31572767     0.41458969     0.53033537
               0.66584808     0.82450364     1.01025438     1.22772762
               1.48234092     1.78043706     2.12944203     2.53805004
               3.01644009     3.57652955     4.23227104     5.00000000

     Gradients computed in reciprocal space

     Starting wfc are   48 randomized atomic wfcs +    3 random wfc

     Self-consistent Calculation

     iteration #  1     ecut=    58.80 Ry     beta=0.10
     Davidson diagonalization with overlap
     ethr =  1.00E-02,  avg # of iterations =  4.4

[...]

     total energy              =    -772.50655987 Ry
     Harris-Foulkes estimate   =    -772.87397164 Ry
     estimated scf accuracy    <       6.08610695 Ry

[...]

     total energy              =    -771.63996900 Ry
     Harris-Foulkes estimate   =    -771.63997120 Ry
     estimated scf accuracy    <       0.00002231 Ry

     iteration # 15     ecut=    58.80 Ry     beta=0.10
     Davidson diagonalization with overlap
     ethr =  2.71E-08,  avg # of iterations =  1.0

     negative rho (up, down):  3.039E-01 0.000E+00

     End of self-consistent calculation

          k = 0.0000 0.0000 0.0000 (  3119 PWs)   bands (ev):

   -32.4742 -32.4742 -32.4742 -32.3541 -32.3541 -32.3541 -32.2260 -32.2260
   -32.2260 -28.3850 -28.3850 -28.3850  10.9269  12.5512  12.5823  12.5823
    12.8512  12.8512  12.8512  15.0001  15.0001  15.0001  16.4893  16.4893
    17.3914  17.7633  17.7633  17.7633  17.8757  17.8757  18.3167  18.3167
    18.3167  21.1781  21.1781  21.1781  28.2400  28.2400  28.3512  30.7963
    30.7963  30.7963  31.1467  31.1467  31.1467  35.3614  38.7352  38.7352
    38.8919  38.8919  38.8919

[...]

          k = 0.1056-0.1268-0.1268 (  3148 PWs)   bands (ev):

[...]

          k =-0.1268-0.1268-0.1268 (  3112 PWs)   bands (ev):

   -32.5074 -32.4780 -32.4780 -32.4780 -32.2739 -32.2739 -32.2739 -32.2107
   -32.2107 -28.3860 -28.3860 -28.3860  12.6339  12.6972  12.6972  12.6972
    14.8143  14.8143  14.8143  14.9781  14.9781  14.9781  15.1067  15.1067
    17.4517  17.4517  17.4517  17.8997  17.8997  17.8997  17.9094  17.9094
    18.8583  18.8992  18.8992  18.8992  24.8913  24.8913  24.8913  25.0194
    34.5832  34.5832  34.5832  34.6635  38.6536  38.6536  38.6536  39.0121
    39.0121  39.2784  39.2784

     the Fermi energy is    17.6999 ev

!    total energy              =    -771.63997522 Ry
     Harris-Foulkes estimate   =    -771.63997052 Ry
     estimated scf accuracy    <          9.0E-10 Ry

     The total energy is the sum of the following terms:

     one-electron contribution =    -171.72789844 Ry
     hartree contribution      =     139.41646055 Ry
     xc contribution           =    -128.67183832 Ry
     ewald contribution        =    -610.63812642 Ry
     smearing contrib. (-TS)   =      -0.01857259 Ry

     convergence has been achieved in  15 iterations

     Forces acting on atoms (Ry/au):

     negative rho (up, down):  3.039E-01 0.000E+00
     atom    1 type  1   force =     0.00000000    0.00000000    0.00000000
     atom    2 type  1   force =     0.00000000    0.00000000    0.00000000
     atom    3 type  1   force =     0.00000000    0.00000000    0.00000000
     atom    4 type  2   force =     0.00000000    0.00000000    0.00000000

     Total force =     0.000000     Total SCF correction =     0.000000
 !ASE

     General routines

     Parallel routines

   This run was terminated on:   6: 3: 6  25Oct2017

   JOB DONE.