     Program PWSCF v.5.1rc2 (svn rev. ) starts on 24Oct2017 at 22: 5:12

     Current dimensions of program PWSCF are:
     Max number of different atomic species (ntypx) = 10
     Max number of k-points (npk) =  40000
     Max angular momentum in pseudopotentials (lmaxx) =  3

     IMPORTANT: XC functional enforced from input :
     Exchange-correlation      = BEEF-VDW ( 1  4 27 13 2)
     Any further DFT definition will be discarded
     Please, verify this is what you really want

     Subspace diagonalization in iterative solution of the eigenvalue problem:
     a serial algorithm will be used

     bravais-lattice index     =            0
     lattice parameter (alat)  =       1.8897  a.u.
     unit-cell volume          =     350.9927 (a.u.)^3
     number of atoms/cell      =            4
     number of atomic types    =            2
     number of electrons       =        72.00
     number of Kohn-Sham states=           56
     kinetic-energy cutoff     =      58.7989  Ry
     charge density cutoff     =     587.9892  Ry
     convergence threshold     =      7.3E-09
     mixing beta               =       0.1000
     number of iterations used =           10  local-TF  mixing
     Exchange-correlation      = BEEF-VDW ( 1  4 27 13 2)
     nstep                     =           50

     celldm(1)=   1.889726  celldm(2)=   0.000000  celldm(3)=   0.000000
     celldm(4)=   0.000000  celldm(5)=   0.000000  celldm(6)=   0.000000

     crystal axes: (cart. coord. in units of alat)
               a(1) = (   3.732792   0.000000   0.000000 )
               a(2) = (   0.000000   3.732792   0.000000 )
               a(3) = (   0.000000   0.000000   3.732792 )

     reciprocal axes: (cart. coord. in units 2 pi/alat)
               b(1) = (  0.267896  0.000000  0.000000 )
               b(2) = (  0.000000  0.267896  0.000000 )
               b(3) = (  0.000000  0.000000  0.267896 )

     PseudoPot. # 1 for Cu read from file:
     /home/vossj/suncat/psp/gbrv1.5pbe/Cu.UPF
     MD5 check sum: 6e991ff952a84172a2a52a1c1e996048
     Pseudo is Ultrasoft + core correction, Zval = 19.0
     Generated by new atomic code, or converted to UPF format
     Using radial grid of  867 points,  6 beta functions with:
                l(1) =   0
                l(2) =   0
                l(3) =   1
                l(4) =   1
                l(5) =   2
                l(6) =   2
     Q(r) pseudized with  8 coefficients,  rinner =    1.150   1.150   1.150
                                                       1.150   1.150

     PseudoPot. # 2 for Tc read from file:
     /home/vossj/suncat/psp/gbrv1.5pbe/Tc.UPF
     MD5 check sum: 9eb49e5b028550b2339a02317eb7b844
     Pseudo is Ultrasoft + core correction, Zval = 15.0
     Generated by new atomic code, or converted to UPF format
     Using radial grid of  965 points,  6 beta functions with:
                l(1) =   0
                l(2) =   0
                l(3) =   1
                l(4) =   1
                l(5) =   2
                l(6) =   2
     Q(r) pseudized with  8 coefficients,  rinner =    1.300   1.300   1.300
                                                       1.300   1.300

     vdW kernel table read from file vdW_kernel_table
     MD5 check sum: 095c7af220d748ca6e76c0b4c6cfb241

     atomic species   valence    mass     pseudopotential
        Cu1           19.00    63.54600     Cu( 1.00)
        Tc1           15.00    97.90721     Tc( 1.00)

     48 Sym. Ops., with inversion, found (32 have fractional translation)

   Cartesian axes

     site n.     atom                  positions (alat units)
         1           Cu1 tau(   1) = (   0.0000000   0.0000000   0.0000000  )
         2           Cu1 tau(   2) = (   0.0000000   1.8663962   1.8663962  )
         3           Cu1 tau(   3) = (   1.8663962   0.0000000   1.8663962  )
         4           Tc1 tau(   4) = (   1.8663962   1.8663962   0.0000000  )

     number of k points=    84  Fermi-Dirac smearing, width (Ry)=  0.0073
                       cart. coord. in units 2pi/alat
        k(    1) = (   0.0000000   0.0000000   0.0000000), wk =   0.0011574
        k(    2) = (   0.0000000   0.0000000   0.0223247), wk =   0.0069444
        k(    3) = (   0.0000000   0.0000000   0.0446493), wk =   0.0069444
        k(    4) = (   0.0000000   0.0000000   0.0669740), wk =   0.0069444
        k(    5) = (   0.0000000   0.0000000   0.0892987), wk =   0.0069444
        k(    6) = (   0.0000000   0.0000000   0.1116233), wk =   0.0069444
        k(    7) = (   0.0000000   0.0000000  -0.1339480), wk =   0.0034722
        k(    8) = (   0.0000000   0.0223247   0.0223247), wk =   0.0138889
        k(    9) = (   0.0000000   0.0223247   0.0446493), wk =   0.0277778
        k(   10) = (   0.0000000   0.0223247   0.0669740), wk =   0.0277778
        k(   11) = (   0.0000000   0.0223247   0.0892987), wk =   0.0277778
        k(   12) = (   0.0000000   0.0223247   0.1116233), wk =   0.0277778
        k(   13) = (   0.0000000   0.0223247  -0.1339480), wk =   0.0138889
        k(   14) = (   0.0000000   0.0446493   0.0446493), wk =   0.0138889
        k(   15) = (   0.0000000   0.0446493   0.0669740), wk =   0.0277778
        k(   16) = (   0.0000000   0.0446493   0.0892987), wk =   0.0277778
        k(   17) = (   0.0000000   0.0446493   0.1116233), wk =   0.0277778
        k(   18) = (   0.0000000   0.0446493  -0.1339480), wk =   0.0138889
        k(   19) = (   0.0000000   0.0669740   0.0669740), wk =   0.0138889
        k(   20) = (   0.0000000   0.0669740   0.0892987), wk =   0.0277778
        k(   21) = (   0.0000000   0.0669740   0.1116233), wk =   0.0277778
        k(   22) = (   0.0000000   0.0669740  -0.1339480), wk =   0.0138889
        k(   23) = (   0.0000000   0.0892987   0.0892987), wk =   0.0138889
        k(   24) = (   0.0000000   0.0892987   0.1116233), wk =   0.0277778
        k(   25) = (   0.0000000   0.0892987  -0.1339480), wk =   0.0138889
        k(   26) = (   0.0000000   0.1116233   0.1116233), wk =   0.0138889
        k(   27) = (   0.0000000   0.1116233  -0.1339480), wk =   0.0138889
        k(   28) = (   0.0000000  -0.1339480  -0.1339480), wk =   0.0034722
        k(   29) = (   0.0223247   0.0223247   0.0223247), wk =   0.0092593
        k(   30) = (   0.0223247   0.0223247   0.0446493), wk =   0.0277778
        k(   31) = (   0.0223247   0.0223247   0.0669740), wk =   0.0277778
        k(   32) = (   0.0223247   0.0223247   0.0892987), wk =   0.0277778
        k(   33) = (   0.0223247   0.0223247   0.1116233), wk =   0.0277778
        k(   34) = (   0.0223247   0.0223247  -0.1339480), wk =   0.0138889
        k(   35) = (   0.0223247   0.0446493   0.0446493), wk =   0.0277778
        k(   36) = (   0.0223247   0.0446493   0.0669740), wk =   0.0555556
        k(   37) = (   0.0223247   0.0446493   0.0892987), wk =   0.0555556
        k(   38) = (   0.0223247   0.0446493   0.1116233), wk =   0.0555556
        k(   39) = (   0.0223247   0.0446493  -0.1339480), wk =   0.0277778
        k(   40) = (   0.0223247   0.0669740   0.0669740), wk =   0.0277778
        k(   41) = (   0.0223247   0.0669740   0.0892987), wk =   0.0555556
        k(   42) = (   0.0223247   0.0669740   0.1116233), wk =   0.0555556
        k(   43) = (   0.0223247   0.0669740  -0.1339480), wk =   0.0277778
        k(   44) = (   0.0223247   0.0892987   0.0892987), wk =   0.0277778
        k(   45) = (   0.0223247   0.0892987   0.1116233), wk =   0.0555556
        k(   46) = (   0.0223247   0.0892987  -0.1339480), wk =   0.0277778
        k(   47) = (   0.0223247   0.1116233   0.1116233), wk =   0.0277778
        k(   48) = (   0.0223247   0.1116233  -0.1339480), wk =   0.0277778
        k(   49) = (   0.0223247  -0.1339480  -0.1339480), wk =   0.0069444
        k(   50) = (   0.0446493   0.0446493   0.0446493), wk =   0.0092593
        k(   51) = (   0.0446493   0.0446493   0.0669740), wk =   0.0277778
        k(   52) = (   0.0446493   0.0446493   0.0892987), wk =   0.0277778
        k(   53) = (   0.0446493   0.0446493   0.1116233), wk =   0.0277778
        k(   54) = (   0.0446493   0.0446493  -0.1339480), wk =   0.0138889
        k(   55) = (   0.0446493   0.0669740   0.0669740), wk =   0.0277778
        k(   56) = (   0.0446493   0.0669740   0.0892987), wk =   0.0555556
        k(   57) = (   0.0446493   0.0669740   0.1116233), wk =   0.0555556
        k(   58) = (   0.0446493   0.0669740  -0.1339480), wk =   0.0277778
        k(   59) = (   0.0446493   0.0892987   0.0892987), wk =   0.0277778
        k(   60) = (   0.0446493   0.0892987   0.1116233), wk =   0.0555556
[...]
        k(   70) = (   0.0669740   0.0892987   0.1116233), wk =   0.0555556
        k(   71) = (   0.0669740   0.0892987  -0.1339480), wk =   0.0277778
        k(   72) = (   0.0669740   0.1116233   0.1116233), wk =   0.0277778
        k(   73) = (   0.0669740   0.1116233  -0.1339480), wk =   0.0277778
        k(   74) = (   0.0669740  -0.1339480  -0.1339480), wk =   0.0069444
        k(   75) = (   0.0892987   0.0892987   0.0892987), wk =   0.0092593
        k(   76) = (   0.0892987   0.0892987   0.1116233), wk =   0.0277778
        k(   77) = (   0.0892987   0.0892987  -0.1339480), wk =   0.0138889
        k(   78) = (   0.0892987   0.1116233   0.1116233), wk =   0.0277778
        k(   79) = (   0.0892987   0.1116233  -0.1339480), wk =   0.0277778
        k(   80) = (   0.0892987  -0.1339480  -0.1339480), wk =   0.0069444
        k(   81) = (   0.1116233   0.1116233   0.1116233), wk =   0.0092593
        k(   82) = (   0.1116233   0.1116233  -0.1339480), wk =   0.0138889
        k(   83) = (   0.1116233  -0.1339480  -0.1339480), wk =   0.0069444
        k(   84) = (  -0.1339480  -0.1339480  -0.1339480), wk =   0.0011574

     Largest allocated arrays     est. size (Mb)     dimensions
     Largest temporary arrays     est. size (Mb)     dimensions

     Check: negative/imaginary core charge=   -0.000006    0.000000

     Initial potential from superposition of free atoms
     Check: negative starting charge=   -0.125138

     starting charge   67.99997, renormalised to   72.00000

     negative rho (up, down):  1.325E-01 0.000E+00

     *
     * You are using vdW-DF for exchange-correlation in this calculation.
     * Please cite the following three references that made this development
     * possible:
     *
     *   M. Dion, H. Rydberg, E. Schroder, D. C. Langreth, and
     *   B. I. Lundqvist, Phys. Rev. Lett. 92, 246401 (2004).
     *
     *   T. Thonhauser, V. R. Cooper, S. Li, A. Puzder, P. Hyldgaard, and
     *   D. C. Langreth, Phys. Rev. B 76, 125112 (2007).
     *
     *   G. Roman-Perez and J. M. Soler, Phys. Rev. Lett. 103, 096102 (2009).
     *
     *
     * If you are using vdW-DF2, please also cite:
     *
     *   K. Lee, E. D. Murray, L. Kong, B. I. Lundqvist, and
     *   D. C. Langreth, Phys. Rev. B 82, 081101(R) (2010).
     *
     *
     * If you are calculating the stress with vdW-DF, please also cite:
     *
     *   R. Sabatini, E. Kucukbenli, B. Kolb, T. Thonhauser, and
     *   S. de Gironcoli, J. Phys.: Condens. Matter 24, 424209 (2012).
     *

     Carrying out vdW-DF run using the following parameters:

     Nqs =      20    Nr_points =    1024   r_max =   100.000
     q_mesh =
               0.00001000     0.04494208     0.09755937     0.15916263
               0.23128650     0.31572767     0.41458969     0.53033537
               0.66584808     0.82450364     1.01025438     1.22772762
               1.48234092     1.78043706     2.12944203     2.53805004
               3.01644009     3.57652955     4.23227104     5.00000000

     Gradients computed in reciprocal space

     Starting wfc are   52 randomized atomic wfcs +    4 random wfc

     Self-consistent Calculation

     iteration #  1     ecut=    58.80 Ry     beta=0.10
     Davidson diagonalization with overlap
     ethr =  1.00E-02,  avg # of iterations =  4.2

[...]

     total energy              =   -1391.91889809 Ry
     Harris-Foulkes estimate   =   -1394.18058215 Ry
     estimated scf accuracy    <      30.62263798 Ry

[...]

     total energy              =   -1390.09463363 Ry
     Harris-Foulkes estimate   =   -1390.09463325 Ry
     estimated scf accuracy    <          8.2E-09 Ry

     iteration # 25     ecut=    58.80 Ry     beta=0.10
     Davidson diagonalization with overlap
     ethr =  1.13E-11,  avg # of iterations =  1.0

     negative rho (up, down):  1.292E-01 0.000E+00

     End of self-consistent calculation

          k = 0.0000 0.0000 0.0000 (  2721 PWs)   bands (ev):

   -96.0008 -95.9922 -95.9922 -53.4230 -53.4230 -53.4230 -53.4110 -53.4110
   -53.4110 -53.3038 -53.3038 -53.3038 -50.1705 -22.1696 -22.1696 -22.1696
     8.2363  11.6026  11.6026  12.2829  12.3150  12.3150  12.3150  13.7771
    13.7771  13.7771  14.5353  14.5353  14.8239  15.0427  15.0427  15.0427
    16.5830  16.5830  17.6310  17.6310  17.6310  18.7891  18.7891  18.7891
    25.3034  25.6395  25.6395  27.8577  27.8577  27.8577  31.3841  31.3841
    31.3841  35.4381  35.4381  35.4381  36.2235  36.2328  36.2328  40.3651

[...]

          k = 0.1116-0.1339-0.1339 (  2652 PWs)   bands (ev):

[...]

          k =-0.1339-0.1339-0.1339 (  2608 PWs)   bands (ev):

   -95.9951 -95.9951 -95.9951 -53.4354 -53.4354 -53.4354 -53.3939 -53.3939
   -53.3939 -53.3503 -53.2889 -53.2889 -50.1676 -22.1895 -22.1895 -22.1895
    11.5099  11.5099  11.5099  12.3012  13.6234  13.6234  13.6234  13.8045
    13.8045  13.8045  13.8689  13.8689  14.8881  14.8881  14.8881  15.8544
    16.2012  16.2012  16.2012  16.6979  16.6979  16.6979  17.4352  17.4352
    22.5825  22.5825  22.5825  23.0729  34.9514  34.9514  34.9514  35.4081
    35.4081  35.4081  35.7826  37.1194  37.1194  39.7258  39.7258  39.7258

     the Fermi energy is    16.4236 ev

!    total energy              =   -1390.09463527 Ry
     Harris-Foulkes estimate   =   -1390.09463363 Ry
     estimated scf accuracy    <          1.1E-10 Ry

     The total energy is the sum of the following terms:

     one-electron contribution =    -871.57151853 Ry
     hartree contribution      =     480.84365044 Ry
     xc contribution           =    -153.15549390 Ry
     ewald contribution        =    -846.19739789 Ry
     smearing contrib. (-TS)   =      -0.01387540 Ry

     convergence has been achieved in  25 iterations

     Forces acting on atoms (Ry/au):

     negative rho (up, down):  1.292E-01 0.000E+00
     atom    1 type  1   force =     0.00000000    0.00000000    0.00000000
     atom    2 type  1   force =     0.00000000    0.00000000    0.00000000
     atom    3 type  1   force =     0.00000000    0.00000000   -0.00000000
     atom    4 type  2   force =     0.00000000    0.00000000    0.00000000

     Total force =     0.000000     Total SCF correction =     0.000000
 !ASE

     General routines

     Parallel routines

   This run was terminated on:  22: 6:53  24Oct2017

   JOB DONE.