     Program PWSCF v.5.1rc2 (svn rev. ) starts on 25Oct2017 at 11:50:18

     Current dimensions of program PWSCF are:
     Max number of different atomic species (ntypx) = 10
     Max number of k-points (npk) =  40000
     Max angular momentum in pseudopotentials (lmaxx) =  3

     IMPORTANT: XC functional enforced from input :
     Exchange-correlation      = BEEF-VDW ( 1  4 27 13 2)
     Any further DFT definition will be discarded
     Please, verify this is what you really want

     Subspace diagonalization in iterative solution of the eigenvalue problem:
     a serial algorithm will be used

     bravais-lattice index     =            0
     lattice parameter (alat)  =       1.8897  a.u.
     unit-cell volume          =     393.5814 (a.u.)^3
     number of atoms/cell      =            4
     number of atomic types    =            2
     number of electrons       =        54.00
     number of Kohn-Sham states=           47
     kinetic-energy cutoff     =      58.7989  Ry
     charge density cutoff     =     587.9892  Ry
     convergence threshold     =      7.3E-09
     mixing beta               =       0.1000
     number of iterations used =           10  local-TF  mixing
     Exchange-correlation      = BEEF-VDW ( 1  4 27 13 2)
     nstep                     =           50

     celldm(1)=   1.889726  celldm(2)=   0.000000  celldm(3)=   0.000000
     celldm(4)=   0.000000  celldm(5)=   0.000000  celldm(6)=   0.000000

     crystal axes: (cart. coord. in units of alat)
               a(1) = (   3.878043   0.000000   0.000000 )
               a(2) = (   0.000000   3.878043   0.000000 )
               a(3) = (   0.000000   0.000000   3.878043 )

     reciprocal axes: (cart. coord. in units 2 pi/alat)
               b(1) = (  0.257862  0.000000  0.000000 )
               b(2) = (  0.000000  0.257862  0.000000 )
               b(3) = (  0.000000  0.000000  0.257862 )

     PseudoPot. # 1 for Cr read from file:
     /home/vossj/suncat/psp/gbrv1.5pbe/Cr.UPF
     MD5 check sum: 0d52af634a40206e4dee301ad30da4bf
     Pseudo is Ultrasoft + core correction, Zval = 14.0
     Generated by new atomic code, or converted to UPF format
     Using radial grid of  857 points,  6 beta functions with:
                l(1) =   0
                l(2) =   0
                l(3) =   1
                l(4) =   1
                l(5) =   2
                l(6) =   2
     Q(r) pseudized with  8 coefficients,  rinner =    0.950   0.950   0.950
                                                       0.950   0.950

     PseudoPot. # 2 for Hf read from file:
     /home/vossj/suncat/psp/gbrv1.5pbe/Hf.UPF
     MD5 check sum: 8ee9378dfe14276e333edf04c5e4aa26
     Pseudo is Ultrasoft + core correction, Zval = 12.0
     Generated by new atomic code, or converted to UPF format
     Using radial grid of  921 points,  8 beta functions with:
                l(1) =   0
                l(2) =   0
                l(3) =   0
                l(4) =   1
                l(5) =   1
                l(6) =   2
                l(7) =   2
                l(8) =   3
     Q(r) pseudized with  6 coefficients,  rinner =    1.200   1.200   1.200
                                                       1.200   1.200   1.200
                                                       1.200

     vdW kernel table read from file vdW_kernel_table
     MD5 check sum: 095c7af220d748ca6e76c0b4c6cfb241

     atomic species   valence    mass     pseudopotential
        Cr1           14.00    51.99610     Cr( 1.00)
        Hf1           12.00   178.49000     Hf( 1.00)

     48 Sym. Ops., with inversion, found (32 have fractional translation)

   Cartesian axes

     site n.     atom                  positions (alat units)
         1           Cr1 tau(   1) = (   0.0000000   0.0000000   0.0000000  )
         2           Cr1 tau(   2) = (   0.0000000   1.9390216   1.9390216  )
         3           Cr1 tau(   3) = (   1.9390216   0.0000000   1.9390216  )
         4           Hf1 tau(   4) = (   1.9390216   1.9390216   0.0000000  )

     number of k points=    84  Fermi-Dirac smearing, width (Ry)=  0.0073
                       cart. coord. in units 2pi/alat
        k(    1) = (   0.0000000   0.0000000   0.0000000), wk =   0.0011574
        k(    2) = (   0.0000000   0.0000000   0.0214885), wk =   0.0069444
        k(    3) = (   0.0000000   0.0000000   0.0429770), wk =   0.0069444
        k(    4) = (   0.0000000   0.0000000   0.0644655), wk =   0.0069444
        k(    5) = (   0.0000000   0.0000000   0.0859540), wk =   0.0069444
        k(    6) = (   0.0000000   0.0000000   0.1074425), wk =   0.0069444
        k(    7) = (   0.0000000   0.0000000  -0.1289310), wk =   0.0034722
        k(    8) = (   0.0000000   0.0214885   0.0214885), wk =   0.0138889
        k(    9) = (   0.0000000   0.0214885   0.0429770), wk =   0.0277778
        k(   10) = (   0.0000000   0.0214885   0.0644655), wk =   0.0277778
        k(   11) = (   0.0000000   0.0214885   0.0859540), wk =   0.0277778
        k(   12) = (   0.0000000   0.0214885   0.1074425), wk =   0.0277778
        k(   13) = (   0.0000000   0.0214885  -0.1289310), wk =   0.0138889
        k(   14) = (   0.0000000   0.0429770   0.0429770), wk =   0.0138889
        k(   15) = (   0.0000000   0.0429770   0.0644655), wk =   0.0277778
        k(   16) = (   0.0000000   0.0429770   0.0859540), wk =   0.0277778
        k(   17) = (   0.0000000   0.0429770   0.1074425), wk =   0.0277778
        k(   18) = (   0.0000000   0.0429770  -0.1289310), wk =   0.0138889
        k(   19) = (   0.0000000   0.0644655   0.0644655), wk =   0.0138889
        k(   20) = (   0.0000000   0.0644655   0.0859540), wk =   0.0277778
        k(   21) = (   0.0000000   0.0644655   0.1074425), wk =   0.0277778
        k(   22) = (   0.0000000   0.0644655  -0.1289310), wk =   0.0138889
        k(   23) = (   0.0000000   0.0859540   0.0859540), wk =   0.0138889
        k(   24) = (   0.0000000   0.0859540   0.1074425), wk =   0.0277778
        k(   25) = (   0.0000000   0.0859540  -0.1289310), wk =   0.0138889
        k(   26) = (   0.0000000   0.1074425   0.1074425), wk =   0.0138889
        k(   27) = (   0.0000000   0.1074425  -0.1289310), wk =   0.0138889
        k(   28) = (   0.0000000  -0.1289310  -0.1289310), wk =   0.0034722
        k(   29) = (   0.0214885   0.0214885   0.0214885), wk =   0.0092593
        k(   30) = (   0.0214885   0.0214885   0.0429770), wk =   0.0277778
        k(   31) = (   0.0214885   0.0214885   0.0644655), wk =   0.0277778
        k(   32) = (   0.0214885   0.0214885   0.0859540), wk =   0.0277778
        k(   33) = (   0.0214885   0.0214885   0.1074425), wk =   0.0277778
        k(   34) = (   0.0214885   0.0214885  -0.1289310), wk =   0.0138889
        k(   35) = (   0.0214885   0.0429770   0.0429770), wk =   0.0277778
        k(   36) = (   0.0214885   0.0429770   0.0644655), wk =   0.0555556
        k(   37) = (   0.0214885   0.0429770   0.0859540), wk =   0.0555556
        k(   38) = (   0.0214885   0.0429770   0.1074425), wk =   0.0555556
        k(   39) = (   0.0214885   0.0429770  -0.1289310), wk =   0.0277778
        k(   40) = (   0.0214885   0.0644655   0.0644655), wk =   0.0277778
        k(   41) = (   0.0214885   0.0644655   0.0859540), wk =   0.0555556
        k(   42) = (   0.0214885   0.0644655   0.1074425), wk =   0.0555556
        k(   43) = (   0.0214885   0.0644655  -0.1289310), wk =   0.0277778
        k(   44) = (   0.0214885   0.0859540   0.0859540), wk =   0.0277778
        k(   45) = (   0.0214885   0.0859540   0.1074425), wk =   0.0555556
        k(   46) = (   0.0214885   0.0859540  -0.1289310), wk =   0.0277778
        k(   47) = (   0.0214885   0.1074425   0.1074425), wk =   0.0277778
        k(   48) = (   0.0214885   0.1074425  -0.1289310), wk =   0.0277778
        k(   49) = (   0.0214885  -0.1289310  -0.1289310), wk =   0.0069444
        k(   50) = (   0.0429770   0.0429770   0.0429770), wk =   0.0092593
        k(   51) = (   0.0429770   0.0429770   0.0644655), wk =   0.0277778
        k(   52) = (   0.0429770   0.0429770   0.0859540), wk =   0.0277778
        k(   53) = (   0.0429770   0.0429770   0.1074425), wk =   0.0277778
        k(   54) = (   0.0429770   0.0429770  -0.1289310), wk =   0.0138889
        k(   55) = (   0.0429770   0.0644655   0.0644655), wk =   0.0277778
        k(   56) = (   0.0429770   0.0644655   0.0859540), wk =   0.0555556
        k(   57) = (   0.0429770   0.0644655   0.1074425), wk =   0.0555556
        k(   58) = (   0.0429770   0.0644655  -0.1289310), wk =   0.0277778
        k(   59) = (   0.0429770   0.0859540   0.0859540), wk =   0.0277778
        k(   60) = (   0.0429770   0.0859540   0.1074425), wk =   0.0555556
[...]
        k(   70) = (   0.0644655   0.0859540   0.1074425), wk =   0.0555556
        k(   71) = (   0.0644655   0.0859540  -0.1289310), wk =   0.0277778
        k(   72) = (   0.0644655   0.1074425   0.1074425), wk =   0.0277778
        k(   73) = (   0.0644655   0.1074425  -0.1289310), wk =   0.0277778
        k(   74) = (   0.0644655  -0.1289310  -0.1289310), wk =   0.0069444
        k(   75) = (   0.0859540   0.0859540   0.0859540), wk =   0.0092593
        k(   76) = (   0.0859540   0.0859540   0.1074425), wk =   0.0277778
        k(   77) = (   0.0859540   0.0859540  -0.1289310), wk =   0.0138889
        k(   78) = (   0.0859540   0.1074425   0.1074425), wk =   0.0277778
        k(   79) = (   0.0859540   0.1074425  -0.1289310), wk =   0.0277778
        k(   80) = (   0.0859540  -0.1289310  -0.1289310), wk =   0.0069444
        k(   81) = (   0.1074425   0.1074425   0.1074425), wk =   0.0092593
        k(   82) = (   0.1074425   0.1074425  -0.1289310), wk =   0.0138889
        k(   83) = (   0.1074425  -0.1289310  -0.1289310), wk =   0.0069444
        k(   84) = (  -0.1289310  -0.1289310  -0.1289310), wk =   0.0011574

     Largest allocated arrays     est. size (Mb)     dimensions
     Largest temporary arrays     est. size (Mb)     dimensions

     Check: negative/imaginary core charge=   -0.000005    0.000000

     Initial potential from superposition of free atoms
     Check: negative starting charge=   -0.108825

     starting charge   48.99995, renormalised to   54.00000

     negative rho (up, down):  1.199E-01 0.000E+00

     *
     * You are using vdW-DF for exchange-correlation in this calculation.
     * Please cite the following three references that made this development
     * possible:
     *
     *   M. Dion, H. Rydberg, E. Schroder, D. C. Langreth, and
     *   B. I. Lundqvist, Phys. Rev. Lett. 92, 246401 (2004).
     *
     *   T. Thonhauser, V. R. Cooper, S. Li, A. Puzder, P. Hyldgaard, and
     *   D. C. Langreth, Phys. Rev. B 76, 125112 (2007).
     *
     *   G. Roman-Perez and J. M. Soler, Phys. Rev. Lett. 103, 096102 (2009).
     *
     *
     * If you are using vdW-DF2, please also cite:
     *
     *   K. Lee, E. D. Murray, L. Kong, B. I. Lundqvist, and
     *   D. C. Langreth, Phys. Rev. B 82, 081101(R) (2010).
     *
     *
     * If you are calculating the stress with vdW-DF, please also cite:
     *
     *   R. Sabatini, E. Kucukbenli, B. Kolb, T. Thonhauser, and
     *   S. de Gironcoli, J. Phys.: Condens. Matter 24, 424209 (2012).
     *

     Carrying out vdW-DF run using the following parameters:

     Nqs =      20    Nr_points =    1024   r_max =   100.000
     q_mesh =
               0.00001000     0.04494208     0.09755937     0.15916263
               0.23128650     0.31572767     0.41458969     0.53033537
               0.66584808     0.82450364     1.01025438     1.22772762
               1.48234092     1.78043706     2.12944203     2.53805004
               3.01644009     3.57652955     4.23227104     5.00000000

     Gradients computed in reciprocal space

     Starting wfc are   43 randomized atomic wfcs +    4 random wfc

     Self-consistent Calculation

     iteration #  1     ecut=    58.80 Ry     beta=0.10
     Davidson diagonalization with overlap
     ethr =  1.00E-02,  avg # of iterations =  4.2

[...]

     total energy              =    -692.32454816 Ry
     Harris-Foulkes estimate   =    -693.41398133 Ry
     estimated scf accuracy    <      15.63340581 Ry

[...]

     total energy              =    -689.37471866 Ry
     Harris-Foulkes estimate   =    -689.37471828 Ry
     estimated scf accuracy    <       0.00000006 Ry

     iteration # 17     ecut=    58.80 Ry     beta=0.10
     Davidson diagonalization with overlap
     ethr =  1.05E-10,  avg # of iterations =  1.3

     negative rho (up, down):  1.188E-01 0.000E+00

     End of self-consistent calculation

          k = 0.0000 0.0000 0.0000 (  2945 PWs)   bands (ev):

   -55.0993 -55.0239 -55.0239 -44.7817 -26.5087 -26.5087 -26.5087 -26.3175
   -26.3175 -26.3175 -26.2187 -26.2187 -26.2187 -13.4157 -13.4157 -13.4157
     9.2999  12.7001  12.7001  13.3624  13.7964  13.7964  13.7964  16.3494
    16.3494  16.3494  17.7351  17.7351  18.3930  18.6381  18.6381  18.6381
    19.8557  19.8557  19.8557  20.7633  20.7633  22.4145  22.4145  22.4145
    27.0896  28.3762  28.3762  28.3762  30.8130  30.8130  31.5522

[...]

          k = 0.1074-0.1289-0.1289 (  3020 PWs)   bands (ev):

[...]

          k =-0.1289-0.1289-0.1289 (  3016 PWs)   bands (ev):

   -55.0484 -55.0484 -55.0484 -44.7795 -26.6052 -26.4819 -26.4819 -26.4819
   -26.2355 -26.2355 -26.2185 -26.2185 -26.2185 -13.4557 -13.4557 -13.4557
    12.8674  12.8674  12.8674  13.2241  16.0154  16.0154  16.0154  16.3246
    16.3246  16.3246  16.5531  16.5531  16.7857  17.6675  17.6675  17.6675
    18.4074  18.4074  18.4074  20.2295  20.2295  20.2295  21.9368  21.9368
    24.7782  27.6306  27.6306  27.6306  32.3907  32.3907  32.3907

     the Fermi energy is    16.5010 ev

!    total energy              =    -689.37472036 Ry
     Harris-Foulkes estimate   =    -689.37471867 Ry
     estimated scf accuracy    <          3.8E-10 Ry

     The total energy is the sum of the following terms:

     one-electron contribution =    -224.14246041 Ry
     hartree contribution      =     139.16208273 Ry
     xc contribution           =    -147.36803449 Ry
     ewald contribution        =    -457.00434708 Ry
     smearing contrib. (-TS)   =      -0.02196111 Ry

     convergence has been achieved in  17 iterations

     Forces acting on atoms (Ry/au):

     negative rho (up, down):  1.188E-01 0.000E+00
     atom    1 type  1   force =     0.00000000   -0.00000000    0.00000000
     atom    2 type  1   force =     0.00000000    0.00000000    0.00000000
     atom    3 type  1   force =     0.00000000   -0.00000000    0.00000000
     atom    4 type  2   force =     0.00000000    0.00000000    0.00000000

     Total force =     0.000000     Total SCF correction =     0.000000
 !ASE

     General routines

     Parallel routines

   This run was terminated on:  11:51:46  25Oct2017

   JOB DONE.