     Program PWSCF v.5.1rc2 (svn rev. ) starts on 25Oct2017 at 13:54:29

     Current dimensions of program PWSCF are:
     Max number of different atomic species (ntypx) = 10
     Max number of k-points (npk) =  40000
     Max angular momentum in pseudopotentials (lmaxx) =  3

     IMPORTANT: XC functional enforced from input :
     Exchange-correlation      = BEEF-VDW ( 1  4 27 13 2)
     Any further DFT definition will be discarded
     Please, verify this is what you really want

     Subspace diagonalization in iterative solution of the eigenvalue problem:
     a serial algorithm will be used

     bravais-lattice index     =            0
     lattice parameter (alat)  =       1.8897  a.u.
     unit-cell volume          =     441.0434 (a.u.)^3
     number of atoms/cell      =            4
     number of atomic types    =            2
     number of electrons       =        54.00
     number of Kohn-Sham states=           47
     kinetic-energy cutoff     =      58.7989  Ry
     charge density cutoff     =     587.9892  Ry
     convergence threshold     =      7.3E-09
     mixing beta               =       0.1000
     number of iterations used =           10  local-TF  mixing
     Exchange-correlation      = BEEF-VDW ( 1  4 27 13 2)
     nstep                     =           50

     celldm(1)=   1.889726  celldm(2)=   0.000000  celldm(3)=   0.000000
     celldm(4)=   0.000000  celldm(5)=   0.000000  celldm(6)=   0.000000

     crystal axes: (cart. coord. in units of alat)
               a(1) = (   4.028051   0.000000   0.000000 )
               a(2) = (   0.000000   4.028051   0.000000 )
               a(3) = (   0.000000   0.000000   4.028051 )

     reciprocal axes: (cart. coord. in units 2 pi/alat)
               b(1) = (  0.248259  0.000000  0.000000 )
               b(2) = (  0.000000  0.248259  0.000000 )
               b(3) = (  0.000000  0.000000  0.248259 )

     PseudoPot. # 1 for Mo read from file:
     /home/vossj/suncat/psp/gbrv1.5pbe/Mo.UPF
     MD5 check sum: 30c4dcd161f5d35cd49bb5239c51a633
     Pseudo is Ultrasoft + core correction, Zval = 14.0
     Generated by new atomic code, or converted to UPF format
     Using radial grid of  889 points,  6 beta functions with:
                l(1) =   0
                l(2) =   0
                l(3) =   1
                l(4) =   1
                l(5) =   2
                l(6) =   2
     Q(r) pseudized with  6 coefficients,  rinner =    1.000   1.000   1.000
                                                       1.000   1.000

     PseudoPot. # 2 for Ti read from file:
     /home/vossj/suncat/psp/gbrv1.5pbe/Ti.UPF
     MD5 check sum: 88a00a6731bd790ddea75d31a80cb452
     Pseudo is Ultrasoft + core correction, Zval = 12.0
     Generated by new atomic code, or converted to UPF format
     Using radial grid of  851 points,  6 beta functions with:
                l(1) =   0
                l(2) =   0
                l(3) =   1
                l(4) =   1
                l(5) =   2
                l(6) =   2
     Q(r) pseudized with  6 coefficients,  rinner =    1.000   1.000   1.000
                                                       1.000   1.000

     vdW kernel table read from file vdW_kernel_table
     MD5 check sum: 095c7af220d748ca6e76c0b4c6cfb241

     atomic species   valence    mass     pseudopotential
        Mo1           14.00    95.95000     Mo( 1.00)
        Ti1           12.00    47.86700     Ti( 1.00)

     48 Sym. Ops., with inversion, found (32 have fractional translation)

   Cartesian axes

     site n.     atom                  positions (alat units)
         1           Mo1 tau(   1) = (   0.0000000   0.0000000   0.0000000  )
         2           Mo1 tau(   2) = (   0.0000000   2.0140253   2.0140253  )
         3           Mo1 tau(   3) = (   2.0140253   0.0000000   2.0140253  )
         4           Ti1 tau(   4) = (   2.0140253   2.0140253   0.0000000  )

     number of k points=    84  Fermi-Dirac smearing, width (Ry)=  0.0073
                       cart. coord. in units 2pi/alat
        k(    1) = (   0.0000000   0.0000000   0.0000000), wk =   0.0011574
        k(    2) = (   0.0000000   0.0000000   0.0206883), wk =   0.0069444
        k(    3) = (   0.0000000   0.0000000   0.0413765), wk =   0.0069444
        k(    4) = (   0.0000000   0.0000000   0.0620648), wk =   0.0069444
        k(    5) = (   0.0000000   0.0000000   0.0827530), wk =   0.0069444
        k(    6) = (   0.0000000   0.0000000   0.1034413), wk =   0.0069444
        k(    7) = (   0.0000000   0.0000000  -0.1241295), wk =   0.0034722
        k(    8) = (   0.0000000   0.0206883   0.0206883), wk =   0.0138889
        k(    9) = (   0.0000000   0.0206883   0.0413765), wk =   0.0277778
        k(   10) = (   0.0000000   0.0206883   0.0620648), wk =   0.0277778
        k(   11) = (   0.0000000   0.0206883   0.0827530), wk =   0.0277778
        k(   12) = (   0.0000000   0.0206883   0.1034413), wk =   0.0277778
        k(   13) = (   0.0000000   0.0206883  -0.1241295), wk =   0.0138889
        k(   14) = (   0.0000000   0.0413765   0.0413765), wk =   0.0138889
        k(   15) = (   0.0000000   0.0413765   0.0620648), wk =   0.0277778
        k(   16) = (   0.0000000   0.0413765   0.0827530), wk =   0.0277778
        k(   17) = (   0.0000000   0.0413765   0.1034413), wk =   0.0277778
        k(   18) = (   0.0000000   0.0413765  -0.1241295), wk =   0.0138889
        k(   19) = (   0.0000000   0.0620648   0.0620648), wk =   0.0138889
        k(   20) = (   0.0000000   0.0620648   0.0827530), wk =   0.0277778
        k(   21) = (   0.0000000   0.0620648   0.1034413), wk =   0.0277778
        k(   22) = (   0.0000000   0.0620648  -0.1241295), wk =   0.0138889
        k(   23) = (   0.0000000   0.0827530   0.0827530), wk =   0.0138889
        k(   24) = (   0.0000000   0.0827530   0.1034413), wk =   0.0277778
        k(   25) = (   0.0000000   0.0827530  -0.1241295), wk =   0.0138889
        k(   26) = (   0.0000000   0.1034413   0.1034413), wk =   0.0138889
        k(   27) = (   0.0000000   0.1034413  -0.1241295), wk =   0.0138889
        k(   28) = (   0.0000000  -0.1241295  -0.1241295), wk =   0.0034722
        k(   29) = (   0.0206883   0.0206883   0.0206883), wk =   0.0092593
        k(   30) = (   0.0206883   0.0206883   0.0413765), wk =   0.0277778
        k(   31) = (   0.0206883   0.0206883   0.0620648), wk =   0.0277778
        k(   32) = (   0.0206883   0.0206883   0.0827530), wk =   0.0277778
        k(   33) = (   0.0206883   0.0206883   0.1034413), wk =   0.0277778
        k(   34) = (   0.0206883   0.0206883  -0.1241295), wk =   0.0138889
        k(   35) = (   0.0206883   0.0413765   0.0413765), wk =   0.0277778
        k(   36) = (   0.0206883   0.0413765   0.0620648), wk =   0.0555556
        k(   37) = (   0.0206883   0.0413765   0.0827530), wk =   0.0555556
        k(   38) = (   0.0206883   0.0413765   0.1034413), wk =   0.0555556
        k(   39) = (   0.0206883   0.0413765  -0.1241295), wk =   0.0277778
        k(   40) = (   0.0206883   0.0620648   0.0620648), wk =   0.0277778
        k(   41) = (   0.0206883   0.0620648   0.0827530), wk =   0.0555556
        k(   42) = (   0.0206883   0.0620648   0.1034413), wk =   0.0555556
        k(   43) = (   0.0206883   0.0620648  -0.1241295), wk =   0.0277778
        k(   44) = (   0.0206883   0.0827530   0.0827530), wk =   0.0277778
        k(   45) = (   0.0206883   0.0827530   0.1034413), wk =   0.0555556
        k(   46) = (   0.0206883   0.0827530  -0.1241295), wk =   0.0277778
        k(   47) = (   0.0206883   0.1034413   0.1034413), wk =   0.0277778
        k(   48) = (   0.0206883   0.1034413  -0.1241295), wk =   0.0277778
        k(   49) = (   0.0206883  -0.1241295  -0.1241295), wk =   0.0069444
        k(   50) = (   0.0413765   0.0413765   0.0413765), wk =   0.0092593
        k(   51) = (   0.0413765   0.0413765   0.0620648), wk =   0.0277778
        k(   52) = (   0.0413765   0.0413765   0.0827530), wk =   0.0277778
        k(   53) = (   0.0413765   0.0413765   0.1034413), wk =   0.0277778
        k(   54) = (   0.0413765   0.0413765  -0.1241295), wk =   0.0138889
        k(   55) = (   0.0413765   0.0620648   0.0620648), wk =   0.0277778
        k(   56) = (   0.0413765   0.0620648   0.0827530), wk =   0.0555556
        k(   57) = (   0.0413765   0.0620648   0.1034413), wk =   0.0555556
        k(   58) = (   0.0413765   0.0620648  -0.1241295), wk =   0.0277778
        k(   59) = (   0.0413765   0.0827530   0.0827530), wk =   0.0277778
        k(   60) = (   0.0413765   0.0827530   0.1034413), wk =   0.0555556
[...]
        k(   70) = (   0.0620648   0.0827530   0.1034413), wk =   0.0555556
        k(   71) = (   0.0620648   0.0827530  -0.1241295), wk =   0.0277778
        k(   72) = (   0.0620648   0.1034413   0.1034413), wk =   0.0277778
        k(   73) = (   0.0620648   0.1034413  -0.1241295), wk =   0.0277778
        k(   74) = (   0.0620648  -0.1241295  -0.1241295), wk =   0.0069444
        k(   75) = (   0.0827530   0.0827530   0.0827530), wk =   0.0092593
        k(   76) = (   0.0827530   0.0827530   0.1034413), wk =   0.0277778
        k(   77) = (   0.0827530   0.0827530  -0.1241295), wk =   0.0138889
        k(   78) = (   0.0827530   0.1034413   0.1034413), wk =   0.0277778
        k(   79) = (   0.0827530   0.1034413  -0.1241295), wk =   0.0277778
        k(   80) = (   0.0827530  -0.1241295  -0.1241295), wk =   0.0069444
        k(   81) = (   0.1034413   0.1034413   0.1034413), wk =   0.0092593
        k(   82) = (   0.1034413   0.1034413  -0.1241295), wk =   0.0138889
        k(   83) = (   0.1034413  -0.1241295  -0.1241295), wk =   0.0069444
        k(   84) = (  -0.1241295  -0.1241295  -0.1241295), wk =   0.0011574

     Largest allocated arrays     est. size (Mb)     dimensions
     Largest temporary arrays     est. size (Mb)     dimensions

     Check: negative/imaginary core charge=   -0.000001    0.000000

     Initial potential from superposition of free atoms
     Check: negative starting charge=   -0.001283

     starting charge   52.99677, renormalised to   54.00000

     negative rho (up, down):  1.307E-03 0.000E+00

     *
     * You are using vdW-DF for exchange-correlation in this calculation.
     * Please cite the following three references that made this development
     * possible:
     *
     *   M. Dion, H. Rydberg, E. Schroder, D. C. Langreth, and
     *   B. I. Lundqvist, Phys. Rev. Lett. 92, 246401 (2004).
     *
     *   T. Thonhauser, V. R. Cooper, S. Li, A. Puzder, P. Hyldgaard, and
     *   D. C. Langreth, Phys. Rev. B 76, 125112 (2007).
     *
     *   G. Roman-Perez and J. M. Soler, Phys. Rev. Lett. 103, 096102 (2009).
     *
     *
     * If you are using vdW-DF2, please also cite:
     *
     *   K. Lee, E. D. Murray, L. Kong, B. I. Lundqvist, and
     *   D. C. Langreth, Phys. Rev. B 82, 081101(R) (2010).
     *
     *
     * If you are calculating the stress with vdW-DF, please also cite:
     *
     *   R. Sabatini, E. Kucukbenli, B. Kolb, T. Thonhauser, and
     *   S. de Gironcoli, J. Phys.: Condens. Matter 24, 424209 (2012).
     *

     Carrying out vdW-DF run using the following parameters:

     Nqs =      20    Nr_points =    1024   r_max =   100.000
     q_mesh =
               0.00001000     0.04494208     0.09755937     0.15916263
               0.23128650     0.31572767     0.41458969     0.53033537
               0.66584808     0.82450364     1.01025438     1.22772762
               1.48234092     1.78043706     2.12944203     2.53805004
               3.01644009     3.57652955     4.23227104     5.00000000

     Gradients computed in reciprocal space

     Starting wfc are   49 randomized atomic wfcs

     Self-consistent Calculation

     iteration #  1     ecut=    58.80 Ry     beta=0.10
     Davidson diagonalization with overlap
     ethr =  1.00E-02,  avg # of iterations =  4.2

[...]

     total energy              =    -540.02079640 Ry
     Harris-Foulkes estimate   =    -540.49148200 Ry
     estimated scf accuracy    <       9.32202419 Ry

[...]

     total energy              =    -539.86719269 Ry
     Harris-Foulkes estimate   =    -539.86719246 Ry
     estimated scf accuracy    <       0.00000025 Ry

     iteration # 14     ecut=    58.80 Ry     beta=0.10
     Davidson diagonalization with overlap
     ethr =  4.69E-10,  avg # of iterations =  1.1

     negative rho (up, down):  7.488E-04 0.000E+00

     End of self-consistent calculation

          k = 0.0000 0.0000 0.0000 (  3407 PWs)   bands (ev):

   -42.7463 -42.5435 -42.5435 -38.5248 -17.1043 -17.1043 -17.1043 -16.5762
   -16.5762 -16.5762 -16.3049 -16.3049 -16.3049 -14.7041 -14.7041 -14.7041
    11.7328  13.4567  14.0881  14.0881  14.5366  14.5366  14.5366  17.9570
    17.9570  17.9570  20.2895  20.2895  21.9278  21.9278  21.9278  21.9470
    21.9470  21.9988  22.3309  22.3309  22.3309  22.5670  22.5670  22.5670
    30.1866  30.1866  30.1866  31.0644  31.0644  31.0644  31.2037

[...]

          k = 0.1034-0.1241-0.1241 (  3368 PWs)   bands (ev):

[...]

          k =-0.1241-0.1241-0.1241 (  3328 PWs)   bands (ev):

   -42.6092 -42.6092 -42.6092 -38.5262 -17.3471 -17.0668 -17.0668 -17.0668
   -16.3159 -16.3159 -16.3083 -16.3083 -16.3083 -14.6941 -14.6941 -14.6941
    13.8698  14.2000  14.2000  14.2000  17.3619  17.3619  17.3619  17.8138
    17.8138  17.8138  18.2674  18.2674  19.4550  19.4550  19.4550  19.7034
    21.9434  21.9434  21.9434  21.9758  21.9758  22.0231  22.0231  22.0231
    28.3471  28.3471  28.3471  28.8503  31.3742  31.4906  31.4906

     the Fermi energy is    18.2402 ev

!    total energy              =    -539.86719395 Ry
     Harris-Foulkes estimate   =    -539.86719272 Ry
     estimated scf accuracy    <          1.1E-09 Ry

     The total energy is the sum of the following terms:

     one-electron contribution =    -101.01869417 Ry
     hartree contribution      =      80.11687195 Ry
     xc contribution           =     -78.96370804 Ry
     ewald contribution        =    -439.98519001 Ry
     smearing contrib. (-TS)   =      -0.01647367 Ry

     convergence has been achieved in  14 iterations

     Forces acting on atoms (Ry/au):

     negative rho (up, down):  7.488E-04 0.000E+00
     atom    1 type  1   force =     0.00000000    0.00000000    0.00000000
     atom    2 type  1   force =     0.00000000    0.00000000    0.00000000
     atom    3 type  1   force =     0.00000000    0.00000000    0.00000000
     atom    4 type  2   force =     0.00000000    0.00000000    0.00000000

     Total force =     0.000000     Total SCF correction =     0.000000
 !ASE

     General routines

     Parallel routines

   This run was terminated on:  13:55:22  25Oct2017

   JOB DONE.