     Program PWSCF v.5.1rc2 (svn rev. ) starts on 26Oct2017 at  2:20:37

     Current dimensions of program PWSCF are:
     Max number of different atomic species (ntypx) = 10
     Max number of k-points (npk) =  40000
     Max angular momentum in pseudopotentials (lmaxx) =  3

     IMPORTANT: XC functional enforced from input :
     Exchange-correlation      = BEEF-VDW ( 1  4 27 13 2)
     Any further DFT definition will be discarded
     Please, verify this is what you really want

     Subspace diagonalization in iterative solution of the eigenvalue problem:
     a serial algorithm will be used

     bravais-lattice index     =            0
     lattice parameter (alat)  =       1.8897  a.u.
     unit-cell volume          =     780.5393 (a.u.)^3
     number of atoms/cell      =            4
     number of atomic types    =            2
     number of electrons       =        58.00
     number of Kohn-Sham states=           49
     kinetic-energy cutoff     =      58.7989  Ry
     charge density cutoff     =     587.9892  Ry
     convergence threshold     =      7.3E-09
     mixing beta               =       0.1000
     number of iterations used =           10  local-TF  mixing
     Exchange-correlation      = BEEF-VDW ( 1  4 27 13 2)
     nstep                     =           50

     celldm(1)=   1.889726  celldm(2)=   0.000000  celldm(3)=   0.000000
     celldm(4)=   0.000000  celldm(5)=   0.000000  celldm(6)=   0.000000

     crystal axes: (cart. coord. in units of alat)
               a(1) = (   4.872285   0.000000   0.000000 )
               a(2) = (   0.000000   4.872285   0.000000 )
               a(3) = (   0.000000   0.000000   4.872285 )

     reciprocal axes: (cart. coord. in units 2 pi/alat)
               b(1) = (  0.205242  0.000000  0.000000 )
               b(2) = (  0.000000  0.205242  0.000000 )
               b(3) = (  0.000000  0.000000  0.205242 )

     PseudoPot. # 1 for Tl read from file:
     /home/vossj/suncat/psp/gbrv1.5pbe/Tl.UPF
     MD5 check sum: b76cf1f7e72655a2b2c53cf6385d7059
     Pseudo is Ultrasoft + core correction, Zval = 13.0
     Generated by new atomic code, or converted to UPF format
     Using radial grid of  899 points,  6 beta functions with:
                l(1) =   0
                l(2) =   0
                l(3) =   1
                l(4) =   1
                l(5) =   2
                l(6) =   2
     Q(r) pseudized with  6 coefficients,  rinner =    1.100   1.100   1.100
                                                       1.100   1.100

     PseudoPot. # 2 for Ag read from file:
     /home/vossj/suncat/psp/gbrv1.5pbe/Ag.UPF
     MD5 check sum: d66d668201baa78d5eb5b04ef7011058
     Pseudo is Ultrasoft + core correction, Zval = 19.0
     Generated by new atomic code, or converted to UPF format
     Using radial grid of  887 points,  6 beta functions with:
                l(1) =   0
                l(2) =   0
                l(3) =   1
                l(4) =   1
                l(5) =   2
                l(6) =   2
     Q(r) pseudized with  6 coefficients,  rinner =    1.300   1.300   1.300
                                                       1.300   1.300

     vdW kernel table read from file vdW_kernel_table
     MD5 check sum: 095c7af220d748ca6e76c0b4c6cfb241

     atomic species   valence    mass     pseudopotential
        Tl1           13.00   204.38000     Tl( 1.00)
        Ag1           19.00   107.86820     Ag( 1.00)

     48 Sym. Ops., with inversion, found (32 have fractional translation)

   Cartesian axes

     site n.     atom                  positions (alat units)
         1           Tl1 tau(   1) = (   0.0000000   0.0000000   0.0000000  )
         2           Tl1 tau(   2) = (   0.0000000   2.4361427   2.4361427  )
         3           Tl1 tau(   3) = (   2.4361427   0.0000000   2.4361427  )
         4           Ag1 tau(   4) = (   2.4361427   2.4361427   0.0000000  )

     number of k points=    84  Fermi-Dirac smearing, width (Ry)=  0.0073
                       cart. coord. in units 2pi/alat
        k(    1) = (   0.0000000   0.0000000   0.0000000), wk =   0.0011574
        k(    2) = (   0.0000000   0.0000000   0.0171035), wk =   0.0069444
        k(    3) = (   0.0000000   0.0000000   0.0342071), wk =   0.0069444
        k(    4) = (   0.0000000   0.0000000   0.0513106), wk =   0.0069444
        k(    5) = (   0.0000000   0.0000000   0.0684142), wk =   0.0069444
        k(    6) = (   0.0000000   0.0000000   0.0855177), wk =   0.0069444
        k(    7) = (   0.0000000   0.0000000  -0.1026212), wk =   0.0034722
        k(    8) = (   0.0000000   0.0171035   0.0171035), wk =   0.0138889
        k(    9) = (   0.0000000   0.0171035   0.0342071), wk =   0.0277778
        k(   10) = (   0.0000000   0.0171035   0.0513106), wk =   0.0277778
        k(   11) = (   0.0000000   0.0171035   0.0684142), wk =   0.0277778
        k(   12) = (   0.0000000   0.0171035   0.0855177), wk =   0.0277778
        k(   13) = (   0.0000000   0.0171035  -0.1026212), wk =   0.0138889
        k(   14) = (   0.0000000   0.0342071   0.0342071), wk =   0.0138889
        k(   15) = (   0.0000000   0.0342071   0.0513106), wk =   0.0277778
        k(   16) = (   0.0000000   0.0342071   0.0684142), wk =   0.0277778
        k(   17) = (   0.0000000   0.0342071   0.0855177), wk =   0.0277778
        k(   18) = (   0.0000000   0.0342071  -0.1026212), wk =   0.0138889
        k(   19) = (   0.0000000   0.0513106   0.0513106), wk =   0.0138889
        k(   20) = (   0.0000000   0.0513106   0.0684142), wk =   0.0277778
        k(   21) = (   0.0000000   0.0513106   0.0855177), wk =   0.0277778
        k(   22) = (   0.0000000   0.0513106  -0.1026212), wk =   0.0138889
        k(   23) = (   0.0000000   0.0684142   0.0684142), wk =   0.0138889
        k(   24) = (   0.0000000   0.0684142   0.0855177), wk =   0.0277778
        k(   25) = (   0.0000000   0.0684142  -0.1026212), wk =   0.0138889
        k(   26) = (   0.0000000   0.0855177   0.0855177), wk =   0.0138889
        k(   27) = (   0.0000000   0.0855177  -0.1026212), wk =   0.0138889
        k(   28) = (   0.0000000  -0.1026212  -0.1026212), wk =   0.0034722
        k(   29) = (   0.0171035   0.0171035   0.0171035), wk =   0.0092593
        k(   30) = (   0.0171035   0.0171035   0.0342071), wk =   0.0277778
        k(   31) = (   0.0171035   0.0171035   0.0513106), wk =   0.0277778
        k(   32) = (   0.0171035   0.0171035   0.0684142), wk =   0.0277778
        k(   33) = (   0.0171035   0.0171035   0.0855177), wk =   0.0277778
        k(   34) = (   0.0171035   0.0171035  -0.1026212), wk =   0.0138889
        k(   35) = (   0.0171035   0.0342071   0.0342071), wk =   0.0277778
        k(   36) = (   0.0171035   0.0342071   0.0513106), wk =   0.0555556
        k(   37) = (   0.0171035   0.0342071   0.0684142), wk =   0.0555556
        k(   38) = (   0.0171035   0.0342071   0.0855177), wk =   0.0555556
        k(   39) = (   0.0171035   0.0342071  -0.1026212), wk =   0.0277778
        k(   40) = (   0.0171035   0.0513106   0.0513106), wk =   0.0277778
        k(   41) = (   0.0171035   0.0513106   0.0684142), wk =   0.0555556
        k(   42) = (   0.0171035   0.0513106   0.0855177), wk =   0.0555556
        k(   43) = (   0.0171035   0.0513106  -0.1026212), wk =   0.0277778
        k(   44) = (   0.0171035   0.0684142   0.0684142), wk =   0.0277778
        k(   45) = (   0.0171035   0.0684142   0.0855177), wk =   0.0555556
        k(   46) = (   0.0171035   0.0684142  -0.1026212), wk =   0.0277778
        k(   47) = (   0.0171035   0.0855177   0.0855177), wk =   0.0277778
        k(   48) = (   0.0171035   0.0855177  -0.1026212), wk =   0.0277778
        k(   49) = (   0.0171035  -0.1026212  -0.1026212), wk =   0.0069444
        k(   50) = (   0.0342071   0.0342071   0.0342071), wk =   0.0092593
        k(   51) = (   0.0342071   0.0342071   0.0513106), wk =   0.0277778
        k(   52) = (   0.0342071   0.0342071   0.0684142), wk =   0.0277778
        k(   53) = (   0.0342071   0.0342071   0.0855177), wk =   0.0277778
        k(   54) = (   0.0342071   0.0342071  -0.1026212), wk =   0.0138889
        k(   55) = (   0.0342071   0.0513106   0.0513106), wk =   0.0277778
        k(   56) = (   0.0342071   0.0513106   0.0684142), wk =   0.0555556
        k(   57) = (   0.0342071   0.0513106   0.0855177), wk =   0.0555556
        k(   58) = (   0.0342071   0.0513106  -0.1026212), wk =   0.0277778
        k(   59) = (   0.0342071   0.0684142   0.0684142), wk =   0.0277778
        k(   60) = (   0.0342071   0.0684142   0.0855177), wk =   0.0555556
[...]
        k(   70) = (   0.0513106   0.0684142   0.0855177), wk =   0.0555556
        k(   71) = (   0.0513106   0.0684142  -0.1026212), wk =   0.0277778
        k(   72) = (   0.0513106   0.0855177   0.0855177), wk =   0.0277778
        k(   73) = (   0.0513106   0.0855177  -0.1026212), wk =   0.0277778
        k(   74) = (   0.0513106  -0.1026212  -0.1026212), wk =   0.0069444
        k(   75) = (   0.0684142   0.0684142   0.0684142), wk =   0.0092593
        k(   76) = (   0.0684142   0.0684142   0.0855177), wk =   0.0277778
        k(   77) = (   0.0684142   0.0684142  -0.1026212), wk =   0.0138889
        k(   78) = (   0.0684142   0.0855177   0.0855177), wk =   0.0277778
        k(   79) = (   0.0684142   0.0855177  -0.1026212), wk =   0.0277778
        k(   80) = (   0.0684142  -0.1026212  -0.1026212), wk =   0.0069444
        k(   81) = (   0.0855177   0.0855177   0.0855177), wk =   0.0092593
        k(   82) = (   0.0855177   0.0855177  -0.1026212), wk =   0.0138889
        k(   83) = (   0.0855177  -0.1026212  -0.1026212), wk =   0.0069444
        k(   84) = (  -0.1026212  -0.1026212  -0.1026212), wk =   0.0011574

     Largest allocated arrays     est. size (Mb)     dimensions
     Largest temporary arrays     est. size (Mb)     dimensions

     Initial potential from superposition of free atoms
     Check: negative starting charge=   -0.150769

     starting charge   57.48536, renormalised to   58.00000

     negative rho (up, down):  1.521E-01 0.000E+00

     *
     * You are using vdW-DF for exchange-correlation in this calculation.
     * Please cite the following three references that made this development
     * possible:
     *
     *   M. Dion, H. Rydberg, E. Schroder, D. C. Langreth, and
     *   B. I. Lundqvist, Phys. Rev. Lett. 92, 246401 (2004).
     *
     *   T. Thonhauser, V. R. Cooper, S. Li, A. Puzder, P. Hyldgaard, and
     *   D. C. Langreth, Phys. Rev. B 76, 125112 (2007).
     *
     *   G. Roman-Perez and J. M. Soler, Phys. Rev. Lett. 103, 096102 (2009).
     *
     *
     * If you are using vdW-DF2, please also cite:
     *
     *   K. Lee, E. D. Murray, L. Kong, B. I. Lundqvist, and
     *   D. C. Langreth, Phys. Rev. B 82, 081101(R) (2010).
     *
     *
     * If you are calculating the stress with vdW-DF, please also cite:
     *
     *   R. Sabatini, E. Kucukbenli, B. Kolb, T. Thonhauser, and
     *   S. de Gironcoli, J. Phys.: Condens. Matter 24, 424209 (2012).
     *

     Carrying out vdW-DF run using the following parameters:

     Nqs =      20    Nr_points =    1024   r_max =   100.000
     q_mesh =
               0.00001000     0.04494208     0.09755937     0.15916263
               0.23128650     0.31572767     0.41458969     0.53033537
               0.66584808     0.82450364     1.01025438     1.22772762
               1.48234092     1.78043706     2.12944203     2.53805004
               3.01644009     3.57652955     4.23227104     5.00000000

     Gradients computed in reciprocal space

     Starting wfc are   40 randomized atomic wfcs +    9 random wfc

     Self-consistent Calculation

     iteration #  1     ecut=    58.80 Ry     beta=0.10
     Davidson diagonalization with overlap
     ethr =  1.00E-02,  avg # of iterations =  4.8

     Threshold (ethr) on eigenvalues was too large:
     Diagonalizing with lowered threshold

     Davidson diagonalization with overlap
     ethr =  2.87E-04,  avg # of iterations =  1.2

[...]

     total energy              =    -737.10549288 Ry
     Harris-Foulkes estimate   =    -737.11053312 Ry
     estimated scf accuracy    <       0.16647286 Ry

[...]

     total energy              =    -737.08526634 Ry
     Harris-Foulkes estimate   =    -737.08525747 Ry
     estimated scf accuracy    <       0.00000002 Ry

     iteration # 30     ecut=    58.80 Ry     beta=0.10
     Davidson diagonalization with overlap
     ethr =  2.92E-11,  avg # of iterations =  2.0

     negative rho (up, down):  1.576E-01 0.000E+00

     End of self-consistent calculation

          k = 0.0000 0.0000 0.0000 (  6031 PWs)   bands (ev):

   -81.8751 -45.3714 -45.3714 -45.3714  -2.1037  -2.0878  -2.0878  -2.0878
    -1.8788  -1.8788  -1.6440  -1.6440  -1.6439  -1.5433  -1.5433  -1.3998
    -1.3482  -1.3481  -1.3481   0.8459   5.3731   5.3731   5.9279   5.9279
     5.9279   7.0006   7.0007   8.9421   8.9421   8.9421  10.9105  14.3976
    14.3976  14.3976  15.3827  15.3827  15.3827  18.3620  18.3620  18.6543
    19.6190  19.6190  19.6190  21.3292  21.3292  21.3292  21.7862  25.7097
    25.7097

[...]

          k = 0.0855-0.1026-0.1026 (  5940 PWs)   bands (ev):

[...]

          k =-0.1026-0.1026-0.1026 (  5904 PWs)   bands (ev):

   -81.8751 -45.3712 -45.3712 -45.3712  -1.9787  -1.9787  -1.9787  -1.9290
    -1.8636  -1.8636  -1.8635  -1.6258  -1.6258  -1.6257  -1.5757  -1.5757
    -1.3964  -1.3964  -1.3964   4.2534   4.2534   4.2534   5.9640   5.9640
     6.4505   6.4505   6.4505   7.2665   8.1202   8.1202   8.1202   9.7268
    18.1711  18.1711  18.5037  18.5037  18.5037  20.2594  20.2594  20.2594
    20.8687  21.3624  21.3624  21.3624  22.9095  22.9095  22.9095  23.8542
    23.8542

     the Fermi energy is    10.0872 ev

!    total energy              =    -737.08530396 Ry
     Harris-Foulkes estimate   =    -737.08526636 Ry
     estimated scf accuracy    <          5.5E-09 Ry

     The total energy is the sum of the following terms:

     one-electron contribution =    -256.87299801 Ry
     hartree contribution      =     167.30858541 Ry
     xc contribution           =    -222.11864761 Ry
     ewald contribution        =    -425.39661896 Ry
     smearing contrib. (-TS)   =      -0.00562479 Ry

     convergence has been achieved in  30 iterations

     Forces acting on atoms (Ry/au):

     negative rho (up, down):  1.576E-01 0.000E+00
     atom    1 type  1   force =     0.00000000    0.00000000    0.00000000
     atom    2 type  1   force =     0.00000000    0.00000000    0.00000000
     atom    3 type  1   force =     0.00000000   -0.00000000    0.00000000
     atom    4 type  2   force =     0.00000000   -0.00000000    0.00000000

     Total force =     0.000000     Total SCF correction =     0.000000
 !ASE

     General routines

     Parallel routines

   This run was terminated on:   2:23:45  26Oct2017

   JOB DONE.