     Program PWSCF v.5.1rc2 (svn rev. ) starts on 17Feb2018 at 12:41: 4

     Current dimensions of program PWSCF are:
     Max number of different atomic species (ntypx) = 10
     Max number of k-points (npk) =  40000
     Max angular momentum in pseudopotentials (lmaxx) =  3

     IMPORTANT: XC functional enforced from input :
     Exchange-correlation      = BEEF-VDW ( 1  4 27 13 2)
     Any further DFT definition will be discarded
     Please, verify this is what you really want

     Subspace diagonalization in iterative solution of the eigenvalue problem:
     a serial algorithm will be used

     bravais-lattice index     =            0
     lattice parameter (alat)  =       1.8897  a.u.
     unit-cell volume          =     775.0397 (a.u.)^3
     number of atoms/cell      =            4
     number of atomic types    =            2
     number of electrons       =        61.00
     number of Kohn-Sham states=           50
     kinetic-energy cutoff     =      58.7989  Ry
     charge density cutoff     =     587.9892  Ry
     convergence threshold     =      7.3E-09
     mixing beta               =       0.1000
     number of iterations used =           10  local-TF  mixing
     Exchange-correlation      = BEEF-VDW ( 1  4 27 13 2)
     nstep                     =           50

     celldm(1)=   1.889726  celldm(2)=   0.000000  celldm(3)=   0.000000
     celldm(4)=   0.000000  celldm(5)=   0.000000  celldm(6)=   0.000000

     crystal axes: (cart. coord. in units of alat)
               a(1) = (   4.860815   0.000000   0.000000 )
               a(2) = (   0.000000   4.860815   0.000000 )
               a(3) = (   0.000000   0.000000   4.860815 )

     reciprocal axes: (cart. coord. in units 2 pi/alat)
               b(1) = (  0.205727  0.000000  0.000000 )
               b(2) = (  0.000000  0.205727  0.000000 )
               b(3) = (  0.000000  0.000000  0.205727 )

     PseudoPot. # 1 for Bi read from file:
     /home/mamunm/src/pseudo/gbrv1.5pbe/Bi.UPF
     MD5 check sum: 81103212dc04adf40945787f699eab19
     Pseudo is Ultrasoft + core correction, Zval = 15.0
     Generated by new atomic code, or converted to UPF format
     Using radial grid of  899 points,  6 beta functions with:
                l(1) =   0
                l(2) =   0
                l(3) =   1
                l(4) =   1
                l(5) =   2
                l(6) =   2
     Q(r) pseudized with  6 coefficients,  rinner =    1.000   1.000   1.000
                                                       1.000   1.000

     PseudoPot. # 2 for Pd read from file:
     /home/mamunm/src/pseudo/gbrv1.5pbe/Pd.UPF
     MD5 check sum: 2d733d2bc2cbfd217af676df1668a4bc
     Pseudo is Ultrasoft + core correction, Zval = 16.0
     Generated by new atomic code, or converted to UPF format
     Using radial grid of  887 points,  6 beta functions with:
                l(1) =   0
                l(2) =   0
                l(3) =   1
                l(4) =   1
                l(5) =   2
                l(6) =   2
     Q(r) pseudized with  8 coefficients,  rinner =    1.130   1.130   1.130
                                                       1.130   1.130

     vdW kernel table read from file vdW_kernel_table
     MD5 check sum: 095c7af220d748ca6e76c0b4c6cfb241

     atomic species   valence    mass     pseudopotential
        Bi1           15.00   208.98040     Bi( 1.00)
        Pd1           16.00   106.42000     Pd( 1.00)

     48 Sym. Ops., with inversion, found (32 have fractional translation)

   Cartesian axes

     site n.     atom                  positions (alat units)
         1           Bi1 tau(   1) = (   0.0000000   0.0000000   0.0000000  )
         2           Bi1 tau(   2) = (   0.0000000   2.4304076   2.4304076  )
         3           Bi1 tau(   3) = (   2.4304076   0.0000000   2.4304076  )
         4           Pd1 tau(   4) = (   2.4304076   2.4304076   0.0000000  )

     number of k points=    84  Fermi-Dirac smearing, width (Ry)=  0.0073
                       cart. coord. in units 2pi/alat
        k(    1) = (   0.0000000   0.0000000   0.0000000), wk =   0.0011574
        k(    2) = (   0.0000000   0.0000000   0.0171439), wk =   0.0069444
        k(    3) = (   0.0000000   0.0000000   0.0342878), wk =   0.0069444
        k(    4) = (   0.0000000   0.0000000   0.0514317), wk =   0.0069444
        k(    5) = (   0.0000000   0.0000000   0.0685756), wk =   0.0069444
        k(    6) = (   0.0000000   0.0000000   0.0857195), wk =   0.0069444
        k(    7) = (   0.0000000   0.0000000  -0.1028634), wk =   0.0034722
        k(    8) = (   0.0000000   0.0171439   0.0171439), wk =   0.0138889
        k(    9) = (   0.0000000   0.0171439   0.0342878), wk =   0.0277778
        k(   10) = (   0.0000000   0.0171439   0.0514317), wk =   0.0277778
        k(   11) = (   0.0000000   0.0171439   0.0685756), wk =   0.0277778
        k(   12) = (   0.0000000   0.0171439   0.0857195), wk =   0.0277778
        k(   13) = (   0.0000000   0.0171439  -0.1028634), wk =   0.0138889
        k(   14) = (   0.0000000   0.0342878   0.0342878), wk =   0.0138889
        k(   15) = (   0.0000000   0.0342878   0.0514317), wk =   0.0277778
        k(   16) = (   0.0000000   0.0342878   0.0685756), wk =   0.0277778
        k(   17) = (   0.0000000   0.0342878   0.0857195), wk =   0.0277778
        k(   18) = (   0.0000000   0.0342878  -0.1028634), wk =   0.0138889
        k(   19) = (   0.0000000   0.0514317   0.0514317), wk =   0.0138889
        k(   20) = (   0.0000000   0.0514317   0.0685756), wk =   0.0277778
        k(   21) = (   0.0000000   0.0514317   0.0857195), wk =   0.0277778
        k(   22) = (   0.0000000   0.0514317  -0.1028634), wk =   0.0138889
        k(   23) = (   0.0000000   0.0685756   0.0685756), wk =   0.0138889
        k(   24) = (   0.0000000   0.0685756   0.0857195), wk =   0.0277778
        k(   25) = (   0.0000000   0.0685756  -0.1028634), wk =   0.0138889
        k(   26) = (   0.0000000   0.0857195   0.0857195), wk =   0.0138889
        k(   27) = (   0.0000000   0.0857195  -0.1028634), wk =   0.0138889
        k(   28) = (   0.0000000  -0.1028634  -0.1028634), wk =   0.0034722
        k(   29) = (   0.0171439   0.0171439   0.0171439), wk =   0.0092593
        k(   30) = (   0.0171439   0.0171439   0.0342878), wk =   0.0277778
        k(   31) = (   0.0171439   0.0171439   0.0514317), wk =   0.0277778
        k(   32) = (   0.0171439   0.0171439   0.0685756), wk =   0.0277778
        k(   33) = (   0.0171439   0.0171439   0.0857195), wk =   0.0277778
        k(   34) = (   0.0171439   0.0171439  -0.1028634), wk =   0.0138889
        k(   35) = (   0.0171439   0.0342878   0.0342878), wk =   0.0277778
        k(   36) = (   0.0171439   0.0342878   0.0514317), wk =   0.0555556
        k(   37) = (   0.0171439   0.0342878   0.0685756), wk =   0.0555556
        k(   38) = (   0.0171439   0.0342878   0.0857195), wk =   0.0555556
        k(   39) = (   0.0171439   0.0342878  -0.1028634), wk =   0.0277778
        k(   40) = (   0.0171439   0.0514317   0.0514317), wk =   0.0277778
        k(   41) = (   0.0171439   0.0514317   0.0685756), wk =   0.0555556
        k(   42) = (   0.0171439   0.0514317   0.0857195), wk =   0.0555556
        k(   43) = (   0.0171439   0.0514317  -0.1028634), wk =   0.0277778
        k(   44) = (   0.0171439   0.0685756   0.0685756), wk =   0.0277778
        k(   45) = (   0.0171439   0.0685756   0.0857195), wk =   0.0555556
        k(   46) = (   0.0171439   0.0685756  -0.1028634), wk =   0.0277778
        k(   47) = (   0.0171439   0.0857195   0.0857195), wk =   0.0277778
        k(   48) = (   0.0171439   0.0857195  -0.1028634), wk =   0.0277778
        k(   49) = (   0.0171439  -0.1028634  -0.1028634), wk =   0.0069444
        k(   50) = (   0.0342878   0.0342878   0.0342878), wk =   0.0092593
        k(   51) = (   0.0342878   0.0342878   0.0514317), wk =   0.0277778
        k(   52) = (   0.0342878   0.0342878   0.0685756), wk =   0.0277778
        k(   53) = (   0.0342878   0.0342878   0.0857195), wk =   0.0277778
        k(   54) = (   0.0342878   0.0342878  -0.1028634), wk =   0.0138889
        k(   55) = (   0.0342878   0.0514317   0.0514317), wk =   0.0277778
        k(   56) = (   0.0342878   0.0514317   0.0685756), wk =   0.0555556
        k(   57) = (   0.0342878   0.0514317   0.0857195), wk =   0.0555556
        k(   58) = (   0.0342878   0.0514317  -0.1028634), wk =   0.0277778
        k(   59) = (   0.0342878   0.0685756   0.0685756), wk =   0.0277778
        k(   60) = (   0.0342878   0.0685756   0.0857195), wk =   0.0555556
[...]
        k(   70) = (   0.0514317   0.0685756   0.0857195), wk =   0.0555556
        k(   71) = (   0.0514317   0.0685756  -0.1028634), wk =   0.0277778
        k(   72) = (   0.0514317   0.0857195   0.0857195), wk =   0.0277778
        k(   73) = (   0.0514317   0.0857195  -0.1028634), wk =   0.0277778
        k(   74) = (   0.0514317  -0.1028634  -0.1028634), wk =   0.0069444
        k(   75) = (   0.0685756   0.0685756   0.0685756), wk =   0.0092593
        k(   76) = (   0.0685756   0.0685756   0.0857195), wk =   0.0277778
        k(   77) = (   0.0685756   0.0685756  -0.1028634), wk =   0.0138889
        k(   78) = (   0.0685756   0.0857195   0.0857195), wk =   0.0277778
        k(   79) = (   0.0685756   0.0857195  -0.1028634), wk =   0.0277778
        k(   80) = (   0.0685756  -0.1028634  -0.1028634), wk =   0.0069444
        k(   81) = (   0.0857195   0.0857195   0.0857195), wk =   0.0092593
        k(   82) = (   0.0857195   0.0857195  -0.1028634), wk =   0.0138889
        k(   83) = (   0.0857195  -0.1028634  -0.1028634), wk =   0.0069444
        k(   84) = (  -0.1028634  -0.1028634  -0.1028634), wk =   0.0011574

     Largest allocated arrays     est. size (Mb)     dimensions
     Largest temporary arrays     est. size (Mb)     dimensions

     Initial potential from superposition of free atoms
     Check: negative starting charge=   -0.205308

     starting charge   57.49987, renormalised to   61.00000

     negative rho (up, down):  2.178E-01 0.000E+00

     *
     * You are using vdW-DF for exchange-correlation in this calculation.
     * Please cite the following three references that made this development
     * possible:
     *
     *   M. Dion, H. Rydberg, E. Schroder, D. C. Langreth, and
     *   B. I. Lundqvist, Phys. Rev. Lett. 92, 246401 (2004).
     *
     *   T. Thonhauser, V. R. Cooper, S. Li, A. Puzder, P. Hyldgaard, and
     *   D. C. Langreth, Phys. Rev. B 76, 125112 (2007).
     *
     *   G. Roman-Perez and J. M. Soler, Phys. Rev. Lett. 103, 096102 (2009).
     *
     *
     * If you are using vdW-DF2, please also cite:
     *
     *   K. Lee, E. D. Murray, L. Kong, B. I. Lundqvist, and
     *   D. C. Langreth, Phys. Rev. B 82, 081101(R) (2010).
     *
     *
     * If you are calculating the stress with vdW-DF, please also cite:
     *
     *   R. Sabatini, E. Kucukbenli, B. Kolb, T. Thonhauser, and
     *   S. de Gironcoli, J. Phys.: Condens. Matter 24, 424209 (2012).
     *

     Carrying out vdW-DF run using the following parameters:

     Nqs =      20    Nr_points =    1024   r_max =   100.000
     q_mesh =
               0.00001000     0.04494208     0.09755937     0.15916263
               0.23128650     0.31572767     0.41458969     0.53033537
               0.66584808     0.82450364     1.01025438     1.22772762
               1.48234092     1.78043706     2.12944203     2.53805004
               3.01644009     3.57652955     4.23227104     5.00000000

     Gradients computed in reciprocal space

     Starting wfc are   39 randomized atomic wfcs +   11 random wfc

     Self-consistent Calculation

     iteration #  1     ecut=    58.80 Ry     beta=0.10
     Davidson diagonalization with overlap
     ethr =  1.00E-02,  avg # of iterations =  5.5

[...]

     total energy              =    -762.63027564 Ry
     Harris-Foulkes estimate   =    -763.99995370 Ry
     estimated scf accuracy    <      28.24581974 Ry

[...]

     total energy              =    -761.30671390 Ry
     Harris-Foulkes estimate   =    -761.30669106 Ry
     estimated scf accuracy    <       0.00000030 Ry

     iteration # 16     ecut=    58.80 Ry     beta=0.10
     Davidson diagonalization with overlap
     ethr =  4.93E-10,  avg # of iterations =  1.6

     negative rho (up, down):  2.137E-01 0.000E+00

     End of self-consistent calculation

          k = 0.0000 0.0000 0.0000 (  5887 PWs)   bands (ev):

   -37.8297 -37.8297 -37.8297 -11.8865 -11.8863 -11.8863 -11.8498 -11.8084
   -11.8081 -11.7396 -11.7396 -11.7392 -11.6992 -11.6989 -11.6701 -11.6329
   -11.6327 -11.6327  -1.4639   2.2753   2.2755   7.9915   7.9915   7.9915
     9.7252   9.7252   9.7252   9.7766   9.7767  11.7506  12.6509  12.6510
    12.6510  14.5537  14.5537  14.5538  17.6641  18.0677  18.0678  18.7373
    18.7373  18.7373  21.0217  21.0218  21.0218  22.1126  25.1113  25.1113
    25.1113  25.8577

[...]

          k = 0.0857-0.1029-0.1029 (  5904 PWs)   bands (ev):

[...]

          k =-0.1029-0.1029-0.1029 (  5904 PWs)   bands (ev):

   -37.8298 -37.8298 -37.8298 -11.8256 -11.8256 -11.8255 -11.8234 -11.8234
   -11.8234 -11.8054 -11.7205 -11.7202 -11.7130 -11.7130 -11.7128 -11.6582
   -11.6582 -11.6582   0.9999   0.9999   1.0002   6.2004   7.6135   7.6136
     7.6136   9.8791   9.8791   9.9561   9.9561   9.9561  11.1889  15.6170
    15.6171  15.9753  15.9755  15.9755  20.6493  20.6493  20.6494  20.7273
    20.7274  20.7274  21.1273  22.1509  22.1509  22.1509  22.4358  22.4358
    22.4359  23.7848

     the Fermi energy is    11.7654 ev

!    total energy              =    -761.30681137 Ry
     Harris-Foulkes estimate   =    -761.30671383 Ry
     estimated scf accuracy    <          4.3E-09 Ry

     The total energy is the sum of the following terms:

     one-electron contribution =    -211.15560543 Ry
     hartree contribution      =     146.66437186 Ry
     xc contribution           =    -232.30550554 Ry
     ewald contribution        =    -464.50472046 Ry
     smearing contrib. (-TS)   =      -0.00535179 Ry

     convergence has been achieved in  16 iterations

     Forces acting on atoms (Ry/au):

     negative rho (up, down):  2.137E-01 0.000E+00
     atom    1 type  1   force =     0.00000000   -0.00000000    0.00000000
     atom    2 type  1   force =     0.00000000    0.00000000    0.00000000
     atom    3 type  1   force =     0.00000000    0.00000000    0.00000000
     atom    4 type  2   force =     0.00000000    0.00000000   -0.00000000

     Total force =     0.000000     Total SCF correction =     0.000000
 !ASE

     General routines

     Parallel routines

   This run was terminated on:  12:42:51  17Feb2018

   JOB DONE.