     Program PWSCF v.5.1rc2 (svn rev. ) starts on 25Oct2017 at  5:46:42

     Current dimensions of program PWSCF are:
     Max number of different atomic species (ntypx) = 10
     Max number of k-points (npk) =  40000
     Max angular momentum in pseudopotentials (lmaxx) =  3

     IMPORTANT: XC functional enforced from input :
     Exchange-correlation      = BEEF-VDW ( 1  4 27 13 2)
     Any further DFT definition will be discarded
     Please, verify this is what you really want

     Subspace diagonalization in iterative solution of the eigenvalue problem:
     a serial algorithm will be used

     bravais-lattice index     =            0
     lattice parameter (alat)  =       1.8897  a.u.
     unit-cell volume          =     451.5043 (a.u.)^3
     number of atoms/cell      =            4
     number of atomic types    =            2
     number of electrons       =        60.00
     number of Kohn-Sham states=           50
     kinetic-energy cutoff     =      58.7989  Ry
     charge density cutoff     =     587.9892  Ry
     convergence threshold     =      7.3E-09
     mixing beta               =       0.1000
     number of iterations used =           10  local-TF  mixing
     Exchange-correlation      = BEEF-VDW ( 1  4 27 13 2)
     nstep                     =           50

     celldm(1)=   1.889726  celldm(2)=   0.000000  celldm(3)=   0.000000
     celldm(4)=   0.000000  celldm(5)=   0.000000  celldm(6)=   0.000000

     crystal axes: (cart. coord. in units of alat)
               a(1) = (   4.059648   0.000000   0.000000 )
               a(2) = (   0.000000   4.059648   0.000000 )
               a(3) = (   0.000000   0.000000   4.059648 )

     reciprocal axes: (cart. coord. in units 2 pi/alat)
               b(1) = (  0.246327  0.000000  0.000000 )
               b(2) = (  0.000000  0.246327  0.000000 )
               b(3) = (  0.000000  0.000000  0.246327 )

     PseudoPot. # 1 for Pt read from file:
     /home/vossj/suncat/psp/gbrv1.5pbe/Pt.UPF
     MD5 check sum: f09d6de1a584b5a045c4fc126da2d0c4
     Pseudo is Ultrasoft + core correction, Zval = 16.0
     Generated by new atomic code, or converted to UPF format
     Using radial grid of  985 points,  6 beta functions with:
                l(1) =   0
                l(2) =   0
                l(3) =   1
                l(4) =   1
                l(5) =   2
                l(6) =   2
     Q(r) pseudized with  8 coefficients,  rinner =    1.300   1.300   1.300
                                                       1.300   1.300

     PseudoPot. # 2 for Cd read from file:
     /home/vossj/suncat/psp/gbrv1.5pbe/Cd.UPF
     MD5 check sum: 17164a7926edb8e0dc231208abae86a6
     Pseudo is Ultrasoft + core correction, Zval = 12.0
     Generated by new atomic code, or converted to UPF format
     Using radial grid of  889 points,  6 beta functions with:
                l(1) =   0
                l(2) =   0
                l(3) =   1
                l(4) =   1
                l(5) =   2
                l(6) =   2
     Q(r) pseudized with  6 coefficients,  rinner =    1.000   1.000   1.000
                                                       1.000   1.000

     vdW kernel table read from file vdW_kernel_table
     MD5 check sum: 095c7af220d748ca6e76c0b4c6cfb241

     atomic species   valence    mass     pseudopotential
        Pt1           16.00   195.08400     Pt( 1.00)
        Cd1           12.00   112.41400     Cd( 1.00)

     48 Sym. Ops., with inversion, found (32 have fractional translation)

   Cartesian axes

     site n.     atom                  positions (alat units)
         1           Pt1 tau(   1) = (   0.0000000   0.0000000   0.0000000  )
         2           Pt1 tau(   2) = (   0.0000000   2.0298242   2.0298242  )
         3           Pt1 tau(   3) = (   2.0298242   0.0000000   2.0298242  )
         4           Cd1 tau(   4) = (   2.0298242   2.0298242   0.0000000  )

     number of k points=    84  Fermi-Dirac smearing, width (Ry)=  0.0073
                       cart. coord. in units 2pi/alat
        k(    1) = (   0.0000000   0.0000000   0.0000000), wk =   0.0011574
        k(    2) = (   0.0000000   0.0000000   0.0205272), wk =   0.0069444
        k(    3) = (   0.0000000   0.0000000   0.0410545), wk =   0.0069444
        k(    4) = (   0.0000000   0.0000000   0.0615817), wk =   0.0069444
        k(    5) = (   0.0000000   0.0000000   0.0821089), wk =   0.0069444
        k(    6) = (   0.0000000   0.0000000   0.1026361), wk =   0.0069444
        k(    7) = (   0.0000000   0.0000000  -0.1231634), wk =   0.0034722
        k(    8) = (   0.0000000   0.0205272   0.0205272), wk =   0.0138889
        k(    9) = (   0.0000000   0.0205272   0.0410545), wk =   0.0277778
        k(   10) = (   0.0000000   0.0205272   0.0615817), wk =   0.0277778
        k(   11) = (   0.0000000   0.0205272   0.0821089), wk =   0.0277778
        k(   12) = (   0.0000000   0.0205272   0.1026361), wk =   0.0277778
        k(   13) = (   0.0000000   0.0205272  -0.1231634), wk =   0.0138889
        k(   14) = (   0.0000000   0.0410545   0.0410545), wk =   0.0138889
        k(   15) = (   0.0000000   0.0410545   0.0615817), wk =   0.0277778
        k(   16) = (   0.0000000   0.0410545   0.0821089), wk =   0.0277778
        k(   17) = (   0.0000000   0.0410545   0.1026361), wk =   0.0277778
        k(   18) = (   0.0000000   0.0410545  -0.1231634), wk =   0.0138889
        k(   19) = (   0.0000000   0.0615817   0.0615817), wk =   0.0138889
        k(   20) = (   0.0000000   0.0615817   0.0821089), wk =   0.0277778
        k(   21) = (   0.0000000   0.0615817   0.1026361), wk =   0.0277778
        k(   22) = (   0.0000000   0.0615817  -0.1231634), wk =   0.0138889
        k(   23) = (   0.0000000   0.0821089   0.0821089), wk =   0.0138889
        k(   24) = (   0.0000000   0.0821089   0.1026361), wk =   0.0277778
        k(   25) = (   0.0000000   0.0821089  -0.1231634), wk =   0.0138889
        k(   26) = (   0.0000000   0.1026361   0.1026361), wk =   0.0138889
        k(   27) = (   0.0000000   0.1026361  -0.1231634), wk =   0.0138889
        k(   28) = (   0.0000000  -0.1231634  -0.1231634), wk =   0.0034722
        k(   29) = (   0.0205272   0.0205272   0.0205272), wk =   0.0092593
        k(   30) = (   0.0205272   0.0205272   0.0410545), wk =   0.0277778
        k(   31) = (   0.0205272   0.0205272   0.0615817), wk =   0.0277778
        k(   32) = (   0.0205272   0.0205272   0.0821089), wk =   0.0277778
        k(   33) = (   0.0205272   0.0205272   0.1026361), wk =   0.0277778
        k(   34) = (   0.0205272   0.0205272  -0.1231634), wk =   0.0138889
        k(   35) = (   0.0205272   0.0410545   0.0410545), wk =   0.0277778
        k(   36) = (   0.0205272   0.0410545   0.0615817), wk =   0.0555556
        k(   37) = (   0.0205272   0.0410545   0.0821089), wk =   0.0555556
        k(   38) = (   0.0205272   0.0410545   0.1026361), wk =   0.0555556
        k(   39) = (   0.0205272   0.0410545  -0.1231634), wk =   0.0277778
        k(   40) = (   0.0205272   0.0615817   0.0615817), wk =   0.0277778
        k(   41) = (   0.0205272   0.0615817   0.0821089), wk =   0.0555556
        k(   42) = (   0.0205272   0.0615817   0.1026361), wk =   0.0555556
        k(   43) = (   0.0205272   0.0615817  -0.1231634), wk =   0.0277778
        k(   44) = (   0.0205272   0.0821089   0.0821089), wk =   0.0277778
        k(   45) = (   0.0205272   0.0821089   0.1026361), wk =   0.0555556
        k(   46) = (   0.0205272   0.0821089  -0.1231634), wk =   0.0277778
        k(   47) = (   0.0205272   0.1026361   0.1026361), wk =   0.0277778
        k(   48) = (   0.0205272   0.1026361  -0.1231634), wk =   0.0277778
        k(   49) = (   0.0205272  -0.1231634  -0.1231634), wk =   0.0069444
        k(   50) = (   0.0410545   0.0410545   0.0410545), wk =   0.0092593
        k(   51) = (   0.0410545   0.0410545   0.0615817), wk =   0.0277778
        k(   52) = (   0.0410545   0.0410545   0.0821089), wk =   0.0277778
        k(   53) = (   0.0410545   0.0410545   0.1026361), wk =   0.0277778
        k(   54) = (   0.0410545   0.0410545  -0.1231634), wk =   0.0138889
        k(   55) = (   0.0410545   0.0615817   0.0615817), wk =   0.0277778
        k(   56) = (   0.0410545   0.0615817   0.0821089), wk =   0.0555556
        k(   57) = (   0.0410545   0.0615817   0.1026361), wk =   0.0555556
        k(   58) = (   0.0410545   0.0615817  -0.1231634), wk =   0.0277778
        k(   59) = (   0.0410545   0.0821089   0.0821089), wk =   0.0277778
        k(   60) = (   0.0410545   0.0821089   0.1026361), wk =   0.0555556
[...]
        k(   70) = (   0.0615817   0.0821089   0.1026361), wk =   0.0555556
        k(   71) = (   0.0615817   0.0821089  -0.1231634), wk =   0.0277778
        k(   72) = (   0.0615817   0.1026361   0.1026361), wk =   0.0277778
        k(   73) = (   0.0615817   0.1026361  -0.1231634), wk =   0.0277778
        k(   74) = (   0.0615817  -0.1231634  -0.1231634), wk =   0.0069444
        k(   75) = (   0.0821089   0.0821089   0.0821089), wk =   0.0092593
        k(   76) = (   0.0821089   0.0821089   0.1026361), wk =   0.0277778
        k(   77) = (   0.0821089   0.0821089  -0.1231634), wk =   0.0138889
        k(   78) = (   0.0821089   0.1026361   0.1026361), wk =   0.0277778
        k(   79) = (   0.0821089   0.1026361  -0.1231634), wk =   0.0277778
        k(   80) = (   0.0821089  -0.1231634  -0.1231634), wk =   0.0069444
        k(   81) = (   0.1026361   0.1026361   0.1026361), wk =   0.0092593
        k(   82) = (   0.1026361   0.1026361  -0.1231634), wk =   0.0138889
        k(   83) = (   0.1026361  -0.1231634  -0.1231634), wk =   0.0069444
        k(   84) = (  -0.1231634  -0.1231634  -0.1231634), wk =   0.0011574

     Largest allocated arrays     est. size (Mb)     dimensions
     Largest temporary arrays     est. size (Mb)     dimensions

     Initial potential from superposition of free atoms
     Check: negative starting charge=   -0.570888

     starting charge   57.99992, renormalised to   60.00000

     negative rho (up, down):  5.906E-01 0.000E+00

     *
     * You are using vdW-DF for exchange-correlation in this calculation.
     * Please cite the following three references that made this development
     * possible:
     *
     *   M. Dion, H. Rydberg, E. Schroder, D. C. Langreth, and
     *   B. I. Lundqvist, Phys. Rev. Lett. 92, 246401 (2004).
     *
     *   T. Thonhauser, V. R. Cooper, S. Li, A. Puzder, P. Hyldgaard, and
     *   D. C. Langreth, Phys. Rev. B 76, 125112 (2007).
     *
     *   G. Roman-Perez and J. M. Soler, Phys. Rev. Lett. 103, 096102 (2009).
     *
     *
     * If you are using vdW-DF2, please also cite:
     *
     *   K. Lee, E. D. Murray, L. Kong, B. I. Lundqvist, and
     *   D. C. Langreth, Phys. Rev. B 82, 081101(R) (2010).
     *
     *
     * If you are calculating the stress with vdW-DF, please also cite:
     *
     *   R. Sabatini, E. Kucukbenli, B. Kolb, T. Thonhauser, and
     *   S. de Gironcoli, J. Phys.: Condens. Matter 24, 424209 (2012).
     *

     Carrying out vdW-DF run using the following parameters:

     Nqs =      20    Nr_points =    1024   r_max =   100.000
     q_mesh =
               0.00001000     0.04494208     0.09755937     0.15916263
               0.23128650     0.31572767     0.41458969     0.53033537
               0.66584808     0.82450364     1.01025438     1.22772762
               1.48234092     1.78043706     2.12944203     2.53805004
               3.01644009     3.57652955     4.23227104     5.00000000

     Gradients computed in reciprocal space

     Starting wfc are   45 randomized atomic wfcs +    5 random wfc

     Self-consistent Calculation

     iteration #  1     ecut=    58.80 Ry     beta=0.10
     Davidson diagonalization with overlap
     ethr =  1.00E-02,  avg # of iterations =  4.7

[...]

     total energy              =    -753.92379224 Ry
     Harris-Foulkes estimate   =    -754.11317118 Ry
     estimated scf accuracy    <       3.06622179 Ry

[...]

     total energy              =    -753.27804187 Ry
     Harris-Foulkes estimate   =    -753.27803638 Ry
     estimated scf accuracy    <       0.00000002 Ry

     iteration # 12     ecut=    58.80 Ry     beta=0.10
     Davidson diagonalization with overlap
     ethr =  3.20E-11,  avg # of iterations =  2.1

     negative rho (up, down):  5.542E-01 0.000E+00

     End of self-consistent calculation

          k = 0.0000 0.0000 0.0000 (  3407 PWs)   bands (ev):

   -34.3843 -34.3843 -34.3843 -34.2438 -34.2438 -34.2438 -34.1737 -34.1737
   -34.1737   9.1150   9.3139   9.3139   9.5106   9.5106   9.5106  12.2635
    13.7267  13.7267  13.7267  14.2711  14.2711  16.6133  16.6133  16.6133
    17.4330  17.4330  18.1799  18.6191  18.6191  18.6191  19.7063  19.7063
    19.7063  25.3229  25.3229  25.4874  28.4290  28.4290  28.4290  29.4011
    29.4011  29.4011  33.3088  35.8608  35.8608  36.8480  37.4807  37.4807
    38.0088  38.0089

[...]

          k = 0.1026-0.1232-0.1232 (  3432 PWs)   bands (ev):

[...]

          k =-0.1232-0.1232-0.1232 (  3448 PWs)   bands (ev):

   -34.4627 -34.3493 -34.3493 -34.3493 -34.1976 -34.1976 -34.1708 -34.1708
   -34.1708   9.3237   9.3237   9.3237   9.8708   9.8708  11.8559  13.2866
    13.2866  13.2866  14.9759  14.9759  14.9759  16.5330  16.5330  16.5330
    16.9794  16.9794  17.5269  17.5269  17.5269  18.2328  18.2328  18.2328
    18.3039  22.5404  22.5404  22.5404  22.8602  32.7138  32.7138  32.7138
    32.8244  35.2072  35.2072  35.2072  36.5540  36.5540  36.8705  36.8705
    36.8705  40.8799

     the Fermi energy is    18.1251 ev

!    total energy              =    -753.27806534 Ry
     Harris-Foulkes estimate   =    -753.27804187 Ry
     estimated scf accuracy    <          3.6E-09 Ry

     The total energy is the sum of the following terms:

     one-electron contribution =     -98.00823232 Ry
     hartree contribution      =     103.07584030 Ry
     xc contribution           =    -216.93450888 Ry
     ewald contribution        =    -541.40209802 Ry
     smearing contrib. (-TS)   =      -0.00906641 Ry

     convergence has been achieved in  12 iterations

     Forces acting on atoms (Ry/au):

     negative rho (up, down):  5.542E-01 0.000E+00
     atom    1 type  1   force =     0.00000000    0.00000000   -0.00000000
     atom    2 type  1   force =     0.00000000    0.00000000    0.00000000
     atom    3 type  1   force =     0.00000000    0.00000000    0.00000000
     atom    4 type  2   force =     0.00000000    0.00000000   -0.00000000

     Total force =     0.000000     Total SCF correction =     0.000000
 !ASE

     General routines

     Parallel routines

   This run was terminated on:   5:47:40  25Oct2017

   JOB DONE.