     Program PWSCF v.5.1rc2 (svn rev. ) starts on 25Oct2017 at 15:24:35

     Current dimensions of program PWSCF are:
     Max number of different atomic species (ntypx) = 10
     Max number of k-points (npk) =  40000
     Max angular momentum in pseudopotentials (lmaxx) =  3

     IMPORTANT: XC functional enforced from input :
     Exchange-correlation      = BEEF-VDW ( 1  4 27 13 2)
     Any further DFT definition will be discarded
     Please, verify this is what you really want

     Subspace diagonalization in iterative solution of the eigenvalue problem:
     a serial algorithm will be used

     bravais-lattice index     =            0
     lattice parameter (alat)  =       1.8897  a.u.
     unit-cell volume          =     446.3759 (a.u.)^3
     number of atoms/cell      =            4
     number of atomic types    =            2
     number of electrons       =        79.00
     number of Kohn-Sham states=           59
     kinetic-energy cutoff     =      58.7989  Ry
     charge density cutoff     =     587.9892  Ry
     convergence threshold     =      7.3E-09
     mixing beta               =       0.1000
     number of iterations used =           10  local-TF  mixing
     Exchange-correlation      = BEEF-VDW ( 1  4 27 13 2)
     nstep                     =           50

     celldm(1)=   1.889726  celldm(2)=   0.000000  celldm(3)=   0.000000
     celldm(4)=   0.000000  celldm(5)=   0.000000  celldm(6)=   0.000000

     crystal axes: (cart. coord. in units of alat)
               a(1) = (   4.044219   0.000000   0.000000 )
               a(2) = (   0.000000   4.044219   0.000000 )
               a(3) = (   0.000000   0.000000   4.044219 )

     reciprocal axes: (cart. coord. in units 2 pi/alat)
               b(1) = (  0.247267  0.000000  0.000000 )
               b(2) = (  0.000000  0.247267  0.000000 )
               b(3) = (  0.000000  0.000000  0.247267 )

     PseudoPot. # 1 for Zn read from file:
     /home/vossj/suncat/psp/gbrv1.5pbe/Zn.UPF
     MD5 check sum: df62231357ef9e81f77b2b3087fa5675
     Pseudo is Ultrasoft, Zval = 20.0
     Generated by new atomic code, or converted to UPF format
     Using radial grid of  943 points,  6 beta functions with:
                l(1) =   0
                l(2) =   0
                l(3) =   1
                l(4) =   1
                l(5) =   2
                l(6) =   2
     Q(r) pseudized with  8 coefficients,  rinner =    1.100   1.100   1.100
                                                       1.100   1.100

     PseudoPot. # 2 for Ga read from file:
     /home/vossj/suncat/psp/gbrv1.5pbe/Ga.UPF
     MD5 check sum: ccd671392a58a050fbb373893b4fcd66
     Pseudo is Ultrasoft + core correction, Zval = 19.0
     Generated by new atomic code, or converted to UPF format
     Using radial grid of  871 points,  6 beta functions with:
                l(1) =   0
                l(2) =   0
                l(3) =   1
                l(4) =   1
                l(5) =   2
                l(6) =   2
     Q(r) pseudized with  8 coefficients,  rinner =    1.250   1.250   1.250
                                                       1.250   1.250

     vdW kernel table read from file vdW_kernel_table
     MD5 check sum: 095c7af220d748ca6e76c0b4c6cfb241

     atomic species   valence    mass     pseudopotential
        Zn1           20.00    65.38000     Zn( 1.00)
        Ga1           19.00    69.72300     Ga( 1.00)

     48 Sym. Ops., with inversion, found (32 have fractional translation)

   Cartesian axes

     site n.     atom                  positions (alat units)
         1           Zn1 tau(   1) = (   0.0000000   0.0000000   0.0000000  )
         2           Zn1 tau(   2) = (   0.0000000   2.0221097   2.0221097  )
         3           Zn1 tau(   3) = (   2.0221097   0.0000000   2.0221097  )
         4           Ga1 tau(   4) = (   2.0221097   2.0221097   0.0000000  )

     number of k points=    84  Fermi-Dirac smearing, width (Ry)=  0.0073
                       cart. coord. in units 2pi/alat
        k(    1) = (   0.0000000   0.0000000   0.0000000), wk =   0.0011574
        k(    2) = (   0.0000000   0.0000000   0.0206055), wk =   0.0069444
        k(    3) = (   0.0000000   0.0000000   0.0412111), wk =   0.0069444
        k(    4) = (   0.0000000   0.0000000   0.0618166), wk =   0.0069444
        k(    5) = (   0.0000000   0.0000000   0.0824222), wk =   0.0069444
        k(    6) = (   0.0000000   0.0000000   0.1030277), wk =   0.0069444
        k(    7) = (   0.0000000   0.0000000  -0.1236333), wk =   0.0034722
        k(    8) = (   0.0000000   0.0206055   0.0206055), wk =   0.0138889
        k(    9) = (   0.0000000   0.0206055   0.0412111), wk =   0.0277778
        k(   10) = (   0.0000000   0.0206055   0.0618166), wk =   0.0277778
        k(   11) = (   0.0000000   0.0206055   0.0824222), wk =   0.0277778
        k(   12) = (   0.0000000   0.0206055   0.1030277), wk =   0.0277778
        k(   13) = (   0.0000000   0.0206055  -0.1236333), wk =   0.0138889
        k(   14) = (   0.0000000   0.0412111   0.0412111), wk =   0.0138889
        k(   15) = (   0.0000000   0.0412111   0.0618166), wk =   0.0277778
        k(   16) = (   0.0000000   0.0412111   0.0824222), wk =   0.0277778
        k(   17) = (   0.0000000   0.0412111   0.1030277), wk =   0.0277778
        k(   18) = (   0.0000000   0.0412111  -0.1236333), wk =   0.0138889
        k(   19) = (   0.0000000   0.0618166   0.0618166), wk =   0.0138889
        k(   20) = (   0.0000000   0.0618166   0.0824222), wk =   0.0277778
        k(   21) = (   0.0000000   0.0618166   0.1030277), wk =   0.0277778
        k(   22) = (   0.0000000   0.0618166  -0.1236333), wk =   0.0138889
        k(   23) = (   0.0000000   0.0824222   0.0824222), wk =   0.0138889
        k(   24) = (   0.0000000   0.0824222   0.1030277), wk =   0.0277778
        k(   25) = (   0.0000000   0.0824222  -0.1236333), wk =   0.0138889
        k(   26) = (   0.0000000   0.1030277   0.1030277), wk =   0.0138889
        k(   27) = (   0.0000000   0.1030277  -0.1236333), wk =   0.0138889
        k(   28) = (   0.0000000  -0.1236333  -0.1236333), wk =   0.0034722
        k(   29) = (   0.0206055   0.0206055   0.0206055), wk =   0.0092593
        k(   30) = (   0.0206055   0.0206055   0.0412111), wk =   0.0277778
        k(   31) = (   0.0206055   0.0206055   0.0618166), wk =   0.0277778
        k(   32) = (   0.0206055   0.0206055   0.0824222), wk =   0.0277778
        k(   33) = (   0.0206055   0.0206055   0.1030277), wk =   0.0277778
        k(   34) = (   0.0206055   0.0206055  -0.1236333), wk =   0.0138889
        k(   35) = (   0.0206055   0.0412111   0.0412111), wk =   0.0277778
        k(   36) = (   0.0206055   0.0412111   0.0618166), wk =   0.0555556
        k(   37) = (   0.0206055   0.0412111   0.0824222), wk =   0.0555556
        k(   38) = (   0.0206055   0.0412111   0.1030277), wk =   0.0555556
        k(   39) = (   0.0206055   0.0412111  -0.1236333), wk =   0.0277778
        k(   40) = (   0.0206055   0.0618166   0.0618166), wk =   0.0277778
        k(   41) = (   0.0206055   0.0618166   0.0824222), wk =   0.0555556
        k(   42) = (   0.0206055   0.0618166   0.1030277), wk =   0.0555556
        k(   43) = (   0.0206055   0.0618166  -0.1236333), wk =   0.0277778
        k(   44) = (   0.0206055   0.0824222   0.0824222), wk =   0.0277778
        k(   45) = (   0.0206055   0.0824222   0.1030277), wk =   0.0555556
        k(   46) = (   0.0206055   0.0824222  -0.1236333), wk =   0.0277778
        k(   47) = (   0.0206055   0.1030277   0.1030277), wk =   0.0277778
        k(   48) = (   0.0206055   0.1030277  -0.1236333), wk =   0.0277778
        k(   49) = (   0.0206055  -0.1236333  -0.1236333), wk =   0.0069444
        k(   50) = (   0.0412111   0.0412111   0.0412111), wk =   0.0092593
        k(   51) = (   0.0412111   0.0412111   0.0618166), wk =   0.0277778
        k(   52) = (   0.0412111   0.0412111   0.0824222), wk =   0.0277778
        k(   53) = (   0.0412111   0.0412111   0.1030277), wk =   0.0277778
        k(   54) = (   0.0412111   0.0412111  -0.1236333), wk =   0.0138889
        k(   55) = (   0.0412111   0.0618166   0.0618166), wk =   0.0277778
        k(   56) = (   0.0412111   0.0618166   0.0824222), wk =   0.0555556
        k(   57) = (   0.0412111   0.0618166   0.1030277), wk =   0.0555556
        k(   58) = (   0.0412111   0.0618166  -0.1236333), wk =   0.0277778
        k(   59) = (   0.0412111   0.0824222   0.0824222), wk =   0.0277778
        k(   60) = (   0.0412111   0.0824222   0.1030277), wk =   0.0555556
[...]
        k(   70) = (   0.0618166   0.0824222   0.1030277), wk =   0.0555556
        k(   71) = (   0.0618166   0.0824222  -0.1236333), wk =   0.0277778
        k(   72) = (   0.0618166   0.1030277   0.1030277), wk =   0.0277778
        k(   73) = (   0.0618166   0.1030277  -0.1236333), wk =   0.0277778
        k(   74) = (   0.0618166  -0.1236333  -0.1236333), wk =   0.0069444
        k(   75) = (   0.0824222   0.0824222   0.0824222), wk =   0.0092593
        k(   76) = (   0.0824222   0.0824222   0.1030277), wk =   0.0277778
        k(   77) = (   0.0824222   0.0824222  -0.1236333), wk =   0.0138889
        k(   78) = (   0.0824222   0.1030277   0.1030277), wk =   0.0277778
        k(   79) = (   0.0824222   0.1030277  -0.1236333), wk =   0.0277778
        k(   80) = (   0.0824222  -0.1236333  -0.1236333), wk =   0.0069444
        k(   81) = (   0.1030277   0.1030277   0.1030277), wk =   0.0092593
        k(   82) = (   0.1030277   0.1030277  -0.1236333), wk =   0.0138889
        k(   83) = (   0.1030277  -0.1236333  -0.1236333), wk =   0.0069444
        k(   84) = (  -0.1236333  -0.1236333  -0.1236333), wk =   0.0011574

     Largest allocated arrays     est. size (Mb)     dimensions
     Largest temporary arrays     est. size (Mb)     dimensions

     Initial potential from superposition of free atoms

     starting charge   77.99958, renormalised to   79.00000

     *
     * You are using vdW-DF for exchange-correlation in this calculation.
     * Please cite the following three references that made this development
     * possible:
     *
     *   M. Dion, H. Rydberg, E. Schroder, D. C. Langreth, and
     *   B. I. Lundqvist, Phys. Rev. Lett. 92, 246401 (2004).
     *
     *   T. Thonhauser, V. R. Cooper, S. Li, A. Puzder, P. Hyldgaard, and
     *   D. C. Langreth, Phys. Rev. B 76, 125112 (2007).
     *
     *   G. Roman-Perez and J. M. Soler, Phys. Rev. Lett. 103, 096102 (2009).
     *
     *
     * If you are using vdW-DF2, please also cite:
     *
     *   K. Lee, E. D. Murray, L. Kong, B. I. Lundqvist, and
     *   D. C. Langreth, Phys. Rev. B 82, 081101(R) (2010).
     *
     *
     * If you are calculating the stress with vdW-DF, please also cite:
     *
     *   R. Sabatini, E. Kucukbenli, B. Kolb, T. Thonhauser, and
     *   S. de Gironcoli, J. Phys.: Condens. Matter 24, 424209 (2012).
     *

     Carrying out vdW-DF run using the following parameters:

     Nqs =      20    Nr_points =    1024   r_max =   100.000
     q_mesh =
               0.00001000     0.04494208     0.09755937     0.15916263
               0.23128650     0.31572767     0.41458969     0.53033537
               0.66584808     0.82450364     1.01025438     1.22772762
               1.48234092     1.78043706     2.12944203     2.53805004
               3.01644009     3.57652955     4.23227104     5.00000000

     Gradients computed in reciprocal space

     Starting wfc are   51 randomized atomic wfcs +    8 random wfc

     Self-consistent Calculation

     iteration #  1     ecut=    58.80 Ry     beta=0.10
     Davidson diagonalization with overlap
     ethr =  1.00E-02,  avg # of iterations =  4.7

     total energy              =   -1805.35501676 Ry
     Harris-Foulkes estimate   =   -1805.55787135 Ry
     estimated scf accuracy    <       2.75383412 Ry

[...]

     total energy              =   -1804.93961429 Ry
     Harris-Foulkes estimate   =   -1804.93961345 Ry
     estimated scf accuracy    <       0.00000003 Ry

     iteration # 13     ecut=    58.80 Ry     beta=0.10
     Davidson diagonalization with overlap
     ethr =  3.37E-11,  avg # of iterations =  2.0

     End of self-consistent calculation

          k = 0.0000 0.0000 0.0000 (  3407 PWs)   bands (ev):

  -114.4401-114.4389-114.4389 -82.6408 -82.6408 -82.6408 -68.6244 -68.6244
   -68.6244 -68.6195 -68.6195 -68.6195 -68.6144 -68.6144 -68.6144  -2.9932
    -2.9932  -2.9745  -2.9745  -2.9745   1.8014   3.9363   4.1970   4.1970
     4.1970   4.3131   4.3131   4.7538   4.7538   4.7538   4.9251   4.9251
     5.0520   5.1310   5.1310   5.1310  10.8146  10.8146  10.8146  11.7645
    13.1671  13.1671  19.0552  19.0552  19.0552  19.9840  19.9840  19.9840
    23.0213  23.0213  23.0213  23.3880  24.0104  24.0104  28.4885  28.4885
    28.4885  29.8772  31.3958

[...]

          k = 0.1030-0.1236-0.1236 (  3396 PWs)   bands (ev):

[...]

          k =-0.1236-0.1236-0.1236 (  3448 PWs)   bands (ev):

  -114.4393-114.4393-114.4393 -82.6408 -82.6408 -82.6408 -68.6262 -68.6240
   -68.6240 -68.6240 -68.6161 -68.6161 -68.6161 -68.6143 -68.6143  -2.9946
    -2.9946  -2.9946  -2.9517  -2.9517   3.6389   4.1810   4.1810   4.1810
     4.5058   4.5058   4.5058   4.7773   4.7773   4.7773   4.8334   4.8334
     5.0679   5.0679   5.0679   8.4305   8.9784   8.9784   8.9784   9.6354
    10.2720  10.2720  10.2720  24.5536  24.5536  24.5536  26.1816  26.1816
    26.1816  26.3522  26.3522  28.5593  28.5593  28.5593  28.7043  28.7043
    28.7198  29.5282  29.5282

     the Fermi energy is    12.2162 ev

!    total energy              =   -1804.93961771 Ry
     Harris-Foulkes estimate   =   -1804.93961430 Ry
     estimated scf accuracy    <          1.1E-09 Ry

     The total energy is the sum of the following terms:

     one-electron contribution =   -1435.69250858 Ry
     hartree contribution      =     747.07272204 Ry
     xc contribution           =    -180.07160133 Ry
     ewald contribution        =    -936.24505603 Ry
     smearing contrib. (-TS)   =      -0.00317380 Ry

     convergence has been achieved in  13 iterations

     Forces acting on atoms (Ry/au):

     atom    1 type  1   force =     0.00000000    0.00000000    0.00000000
     atom    2 type  1   force =     0.00000000    0.00000000    0.00000000
     atom    3 type  1   force =     0.00000000   -0.00000000   -0.00000000
     atom    4 type  2   force =     0.00000000    0.00000000    0.00000000

     Total force =     0.000000     Total SCF correction =     0.000000
 !ASE

     General routines

     Parallel routines

   This run was terminated on:  15:25:45  25Oct2017

   JOB DONE.