     Program PWSCF v.5.1rc2 (svn rev. ) starts on 17Feb2018 at 12:43:14

     Current dimensions of program PWSCF are:
     Max number of different atomic species (ntypx) = 10
     Max number of k-points (npk) =  40000
     Max angular momentum in pseudopotentials (lmaxx) =  3

     IMPORTANT: XC functional enforced from input :
     Exchange-correlation      = BEEF-VDW ( 1  4 27 13 2)
     Any further DFT definition will be discarded
     Please, verify this is what you really want

     Subspace diagonalization in iterative solution of the eigenvalue problem:
     a serial algorithm will be used

     bravais-lattice index     =            0
     lattice parameter (alat)  =       1.8897  a.u.
     unit-cell volume          =     748.6894 (a.u.)^3
     number of atoms/cell      =            4
     number of atomic types    =            2
     number of electrons       =        61.00
     number of Kohn-Sham states=           50
     kinetic-energy cutoff     =      58.7989  Ry
     charge density cutoff     =     587.9892  Ry
     convergence threshold     =      7.3E-09
     mixing beta               =       0.1000
     number of iterations used =           10  local-TF  mixing
     Exchange-correlation      = BEEF-VDW ( 1  4 27 13 2)
     nstep                     =           50

     celldm(1)=   1.889726  celldm(2)=   0.000000  celldm(3)=   0.000000
     celldm(4)=   0.000000  celldm(5)=   0.000000  celldm(6)=   0.000000

     crystal axes: (cart. coord. in units of alat)
               a(1) = (   4.805092   0.000000   0.000000 )
               a(2) = (   0.000000   4.805092   0.000000 )
               a(3) = (   0.000000   0.000000   4.805092 )

     reciprocal axes: (cart. coord. in units 2 pi/alat)
               b(1) = (  0.208113  0.000000  0.000000 )
               b(2) = (  0.000000  0.208113  0.000000 )
               b(3) = (  0.000000  0.000000  0.208113 )

     PseudoPot. # 1 for Bi read from file:
     /home/mamunm/src/pseudo/gbrv1.5pbe/Bi.UPF
     MD5 check sum: 81103212dc04adf40945787f699eab19
     Pseudo is Ultrasoft + core correction, Zval = 15.0
     Generated by new atomic code, or converted to UPF format
     Using radial grid of  899 points,  6 beta functions with:
                l(1) =   0
                l(2) =   0
                l(3) =   1
                l(4) =   1
                l(5) =   2
                l(6) =   2
     Q(r) pseudized with  6 coefficients,  rinner =    1.000   1.000   1.000
                                                       1.000   1.000

     PseudoPot. # 2 for Pt read from file:
     /home/mamunm/src/pseudo/gbrv1.5pbe/Pt.UPF
     MD5 check sum: f09d6de1a584b5a045c4fc126da2d0c4
     Pseudo is Ultrasoft + core correction, Zval = 16.0
     Generated by new atomic code, or converted to UPF format
     Using radial grid of  985 points,  6 beta functions with:
                l(1) =   0
                l(2) =   0
                l(3) =   1
                l(4) =   1
                l(5) =   2
                l(6) =   2
     Q(r) pseudized with  8 coefficients,  rinner =    1.300   1.300   1.300
                                                       1.300   1.300

     vdW kernel table read from file vdW_kernel_table
     MD5 check sum: 095c7af220d748ca6e76c0b4c6cfb241

     atomic species   valence    mass     pseudopotential
        Bi1           15.00   208.98040     Bi( 1.00)
        Pt1           16.00   195.08400     Pt( 1.00)

     48 Sym. Ops., with inversion, found (32 have fractional translation)

   Cartesian axes

     site n.     atom                  positions (alat units)
         1           Bi1 tau(   1) = (   0.0000000   0.0000000   0.0000000  )
         2           Bi1 tau(   2) = (   0.0000000   2.4025459   2.4025459  )
         3           Bi1 tau(   3) = (   2.4025459   0.0000000   2.4025459  )
         4           Pt1 tau(   4) = (   2.4025459   2.4025459   0.0000000  )

     number of k points=    84  Fermi-Dirac smearing, width (Ry)=  0.0073
                       cart. coord. in units 2pi/alat
        k(    1) = (   0.0000000   0.0000000   0.0000000), wk =   0.0011574
        k(    2) = (   0.0000000   0.0000000   0.0173427), wk =   0.0069444
        k(    3) = (   0.0000000   0.0000000   0.0346854), wk =   0.0069444
        k(    4) = (   0.0000000   0.0000000   0.0520281), wk =   0.0069444
        k(    5) = (   0.0000000   0.0000000   0.0693709), wk =   0.0069444
        k(    6) = (   0.0000000   0.0000000   0.0867136), wk =   0.0069444
        k(    7) = (   0.0000000   0.0000000  -0.1040563), wk =   0.0034722
        k(    8) = (   0.0000000   0.0173427   0.0173427), wk =   0.0138889
        k(    9) = (   0.0000000   0.0173427   0.0346854), wk =   0.0277778
        k(   10) = (   0.0000000   0.0173427   0.0520281), wk =   0.0277778
        k(   11) = (   0.0000000   0.0173427   0.0693709), wk =   0.0277778
        k(   12) = (   0.0000000   0.0173427   0.0867136), wk =   0.0277778
        k(   13) = (   0.0000000   0.0173427  -0.1040563), wk =   0.0138889
        k(   14) = (   0.0000000   0.0346854   0.0346854), wk =   0.0138889
        k(   15) = (   0.0000000   0.0346854   0.0520281), wk =   0.0277778
        k(   16) = (   0.0000000   0.0346854   0.0693709), wk =   0.0277778
        k(   17) = (   0.0000000   0.0346854   0.0867136), wk =   0.0277778
        k(   18) = (   0.0000000   0.0346854  -0.1040563), wk =   0.0138889
        k(   19) = (   0.0000000   0.0520281   0.0520281), wk =   0.0138889
        k(   20) = (   0.0000000   0.0520281   0.0693709), wk =   0.0277778
        k(   21) = (   0.0000000   0.0520281   0.0867136), wk =   0.0277778
        k(   22) = (   0.0000000   0.0520281  -0.1040563), wk =   0.0138889
        k(   23) = (   0.0000000   0.0693709   0.0693709), wk =   0.0138889
        k(   24) = (   0.0000000   0.0693709   0.0867136), wk =   0.0277778
        k(   25) = (   0.0000000   0.0693709  -0.1040563), wk =   0.0138889
        k(   26) = (   0.0000000   0.0867136   0.0867136), wk =   0.0138889
        k(   27) = (   0.0000000   0.0867136  -0.1040563), wk =   0.0138889
        k(   28) = (   0.0000000  -0.1040563  -0.1040563), wk =   0.0034722
        k(   29) = (   0.0173427   0.0173427   0.0173427), wk =   0.0092593
        k(   30) = (   0.0173427   0.0173427   0.0346854), wk =   0.0277778
        k(   31) = (   0.0173427   0.0173427   0.0520281), wk =   0.0277778
        k(   32) = (   0.0173427   0.0173427   0.0693709), wk =   0.0277778
        k(   33) = (   0.0173427   0.0173427   0.0867136), wk =   0.0277778
        k(   34) = (   0.0173427   0.0173427  -0.1040563), wk =   0.0138889
        k(   35) = (   0.0173427   0.0346854   0.0346854), wk =   0.0277778
        k(   36) = (   0.0173427   0.0346854   0.0520281), wk =   0.0555556
        k(   37) = (   0.0173427   0.0346854   0.0693709), wk =   0.0555556
        k(   38) = (   0.0173427   0.0346854   0.0867136), wk =   0.0555556
        k(   39) = (   0.0173427   0.0346854  -0.1040563), wk =   0.0277778
        k(   40) = (   0.0173427   0.0520281   0.0520281), wk =   0.0277778
        k(   41) = (   0.0173427   0.0520281   0.0693709), wk =   0.0555556
        k(   42) = (   0.0173427   0.0520281   0.0867136), wk =   0.0555556
        k(   43) = (   0.0173427   0.0520281  -0.1040563), wk =   0.0277778
        k(   44) = (   0.0173427   0.0693709   0.0693709), wk =   0.0277778
        k(   45) = (   0.0173427   0.0693709   0.0867136), wk =   0.0555556
        k(   46) = (   0.0173427   0.0693709  -0.1040563), wk =   0.0277778
        k(   47) = (   0.0173427   0.0867136   0.0867136), wk =   0.0277778
        k(   48) = (   0.0173427   0.0867136  -0.1040563), wk =   0.0277778
        k(   49) = (   0.0173427  -0.1040563  -0.1040563), wk =   0.0069444
        k(   50) = (   0.0346854   0.0346854   0.0346854), wk =   0.0092593
        k(   51) = (   0.0346854   0.0346854   0.0520281), wk =   0.0277778
        k(   52) = (   0.0346854   0.0346854   0.0693709), wk =   0.0277778
        k(   53) = (   0.0346854   0.0346854   0.0867136), wk =   0.0277778
        k(   54) = (   0.0346854   0.0346854  -0.1040563), wk =   0.0138889
        k(   55) = (   0.0346854   0.0520281   0.0520281), wk =   0.0277778
        k(   56) = (   0.0346854   0.0520281   0.0693709), wk =   0.0555556
        k(   57) = (   0.0346854   0.0520281   0.0867136), wk =   0.0555556
        k(   58) = (   0.0346854   0.0520281  -0.1040563), wk =   0.0277778
        k(   59) = (   0.0346854   0.0693709   0.0693709), wk =   0.0277778
        k(   60) = (   0.0346854   0.0693709   0.0867136), wk =   0.0555556
[...]
        k(   70) = (   0.0520281   0.0693709   0.0867136), wk =   0.0555556
        k(   71) = (   0.0520281   0.0693709  -0.1040563), wk =   0.0277778
        k(   72) = (   0.0520281   0.0867136   0.0867136), wk =   0.0277778
        k(   73) = (   0.0520281   0.0867136  -0.1040563), wk =   0.0277778
        k(   74) = (   0.0520281  -0.1040563  -0.1040563), wk =   0.0069444
        k(   75) = (   0.0693709   0.0693709   0.0693709), wk =   0.0092593
        k(   76) = (   0.0693709   0.0693709   0.0867136), wk =   0.0277778
        k(   77) = (   0.0693709   0.0693709  -0.1040563), wk =   0.0138889
        k(   78) = (   0.0693709   0.0867136   0.0867136), wk =   0.0277778
        k(   79) = (   0.0693709   0.0867136  -0.1040563), wk =   0.0277778
        k(   80) = (   0.0693709  -0.1040563  -0.1040563), wk =   0.0069444
        k(   81) = (   0.0867136   0.0867136   0.0867136), wk =   0.0092593
        k(   82) = (   0.0867136   0.0867136  -0.1040563), wk =   0.0138889
        k(   83) = (   0.0867136  -0.1040563  -0.1040563), wk =   0.0069444
        k(   84) = (  -0.1040563  -0.1040563  -0.1040563), wk =   0.0011574

     Largest allocated arrays     est. size (Mb)     dimensions
     Largest temporary arrays     est. size (Mb)     dimensions

     Initial potential from superposition of free atoms
     Check: negative starting charge=   -0.312804

     starting charge   57.49986, renormalised to   61.00000

     negative rho (up, down):  3.318E-01 0.000E+00

     *
     * You are using vdW-DF for exchange-correlation in this calculation.
     * Please cite the following three references that made this development
     * possible:
     *
     *   M. Dion, H. Rydberg, E. Schroder, D. C. Langreth, and
     *   B. I. Lundqvist, Phys. Rev. Lett. 92, 246401 (2004).
     *
     *   T. Thonhauser, V. R. Cooper, S. Li, A. Puzder, P. Hyldgaard, and
     *   D. C. Langreth, Phys. Rev. B 76, 125112 (2007).
     *
     *   G. Roman-Perez and J. M. Soler, Phys. Rev. Lett. 103, 096102 (2009).
     *
     *
     * If you are using vdW-DF2, please also cite:
     *
     *   K. Lee, E. D. Murray, L. Kong, B. I. Lundqvist, and
     *   D. C. Langreth, Phys. Rev. B 82, 081101(R) (2010).
     *
     *
     * If you are calculating the stress with vdW-DF, please also cite:
     *
     *   R. Sabatini, E. Kucukbenli, B. Kolb, T. Thonhauser, and
     *   S. de Gironcoli, J. Phys.: Condens. Matter 24, 424209 (2012).
     *

     Carrying out vdW-DF run using the following parameters:

     Nqs =      20    Nr_points =    1024   r_max =   100.000
     q_mesh =
               0.00001000     0.04494208     0.09755937     0.15916263
               0.23128650     0.31572767     0.41458969     0.53033537
               0.66584808     0.82450364     1.01025438     1.22772762
               1.48234092     1.78043706     2.12944203     2.53805004
               3.01644009     3.57652955     4.23227104     5.00000000

     Gradients computed in reciprocal space

     Starting wfc are   39 randomized atomic wfcs +   11 random wfc

     Self-consistent Calculation

     iteration #  1     ecut=    58.80 Ry     beta=0.10
     Davidson diagonalization with overlap
     ethr =  1.00E-02,  avg # of iterations =  5.8

[...]

     total energy              =    -774.98933153 Ry
     Harris-Foulkes estimate   =    -775.62281082 Ry
     estimated scf accuracy    <      12.28507403 Ry

[...]

     total energy              =    -773.85014978 Ry
     Harris-Foulkes estimate   =    -773.85013503 Ry
     estimated scf accuracy    <       0.00000002 Ry

     iteration # 17     ecut=    58.80 Ry     beta=0.10
     Davidson diagonalization with overlap
     ethr =  4.01E-11,  avg # of iterations =  2.0

     negative rho (up, down):  3.109E-01 0.000E+00

     End of self-consistent calculation

          k = 0.0000 0.0000 0.0000 (  5695 PWs)   bands (ev):

   -39.1720 -39.1720 -39.1720 -10.9627 -10.9626 -10.9626 -10.9193 -10.8779
   -10.8777 -10.7947 -10.7947 -10.7944 -10.7477 -10.7475 -10.7227 -10.6788
   -10.6786 -10.6786  -0.7314   3.2830   3.2831   8.8200   8.8200   8.8200
    10.6665  10.6665  10.6665  10.7510  10.7511  11.5602  13.6829  13.6829
    13.6829  15.5719  15.5719  15.5719  18.4650  19.5876  19.5876  20.0595
    20.0595  20.0595  22.1257  22.1257  22.1257  23.0138  26.5373  26.7876
    26.7876  26.7876

[...]

          k = 0.0867-0.1041-0.1041 (  5724 PWs)   bands (ev):

[...]

          k =-0.1041-0.1041-0.1041 (  5832 PWs)   bands (ev):

   -39.1722 -39.1722 -39.1722 -10.8955 -10.8955 -10.8954 -10.8922 -10.8922
   -10.8922 -10.8701 -10.7729 -10.7727 -10.7651 -10.7651 -10.7649 -10.7082
   -10.7082 -10.7082   1.9153   1.9153   1.9155   6.9621   8.4213   8.4214
     8.4214  10.8050  10.8849  10.8849  11.0111  11.0111  11.0111  16.7744
    16.7745  17.1666  17.1667  17.1667  21.7453  21.7454  21.7454  21.9462
    21.9462  21.9463  22.0667  23.0993  23.0993  23.0993  23.6359  23.6359
    23.6360  25.4194

     the Fermi energy is    12.7650 ev

!    total energy              =    -773.85021272 Ry
     Harris-Foulkes estimate   =    -773.85014978 Ry
     estimated scf accuracy    <          3.3E-09 Ry

     The total energy is the sum of the following terms:

     one-electron contribution =    -175.23663994 Ry
     hartree contribution      =     129.69254374 Ry
     xc contribution           =    -258.40946081 Ry
     ewald contribution        =    -469.89146584 Ry
     smearing contrib. (-TS)   =      -0.00518986 Ry

     convergence has been achieved in  17 iterations

     Forces acting on atoms (Ry/au):

     negative rho (up, down):  3.109E-01 0.000E+00
     atom    1 type  1   force =     0.00000000   -0.00000000   -0.00000000
     atom    2 type  1   force =     0.00000000    0.00000000   -0.00000000
     atom    3 type  1   force =     0.00000000    0.00000000    0.00000000
     atom    4 type  2   force =     0.00000000    0.00000000    0.00000000

     Total force =     0.000000     Total SCF correction =     0.000000
 !ASE

     General routines

     Parallel routines

   This run was terminated on:  12:45: 1  17Feb2018

   JOB DONE.