     Program PWSCF v.5.1rc2 (svn rev. ) starts on 26Oct2017 at  2:15:21

     Current dimensions of program PWSCF are:
     Max number of different atomic species (ntypx) = 10
     Max number of k-points (npk) =  40000
     Max angular momentum in pseudopotentials (lmaxx) =  3

     IMPORTANT: XC functional enforced from input :
     Exchange-correlation      = BEEF-VDW ( 1  4 27 13 2)
     Any further DFT definition will be discarded
     Please, verify this is what you really want

     Subspace diagonalization in iterative solution of the eigenvalue problem:
     a serial algorithm will be used

     bravais-lattice index     =            0
     lattice parameter (alat)  =       1.8897  a.u.
     unit-cell volume          =     397.9866 (a.u.)^3
     number of atoms/cell      =            4
     number of atomic types    =            2
     number of electrons       =        76.00
     number of Kohn-Sham states=           58
     kinetic-energy cutoff     =      58.7989  Ry
     charge density cutoff     =     587.9892  Ry
     convergence threshold     =      7.3E-09
     mixing beta               =       0.1000
     number of iterations used =           10  local-TF  mixing
     Exchange-correlation      = BEEF-VDW ( 1  4 27 13 2)
     nstep                     =           50

     celldm(1)=   1.889726  celldm(2)=   0.000000  celldm(3)=   0.000000
     celldm(4)=   0.000000  celldm(5)=   0.000000  celldm(6)=   0.000000

     crystal axes: (cart. coord. in units of alat)
               a(1) = (   3.892458   0.000000   0.000000 )
               a(2) = (   0.000000   3.892458   0.000000 )
               a(3) = (   0.000000   0.000000   3.892458 )

     reciprocal axes: (cart. coord. in units 2 pi/alat)
               b(1) = (  0.256907  0.000000  0.000000 )
               b(2) = (  0.000000  0.256907  0.000000 )
               b(3) = (  0.000000  0.000000  0.256907 )

     PseudoPot. # 1 for Zn read from file:
     /home/vossj/suncat/psp/gbrv1.5pbe/Zn.UPF
     MD5 check sum: df62231357ef9e81f77b2b3087fa5675
     Pseudo is Ultrasoft, Zval = 20.0
     Generated by new atomic code, or converted to UPF format
     Using radial grid of  943 points,  6 beta functions with:
                l(1) =   0
                l(2) =   0
                l(3) =   1
                l(4) =   1
                l(5) =   2
                l(6) =   2
     Q(r) pseudized with  8 coefficients,  rinner =    1.100   1.100   1.100
                                                       1.100   1.100

     PseudoPot. # 2 for Pt read from file:
     /home/vossj/suncat/psp/gbrv1.5pbe/Pt.UPF
     MD5 check sum: f09d6de1a584b5a045c4fc126da2d0c4
     Pseudo is Ultrasoft + core correction, Zval = 16.0
     Generated by new atomic code, or converted to UPF format
     Using radial grid of  985 points,  6 beta functions with:
                l(1) =   0
                l(2) =   0
                l(3) =   1
                l(4) =   1
                l(5) =   2
                l(6) =   2
     Q(r) pseudized with  8 coefficients,  rinner =    1.300   1.300   1.300
                                                       1.300   1.300

     vdW kernel table read from file vdW_kernel_table
     MD5 check sum: 095c7af220d748ca6e76c0b4c6cfb241

     atomic species   valence    mass     pseudopotential
        Zn1           20.00    65.38000     Zn( 1.00)
        Pt1           16.00   195.08400     Pt( 1.00)

     48 Sym. Ops., with inversion, found (32 have fractional translation)

   Cartesian axes

     site n.     atom                  positions (alat units)
         1           Zn1 tau(   1) = (   0.0000000   0.0000000   0.0000000  )
         2           Zn1 tau(   2) = (   0.0000000   1.9462291   1.9462291  )
         3           Zn1 tau(   3) = (   1.9462291   0.0000000   1.9462291  )
         4           Pt1 tau(   4) = (   1.9462291   1.9462291   0.0000000  )

     number of k points=    84  Fermi-Dirac smearing, width (Ry)=  0.0073
                       cart. coord. in units 2pi/alat
        k(    1) = (   0.0000000   0.0000000   0.0000000), wk =   0.0011574
        k(    2) = (   0.0000000   0.0000000   0.0214089), wk =   0.0069444
        k(    3) = (   0.0000000   0.0000000   0.0428178), wk =   0.0069444
        k(    4) = (   0.0000000   0.0000000   0.0642268), wk =   0.0069444
        k(    5) = (   0.0000000   0.0000000   0.0856357), wk =   0.0069444
        k(    6) = (   0.0000000   0.0000000   0.1070446), wk =   0.0069444
        k(    7) = (   0.0000000   0.0000000  -0.1284535), wk =   0.0034722
        k(    8) = (   0.0000000   0.0214089   0.0214089), wk =   0.0138889
        k(    9) = (   0.0000000   0.0214089   0.0428178), wk =   0.0277778
        k(   10) = (   0.0000000   0.0214089   0.0642268), wk =   0.0277778
        k(   11) = (   0.0000000   0.0214089   0.0856357), wk =   0.0277778
        k(   12) = (   0.0000000   0.0214089   0.1070446), wk =   0.0277778
        k(   13) = (   0.0000000   0.0214089  -0.1284535), wk =   0.0138889
        k(   14) = (   0.0000000   0.0428178   0.0428178), wk =   0.0138889
        k(   15) = (   0.0000000   0.0428178   0.0642268), wk =   0.0277778
        k(   16) = (   0.0000000   0.0428178   0.0856357), wk =   0.0277778
        k(   17) = (   0.0000000   0.0428178   0.1070446), wk =   0.0277778
        k(   18) = (   0.0000000   0.0428178  -0.1284535), wk =   0.0138889
        k(   19) = (   0.0000000   0.0642268   0.0642268), wk =   0.0138889
        k(   20) = (   0.0000000   0.0642268   0.0856357), wk =   0.0277778
        k(   21) = (   0.0000000   0.0642268   0.1070446), wk =   0.0277778
        k(   22) = (   0.0000000   0.0642268  -0.1284535), wk =   0.0138889
        k(   23) = (   0.0000000   0.0856357   0.0856357), wk =   0.0138889
        k(   24) = (   0.0000000   0.0856357   0.1070446), wk =   0.0277778
        k(   25) = (   0.0000000   0.0856357  -0.1284535), wk =   0.0138889
        k(   26) = (   0.0000000   0.1070446   0.1070446), wk =   0.0138889
        k(   27) = (   0.0000000   0.1070446  -0.1284535), wk =   0.0138889
        k(   28) = (   0.0000000  -0.1284535  -0.1284535), wk =   0.0034722
        k(   29) = (   0.0214089   0.0214089   0.0214089), wk =   0.0092593
        k(   30) = (   0.0214089   0.0214089   0.0428178), wk =   0.0277778
        k(   31) = (   0.0214089   0.0214089   0.0642268), wk =   0.0277778
        k(   32) = (   0.0214089   0.0214089   0.0856357), wk =   0.0277778
        k(   33) = (   0.0214089   0.0214089   0.1070446), wk =   0.0277778
        k(   34) = (   0.0214089   0.0214089  -0.1284535), wk =   0.0138889
        k(   35) = (   0.0214089   0.0428178   0.0428178), wk =   0.0277778
        k(   36) = (   0.0214089   0.0428178   0.0642268), wk =   0.0555556
        k(   37) = (   0.0214089   0.0428178   0.0856357), wk =   0.0555556
        k(   38) = (   0.0214089   0.0428178   0.1070446), wk =   0.0555556
        k(   39) = (   0.0214089   0.0428178  -0.1284535), wk =   0.0277778
        k(   40) = (   0.0214089   0.0642268   0.0642268), wk =   0.0277778
        k(   41) = (   0.0214089   0.0642268   0.0856357), wk =   0.0555556
        k(   42) = (   0.0214089   0.0642268   0.1070446), wk =   0.0555556
        k(   43) = (   0.0214089   0.0642268  -0.1284535), wk =   0.0277778
        k(   44) = (   0.0214089   0.0856357   0.0856357), wk =   0.0277778
        k(   45) = (   0.0214089   0.0856357   0.1070446), wk =   0.0555556
        k(   46) = (   0.0214089   0.0856357  -0.1284535), wk =   0.0277778
        k(   47) = (   0.0214089   0.1070446   0.1070446), wk =   0.0277778
        k(   48) = (   0.0214089   0.1070446  -0.1284535), wk =   0.0277778
        k(   49) = (   0.0214089  -0.1284535  -0.1284535), wk =   0.0069444
        k(   50) = (   0.0428178   0.0428178   0.0428178), wk =   0.0092593
        k(   51) = (   0.0428178   0.0428178   0.0642268), wk =   0.0277778
        k(   52) = (   0.0428178   0.0428178   0.0856357), wk =   0.0277778
        k(   53) = (   0.0428178   0.0428178   0.1070446), wk =   0.0277778
        k(   54) = (   0.0428178   0.0428178  -0.1284535), wk =   0.0138889
        k(   55) = (   0.0428178   0.0642268   0.0642268), wk =   0.0277778
        k(   56) = (   0.0428178   0.0642268   0.0856357), wk =   0.0555556
        k(   57) = (   0.0428178   0.0642268   0.1070446), wk =   0.0555556
        k(   58) = (   0.0428178   0.0642268  -0.1284535), wk =   0.0277778
        k(   59) = (   0.0428178   0.0856357   0.0856357), wk =   0.0277778
        k(   60) = (   0.0428178   0.0856357   0.1070446), wk =   0.0555556
[...]
        k(   70) = (   0.0642268   0.0856357   0.1070446), wk =   0.0555556
        k(   71) = (   0.0642268   0.0856357  -0.1284535), wk =   0.0277778
        k(   72) = (   0.0642268   0.1070446   0.1070446), wk =   0.0277778
        k(   73) = (   0.0642268   0.1070446  -0.1284535), wk =   0.0277778
        k(   74) = (   0.0642268  -0.1284535  -0.1284535), wk =   0.0069444
        k(   75) = (   0.0856357   0.0856357   0.0856357), wk =   0.0092593
        k(   76) = (   0.0856357   0.0856357   0.1070446), wk =   0.0277778
        k(   77) = (   0.0856357   0.0856357  -0.1284535), wk =   0.0138889
        k(   78) = (   0.0856357   0.1070446   0.1070446), wk =   0.0277778
        k(   79) = (   0.0856357   0.1070446  -0.1284535), wk =   0.0277778
        k(   80) = (   0.0856357  -0.1284535  -0.1284535), wk =   0.0069444
        k(   81) = (   0.1070446   0.1070446   0.1070446), wk =   0.0092593
        k(   82) = (   0.1070446   0.1070446  -0.1284535), wk =   0.0138889
        k(   83) = (   0.1070446  -0.1284535  -0.1284535), wk =   0.0069444
        k(   84) = (  -0.1284535  -0.1284535  -0.1284535), wk =   0.0011574

     Largest allocated arrays     est. size (Mb)     dimensions
     Largest temporary arrays     est. size (Mb)     dimensions

     Initial potential from superposition of free atoms
     Check: negative starting charge=   -0.184422

     starting charge   75.49957, renormalised to   76.00000

     negative rho (up, down):  1.856E-01 0.000E+00

     *
     * You are using vdW-DF for exchange-correlation in this calculation.
     * Please cite the following three references that made this development
     * possible:
     *
     *   M. Dion, H. Rydberg, E. Schroder, D. C. Langreth, and
     *   B. I. Lundqvist, Phys. Rev. Lett. 92, 246401 (2004).
     *
     *   T. Thonhauser, V. R. Cooper, S. Li, A. Puzder, P. Hyldgaard, and
     *   D. C. Langreth, Phys. Rev. B 76, 125112 (2007).
     *
     *   G. Roman-Perez and J. M. Soler, Phys. Rev. Lett. 103, 096102 (2009).
     *
     *
     * If you are using vdW-DF2, please also cite:
     *
     *   K. Lee, E. D. Murray, L. Kong, B. I. Lundqvist, and
     *   D. C. Langreth, Phys. Rev. B 82, 081101(R) (2010).
     *
     *
     * If you are calculating the stress with vdW-DF, please also cite:
     *
     *   R. Sabatini, E. Kucukbenli, B. Kolb, T. Thonhauser, and
     *   S. de Gironcoli, J. Phys.: Condens. Matter 24, 424209 (2012).
     *

     Carrying out vdW-DF run using the following parameters:

     Nqs =      20    Nr_points =    1024   r_max =   100.000
     q_mesh =
               0.00001000     0.04494208     0.09755937     0.15916263
               0.23128650     0.31572767     0.41458969     0.53033537
               0.66584808     0.82450364     1.01025438     1.22772762
               1.48234092     1.78043706     2.12944203     2.53805004
               3.01644009     3.57652955     4.23227104     5.00000000

     Gradients computed in reciprocal space

     Starting wfc are   51 randomized atomic wfcs +    7 random wfc

     Self-consistent Calculation

     iteration #  1     ecut=    58.80 Ry     beta=0.10
     Davidson diagonalization with overlap
     ethr =  1.00E-02,  avg # of iterations =  4.7

[...]

     total energy              =   -1600.97464494 Ry
     Harris-Foulkes estimate   =   -1601.03336055 Ry
     estimated scf accuracy    <       0.81695759 Ry

[...]

     total energy              =   -1600.82721336 Ry
     Harris-Foulkes estimate   =   -1600.82721249 Ry
     estimated scf accuracy    <       0.00000002 Ry

     iteration # 13     ecut=    58.80 Ry     beta=0.10
     Davidson diagonalization with overlap
     ethr =  2.25E-11,  avg # of iterations =  2.0

     negative rho (up, down):  1.777E-01 0.000E+00

     End of self-consistent calculation

          k = 0.0000 0.0000 0.0000 (  2969 PWs)   bands (ev):

  -110.6692-110.6669-110.6669 -64.8772 -64.8772 -64.8772 -64.8352 -64.8352
   -64.8352 -64.8349 -64.8349 -64.8349 -36.8891 -36.8891 -36.8891   5.6171
     7.5057   7.6886   7.6886   7.6886   7.6930   7.6930   8.4153   8.4153
     8.4153   8.7075   8.7075   8.9305   8.9877   8.9877   8.9877  12.3680
    12.3680  13.5642  13.5642  13.5642  15.6319  15.6319  15.6319  19.3182
    20.3254  20.3254  24.2914  24.2914  24.2914  26.6209  26.6209  26.6209
    30.5701  30.5701  30.5701  31.3281  31.3281  31.9071  33.7559  36.0719
    36.0719  36.0719

[...]

          k = 0.1070-0.1285-0.1285 (  3064 PWs)   bands (ev):

[...]

          k =-0.1285-0.1285-0.1285 (  3016 PWs)   bands (ev):

  -110.6677-110.6677-110.6677 -64.8891 -64.8688 -64.8688 -64.8427 -64.8427
   -64.8427 -64.8292 -64.8292 -64.8292 -36.8920 -36.8920 -36.8920   7.5633
     7.5799   7.5799   7.5799   8.2325   8.2325   8.2325   8.4038   8.4038
     8.4038   8.5546   8.5546   8.9264   8.9264   8.9264  11.6051  11.6051
    11.6051  13.0070  13.7402  13.7402  13.9162  13.9162  13.9162  16.3958
    17.6682  17.6682  17.6682  31.0256  31.0256  31.0256  31.6108  31.6108
    32.5637  32.5637  32.5637  32.8392  35.0723  35.0723  35.0723  36.0100
    36.0100  36.0100

     the Fermi energy is    16.0288 ev

!    total energy              =   -1600.82721710 Ry
     Harris-Foulkes estimate   =   -1600.82721337 Ry
     estimated scf accuracy    <          2.2E-09 Ry

     The total energy is the sum of the following terms:

     one-electron contribution =   -1095.97279279 Ry
     hartree contribution      =     588.02235769 Ry
     xc contribution           =    -189.13705372 Ry
     ewald contribution        =    -903.73674754 Ry
     smearing contrib. (-TS)   =      -0.00298075 Ry

     convergence has been achieved in  13 iterations

     Forces acting on atoms (Ry/au):

     negative rho (up, down):  1.777E-01 0.000E+00
     atom    1 type  1   force =     0.00000000    0.00000000    0.00000000
     atom    2 type  1   force =     0.00000000    0.00000000    0.00000000
     atom    3 type  1   force =     0.00000000    0.00000000    0.00000000
     atom    4 type  2   force =     0.00000000    0.00000000   -0.00000000

     Total force =     0.000000     Total SCF correction =     0.000000
 !ASE

     General routines

     Parallel routines

   This run was terminated on:   2:16:23  26Oct2017

   JOB DONE.