     Program PWSCF v.5.1rc2 (svn rev. ) starts on 25Oct2017 at 20:41:18

     Current dimensions of program PWSCF are:
     Max number of different atomic species (ntypx) = 10
     Max number of k-points (npk) =  40000
     Max angular momentum in pseudopotentials (lmaxx) =  3

     IMPORTANT: XC functional enforced from input :
     Exchange-correlation      = BEEF-VDW ( 1  4 27 13 2)
     Any further DFT definition will be discarded
     Please, verify this is what you really want

     Subspace diagonalization in iterative solution of the eigenvalue problem:
     a serial algorithm will be used

     bravais-lattice index     =            0
     lattice parameter (alat)  =       1.8897  a.u.
     unit-cell volume          =     425.0791 (a.u.)^3
     number of atoms/cell      =            4
     number of atomic types    =            2
     number of electrons       =        72.00
     number of Kohn-Sham states=           56
     kinetic-energy cutoff     =      58.7989  Ry
     charge density cutoff     =     587.9892  Ry
     convergence threshold     =      7.3E-09
     mixing beta               =       0.1000
     number of iterations used =           10  local-TF  mixing
     Exchange-correlation      = BEEF-VDW ( 1  4 27 13 2)
     nstep                     =           50

     celldm(1)=   1.889726  celldm(2)=   0.000000  celldm(3)=   0.000000
     celldm(4)=   0.000000  celldm(5)=   0.000000  celldm(6)=   0.000000

     crystal axes: (cart. coord. in units of alat)
               a(1) = (   3.978851   0.000000   0.000000 )
               a(2) = (   0.000000   3.978851   0.000000 )
               a(3) = (   0.000000   0.000000   3.978851 )

     reciprocal axes: (cart. coord. in units 2 pi/alat)
               b(1) = (  0.251329  0.000000  0.000000 )
               b(2) = (  0.000000  0.251329  0.000000 )
               b(3) = (  0.000000  0.000000  0.251329 )

     PseudoPot. # 1 for Ga read from file:
     /home/vossj/suncat/psp/gbrv1.5pbe/Ga.UPF
     MD5 check sum: ccd671392a58a050fbb373893b4fcd66
     Pseudo is Ultrasoft + core correction, Zval = 19.0
     Generated by new atomic code, or converted to UPF format
     Using radial grid of  871 points,  6 beta functions with:
                l(1) =   0
                l(2) =   0
                l(3) =   1
                l(4) =   1
                l(5) =   2
                l(6) =   2
     Q(r) pseudized with  8 coefficients,  rinner =    1.250   1.250   1.250
                                                       1.250   1.250

     PseudoPot. # 2 for Ir read from file:
     /home/vossj/suncat/psp/gbrv1.5pbe/Ir.UPF
     MD5 check sum: 8836f839c3459d2b385c504ce6d91f2c
     Pseudo is Ultrasoft + core correction, Zval = 15.0
     Generated by new atomic code, or converted to UPF format
     Using radial grid of  983 points,  7 beta functions with:
                l(1) =   0
                l(2) =   0
                l(3) =   1
                l(4) =   1
                l(5) =   1
                l(6) =   2
                l(7) =   2
     Q(r) pseudized with  8 coefficients,  rinner =    1.400   1.400   1.400
                                                       1.400   1.400

     vdW kernel table read from file vdW_kernel_table
     MD5 check sum: 095c7af220d748ca6e76c0b4c6cfb241

     atomic species   valence    mass     pseudopotential
        Ga1           19.00    69.72300     Ga( 1.00)
        Ir1           15.00   192.21700     Ir( 1.00)

     48 Sym. Ops., with inversion, found (32 have fractional translation)

   Cartesian axes

     site n.     atom                  positions (alat units)
         1           Ga1 tau(   1) = (   0.0000000   0.0000000   0.0000000  )
         2           Ga1 tau(   2) = (   0.0000000   1.9894257   1.9894257  )
         3           Ga1 tau(   3) = (   1.9894257   0.0000000   1.9894257  )
         4           Ir1 tau(   4) = (   1.9894257   1.9894257   0.0000000  )

     number of k points=    84  Fermi-Dirac smearing, width (Ry)=  0.0073
                       cart. coord. in units 2pi/alat
        k(    1) = (   0.0000000   0.0000000   0.0000000), wk =   0.0011574
        k(    2) = (   0.0000000   0.0000000   0.0209441), wk =   0.0069444
        k(    3) = (   0.0000000   0.0000000   0.0418881), wk =   0.0069444
        k(    4) = (   0.0000000   0.0000000   0.0628322), wk =   0.0069444
        k(    5) = (   0.0000000   0.0000000   0.0837763), wk =   0.0069444
        k(    6) = (   0.0000000   0.0000000   0.1047203), wk =   0.0069444
        k(    7) = (   0.0000000   0.0000000  -0.1256644), wk =   0.0034722
        k(    8) = (   0.0000000   0.0209441   0.0209441), wk =   0.0138889
        k(    9) = (   0.0000000   0.0209441   0.0418881), wk =   0.0277778
        k(   10) = (   0.0000000   0.0209441   0.0628322), wk =   0.0277778
        k(   11) = (   0.0000000   0.0209441   0.0837763), wk =   0.0277778
        k(   12) = (   0.0000000   0.0209441   0.1047203), wk =   0.0277778
        k(   13) = (   0.0000000   0.0209441  -0.1256644), wk =   0.0138889
        k(   14) = (   0.0000000   0.0418881   0.0418881), wk =   0.0138889
        k(   15) = (   0.0000000   0.0418881   0.0628322), wk =   0.0277778
        k(   16) = (   0.0000000   0.0418881   0.0837763), wk =   0.0277778
        k(   17) = (   0.0000000   0.0418881   0.1047203), wk =   0.0277778
        k(   18) = (   0.0000000   0.0418881  -0.1256644), wk =   0.0138889
        k(   19) = (   0.0000000   0.0628322   0.0628322), wk =   0.0138889
        k(   20) = (   0.0000000   0.0628322   0.0837763), wk =   0.0277778
        k(   21) = (   0.0000000   0.0628322   0.1047203), wk =   0.0277778
        k(   22) = (   0.0000000   0.0628322  -0.1256644), wk =   0.0138889
        k(   23) = (   0.0000000   0.0837763   0.0837763), wk =   0.0138889
        k(   24) = (   0.0000000   0.0837763   0.1047203), wk =   0.0277778
        k(   25) = (   0.0000000   0.0837763  -0.1256644), wk =   0.0138889
        k(   26) = (   0.0000000   0.1047203   0.1047203), wk =   0.0138889
        k(   27) = (   0.0000000   0.1047203  -0.1256644), wk =   0.0138889
        k(   28) = (   0.0000000  -0.1256644  -0.1256644), wk =   0.0034722
        k(   29) = (   0.0209441   0.0209441   0.0209441), wk =   0.0092593
        k(   30) = (   0.0209441   0.0209441   0.0418881), wk =   0.0277778
        k(   31) = (   0.0209441   0.0209441   0.0628322), wk =   0.0277778
        k(   32) = (   0.0209441   0.0209441   0.0837763), wk =   0.0277778
        k(   33) = (   0.0209441   0.0209441   0.1047203), wk =   0.0277778
        k(   34) = (   0.0209441   0.0209441  -0.1256644), wk =   0.0138889
        k(   35) = (   0.0209441   0.0418881   0.0418881), wk =   0.0277778
        k(   36) = (   0.0209441   0.0418881   0.0628322), wk =   0.0555556
        k(   37) = (   0.0209441   0.0418881   0.0837763), wk =   0.0555556
        k(   38) = (   0.0209441   0.0418881   0.1047203), wk =   0.0555556
        k(   39) = (   0.0209441   0.0418881  -0.1256644), wk =   0.0277778
        k(   40) = (   0.0209441   0.0628322   0.0628322), wk =   0.0277778
        k(   41) = (   0.0209441   0.0628322   0.0837763), wk =   0.0555556
        k(   42) = (   0.0209441   0.0628322   0.1047203), wk =   0.0555556
        k(   43) = (   0.0209441   0.0628322  -0.1256644), wk =   0.0277778
        k(   44) = (   0.0209441   0.0837763   0.0837763), wk =   0.0277778
        k(   45) = (   0.0209441   0.0837763   0.1047203), wk =   0.0555556
        k(   46) = (   0.0209441   0.0837763  -0.1256644), wk =   0.0277778
        k(   47) = (   0.0209441   0.1047203   0.1047203), wk =   0.0277778
        k(   48) = (   0.0209441   0.1047203  -0.1256644), wk =   0.0277778
        k(   49) = (   0.0209441  -0.1256644  -0.1256644), wk =   0.0069444
        k(   50) = (   0.0418881   0.0418881   0.0418881), wk =   0.0092593
        k(   51) = (   0.0418881   0.0418881   0.0628322), wk =   0.0277778
        k(   52) = (   0.0418881   0.0418881   0.0837763), wk =   0.0277778
        k(   53) = (   0.0418881   0.0418881   0.1047203), wk =   0.0277778
        k(   54) = (   0.0418881   0.0418881  -0.1256644), wk =   0.0138889
        k(   55) = (   0.0418881   0.0628322   0.0628322), wk =   0.0277778
        k(   56) = (   0.0418881   0.0628322   0.0837763), wk =   0.0555556
        k(   57) = (   0.0418881   0.0628322   0.1047203), wk =   0.0555556
        k(   58) = (   0.0418881   0.0628322  -0.1256644), wk =   0.0277778
        k(   59) = (   0.0418881   0.0837763   0.0837763), wk =   0.0277778
        k(   60) = (   0.0418881   0.0837763   0.1047203), wk =   0.0555556
[...]
        k(   70) = (   0.0628322   0.0837763   0.1047203), wk =   0.0555556
        k(   71) = (   0.0628322   0.0837763  -0.1256644), wk =   0.0277778
        k(   72) = (   0.0628322   0.1047203   0.1047203), wk =   0.0277778
        k(   73) = (   0.0628322   0.1047203  -0.1256644), wk =   0.0277778
        k(   74) = (   0.0628322  -0.1256644  -0.1256644), wk =   0.0069444
        k(   75) = (   0.0837763   0.0837763   0.0837763), wk =   0.0092593
        k(   76) = (   0.0837763   0.0837763   0.1047203), wk =   0.0277778
        k(   77) = (   0.0837763   0.0837763  -0.1256644), wk =   0.0138889
        k(   78) = (   0.0837763   0.1047203   0.1047203), wk =   0.0277778
        k(   79) = (   0.0837763   0.1047203  -0.1256644), wk =   0.0277778
        k(   80) = (   0.0837763  -0.1256644  -0.1256644), wk =   0.0069444
        k(   81) = (   0.1047203   0.1047203   0.1047203), wk =   0.0092593
        k(   82) = (   0.1047203   0.1047203  -0.1256644), wk =   0.0138889
        k(   83) = (   0.1047203  -0.1256644  -0.1256644), wk =   0.0069444
        k(   84) = (  -0.1256644  -0.1256644  -0.1256644), wk =   0.0011574

     Largest allocated arrays     est. size (Mb)     dimensions
     Largest temporary arrays     est. size (Mb)     dimensions

     Initial potential from superposition of free atoms
     Check: negative starting charge=   -0.365068

     starting charge   68.49997, renormalised to   72.00000

     negative rho (up, down):  3.837E-01 0.000E+00

     *
     * You are using vdW-DF for exchange-correlation in this calculation.
     * Please cite the following three references that made this development
     * possible:
     *
     *   M. Dion, H. Rydberg, E. Schroder, D. C. Langreth, and
     *   B. I. Lundqvist, Phys. Rev. Lett. 92, 246401 (2004).
     *
     *   T. Thonhauser, V. R. Cooper, S. Li, A. Puzder, P. Hyldgaard, and
     *   D. C. Langreth, Phys. Rev. B 76, 125112 (2007).
     *
     *   G. Roman-Perez and J. M. Soler, Phys. Rev. Lett. 103, 096102 (2009).
     *
     *
     * If you are using vdW-DF2, please also cite:
     *
     *   K. Lee, E. D. Murray, L. Kong, B. I. Lundqvist, and
     *   D. C. Langreth, Phys. Rev. B 82, 081101(R) (2010).
     *
     *
     * If you are calculating the stress with vdW-DF, please also cite:
     *
     *   R. Sabatini, E. Kucukbenli, B. Kolb, T. Thonhauser, and
     *   S. de Gironcoli, J. Phys.: Condens. Matter 24, 424209 (2012).
     *

     Carrying out vdW-DF run using the following parameters:

     Nqs =      20    Nr_points =    1024   r_max =   100.000
     q_mesh =
               0.00001000     0.04494208     0.09755937     0.15916263
               0.23128650     0.31572767     0.41458969     0.53033537
               0.66584808     0.82450364     1.01025438     1.22772762
               1.48234092     1.78043706     2.12944203     2.53805004
               3.01644009     3.57652955     4.23227104     5.00000000

     Gradients computed in reciprocal space

     Starting wfc are   48 randomized atomic wfcs +    8 random wfc

     Self-consistent Calculation

     iteration #  1     ecut=    58.80 Ry     beta=0.10
     Davidson diagonalization with overlap
     ethr =  1.00E-02,  avg # of iterations =  4.8

[...]

     total energy              =   -1436.24328555 Ry
     Harris-Foulkes estimate   =   -1437.80058054 Ry
     estimated scf accuracy    <      20.13789676 Ry

[...]

     total energy              =   -1433.14548483 Ry
     Harris-Foulkes estimate   =   -1433.14548326 Ry
     estimated scf accuracy    <       0.00000001 Ry

     iteration # 15     ecut=    58.80 Ry     beta=0.10
     Davidson diagonalization with overlap
     ethr =  1.82E-11,  avg # of iterations =  2.0

     negative rho (up, down):  3.300E-01 0.000E+00

     End of self-consistent calculation

          k = 0.0000 0.0000 0.0000 (  3239 PWs)   bands (ev):

   -79.3606 -79.3606 -79.3606 -79.3210 -79.3210 -79.3210 -79.3205 -79.3205
   -79.3205 -33.0747 -33.0747 -33.0747  -0.0166   0.0210   0.0210   0.0210
     0.1763   0.1763   0.3584   0.3584   0.3584   0.4275   0.4275   0.5530
     0.5673   0.5673   0.5673   3.7129  11.1855  11.1855  13.3899  13.3899
    13.3899  13.7042  13.7042  13.7042  16.9858  17.3158  17.3158  21.0995
    21.0995  21.0995  23.9430  23.9430  23.9430  27.2786  27.4131  27.4131
    27.4131  28.2794  28.2794  29.0693  31.8428  33.2152  33.2152  33.2152

[...]

          k = 0.1047-0.1257-0.1257 (  3236 PWs)   bands (ev):

[...]

          k =-0.1257-0.1257-0.1257 (  3184 PWs)   bands (ev):

   -79.3651 -79.3579 -79.3579 -79.3233 -79.3233 -79.3233 -79.3185 -79.3185
   -79.3185 -33.0782 -33.0782 -33.0782   0.1061   0.1061   0.1061   0.1124
     0.2145   0.2145   0.2145   0.3543   0.3543   0.3543   0.4145   0.4145
     0.5439   0.5439   0.5439   9.2545   9.2545   9.2545  10.7270  12.1401
    12.1401  12.1401  14.2542  14.2542  14.8725  16.2929  16.2929  16.2929
    26.9799  26.9799  26.9799  27.1833  27.1833  27.2849  30.6588  30.6588
    30.6588  30.8244  31.5233  31.5233  31.5233  32.1592  32.1592  32.1592

     the Fermi energy is    15.7780 ev

!    total energy              =   -1433.14549147 Ry
     Harris-Foulkes estimate   =   -1433.14548484 Ry
     estimated scf accuracy    <          9.7E-11 Ry

     The total energy is the sum of the following terms:

     one-electron contribution =    -961.64197570 Ry
     hartree contribution      =     523.94357418 Ry
     xc contribution           =    -201.57544114 Ry
     ewald contribution        =    -793.86708719 Ry
     smearing contrib. (-TS)   =      -0.00456162 Ry

     convergence has been achieved in  15 iterations

     Forces acting on atoms (Ry/au):

     negative rho (up, down):  3.300E-01 0.000E+00
     atom    1 type  1   force =     0.00000000    0.00000000    0.00000000
     atom    2 type  1   force =     0.00000000    0.00000000    0.00000000
     atom    3 type  1   force =     0.00000000    0.00000000    0.00000000
     atom    4 type  2   force =     0.00000000    0.00000000    0.00000000

     Total force =     0.000000     Total SCF correction =     0.000000
 !ASE

     General routines

     Parallel routines

   This run was terminated on:  20:42:35  25Oct2017

   JOB DONE.