     Program PWSCF v.5.1rc2 (svn rev. ) starts on 25Oct2017 at 16:21:28

     Current dimensions of program PWSCF are:
     Max number of different atomic species (ntypx) = 10
     Max number of k-points (npk) =  40000
     Max angular momentum in pseudopotentials (lmaxx) =  3

     IMPORTANT: XC functional enforced from input :
     Exchange-correlation      = BEEF-VDW ( 1  4 27 13 2)
     Any further DFT definition will be discarded
     Please, verify this is what you really want

     Subspace diagonalization in iterative solution of the eigenvalue problem:
     a serial algorithm will be used

     bravais-lattice index     =            0
     lattice parameter (alat)  =       1.8897  a.u.
     unit-cell volume          =     499.1648 (a.u.)^3
     number of atoms/cell      =            4
     number of atomic types    =            2
     number of electrons       =        51.00
     number of Kohn-Sham states=           45
     kinetic-energy cutoff     =      58.7989  Ry
     charge density cutoff     =     587.9892  Ry
     convergence threshold     =      7.3E-09
     mixing beta               =       0.1000
     number of iterations used =           10  local-TF  mixing
     Exchange-correlation      = BEEF-VDW ( 1  4 27 13 2)
     nstep                     =           50

     celldm(1)=   1.889726  celldm(2)=   0.000000  celldm(3)=   0.000000
     celldm(4)=   0.000000  celldm(5)=   0.000000  celldm(6)=   0.000000

     crystal axes: (cart. coord. in units of alat)
               a(1) = (   4.197742   0.000000   0.000000 )
               a(2) = (   0.000000   4.197742   0.000000 )
               a(3) = (   0.000000   0.000000   4.197742 )

     reciprocal axes: (cart. coord. in units 2 pi/alat)
               b(1) = (  0.238223  0.000000  0.000000 )
               b(2) = (  0.000000  0.238223  0.000000 )
               b(3) = (  0.000000  0.000000  0.238223 )

     PseudoPot. # 1 for Nb read from file:
     /home/vossj/suncat/psp/gbrv1.5pbe/Nb.UPF
     MD5 check sum: 573aab8a2fa660278ed4a62cd769473f
     Pseudo is Ultrasoft + core correction, Zval = 13.0
     Generated by new atomic code, or converted to UPF format
     Using radial grid of  887 points,  6 beta functions with:
                l(1) =   0
                l(2) =   0
                l(3) =   1
                l(4) =   1
                l(5) =   2
                l(6) =   2
     Q(r) pseudized with  6 coefficients,  rinner =    1.000   1.000   1.000
                                                       1.000   1.000

     PseudoPot. # 2 for Ti read from file:
     /home/vossj/suncat/psp/gbrv1.5pbe/Ti.UPF
     MD5 check sum: 88a00a6731bd790ddea75d31a80cb452
     Pseudo is Ultrasoft + core correction, Zval = 12.0
     Generated by new atomic code, or converted to UPF format
     Using radial grid of  851 points,  6 beta functions with:
                l(1) =   0
                l(2) =   0
                l(3) =   1
                l(4) =   1
                l(5) =   2
                l(6) =   2
     Q(r) pseudized with  6 coefficients,  rinner =    1.000   1.000   1.000
                                                       1.000   1.000

     vdW kernel table read from file vdW_kernel_table
     MD5 check sum: 095c7af220d748ca6e76c0b4c6cfb241

     atomic species   valence    mass     pseudopotential
        Nb1           13.00    92.90637     Nb( 1.00)
        Ti1           12.00    47.86700     Ti( 1.00)

     48 Sym. Ops., with inversion, found (32 have fractional translation)

   Cartesian axes

     site n.     atom                  positions (alat units)
         1           Nb1 tau(   1) = (   0.0000000   0.0000000   0.0000000  )
         2           Nb1 tau(   2) = (   0.0000000   2.0988712   2.0988712  )
         3           Nb1 tau(   3) = (   2.0988712   0.0000000   2.0988712  )
         4           Ti1 tau(   4) = (   2.0988712   2.0988712   0.0000000  )

     number of k points=    84  Fermi-Dirac smearing, width (Ry)=  0.0073
                       cart. coord. in units 2pi/alat
        k(    1) = (   0.0000000   0.0000000   0.0000000), wk =   0.0011574
        k(    2) = (   0.0000000   0.0000000   0.0198519), wk =   0.0069444
        k(    3) = (   0.0000000   0.0000000   0.0397039), wk =   0.0069444
        k(    4) = (   0.0000000   0.0000000   0.0595558), wk =   0.0069444
        k(    5) = (   0.0000000   0.0000000   0.0794078), wk =   0.0069444
        k(    6) = (   0.0000000   0.0000000   0.0992597), wk =   0.0069444
        k(    7) = (   0.0000000   0.0000000  -0.1191116), wk =   0.0034722
        k(    8) = (   0.0000000   0.0198519   0.0198519), wk =   0.0138889
        k(    9) = (   0.0000000   0.0198519   0.0397039), wk =   0.0277778
        k(   10) = (   0.0000000   0.0198519   0.0595558), wk =   0.0277778
        k(   11) = (   0.0000000   0.0198519   0.0794078), wk =   0.0277778
        k(   12) = (   0.0000000   0.0198519   0.0992597), wk =   0.0277778
        k(   13) = (   0.0000000   0.0198519  -0.1191116), wk =   0.0138889
        k(   14) = (   0.0000000   0.0397039   0.0397039), wk =   0.0138889
        k(   15) = (   0.0000000   0.0397039   0.0595558), wk =   0.0277778
        k(   16) = (   0.0000000   0.0397039   0.0794078), wk =   0.0277778
        k(   17) = (   0.0000000   0.0397039   0.0992597), wk =   0.0277778
        k(   18) = (   0.0000000   0.0397039  -0.1191116), wk =   0.0138889
        k(   19) = (   0.0000000   0.0595558   0.0595558), wk =   0.0138889
        k(   20) = (   0.0000000   0.0595558   0.0794078), wk =   0.0277778
        k(   21) = (   0.0000000   0.0595558   0.0992597), wk =   0.0277778
        k(   22) = (   0.0000000   0.0595558  -0.1191116), wk =   0.0138889
        k(   23) = (   0.0000000   0.0794078   0.0794078), wk =   0.0138889
        k(   24) = (   0.0000000   0.0794078   0.0992597), wk =   0.0277778
        k(   25) = (   0.0000000   0.0794078  -0.1191116), wk =   0.0138889
        k(   26) = (   0.0000000   0.0992597   0.0992597), wk =   0.0138889
        k(   27) = (   0.0000000   0.0992597  -0.1191116), wk =   0.0138889
        k(   28) = (   0.0000000  -0.1191116  -0.1191116), wk =   0.0034722
        k(   29) = (   0.0198519   0.0198519   0.0198519), wk =   0.0092593
        k(   30) = (   0.0198519   0.0198519   0.0397039), wk =   0.0277778
        k(   31) = (   0.0198519   0.0198519   0.0595558), wk =   0.0277778
        k(   32) = (   0.0198519   0.0198519   0.0794078), wk =   0.0277778
        k(   33) = (   0.0198519   0.0198519   0.0992597), wk =   0.0277778
        k(   34) = (   0.0198519   0.0198519  -0.1191116), wk =   0.0138889
        k(   35) = (   0.0198519   0.0397039   0.0397039), wk =   0.0277778
        k(   36) = (   0.0198519   0.0397039   0.0595558), wk =   0.0555556
        k(   37) = (   0.0198519   0.0397039   0.0794078), wk =   0.0555556
        k(   38) = (   0.0198519   0.0397039   0.0992597), wk =   0.0555556
        k(   39) = (   0.0198519   0.0397039  -0.1191116), wk =   0.0277778
        k(   40) = (   0.0198519   0.0595558   0.0595558), wk =   0.0277778
        k(   41) = (   0.0198519   0.0595558   0.0794078), wk =   0.0555556
        k(   42) = (   0.0198519   0.0595558   0.0992597), wk =   0.0555556
        k(   43) = (   0.0198519   0.0595558  -0.1191116), wk =   0.0277778
        k(   44) = (   0.0198519   0.0794078   0.0794078), wk =   0.0277778
        k(   45) = (   0.0198519   0.0794078   0.0992597), wk =   0.0555556
        k(   46) = (   0.0198519   0.0794078  -0.1191116), wk =   0.0277778
        k(   47) = (   0.0198519   0.0992597   0.0992597), wk =   0.0277778
        k(   48) = (   0.0198519   0.0992597  -0.1191116), wk =   0.0277778
        k(   49) = (   0.0198519  -0.1191116  -0.1191116), wk =   0.0069444
        k(   50) = (   0.0397039   0.0397039   0.0397039), wk =   0.0092593
        k(   51) = (   0.0397039   0.0397039   0.0595558), wk =   0.0277778
        k(   52) = (   0.0397039   0.0397039   0.0794078), wk =   0.0277778
        k(   53) = (   0.0397039   0.0397039   0.0992597), wk =   0.0277778
        k(   54) = (   0.0397039   0.0397039  -0.1191116), wk =   0.0138889
        k(   55) = (   0.0397039   0.0595558   0.0595558), wk =   0.0277778
        k(   56) = (   0.0397039   0.0595558   0.0794078), wk =   0.0555556
        k(   57) = (   0.0397039   0.0595558   0.0992597), wk =   0.0555556
        k(   58) = (   0.0397039   0.0595558  -0.1191116), wk =   0.0277778
        k(   59) = (   0.0397039   0.0794078   0.0794078), wk =   0.0277778
        k(   60) = (   0.0397039   0.0794078   0.0992597), wk =   0.0555556
[...]
        k(   70) = (   0.0595558   0.0794078   0.0992597), wk =   0.0555556
        k(   71) = (   0.0595558   0.0794078  -0.1191116), wk =   0.0277778
        k(   72) = (   0.0595558   0.0992597   0.0992597), wk =   0.0277778
        k(   73) = (   0.0595558   0.0992597  -0.1191116), wk =   0.0277778
        k(   74) = (   0.0595558  -0.1191116  -0.1191116), wk =   0.0069444
        k(   75) = (   0.0794078   0.0794078   0.0794078), wk =   0.0092593
        k(   76) = (   0.0794078   0.0794078   0.0992597), wk =   0.0277778
        k(   77) = (   0.0794078   0.0794078  -0.1191116), wk =   0.0138889
        k(   78) = (   0.0794078   0.0992597   0.0992597), wk =   0.0277778
        k(   79) = (   0.0794078   0.0992597  -0.1191116), wk =   0.0277778
        k(   80) = (   0.0794078  -0.1191116  -0.1191116), wk =   0.0069444
        k(   81) = (   0.0992597   0.0992597   0.0992597), wk =   0.0092593
        k(   82) = (   0.0992597   0.0992597  -0.1191116), wk =   0.0138889
        k(   83) = (   0.0992597  -0.1191116  -0.1191116), wk =   0.0069444
        k(   84) = (  -0.1191116  -0.1191116  -0.1191116), wk =   0.0011574

     Largest allocated arrays     est. size (Mb)     dimensions
     Largest temporary arrays     est. size (Mb)     dimensions

     Check: negative/imaginary core charge=   -0.000001    0.000000

     Initial potential from superposition of free atoms
     Check: negative starting charge=   -0.001290

     starting charge   49.99176, renormalised to   51.00000

     negative rho (up, down):  1.316E-03 0.000E+00

     *
     * You are using vdW-DF for exchange-correlation in this calculation.
     * Please cite the following three references that made this development
     * possible:
     *
     *   M. Dion, H. Rydberg, E. Schroder, D. C. Langreth, and
     *   B. I. Lundqvist, Phys. Rev. Lett. 92, 246401 (2004).
     *
     *   T. Thonhauser, V. R. Cooper, S. Li, A. Puzder, P. Hyldgaard, and
     *   D. C. Langreth, Phys. Rev. B 76, 125112 (2007).
     *
     *   G. Roman-Perez and J. M. Soler, Phys. Rev. Lett. 103, 096102 (2009).
     *
     *
     * If you are using vdW-DF2, please also cite:
     *
     *   K. Lee, E. D. Murray, L. Kong, B. I. Lundqvist, and
     *   D. C. Langreth, Phys. Rev. B 82, 081101(R) (2010).
     *
     *
     * If you are calculating the stress with vdW-DF, please also cite:
     *
     *   R. Sabatini, E. Kucukbenli, B. Kolb, T. Thonhauser, and
     *   S. de Gironcoli, J. Phys.: Condens. Matter 24, 424209 (2012).
     *

     Carrying out vdW-DF run using the following parameters:

     Nqs =      20    Nr_points =    1024   r_max =   100.000
     q_mesh =
               0.00001000     0.04494208     0.09755937     0.15916263
               0.23128650     0.31572767     0.41458969     0.53033537
               0.66584808     0.82450364     1.01025438     1.22772762
               1.48234092     1.78043706     2.12944203     2.53805004
               3.01644009     3.57652955     4.23227104     5.00000000

     Gradients computed in reciprocal space

     Starting wfc are   49 randomized atomic wfcs

     Self-consistent Calculation

     iteration #  1     ecut=    58.80 Ry     beta=0.10
     Davidson diagonalization with overlap
     ethr =  1.00E-02,  avg # of iterations =  4.2

[...]

     total energy              =    -476.14661729 Ry
     Harris-Foulkes estimate   =    -477.11868471 Ry
     estimated scf accuracy    <      19.63870576 Ry

[...]

     total energy              =    -475.59845588 Ry
     Harris-Foulkes estimate   =    -475.59845561 Ry
     estimated scf accuracy    <       0.00000001 Ry

     iteration # 18     ecut=    58.80 Ry     beta=0.10
     Davidson diagonalization with overlap
     ethr =  2.36E-11,  avg # of iterations =  1.0

     negative rho (up, down):  7.462E-04 0.000E+00

     End of self-consistent calculation

          k = 0.0000 0.0000 0.0000 (  3791 PWs)   bands (ev):

   -40.8365 -38.8370 -38.6417 -38.6417 -17.0816 -17.0816 -17.0816 -15.1402
   -15.1402 -15.1402 -14.6610 -14.6610 -14.6610 -14.3620 -14.3620 -14.3620
    10.0577  12.0838  12.6906  12.6906  13.2203  13.2203  13.2203  16.4640
    16.4640  16.4640  18.6370  18.6370  19.5040  19.5040  19.5040  20.1956
    20.1956  20.2689  20.2689  20.2689  20.8253  21.3664  21.3664  21.3664
    26.9869  26.9869  26.9869  28.1792  28.1792

[...]

          k = 0.0993-0.1191-0.1191 (  3820 PWs)   bands (ev):

[...]

          k =-0.1191-0.1191-0.1191 (  3840 PWs)   bands (ev):

   -40.8330 -38.7066 -38.7066 -38.7066 -17.1050 -17.1050 -17.1050 -15.4469
   -15.0389 -15.0389 -15.0389 -14.3996 -14.3996 -14.3912 -14.3912 -14.3912
    12.3242  12.7488  12.7488  12.7488  16.1284  16.1284  16.1284  16.3038
    16.3038  16.3038  16.5198  16.5198  17.2101  17.2101  17.2101  17.6273
    19.9821  19.9821  19.9821  20.1391  20.1391  20.8242  20.8242  20.8242
    26.0405  26.0405  26.0405  26.1013  28.3641

     the Fermi energy is    16.1536 ev

!    total energy              =    -475.59845704 Ry
     Harris-Foulkes estimate   =    -475.59845588 Ry
     estimated scf accuracy    <          4.9E-11 Ry

     The total energy is the sum of the following terms:

     one-electron contribution =     -95.09874075 Ry
     hartree contribution      =      71.57754330 Ry
     xc contribution           =     -76.01911442 Ry
     ewald contribution        =    -376.04365570 Ry
     smearing contrib. (-TS)   =      -0.01448947 Ry

     convergence has been achieved in  18 iterations

     Forces acting on atoms (Ry/au):

     negative rho (up, down):  7.462E-04 0.000E+00
     atom    1 type  1   force =     0.00000000   -0.00000000   -0.00000000
     atom    2 type  1   force =     0.00000000    0.00000000    0.00000000
     atom    3 type  1   force =     0.00000000    0.00000000    0.00000000
     atom    4 type  2   force =     0.00000000    0.00000000    0.00000000

     Total force =     0.000000     Total SCF correction =     0.000000
 !ASE

     General routines

     Parallel routines

   This run was terminated on:  16:22:40  25Oct2017

   JOB DONE.