     Program PWSCF v.5.1rc2 (svn rev. ) starts on 31Oct2017 at 16: 4:17

     Current dimensions of program PWSCF are:
     Max number of different atomic species (ntypx) = 10
     Max number of k-points (npk) =  40000
     Max angular momentum in pseudopotentials (lmaxx) =  3

     IMPORTANT: XC functional enforced from input :
     Exchange-correlation      = BEEF-VDW ( 1  4 27 13 2)
     Any further DFT definition will be discarded
     Please, verify this is what you really want

     Subspace diagonalization in iterative solution of the eigenvalue problem:
     a serial algorithm will be used

     bravais-lattice index     =            0
     lattice parameter (alat)  =       1.8897  a.u.
     unit-cell volume          =     355.3937 (a.u.)^3
     number of atoms/cell      =            4
     number of atomic types    =            2
     number of electrons       =        77.00
     number of Kohn-Sham states=           58
     kinetic-energy cutoff     =      58.7989  Ry
     charge density cutoff     =     587.9892  Ry
     convergence threshold     =      7.3E-09
     mixing beta               =       0.1000
     number of iterations used =           10  local-TF  mixing
     Exchange-correlation      = BEEF-VDW ( 1  4 27 13 2)
     nstep                     =           50

     celldm(1)=   1.889726  celldm(2)=   0.000000  celldm(3)=   0.000000
     celldm(4)=   0.000000  celldm(5)=   0.000000  celldm(6)=   0.000000

     crystal axes: (cart. coord. in units of alat)
               a(1) = (   3.748329   0.000000   0.000000 )
               a(2) = (   0.000000   3.748329   0.000000 )
               a(3) = (   0.000000   0.000000   3.748329 )

     reciprocal axes: (cart. coord. in units 2 pi/alat)
               b(1) = (  0.266786  0.000000  0.000000 )
               b(2) = (  0.000000  0.266786  0.000000 )
               b(3) = (  0.000000  0.000000  0.266786 )

     PseudoPot. # 1 for Zn read from file:
     /home/vossj/suncat/psp/gbrv1.5pbe/Zn.UPF
     MD5 check sum: df62231357ef9e81f77b2b3087fa5675
     Pseudo is Ultrasoft, Zval = 20.0
     Generated by new atomic code, or converted to UPF format
     Using radial grid of  943 points,  6 beta functions with:
                l(1) =   0
                l(2) =   0
                l(3) =   1
                l(4) =   1
                l(5) =   2
                l(6) =   2
     Q(r) pseudized with  8 coefficients,  rinner =    1.100   1.100   1.100
                                                       1.100   1.100

     PseudoPot. # 2 for Co read from file:
     /home/vossj/suncat/psp/gbrv1.5pbe/Co.UPF
     MD5 check sum: 5f91765df6ddd3222702df6e7b74a16d
     Pseudo is Ultrasoft + core correction, Zval = 17.0
     Generated by new atomic code, or converted to UPF format
     Using radial grid of  863 points,  6 beta functions with:
                l(1) =   0
                l(2) =   0
                l(3) =   1
                l(4) =   1
                l(5) =   2
                l(6) =   2
     Q(r) pseudized with  8 coefficients,  rinner =    1.200   1.200   1.200
                                                       1.200   1.200

     vdW kernel table read from file vdW_kernel_table
     MD5 check sum: 095c7af220d748ca6e76c0b4c6cfb241

     atomic species   valence    mass     pseudopotential
        Zn1           20.00    65.38000     Zn( 1.00)
        Co1           17.00    58.93319     Co( 1.00)

     48 Sym. Ops., with inversion, found (32 have fractional translation)

   Cartesian axes

     site n.     atom                  positions (alat units)
         1           Zn1 tau(   1) = (   0.0000000   0.0000000   0.0000000  )
         2           Zn1 tau(   2) = (   0.0000000   1.8741646   1.8741646  )
         3           Zn1 tau(   3) = (   1.8741646   0.0000000   1.8741646  )
         4           Co1 tau(   4) = (   1.8741646   1.8741646   0.0000000  )

     number of k points=    84  Fermi-Dirac smearing, width (Ry)=  0.0073
                       cart. coord. in units 2pi/alat
        k(    1) = (   0.0000000   0.0000000   0.0000000), wk =   0.0011574
        k(    2) = (   0.0000000   0.0000000   0.0222321), wk =   0.0069444
        k(    3) = (   0.0000000   0.0000000   0.0444643), wk =   0.0069444
        k(    4) = (   0.0000000   0.0000000   0.0666964), wk =   0.0069444
        k(    5) = (   0.0000000   0.0000000   0.0889285), wk =   0.0069444
        k(    6) = (   0.0000000   0.0000000   0.1111606), wk =   0.0069444
        k(    7) = (   0.0000000   0.0000000  -0.1333928), wk =   0.0034722
        k(    8) = (   0.0000000   0.0222321   0.0222321), wk =   0.0138889
        k(    9) = (   0.0000000   0.0222321   0.0444643), wk =   0.0277778
        k(   10) = (   0.0000000   0.0222321   0.0666964), wk =   0.0277778
        k(   11) = (   0.0000000   0.0222321   0.0889285), wk =   0.0277778
        k(   12) = (   0.0000000   0.0222321   0.1111606), wk =   0.0277778
        k(   13) = (   0.0000000   0.0222321  -0.1333928), wk =   0.0138889
        k(   14) = (   0.0000000   0.0444643   0.0444643), wk =   0.0138889
        k(   15) = (   0.0000000   0.0444643   0.0666964), wk =   0.0277778
        k(   16) = (   0.0000000   0.0444643   0.0889285), wk =   0.0277778
        k(   17) = (   0.0000000   0.0444643   0.1111606), wk =   0.0277778
        k(   18) = (   0.0000000   0.0444643  -0.1333928), wk =   0.0138889
        k(   19) = (   0.0000000   0.0666964   0.0666964), wk =   0.0138889
        k(   20) = (   0.0000000   0.0666964   0.0889285), wk =   0.0277778
        k(   21) = (   0.0000000   0.0666964   0.1111606), wk =   0.0277778
        k(   22) = (   0.0000000   0.0666964  -0.1333928), wk =   0.0138889
        k(   23) = (   0.0000000   0.0889285   0.0889285), wk =   0.0138889
        k(   24) = (   0.0000000   0.0889285   0.1111606), wk =   0.0277778
        k(   25) = (   0.0000000   0.0889285  -0.1333928), wk =   0.0138889
        k(   26) = (   0.0000000   0.1111606   0.1111606), wk =   0.0138889
        k(   27) = (   0.0000000   0.1111606  -0.1333928), wk =   0.0138889
        k(   28) = (   0.0000000  -0.1333928  -0.1333928), wk =   0.0034722
        k(   29) = (   0.0222321   0.0222321   0.0222321), wk =   0.0092593
        k(   30) = (   0.0222321   0.0222321   0.0444643), wk =   0.0277778
        k(   31) = (   0.0222321   0.0222321   0.0666964), wk =   0.0277778
        k(   32) = (   0.0222321   0.0222321   0.0889285), wk =   0.0277778
        k(   33) = (   0.0222321   0.0222321   0.1111606), wk =   0.0277778
        k(   34) = (   0.0222321   0.0222321  -0.1333928), wk =   0.0138889
        k(   35) = (   0.0222321   0.0444643   0.0444643), wk =   0.0277778
        k(   36) = (   0.0222321   0.0444643   0.0666964), wk =   0.0555556
        k(   37) = (   0.0222321   0.0444643   0.0889285), wk =   0.0555556
        k(   38) = (   0.0222321   0.0444643   0.1111606), wk =   0.0555556
        k(   39) = (   0.0222321   0.0444643  -0.1333928), wk =   0.0277778
        k(   40) = (   0.0222321   0.0666964   0.0666964), wk =   0.0277778
        k(   41) = (   0.0222321   0.0666964   0.0889285), wk =   0.0555556
        k(   42) = (   0.0222321   0.0666964   0.1111606), wk =   0.0555556
        k(   43) = (   0.0222321   0.0666964  -0.1333928), wk =   0.0277778
        k(   44) = (   0.0222321   0.0889285   0.0889285), wk =   0.0277778
        k(   45) = (   0.0222321   0.0889285   0.1111606), wk =   0.0555556
        k(   46) = (   0.0222321   0.0889285  -0.1333928), wk =   0.0277778
        k(   47) = (   0.0222321   0.1111606   0.1111606), wk =   0.0277778
        k(   48) = (   0.0222321   0.1111606  -0.1333928), wk =   0.0277778
        k(   49) = (   0.0222321  -0.1333928  -0.1333928), wk =   0.0069444
        k(   50) = (   0.0444643   0.0444643   0.0444643), wk =   0.0092593
        k(   51) = (   0.0444643   0.0444643   0.0666964), wk =   0.0277778
        k(   52) = (   0.0444643   0.0444643   0.0889285), wk =   0.0277778
        k(   53) = (   0.0444643   0.0444643   0.1111606), wk =   0.0277778
        k(   54) = (   0.0444643   0.0444643  -0.1333928), wk =   0.0138889
        k(   55) = (   0.0444643   0.0666964   0.0666964), wk =   0.0277778
        k(   56) = (   0.0444643   0.0666964   0.0889285), wk =   0.0555556
        k(   57) = (   0.0444643   0.0666964   0.1111606), wk =   0.0555556
        k(   58) = (   0.0444643   0.0666964  -0.1333928), wk =   0.0277778
        k(   59) = (   0.0444643   0.0889285   0.0889285), wk =   0.0277778
        k(   60) = (   0.0444643   0.0889285   0.1111606), wk =   0.0555556
[...]
        k(   70) = (   0.0666964   0.0889285   0.1111606), wk =   0.0555556
        k(   71) = (   0.0666964   0.0889285  -0.1333928), wk =   0.0277778
        k(   72) = (   0.0666964   0.1111606   0.1111606), wk =   0.0277778
        k(   73) = (   0.0666964   0.1111606  -0.1333928), wk =   0.0277778
        k(   74) = (   0.0666964  -0.1333928  -0.1333928), wk =   0.0069444
        k(   75) = (   0.0889285   0.0889285   0.0889285), wk =   0.0092593
        k(   76) = (   0.0889285   0.0889285   0.1111606), wk =   0.0277778
        k(   77) = (   0.0889285   0.0889285  -0.1333928), wk =   0.0138889
        k(   78) = (   0.0889285   0.1111606   0.1111606), wk =   0.0277778
        k(   79) = (   0.0889285   0.1111606  -0.1333928), wk =   0.0277778
        k(   80) = (   0.0889285  -0.1333928  -0.1333928), wk =   0.0069444
        k(   81) = (   0.1111606   0.1111606   0.1111606), wk =   0.0092593
        k(   82) = (   0.1111606   0.1111606  -0.1333928), wk =   0.0138889
        k(   83) = (   0.1111606  -0.1333928  -0.1333928), wk =   0.0069444
        k(   84) = (  -0.1333928  -0.1333928  -0.1333928), wk =   0.0011574

     Largest allocated arrays     est. size (Mb)     dimensions
     Largest temporary arrays     est. size (Mb)     dimensions

     Check: negative/imaginary core charge=   -0.000018    0.000000

     Initial potential from superposition of free atoms

     starting charge   75.99957, renormalised to   77.00000

     *
     * You are using vdW-DF for exchange-correlation in this calculation.
     * Please cite the following three references that made this development
     * possible:
     *
     *   M. Dion, H. Rydberg, E. Schroder, D. C. Langreth, and
     *   B. I. Lundqvist, Phys. Rev. Lett. 92, 246401 (2004).
     *
     *   T. Thonhauser, V. R. Cooper, S. Li, A. Puzder, P. Hyldgaard, and
     *   D. C. Langreth, Phys. Rev. B 76, 125112 (2007).
     *
     *   G. Roman-Perez and J. M. Soler, Phys. Rev. Lett. 103, 096102 (2009).
     *
     *
     * If you are using vdW-DF2, please also cite:
     *
     *   K. Lee, E. D. Murray, L. Kong, B. I. Lundqvist, and
     *   D. C. Langreth, Phys. Rev. B 82, 081101(R) (2010).
     *
     *
     * If you are calculating the stress with vdW-DF, please also cite:
     *
     *   R. Sabatini, E. Kucukbenli, B. Kolb, T. Thonhauser, and
     *   S. de Gironcoli, J. Phys.: Condens. Matter 24, 424209 (2012).
     *

     Carrying out vdW-DF run using the following parameters:

     Nqs =      20    Nr_points =    1024   r_max =   100.000
     q_mesh =
               0.00001000     0.04494208     0.09755937     0.15916263
               0.23128650     0.31572767     0.41458969     0.53033537
               0.66584808     0.82450364     1.01025438     1.22772762
               1.48234092     1.78043706     2.12944203     2.53805004
               3.01644009     3.57652955     4.23227104     5.00000000

     Gradients computed in reciprocal space

     Starting wfc are   52 randomized atomic wfcs +    6 random wfc

     Self-consistent Calculation

     iteration #  1     ecut=    58.80 Ry     beta=0.10
     Davidson diagonalization with overlap
     ethr =  1.00E-02,  avg # of iterations =  4.2

     total energy              =   -1688.49710114 Ry
     Harris-Foulkes estimate   =   -1688.87963116 Ry
     estimated scf accuracy    <       6.28983476 Ry

[...]

     total energy              =   -1687.92041482 Ry
     Harris-Foulkes estimate   =   -1687.92041436 Ry
     estimated scf accuracy    <       0.00000001 Ry

     iteration # 16     ecut=    58.80 Ry     beta=0.10
     Davidson diagonalization with overlap
     ethr =  1.70E-11,  avg # of iterations =  2.0

     End of self-consistent calculation

          k = 0.0000 0.0000 0.0000 (  2721 PWs)   bands (ev):

  -111.4109-111.4067-111.4067 -79.1182 -65.6262 -65.6262 -65.6262 -65.5622
   -65.5622 -65.5622 -65.5618 -65.5618 -65.5618 -42.4478 -42.4478 -42.4478
     4.8219   6.6180   6.9077   6.9077   6.9077   7.0548   7.0548   7.8091
     7.8091   7.8091   8.0544   8.0544   8.3257   8.3806   8.3806   8.3806
    13.6603  13.6603  14.5979  14.5979  14.5979  15.0383  15.0383  15.0383
    19.4633  19.4633  19.9116  25.1029  25.1029  25.1029  26.3281  26.3281
    26.3281  29.7569  29.7569  29.7569  31.2655  31.2655  33.1128  35.5410
    37.1091  37.1091

[...]

          k = 0.1112-0.1334-0.1334 (  2704 PWs)   bands (ev):

[...]

          k =-0.1334-0.1334-0.1334 (  2608 PWs)   bands (ev):

  -111.4081-111.4081-111.4081 -79.1181 -65.6456 -65.6122 -65.6122 -65.5746
   -65.5746 -65.5746 -65.5525 -65.5525 -65.5525 -42.4487 -42.4487 -42.4487
     6.8027   6.8027   6.8027   6.8464   7.4722   7.4722   7.4722   7.7743
     7.7743   7.7743   7.9619   7.9619   8.3123   8.3123   8.3123  12.1129
    12.6111  12.6111  12.6111  13.1403  13.1403  13.1403  14.7051  14.7051
    16.8531  16.8531  16.8531  17.5092  32.6524  32.6524  32.9290  32.9290
    32.9290  33.8713  34.0681  34.0681  34.0681  35.4879  35.4879  35.4879
    36.2724  36.2724

     the Fermi energy is    15.2594 ev

!    total energy              =   -1687.92041679 Ry
     Harris-Foulkes estimate   =   -1687.92041482 Ry
     estimated scf accuracy    <          1.7E-09 Ry

     The total energy is the sum of the following terms:

     one-electron contribution =   -1198.58357181 Ry
     hartree contribution      =     636.50275272 Ry
     xc contribution           =    -164.25904202 Ry
     ewald contribution        =    -961.57393848 Ry
     smearing contrib. (-TS)   =      -0.00661721 Ry

     convergence has been achieved in  16 iterations

     Forces acting on atoms (Ry/au):

     atom    1 type  1   force =     0.00000000    0.00000000    0.00000000
     atom    2 type  1   force =     0.00000000   -0.00000000    0.00000000
     atom    3 type  1   force =     0.00000000    0.00000000    0.00000000
     atom    4 type  2   force =     0.00000000    0.00000000    0.00000000

     Total force =     0.000000     Total SCF correction =     0.000000
 !ASE

     General routines

     Parallel routines

   This run was terminated on:  16: 5:35  31Oct2017

   JOB DONE.