     Program PWSCF v.5.1rc2 (svn rev. ) starts on 25Oct2017 at 10:41:24

     Current dimensions of program PWSCF are:
     Max number of different atomic species (ntypx) = 10
     Max number of k-points (npk) =  40000
     Max angular momentum in pseudopotentials (lmaxx) =  3

     IMPORTANT: XC functional enforced from input :
     Exchange-correlation      = BEEF-VDW ( 1  4 27 13 2)
     Any further DFT definition will be discarded
     Please, verify this is what you really want

     Subspace diagonalization in iterative solution of the eigenvalue problem:
     a serial algorithm will be used

     bravais-lattice index     =            0
     lattice parameter (alat)  =       1.8897  a.u.
     unit-cell volume          =     799.2381 (a.u.)^3
     number of atoms/cell      =            4
     number of atomic types    =            2
     number of electrons       =        62.00
     number of Kohn-Sham states=           51
     kinetic-energy cutoff     =      58.7989  Ry
     charge density cutoff     =     587.9892  Ry
     convergence threshold     =      7.3E-09
     mixing beta               =       0.1000
     number of iterations used =           10  local-TF  mixing
     Exchange-correlation      = BEEF-VDW ( 1  4 27 13 2)
     nstep                     =           50

     celldm(1)=   1.889726  celldm(2)=   0.000000  celldm(3)=   0.000000
     celldm(4)=   0.000000  celldm(5)=   0.000000  celldm(6)=   0.000000

     crystal axes: (cart. coord. in units of alat)
               a(1) = (   4.910886   0.000000   0.000000 )
               a(2) = (   0.000000   4.910886   0.000000 )
               a(3) = (   0.000000   0.000000   4.910886 )

     reciprocal axes: (cart. coord. in units 2 pi/alat)
               b(1) = (  0.203629  0.000000  0.000000 )
               b(2) = (  0.000000  0.203629  0.000000 )
               b(3) = (  0.000000  0.000000  0.203629 )

     PseudoPot. # 1 for Pb read from file:
     /home/vossj/suncat/psp/gbrv1.5pbe/Pb.UPF
     MD5 check sum: 3d1c1779aa92214d1e8f3a7db79003e2
     Pseudo is Ultrasoft + core correction, Zval = 14.0
     Generated by new atomic code, or converted to UPF format
     Using radial grid of  899 points,  6 beta functions with:
                l(1) =   0
                l(2) =   0
                l(3) =   1
                l(4) =   1
                l(5) =   2
                l(6) =   2
     Q(r) pseudized with  6 coefficients,  rinner =    1.000   1.000   1.000
                                                       1.000   1.000

     PseudoPot. # 2 for Zn read from file:
     /home/vossj/suncat/psp/gbrv1.5pbe/Zn.UPF
     MD5 check sum: df62231357ef9e81f77b2b3087fa5675
     Pseudo is Ultrasoft, Zval = 20.0
     Generated by new atomic code, or converted to UPF format
     Using radial grid of  943 points,  6 beta functions with:
                l(1) =   0
                l(2) =   0
                l(3) =   1
                l(4) =   1
                l(5) =   2
                l(6) =   2
     Q(r) pseudized with  8 coefficients,  rinner =    1.100   1.100   1.100
                                                       1.100   1.100

     vdW kernel table read from file vdW_kernel_table
     MD5 check sum: 095c7af220d748ca6e76c0b4c6cfb241

     atomic species   valence    mass     pseudopotential
        Pb1           14.00   207.20000     Pb( 1.00)
        Zn1           20.00    65.38000     Zn( 1.00)

     48 Sym. Ops., with inversion, found (32 have fractional translation)

   Cartesian axes

     site n.     atom                  positions (alat units)
         1           Pb1 tau(   1) = (   0.0000000   0.0000000   0.0000000  )
         2           Pb1 tau(   2) = (   0.0000000   2.4554431   2.4554431  )
         3           Pb1 tau(   3) = (   2.4554431   0.0000000   2.4554431  )
         4           Zn1 tau(   4) = (   2.4554431   2.4554431   0.0000000  )

     number of k points=    84  Fermi-Dirac smearing, width (Ry)=  0.0073
                       cart. coord. in units 2pi/alat
        k(    1) = (   0.0000000   0.0000000   0.0000000), wk =   0.0011574
        k(    2) = (   0.0000000   0.0000000   0.0169691), wk =   0.0069444
        k(    3) = (   0.0000000   0.0000000   0.0339382), wk =   0.0069444
        k(    4) = (   0.0000000   0.0000000   0.0509073), wk =   0.0069444
        k(    5) = (   0.0000000   0.0000000   0.0678764), wk =   0.0069444
        k(    6) = (   0.0000000   0.0000000   0.0848455), wk =   0.0069444
        k(    7) = (   0.0000000   0.0000000  -0.1018146), wk =   0.0034722
        k(    8) = (   0.0000000   0.0169691   0.0169691), wk =   0.0138889
        k(    9) = (   0.0000000   0.0169691   0.0339382), wk =   0.0277778
        k(   10) = (   0.0000000   0.0169691   0.0509073), wk =   0.0277778
        k(   11) = (   0.0000000   0.0169691   0.0678764), wk =   0.0277778
        k(   12) = (   0.0000000   0.0169691   0.0848455), wk =   0.0277778
        k(   13) = (   0.0000000   0.0169691  -0.1018146), wk =   0.0138889
        k(   14) = (   0.0000000   0.0339382   0.0339382), wk =   0.0138889
        k(   15) = (   0.0000000   0.0339382   0.0509073), wk =   0.0277778
        k(   16) = (   0.0000000   0.0339382   0.0678764), wk =   0.0277778
        k(   17) = (   0.0000000   0.0339382   0.0848455), wk =   0.0277778
        k(   18) = (   0.0000000   0.0339382  -0.1018146), wk =   0.0138889
        k(   19) = (   0.0000000   0.0509073   0.0509073), wk =   0.0138889
        k(   20) = (   0.0000000   0.0509073   0.0678764), wk =   0.0277778
        k(   21) = (   0.0000000   0.0509073   0.0848455), wk =   0.0277778
        k(   22) = (   0.0000000   0.0509073  -0.1018146), wk =   0.0138889
        k(   23) = (   0.0000000   0.0678764   0.0678764), wk =   0.0138889
        k(   24) = (   0.0000000   0.0678764   0.0848455), wk =   0.0277778
        k(   25) = (   0.0000000   0.0678764  -0.1018146), wk =   0.0138889
        k(   26) = (   0.0000000   0.0848455   0.0848455), wk =   0.0138889
        k(   27) = (   0.0000000   0.0848455  -0.1018146), wk =   0.0138889
        k(   28) = (   0.0000000  -0.1018146  -0.1018146), wk =   0.0034722
        k(   29) = (   0.0169691   0.0169691   0.0169691), wk =   0.0092593
        k(   30) = (   0.0169691   0.0169691   0.0339382), wk =   0.0277778
        k(   31) = (   0.0169691   0.0169691   0.0509073), wk =   0.0277778
        k(   32) = (   0.0169691   0.0169691   0.0678764), wk =   0.0277778
        k(   33) = (   0.0169691   0.0169691   0.0848455), wk =   0.0277778
        k(   34) = (   0.0169691   0.0169691  -0.1018146), wk =   0.0138889
        k(   35) = (   0.0169691   0.0339382   0.0339382), wk =   0.0277778
        k(   36) = (   0.0169691   0.0339382   0.0509073), wk =   0.0555556
        k(   37) = (   0.0169691   0.0339382   0.0678764), wk =   0.0555556
        k(   38) = (   0.0169691   0.0339382   0.0848455), wk =   0.0555556
        k(   39) = (   0.0169691   0.0339382  -0.1018146), wk =   0.0277778
        k(   40) = (   0.0169691   0.0509073   0.0509073), wk =   0.0277778
        k(   41) = (   0.0169691   0.0509073   0.0678764), wk =   0.0555556
        k(   42) = (   0.0169691   0.0509073   0.0848455), wk =   0.0555556
        k(   43) = (   0.0169691   0.0509073  -0.1018146), wk =   0.0277778
        k(   44) = (   0.0169691   0.0678764   0.0678764), wk =   0.0277778
        k(   45) = (   0.0169691   0.0678764   0.0848455), wk =   0.0555556
        k(   46) = (   0.0169691   0.0678764  -0.1018146), wk =   0.0277778
        k(   47) = (   0.0169691   0.0848455   0.0848455), wk =   0.0277778
        k(   48) = (   0.0169691   0.0848455  -0.1018146), wk =   0.0277778
        k(   49) = (   0.0169691  -0.1018146  -0.1018146), wk =   0.0069444
        k(   50) = (   0.0339382   0.0339382   0.0339382), wk =   0.0092593
        k(   51) = (   0.0339382   0.0339382   0.0509073), wk =   0.0277778
        k(   52) = (   0.0339382   0.0339382   0.0678764), wk =   0.0277778
        k(   53) = (   0.0339382   0.0339382   0.0848455), wk =   0.0277778
        k(   54) = (   0.0339382   0.0339382  -0.1018146), wk =   0.0138889
        k(   55) = (   0.0339382   0.0509073   0.0509073), wk =   0.0277778
        k(   56) = (   0.0339382   0.0509073   0.0678764), wk =   0.0555556
        k(   57) = (   0.0339382   0.0509073   0.0848455), wk =   0.0555556
        k(   58) = (   0.0339382   0.0509073  -0.1018146), wk =   0.0277778
        k(   59) = (   0.0339382   0.0678764   0.0678764), wk =   0.0277778
        k(   60) = (   0.0339382   0.0678764   0.0848455), wk =   0.0555556
[...]
        k(   70) = (   0.0509073   0.0678764   0.0848455), wk =   0.0555556
        k(   71) = (   0.0509073   0.0678764  -0.1018146), wk =   0.0277778
        k(   72) = (   0.0509073   0.0848455   0.0848455), wk =   0.0277778
        k(   73) = (   0.0509073   0.0848455  -0.1018146), wk =   0.0277778
        k(   74) = (   0.0509073  -0.1018146  -0.1018146), wk =   0.0069444
        k(   75) = (   0.0678764   0.0678764   0.0678764), wk =   0.0092593
        k(   76) = (   0.0678764   0.0678764   0.0848455), wk =   0.0277778
        k(   77) = (   0.0678764   0.0678764  -0.1018146), wk =   0.0138889
        k(   78) = (   0.0678764   0.0848455   0.0848455), wk =   0.0277778
        k(   79) = (   0.0678764   0.0848455  -0.1018146), wk =   0.0277778
        k(   80) = (   0.0678764  -0.1018146  -0.1018146), wk =   0.0069444
        k(   81) = (   0.0848455   0.0848455   0.0848455), wk =   0.0092593
        k(   82) = (   0.0848455   0.0848455  -0.1018146), wk =   0.0138889
        k(   83) = (   0.0848455  -0.1018146  -0.1018146), wk =   0.0069444
        k(   84) = (  -0.1018146  -0.1018146  -0.1018146), wk =   0.0011574

     Largest allocated arrays     est. size (Mb)     dimensions
     Largest temporary arrays     est. size (Mb)     dimensions

     Check: negative/imaginary core charge=   -0.000001    0.000000

     Initial potential from superposition of free atoms
     Check: negative starting charge=   -0.045754

     starting charge   61.99280, renormalised to   62.00000

     negative rho (up, down):  4.576E-02 0.000E+00

     *
     * You are using vdW-DF for exchange-correlation in this calculation.
     * Please cite the following three references that made this development
     * possible:
     *
     *   M. Dion, H. Rydberg, E. Schroder, D. C. Langreth, and
     *   B. I. Lundqvist, Phys. Rev. Lett. 92, 246401 (2004).
     *
     *   T. Thonhauser, V. R. Cooper, S. Li, A. Puzder, P. Hyldgaard, and
     *   D. C. Langreth, Phys. Rev. B 76, 125112 (2007).
     *
     *   G. Roman-Perez and J. M. Soler, Phys. Rev. Lett. 103, 096102 (2009).
     *
     *
     * If you are using vdW-DF2, please also cite:
     *
     *   K. Lee, E. D. Murray, L. Kong, B. I. Lundqvist, and
     *   D. C. Langreth, Phys. Rev. B 82, 081101(R) (2010).
     *
     *
     * If you are calculating the stress with vdW-DF, please also cite:
     *
     *   R. Sabatini, E. Kucukbenli, B. Kolb, T. Thonhauser, and
     *   S. de Gironcoli, J. Phys.: Condens. Matter 24, 424209 (2012).
     *

     Carrying out vdW-DF run using the following parameters:

     Nqs =      20    Nr_points =    1024   r_max =   100.000
     q_mesh =
               0.00001000     0.04494208     0.09755937     0.15916263
               0.23128650     0.31572767     0.41458969     0.53033537
               0.66584808     0.82450364     1.01025438     1.22772762
               1.48234092     1.78043706     2.12944203     2.53805004
               3.01644009     3.57652955     4.23227104     5.00000000

     Gradients computed in reciprocal space

     Starting wfc are   40 randomized atomic wfcs +   11 random wfc

     Self-consistent Calculation

     iteration #  1     ecut=    58.80 Ry     beta=0.10
     Davidson diagonalization with overlap
     ethr =  1.00E-02,  avg # of iterations =  5.4

     Threshold (ethr) on eigenvalues was too large:
     Diagonalizing with lowered threshold

     Davidson diagonalization with overlap
     c_bands:  1 eigenvalues not converged
     ethr =  3.04E-05,  avg # of iterations = 13.1

[...]

     total energy              =    -960.82052593 Ry
     Harris-Foulkes estimate   =    -960.81693762 Ry
     estimated scf accuracy    <       0.01852749 Ry

[...]

     total energy              =    -960.83423611 Ry
     Harris-Foulkes estimate   =    -960.83417183 Ry
     estimated scf accuracy    <       0.00000011 Ry

     iteration # 21     ecut=    58.80 Ry     beta=0.10
     Davidson diagonalization with overlap
     ethr =  6.39E-11,  avg # of iterations =  2.0

     negative rho (up, down):  5.061E-02 0.000E+00

     End of self-consistent calculation

          k = 0.0000 0.0000 0.0000 (  6043 PWs)   bands (ev):

  -116.3274 -70.5108 -70.5108 -70.5108  -7.6743  -7.6743  -7.6743  -7.6400
    -7.5507  -7.5507  -7.4384  -7.4384  -7.4384  -7.3724  -7.3724  -7.3141
    -7.2659  -7.2659  -7.2659  -1.2068   2.6222   2.6222   2.7970   2.7970
     2.7970   3.4585   3.4585   7.3064   7.3064   7.3064   7.9329  12.3856
    12.3856  12.3856  13.2459  13.2459  13.2459  16.0165  16.0165  16.0943
    17.1473  17.1473  17.1473  18.3368  18.3368  18.3368  20.2177  20.2913
    20.2913  20.7582  22.7509

[...]

          k = 0.0848-0.1018-0.1018 (  6056 PWs)   bands (ev):

[...]

          k =-0.1018-0.1018-0.1018 (  6008 PWs)   bands (ev):

  -116.3274 -70.5108 -70.5108 -70.5108  -7.5846  -7.5846  -7.5846  -7.5664
    -7.5664  -7.5664  -7.5664  -7.4058  -7.4058  -7.4031  -7.4031  -7.4031
    -7.3015  -7.3015  -7.3015   1.6729   1.6729   1.6729   2.8097   2.8097
     2.9606   2.9606   2.9606   5.7516   6.6237   6.6237   6.6237   7.0508
    15.6660  15.6660  16.0042  16.0042  16.0042  17.2846  17.2846  17.2846
    19.7531  19.7531  19.7531  19.8076  20.2817  20.2817  20.2817  20.5128
    20.5128  20.5128  21.3883

     the Fermi energy is     9.8612 ev

!    total energy              =    -960.83451504 Ry
     Harris-Foulkes estimate   =    -960.83423614 Ry
     estimated scf accuracy    <          6.5E-09 Ry

     The total energy is the sum of the following terms:

     one-electron contribution =    -552.94386252 Ry
     hartree contribution      =     312.75345167 Ry
     xc contribution           =    -239.30068283 Ry
     ewald contribution        =    -481.33844286 Ry
     smearing contrib. (-TS)   =      -0.00497850 Ry

     convergence has been achieved in  21 iterations

     Forces acting on atoms (Ry/au):

     negative rho (up, down):  5.061E-02 0.000E+00
     atom    1 type  1   force =     0.00000000    0.00000000    0.00000000
     atom    2 type  1   force =     0.00000000    0.00000000    0.00000000
     atom    3 type  1   force =     0.00000000    0.00000000    0.00000000
     atom    4 type  2   force =     0.00000000   -0.00000000    0.00000000

     Total force =     0.000000     Total SCF correction =     0.000000
 !ASE

     General routines

     Parallel routines

   This run was terminated on:  10:44: 3  25Oct2017

   JOB DONE.