     Program PWSCF v.5.1rc2 (svn rev. ) starts on 25Oct2017 at 22:22:45

     Current dimensions of program PWSCF are:
     Max number of different atomic species (ntypx) = 10
     Max number of k-points (npk) =  40000
     Max angular momentum in pseudopotentials (lmaxx) =  3

     IMPORTANT: XC functional enforced from input :
     Exchange-correlation      = BEEF-VDW ( 1  4 27 13 2)
     Any further DFT definition will be discarded
     Please, verify this is what you really want

     Subspace diagonalization in iterative solution of the eigenvalue problem:
     a serial algorithm will be used

     bravais-lattice index     =            0
     lattice parameter (alat)  =       1.8897  a.u.
     unit-cell volume          =     471.3328 (a.u.)^3
     number of atoms/cell      =            4
     number of atomic types    =            2
     number of electrons       =        55.00
     number of Kohn-Sham states=           47
     kinetic-energy cutoff     =      58.7989  Ry
     charge density cutoff     =     587.9892  Ry
     convergence threshold     =      7.3E-09
     mixing beta               =       0.1000
     number of iterations used =           10  local-TF  mixing
     Exchange-correlation      = BEEF-VDW ( 1  4 27 13 2)
     nstep                     =           50

     celldm(1)=   1.889726  celldm(2)=   0.000000  celldm(3)=   0.000000
     celldm(4)=   0.000000  celldm(5)=   0.000000  celldm(6)=   0.000000

     crystal axes: (cart. coord. in units of alat)
               a(1) = (   4.118228   0.000000   0.000000 )
               a(2) = (   0.000000   4.118228   0.000000 )
               a(3) = (   0.000000   0.000000   4.118228 )

     reciprocal axes: (cart. coord. in units 2 pi/alat)
               b(1) = (  0.242823  0.000000  0.000000 )
               b(2) = (  0.000000  0.242823  0.000000 )
               b(3) = (  0.000000  0.000000  0.242823 )

     PseudoPot. # 1 for Ta read from file:
     /home/vossj/suncat/psp/gbrv1.5pbe/Ta.UPF
     MD5 check sum: f8bbe9446314a3b8ea5d9f3e3836c939
     Pseudo is Ultrasoft + core correction, Zval = 13.0
     Generated by new atomic code, or converted to UPF format
     Using radial grid of  921 points,  7 beta functions with:
                l(1) =   0
                l(2) =   0
                l(3) =   1
                l(4) =   1
                l(5) =   2
                l(6) =   2
                l(7) =   3
     Q(r) pseudized with  6 coefficients,  rinner =    1.300   1.300   1.300
                                                       1.300   1.300   1.300
                                                       1.300

     PseudoPot. # 2 for Ru read from file:
     /home/vossj/suncat/psp/gbrv1.5pbe/Ru.UPF
     MD5 check sum: 7158a806dd851261a58e6920c40ebe78
     Pseudo is Ultrasoft + core correction, Zval = 16.0
     Generated by new atomic code, or converted to UPF format
     Using radial grid of  967 points,  6 beta functions with:
                l(1) =   0
                l(2) =   0
                l(3) =   1
                l(4) =   1
                l(5) =   2
                l(6) =   2
     Q(r) pseudized with  8 coefficients,  rinner =    1.300   1.300   1.300
                                                       1.300   1.300

     vdW kernel table read from file vdW_kernel_table
     MD5 check sum: 095c7af220d748ca6e76c0b4c6cfb241

     atomic species   valence    mass     pseudopotential
        Ta1           13.00   180.94788     Ta( 1.00)
        Ru1           16.00   101.07000     Ru( 1.00)

     48 Sym. Ops., with inversion, found (32 have fractional translation)

   Cartesian axes

     site n.     atom                  positions (alat units)
         1           Ta1 tau(   1) = (   0.0000000   0.0000000   0.0000000  )
         2           Ta1 tau(   2) = (   0.0000000   2.0591139   2.0591139  )
         3           Ta1 tau(   3) = (   2.0591139   0.0000000   2.0591139  )
         4           Ru1 tau(   4) = (   2.0591139   2.0591139   0.0000000  )

     number of k points=    84  Fermi-Dirac smearing, width (Ry)=  0.0073
                       cart. coord. in units 2pi/alat
        k(    1) = (   0.0000000   0.0000000   0.0000000), wk =   0.0011574
        k(    2) = (   0.0000000   0.0000000   0.0202352), wk =   0.0069444
        k(    3) = (   0.0000000   0.0000000   0.0404705), wk =   0.0069444
        k(    4) = (   0.0000000   0.0000000   0.0607057), wk =   0.0069444
        k(    5) = (   0.0000000   0.0000000   0.0809410), wk =   0.0069444
        k(    6) = (   0.0000000   0.0000000   0.1011762), wk =   0.0069444
        k(    7) = (   0.0000000   0.0000000  -0.1214115), wk =   0.0034722
        k(    8) = (   0.0000000   0.0202352   0.0202352), wk =   0.0138889
        k(    9) = (   0.0000000   0.0202352   0.0404705), wk =   0.0277778
        k(   10) = (   0.0000000   0.0202352   0.0607057), wk =   0.0277778
        k(   11) = (   0.0000000   0.0202352   0.0809410), wk =   0.0277778
        k(   12) = (   0.0000000   0.0202352   0.1011762), wk =   0.0277778
        k(   13) = (   0.0000000   0.0202352  -0.1214115), wk =   0.0138889
        k(   14) = (   0.0000000   0.0404705   0.0404705), wk =   0.0138889
        k(   15) = (   0.0000000   0.0404705   0.0607057), wk =   0.0277778
        k(   16) = (   0.0000000   0.0404705   0.0809410), wk =   0.0277778
        k(   17) = (   0.0000000   0.0404705   0.1011762), wk =   0.0277778
        k(   18) = (   0.0000000   0.0404705  -0.1214115), wk =   0.0138889
        k(   19) = (   0.0000000   0.0607057   0.0607057), wk =   0.0138889
        k(   20) = (   0.0000000   0.0607057   0.0809410), wk =   0.0277778
        k(   21) = (   0.0000000   0.0607057   0.1011762), wk =   0.0277778
        k(   22) = (   0.0000000   0.0607057  -0.1214115), wk =   0.0138889
        k(   23) = (   0.0000000   0.0809410   0.0809410), wk =   0.0138889
        k(   24) = (   0.0000000   0.0809410   0.1011762), wk =   0.0277778
        k(   25) = (   0.0000000   0.0809410  -0.1214115), wk =   0.0138889
        k(   26) = (   0.0000000   0.1011762   0.1011762), wk =   0.0138889
        k(   27) = (   0.0000000   0.1011762  -0.1214115), wk =   0.0138889
        k(   28) = (   0.0000000  -0.1214115  -0.1214115), wk =   0.0034722
        k(   29) = (   0.0202352   0.0202352   0.0202352), wk =   0.0092593
        k(   30) = (   0.0202352   0.0202352   0.0404705), wk =   0.0277778
        k(   31) = (   0.0202352   0.0202352   0.0607057), wk =   0.0277778
        k(   32) = (   0.0202352   0.0202352   0.0809410), wk =   0.0277778
        k(   33) = (   0.0202352   0.0202352   0.1011762), wk =   0.0277778
        k(   34) = (   0.0202352   0.0202352  -0.1214115), wk =   0.0138889
        k(   35) = (   0.0202352   0.0404705   0.0404705), wk =   0.0277778
        k(   36) = (   0.0202352   0.0404705   0.0607057), wk =   0.0555556
        k(   37) = (   0.0202352   0.0404705   0.0809410), wk =   0.0555556
        k(   38) = (   0.0202352   0.0404705   0.1011762), wk =   0.0555556
        k(   39) = (   0.0202352   0.0404705  -0.1214115), wk =   0.0277778
        k(   40) = (   0.0202352   0.0607057   0.0607057), wk =   0.0277778
        k(   41) = (   0.0202352   0.0607057   0.0809410), wk =   0.0555556
        k(   42) = (   0.0202352   0.0607057   0.1011762), wk =   0.0555556
        k(   43) = (   0.0202352   0.0607057  -0.1214115), wk =   0.0277778
        k(   44) = (   0.0202352   0.0809410   0.0809410), wk =   0.0277778
        k(   45) = (   0.0202352   0.0809410   0.1011762), wk =   0.0555556
        k(   46) = (   0.0202352   0.0809410  -0.1214115), wk =   0.0277778
        k(   47) = (   0.0202352   0.1011762   0.1011762), wk =   0.0277778
        k(   48) = (   0.0202352   0.1011762  -0.1214115), wk =   0.0277778
        k(   49) = (   0.0202352  -0.1214115  -0.1214115), wk =   0.0069444
        k(   50) = (   0.0404705   0.0404705   0.0404705), wk =   0.0092593
        k(   51) = (   0.0404705   0.0404705   0.0607057), wk =   0.0277778
        k(   52) = (   0.0404705   0.0404705   0.0809410), wk =   0.0277778
        k(   53) = (   0.0404705   0.0404705   0.1011762), wk =   0.0277778
        k(   54) = (   0.0404705   0.0404705  -0.1214115), wk =   0.0138889
        k(   55) = (   0.0404705   0.0607057   0.0607057), wk =   0.0277778
        k(   56) = (   0.0404705   0.0607057   0.0809410), wk =   0.0555556
        k(   57) = (   0.0404705   0.0607057   0.1011762), wk =   0.0555556
        k(   58) = (   0.0404705   0.0607057  -0.1214115), wk =   0.0277778
        k(   59) = (   0.0404705   0.0809410   0.0809410), wk =   0.0277778
        k(   60) = (   0.0404705   0.0809410   0.1011762), wk =   0.0555556
[...]
        k(   70) = (   0.0607057   0.0809410   0.1011762), wk =   0.0555556
        k(   71) = (   0.0607057   0.0809410  -0.1214115), wk =   0.0277778
        k(   72) = (   0.0607057   0.1011762   0.1011762), wk =   0.0277778
        k(   73) = (   0.0607057   0.1011762  -0.1214115), wk =   0.0277778
        k(   74) = (   0.0607057  -0.1214115  -0.1214115), wk =   0.0069444
        k(   75) = (   0.0809410   0.0809410   0.0809410), wk =   0.0092593
        k(   76) = (   0.0809410   0.0809410   0.1011762), wk =   0.0277778
        k(   77) = (   0.0809410   0.0809410  -0.1214115), wk =   0.0138889
        k(   78) = (   0.0809410   0.1011762   0.1011762), wk =   0.0277778
        k(   79) = (   0.0809410   0.1011762  -0.1214115), wk =   0.0277778
        k(   80) = (   0.0809410  -0.1214115  -0.1214115), wk =   0.0069444
        k(   81) = (   0.1011762   0.1011762   0.1011762), wk =   0.0092593
        k(   82) = (   0.1011762   0.1011762  -0.1214115), wk =   0.0138889
        k(   83) = (   0.1011762  -0.1214115  -0.1214115), wk =   0.0069444
        k(   84) = (  -0.1214115  -0.1214115  -0.1214115), wk =   0.0011574

     Largest allocated arrays     est. size (Mb)     dimensions
     Largest temporary arrays     est. size (Mb)     dimensions

     Initial potential from superposition of free atoms
     Check: negative starting charge=   -0.357368

     starting charge   53.99665, renormalised to   55.00000

     negative rho (up, down):  3.640E-01 0.000E+00

     *
     * You are using vdW-DF for exchange-correlation in this calculation.
     * Please cite the following three references that made this development
     * possible:
     *
     *   M. Dion, H. Rydberg, E. Schroder, D. C. Langreth, and
     *   B. I. Lundqvist, Phys. Rev. Lett. 92, 246401 (2004).
     *
     *   T. Thonhauser, V. R. Cooper, S. Li, A. Puzder, P. Hyldgaard, and
     *   D. C. Langreth, Phys. Rev. B 76, 125112 (2007).
     *
     *   G. Roman-Perez and J. M. Soler, Phys. Rev. Lett. 103, 096102 (2009).
     *
     *
     * If you are using vdW-DF2, please also cite:
     *
     *   K. Lee, E. D. Murray, L. Kong, B. I. Lundqvist, and
     *   D. C. Langreth, Phys. Rev. B 82, 081101(R) (2010).
     *
     *
     * If you are calculating the stress with vdW-DF, please also cite:
     *
     *   R. Sabatini, E. Kucukbenli, B. Kolb, T. Thonhauser, and
     *   S. de Gironcoli, J. Phys.: Condens. Matter 24, 424209 (2012).
     *

     Carrying out vdW-DF run using the following parameters:

     Nqs =      20    Nr_points =    1024   r_max =   100.000
     q_mesh =
               0.00001000     0.04494208     0.09755937     0.15916263
               0.23128650     0.31572767     0.41458969     0.53033537
               0.66584808     0.82450364     1.01025438     1.22772762
               1.48234092     1.78043706     2.12944203     2.53805004
               3.01644009     3.57652955     4.23227104     5.00000000

     Gradients computed in reciprocal space

     Starting wfc are   52 randomized atomic wfcs

     Self-consistent Calculation

     iteration #  1     ecut=    58.80 Ry     beta=0.10
     Davidson diagonalization with overlap
     ethr =  1.00E-02,  avg # of iterations =  4.4

[...]

     total energy              =    -625.06442970 Ry
     Harris-Foulkes estimate   =    -625.09188200 Ry
     estimated scf accuracy    <       0.56724730 Ry

[...]

     total energy              =    -624.92805780 Ry
     Harris-Foulkes estimate   =    -624.92805814 Ry
     estimated scf accuracy    <       0.00000365 Ry

     iteration # 12     ecut=    58.80 Ry     beta=0.10
     Davidson diagonalization with overlap
     ethr =  2.05E-10,  avg # of iterations =  2.0

     negative rho (up, down):  3.810E-01 0.000E+00

     End of self-consistent calculation

          k = 0.0000 0.0000 0.0000 (  3695 PWs)   bands (ev):

   -53.6131 -49.2444 -49.1293 -49.1293 -23.5677 -23.5677 -23.5677 -15.9599
   -15.9599 -15.9599 -15.4678 -15.4678 -15.4678 -15.1438 -15.1438 -15.1438
    10.8956  14.1346  14.1346  14.2204  14.9969  14.9969  14.9969  18.4274
    18.4274  18.4274  20.5228  20.5228  22.0006  22.0006  22.0006  23.2577
    23.2577  23.2577  23.8262  23.8262  25.0010  25.7436  25.7436  25.7436
    29.9957  29.9957  29.9957  30.9788  30.9788  30.9788  31.6025

[...]

          k = 0.1012-0.1214-0.1214 (  3576 PWs)   bands (ev):

[...]

          k =-0.1214-0.1214-0.1214 (  3544 PWs)   bands (ev):

   -53.6123 -49.1673 -49.1673 -49.1673 -23.5739 -23.5739 -23.5739 -16.2332
   -15.8904 -15.8904 -15.8904 -15.1912 -15.1912 -15.1912 -15.1604 -15.1604
    13.9876  13.9876  13.9876  14.4682  17.3808  17.3808  18.1293  18.1293
    18.1293  19.0647  19.0647  19.0647  19.6573  19.6573  19.6573  19.7965
    22.7998  22.7998  22.7998  23.4791  23.4791  25.0033  25.0033  25.0033
    29.0579  29.0579  29.0579  29.7625  31.2568  31.3889  31.3889

     the Fermi energy is    18.8627 ev

!    total energy              =    -624.92805927 Ry
     Harris-Foulkes estimate   =    -624.92805811 Ry
     estimated scf accuracy    <          4.0E-09 Ry

     The total energy is the sum of the following terms:

     one-electron contribution =     -98.66042347 Ry
     hartree contribution      =      79.12693762 Ry
     xc contribution           =    -157.89014914 Ry
     ewald contribution        =    -447.49130993 Ry
     smearing contrib. (-TS)   =      -0.01311436 Ry

     convergence has been achieved in  12 iterations

     Forces acting on atoms (Ry/au):

     negative rho (up, down):  3.810E-01 0.000E+00
     atom    1 type  1   force =     0.00000000    0.00000000    0.00000000
     atom    2 type  1   force =     0.00000000    0.00000000    0.00000000
     atom    3 type  1   force =     0.00000000    0.00000000    0.00000000
     atom    4 type  2   force =     0.00000000    0.00000000    0.00000000

     Total force =     0.000000     Total SCF correction =     0.000000
 !ASE

     General routines

     Parallel routines

   This run was terminated on:  22:23:36  25Oct2017

   JOB DONE.