     Program PWSCF v.5.1rc2 (svn rev. ) starts on 24Oct2017 at 20:11:50

     Current dimensions of program PWSCF are:
     Max number of different atomic species (ntypx) = 10
     Max number of k-points (npk) =  40000
     Max angular momentum in pseudopotentials (lmaxx) =  3

     IMPORTANT: XC functional enforced from input :
     Exchange-correlation      = BEEF-VDW ( 1  4 27 13 2)
     Any further DFT definition will be discarded
     Please, verify this is what you really want

     Subspace diagonalization in iterative solution of the eigenvalue problem:
     a serial algorithm will be used

     bravais-lattice index     =            0
     lattice parameter (alat)  =       1.8897  a.u.
     unit-cell volume          =     527.0459 (a.u.)^3
     number of atoms/cell      =            4
     number of atomic types    =            2
     number of electrons       =        69.00
     number of Kohn-Sham states=           54
     kinetic-energy cutoff     =      58.7989  Ry
     charge density cutoff     =     587.9892  Ry
     convergence threshold     =      7.3E-09
     mixing beta               =       0.1000
     number of iterations used =           10  local-TF  mixing
     Exchange-correlation      = BEEF-VDW ( 1  4 27 13 2)
     nstep                     =           50

     celldm(1)=   1.889726  celldm(2)=   0.000000  celldm(3)=   0.000000
     celldm(4)=   0.000000  celldm(5)=   0.000000  celldm(6)=   0.000000

     crystal axes: (cart. coord. in units of alat)
               a(1) = (   4.274486   0.000000   0.000000 )
               a(2) = (   0.000000   4.274486   0.000000 )
               a(3) = (   0.000000   0.000000   4.274486 )

     reciprocal axes: (cart. coord. in units 2 pi/alat)
               b(1) = (  0.233946  0.000000  0.000000 )
               b(2) = (  0.000000  0.233946  0.000000 )
               b(3) = (  0.000000  0.000000  0.233946 )

     PseudoPot. # 1 for Ag read from file:
     /home/vossj/suncat/psp/gbrv1.5pbe/Ag.UPF
     MD5 check sum: d66d668201baa78d5eb5b04ef7011058
     Pseudo is Ultrasoft + core correction, Zval = 19.0
     Generated by new atomic code, or converted to UPF format
     Using radial grid of  887 points,  6 beta functions with:
                l(1) =   0
                l(2) =   0
                l(3) =   1
                l(4) =   1
                l(5) =   2
                l(6) =   2
     Q(r) pseudized with  6 coefficients,  rinner =    1.300   1.300   1.300
                                                       1.300   1.300

     PseudoPot. # 2 for Hg read from file:
     /home/vossj/suncat/psp/gbrv1.5pbe/Hg.UPF
     MD5 check sum: 8f42caffe07f7fd9c0a564347f8c5498
     Pseudo is Ultrasoft + core correction, Zval = 12.0
     Generated by new atomic code, or converted to UPF format
     Using radial grid of  985 points,  6 beta functions with:
                l(1) =   0
                l(2) =   0
                l(3) =   1
                l(4) =   1
                l(5) =   2
                l(6) =   2
     Q(r) pseudized with  8 coefficients,  rinner =    2.000   2.000   2.000
                                                       2.000   2.000

     vdW kernel table read from file vdW_kernel_table
     MD5 check sum: 095c7af220d748ca6e76c0b4c6cfb241

     atomic species   valence    mass     pseudopotential
        Ag1           19.00   107.86820     Ag( 1.00)
        Hg1           12.00   200.59200     Hg( 1.00)

     48 Sym. Ops., with inversion, found (32 have fractional translation)

   Cartesian axes

     site n.     atom                  positions (alat units)
         1           Ag1 tau(   1) = (   0.0000000   0.0000000   0.0000000  )
         2           Ag1 tau(   2) = (   0.0000000   2.1372432   2.1372432  )
         3           Ag1 tau(   3) = (   2.1372432   0.0000000   2.1372432  )
         4           Hg1 tau(   4) = (   2.1372432   2.1372432   0.0000000  )

     number of k points=    84  Fermi-Dirac smearing, width (Ry)=  0.0073
                       cart. coord. in units 2pi/alat
        k(    1) = (   0.0000000   0.0000000   0.0000000), wk =   0.0011574
        k(    2) = (   0.0000000   0.0000000   0.0194955), wk =   0.0069444
        k(    3) = (   0.0000000   0.0000000   0.0389910), wk =   0.0069444
        k(    4) = (   0.0000000   0.0000000   0.0584866), wk =   0.0069444
        k(    5) = (   0.0000000   0.0000000   0.0779821), wk =   0.0069444
        k(    6) = (   0.0000000   0.0000000   0.0974776), wk =   0.0069444
        k(    7) = (   0.0000000   0.0000000  -0.1169731), wk =   0.0034722
        k(    8) = (   0.0000000   0.0194955   0.0194955), wk =   0.0138889
        k(    9) = (   0.0000000   0.0194955   0.0389910), wk =   0.0277778
        k(   10) = (   0.0000000   0.0194955   0.0584866), wk =   0.0277778
        k(   11) = (   0.0000000   0.0194955   0.0779821), wk =   0.0277778
        k(   12) = (   0.0000000   0.0194955   0.0974776), wk =   0.0277778
        k(   13) = (   0.0000000   0.0194955  -0.1169731), wk =   0.0138889
        k(   14) = (   0.0000000   0.0389910   0.0389910), wk =   0.0138889
        k(   15) = (   0.0000000   0.0389910   0.0584866), wk =   0.0277778
        k(   16) = (   0.0000000   0.0389910   0.0779821), wk =   0.0277778
        k(   17) = (   0.0000000   0.0389910   0.0974776), wk =   0.0277778
        k(   18) = (   0.0000000   0.0389910  -0.1169731), wk =   0.0138889
        k(   19) = (   0.0000000   0.0584866   0.0584866), wk =   0.0138889
        k(   20) = (   0.0000000   0.0584866   0.0779821), wk =   0.0277778
        k(   21) = (   0.0000000   0.0584866   0.0974776), wk =   0.0277778
        k(   22) = (   0.0000000   0.0584866  -0.1169731), wk =   0.0138889
        k(   23) = (   0.0000000   0.0779821   0.0779821), wk =   0.0138889
        k(   24) = (   0.0000000   0.0779821   0.0974776), wk =   0.0277778
        k(   25) = (   0.0000000   0.0779821  -0.1169731), wk =   0.0138889
        k(   26) = (   0.0000000   0.0974776   0.0974776), wk =   0.0138889
        k(   27) = (   0.0000000   0.0974776  -0.1169731), wk =   0.0138889
        k(   28) = (   0.0000000  -0.1169731  -0.1169731), wk =   0.0034722
        k(   29) = (   0.0194955   0.0194955   0.0194955), wk =   0.0092593
        k(   30) = (   0.0194955   0.0194955   0.0389910), wk =   0.0277778
        k(   31) = (   0.0194955   0.0194955   0.0584866), wk =   0.0277778
        k(   32) = (   0.0194955   0.0194955   0.0779821), wk =   0.0277778
        k(   33) = (   0.0194955   0.0194955   0.0974776), wk =   0.0277778
        k(   34) = (   0.0194955   0.0194955  -0.1169731), wk =   0.0138889
        k(   35) = (   0.0194955   0.0389910   0.0389910), wk =   0.0277778
        k(   36) = (   0.0194955   0.0389910   0.0584866), wk =   0.0555556
        k(   37) = (   0.0194955   0.0389910   0.0779821), wk =   0.0555556
        k(   38) = (   0.0194955   0.0389910   0.0974776), wk =   0.0555556
        k(   39) = (   0.0194955   0.0389910  -0.1169731), wk =   0.0277778
        k(   40) = (   0.0194955   0.0584866   0.0584866), wk =   0.0277778
        k(   41) = (   0.0194955   0.0584866   0.0779821), wk =   0.0555556
        k(   42) = (   0.0194955   0.0584866   0.0974776), wk =   0.0555556
        k(   43) = (   0.0194955   0.0584866  -0.1169731), wk =   0.0277778
        k(   44) = (   0.0194955   0.0779821   0.0779821), wk =   0.0277778
        k(   45) = (   0.0194955   0.0779821   0.0974776), wk =   0.0555556
        k(   46) = (   0.0194955   0.0779821  -0.1169731), wk =   0.0277778
        k(   47) = (   0.0194955   0.0974776   0.0974776), wk =   0.0277778
        k(   48) = (   0.0194955   0.0974776  -0.1169731), wk =   0.0277778
        k(   49) = (   0.0194955  -0.1169731  -0.1169731), wk =   0.0069444
        k(   50) = (   0.0389910   0.0389910   0.0389910), wk =   0.0092593
        k(   51) = (   0.0389910   0.0389910   0.0584866), wk =   0.0277778
        k(   52) = (   0.0389910   0.0389910   0.0779821), wk =   0.0277778
        k(   53) = (   0.0389910   0.0389910   0.0974776), wk =   0.0277778
        k(   54) = (   0.0389910   0.0389910  -0.1169731), wk =   0.0138889
        k(   55) = (   0.0389910   0.0584866   0.0584866), wk =   0.0277778
        k(   56) = (   0.0389910   0.0584866   0.0779821), wk =   0.0555556
        k(   57) = (   0.0389910   0.0584866   0.0974776), wk =   0.0555556
        k(   58) = (   0.0389910   0.0584866  -0.1169731), wk =   0.0277778
        k(   59) = (   0.0389910   0.0779821   0.0779821), wk =   0.0277778
        k(   60) = (   0.0389910   0.0779821   0.0974776), wk =   0.0555556
[...]
        k(   70) = (   0.0584866   0.0779821   0.0974776), wk =   0.0555556
        k(   71) = (   0.0584866   0.0779821  -0.1169731), wk =   0.0277778
        k(   72) = (   0.0584866   0.0974776   0.0974776), wk =   0.0277778
        k(   73) = (   0.0584866   0.0974776  -0.1169731), wk =   0.0277778
        k(   74) = (   0.0584866  -0.1169731  -0.1169731), wk =   0.0069444
        k(   75) = (   0.0779821   0.0779821   0.0779821), wk =   0.0092593
        k(   76) = (   0.0779821   0.0779821   0.0974776), wk =   0.0277778
        k(   77) = (   0.0779821   0.0779821  -0.1169731), wk =   0.0138889
        k(   78) = (   0.0779821   0.0974776   0.0974776), wk =   0.0277778
        k(   79) = (   0.0779821   0.0974776  -0.1169731), wk =   0.0277778
        k(   80) = (   0.0779821  -0.1169731  -0.1169731), wk =   0.0069444
        k(   81) = (   0.0974776   0.0974776   0.0974776), wk =   0.0092593
        k(   82) = (   0.0974776   0.0974776  -0.1169731), wk =   0.0138889
        k(   83) = (   0.0974776  -0.1169731  -0.1169731), wk =   0.0069444
        k(   84) = (  -0.1169731  -0.1169731  -0.1169731), wk =   0.0011574

     Largest allocated arrays     est. size (Mb)     dimensions
     Largest temporary arrays     est. size (Mb)     dimensions

     Initial potential from superposition of free atoms

     starting charge   67.49980, renormalised to   69.00000

     *
     * You are using vdW-DF for exchange-correlation in this calculation.
     * Please cite the following three references that made this development
     * possible:
     *
     *   M. Dion, H. Rydberg, E. Schroder, D. C. Langreth, and
     *   B. I. Lundqvist, Phys. Rev. Lett. 92, 246401 (2004).
     *
     *   T. Thonhauser, V. R. Cooper, S. Li, A. Puzder, P. Hyldgaard, and
     *   D. C. Langreth, Phys. Rev. B 76, 125112 (2007).
     *
     *   G. Roman-Perez and J. M. Soler, Phys. Rev. Lett. 103, 096102 (2009).
     *
     *
     * If you are using vdW-DF2, please also cite:
     *
     *   K. Lee, E. D. Murray, L. Kong, B. I. Lundqvist, and
     *   D. C. Langreth, Phys. Rev. B 82, 081101(R) (2010).
     *
     *
     * If you are calculating the stress with vdW-DF, please also cite:
     *
     *   R. Sabatini, E. Kucukbenli, B. Kolb, T. Thonhauser, and
     *   S. de Gironcoli, J. Phys.: Condens. Matter 24, 424209 (2012).
     *

     Carrying out vdW-DF run using the following parameters:

     Nqs =      20    Nr_points =    1024   r_max =   100.000
     q_mesh =
               0.00001000     0.04494208     0.09755937     0.15916263
               0.23128650     0.31572767     0.41458969     0.53033537
               0.66584808     0.82450364     1.01025438     1.22772762
               1.48234092     1.78043706     2.12944203     2.53805004
               3.01644009     3.57652955     4.23227104     5.00000000

     Gradients computed in reciprocal space

     Starting wfc are   48 randomized atomic wfcs +    6 random wfc

     Self-consistent Calculation

     iteration #  1     ecut=    58.80 Ry     beta=0.10
     Davidson diagonalization with overlap
     ethr =  1.00E-02,  avg # of iterations =  4.8

     total energy              =    -999.54101097 Ry
     Harris-Foulkes estimate   =    -999.68695645 Ry
     estimated scf accuracy    <       2.18506006 Ry

[...]

     iteration #  5     ecut=    58.80 Ry     beta=0.10
     Davidson diagonalization with overlap
     c_bands:  1 eigenvalues not converged
     ethr =  1.56E-05,  avg # of iterations =  1.4

[...]

     total energy              =    -999.12126265 Ry
     Harris-Foulkes estimate   =    -999.12125573 Ry
     estimated scf accuracy    <       0.00000049 Ry

     iteration # 12     ecut=    58.80 Ry     beta=0.10
     Davidson diagonalization with overlap
     ethr =  5.67E-10,  avg # of iterations =  2.0

     End of self-consistent calculation

          k = 0.0000 0.0000 0.0000 (  3959 PWs)   bands (ev):

   -77.5922 -77.5837 -77.5837 -41.1119 -41.1119 -41.1119 -41.0830 -41.0830
   -41.0830 -41.0436 -41.0436 -41.0436   6.4358   6.7828   6.7828   6.9688
     6.9688   6.9688   8.5209   9.3183   9.3183   9.3183   9.8691   9.8691
    10.7352  10.7352  10.7352  10.9207  10.9207  11.1673  11.3845  11.3845
    11.3845  15.5988  15.5988  15.5988  17.6047  19.9597  19.9597  23.7126
    23.7126  23.7126  24.0577  24.0577  24.0577  28.5351  29.7558  29.7632
    29.7632  29.9623  29.9623  29.9623  32.4321  32.4321

[...]

          k = 0.0975-0.1170-0.1170 (  3996 PWs)   bands (ev):

[...]

          k =-0.1170-0.1170-0.1170 (  4032 PWs)   bands (ev):

   -77.5866 -77.5866 -77.5866 -41.1172 -41.1137 -41.1137 -41.1137 -41.0612
   -41.0612 -41.0612 -41.0389 -41.0389   6.8473   6.8473   6.8473   7.3934
     7.3934   7.7931   9.3177   9.3177   9.3177   9.7713   9.7713   9.7713
    10.7439  10.7439  10.7439  10.7830  10.7830  11.2117  11.2117  11.2117
    13.7101  13.7101  13.7101  14.3346  14.3510  17.0898  17.0898  17.0898
    28.8665  28.8665  28.8665  29.1663  30.0767  30.0767  30.0767  30.3436
    30.3436  30.3436  30.9166  30.9166  35.0246  35.0246

     the Fermi energy is    14.6279 ev

!    total energy              =    -999.12128923 Ry
     Harris-Foulkes estimate   =    -999.12126273 Ry
     estimated scf accuracy    <          1.1E-09 Ry

     The total energy is the sum of the following terms:

     one-electron contribution =    -442.52471160 Ry
     hartree contribution      =     260.08183782 Ry
     xc contribution           =    -130.82979499 Ry
     ewald contribution        =    -685.84594598 Ry
     smearing contrib. (-TS)   =      -0.00267447 Ry

     convergence has been achieved in  12 iterations

     Forces acting on atoms (Ry/au):

     atom    1 type  1   force =     0.00000000   -0.00000000    0.00000000
     atom    2 type  1   force =     0.00000000   -0.00000000    0.00000000
     atom    3 type  1   force =     0.00000000    0.00000000   -0.00000000
     atom    4 type  2   force =     0.00000000    0.00000000    0.00000000

     Total force =     0.000000     Total SCF correction =     0.000000
 !ASE

     General routines

     Parallel routines

   This run was terminated on:  20:12:52  24Oct2017

   JOB DONE.