     Program PWSCF v.5.1rc2 (svn rev. ) starts on 24Oct2017 at 20:54: 8

     Current dimensions of program PWSCF are:
     Max number of different atomic species (ntypx) = 10
     Max number of k-points (npk) =  40000
     Max angular momentum in pseudopotentials (lmaxx) =  3

     IMPORTANT: XC functional enforced from input :
     Exchange-correlation      = BEEF-VDW ( 1  4 27 13 2)
     Any further DFT definition will be discarded
     Please, verify this is what you really want

     Subspace diagonalization in iterative solution of the eigenvalue problem:
     a serial algorithm will be used

     bravais-lattice index     =            0
     lattice parameter (alat)  =       1.8897  a.u.
     unit-cell volume          =     355.5551 (a.u.)^3
     number of atoms/cell      =            4
     number of atomic types    =            2
     number of electrons       =        73.00
     number of Kohn-Sham states=           56
     kinetic-energy cutoff     =      58.7989  Ry
     charge density cutoff     =     587.9892  Ry
     convergence threshold     =      7.3E-09
     mixing beta               =       0.1000
     number of iterations used =           10  local-TF  mixing
     Exchange-correlation      = BEEF-VDW ( 1  4 27 13 2)
     nstep                     =           50

     celldm(1)=   1.889726  celldm(2)=   0.000000  celldm(3)=   0.000000
     celldm(4)=   0.000000  celldm(5)=   0.000000  celldm(6)=   0.000000

     crystal axes: (cart. coord. in units of alat)
               a(1) = (   3.748896   0.000000   0.000000 )
               a(2) = (   0.000000   3.748896   0.000000 )
               a(3) = (   0.000000   0.000000   3.748896 )

     reciprocal axes: (cart. coord. in units 2 pi/alat)
               b(1) = (  0.266745  0.000000  0.000000 )
               b(2) = (  0.000000  0.266745  0.000000 )
               b(3) = (  0.000000  0.000000  0.266745 )

     PseudoPot. # 1 for Cu read from file:
     /home/vossj/suncat/psp/gbrv1.5pbe/Cu.UPF
     MD5 check sum: 6e991ff952a84172a2a52a1c1e996048
     Pseudo is Ultrasoft + core correction, Zval = 19.0
     Generated by new atomic code, or converted to UPF format
     Using radial grid of  867 points,  6 beta functions with:
                l(1) =   0
                l(2) =   0
                l(3) =   1
                l(4) =   1
                l(5) =   2
                l(6) =   2
     Q(r) pseudized with  8 coefficients,  rinner =    1.150   1.150   1.150
                                                       1.150   1.150

     PseudoPot. # 2 for Pt read from file:
     /home/vossj/suncat/psp/gbrv1.5pbe/Pt.UPF
     MD5 check sum: f09d6de1a584b5a045c4fc126da2d0c4
     Pseudo is Ultrasoft + core correction, Zval = 16.0
     Generated by new atomic code, or converted to UPF format
     Using radial grid of  985 points,  6 beta functions with:
                l(1) =   0
                l(2) =   0
                l(3) =   1
                l(4) =   1
                l(5) =   2
                l(6) =   2
     Q(r) pseudized with  8 coefficients,  rinner =    1.300   1.300   1.300
                                                       1.300   1.300

     vdW kernel table read from file vdW_kernel_table
     MD5 check sum: 095c7af220d748ca6e76c0b4c6cfb241

     atomic species   valence    mass     pseudopotential
        Cu1           19.00    63.54600     Cu( 1.00)
        Pt1           16.00   195.08400     Pt( 1.00)

     48 Sym. Ops., with inversion, found (32 have fractional translation)

   Cartesian axes

     site n.     atom                  positions (alat units)
         1           Cu1 tau(   1) = (   0.0000000   0.0000000   0.0000000  )
         2           Cu1 tau(   2) = (   0.0000000   1.8744481   1.8744481  )
         3           Cu1 tau(   3) = (   1.8744481   0.0000000   1.8744481  )
         4           Pt1 tau(   4) = (   1.8744481   1.8744481   0.0000000  )

     number of k points=    84  Fermi-Dirac smearing, width (Ry)=  0.0073
                       cart. coord. in units 2pi/alat
        k(    1) = (   0.0000000   0.0000000   0.0000000), wk =   0.0011574
        k(    2) = (   0.0000000   0.0000000   0.0222288), wk =   0.0069444
        k(    3) = (   0.0000000   0.0000000   0.0444575), wk =   0.0069444
        k(    4) = (   0.0000000   0.0000000   0.0666863), wk =   0.0069444
        k(    5) = (   0.0000000   0.0000000   0.0889151), wk =   0.0069444
        k(    6) = (   0.0000000   0.0000000   0.1111438), wk =   0.0069444
        k(    7) = (   0.0000000   0.0000000  -0.1333726), wk =   0.0034722
        k(    8) = (   0.0000000   0.0222288   0.0222288), wk =   0.0138889
        k(    9) = (   0.0000000   0.0222288   0.0444575), wk =   0.0277778
        k(   10) = (   0.0000000   0.0222288   0.0666863), wk =   0.0277778
        k(   11) = (   0.0000000   0.0222288   0.0889151), wk =   0.0277778
        k(   12) = (   0.0000000   0.0222288   0.1111438), wk =   0.0277778
        k(   13) = (   0.0000000   0.0222288  -0.1333726), wk =   0.0138889
        k(   14) = (   0.0000000   0.0444575   0.0444575), wk =   0.0138889
        k(   15) = (   0.0000000   0.0444575   0.0666863), wk =   0.0277778
        k(   16) = (   0.0000000   0.0444575   0.0889151), wk =   0.0277778
        k(   17) = (   0.0000000   0.0444575   0.1111438), wk =   0.0277778
        k(   18) = (   0.0000000   0.0444575  -0.1333726), wk =   0.0138889
        k(   19) = (   0.0000000   0.0666863   0.0666863), wk =   0.0138889
        k(   20) = (   0.0000000   0.0666863   0.0889151), wk =   0.0277778
        k(   21) = (   0.0000000   0.0666863   0.1111438), wk =   0.0277778
        k(   22) = (   0.0000000   0.0666863  -0.1333726), wk =   0.0138889
        k(   23) = (   0.0000000   0.0889151   0.0889151), wk =   0.0138889
        k(   24) = (   0.0000000   0.0889151   0.1111438), wk =   0.0277778
        k(   25) = (   0.0000000   0.0889151  -0.1333726), wk =   0.0138889
        k(   26) = (   0.0000000   0.1111438   0.1111438), wk =   0.0138889
        k(   27) = (   0.0000000   0.1111438  -0.1333726), wk =   0.0138889
        k(   28) = (   0.0000000  -0.1333726  -0.1333726), wk =   0.0034722
        k(   29) = (   0.0222288   0.0222288   0.0222288), wk =   0.0092593
        k(   30) = (   0.0222288   0.0222288   0.0444575), wk =   0.0277778
        k(   31) = (   0.0222288   0.0222288   0.0666863), wk =   0.0277778
        k(   32) = (   0.0222288   0.0222288   0.0889151), wk =   0.0277778
        k(   33) = (   0.0222288   0.0222288   0.1111438), wk =   0.0277778
        k(   34) = (   0.0222288   0.0222288  -0.1333726), wk =   0.0138889
        k(   35) = (   0.0222288   0.0444575   0.0444575), wk =   0.0277778
        k(   36) = (   0.0222288   0.0444575   0.0666863), wk =   0.0555556
        k(   37) = (   0.0222288   0.0444575   0.0889151), wk =   0.0555556
        k(   38) = (   0.0222288   0.0444575   0.1111438), wk =   0.0555556
        k(   39) = (   0.0222288   0.0444575  -0.1333726), wk =   0.0277778
        k(   40) = (   0.0222288   0.0666863   0.0666863), wk =   0.0277778
        k(   41) = (   0.0222288   0.0666863   0.0889151), wk =   0.0555556
        k(   42) = (   0.0222288   0.0666863   0.1111438), wk =   0.0555556
        k(   43) = (   0.0222288   0.0666863  -0.1333726), wk =   0.0277778
        k(   44) = (   0.0222288   0.0889151   0.0889151), wk =   0.0277778
        k(   45) = (   0.0222288   0.0889151   0.1111438), wk =   0.0555556
        k(   46) = (   0.0222288   0.0889151  -0.1333726), wk =   0.0277778
        k(   47) = (   0.0222288   0.1111438   0.1111438), wk =   0.0277778
        k(   48) = (   0.0222288   0.1111438  -0.1333726), wk =   0.0277778
        k(   49) = (   0.0222288  -0.1333726  -0.1333726), wk =   0.0069444
        k(   50) = (   0.0444575   0.0444575   0.0444575), wk =   0.0092593
        k(   51) = (   0.0444575   0.0444575   0.0666863), wk =   0.0277778
        k(   52) = (   0.0444575   0.0444575   0.0889151), wk =   0.0277778
        k(   53) = (   0.0444575   0.0444575   0.1111438), wk =   0.0277778
        k(   54) = (   0.0444575   0.0444575  -0.1333726), wk =   0.0138889
        k(   55) = (   0.0444575   0.0666863   0.0666863), wk =   0.0277778
        k(   56) = (   0.0444575   0.0666863   0.0889151), wk =   0.0555556
        k(   57) = (   0.0444575   0.0666863   0.1111438), wk =   0.0555556
        k(   58) = (   0.0444575   0.0666863  -0.1333726), wk =   0.0277778
        k(   59) = (   0.0444575   0.0889151   0.0889151), wk =   0.0277778
        k(   60) = (   0.0444575   0.0889151   0.1111438), wk =   0.0555556
[...]
        k(   70) = (   0.0666863   0.0889151   0.1111438), wk =   0.0555556
        k(   71) = (   0.0666863   0.0889151  -0.1333726), wk =   0.0277778
        k(   72) = (   0.0666863   0.1111438   0.1111438), wk =   0.0277778
        k(   73) = (   0.0666863   0.1111438  -0.1333726), wk =   0.0277778
        k(   74) = (   0.0666863  -0.1333726  -0.1333726), wk =   0.0069444
        k(   75) = (   0.0889151   0.0889151   0.0889151), wk =   0.0092593
        k(   76) = (   0.0889151   0.0889151   0.1111438), wk =   0.0277778
        k(   77) = (   0.0889151   0.0889151  -0.1333726), wk =   0.0138889
        k(   78) = (   0.0889151   0.1111438   0.1111438), wk =   0.0277778
        k(   79) = (   0.0889151   0.1111438  -0.1333726), wk =   0.0277778
        k(   80) = (   0.0889151  -0.1333726  -0.1333726), wk =   0.0069444
        k(   81) = (   0.1111438   0.1111438   0.1111438), wk =   0.0092593
        k(   82) = (   0.1111438   0.1111438  -0.1333726), wk =   0.0138889
        k(   83) = (   0.1111438  -0.1333726  -0.1333726), wk =   0.0069444
        k(   84) = (  -0.1333726  -0.1333726  -0.1333726), wk =   0.0011574

     Largest allocated arrays     est. size (Mb)     dimensions
     Largest temporary arrays     est. size (Mb)     dimensions

     Initial potential from superposition of free atoms
     Check: negative starting charge=   -0.184208

     starting charge   69.49998, renormalised to   73.00000

     negative rho (up, down):  1.935E-01 0.000E+00

     *
     * You are using vdW-DF for exchange-correlation in this calculation.
     * Please cite the following three references that made this development
     * possible:
     *
     *   M. Dion, H. Rydberg, E. Schroder, D. C. Langreth, and
     *   B. I. Lundqvist, Phys. Rev. Lett. 92, 246401 (2004).
     *
     *   T. Thonhauser, V. R. Cooper, S. Li, A. Puzder, P. Hyldgaard, and
     *   D. C. Langreth, Phys. Rev. B 76, 125112 (2007).
     *
     *   G. Roman-Perez and J. M. Soler, Phys. Rev. Lett. 103, 096102 (2009).
     *
     *
     * If you are using vdW-DF2, please also cite:
     *
     *   K. Lee, E. D. Murray, L. Kong, B. I. Lundqvist, and
     *   D. C. Langreth, Phys. Rev. B 82, 081101(R) (2010).
     *
     *
     * If you are calculating the stress with vdW-DF, please also cite:
     *
     *   R. Sabatini, E. Kucukbenli, B. Kolb, T. Thonhauser, and
     *   S. de Gironcoli, J. Phys.: Condens. Matter 24, 424209 (2012).
     *

     Carrying out vdW-DF run using the following parameters:

     Nqs =      20    Nr_points =    1024   r_max =   100.000
     q_mesh =
               0.00001000     0.04494208     0.09755937     0.15916263
               0.23128650     0.31572767     0.41458969     0.53033537
               0.66584808     0.82450364     1.01025438     1.22772762
               1.48234092     1.78043706     2.12944203     2.53805004
               3.01644009     3.57652955     4.23227104     5.00000000

     Gradients computed in reciprocal space

     Starting wfc are   51 randomized atomic wfcs +    5 random wfc

     Self-consistent Calculation

     iteration #  1     ecut=    58.80 Ry     beta=0.10
     Davidson diagonalization with overlap
     ethr =  1.00E-02,  avg # of iterations =  4.2

[...]

     total energy              =   -1428.75844421 Ry
     Harris-Foulkes estimate   =   -1429.62986037 Ry
     estimated scf accuracy    <      10.75802190 Ry

[...]

     total energy              =   -1427.29410380 Ry
     Harris-Foulkes estimate   =   -1427.29409907 Ry
     estimated scf accuracy    <       0.00000070 Ry

     iteration # 13     ecut=    58.80 Ry     beta=0.10
     Davidson diagonalization with overlap
     ethr =  4.04E-10,  avg # of iterations =  1.8

     negative rho (up, down):  1.778E-01 0.000E+00

     End of self-consistent calculation

          k = 0.0000 0.0000 0.0000 (  2721 PWs)   bands (ev):

   -95.7225 -95.7144 -95.7144 -53.1414 -53.1414 -53.1414 -53.1069 -53.1069
   -53.1069 -53.0935 -53.0935 -53.0935 -35.8722 -35.8722 -35.8722   7.6357
    11.2910  11.2910  12.0913  12.0913  12.0913  12.2761  13.8424  13.8424
    13.8424  14.6668  14.6668  15.0856  15.2266  15.2266  15.2266  15.7315
    15.7315  16.2797  16.2797  16.2797  18.4858  18.4858  18.4858  23.5050
    25.0210  25.0210  28.0699  28.0699  28.0699  30.3732  30.3732  30.3732
    35.2636  35.2636  35.2636  36.1814  36.1814  36.5753  36.7365  40.1750

[...]

          k = 0.1111-0.1334-0.1334 (  2704 PWs)   bands (ev):

[...]

          k =-0.1334-0.1334-0.1334 (  2800 PWs)   bands (ev):

   -95.7171 -95.7171 -95.7171 -53.1611 -53.1303 -53.1303 -53.1303 -53.1021
   -53.1021 -53.0905 -53.0905 -53.0905 -35.8770 -35.8770 -35.8770  11.1858
    11.1858  11.1858  11.8818  13.5878  13.5878  13.7972  13.7972  13.7972
    13.8698  13.8698  13.8698  15.1026  15.1026  15.1026  15.6406  15.6406
    15.6406  15.8499  15.8970  15.8970  16.2923  16.2923  16.2923  20.1825
    21.6862  21.6862  21.6862  35.3189  35.3189  35.3189  35.6553  35.6553
    35.6553  35.8948  36.9564  36.9564  39.8359  39.8359  39.8359  40.3430

     the Fermi energy is    16.4515 ev

!    total energy              =   -1427.29412517 Ry
     Harris-Foulkes estimate   =   -1427.29410388 Ry
     estimated scf accuracy    <          4.9E-09 Ry

     The total energy is the sum of the following terms:

     one-electron contribution =    -867.24124133 Ry
     hartree contribution      =     483.13498442 Ry
     xc contribution           =    -178.83237670 Ry
     ewald contribution        =    -864.35172397 Ry
     smearing contrib. (-TS)   =      -0.00376758 Ry

     convergence has been achieved in  13 iterations

     Forces acting on atoms (Ry/au):

     negative rho (up, down):  1.778E-01 0.000E+00
     atom    1 type  1   force =     0.00000000    0.00000000    0.00000000
     atom    2 type  1   force =     0.00000000    0.00000000   -0.00000000
     atom    3 type  1   force =     0.00000000    0.00000000   -0.00000000
     atom    4 type  2   force =     0.00000000    0.00000000    0.00000000

     Total force =     0.000000     Total SCF correction =     0.000000
 !ASE

     General routines

     Parallel routines

   This run was terminated on:  20:55: 6  24Oct2017

   JOB DONE.