     Program PWSCF v.5.1rc2 (svn rev. ) starts on 17Feb2018 at 12:34:17

     Current dimensions of program PWSCF are:
     Max number of different atomic species (ntypx) = 10
     Max number of k-points (npk) =  40000
     Max angular momentum in pseudopotentials (lmaxx) =  3

     IMPORTANT: XC functional enforced from input :
     Exchange-correlation      = BEEF-VDW ( 1  4 27 13 2)
     Any further DFT definition will be discarded
     Please, verify this is what you really want

     Subspace diagonalization in iterative solution of the eigenvalue problem:
     a serial algorithm will be used

     bravais-lattice index     =            0
     lattice parameter (alat)  =       1.8897  a.u.
     unit-cell volume          =     734.9212 (a.u.)^3
     number of atoms/cell      =            4
     number of atomic types    =            2
     number of electrons       =        60.00
     number of Kohn-Sham states=           50
     kinetic-energy cutoff     =      58.7989  Ry
     charge density cutoff     =     587.9892  Ry
     convergence threshold     =      7.3E-09
     mixing beta               =       0.1000
     number of iterations used =           10  local-TF  mixing
     Exchange-correlation      = BEEF-VDW ( 1  4 27 13 2)
     nstep                     =           50

     celldm(1)=   1.889726  celldm(2)=   0.000000  celldm(3)=   0.000000
     celldm(4)=   0.000000  celldm(5)=   0.000000  celldm(6)=   0.000000

     crystal axes: (cart. coord. in units of alat)
               a(1) = (   4.775455   0.000000   0.000000 )
               a(2) = (   0.000000   4.775455   0.000000 )
               a(3) = (   0.000000   0.000000   4.775455 )

     reciprocal axes: (cart. coord. in units 2 pi/alat)
               b(1) = (  0.209404  0.000000  0.000000 )
               b(2) = (  0.000000  0.209404  0.000000 )
               b(3) = (  0.000000  0.000000  0.209404 )

     PseudoPot. # 1 for Bi read from file:
     /home/mamunm/src/pseudo/gbrv1.5pbe/Bi.UPF
     MD5 check sum: 81103212dc04adf40945787f699eab19
     Pseudo is Ultrasoft + core correction, Zval = 15.0
     Generated by new atomic code, or converted to UPF format
     Using radial grid of  899 points,  6 beta functions with:
                l(1) =   0
                l(2) =   0
                l(3) =   1
                l(4) =   1
                l(5) =   2
                l(6) =   2
     Q(r) pseudized with  6 coefficients,  rinner =    1.000   1.000   1.000
                                                       1.000   1.000

     PseudoPot. # 2 for Rh read from file:
     /home/mamunm/src/pseudo/gbrv1.5pbe/Rh.UPF
     MD5 check sum: 761627e959a2e3a1f56b0b5fe687810e
     Pseudo is Ultrasoft + core correction, Zval = 15.0
     Generated by new atomic code, or converted to UPF format
     Using radial grid of  969 points,  7 beta functions with:
                l(1) =   0
                l(2) =   0
                l(3) =   1
                l(4) =   1
                l(5) =   2
                l(6) =   2
                l(7) =   2
     Q(r) pseudized with  8 coefficients,  rinner =    1.200   1.200   1.200
                                                       1.200   1.200

     vdW kernel table read from file vdW_kernel_table
     MD5 check sum: 095c7af220d748ca6e76c0b4c6cfb241

     atomic species   valence    mass     pseudopotential
        Bi1           15.00   208.98040     Bi( 1.00)
        Rh1           15.00   102.90550     Rh( 1.00)

     48 Sym. Ops., with inversion, found (32 have fractional translation)

   Cartesian axes

     site n.     atom                  positions (alat units)
         1           Bi1 tau(   1) = (   0.0000000   0.0000000   0.0000000  )
         2           Bi1 tau(   2) = (   0.0000000   2.3877273   2.3877273  )
         3           Bi1 tau(   3) = (   2.3877273   0.0000000   2.3877273  )
         4           Rh1 tau(   4) = (   2.3877273   2.3877273   0.0000000  )

     number of k points=    84  Fermi-Dirac smearing, width (Ry)=  0.0073
                       cart. coord. in units 2pi/alat
        k(    1) = (   0.0000000   0.0000000   0.0000000), wk =   0.0011574
        k(    2) = (   0.0000000   0.0000000   0.0174503), wk =   0.0069444
        k(    3) = (   0.0000000   0.0000000   0.0349007), wk =   0.0069444
        k(    4) = (   0.0000000   0.0000000   0.0523510), wk =   0.0069444
        k(    5) = (   0.0000000   0.0000000   0.0698014), wk =   0.0069444
        k(    6) = (   0.0000000   0.0000000   0.0872517), wk =   0.0069444
        k(    7) = (   0.0000000   0.0000000  -0.1047021), wk =   0.0034722
        k(    8) = (   0.0000000   0.0174503   0.0174503), wk =   0.0138889
        k(    9) = (   0.0000000   0.0174503   0.0349007), wk =   0.0277778
        k(   10) = (   0.0000000   0.0174503   0.0523510), wk =   0.0277778
        k(   11) = (   0.0000000   0.0174503   0.0698014), wk =   0.0277778
        k(   12) = (   0.0000000   0.0174503   0.0872517), wk =   0.0277778
        k(   13) = (   0.0000000   0.0174503  -0.1047021), wk =   0.0138889
        k(   14) = (   0.0000000   0.0349007   0.0349007), wk =   0.0138889
        k(   15) = (   0.0000000   0.0349007   0.0523510), wk =   0.0277778
        k(   16) = (   0.0000000   0.0349007   0.0698014), wk =   0.0277778
        k(   17) = (   0.0000000   0.0349007   0.0872517), wk =   0.0277778
        k(   18) = (   0.0000000   0.0349007  -0.1047021), wk =   0.0138889
        k(   19) = (   0.0000000   0.0523510   0.0523510), wk =   0.0138889
        k(   20) = (   0.0000000   0.0523510   0.0698014), wk =   0.0277778
        k(   21) = (   0.0000000   0.0523510   0.0872517), wk =   0.0277778
        k(   22) = (   0.0000000   0.0523510  -0.1047021), wk =   0.0138889
        k(   23) = (   0.0000000   0.0698014   0.0698014), wk =   0.0138889
        k(   24) = (   0.0000000   0.0698014   0.0872517), wk =   0.0277778
        k(   25) = (   0.0000000   0.0698014  -0.1047021), wk =   0.0138889
        k(   26) = (   0.0000000   0.0872517   0.0872517), wk =   0.0138889
        k(   27) = (   0.0000000   0.0872517  -0.1047021), wk =   0.0138889
        k(   28) = (   0.0000000  -0.1047021  -0.1047021), wk =   0.0034722
        k(   29) = (   0.0174503   0.0174503   0.0174503), wk =   0.0092593
        k(   30) = (   0.0174503   0.0174503   0.0349007), wk =   0.0277778
        k(   31) = (   0.0174503   0.0174503   0.0523510), wk =   0.0277778
        k(   32) = (   0.0174503   0.0174503   0.0698014), wk =   0.0277778
        k(   33) = (   0.0174503   0.0174503   0.0872517), wk =   0.0277778
        k(   34) = (   0.0174503   0.0174503  -0.1047021), wk =   0.0138889
        k(   35) = (   0.0174503   0.0349007   0.0349007), wk =   0.0277778
        k(   36) = (   0.0174503   0.0349007   0.0523510), wk =   0.0555556
        k(   37) = (   0.0174503   0.0349007   0.0698014), wk =   0.0555556
        k(   38) = (   0.0174503   0.0349007   0.0872517), wk =   0.0555556
        k(   39) = (   0.0174503   0.0349007  -0.1047021), wk =   0.0277778
        k(   40) = (   0.0174503   0.0523510   0.0523510), wk =   0.0277778
        k(   41) = (   0.0174503   0.0523510   0.0698014), wk =   0.0555556
        k(   42) = (   0.0174503   0.0523510   0.0872517), wk =   0.0555556
        k(   43) = (   0.0174503   0.0523510  -0.1047021), wk =   0.0277778
        k(   44) = (   0.0174503   0.0698014   0.0698014), wk =   0.0277778
        k(   45) = (   0.0174503   0.0698014   0.0872517), wk =   0.0555556
        k(   46) = (   0.0174503   0.0698014  -0.1047021), wk =   0.0277778
        k(   47) = (   0.0174503   0.0872517   0.0872517), wk =   0.0277778
        k(   48) = (   0.0174503   0.0872517  -0.1047021), wk =   0.0277778
        k(   49) = (   0.0174503  -0.1047021  -0.1047021), wk =   0.0069444
        k(   50) = (   0.0349007   0.0349007   0.0349007), wk =   0.0092593
        k(   51) = (   0.0349007   0.0349007   0.0523510), wk =   0.0277778
        k(   52) = (   0.0349007   0.0349007   0.0698014), wk =   0.0277778
        k(   53) = (   0.0349007   0.0349007   0.0872517), wk =   0.0277778
        k(   54) = (   0.0349007   0.0349007  -0.1047021), wk =   0.0138889
        k(   55) = (   0.0349007   0.0523510   0.0523510), wk =   0.0277778
        k(   56) = (   0.0349007   0.0523510   0.0698014), wk =   0.0555556
        k(   57) = (   0.0349007   0.0523510   0.0872517), wk =   0.0555556
        k(   58) = (   0.0349007   0.0523510  -0.1047021), wk =   0.0277778
        k(   59) = (   0.0349007   0.0698014   0.0698014), wk =   0.0277778
        k(   60) = (   0.0349007   0.0698014   0.0872517), wk =   0.0555556
[...]
        k(   70) = (   0.0523510   0.0698014   0.0872517), wk =   0.0555556
        k(   71) = (   0.0523510   0.0698014  -0.1047021), wk =   0.0277778
        k(   72) = (   0.0523510   0.0872517   0.0872517), wk =   0.0277778
        k(   73) = (   0.0523510   0.0872517  -0.1047021), wk =   0.0277778
        k(   74) = (   0.0523510  -0.1047021  -0.1047021), wk =   0.0069444
        k(   75) = (   0.0698014   0.0698014   0.0698014), wk =   0.0092593
        k(   76) = (   0.0698014   0.0698014   0.0872517), wk =   0.0277778
        k(   77) = (   0.0698014   0.0698014  -0.1047021), wk =   0.0138889
        k(   78) = (   0.0698014   0.0872517   0.0872517), wk =   0.0277778
        k(   79) = (   0.0698014   0.0872517  -0.1047021), wk =   0.0277778
        k(   80) = (   0.0698014  -0.1047021  -0.1047021), wk =   0.0069444
        k(   81) = (   0.0872517   0.0872517   0.0872517), wk =   0.0092593
        k(   82) = (   0.0872517   0.0872517  -0.1047021), wk =   0.0138889
        k(   83) = (   0.0872517  -0.1047021  -0.1047021), wk =   0.0069444
        k(   84) = (  -0.1047021  -0.1047021  -0.1047021), wk =   0.0011574

     Largest allocated arrays     est. size (Mb)     dimensions
     Largest temporary arrays     est. size (Mb)     dimensions

     Initial potential from superposition of free atoms
     Check: negative starting charge=   -0.185192

     starting charge   56.49978, renormalised to   60.00000

     negative rho (up, down):  1.967E-01 0.000E+00

     *
     * You are using vdW-DF for exchange-correlation in this calculation.
     * Please cite the following three references that made this development
     * possible:
     *
     *   M. Dion, H. Rydberg, E. Schroder, D. C. Langreth, and
     *   B. I. Lundqvist, Phys. Rev. Lett. 92, 246401 (2004).
     *
     *   T. Thonhauser, V. R. Cooper, S. Li, A. Puzder, P. Hyldgaard, and
     *   D. C. Langreth, Phys. Rev. B 76, 125112 (2007).
     *
     *   G. Roman-Perez and J. M. Soler, Phys. Rev. Lett. 103, 096102 (2009).
     *
     *
     * If you are using vdW-DF2, please also cite:
     *
     *   K. Lee, E. D. Murray, L. Kong, B. I. Lundqvist, and
     *   D. C. Langreth, Phys. Rev. B 82, 081101(R) (2010).
     *
     *
     * If you are calculating the stress with vdW-DF, please also cite:
     *
     *   R. Sabatini, E. Kucukbenli, B. Kolb, T. Thonhauser, and
     *   S. de Gironcoli, J. Phys.: Condens. Matter 24, 424209 (2012).
     *

     Carrying out vdW-DF run using the following parameters:

     Nqs =      20    Nr_points =    1024   r_max =   100.000
     q_mesh =
               0.00001000     0.04494208     0.09755937     0.15916263
               0.23128650     0.31572767     0.41458969     0.53033537
               0.66584808     0.82450364     1.01025438     1.22772762
               1.48234092     1.78043706     2.12944203     2.53805004
               3.01644009     3.57652955     4.23227104     5.00000000

     Gradients computed in reciprocal space

     Starting wfc are   39 randomized atomic wfcs +   11 random wfc

     Self-consistent Calculation

     iteration #  1     ecut=    58.80 Ry     beta=0.10
     Davidson diagonalization with overlap
     ethr =  1.00E-02,  avg # of iterations =  5.6

[...]

     total energy              =    -734.46097381 Ry
     Harris-Foulkes estimate   =    -734.76545137 Ry
     estimated scf accuracy    <       5.05411822 Ry

[...]

     total energy              =    -733.68933522 Ry
     Harris-Foulkes estimate   =    -733.68933031 Ry
     estimated scf accuracy    <       0.00000001 Ry

     iteration # 22     ecut=    58.80 Ry     beta=0.10
     Davidson diagonalization with overlap
     ethr =  1.77E-11,  avg # of iterations =  2.0

     negative rho (up, down):  1.901E-01 0.000E+00

     End of self-consistent calculation

          k = 0.0000 0.0000 0.0000 (  5575 PWs)   bands (ev):

   -32.7518 -32.7518 -32.7518 -11.0792 -11.0791 -11.0791 -11.0502 -10.9539
   -10.9538 -10.8702 -10.8702 -10.8701 -10.8649 -10.8648 -10.7875 -10.7777
   -10.7777 -10.7777  -0.9182   3.2181   3.2182   8.6518   8.6518   8.6518
    11.3983  11.3983  11.3983  11.4617  11.4617  12.8277  13.6153  13.6153
    13.6153  15.5955  15.5955  15.5956  18.8698  19.4240  19.4240  19.9177
    19.9177  19.9177  22.5039  22.5039  22.5039  22.9599  26.6130  26.6130
    26.6131  27.6872

[...]

          k = 0.0873-0.1047-0.1047 (  5612 PWs)   bands (ev):

[...]

          k =-0.1047-0.1047-0.1047 (  5616 PWs)   bands (ev):

   -32.7520 -32.7520 -32.7520 -11.0106 -11.0106 -11.0106 -10.9886 -10.9886
   -10.9886 -10.9492 -10.8796 -10.8796 -10.8795 -10.8453 -10.8453 -10.7920
   -10.7920 -10.7920   1.7966   1.7966   1.7967   6.6900   8.2858   8.2858
     8.2858  11.6369  11.6369  11.7409  11.7409  11.7409  12.2749  16.7427
    16.7428  17.2055  17.2056  17.2056  21.9176  21.9176  21.9176  21.9217
    21.9306  21.9306  21.9306  23.2817  23.2817  23.2817  23.6262  23.6262
    23.6262  25.2219

     the Fermi energy is    12.5585 ev

!    total energy              =    -733.68935614 Ry
     Harris-Foulkes estimate   =    -733.68933524 Ry
     estimated scf accuracy    <          2.9E-10 Ry

     The total energy is the sum of the following terms:

     one-electron contribution =    -175.22394192 Ry
     hartree contribution      =     129.67512341 Ry
     xc contribution           =    -230.88388831 Ry
     ewald contribution        =    -457.25156383 Ry
     smearing contrib. (-TS)   =      -0.00508549 Ry

     convergence has been achieved in  22 iterations

     Forces acting on atoms (Ry/au):

     negative rho (up, down):  1.901E-01 0.000E+00
     atom    1 type  1   force =     0.00000000    0.00000000    0.00000000
     atom    2 type  1   force =     0.00000000    0.00000000    0.00000000
     atom    3 type  1   force =     0.00000000    0.00000000    0.00000000
     atom    4 type  2   force =     0.00000000   -0.00000000    0.00000000

     Total force =     0.000000     Total SCF correction =     0.000000
 !ASE

     General routines

     Parallel routines

   This run was terminated on:  12:36:22  17Feb2018

   JOB DONE.