     Program PWSCF v.5.1rc2 (svn rev. ) starts on 26Oct2017 at  0:18:51

     Current dimensions of program PWSCF are:
     Max number of different atomic species (ntypx) = 10
     Max number of k-points (npk) =  40000
     Max angular momentum in pseudopotentials (lmaxx) =  3

     IMPORTANT: XC functional enforced from input :
     Exchange-correlation      = BEEF-VDW ( 1  4 27 13 2)
     Any further DFT definition will be discarded
     Please, verify this is what you really want

     Subspace diagonalization in iterative solution of the eigenvalue problem:
     a serial algorithm will be used

     bravais-lattice index     =            0
     lattice parameter (alat)  =       1.8897  a.u.
     unit-cell volume          =     610.1586 (a.u.)^3
     number of atoms/cell      =            4
     number of atomic types    =            2
     number of electrons       =        45.00
     number of Kohn-Sham states=           42
     kinetic-energy cutoff     =      58.7989  Ry
     charge density cutoff     =     587.9892  Ry
     convergence threshold     =      7.3E-09
     mixing beta               =       0.1000
     number of iterations used =           10  local-TF  mixing
     Exchange-correlation      = BEEF-VDW ( 1  4 27 13 2)
     nstep                     =           50

     celldm(1)=   1.889726  celldm(2)=   0.000000  celldm(3)=   0.000000
     celldm(4)=   0.000000  celldm(5)=   0.000000  celldm(6)=   0.000000

     crystal axes: (cart. coord. in units of alat)
               a(1) = (   4.488302   0.000000   0.000000 )
               a(2) = (   0.000000   4.488302   0.000000 )
               a(3) = (   0.000000   0.000000   4.488302 )

     reciprocal axes: (cart. coord. in units 2 pi/alat)
               b(1) = (  0.222801  0.000000  0.000000 )
               b(2) = (  0.000000  0.222801  0.000000 )
               b(3) = (  0.000000  0.000000  0.222801 )

     PseudoPot. # 1 for Sc read from file:
     /home/vossj/suncat/psp/gbrv1.5pbe/Sc.UPF
     MD5 check sum: db30a2753ba66ef00f23801d899b7e7f
     Pseudo is Ultrasoft + core correction, Zval = 11.0
     Generated by new atomic code, or converted to UPF format
     Using radial grid of  849 points,  6 beta functions with:
                l(1) =   0
                l(2) =   0
                l(3) =   1
                l(4) =   1
                l(5) =   2
                l(6) =   2
     Q(r) pseudized with  6 coefficients,  rinner =    1.200   1.200   1.200
                                                       1.200   1.200

     PseudoPot. # 2 for Hg read from file:
     /home/vossj/suncat/psp/gbrv1.5pbe/Hg.UPF
     MD5 check sum: 8f42caffe07f7fd9c0a564347f8c5498
     Pseudo is Ultrasoft + core correction, Zval = 12.0
     Generated by new atomic code, or converted to UPF format
     Using radial grid of  985 points,  6 beta functions with:
                l(1) =   0
                l(2) =   0
                l(3) =   1
                l(4) =   1
                l(5) =   2
                l(6) =   2
     Q(r) pseudized with  8 coefficients,  rinner =    2.000   2.000   2.000
                                                       2.000   2.000

     vdW kernel table read from file vdW_kernel_table
     MD5 check sum: 095c7af220d748ca6e76c0b4c6cfb241

     atomic species   valence    mass     pseudopotential
        Sc1           11.00    44.95591     Sc( 1.00)
        Hg1           12.00   200.59200     Hg( 1.00)

     48 Sym. Ops., with inversion, found (32 have fractional translation)

   Cartesian axes

     site n.     atom                  positions (alat units)
         1           Sc1 tau(   1) = (   0.0000000   0.0000000   0.0000000  )
         2           Sc1 tau(   2) = (   0.0000000   2.2441509   2.2441509  )
         3           Sc1 tau(   3) = (   2.2441509   0.0000000   2.2441509  )
         4           Hg1 tau(   4) = (   2.2441509   2.2441509   0.0000000  )

     number of k points=    84  Fermi-Dirac smearing, width (Ry)=  0.0073
                       cart. coord. in units 2pi/alat
        k(    1) = (   0.0000000   0.0000000   0.0000000), wk =   0.0011574
        k(    2) = (   0.0000000   0.0000000   0.0185668), wk =   0.0069444
        k(    3) = (   0.0000000   0.0000000   0.0371336), wk =   0.0069444
        k(    4) = (   0.0000000   0.0000000   0.0557004), wk =   0.0069444
        k(    5) = (   0.0000000   0.0000000   0.0742671), wk =   0.0069444
        k(    6) = (   0.0000000   0.0000000   0.0928339), wk =   0.0069444
        k(    7) = (   0.0000000   0.0000000  -0.1114007), wk =   0.0034722
        k(    8) = (   0.0000000   0.0185668   0.0185668), wk =   0.0138889
        k(    9) = (   0.0000000   0.0185668   0.0371336), wk =   0.0277778
        k(   10) = (   0.0000000   0.0185668   0.0557004), wk =   0.0277778
        k(   11) = (   0.0000000   0.0185668   0.0742671), wk =   0.0277778
        k(   12) = (   0.0000000   0.0185668   0.0928339), wk =   0.0277778
        k(   13) = (   0.0000000   0.0185668  -0.1114007), wk =   0.0138889
        k(   14) = (   0.0000000   0.0371336   0.0371336), wk =   0.0138889
        k(   15) = (   0.0000000   0.0371336   0.0557004), wk =   0.0277778
        k(   16) = (   0.0000000   0.0371336   0.0742671), wk =   0.0277778
        k(   17) = (   0.0000000   0.0371336   0.0928339), wk =   0.0277778
        k(   18) = (   0.0000000   0.0371336  -0.1114007), wk =   0.0138889
        k(   19) = (   0.0000000   0.0557004   0.0557004), wk =   0.0138889
        k(   20) = (   0.0000000   0.0557004   0.0742671), wk =   0.0277778
        k(   21) = (   0.0000000   0.0557004   0.0928339), wk =   0.0277778
        k(   22) = (   0.0000000   0.0557004  -0.1114007), wk =   0.0138889
        k(   23) = (   0.0000000   0.0742671   0.0742671), wk =   0.0138889
        k(   24) = (   0.0000000   0.0742671   0.0928339), wk =   0.0277778
        k(   25) = (   0.0000000   0.0742671  -0.1114007), wk =   0.0138889
        k(   26) = (   0.0000000   0.0928339   0.0928339), wk =   0.0138889
        k(   27) = (   0.0000000   0.0928339  -0.1114007), wk =   0.0138889
        k(   28) = (   0.0000000  -0.1114007  -0.1114007), wk =   0.0034722
        k(   29) = (   0.0185668   0.0185668   0.0185668), wk =   0.0092593
        k(   30) = (   0.0185668   0.0185668   0.0371336), wk =   0.0277778
        k(   31) = (   0.0185668   0.0185668   0.0557004), wk =   0.0277778
        k(   32) = (   0.0185668   0.0185668   0.0742671), wk =   0.0277778
        k(   33) = (   0.0185668   0.0185668   0.0928339), wk =   0.0277778
        k(   34) = (   0.0185668   0.0185668  -0.1114007), wk =   0.0138889
        k(   35) = (   0.0185668   0.0371336   0.0371336), wk =   0.0277778
        k(   36) = (   0.0185668   0.0371336   0.0557004), wk =   0.0555556
        k(   37) = (   0.0185668   0.0371336   0.0742671), wk =   0.0555556
        k(   38) = (   0.0185668   0.0371336   0.0928339), wk =   0.0555556
        k(   39) = (   0.0185668   0.0371336  -0.1114007), wk =   0.0277778
        k(   40) = (   0.0185668   0.0557004   0.0557004), wk =   0.0277778
        k(   41) = (   0.0185668   0.0557004   0.0742671), wk =   0.0555556
        k(   42) = (   0.0185668   0.0557004   0.0928339), wk =   0.0555556
        k(   43) = (   0.0185668   0.0557004  -0.1114007), wk =   0.0277778
        k(   44) = (   0.0185668   0.0742671   0.0742671), wk =   0.0277778
        k(   45) = (   0.0185668   0.0742671   0.0928339), wk =   0.0555556
        k(   46) = (   0.0185668   0.0742671  -0.1114007), wk =   0.0277778
        k(   47) = (   0.0185668   0.0928339   0.0928339), wk =   0.0277778
        k(   48) = (   0.0185668   0.0928339  -0.1114007), wk =   0.0277778
        k(   49) = (   0.0185668  -0.1114007  -0.1114007), wk =   0.0069444
        k(   50) = (   0.0371336   0.0371336   0.0371336), wk =   0.0092593
        k(   51) = (   0.0371336   0.0371336   0.0557004), wk =   0.0277778
        k(   52) = (   0.0371336   0.0371336   0.0742671), wk =   0.0277778
        k(   53) = (   0.0371336   0.0371336   0.0928339), wk =   0.0277778
        k(   54) = (   0.0371336   0.0371336  -0.1114007), wk =   0.0138889
        k(   55) = (   0.0371336   0.0557004   0.0557004), wk =   0.0277778
        k(   56) = (   0.0371336   0.0557004   0.0742671), wk =   0.0555556
        k(   57) = (   0.0371336   0.0557004   0.0928339), wk =   0.0555556
        k(   58) = (   0.0371336   0.0557004  -0.1114007), wk =   0.0277778
        k(   59) = (   0.0371336   0.0742671   0.0742671), wk =   0.0277778
        k(   60) = (   0.0371336   0.0742671   0.0928339), wk =   0.0555556
[...]
        k(   70) = (   0.0557004   0.0742671   0.0928339), wk =   0.0555556
        k(   71) = (   0.0557004   0.0742671  -0.1114007), wk =   0.0277778
        k(   72) = (   0.0557004   0.0928339   0.0928339), wk =   0.0277778
        k(   73) = (   0.0557004   0.0928339  -0.1114007), wk =   0.0277778
        k(   74) = (   0.0557004  -0.1114007  -0.1114007), wk =   0.0069444
        k(   75) = (   0.0742671   0.0742671   0.0742671), wk =   0.0092593
        k(   76) = (   0.0742671   0.0742671   0.0928339), wk =   0.0277778
        k(   77) = (   0.0742671   0.0742671  -0.1114007), wk =   0.0138889
        k(   78) = (   0.0742671   0.0928339   0.0928339), wk =   0.0277778
        k(   79) = (   0.0742671   0.0928339  -0.1114007), wk =   0.0277778
        k(   80) = (   0.0742671  -0.1114007  -0.1114007), wk =   0.0069444
        k(   81) = (   0.0928339   0.0928339   0.0928339), wk =   0.0092593
        k(   82) = (   0.0928339   0.0928339  -0.1114007), wk =   0.0138889
        k(   83) = (   0.0928339  -0.1114007  -0.1114007), wk =   0.0069444
        k(   84) = (  -0.1114007  -0.1114007  -0.1114007), wk =   0.0011574

     Largest allocated arrays     est. size (Mb)     dimensions
     Largest temporary arrays     est. size (Mb)     dimensions

     Initial potential from superposition of free atoms

     starting charge   44.99273, renormalised to   45.00000

     *
     * You are using vdW-DF for exchange-correlation in this calculation.
     * Please cite the following three references that made this development
     * possible:
     *
     *   M. Dion, H. Rydberg, E. Schroder, D. C. Langreth, and
     *   B. I. Lundqvist, Phys. Rev. Lett. 92, 246401 (2004).
     *
     *   T. Thonhauser, V. R. Cooper, S. Li, A. Puzder, P. Hyldgaard, and
     *   D. C. Langreth, Phys. Rev. B 76, 125112 (2007).
     *
     *   G. Roman-Perez and J. M. Soler, Phys. Rev. Lett. 103, 096102 (2009).
     *
     *
     * If you are using vdW-DF2, please also cite:
     *
     *   K. Lee, E. D. Murray, L. Kong, B. I. Lundqvist, and
     *   D. C. Langreth, Phys. Rev. B 82, 081101(R) (2010).
     *
     *
     * If you are calculating the stress with vdW-DF, please also cite:
     *
     *   R. Sabatini, E. Kucukbenli, B. Kolb, T. Thonhauser, and
     *   S. de Gironcoli, J. Phys.: Condens. Matter 24, 424209 (2012).
     *

     Carrying out vdW-DF run using the following parameters:

     Nqs =      20    Nr_points =    1024   r_max =   100.000
     q_mesh =
               0.00001000     0.04494208     0.09755937     0.15916263
               0.23128650     0.31572767     0.41458969     0.53033537
               0.66584808     0.82450364     1.01025438     1.22772762
               1.48234092     1.78043706     2.12944203     2.53805004
               3.01644009     3.57652955     4.23227104     5.00000000

     Gradients computed in reciprocal space

     Starting wfc are   48 randomized atomic wfcs

     Self-consistent Calculation

     iteration #  1     ecut=    58.80 Ry     beta=0.10
     Davidson diagonalization with overlap
     ethr =  1.00E-02,  avg # of iterations =  4.1

     Threshold (ethr) on eigenvalues was too large:
     Diagonalizing with lowered threshold

     Davidson diagonalization with overlap
     ethr =  4.68E-04,  avg # of iterations =  1.7

     total energy              =    -393.69800808 Ry
     Harris-Foulkes estimate   =    -393.70711110 Ry
     estimated scf accuracy    <       0.21260986 Ry

[...]

     total energy              =    -393.66363909 Ry
     Harris-Foulkes estimate   =    -393.66363651 Ry
     estimated scf accuracy    <       0.00000001 Ry

     iteration # 13     ecut=    58.80 Ry     beta=0.10
     Davidson diagonalization with overlap
     ethr =  2.37E-11,  avg # of iterations =  2.2

     End of self-consistent calculation

          k = 0.0000 0.0000 0.0000 (  4697 PWs)   bands (ev):

   -39.2331 -39.1522 -39.1522 -17.9506 -17.9506 -17.9506 -17.7491 -17.7491
   -17.7491 -17.6175 -17.6175 -17.6175   3.3418   3.3418   3.4744   3.4744
     3.4744   3.6737   8.2008  10.5713  10.5713  10.5713  10.6181  10.6181
    12.0172  12.0172  12.0172  13.1209  13.1209  13.1209  13.8643  13.8643
    14.4069  14.6379  14.6379  14.6379  15.7356  18.9908  18.9908  18.9909
    19.0938  19.0938

[...]

          k = 0.0928-0.1114-0.1114 (  4656 PWs)   bands (ev):

[...]

          k =-0.1114-0.1114-0.1114 (  4680 PWs)   bands (ev):

   -39.1786 -39.1786 -39.1786 -18.0569 -17.9285 -17.9285 -17.9285 -17.6385
   -17.6385 -17.6385 -17.6201 -17.6201   3.3677   3.3677   3.3677   3.6721
     3.6721   5.7935   9.7385   9.7385   9.7385  10.1802  10.1802  10.1802
    10.9470  11.9077  11.9077  11.9077  13.0068  13.0068  13.0068  13.4582
    13.4582  14.3996  14.3996  14.3996  14.4847  17.2011  17.2011  17.2011
    22.8118  22.8118

     the Fermi energy is    10.6704 ev

!    total energy              =    -393.66364612 Ry
     Harris-Foulkes estimate   =    -393.66363909 Ry
     estimated scf accuracy    <          2.2E-09 Ry

     The total energy is the sum of the following terms:

     one-electron contribution =    -114.77656934 Ry
     hartree contribution      =      77.17243979 Ry
     xc contribution           =     -82.18565925 Ry
     ewald contribution        =    -273.85879864 Ry
     smearing contrib. (-TS)   =      -0.01505868 Ry

     convergence has been achieved in  13 iterations

     Forces acting on atoms (Ry/au):

     atom    1 type  1   force =     0.00000000   -0.00000000    0.00000000
     atom    2 type  1   force =     0.00000000    0.00000000   -0.00000000
     atom    3 type  1   force =     0.00000000    0.00000000    0.00000000
     atom    4 type  2   force =     0.00000000    0.00000000    0.00000000

     Total force =     0.000000     Total SCF correction =     0.000000
 !ASE

     General routines

     Parallel routines

   This run was terminated on:   0:19:51  26Oct2017

   JOB DONE.