     Program PWSCF v.5.1rc2 (svn rev. ) starts on 25Oct2017 at 14:58:37

     Current dimensions of program PWSCF are:
     Max number of different atomic species (ntypx) = 10
     Max number of k-points (npk) =  40000
     Max angular momentum in pseudopotentials (lmaxx) =  3

     IMPORTANT: XC functional enforced from input :
     Exchange-correlation      = BEEF-VDW ( 1  4 27 13 2)
     Any further DFT definition will be discarded
     Please, verify this is what you really want

     Subspace diagonalization in iterative solution of the eigenvalue problem:
     a serial algorithm will be used

     bravais-lattice index     =            0
     lattice parameter (alat)  =       1.8897  a.u.
     unit-cell volume          =     482.4863 (a.u.)^3
     number of atoms/cell      =            4
     number of atomic types    =            2
     number of electrons       =        72.00
     number of Kohn-Sham states=           56
     kinetic-energy cutoff     =      58.7989  Ry
     charge density cutoff     =     587.9892  Ry
     convergence threshold     =      7.3E-09
     mixing beta               =       0.1000
     number of iterations used =           10  local-TF  mixing
     Exchange-correlation      = BEEF-VDW ( 1  4 27 13 2)
     nstep                     =           50

     celldm(1)=   1.889726  celldm(2)=   0.000000  celldm(3)=   0.000000
     celldm(4)=   0.000000  celldm(5)=   0.000000  celldm(6)=   0.000000

     crystal axes: (cart. coord. in units of alat)
               a(1) = (   4.150459   0.000000   0.000000 )
               a(2) = (   0.000000   4.150459   0.000000 )
               a(3) = (   0.000000   0.000000   4.150459 )

     reciprocal axes: (cart. coord. in units 2 pi/alat)
               b(1) = (  0.240937  0.000000  0.000000 )
               b(2) = (  0.000000  0.240937  0.000000 )
               b(3) = (  0.000000  0.000000  0.240937 )

     PseudoPot. # 1 for Zn read from file:
     /home/vossj/suncat/psp/gbrv1.5pbe/Zn.UPF
     MD5 check sum: df62231357ef9e81f77b2b3087fa5675
     Pseudo is Ultrasoft, Zval = 20.0
     Generated by new atomic code, or converted to UPF format
     Using radial grid of  943 points,  6 beta functions with:
                l(1) =   0
                l(2) =   0
                l(3) =   1
                l(4) =   1
                l(5) =   2
                l(6) =   2
     Q(r) pseudized with  8 coefficients,  rinner =    1.100   1.100   1.100
                                                       1.100   1.100

     PseudoPot. # 2 for Cd read from file:
     /home/vossj/suncat/psp/gbrv1.5pbe/Cd.UPF
     MD5 check sum: 17164a7926edb8e0dc231208abae86a6
     Pseudo is Ultrasoft + core correction, Zval = 12.0
     Generated by new atomic code, or converted to UPF format
     Using radial grid of  889 points,  6 beta functions with:
                l(1) =   0
                l(2) =   0
                l(3) =   1
                l(4) =   1
                l(5) =   2
                l(6) =   2
     Q(r) pseudized with  6 coefficients,  rinner =    1.000   1.000   1.000
                                                       1.000   1.000

     vdW kernel table read from file vdW_kernel_table
     MD5 check sum: 095c7af220d748ca6e76c0b4c6cfb241

     atomic species   valence    mass     pseudopotential
        Zn1           20.00    65.38000     Zn( 1.00)
        Cd1           12.00   112.41400     Cd( 1.00)

     48 Sym. Ops., with inversion, found (32 have fractional translation)

   Cartesian axes

     site n.     atom                  positions (alat units)
         1           Zn1 tau(   1) = (   0.0000000   0.0000000   0.0000000  )
         2           Zn1 tau(   2) = (   0.0000000   2.0752296   2.0752296  )
         3           Zn1 tau(   3) = (   2.0752296   0.0000000   2.0752296  )
         4           Cd1 tau(   4) = (   2.0752296   2.0752296   0.0000000  )

     number of k points=    84  Fermi-Dirac smearing, width (Ry)=  0.0073
                       cart. coord. in units 2pi/alat
        k(    1) = (   0.0000000   0.0000000   0.0000000), wk =   0.0011574
        k(    2) = (   0.0000000   0.0000000   0.0200781), wk =   0.0069444
        k(    3) = (   0.0000000   0.0000000   0.0401562), wk =   0.0069444
        k(    4) = (   0.0000000   0.0000000   0.0602343), wk =   0.0069444
        k(    5) = (   0.0000000   0.0000000   0.0803124), wk =   0.0069444
        k(    6) = (   0.0000000   0.0000000   0.1003905), wk =   0.0069444
        k(    7) = (   0.0000000   0.0000000  -0.1204686), wk =   0.0034722
        k(    8) = (   0.0000000   0.0200781   0.0200781), wk =   0.0138889
        k(    9) = (   0.0000000   0.0200781   0.0401562), wk =   0.0277778
        k(   10) = (   0.0000000   0.0200781   0.0602343), wk =   0.0277778
        k(   11) = (   0.0000000   0.0200781   0.0803124), wk =   0.0277778
        k(   12) = (   0.0000000   0.0200781   0.1003905), wk =   0.0277778
        k(   13) = (   0.0000000   0.0200781  -0.1204686), wk =   0.0138889
        k(   14) = (   0.0000000   0.0401562   0.0401562), wk =   0.0138889
        k(   15) = (   0.0000000   0.0401562   0.0602343), wk =   0.0277778
        k(   16) = (   0.0000000   0.0401562   0.0803124), wk =   0.0277778
        k(   17) = (   0.0000000   0.0401562   0.1003905), wk =   0.0277778
        k(   18) = (   0.0000000   0.0401562  -0.1204686), wk =   0.0138889
        k(   19) = (   0.0000000   0.0602343   0.0602343), wk =   0.0138889
        k(   20) = (   0.0000000   0.0602343   0.0803124), wk =   0.0277778
        k(   21) = (   0.0000000   0.0602343   0.1003905), wk =   0.0277778
        k(   22) = (   0.0000000   0.0602343  -0.1204686), wk =   0.0138889
        k(   23) = (   0.0000000   0.0803124   0.0803124), wk =   0.0138889
        k(   24) = (   0.0000000   0.0803124   0.1003905), wk =   0.0277778
        k(   25) = (   0.0000000   0.0803124  -0.1204686), wk =   0.0138889
        k(   26) = (   0.0000000   0.1003905   0.1003905), wk =   0.0138889
        k(   27) = (   0.0000000   0.1003905  -0.1204686), wk =   0.0138889
        k(   28) = (   0.0000000  -0.1204686  -0.1204686), wk =   0.0034722
        k(   29) = (   0.0200781   0.0200781   0.0200781), wk =   0.0092593
        k(   30) = (   0.0200781   0.0200781   0.0401562), wk =   0.0277778
        k(   31) = (   0.0200781   0.0200781   0.0602343), wk =   0.0277778
        k(   32) = (   0.0200781   0.0200781   0.0803124), wk =   0.0277778
        k(   33) = (   0.0200781   0.0200781   0.1003905), wk =   0.0277778
        k(   34) = (   0.0200781   0.0200781  -0.1204686), wk =   0.0138889
        k(   35) = (   0.0200781   0.0401562   0.0401562), wk =   0.0277778
        k(   36) = (   0.0200781   0.0401562   0.0602343), wk =   0.0555556
        k(   37) = (   0.0200781   0.0401562   0.0803124), wk =   0.0555556
        k(   38) = (   0.0200781   0.0401562   0.1003905), wk =   0.0555556
        k(   39) = (   0.0200781   0.0401562  -0.1204686), wk =   0.0277778
        k(   40) = (   0.0200781   0.0602343   0.0602343), wk =   0.0277778
        k(   41) = (   0.0200781   0.0602343   0.0803124), wk =   0.0555556
        k(   42) = (   0.0200781   0.0602343   0.1003905), wk =   0.0555556
        k(   43) = (   0.0200781   0.0602343  -0.1204686), wk =   0.0277778
        k(   44) = (   0.0200781   0.0803124   0.0803124), wk =   0.0277778
        k(   45) = (   0.0200781   0.0803124   0.1003905), wk =   0.0555556
        k(   46) = (   0.0200781   0.0803124  -0.1204686), wk =   0.0277778
        k(   47) = (   0.0200781   0.1003905   0.1003905), wk =   0.0277778
        k(   48) = (   0.0200781   0.1003905  -0.1204686), wk =   0.0277778
        k(   49) = (   0.0200781  -0.1204686  -0.1204686), wk =   0.0069444
        k(   50) = (   0.0401562   0.0401562   0.0401562), wk =   0.0092593
        k(   51) = (   0.0401562   0.0401562   0.0602343), wk =   0.0277778
        k(   52) = (   0.0401562   0.0401562   0.0803124), wk =   0.0277778
        k(   53) = (   0.0401562   0.0401562   0.1003905), wk =   0.0277778
        k(   54) = (   0.0401562   0.0401562  -0.1204686), wk =   0.0138889
        k(   55) = (   0.0401562   0.0602343   0.0602343), wk =   0.0277778
        k(   56) = (   0.0401562   0.0602343   0.0803124), wk =   0.0555556
        k(   57) = (   0.0401562   0.0602343   0.1003905), wk =   0.0555556
        k(   58) = (   0.0401562   0.0602343  -0.1204686), wk =   0.0277778
        k(   59) = (   0.0401562   0.0803124   0.0803124), wk =   0.0277778
        k(   60) = (   0.0401562   0.0803124   0.1003905), wk =   0.0555556
[...]
        k(   70) = (   0.0602343   0.0803124   0.1003905), wk =   0.0555556
        k(   71) = (   0.0602343   0.0803124  -0.1204686), wk =   0.0277778
        k(   72) = (   0.0602343   0.1003905   0.1003905), wk =   0.0277778
        k(   73) = (   0.0602343   0.1003905  -0.1204686), wk =   0.0277778
        k(   74) = (   0.0602343  -0.1204686  -0.1204686), wk =   0.0069444
        k(   75) = (   0.0803124   0.0803124   0.0803124), wk =   0.0092593
        k(   76) = (   0.0803124   0.0803124   0.1003905), wk =   0.0277778
        k(   77) = (   0.0803124   0.0803124  -0.1204686), wk =   0.0138889
        k(   78) = (   0.0803124   0.1003905   0.1003905), wk =   0.0277778
        k(   79) = (   0.0803124   0.1003905  -0.1204686), wk =   0.0277778
        k(   80) = (   0.0803124  -0.1204686  -0.1204686), wk =   0.0069444
        k(   81) = (   0.1003905   0.1003905   0.1003905), wk =   0.0092593
        k(   82) = (   0.1003905   0.1003905  -0.1204686), wk =   0.0138889
        k(   83) = (   0.1003905  -0.1204686  -0.1204686), wk =   0.0069444
        k(   84) = (  -0.1204686  -0.1204686  -0.1204686), wk =   0.0011574

     Largest allocated arrays     est. size (Mb)     dimensions
     Largest temporary arrays     est. size (Mb)     dimensions

     Initial potential from superposition of free atoms
     Check: negative starting charge=   -0.020628

     starting charge   71.49954, renormalised to   72.00000

     negative rho (up, down):  2.077E-02 0.000E+00

     *
     * You are using vdW-DF for exchange-correlation in this calculation.
     * Please cite the following three references that made this development
     * possible:
     *
     *   M. Dion, H. Rydberg, E. Schroder, D. C. Langreth, and
     *   B. I. Lundqvist, Phys. Rev. Lett. 92, 246401 (2004).
     *
     *   T. Thonhauser, V. R. Cooper, S. Li, A. Puzder, P. Hyldgaard, and
     *   D. C. Langreth, Phys. Rev. B 76, 125112 (2007).
     *
     *   G. Roman-Perez and J. M. Soler, Phys. Rev. Lett. 103, 096102 (2009).
     *
     *
     * If you are using vdW-DF2, please also cite:
     *
     *   K. Lee, E. D. Murray, L. Kong, B. I. Lundqvist, and
     *   D. C. Langreth, Phys. Rev. B 82, 081101(R) (2010).
     *
     *
     * If you are calculating the stress with vdW-DF, please also cite:
     *
     *   R. Sabatini, E. Kucukbenli, B. Kolb, T. Thonhauser, and
     *   S. de Gironcoli, J. Phys.: Condens. Matter 24, 424209 (2012).
     *

     Carrying out vdW-DF run using the following parameters:

     Nqs =      20    Nr_points =    1024   r_max =   100.000
     q_mesh =
               0.00001000     0.04494208     0.09755937     0.15916263
               0.23128650     0.31572767     0.41458969     0.53033537
               0.66584808     0.82450364     1.01025438     1.22772762
               1.48234092     1.78043706     2.12944203     2.53805004
               3.01644009     3.57652955     4.23227104     5.00000000

     Gradients computed in reciprocal space

     Starting wfc are   48 randomized atomic wfcs +    8 random wfc

     Self-consistent Calculation

     iteration #  1     ecut=    58.80 Ry     beta=0.10
     Davidson diagonalization with overlap
     ethr =  1.00E-02,  avg # of iterations =  4.8

[...]

     total energy              =   -1504.58212891 Ry
     Harris-Foulkes estimate   =   -1504.63988866 Ry
     estimated scf accuracy    <       0.89277750 Ry

[...]

     total energy              =   -1504.43102607 Ry
     Harris-Foulkes estimate   =   -1504.43101974 Ry
     estimated scf accuracy    <       0.00000022 Ry

     iteration # 12     ecut=    58.80 Ry     beta=0.10
     Davidson diagonalization with overlap
     ethr =  3.00E-10,  avg # of iterations =  2.0

     negative rho (up, down):  2.164E-02 0.000E+00

     End of self-consistent calculation

          k = 0.0000 0.0000 0.0000 (  3743 PWs)   bands (ev):

  -114.9004-114.8996-114.8996 -69.0862 -69.0862 -69.0862 -69.0848 -69.0848
   -69.0848 -69.0688 -69.0688 -69.0688   2.2766   2.2766   2.3235   2.4300
     2.4300   2.4300   3.6472   3.9130   3.9130   3.9130   4.1304   4.1304
     4.4314   4.4314   4.4314   4.4724   4.4724   4.5349   4.6173   4.6173
     4.6173  10.9811  10.9811  10.9811  12.8694  12.8694  13.5480  18.8372
    18.8372  18.8372  19.8268  19.8268  19.8268  23.1877  23.1877  23.1877
    23.4077  23.4077  24.3414  28.1235  28.1235  28.1235  28.3132  31.2213

[...]

          k = 0.1004-0.1205-0.1205 (  3648 PWs)   bands (ev):

[...]

          k =-0.1205-0.1205-0.1205 (  3648 PWs)   bands (ev):

  -114.8998-114.8998-114.8998 -69.0879 -69.0879 -69.0879 -69.0824 -69.0824
   -69.0824 -69.0749 -69.0668 -69.0668   2.2683   2.2683   2.2683   2.6617
     2.6617   3.5867   3.9193   3.9193   3.9193   4.0684   4.0684   4.0684
     4.4276   4.4276   4.4381   4.4381   4.4381   4.5572   4.5572   4.5572
     9.2872   9.2872   9.2872   9.3705  10.1028  10.1028  10.1028  10.6553
    24.5184  24.5184  24.5184  24.9386  24.9386  26.5735  26.5735  26.5735
    27.1234  27.1234  27.1234  27.4616  28.5253  28.5253  28.5253  29.1598

     the Fermi energy is    11.6985 ev

!    total energy              =   -1504.43105349 Ry
     Harris-Foulkes estimate   =   -1504.43102611 Ry
     estimated scf accuracy    <          3.3E-09 Ry

     The total energy is the sum of the following terms:

     one-electron contribution =   -1188.14038002 Ry
     hartree contribution      =     626.20727387 Ry
     xc contribution           =    -171.10220409 Ry
     ewald contribution        =    -771.39261452 Ry
     smearing contrib. (-TS)   =      -0.00312874 Ry

     convergence has been achieved in  12 iterations

     Forces acting on atoms (Ry/au):

     negative rho (up, down):  2.164E-02 0.000E+00
     atom    1 type  1   force =     0.00000000    0.00000000    0.00000000
     atom    2 type  1   force =     0.00000000   -0.00000000   -0.00000000
     atom    3 type  1   force =     0.00000000    0.00000000    0.00000000
     atom    4 type  2   force =     0.00000000    0.00000000    0.00000000

     Total force =     0.000000     Total SCF correction =     0.000000
 !ASE

     General routines

     Parallel routines

   This run was terminated on:  14:59:44  25Oct2017

   JOB DONE.