     Program PWSCF v.5.1rc2 (svn rev. ) starts on 25Oct2017 at  1:34:18

     Current dimensions of program PWSCF are:
     Max number of different atomic species (ntypx) = 10
     Max number of k-points (npk) =  40000
     Max angular momentum in pseudopotentials (lmaxx) =  3

     IMPORTANT: XC functional enforced from input :
     Exchange-correlation      = BEEF-VDW ( 1  4 27 13 2)
     Any further DFT definition will be discarded
     Please, verify this is what you really want

     Subspace diagonalization in iterative solution of the eigenvalue problem:
     a serial algorithm will be used

     bravais-lattice index     =            0
     lattice parameter (alat)  =       1.8897  a.u.
     unit-cell volume          =     415.4976 (a.u.)^3
     number of atoms/cell      =            4
     number of atomic types    =            2
     number of electrons       =        64.00
     number of Kohn-Sham states=           52
     kinetic-energy cutoff     =      58.7989  Ry
     charge density cutoff     =     587.9892  Ry
     convergence threshold     =      7.3E-09
     mixing beta               =       0.1000
     number of iterations used =           10  local-TF  mixing
     Exchange-correlation      = BEEF-VDW ( 1  4 27 13 2)
     nstep                     =           50

     celldm(1)=   1.889726  celldm(2)=   0.000000  celldm(3)=   0.000000
     celldm(4)=   0.000000  celldm(5)=   0.000000  celldm(6)=   0.000000

     crystal axes: (cart. coord. in units of alat)
               a(1) = (   3.948729   0.000000   0.000000 )
               a(2) = (   0.000000   3.948729   0.000000 )
               a(3) = (   0.000000   0.000000   3.948729 )

     reciprocal axes: (cart. coord. in units 2 pi/alat)
               b(1) = (  0.253246  0.000000  0.000000 )
               b(2) = (  0.000000  0.253246  0.000000 )
               b(3) = (  0.000000  0.000000  0.253246 )

     PseudoPot. # 1 for Pt read from file:
     /home/vossj/suncat/psp/gbrv1.5pbe/Pt.UPF
     MD5 check sum: f09d6de1a584b5a045c4fc126da2d0c4
     Pseudo is Ultrasoft + core correction, Zval = 16.0
     Generated by new atomic code, or converted to UPF format
     Using radial grid of  985 points,  6 beta functions with:
                l(1) =   0
                l(2) =   0
                l(3) =   1
                l(4) =   1
                l(5) =   2
                l(6) =   2
     Q(r) pseudized with  8 coefficients,  rinner =    1.300   1.300   1.300
                                                       1.300   1.300

     PseudoPot. # 2 for Os read from file:
     /home/vossj/suncat/psp/gbrv1.5pbe/Os.UPF
     MD5 check sum: a3fb40a04f0c37c25c34bbc47164c9a8
     Pseudo is Ultrasoft + core correction, Zval = 16.0
     Generated by new atomic code, or converted to UPF format
     Using radial grid of  983 points,  8 beta functions with:
                l(1) =   0
                l(2) =   0
                l(3) =   1
                l(4) =   1
                l(5) =   2
                l(6) =   2
                l(7) =   3
                l(8) =   3
     Q(r) pseudized with  8 coefficients,  rinner =    1.150   1.150   1.150
                                                       1.150   1.150   1.150
                                                       1.150

     vdW kernel table read from file vdW_kernel_table
     MD5 check sum: 095c7af220d748ca6e76c0b4c6cfb241

     atomic species   valence    mass     pseudopotential
        Pt1           16.00   195.08400     Pt( 1.00)
        Os1           16.00   190.23000     Os( 1.00)

     48 Sym. Ops., with inversion, found (32 have fractional translation)

   Cartesian axes

     site n.     atom                  positions (alat units)
         1           Pt1 tau(   1) = (   0.0000000   0.0000000   0.0000000  )
         2           Pt1 tau(   2) = (   0.0000000   1.9743643   1.9743643  )
         3           Pt1 tau(   3) = (   1.9743643   0.0000000   1.9743643  )
         4           Os1 tau(   4) = (   1.9743643   1.9743643   0.0000000  )

     number of k points=    84  Fermi-Dirac smearing, width (Ry)=  0.0073
                       cart. coord. in units 2pi/alat
        k(    1) = (   0.0000000   0.0000000   0.0000000), wk =   0.0011574
        k(    2) = (   0.0000000   0.0000000   0.0211038), wk =   0.0069444
        k(    3) = (   0.0000000   0.0000000   0.0422077), wk =   0.0069444
        k(    4) = (   0.0000000   0.0000000   0.0633115), wk =   0.0069444
        k(    5) = (   0.0000000   0.0000000   0.0844154), wk =   0.0069444
        k(    6) = (   0.0000000   0.0000000   0.1055192), wk =   0.0069444
        k(    7) = (   0.0000000   0.0000000  -0.1266230), wk =   0.0034722
        k(    8) = (   0.0000000   0.0211038   0.0211038), wk =   0.0138889
        k(    9) = (   0.0000000   0.0211038   0.0422077), wk =   0.0277778
        k(   10) = (   0.0000000   0.0211038   0.0633115), wk =   0.0277778
        k(   11) = (   0.0000000   0.0211038   0.0844154), wk =   0.0277778
        k(   12) = (   0.0000000   0.0211038   0.1055192), wk =   0.0277778
        k(   13) = (   0.0000000   0.0211038  -0.1266230), wk =   0.0138889
        k(   14) = (   0.0000000   0.0422077   0.0422077), wk =   0.0138889
        k(   15) = (   0.0000000   0.0422077   0.0633115), wk =   0.0277778
        k(   16) = (   0.0000000   0.0422077   0.0844154), wk =   0.0277778
        k(   17) = (   0.0000000   0.0422077   0.1055192), wk =   0.0277778
        k(   18) = (   0.0000000   0.0422077  -0.1266230), wk =   0.0138889
        k(   19) = (   0.0000000   0.0633115   0.0633115), wk =   0.0138889
        k(   20) = (   0.0000000   0.0633115   0.0844154), wk =   0.0277778
        k(   21) = (   0.0000000   0.0633115   0.1055192), wk =   0.0277778
        k(   22) = (   0.0000000   0.0633115  -0.1266230), wk =   0.0138889
        k(   23) = (   0.0000000   0.0844154   0.0844154), wk =   0.0138889
        k(   24) = (   0.0000000   0.0844154   0.1055192), wk =   0.0277778
        k(   25) = (   0.0000000   0.0844154  -0.1266230), wk =   0.0138889
        k(   26) = (   0.0000000   0.1055192   0.1055192), wk =   0.0138889
        k(   27) = (   0.0000000   0.1055192  -0.1266230), wk =   0.0138889
        k(   28) = (   0.0000000  -0.1266230  -0.1266230), wk =   0.0034722
        k(   29) = (   0.0211038   0.0211038   0.0211038), wk =   0.0092593
        k(   30) = (   0.0211038   0.0211038   0.0422077), wk =   0.0277778
        k(   31) = (   0.0211038   0.0211038   0.0633115), wk =   0.0277778
        k(   32) = (   0.0211038   0.0211038   0.0844154), wk =   0.0277778
        k(   33) = (   0.0211038   0.0211038   0.1055192), wk =   0.0277778
        k(   34) = (   0.0211038   0.0211038  -0.1266230), wk =   0.0138889
        k(   35) = (   0.0211038   0.0422077   0.0422077), wk =   0.0277778
        k(   36) = (   0.0211038   0.0422077   0.0633115), wk =   0.0555556
        k(   37) = (   0.0211038   0.0422077   0.0844154), wk =   0.0555556
        k(   38) = (   0.0211038   0.0422077   0.1055192), wk =   0.0555556
        k(   39) = (   0.0211038   0.0422077  -0.1266230), wk =   0.0277778
        k(   40) = (   0.0211038   0.0633115   0.0633115), wk =   0.0277778
        k(   41) = (   0.0211038   0.0633115   0.0844154), wk =   0.0555556
        k(   42) = (   0.0211038   0.0633115   0.1055192), wk =   0.0555556
        k(   43) = (   0.0211038   0.0633115  -0.1266230), wk =   0.0277778
        k(   44) = (   0.0211038   0.0844154   0.0844154), wk =   0.0277778
        k(   45) = (   0.0211038   0.0844154   0.1055192), wk =   0.0555556
        k(   46) = (   0.0211038   0.0844154  -0.1266230), wk =   0.0277778
        k(   47) = (   0.0211038   0.1055192   0.1055192), wk =   0.0277778
        k(   48) = (   0.0211038   0.1055192  -0.1266230), wk =   0.0277778
        k(   49) = (   0.0211038  -0.1266230  -0.1266230), wk =   0.0069444
        k(   50) = (   0.0422077   0.0422077   0.0422077), wk =   0.0092593
        k(   51) = (   0.0422077   0.0422077   0.0633115), wk =   0.0277778
        k(   52) = (   0.0422077   0.0422077   0.0844154), wk =   0.0277778
        k(   53) = (   0.0422077   0.0422077   0.1055192), wk =   0.0277778
        k(   54) = (   0.0422077   0.0422077  -0.1266230), wk =   0.0138889
        k(   55) = (   0.0422077   0.0633115   0.0633115), wk =   0.0277778
        k(   56) = (   0.0422077   0.0633115   0.0844154), wk =   0.0555556
        k(   57) = (   0.0422077   0.0633115   0.1055192), wk =   0.0555556
        k(   58) = (   0.0422077   0.0633115  -0.1266230), wk =   0.0277778
        k(   59) = (   0.0422077   0.0844154   0.0844154), wk =   0.0277778
        k(   60) = (   0.0422077   0.0844154   0.1055192), wk =   0.0555556
[...]
        k(   70) = (   0.0633115   0.0844154   0.1055192), wk =   0.0555556
        k(   71) = (   0.0633115   0.0844154  -0.1266230), wk =   0.0277778
        k(   72) = (   0.0633115   0.1055192   0.1055192), wk =   0.0277778
        k(   73) = (   0.0633115   0.1055192  -0.1266230), wk =   0.0277778
        k(   74) = (   0.0633115  -0.1266230  -0.1266230), wk =   0.0069444
        k(   75) = (   0.0844154   0.0844154   0.0844154), wk =   0.0092593
        k(   76) = (   0.0844154   0.0844154   0.1055192), wk =   0.0277778
        k(   77) = (   0.0844154   0.0844154  -0.1266230), wk =   0.0138889
        k(   78) = (   0.0844154   0.1055192   0.1055192), wk =   0.0277778
        k(   79) = (   0.0844154   0.1055192  -0.1266230), wk =   0.0277778
        k(   80) = (   0.0844154  -0.1266230  -0.1266230), wk =   0.0069444
        k(   81) = (   0.1055192   0.1055192   0.1055192), wk =   0.0092593
        k(   82) = (   0.1055192   0.1055192  -0.1266230), wk =   0.0138889
        k(   83) = (   0.1055192  -0.1266230  -0.1266230), wk =   0.0069444
        k(   84) = (  -0.1266230  -0.1266230  -0.1266230), wk =   0.0011574

     Largest allocated arrays     est. size (Mb)     dimensions
     Largest temporary arrays     est. size (Mb)     dimensions

     Initial potential from superposition of free atoms
     Check: negative starting charge=   -0.677905

     starting charge   61.99993, renormalised to   64.00000

     negative rho (up, down):  6.998E-01 0.000E+00

     *
     * You are using vdW-DF for exchange-correlation in this calculation.
     * Please cite the following three references that made this development
     * possible:
     *
     *   M. Dion, H. Rydberg, E. Schroder, D. C. Langreth, and
     *   B. I. Lundqvist, Phys. Rev. Lett. 92, 246401 (2004).
     *
     *   T. Thonhauser, V. R. Cooper, S. Li, A. Puzder, P. Hyldgaard, and
     *   D. C. Langreth, Phys. Rev. B 76, 125112 (2007).
     *
     *   G. Roman-Perez and J. M. Soler, Phys. Rev. Lett. 103, 096102 (2009).
     *
     *
     * If you are using vdW-DF2, please also cite:
     *
     *   K. Lee, E. D. Murray, L. Kong, B. I. Lundqvist, and
     *   D. C. Langreth, Phys. Rev. B 82, 081101(R) (2010).
     *
     *
     * If you are calculating the stress with vdW-DF, please also cite:
     *
     *   R. Sabatini, E. Kucukbenli, B. Kolb, T. Thonhauser, and
     *   S. de Gironcoli, J. Phys.: Condens. Matter 24, 424209 (2012).
     *

     Carrying out vdW-DF run using the following parameters:

     Nqs =      20    Nr_points =    1024   r_max =   100.000
     q_mesh =
               0.00001000     0.04494208     0.09755937     0.15916263
               0.23128650     0.31572767     0.41458969     0.53033537
               0.66584808     0.82450364     1.01025438     1.22772762
               1.48234092     1.78043706     2.12944203     2.53805004
               3.01644009     3.57652955     4.23227104     5.00000000

     Gradients computed in reciprocal space

     Starting wfc are   49 randomized atomic wfcs +    3 random wfc

     Self-consistent Calculation

     iteration #  1     ecut=    58.80 Ry     beta=0.10
     Davidson diagonalization with overlap
     ethr =  1.00E-02,  avg # of iterations =  4.4

[...]

     total energy              =    -837.72359026 Ry
     Harris-Foulkes estimate   =    -838.03344198 Ry
     estimated scf accuracy    <       5.59941723 Ry

[...]

     total energy              =    -836.90024110 Ry
     Harris-Foulkes estimate   =    -836.90023958 Ry
     estimated scf accuracy    <       0.00000058 Ry

     iteration # 14     ecut=    58.80 Ry     beta=0.10
     Davidson diagonalization with overlap
     ethr =  9.10E-10,  avg # of iterations =  1.0

     negative rho (up, down):  6.545E-01 0.000E+00

     End of self-consistent calculation

          k = 0.0000 0.0000 0.0000 (  3119 PWs)   bands (ev):

   -64.3593 -31.2085 -31.2085 -31.2085 -31.0519 -31.0519 -31.0519 -30.9144
   -30.9144 -30.9144 -23.6216 -23.6216 -23.6216  12.1872  15.1560  15.2639
    15.2639  15.6951  15.6951  15.6951  18.5225  18.5225  18.5225  20.5488
    20.5488  21.7946  22.3075  22.3075  22.3075  22.9371  22.9371  23.7302
    23.7302  23.7302  24.0331  24.0331  24.0331  31.1096  31.1096  31.6868
    33.2458  33.2458  33.2458  33.8282  33.8282  33.8282  36.5506  41.4997
    41.4997  41.4997  42.1183  42.1183

[...]

          k = 0.1055-0.1266-0.1266 (  3148 PWs)   bands (ev):

[...]

          k =-0.1266-0.1266-0.1266 (  3184 PWs)   bands (ev):

   -64.3591 -31.2694 -31.2010 -31.2010 -31.2010 -30.9535 -30.9535 -30.9535
   -30.9077 -30.9077 -23.6245 -23.6245 -23.6245  15.0042  15.0265  15.0265
    15.0265  18.1576  18.1576  18.1576  18.4774  18.4774  18.4774  18.7900
    18.7900  21.6868  21.8247  21.8247  21.8247  21.8595  21.8595  21.8595
    22.8774  22.8774  22.8774  23.0404  23.0404  28.3082  28.3082  28.3082
    28.5645  36.1072  36.1072  36.1072  36.1936  40.5984  40.5984  40.5984
    40.9566  40.9566  41.4583  41.4583

     the Fermi energy is    22.2124 ev

!    total energy              =    -836.90024798 Ry
     Harris-Foulkes estimate   =    -836.90024116 Ry
     estimated scf accuracy    <          4.9E-09 Ry

     The total energy is the sum of the following terms:

     one-electron contribution =     -93.68599110 Ry
     hartree contribution      =     100.70869382 Ry
     xc contribution           =    -214.73669900 Ry
     ewald contribution        =    -629.17299430 Ry
     smearing contrib. (-TS)   =      -0.01325740 Ry

     convergence has been achieved in  14 iterations

     Forces acting on atoms (Ry/au):

     negative rho (up, down):  6.545E-01 0.000E+00
     atom    1 type  1   force =     0.00000000    0.00000000    0.00000000
     atom    2 type  1   force =     0.00000000    0.00000000    0.00000000
     atom    3 type  1   force =     0.00000000    0.00000000    0.00000000
     atom    4 type  2   force =     0.00000000    0.00000000    0.00000000

     Total force =     0.000000     Total SCF correction =     0.000000
 !ASE

     General routines

     Parallel routines

   This run was terminated on:   1:35:18  25Oct2017

   JOB DONE.