     Program PWSCF v.5.1rc2 (svn rev. ) starts on 25Oct2017 at 20: 1:41

     Current dimensions of program PWSCF are:
     Max number of different atomic species (ntypx) = 10
     Max number of k-points (npk) =  40000
     Max angular momentum in pseudopotentials (lmaxx) =  3

     IMPORTANT: XC functional enforced from input :
     Exchange-correlation      = BEEF-VDW ( 1  4 27 13 2)
     Any further DFT definition will be discarded
     Please, verify this is what you really want

     Subspace diagonalization in iterative solution of the eigenvalue problem:
     a serial algorithm will be used

     bravais-lattice index     =            0
     lattice parameter (alat)  =       1.8897  a.u.
     unit-cell volume          =     422.8869 (a.u.)^3
     number of atoms/cell      =            4
     number of atomic types    =            2
     number of electrons       =        58.00
     number of Kohn-Sham states=           49
     kinetic-energy cutoff     =      58.7989  Ry
     charge density cutoff     =     587.9892  Ry
     convergence threshold     =      7.3E-09
     mixing beta               =       0.1000
     number of iterations used =           10  local-TF  mixing
     Exchange-correlation      = BEEF-VDW ( 1  4 27 13 2)
     nstep                     =           50

     celldm(1)=   1.889726  celldm(2)=   0.000000  celldm(3)=   0.000000
     celldm(4)=   0.000000  celldm(5)=   0.000000  celldm(6)=   0.000000

     crystal axes: (cart. coord. in units of alat)
               a(1) = (   3.972000   0.000000   0.000000 )
               a(2) = (   0.000000   3.972000   0.000000 )
               a(3) = (   0.000000   0.000000   3.972000 )

     reciprocal axes: (cart. coord. in units 2 pi/alat)
               b(1) = (  0.251762  0.000000  0.000000 )
               b(2) = (  0.000000  0.251762  0.000000 )
               b(3) = (  0.000000  0.000000  0.251762 )

     PseudoPot. # 1 for Mo read from file:
     /home/vossj/suncat/psp/gbrv1.5pbe/Mo.UPF
     MD5 check sum: 30c4dcd161f5d35cd49bb5239c51a633
     Pseudo is Ultrasoft + core correction, Zval = 14.0
     Generated by new atomic code, or converted to UPF format
     Using radial grid of  889 points,  6 beta functions with:
                l(1) =   0
                l(2) =   0
                l(3) =   1
                l(4) =   1
                l(5) =   2
                l(6) =   2
     Q(r) pseudized with  6 coefficients,  rinner =    1.000   1.000   1.000
                                                       1.000   1.000

     PseudoPot. # 2 for Pd read from file:
     /home/vossj/suncat/psp/gbrv1.5pbe/Pd.UPF
     MD5 check sum: 2d733d2bc2cbfd217af676df1668a4bc
     Pseudo is Ultrasoft + core correction, Zval = 16.0
     Generated by new atomic code, or converted to UPF format
     Using radial grid of  887 points,  6 beta functions with:
                l(1) =   0
                l(2) =   0
                l(3) =   1
                l(4) =   1
                l(5) =   2
                l(6) =   2
     Q(r) pseudized with  8 coefficients,  rinner =    1.130   1.130   1.130
                                                       1.130   1.130

     vdW kernel table read from file vdW_kernel_table
     MD5 check sum: 095c7af220d748ca6e76c0b4c6cfb241

     atomic species   valence    mass     pseudopotential
        Mo1           14.00    95.95000     Mo( 1.00)
        Pd1           16.00   106.42000     Pd( 1.00)

     48 Sym. Ops., with inversion, found (32 have fractional translation)

   Cartesian axes

     site n.     atom                  positions (alat units)
         1           Mo1 tau(   1) = (   0.0000000   0.0000000   0.0000000  )
         2           Mo1 tau(   2) = (   0.0000000   1.9859998   1.9859998  )
         3           Mo1 tau(   3) = (   1.9859998   0.0000000   1.9859998  )
         4           Pd1 tau(   4) = (   1.9859998   1.9859998   0.0000000  )

     number of k points=    84  Fermi-Dirac smearing, width (Ry)=  0.0073
                       cart. coord. in units 2pi/alat
        k(    1) = (   0.0000000   0.0000000   0.0000000), wk =   0.0011574
        k(    2) = (   0.0000000   0.0000000   0.0209802), wk =   0.0069444
        k(    3) = (   0.0000000   0.0000000   0.0419604), wk =   0.0069444
        k(    4) = (   0.0000000   0.0000000   0.0629406), wk =   0.0069444
        k(    5) = (   0.0000000   0.0000000   0.0839208), wk =   0.0069444
        k(    6) = (   0.0000000   0.0000000   0.1049010), wk =   0.0069444
        k(    7) = (   0.0000000   0.0000000  -0.1258812), wk =   0.0034722
        k(    8) = (   0.0000000   0.0209802   0.0209802), wk =   0.0138889
        k(    9) = (   0.0000000   0.0209802   0.0419604), wk =   0.0277778
        k(   10) = (   0.0000000   0.0209802   0.0629406), wk =   0.0277778
        k(   11) = (   0.0000000   0.0209802   0.0839208), wk =   0.0277778
        k(   12) = (   0.0000000   0.0209802   0.1049010), wk =   0.0277778
        k(   13) = (   0.0000000   0.0209802  -0.1258812), wk =   0.0138889
        k(   14) = (   0.0000000   0.0419604   0.0419604), wk =   0.0138889
        k(   15) = (   0.0000000   0.0419604   0.0629406), wk =   0.0277778
        k(   16) = (   0.0000000   0.0419604   0.0839208), wk =   0.0277778
        k(   17) = (   0.0000000   0.0419604   0.1049010), wk =   0.0277778
        k(   18) = (   0.0000000   0.0419604  -0.1258812), wk =   0.0138889
        k(   19) = (   0.0000000   0.0629406   0.0629406), wk =   0.0138889
        k(   20) = (   0.0000000   0.0629406   0.0839208), wk =   0.0277778
        k(   21) = (   0.0000000   0.0629406   0.1049010), wk =   0.0277778
        k(   22) = (   0.0000000   0.0629406  -0.1258812), wk =   0.0138889
        k(   23) = (   0.0000000   0.0839208   0.0839208), wk =   0.0138889
        k(   24) = (   0.0000000   0.0839208   0.1049010), wk =   0.0277778
        k(   25) = (   0.0000000   0.0839208  -0.1258812), wk =   0.0138889
        k(   26) = (   0.0000000   0.1049010   0.1049010), wk =   0.0138889
        k(   27) = (   0.0000000   0.1049010  -0.1258812), wk =   0.0138889
        k(   28) = (   0.0000000  -0.1258812  -0.1258812), wk =   0.0034722
        k(   29) = (   0.0209802   0.0209802   0.0209802), wk =   0.0092593
        k(   30) = (   0.0209802   0.0209802   0.0419604), wk =   0.0277778
        k(   31) = (   0.0209802   0.0209802   0.0629406), wk =   0.0277778
        k(   32) = (   0.0209802   0.0209802   0.0839208), wk =   0.0277778
        k(   33) = (   0.0209802   0.0209802   0.1049010), wk =   0.0277778
        k(   34) = (   0.0209802   0.0209802  -0.1258812), wk =   0.0138889
        k(   35) = (   0.0209802   0.0419604   0.0419604), wk =   0.0277778
        k(   36) = (   0.0209802   0.0419604   0.0629406), wk =   0.0555556
        k(   37) = (   0.0209802   0.0419604   0.0839208), wk =   0.0555556
        k(   38) = (   0.0209802   0.0419604   0.1049010), wk =   0.0555556
        k(   39) = (   0.0209802   0.0419604  -0.1258812), wk =   0.0277778
        k(   40) = (   0.0209802   0.0629406   0.0629406), wk =   0.0277778
        k(   41) = (   0.0209802   0.0629406   0.0839208), wk =   0.0555556
        k(   42) = (   0.0209802   0.0629406   0.1049010), wk =   0.0555556
        k(   43) = (   0.0209802   0.0629406  -0.1258812), wk =   0.0277778
        k(   44) = (   0.0209802   0.0839208   0.0839208), wk =   0.0277778
        k(   45) = (   0.0209802   0.0839208   0.1049010), wk =   0.0555556
        k(   46) = (   0.0209802   0.0839208  -0.1258812), wk =   0.0277778
        k(   47) = (   0.0209802   0.1049010   0.1049010), wk =   0.0277778
        k(   48) = (   0.0209802   0.1049010  -0.1258812), wk =   0.0277778
        k(   49) = (   0.0209802  -0.1258812  -0.1258812), wk =   0.0069444
        k(   50) = (   0.0419604   0.0419604   0.0419604), wk =   0.0092593
        k(   51) = (   0.0419604   0.0419604   0.0629406), wk =   0.0277778
        k(   52) = (   0.0419604   0.0419604   0.0839208), wk =   0.0277778
        k(   53) = (   0.0419604   0.0419604   0.1049010), wk =   0.0277778
        k(   54) = (   0.0419604   0.0419604  -0.1258812), wk =   0.0138889
        k(   55) = (   0.0419604   0.0629406   0.0629406), wk =   0.0277778
        k(   56) = (   0.0419604   0.0629406   0.0839208), wk =   0.0555556
        k(   57) = (   0.0419604   0.0629406   0.1049010), wk =   0.0555556
        k(   58) = (   0.0419604   0.0629406  -0.1258812), wk =   0.0277778
        k(   59) = (   0.0419604   0.0839208   0.0839208), wk =   0.0277778
        k(   60) = (   0.0419604   0.0839208   0.1049010), wk =   0.0555556
[...]
        k(   70) = (   0.0629406   0.0839208   0.1049010), wk =   0.0555556
        k(   71) = (   0.0629406   0.0839208  -0.1258812), wk =   0.0277778
        k(   72) = (   0.0629406   0.1049010   0.1049010), wk =   0.0277778
        k(   73) = (   0.0629406   0.1049010  -0.1258812), wk =   0.0277778
        k(   74) = (   0.0629406  -0.1258812  -0.1258812), wk =   0.0069444
        k(   75) = (   0.0839208   0.0839208   0.0839208), wk =   0.0092593
        k(   76) = (   0.0839208   0.0839208   0.1049010), wk =   0.0277778
        k(   77) = (   0.0839208   0.0839208  -0.1258812), wk =   0.0138889
        k(   78) = (   0.0839208   0.1049010   0.1049010), wk =   0.0277778
        k(   79) = (   0.0839208   0.1049010  -0.1258812), wk =   0.0277778
        k(   80) = (   0.0839208  -0.1258812  -0.1258812), wk =   0.0069444
        k(   81) = (   0.1049010   0.1049010   0.1049010), wk =   0.0092593
        k(   82) = (   0.1049010   0.1049010  -0.1258812), wk =   0.0138889
        k(   83) = (   0.1049010  -0.1258812  -0.1258812), wk =   0.0069444
        k(   84) = (  -0.1258812  -0.1258812  -0.1258812), wk =   0.0011574

     Largest allocated arrays     est. size (Mb)     dimensions
     Largest temporary arrays     est. size (Mb)     dimensions

     Initial potential from superposition of free atoms
     Check: negative starting charge=   -0.076832

     starting charge   57.49680, renormalised to   58.00000

     negative rho (up, down):  7.750E-02 0.000E+00

     *
     * You are using vdW-DF for exchange-correlation in this calculation.
     * Please cite the following three references that made this development
     * possible:
     *
     *   M. Dion, H. Rydberg, E. Schroder, D. C. Langreth, and
     *   B. I. Lundqvist, Phys. Rev. Lett. 92, 246401 (2004).
     *
     *   T. Thonhauser, V. R. Cooper, S. Li, A. Puzder, P. Hyldgaard, and
     *   D. C. Langreth, Phys. Rev. B 76, 125112 (2007).
     *
     *   G. Roman-Perez and J. M. Soler, Phys. Rev. Lett. 103, 096102 (2009).
     *
     *
     * If you are using vdW-DF2, please also cite:
     *
     *   K. Lee, E. D. Murray, L. Kong, B. I. Lundqvist, and
     *   D. C. Langreth, Phys. Rev. B 82, 081101(R) (2010).
     *
     *
     * If you are calculating the stress with vdW-DF, please also cite:
     *
     *   R. Sabatini, E. Kucukbenli, B. Kolb, T. Thonhauser, and
     *   S. de Gironcoli, J. Phys.: Condens. Matter 24, 424209 (2012).
     *

     Carrying out vdW-DF run using the following parameters:

     Nqs =      20    Nr_points =    1024   r_max =   100.000
     q_mesh =
               0.00001000     0.04494208     0.09755937     0.15916263
               0.23128650     0.31572767     0.41458969     0.53033537
               0.66584808     0.82450364     1.01025438     1.22772762
               1.48234092     1.78043706     2.12944203     2.53805004
               3.01644009     3.57652955     4.23227104     5.00000000

     Gradients computed in reciprocal space

     Starting wfc are   51 randomized atomic wfcs

     Self-consistent Calculation

     iteration #  1     ecut=    58.80 Ry     beta=0.10
     Davidson diagonalization with overlap
     ethr =  1.00E-02,  avg # of iterations =  4.6

[...]

     total energy              =    -620.01660110 Ry
     Harris-Foulkes estimate   =    -620.39358829 Ry
     estimated scf accuracy    <       7.47338217 Ry

[...]

     total energy              =    -619.80938213 Ry
     Harris-Foulkes estimate   =    -619.80938174 Ry
     estimated scf accuracy    <          9.1E-09 Ry

     iteration # 16     ecut=    58.80 Ry     beta=0.10
     Davidson diagonalization with overlap
     ethr =  1.58E-11,  avg # of iterations =  1.0

     negative rho (up, down):  8.294E-02 0.000E+00

     End of self-consistent calculation

          k = 0.0000 0.0000 0.0000 (  3191 PWs)   bands (ev):

   -41.1900 -40.9545 -40.9545 -30.9028 -30.9028 -30.9028 -15.5369 -15.5369
   -15.5369 -14.9971 -14.9971 -14.9971 -14.6446 -14.6446 -14.6446  12.9811
    14.4796  14.4796  14.7616  14.9948  14.9948  14.9948  18.0778  18.0778
    18.0778  19.7669  19.7669  22.2332  22.2332  22.2332  22.8652  22.8652
    23.5905  23.5905  23.5905  23.7954  24.4244  24.4244  24.4244  31.8036
    31.8036  31.8036  32.6029  33.3872  33.3872  33.3872  33.4157  33.4157
    33.9147

[...]

          k = 0.1049-0.1259-0.1259 (  3212 PWs)   bands (ev):

[...]

          k =-0.1259-0.1259-0.1259 (  3184 PWs)   bands (ev):

   -41.0315 -41.0315 -41.0315 -30.9054 -30.9054 -30.9054 -15.8273 -15.4722
   -15.4722 -15.4722 -14.6959 -14.6959 -14.6959 -14.6571 -14.6571  14.8072
    14.8072  14.8072  14.8469  16.7481  16.7481  17.8819  17.8819  17.8819
    18.9534  18.9534  18.9534  21.0505  21.0505  21.0505  21.5957  22.0174
    22.0174  22.0174  22.4923  22.4923  23.8382  23.8382  23.8382  29.1619
    30.3610  30.3610  30.3610  33.3756  33.5642  33.5642  33.5642  38.4149
    38.4149

     the Fermi energy is    19.9159 ev

!    total energy              =    -619.80938379 Ry
     Harris-Foulkes estimate   =    -619.80938213 Ry
     estimated scf accuracy    <          3.0E-09 Ry

     The total energy is the sum of the following terms:

     one-electron contribution =    -105.14814454 Ry
     hartree contribution      =      92.68481951 Ry
     xc contribution           =     -92.73133160 Ry
     ewald contribution        =    -514.60667270 Ry
     smearing contrib. (-TS)   =      -0.00805445 Ry

     convergence has been achieved in  16 iterations

     Forces acting on atoms (Ry/au):

     negative rho (up, down):  8.294E-02 0.000E+00
     atom    1 type  1   force =     0.00000000    0.00000000    0.00000000
     atom    2 type  1   force =     0.00000000    0.00000000    0.00000000
     atom    3 type  1   force =     0.00000000    0.00000000    0.00000000
     atom    4 type  2   force =     0.00000000    0.00000000    0.00000000

     Total force =     0.000000     Total SCF correction =     0.000000
 !ASE

     General routines

     Parallel routines

   This run was terminated on:  20: 2:43  25Oct2017

   JOB DONE.