     Program PWSCF v.5.1rc2 (svn rev. ) starts on 25Oct2017 at 15:46:48

     Current dimensions of program PWSCF are:
     Max number of different atomic species (ntypx) = 10
     Max number of k-points (npk) =  40000
     Max angular momentum in pseudopotentials (lmaxx) =  3

     IMPORTANT: XC functional enforced from input :
     Exchange-correlation      = BEEF-VDW ( 1  4 27 13 2)
     Any further DFT definition will be discarded
     Please, verify this is what you really want

     Subspace diagonalization in iterative solution of the eigenvalue problem:
     a serial algorithm will be used

     bravais-lattice index     =            0
     lattice parameter (alat)  =       1.8897  a.u.
     unit-cell volume          =     452.7041 (a.u.)^3
     number of atoms/cell      =            4
     number of atomic types    =            2
     number of electrons       =        59.00
     number of Kohn-Sham states=           49
     kinetic-energy cutoff     =      58.7989  Ry
     charge density cutoff     =     587.9892  Ry
     convergence threshold     =      7.3E-09
     mixing beta               =       0.1000
     number of iterations used =           10  local-TF  mixing
     Exchange-correlation      = BEEF-VDW ( 1  4 27 13 2)
     nstep                     =           50

     celldm(1)=   1.889726  celldm(2)=   0.000000  celldm(3)=   0.000000
     celldm(4)=   0.000000  celldm(5)=   0.000000  celldm(6)=   0.000000

     crystal axes: (cart. coord. in units of alat)
               a(1) = (   4.063241   0.000000   0.000000 )
               a(2) = (   0.000000   4.063241   0.000000 )
               a(3) = (   0.000000   0.000000   4.063241 )

     reciprocal axes: (cart. coord. in units 2 pi/alat)
               b(1) = (  0.246109  0.000000  0.000000 )
               b(2) = (  0.000000  0.246109  0.000000 )
               b(3) = (  0.000000  0.000000  0.246109 )

     PseudoPot. # 1 for Ir read from file:
     /home/vossj/suncat/psp/gbrv1.5pbe/Ir.UPF
     MD5 check sum: 8836f839c3459d2b385c504ce6d91f2c
     Pseudo is Ultrasoft + core correction, Zval = 15.0
     Generated by new atomic code, or converted to UPF format
     Using radial grid of  983 points,  7 beta functions with:
                l(1) =   0
                l(2) =   0
                l(3) =   1
                l(4) =   1
                l(5) =   1
                l(6) =   2
                l(7) =   2
     Q(r) pseudized with  8 coefficients,  rinner =    1.400   1.400   1.400
                                                       1.400   1.400

     PseudoPot. # 2 for Pb read from file:
     /home/vossj/suncat/psp/gbrv1.5pbe/Pb.UPF
     MD5 check sum: 3d1c1779aa92214d1e8f3a7db79003e2
     Pseudo is Ultrasoft + core correction, Zval = 14.0
     Generated by new atomic code, or converted to UPF format
     Using radial grid of  899 points,  6 beta functions with:
                l(1) =   0
                l(2) =   0
                l(3) =   1
                l(4) =   1
                l(5) =   2
                l(6) =   2
     Q(r) pseudized with  6 coefficients,  rinner =    1.000   1.000   1.000
                                                       1.000   1.000

     vdW kernel table read from file vdW_kernel_table
     MD5 check sum: 095c7af220d748ca6e76c0b4c6cfb241

     atomic species   valence    mass     pseudopotential
        Ir1           15.00   192.21700     Ir( 1.00)
        Pb1           14.00   207.20000     Pb( 1.00)

     48 Sym. Ops., with inversion, found (32 have fractional translation)

   Cartesian axes

     site n.     atom                  positions (alat units)
         1           Ir1 tau(   1) = (   0.0000000   0.0000000   0.0000000  )
         2           Ir1 tau(   2) = (   0.0000000   2.0316207   2.0316207  )
         3           Ir1 tau(   3) = (   2.0316207   0.0000000   2.0316207  )
         4           Pb1 tau(   4) = (   2.0316207   2.0316207   0.0000000  )

     number of k points=    84  Fermi-Dirac smearing, width (Ry)=  0.0073
                       cart. coord. in units 2pi/alat
        k(    1) = (   0.0000000   0.0000000   0.0000000), wk =   0.0011574
        k(    2) = (   0.0000000   0.0000000   0.0205091), wk =   0.0069444
        k(    3) = (   0.0000000   0.0000000   0.0410182), wk =   0.0069444
        k(    4) = (   0.0000000   0.0000000   0.0615272), wk =   0.0069444
        k(    5) = (   0.0000000   0.0000000   0.0820363), wk =   0.0069444
        k(    6) = (   0.0000000   0.0000000   0.1025454), wk =   0.0069444
        k(    7) = (   0.0000000   0.0000000  -0.1230545), wk =   0.0034722
        k(    8) = (   0.0000000   0.0205091   0.0205091), wk =   0.0138889
        k(    9) = (   0.0000000   0.0205091   0.0410182), wk =   0.0277778
        k(   10) = (   0.0000000   0.0205091   0.0615272), wk =   0.0277778
        k(   11) = (   0.0000000   0.0205091   0.0820363), wk =   0.0277778
        k(   12) = (   0.0000000   0.0205091   0.1025454), wk =   0.0277778
        k(   13) = (   0.0000000   0.0205091  -0.1230545), wk =   0.0138889
        k(   14) = (   0.0000000   0.0410182   0.0410182), wk =   0.0138889
        k(   15) = (   0.0000000   0.0410182   0.0615272), wk =   0.0277778
        k(   16) = (   0.0000000   0.0410182   0.0820363), wk =   0.0277778
        k(   17) = (   0.0000000   0.0410182   0.1025454), wk =   0.0277778
        k(   18) = (   0.0000000   0.0410182  -0.1230545), wk =   0.0138889
        k(   19) = (   0.0000000   0.0615272   0.0615272), wk =   0.0138889
        k(   20) = (   0.0000000   0.0615272   0.0820363), wk =   0.0277778
        k(   21) = (   0.0000000   0.0615272   0.1025454), wk =   0.0277778
        k(   22) = (   0.0000000   0.0615272  -0.1230545), wk =   0.0138889
        k(   23) = (   0.0000000   0.0820363   0.0820363), wk =   0.0138889
        k(   24) = (   0.0000000   0.0820363   0.1025454), wk =   0.0277778
        k(   25) = (   0.0000000   0.0820363  -0.1230545), wk =   0.0138889
        k(   26) = (   0.0000000   0.1025454   0.1025454), wk =   0.0138889
        k(   27) = (   0.0000000   0.1025454  -0.1230545), wk =   0.0138889
        k(   28) = (   0.0000000  -0.1230545  -0.1230545), wk =   0.0034722
        k(   29) = (   0.0205091   0.0205091   0.0205091), wk =   0.0092593
        k(   30) = (   0.0205091   0.0205091   0.0410182), wk =   0.0277778
        k(   31) = (   0.0205091   0.0205091   0.0615272), wk =   0.0277778
        k(   32) = (   0.0205091   0.0205091   0.0820363), wk =   0.0277778
        k(   33) = (   0.0205091   0.0205091   0.1025454), wk =   0.0277778
        k(   34) = (   0.0205091   0.0205091  -0.1230545), wk =   0.0138889
        k(   35) = (   0.0205091   0.0410182   0.0410182), wk =   0.0277778
        k(   36) = (   0.0205091   0.0410182   0.0615272), wk =   0.0555556
        k(   37) = (   0.0205091   0.0410182   0.0820363), wk =   0.0555556
        k(   38) = (   0.0205091   0.0410182   0.1025454), wk =   0.0555556
        k(   39) = (   0.0205091   0.0410182  -0.1230545), wk =   0.0277778
        k(   40) = (   0.0205091   0.0615272   0.0615272), wk =   0.0277778
        k(   41) = (   0.0205091   0.0615272   0.0820363), wk =   0.0555556
        k(   42) = (   0.0205091   0.0615272   0.1025454), wk =   0.0555556
        k(   43) = (   0.0205091   0.0615272  -0.1230545), wk =   0.0277778
        k(   44) = (   0.0205091   0.0820363   0.0820363), wk =   0.0277778
        k(   45) = (   0.0205091   0.0820363   0.1025454), wk =   0.0555556
        k(   46) = (   0.0205091   0.0820363  -0.1230545), wk =   0.0277778
        k(   47) = (   0.0205091   0.1025454   0.1025454), wk =   0.0277778
        k(   48) = (   0.0205091   0.1025454  -0.1230545), wk =   0.0277778
        k(   49) = (   0.0205091  -0.1230545  -0.1230545), wk =   0.0069444
        k(   50) = (   0.0410182   0.0410182   0.0410182), wk =   0.0092593
        k(   51) = (   0.0410182   0.0410182   0.0615272), wk =   0.0277778
        k(   52) = (   0.0410182   0.0410182   0.0820363), wk =   0.0277778
        k(   53) = (   0.0410182   0.0410182   0.1025454), wk =   0.0277778
        k(   54) = (   0.0410182   0.0410182  -0.1230545), wk =   0.0138889
        k(   55) = (   0.0410182   0.0615272   0.0615272), wk =   0.0277778
        k(   56) = (   0.0410182   0.0615272   0.0820363), wk =   0.0555556
        k(   57) = (   0.0410182   0.0615272   0.1025454), wk =   0.0555556
        k(   58) = (   0.0410182   0.0615272  -0.1230545), wk =   0.0277778
        k(   59) = (   0.0410182   0.0820363   0.0820363), wk =   0.0277778
        k(   60) = (   0.0410182   0.0820363   0.1025454), wk =   0.0555556
[...]
        k(   70) = (   0.0615272   0.0820363   0.1025454), wk =   0.0555556
        k(   71) = (   0.0615272   0.0820363  -0.1230545), wk =   0.0277778
        k(   72) = (   0.0615272   0.1025454   0.1025454), wk =   0.0277778
        k(   73) = (   0.0615272   0.1025454  -0.1230545), wk =   0.0277778
        k(   74) = (   0.0615272  -0.1230545  -0.1230545), wk =   0.0069444
        k(   75) = (   0.0820363   0.0820363   0.0820363), wk =   0.0092593
        k(   76) = (   0.0820363   0.0820363   0.1025454), wk =   0.0277778
        k(   77) = (   0.0820363   0.0820363  -0.1230545), wk =   0.0138889
        k(   78) = (   0.0820363   0.1025454   0.1025454), wk =   0.0277778
        k(   79) = (   0.0820363   0.1025454  -0.1230545), wk =   0.0277778
        k(   80) = (   0.0820363  -0.1230545  -0.1230545), wk =   0.0069444
        k(   81) = (   0.1025454   0.1025454   0.1025454), wk =   0.0092593
        k(   82) = (   0.1025454   0.1025454  -0.1230545), wk =   0.0138889
        k(   83) = (   0.1025454  -0.1230545  -0.1230545), wk =   0.0069444
        k(   84) = (  -0.1230545  -0.1230545  -0.1230545), wk =   0.0011574

     Largest allocated arrays     est. size (Mb)     dimensions
     Largest temporary arrays     est. size (Mb)     dimensions

     Initial potential from superposition of free atoms
     Check: negative starting charge=   -1.098453

     starting charge   57.49755, renormalised to   59.00000

     negative rho (up, down):  1.127E+00 0.000E+00

     *
     * You are using vdW-DF for exchange-correlation in this calculation.
     * Please cite the following three references that made this development
     * possible:
     *
     *   M. Dion, H. Rydberg, E. Schroder, D. C. Langreth, and
     *   B. I. Lundqvist, Phys. Rev. Lett. 92, 246401 (2004).
     *
     *   T. Thonhauser, V. R. Cooper, S. Li, A. Puzder, P. Hyldgaard, and
     *   D. C. Langreth, Phys. Rev. B 76, 125112 (2007).
     *
     *   G. Roman-Perez and J. M. Soler, Phys. Rev. Lett. 103, 096102 (2009).
     *
     *
     * If you are using vdW-DF2, please also cite:
     *
     *   K. Lee, E. D. Murray, L. Kong, B. I. Lundqvist, and
     *   D. C. Langreth, Phys. Rev. B 82, 081101(R) (2010).
     *
     *
     * If you are calculating the stress with vdW-DF, please also cite:
     *
     *   R. Sabatini, E. Kucukbenli, B. Kolb, T. Thonhauser, and
     *   S. de Gironcoli, J. Phys.: Condens. Matter 24, 424209 (2012).
     *

     Carrying out vdW-DF run using the following parameters:

     Nqs =      20    Nr_points =    1024   r_max =   100.000
     q_mesh =
               0.00001000     0.04494208     0.09755937     0.15916263
               0.23128650     0.31572767     0.41458969     0.53033537
               0.66584808     0.82450364     1.01025438     1.22772762
               1.48234092     1.78043706     2.12944203     2.53805004
               3.01644009     3.57652955     4.23227104     5.00000000

     Gradients computed in reciprocal space

     Starting wfc are   45 randomized atomic wfcs +    4 random wfc

     Self-consistent Calculation

     iteration #  1     ecut=    58.80 Ry     beta=0.10
     Davidson diagonalization with overlap
     ethr =  1.00E-02,  avg # of iterations =  4.3

[...]

     total energy              =    -716.36436298 Ry
     Harris-Foulkes estimate   =    -716.46840389 Ry
     estimated scf accuracy    <       1.64014768 Ry

[...]

     total energy              =    -715.97404123 Ry
     Harris-Foulkes estimate   =    -715.97401309 Ry
     estimated scf accuracy    <       0.00000006 Ry

     iteration # 13     ecut=    58.80 Ry     beta=0.10
     Davidson diagonalization with overlap
     ethr =  9.73E-11,  avg # of iterations =  2.0

     negative rho (up, down):  1.004E+00 0.000E+00

     End of self-consistent calculation

          k = 0.0000 0.0000 0.0000 (  3407 PWs)   bands (ev):

   -28.8656 -28.8656 -28.8656 -28.6752 -28.6752 -28.6752 -28.5805 -28.5805
   -28.5805   2.9644   2.9644   3.0154   3.0154   3.0154   8.3476  13.8750
    15.6632  15.6632  15.6632  15.7042  15.7042  18.8714  18.8714  18.8714
    19.7913  19.7913  19.7913  20.1181  20.1181  21.0225  21.5554  21.5554
    21.5554  22.6178  27.6721  27.6721  28.5767  28.5767  28.5767  30.4580
    30.4580  30.4580  31.2907  31.6669  31.6694  31.6694  33.4652  37.2799
    37.2799

[...]

          k = 0.1025-0.1231-0.1231 (  3440 PWs)   bands (ev):

[...]

          k =-0.1231-0.1231-0.1231 (  3448 PWs)   bands (ev):

   -28.9700 -28.8219 -28.8219 -28.8219 -28.6104 -28.6104 -28.5761 -28.5761
   -28.5761   2.9727   2.9727   2.9727   3.1208   3.1208  10.3932  14.9560
    14.9560  14.9560  17.3057  17.3057  17.3057  17.5508  17.5508  17.5508
    18.7787  18.7787  18.7787  19.3944  19.3944  20.0934  21.0944  21.0944
    21.0944  21.1780  25.0489  25.0489  25.0489  31.2797  31.6681  31.6681
    31.6681  32.6448  32.6448  32.6448  33.4126  35.0352  35.0352  35.0352
    37.0515

     the Fermi energy is    19.9898 ev

!    total energy              =    -715.97416104 Ry
     Harris-Foulkes estimate   =    -715.97404124 Ry
     estimated scf accuracy    <          8.4E-10 Ry

     The total energy is the sum of the following terms:

     one-electron contribution =     -55.65609989 Ry
     hartree contribution      =      81.21868434 Ry
     xc contribution           =    -221.66894370 Ry
     ewald contribution        =    -519.85575158 Ry
     smearing contrib. (-TS)   =      -0.01205020 Ry

     convergence has been achieved in  13 iterations

     Forces acting on atoms (Ry/au):

     negative rho (up, down):  1.004E+00 0.000E+00
     atom    1 type  1   force =     0.00000000    0.00000000    0.00000000
     atom    2 type  1   force =     0.00000000    0.00000000    0.00000000
     atom    3 type  1   force =     0.00000000    0.00000000    0.00000000
     atom    4 type  2   force =     0.00000000    0.00000000    0.00000000

     Total force =     0.000000     Total SCF correction =     0.000000
 !ASE

     General routines

     Parallel routines

   This run was terminated on:  15:47:58  25Oct2017

   JOB DONE.