     Program PWSCF v.5.1rc2 (svn rev. ) starts on 25Oct2017 at 14:10:58

     Current dimensions of program PWSCF are:
     Max number of different atomic species (ntypx) = 10
     Max number of k-points (npk) =  40000
     Max angular momentum in pseudopotentials (lmaxx) =  3

     IMPORTANT: XC functional enforced from input :
     Exchange-correlation      = BEEF-VDW ( 1  4 27 13 2)
     Any further DFT definition will be discarded
     Please, verify this is what you really want

     Subspace diagonalization in iterative solution of the eigenvalue problem:
     a serial algorithm will be used

     bravais-lattice index     =            0
     lattice parameter (alat)  =       1.8897  a.u.
     unit-cell volume          =     764.1281 (a.u.)^3
     number of atoms/cell      =            4
     number of atomic types    =            2
     number of electrons       =        49.00
     number of Kohn-Sham states=           44
     kinetic-energy cutoff     =      58.7989  Ry
     charge density cutoff     =     587.9892  Ry
     convergence threshold     =      7.3E-09
     mixing beta               =       0.1000
     number of iterations used =           10  local-TF  mixing
     Exchange-correlation      = BEEF-VDW ( 1  4 27 13 2)
     nstep                     =           50

     celldm(1)=   1.889726  celldm(2)=   0.000000  celldm(3)=   0.000000
     celldm(4)=   0.000000  celldm(5)=   0.000000  celldm(6)=   0.000000

     crystal axes: (cart. coord. in units of alat)
               a(1) = (   4.837896   0.000000   0.000000 )
               a(2) = (   0.000000   4.837896   0.000000 )
               a(3) = (   0.000000   0.000000   4.837896 )

     reciprocal axes: (cart. coord. in units 2 pi/alat)
               b(1) = (  0.206701  0.000000  0.000000 )
               b(2) = (  0.000000  0.206701  0.000000 )
               b(3) = (  0.000000  0.000000  0.206701 )

     PseudoPot. # 1 for La read from file:
     /home/vossj/suncat/psp/gbrv1.5pbe/La.UPF
     MD5 check sum: 5937b0c7494ba0601a847275249473aa
     Pseudo is Ultrasoft + core correction, Zval = 11.0
     Generated by new atomic code, or converted to UPF format
     Using radial grid of  995 points,  8 beta functions with:
                l(1) =   0
                l(2) =   0
                l(3) =   1
                l(4) =   1
                l(5) =   2
                l(6) =   2
                l(7) =   3
                l(8) =   3
     Q(r) pseudized with  8 coefficients,  rinner =    1.700   1.700   1.700
                                                       1.700   1.700   1.700
                                                       1.700

     PseudoPot. # 2 for Ru read from file:
     /home/vossj/suncat/psp/gbrv1.5pbe/Ru.UPF
     MD5 check sum: 7158a806dd851261a58e6920c40ebe78
     Pseudo is Ultrasoft + core correction, Zval = 16.0
     Generated by new atomic code, or converted to UPF format
     Using radial grid of  967 points,  6 beta functions with:
                l(1) =   0
                l(2) =   0
                l(3) =   1
                l(4) =   1
                l(5) =   2
                l(6) =   2
     Q(r) pseudized with  8 coefficients,  rinner =    1.300   1.300   1.300
                                                       1.300   1.300

     vdW kernel table read from file vdW_kernel_table
     MD5 check sum: 095c7af220d748ca6e76c0b4c6cfb241

     atomic species   valence    mass     pseudopotential
        La1           11.00   138.90547     La( 1.00)
        Ru1           16.00   101.07000     Ru( 1.00)

     48 Sym. Ops., with inversion, found (32 have fractional translation)

   Cartesian axes

     site n.     atom                  positions (alat units)
         1           La1 tau(   1) = (   0.0000000   0.0000000   0.0000000  )
         2           La1 tau(   2) = (   0.0000000   2.4189479   2.4189479  )
         3           La1 tau(   3) = (   2.4189479   0.0000000   2.4189479  )
         4           Ru1 tau(   4) = (   2.4189479   2.4189479   0.0000000  )

     number of k points=    84  Fermi-Dirac smearing, width (Ry)=  0.0073
                       cart. coord. in units 2pi/alat
        k(    1) = (   0.0000000   0.0000000   0.0000000), wk =   0.0011574
        k(    2) = (   0.0000000   0.0000000   0.0172251), wk =   0.0069444
        k(    3) = (   0.0000000   0.0000000   0.0344502), wk =   0.0069444
        k(    4) = (   0.0000000   0.0000000   0.0516754), wk =   0.0069444
        k(    5) = (   0.0000000   0.0000000   0.0689005), wk =   0.0069444
        k(    6) = (   0.0000000   0.0000000   0.0861256), wk =   0.0069444
        k(    7) = (   0.0000000   0.0000000  -0.1033507), wk =   0.0034722
        k(    8) = (   0.0000000   0.0172251   0.0172251), wk =   0.0138889
        k(    9) = (   0.0000000   0.0172251   0.0344502), wk =   0.0277778
        k(   10) = (   0.0000000   0.0172251   0.0516754), wk =   0.0277778
        k(   11) = (   0.0000000   0.0172251   0.0689005), wk =   0.0277778
        k(   12) = (   0.0000000   0.0172251   0.0861256), wk =   0.0277778
        k(   13) = (   0.0000000   0.0172251  -0.1033507), wk =   0.0138889
        k(   14) = (   0.0000000   0.0344502   0.0344502), wk =   0.0138889
        k(   15) = (   0.0000000   0.0344502   0.0516754), wk =   0.0277778
        k(   16) = (   0.0000000   0.0344502   0.0689005), wk =   0.0277778
        k(   17) = (   0.0000000   0.0344502   0.0861256), wk =   0.0277778
        k(   18) = (   0.0000000   0.0344502  -0.1033507), wk =   0.0138889
        k(   19) = (   0.0000000   0.0516754   0.0516754), wk =   0.0138889
        k(   20) = (   0.0000000   0.0516754   0.0689005), wk =   0.0277778
        k(   21) = (   0.0000000   0.0516754   0.0861256), wk =   0.0277778
        k(   22) = (   0.0000000   0.0516754  -0.1033507), wk =   0.0138889
        k(   23) = (   0.0000000   0.0689005   0.0689005), wk =   0.0138889
        k(   24) = (   0.0000000   0.0689005   0.0861256), wk =   0.0277778
        k(   25) = (   0.0000000   0.0689005  -0.1033507), wk =   0.0138889
        k(   26) = (   0.0000000   0.0861256   0.0861256), wk =   0.0138889
        k(   27) = (   0.0000000   0.0861256  -0.1033507), wk =   0.0138889
        k(   28) = (   0.0000000  -0.1033507  -0.1033507), wk =   0.0034722
        k(   29) = (   0.0172251   0.0172251   0.0172251), wk =   0.0092593
        k(   30) = (   0.0172251   0.0172251   0.0344502), wk =   0.0277778
        k(   31) = (   0.0172251   0.0172251   0.0516754), wk =   0.0277778
        k(   32) = (   0.0172251   0.0172251   0.0689005), wk =   0.0277778
        k(   33) = (   0.0172251   0.0172251   0.0861256), wk =   0.0277778
        k(   34) = (   0.0172251   0.0172251  -0.1033507), wk =   0.0138889
        k(   35) = (   0.0172251   0.0344502   0.0344502), wk =   0.0277778
        k(   36) = (   0.0172251   0.0344502   0.0516754), wk =   0.0555556
        k(   37) = (   0.0172251   0.0344502   0.0689005), wk =   0.0555556
        k(   38) = (   0.0172251   0.0344502   0.0861256), wk =   0.0555556
        k(   39) = (   0.0172251   0.0344502  -0.1033507), wk =   0.0277778
        k(   40) = (   0.0172251   0.0516754   0.0516754), wk =   0.0277778
        k(   41) = (   0.0172251   0.0516754   0.0689005), wk =   0.0555556
        k(   42) = (   0.0172251   0.0516754   0.0861256), wk =   0.0555556
        k(   43) = (   0.0172251   0.0516754  -0.1033507), wk =   0.0277778
        k(   44) = (   0.0172251   0.0689005   0.0689005), wk =   0.0277778
        k(   45) = (   0.0172251   0.0689005   0.0861256), wk =   0.0555556
        k(   46) = (   0.0172251   0.0689005  -0.1033507), wk =   0.0277778
        k(   47) = (   0.0172251   0.0861256   0.0861256), wk =   0.0277778
        k(   48) = (   0.0172251   0.0861256  -0.1033507), wk =   0.0277778
        k(   49) = (   0.0172251  -0.1033507  -0.1033507), wk =   0.0069444
        k(   50) = (   0.0344502   0.0344502   0.0344502), wk =   0.0092593
        k(   51) = (   0.0344502   0.0344502   0.0516754), wk =   0.0277778
        k(   52) = (   0.0344502   0.0344502   0.0689005), wk =   0.0277778
        k(   53) = (   0.0344502   0.0344502   0.0861256), wk =   0.0277778
        k(   54) = (   0.0344502   0.0344502  -0.1033507), wk =   0.0138889
        k(   55) = (   0.0344502   0.0516754   0.0516754), wk =   0.0277778
        k(   56) = (   0.0344502   0.0516754   0.0689005), wk =   0.0555556
        k(   57) = (   0.0344502   0.0516754   0.0861256), wk =   0.0555556
        k(   58) = (   0.0344502   0.0516754  -0.1033507), wk =   0.0277778
        k(   59) = (   0.0344502   0.0689005   0.0689005), wk =   0.0277778
        k(   60) = (   0.0344502   0.0689005   0.0861256), wk =   0.0555556
[...]
        k(   70) = (   0.0516754   0.0689005   0.0861256), wk =   0.0555556
        k(   71) = (   0.0516754   0.0689005  -0.1033507), wk =   0.0277778
        k(   72) = (   0.0516754   0.0861256   0.0861256), wk =   0.0277778
        k(   73) = (   0.0516754   0.0861256  -0.1033507), wk =   0.0277778
        k(   74) = (   0.0516754  -0.1033507  -0.1033507), wk =   0.0069444
        k(   75) = (   0.0689005   0.0689005   0.0689005), wk =   0.0092593
        k(   76) = (   0.0689005   0.0689005   0.0861256), wk =   0.0277778
        k(   77) = (   0.0689005   0.0689005  -0.1033507), wk =   0.0138889
        k(   78) = (   0.0689005   0.0861256   0.0861256), wk =   0.0277778
        k(   79) = (   0.0689005   0.0861256  -0.1033507), wk =   0.0277778
        k(   80) = (   0.0689005  -0.1033507  -0.1033507), wk =   0.0069444
        k(   81) = (   0.0861256   0.0861256   0.0861256), wk =   0.0092593
        k(   82) = (   0.0861256   0.0861256  -0.1033507), wk =   0.0138889
        k(   83) = (   0.0861256  -0.1033507  -0.1033507), wk =   0.0069444
        k(   84) = (  -0.1033507  -0.1033507  -0.1033507), wk =   0.0011574

     Largest allocated arrays     est. size (Mb)     dimensions
     Largest temporary arrays     est. size (Mb)     dimensions

     Initial potential from superposition of free atoms
     Check: negative starting charge=   -0.280071

     starting charge   47.90378, renormalised to   49.00000

     negative rho (up, down):  2.865E-01 0.000E+00

     *
     * You are using vdW-DF for exchange-correlation in this calculation.
     * Please cite the following three references that made this development
     * possible:
     *
     *   M. Dion, H. Rydberg, E. Schroder, D. C. Langreth, and
     *   B. I. Lundqvist, Phys. Rev. Lett. 92, 246401 (2004).
     *
     *   T. Thonhauser, V. R. Cooper, S. Li, A. Puzder, P. Hyldgaard, and
     *   D. C. Langreth, Phys. Rev. B 76, 125112 (2007).
     *
     *   G. Roman-Perez and J. M. Soler, Phys. Rev. Lett. 103, 096102 (2009).
     *
     *
     * If you are using vdW-DF2, please also cite:
     *
     *   K. Lee, E. D. Murray, L. Kong, B. I. Lundqvist, and
     *   D. C. Langreth, Phys. Rev. B 82, 081101(R) (2010).
     *
     *
     * If you are calculating the stress with vdW-DF, please also cite:
     *
     *   R. Sabatini, E. Kucukbenli, B. Kolb, T. Thonhauser, and
     *   S. de Gironcoli, J. Phys.: Condens. Matter 24, 424209 (2012).
     *

     Carrying out vdW-DF run using the following parameters:

     Nqs =      20    Nr_points =    1024   r_max =   100.000
     q_mesh =
               0.00001000     0.04494208     0.09755937     0.15916263
               0.23128650     0.31572767     0.41458969     0.53033537
               0.66584808     0.82450364     1.01025438     1.22772762
               1.48234092     1.78043706     2.12944203     2.53805004
               3.01644009     3.57652955     4.23227104     5.00000000

     Gradients computed in reciprocal space

     Starting wfc are   73 randomized atomic wfcs

     Self-consistent Calculation

     iteration #  1     ecut=    58.80 Ry     beta=0.10
     Davidson diagonalization with overlap
     ethr =  1.00E-02,  avg # of iterations =  2.0

     Threshold (ethr) on eigenvalues was too large:
     Diagonalizing with lowered threshold

     Davidson diagonalization with overlap
     ethr =  4.48E-04,  avg # of iterations =  1.9

[...]

     total energy              =    -507.27935864 Ry
     Harris-Foulkes estimate   =    -507.29220802 Ry
     estimated scf accuracy    <       0.22873752 Ry

[...]

     total energy              =    -507.21032660 Ry
     Harris-Foulkes estimate   =    -507.21029175 Ry
     estimated scf accuracy    <       0.00000021 Ry

     iteration # 14     ecut=    58.80 Ry     beta=0.10
     Davidson diagonalization with overlap
     ethr =  3.51E-10,  avg # of iterations =  2.1

     negative rho (up, down):  2.025E-01 0.000E+00

     End of self-consistent calculation

          k = 0.0000 0.0000 0.0000 (  5743 PWs)   bands (ev):

   -58.1752 -28.1412 -28.1412 -28.1412 -19.3700 -18.8560 -18.8560  -3.6948
    -3.6948  -3.6948  -2.4692  -2.4692  -2.4692  -1.8940  -1.8940  -1.8940
     9.9379  10.7315  11.1934  11.1934  11.5067  11.5067  11.5067  14.0031
    14.0031  14.0031  15.2523  15.2911  15.2911  15.5672  15.5672  15.5672
    15.7555  15.7555  15.7555  15.8411  15.8411  15.8411  16.1032  16.1032
    16.1032  16.2603  16.2603  16.2603

[...]

          k = 0.0861-0.1034-0.1034 (  5848 PWs)   bands (ev):

[...]

          k =-0.1034-0.1034-0.1034 (  5832 PWs)   bands (ev):

   -58.1752 -28.1416 -28.1416 -28.1416 -19.0243 -19.0243 -19.0243  -4.4025
    -3.5053  -3.5053  -3.5053  -1.9948  -1.9948  -1.8462  -1.8462  -1.8462
    10.5131  11.6188  11.6188  11.6188  12.8689  12.8689  13.7563  13.7563
    13.7563  14.9907  15.2375  15.2375  15.2375  15.2541  15.2541  15.2541
    15.5731  15.5731  15.5731  15.7190  15.7191  16.0065  16.0065  16.0065
    16.2550  16.2550  16.2550  16.3978

     the Fermi energy is    13.7965 ev

!    total energy              =    -507.21046543 Ry
     Harris-Foulkes estimate   =    -507.21032666 Ry
     estimated scf accuracy    <          6.0E-09 Ry

     The total energy is the sum of the following terms:

     one-electron contribution =     -93.96667103 Ry
     hartree contribution      =      71.87983434 Ry
     xc contribution           =    -179.46024958 Ry
     ewald contribution        =    -305.64967922 Ry
     smearing contrib. (-TS)   =      -0.01369994 Ry

     convergence has been achieved in  14 iterations

     Forces acting on atoms (Ry/au):

     negative rho (up, down):  2.025E-01 0.000E+00
     atom    1 type  1   force =     0.00000000    0.00000000   -0.00000000
     atom    2 type  1   force =     0.00000000    0.00000000    0.00000000
     atom    3 type  1   force =     0.00000000    0.00000000    0.00000000
     atom    4 type  2   force =     0.00000000    0.00000000    0.00000000

     Total force =     0.000000     Total SCF correction =     0.000000
 !ASE

     General routines

     Parallel routines

   This run was terminated on:  14:12:46  25Oct2017

   JOB DONE.