     Program PWSCF v.5.1rc2 (svn rev. ) starts on 25Oct2017 at 18:11:49

     Current dimensions of program PWSCF are:
     Max number of different atomic species (ntypx) = 10
     Max number of k-points (npk) =  40000
     Max angular momentum in pseudopotentials (lmaxx) =  3

     IMPORTANT: XC functional enforced from input :
     Exchange-correlation      = BEEF-VDW ( 1  4 27 13 2)
     Any further DFT definition will be discarded
     Please, verify this is what you really want

     Subspace diagonalization in iterative solution of the eigenvalue problem:
     a serial algorithm will be used

     bravais-lattice index     =            0
     lattice parameter (alat)  =       1.8897  a.u.
     unit-cell volume          =     428.2087 (a.u.)^3
     number of atoms/cell      =            4
     number of atomic types    =            2
     number of electrons       =        56.00
     number of Kohn-Sham states=           48
     kinetic-energy cutoff     =      58.7989  Ry
     charge density cutoff     =     587.9892  Ry
     convergence threshold     =      7.3E-09
     mixing beta               =       0.1000
     number of iterations used =           10  local-TF  mixing
     Exchange-correlation      = BEEF-VDW ( 1  4 27 13 2)
     nstep                     =           50

     celldm(1)=   1.889726  celldm(2)=   0.000000  celldm(3)=   0.000000
     celldm(4)=   0.000000  celldm(5)=   0.000000  celldm(6)=   0.000000

     crystal axes: (cart. coord. in units of alat)
               a(1) = (   3.988592   0.000000   0.000000 )
               a(2) = (   0.000000   3.988592   0.000000 )
               a(3) = (   0.000000   0.000000   3.988592 )

     reciprocal axes: (cart. coord. in units 2 pi/alat)
               b(1) = (  0.250715  0.000000  0.000000 )
               b(2) = (  0.000000  0.250715  0.000000 )
               b(3) = (  0.000000  0.000000  0.250715 )

     PseudoPot. # 1 for Tc read from file:
     /home/vossj/suncat/psp/gbrv1.5pbe/Tc.UPF
     MD5 check sum: 9eb49e5b028550b2339a02317eb7b844
     Pseudo is Ultrasoft + core correction, Zval = 15.0
     Generated by new atomic code, or converted to UPF format
     Using radial grid of  965 points,  6 beta functions with:
                l(1) =   0
                l(2) =   0
                l(3) =   1
                l(4) =   1
                l(5) =   2
                l(6) =   2
     Q(r) pseudized with  8 coefficients,  rinner =    1.300   1.300   1.300
                                                       1.300   1.300

     PseudoPot. # 2 for Sc read from file:
     /home/vossj/suncat/psp/gbrv1.5pbe/Sc.UPF
     MD5 check sum: db30a2753ba66ef00f23801d899b7e7f
     Pseudo is Ultrasoft + core correction, Zval = 11.0
     Generated by new atomic code, or converted to UPF format
     Using radial grid of  849 points,  6 beta functions with:
                l(1) =   0
                l(2) =   0
                l(3) =   1
                l(4) =   1
                l(5) =   2
                l(6) =   2
     Q(r) pseudized with  6 coefficients,  rinner =    1.200   1.200   1.200
                                                       1.200   1.200

     vdW kernel table read from file vdW_kernel_table
     MD5 check sum: 095c7af220d748ca6e76c0b4c6cfb241

     atomic species   valence    mass     pseudopotential
        Tc1           15.00    97.90721     Tc( 1.00)
        Sc1           11.00    44.95591     Sc( 1.00)

     48 Sym. Ops., with inversion, found (32 have fractional translation)

   Cartesian axes

     site n.     atom                  positions (alat units)
         1           Tc1 tau(   1) = (   0.0000000   0.0000000   0.0000000  )
         2           Tc1 tau(   2) = (   0.0000000   1.9942960   1.9942960  )
         3           Tc1 tau(   3) = (   1.9942960   0.0000000   1.9942960  )
         4           Sc1 tau(   4) = (   1.9942960   1.9942960   0.0000000  )

     number of k points=    84  Fermi-Dirac smearing, width (Ry)=  0.0073
                       cart. coord. in units 2pi/alat
        k(    1) = (   0.0000000   0.0000000   0.0000000), wk =   0.0011574
        k(    2) = (   0.0000000   0.0000000   0.0208929), wk =   0.0069444
        k(    3) = (   0.0000000   0.0000000   0.0417858), wk =   0.0069444
        k(    4) = (   0.0000000   0.0000000   0.0626788), wk =   0.0069444
        k(    5) = (   0.0000000   0.0000000   0.0835717), wk =   0.0069444
        k(    6) = (   0.0000000   0.0000000   0.1044646), wk =   0.0069444
        k(    7) = (   0.0000000   0.0000000  -0.1253575), wk =   0.0034722
        k(    8) = (   0.0000000   0.0208929   0.0208929), wk =   0.0138889
        k(    9) = (   0.0000000   0.0208929   0.0417858), wk =   0.0277778
        k(   10) = (   0.0000000   0.0208929   0.0626788), wk =   0.0277778
        k(   11) = (   0.0000000   0.0208929   0.0835717), wk =   0.0277778
        k(   12) = (   0.0000000   0.0208929   0.1044646), wk =   0.0277778
        k(   13) = (   0.0000000   0.0208929  -0.1253575), wk =   0.0138889
        k(   14) = (   0.0000000   0.0417858   0.0417858), wk =   0.0138889
        k(   15) = (   0.0000000   0.0417858   0.0626788), wk =   0.0277778
        k(   16) = (   0.0000000   0.0417858   0.0835717), wk =   0.0277778
        k(   17) = (   0.0000000   0.0417858   0.1044646), wk =   0.0277778
        k(   18) = (   0.0000000   0.0417858  -0.1253575), wk =   0.0138889
        k(   19) = (   0.0000000   0.0626788   0.0626788), wk =   0.0138889
        k(   20) = (   0.0000000   0.0626788   0.0835717), wk =   0.0277778
        k(   21) = (   0.0000000   0.0626788   0.1044646), wk =   0.0277778
        k(   22) = (   0.0000000   0.0626788  -0.1253575), wk =   0.0138889
        k(   23) = (   0.0000000   0.0835717   0.0835717), wk =   0.0138889
        k(   24) = (   0.0000000   0.0835717   0.1044646), wk =   0.0277778
        k(   25) = (   0.0000000   0.0835717  -0.1253575), wk =   0.0138889
        k(   26) = (   0.0000000   0.1044646   0.1044646), wk =   0.0138889
        k(   27) = (   0.0000000   0.1044646  -0.1253575), wk =   0.0138889
        k(   28) = (   0.0000000  -0.1253575  -0.1253575), wk =   0.0034722
        k(   29) = (   0.0208929   0.0208929   0.0208929), wk =   0.0092593
        k(   30) = (   0.0208929   0.0208929   0.0417858), wk =   0.0277778
        k(   31) = (   0.0208929   0.0208929   0.0626788), wk =   0.0277778
        k(   32) = (   0.0208929   0.0208929   0.0835717), wk =   0.0277778
        k(   33) = (   0.0208929   0.0208929   0.1044646), wk =   0.0277778
        k(   34) = (   0.0208929   0.0208929  -0.1253575), wk =   0.0138889
        k(   35) = (   0.0208929   0.0417858   0.0417858), wk =   0.0277778
        k(   36) = (   0.0208929   0.0417858   0.0626788), wk =   0.0555556
        k(   37) = (   0.0208929   0.0417858   0.0835717), wk =   0.0555556
        k(   38) = (   0.0208929   0.0417858   0.1044646), wk =   0.0555556
        k(   39) = (   0.0208929   0.0417858  -0.1253575), wk =   0.0277778
        k(   40) = (   0.0208929   0.0626788   0.0626788), wk =   0.0277778
        k(   41) = (   0.0208929   0.0626788   0.0835717), wk =   0.0555556
        k(   42) = (   0.0208929   0.0626788   0.1044646), wk =   0.0555556
        k(   43) = (   0.0208929   0.0626788  -0.1253575), wk =   0.0277778
        k(   44) = (   0.0208929   0.0835717   0.0835717), wk =   0.0277778
        k(   45) = (   0.0208929   0.0835717   0.1044646), wk =   0.0555556
        k(   46) = (   0.0208929   0.0835717  -0.1253575), wk =   0.0277778
        k(   47) = (   0.0208929   0.1044646   0.1044646), wk =   0.0277778
        k(   48) = (   0.0208929   0.1044646  -0.1253575), wk =   0.0277778
        k(   49) = (   0.0208929  -0.1253575  -0.1253575), wk =   0.0069444
        k(   50) = (   0.0417858   0.0417858   0.0417858), wk =   0.0092593
        k(   51) = (   0.0417858   0.0417858   0.0626788), wk =   0.0277778
        k(   52) = (   0.0417858   0.0417858   0.0835717), wk =   0.0277778
        k(   53) = (   0.0417858   0.0417858   0.1044646), wk =   0.0277778
        k(   54) = (   0.0417858   0.0417858  -0.1253575), wk =   0.0138889
        k(   55) = (   0.0417858   0.0626788   0.0626788), wk =   0.0277778
        k(   56) = (   0.0417858   0.0626788   0.0835717), wk =   0.0555556
        k(   57) = (   0.0417858   0.0626788   0.1044646), wk =   0.0555556
        k(   58) = (   0.0417858   0.0626788  -0.1253575), wk =   0.0277778
        k(   59) = (   0.0417858   0.0835717   0.0835717), wk =   0.0277778
        k(   60) = (   0.0417858   0.0835717   0.1044646), wk =   0.0555556
[...]
        k(   70) = (   0.0626788   0.0835717   0.1044646), wk =   0.0555556
        k(   71) = (   0.0626788   0.0835717  -0.1253575), wk =   0.0277778
        k(   72) = (   0.0626788   0.1044646   0.1044646), wk =   0.0277778
        k(   73) = (   0.0626788   0.1044646  -0.1253575), wk =   0.0277778
        k(   74) = (   0.0626788  -0.1253575  -0.1253575), wk =   0.0069444
        k(   75) = (   0.0835717   0.0835717   0.0835717), wk =   0.0092593
        k(   76) = (   0.0835717   0.0835717   0.1044646), wk =   0.0277778
        k(   77) = (   0.0835717   0.0835717  -0.1253575), wk =   0.0138889
        k(   78) = (   0.0835717   0.1044646   0.1044646), wk =   0.0277778
        k(   79) = (   0.0835717   0.1044646  -0.1253575), wk =   0.0277778
        k(   80) = (   0.0835717  -0.1253575  -0.1253575), wk =   0.0069444
        k(   81) = (   0.1044646   0.1044646   0.1044646), wk =   0.0092593
        k(   82) = (   0.1044646   0.1044646  -0.1253575), wk =   0.0138889
        k(   83) = (   0.1044646  -0.1253575  -0.1253575), wk =   0.0069444
        k(   84) = (  -0.1253575  -0.1253575  -0.1253575), wk =   0.0011574

     Largest allocated arrays     est. size (Mb)     dimensions
     Largest temporary arrays     est. size (Mb)     dimensions

     Check: negative/imaginary core charge=   -0.000009    0.000000

     Initial potential from superposition of free atoms
     Check: negative starting charge=   -0.371385

     starting charge   52.99751, renormalised to   56.00000

     negative rho (up, down):  3.924E-01 0.000E+00

     *
     * You are using vdW-DF for exchange-correlation in this calculation.
     * Please cite the following three references that made this development
     * possible:
     *
     *   M. Dion, H. Rydberg, E. Schroder, D. C. Langreth, and
     *   B. I. Lundqvist, Phys. Rev. Lett. 92, 246401 (2004).
     *
     *   T. Thonhauser, V. R. Cooper, S. Li, A. Puzder, P. Hyldgaard, and
     *   D. C. Langreth, Phys. Rev. B 76, 125112 (2007).
     *
     *   G. Roman-Perez and J. M. Soler, Phys. Rev. Lett. 103, 096102 (2009).
     *
     *
     * If you are using vdW-DF2, please also cite:
     *
     *   K. Lee, E. D. Murray, L. Kong, B. I. Lundqvist, and
     *   D. C. Langreth, Phys. Rev. B 82, 081101(R) (2010).
     *
     *
     * If you are calculating the stress with vdW-DF, please also cite:
     *
     *   R. Sabatini, E. Kucukbenli, B. Kolb, T. Thonhauser, and
     *   S. de Gironcoli, J. Phys.: Condens. Matter 24, 424209 (2012).
     *

     Carrying out vdW-DF run using the following parameters:

     Nqs =      20    Nr_points =    1024   r_max =   100.000
     q_mesh =
               0.00001000     0.04494208     0.09755937     0.15916263
               0.23128650     0.31572767     0.41458969     0.53033537
               0.66584808     0.82450364     1.01025438     1.22772762
               1.48234092     1.78043706     2.12944203     2.53805004
               3.01644009     3.57652955     4.23227104     5.00000000

     Gradients computed in reciprocal space

     Starting wfc are   52 randomized atomic wfcs

     Self-consistent Calculation

     iteration #  1     ecut=    58.80 Ry     beta=0.10
     Davidson diagonalization with overlap
     ethr =  1.00E-02,  avg # of iterations =  4.1

[...]

     total energy              =    -621.49256682 Ry
     Harris-Foulkes estimate   =    -621.68213993 Ry
     estimated scf accuracy    <       2.91076556 Ry

[...]

     total energy              =    -620.76919423 Ry
     Harris-Foulkes estimate   =    -620.76919377 Ry
     estimated scf accuracy    <       0.00000002 Ry

     iteration # 14     ecut=    58.80 Ry     beta=0.10
     Davidson diagonalization with overlap
     ethr =  4.31E-11,  avg # of iterations =  1.9

     negative rho (up, down):  3.853E-01 0.000E+00

     End of self-consistent calculation

          k = 0.0000 0.0000 0.0000 (  3239 PWs)   bands (ev):

   -48.2753 -48.1311 -48.1311 -29.9296 -20.5275 -20.5275 -20.5275 -20.1251
   -20.1251 -20.1251 -19.9259 -19.9259 -19.9259  -8.5771  -8.5771  -8.5771
    12.0873  13.7057  14.2170  14.2170  14.5878  14.5878  14.5878  17.9006
    17.9006  17.9006  19.8976  19.8976  21.1314  21.6422  21.6422  21.6422
    22.4668  22.4668  22.4668  23.1388  23.1388  23.8794  23.8794  23.8794
    31.2549  31.2549  31.2549  31.5000  31.5000  31.5298  31.5298  31.5298

[...]

          k = 0.1045-0.1254-0.1254 (  3244 PWs)   bands (ev):

[...]

          k =-0.1254-0.1254-0.1254 (  3184 PWs)   bands (ev):

   -48.1783 -48.1783 -48.1783 -29.9268 -20.7457 -20.4583 -20.4583 -20.4583
   -19.9677 -19.9677 -19.9192 -19.9192 -19.9192  -8.5930  -8.5930  -8.5930
    14.2729  14.2729  14.2729  14.3046  17.0310  17.0310  17.0310  17.7923
    17.7923  17.7923  18.4617  18.4617  19.7506  20.1065  20.1065  20.1065
    21.1662  21.1662  21.1662  22.9510  22.9510  22.9510  23.2991  23.2991
    28.5538  28.5538  28.5538  29.8526  32.4117  32.4652  32.4652  32.4652

     the Fermi energy is    18.5470 ev

!    total energy              =    -620.76919222 Ry
     Harris-Foulkes estimate   =    -620.76919423 Ry
     estimated scf accuracy    <          2.7E-09 Ry

     The total energy is the sum of the following terms:

     one-electron contribution =    -119.62862017 Ry
     hartree contribution      =      92.84260840 Ry
     xc contribution           =    -113.48335060 Ry
     ewald contribution        =    -480.48595548 Ry
     smearing contrib. (-TS)   =      -0.01387437 Ry

     convergence has been achieved in  14 iterations

     Forces acting on atoms (Ry/au):

     negative rho (up, down):  3.853E-01 0.000E+00
     atom    1 type  1   force =     0.00000000    0.00000000   -0.00000000
     atom    2 type  1   force =     0.00000000    0.00000000   -0.00000000
     atom    3 type  1   force =     0.00000000    0.00000000    0.00000000
     atom    4 type  2   force =     0.00000000    0.00000000    0.00000000

     Total force =     0.000000     Total SCF correction =     0.000000
 !ASE

     General routines

     Parallel routines

   This run was terminated on:  18:12:50  25Oct2017

   JOB DONE.