     Program PWSCF v.5.1rc2 (svn rev. ) starts on 25Oct2017 at 22:23:59

     Current dimensions of program PWSCF are:
     Max number of different atomic species (ntypx) = 10
     Max number of k-points (npk) =  40000
     Max angular momentum in pseudopotentials (lmaxx) =  3

     IMPORTANT: XC functional enforced from input :
     Exchange-correlation      = BEEF-VDW ( 1  4 27 13 2)
     Any further DFT definition will be discarded
     Please, verify this is what you really want

     Subspace diagonalization in iterative solution of the eigenvalue problem:
     a serial algorithm will be used

     bravais-lattice index     =            0
     lattice parameter (alat)  =       1.8897  a.u.
     unit-cell volume          =     402.2362 (a.u.)^3
     number of atoms/cell      =            4
     number of atomic types    =            2
     number of electrons       =        61.00
     number of Kohn-Sham states=           50
     kinetic-energy cutoff     =      58.7989  Ry
     charge density cutoff     =     587.9892  Ry
     convergence threshold     =      7.3E-09
     mixing beta               =       0.1000
     number of iterations used =           10  local-TF  mixing
     Exchange-correlation      = BEEF-VDW ( 1  4 27 13 2)
     nstep                     =           50

     celldm(1)=   1.889726  celldm(2)=   0.000000  celldm(3)=   0.000000
     celldm(4)=   0.000000  celldm(5)=   0.000000  celldm(6)=   0.000000

     crystal axes: (cart. coord. in units of alat)
               a(1) = (   3.906263   0.000000   0.000000 )
               a(2) = (   0.000000   3.906263   0.000000 )
               a(3) = (   0.000000   0.000000   3.906263 )

     reciprocal axes: (cart. coord. in units 2 pi/alat)
               b(1) = (  0.255999  0.000000  0.000000 )
               b(2) = (  0.000000  0.255999  0.000000 )
               b(3) = (  0.000000  0.000000  0.255999 )

     PseudoPot. # 1 for Re read from file:
     /home/vossj/suncat/psp/gbrv1.5pbe/Re.UPF
     MD5 check sum: 85f993410f3e006da9d71c142b4ad953
     Pseudo is Ultrasoft + core correction, Zval = 15.0
     Generated by new atomic code, or converted to UPF format
     Using radial grid of  981 points,  8 beta functions with:
                l(1) =   0
                l(2) =   0
                l(3) =   1
                l(4) =   1
                l(5) =   2
                l(6) =   2
                l(7) =   3
                l(8) =   3
     Q(r) pseudized with  8 coefficients,  rinner =    1.150   1.150   1.150
                                                       1.150   1.150   1.150
                                                       1.150

     PseudoPot. # 2 for Pd read from file:
     /home/vossj/suncat/psp/gbrv1.5pbe/Pd.UPF
     MD5 check sum: 2d733d2bc2cbfd217af676df1668a4bc
     Pseudo is Ultrasoft + core correction, Zval = 16.0
     Generated by new atomic code, or converted to UPF format
     Using radial grid of  887 points,  6 beta functions with:
                l(1) =   0
                l(2) =   0
                l(3) =   1
                l(4) =   1
                l(5) =   2
                l(6) =   2
     Q(r) pseudized with  8 coefficients,  rinner =    1.130   1.130   1.130
                                                       1.130   1.130

     vdW kernel table read from file vdW_kernel_table
     MD5 check sum: 095c7af220d748ca6e76c0b4c6cfb241

     atomic species   valence    mass     pseudopotential
        Re1           15.00   186.20700     Re( 1.00)
        Pd1           16.00   106.42000     Pd( 1.00)

     48 Sym. Ops., with inversion, found (32 have fractional translation)

   Cartesian axes

     site n.     atom                  positions (alat units)
         1           Re1 tau(   1) = (   0.0000000   0.0000000   0.0000000  )
         2           Re1 tau(   2) = (   0.0000000   1.9531317   1.9531317  )
         3           Re1 tau(   3) = (   1.9531317   0.0000000   1.9531317  )
         4           Pd1 tau(   4) = (   1.9531317   1.9531317   0.0000000  )

     number of k points=    84  Fermi-Dirac smearing, width (Ry)=  0.0073
                       cart. coord. in units 2pi/alat
        k(    1) = (   0.0000000   0.0000000   0.0000000), wk =   0.0011574
        k(    2) = (   0.0000000   0.0000000   0.0213333), wk =   0.0069444
        k(    3) = (   0.0000000   0.0000000   0.0426665), wk =   0.0069444
        k(    4) = (   0.0000000   0.0000000   0.0639998), wk =   0.0069444
        k(    5) = (   0.0000000   0.0000000   0.0853330), wk =   0.0069444
        k(    6) = (   0.0000000   0.0000000   0.1066663), wk =   0.0069444
        k(    7) = (   0.0000000   0.0000000  -0.1279996), wk =   0.0034722
        k(    8) = (   0.0000000   0.0213333   0.0213333), wk =   0.0138889
        k(    9) = (   0.0000000   0.0213333   0.0426665), wk =   0.0277778
        k(   10) = (   0.0000000   0.0213333   0.0639998), wk =   0.0277778
        k(   11) = (   0.0000000   0.0213333   0.0853330), wk =   0.0277778
        k(   12) = (   0.0000000   0.0213333   0.1066663), wk =   0.0277778
        k(   13) = (   0.0000000   0.0213333  -0.1279996), wk =   0.0138889
        k(   14) = (   0.0000000   0.0426665   0.0426665), wk =   0.0138889
        k(   15) = (   0.0000000   0.0426665   0.0639998), wk =   0.0277778
        k(   16) = (   0.0000000   0.0426665   0.0853330), wk =   0.0277778
        k(   17) = (   0.0000000   0.0426665   0.1066663), wk =   0.0277778
        k(   18) = (   0.0000000   0.0426665  -0.1279996), wk =   0.0138889
        k(   19) = (   0.0000000   0.0639998   0.0639998), wk =   0.0138889
        k(   20) = (   0.0000000   0.0639998   0.0853330), wk =   0.0277778
        k(   21) = (   0.0000000   0.0639998   0.1066663), wk =   0.0277778
        k(   22) = (   0.0000000   0.0639998  -0.1279996), wk =   0.0138889
        k(   23) = (   0.0000000   0.0853330   0.0853330), wk =   0.0138889
        k(   24) = (   0.0000000   0.0853330   0.1066663), wk =   0.0277778
        k(   25) = (   0.0000000   0.0853330  -0.1279996), wk =   0.0138889
        k(   26) = (   0.0000000   0.1066663   0.1066663), wk =   0.0138889
        k(   27) = (   0.0000000   0.1066663  -0.1279996), wk =   0.0138889
        k(   28) = (   0.0000000  -0.1279996  -0.1279996), wk =   0.0034722
        k(   29) = (   0.0213333   0.0213333   0.0213333), wk =   0.0092593
        k(   30) = (   0.0213333   0.0213333   0.0426665), wk =   0.0277778
        k(   31) = (   0.0213333   0.0213333   0.0639998), wk =   0.0277778
        k(   32) = (   0.0213333   0.0213333   0.0853330), wk =   0.0277778
        k(   33) = (   0.0213333   0.0213333   0.1066663), wk =   0.0277778
        k(   34) = (   0.0213333   0.0213333  -0.1279996), wk =   0.0138889
        k(   35) = (   0.0213333   0.0426665   0.0426665), wk =   0.0277778
        k(   36) = (   0.0213333   0.0426665   0.0639998), wk =   0.0555556
        k(   37) = (   0.0213333   0.0426665   0.0853330), wk =   0.0555556
        k(   38) = (   0.0213333   0.0426665   0.1066663), wk =   0.0555556
        k(   39) = (   0.0213333   0.0426665  -0.1279996), wk =   0.0277778
        k(   40) = (   0.0213333   0.0639998   0.0639998), wk =   0.0277778
        k(   41) = (   0.0213333   0.0639998   0.0853330), wk =   0.0555556
        k(   42) = (   0.0213333   0.0639998   0.1066663), wk =   0.0555556
        k(   43) = (   0.0213333   0.0639998  -0.1279996), wk =   0.0277778
        k(   44) = (   0.0213333   0.0853330   0.0853330), wk =   0.0277778
        k(   45) = (   0.0213333   0.0853330   0.1066663), wk =   0.0555556
        k(   46) = (   0.0213333   0.0853330  -0.1279996), wk =   0.0277778
        k(   47) = (   0.0213333   0.1066663   0.1066663), wk =   0.0277778
        k(   48) = (   0.0213333   0.1066663  -0.1279996), wk =   0.0277778
        k(   49) = (   0.0213333  -0.1279996  -0.1279996), wk =   0.0069444
        k(   50) = (   0.0426665   0.0426665   0.0426665), wk =   0.0092593
        k(   51) = (   0.0426665   0.0426665   0.0639998), wk =   0.0277778
        k(   52) = (   0.0426665   0.0426665   0.0853330), wk =   0.0277778
        k(   53) = (   0.0426665   0.0426665   0.1066663), wk =   0.0277778
        k(   54) = (   0.0426665   0.0426665  -0.1279996), wk =   0.0138889
        k(   55) = (   0.0426665   0.0639998   0.0639998), wk =   0.0277778
        k(   56) = (   0.0426665   0.0639998   0.0853330), wk =   0.0555556
        k(   57) = (   0.0426665   0.0639998   0.1066663), wk =   0.0555556
        k(   58) = (   0.0426665   0.0639998  -0.1279996), wk =   0.0277778
        k(   59) = (   0.0426665   0.0853330   0.0853330), wk =   0.0277778
        k(   60) = (   0.0426665   0.0853330   0.1066663), wk =   0.0555556
[...]
        k(   70) = (   0.0639998   0.0853330   0.1066663), wk =   0.0555556
        k(   71) = (   0.0639998   0.0853330  -0.1279996), wk =   0.0277778
        k(   72) = (   0.0639998   0.1066663   0.1066663), wk =   0.0277778
        k(   73) = (   0.0639998   0.1066663  -0.1279996), wk =   0.0277778
        k(   74) = (   0.0639998  -0.1279996  -0.1279996), wk =   0.0069444
        k(   75) = (   0.0853330   0.0853330   0.0853330), wk =   0.0092593
        k(   76) = (   0.0853330   0.0853330   0.1066663), wk =   0.0277778
        k(   77) = (   0.0853330   0.0853330  -0.1279996), wk =   0.0138889
        k(   78) = (   0.0853330   0.1066663   0.1066663), wk =   0.0277778
        k(   79) = (   0.0853330   0.1066663  -0.1279996), wk =   0.0277778
        k(   80) = (   0.0853330  -0.1279996  -0.1279996), wk =   0.0069444
        k(   81) = (   0.1066663   0.1066663   0.1066663), wk =   0.0092593
        k(   82) = (   0.1066663   0.1066663  -0.1279996), wk =   0.0138889
        k(   83) = (   0.1066663  -0.1279996  -0.1279996), wk =   0.0069444
        k(   84) = (  -0.1279996  -0.1279996  -0.1279996), wk =   0.0011574

     Largest allocated arrays     est. size (Mb)     dimensions
     Largest temporary arrays     est. size (Mb)     dimensions

     Initial potential from superposition of free atoms
     Check: negative starting charge=   -0.463532

     starting charge   58.99986, renormalised to   61.00000

     negative rho (up, down):  4.792E-01 0.000E+00

     *
     * You are using vdW-DF for exchange-correlation in this calculation.
     * Please cite the following three references that made this development
     * possible:
     *
     *   M. Dion, H. Rydberg, E. Schroder, D. C. Langreth, and
     *   B. I. Lundqvist, Phys. Rev. Lett. 92, 246401 (2004).
     *
     *   T. Thonhauser, V. R. Cooper, S. Li, A. Puzder, P. Hyldgaard, and
     *   D. C. Langreth, Phys. Rev. B 76, 125112 (2007).
     *
     *   G. Roman-Perez and J. M. Soler, Phys. Rev. Lett. 103, 096102 (2009).
     *
     *
     * If you are using vdW-DF2, please also cite:
     *
     *   K. Lee, E. D. Murray, L. Kong, B. I. Lundqvist, and
     *   D. C. Langreth, Phys. Rev. B 82, 081101(R) (2010).
     *
     *
     * If you are calculating the stress with vdW-DF, please also cite:
     *
     *   R. Sabatini, E. Kucukbenli, B. Kolb, T. Thonhauser, and
     *   S. de Gironcoli, J. Phys.: Condens. Matter 24, 424209 (2012).
     *

     Carrying out vdW-DF run using the following parameters:

     Nqs =      20    Nr_points =    1024   r_max =   100.000
     q_mesh =
               0.00001000     0.04494208     0.09755937     0.15916263
               0.23128650     0.31572767     0.41458969     0.53033537
               0.66584808     0.82450364     1.01025438     1.22772762
               1.48234092     1.78043706     2.12944203     2.53805004
               3.01644009     3.57652955     4.23227104     5.00000000

     Gradients computed in reciprocal space

     Starting wfc are   51 randomized atomic wfcs

     Self-consistent Calculation

     iteration #  1     ecut=    58.80 Ry     beta=0.10
     Davidson diagonalization with overlap
     ethr =  1.00E-02,  avg # of iterations =  4.4

[...]

     total energy              =    -777.02228399 Ry
     Harris-Foulkes estimate   =    -777.76328802 Ry
     estimated scf accuracy    <      14.39785725 Ry

[...]

     total energy              =    -776.39965442 Ry
     Harris-Foulkes estimate   =    -776.39965376 Ry
     estimated scf accuracy    <       0.00000005 Ry

     iteration # 14     ecut=    58.80 Ry     beta=0.10
     Davidson diagonalization with overlap
     ethr =  8.34E-11,  avg # of iterations =  1.1

     negative rho (up, down):  4.998E-01 0.000E+00

     End of self-consistent calculation

          k = 0.0000 0.0000 0.0000 (  3071 PWs)   bands (ev):

   -57.9184 -57.8130 -57.8130 -28.5127 -28.5127 -28.5127 -19.9244 -19.9244
   -19.9244 -19.4671 -19.4671 -19.4671 -19.1810 -19.1810 -19.1810  13.2522
    16.1445  16.1445  16.2695  16.7847  16.7847  16.7847  20.0436  20.0436
    20.0436  22.0102  22.0102  24.6678  24.6678  24.6678  25.2670  25.2670
    25.3536  25.3536  25.3536  26.4118  27.1693  27.1693  27.1693  34.2575
    34.2575  34.2575  34.7666  34.7666  35.4603  35.4603  35.4603  35.4858
    36.7095  42.1224

[...]

          k = 0.1067-0.1280-0.1280 (  3072 PWs)   bands (ev):

[...]

          k =-0.1280-0.1280-0.1280 (  3112 PWs)   bands (ev):

   -57.8477 -57.8477 -57.8477 -28.5171 -28.5171 -28.5171 -20.1784 -19.8496
   -19.8496 -19.8496 -19.2129 -19.2129 -19.2129 -19.2099 -19.2099  16.0295
    16.0295  16.0295  16.5703  19.0342  19.0342  19.7961  19.7961  19.7961
    20.7649  20.7649  20.7649  22.8591  22.8591  22.8591  22.9974  24.3033
    24.3033  24.3033  24.9166  24.9166  26.4578  26.4578  26.4578  31.6550
    31.6550  31.6550  32.5923  36.1051  36.3469  36.3469  36.3469  41.4274
    41.4274  41.4274

     the Fermi energy is    22.9251 ev

!    total energy              =    -776.39965728 Ry
     Harris-Foulkes estimate   =    -776.39965442 Ry
     estimated scf accuracy    <          1.9E-09 Ry

     The total energy is the sum of the following terms:

     one-electron contribution =     -96.16627701 Ry
     hartree contribution      =      92.80074940 Ry
     xc contribution           =    -195.01391583 Ry
     ewald contribution        =    -578.01314792 Ry
     smearing contrib. (-TS)   =      -0.00706591 Ry

     convergence has been achieved in  14 iterations

     Forces acting on atoms (Ry/au):

     negative rho (up, down):  4.998E-01 0.000E+00
     atom    1 type  1   force =     0.00000000    0.00000000    0.00000000
     atom    2 type  1   force =     0.00000000    0.00000000    0.00000000
     atom    3 type  1   force =     0.00000000    0.00000000    0.00000000
     atom    4 type  2   force =     0.00000000    0.00000000    0.00000000

     Total force =     0.000000     Total SCF correction =     0.000000
 !ASE

     General routines

     Parallel routines

   This run was terminated on:  22:25: 1  25Oct2017

   JOB DONE.