     Program PWSCF v.5.1rc2 (svn rev. ) starts on 25Oct2017 at  8:32:15

     Current dimensions of program PWSCF are:
     Max number of different atomic species (ntypx) = 10
     Max number of k-points (npk) =  40000
     Max angular momentum in pseudopotentials (lmaxx) =  3

     IMPORTANT: XC functional enforced from input :
     Exchange-correlation      = BEEF-VDW ( 1  4 27 13 2)
     Any further DFT definition will be discarded
     Please, verify this is what you really want

     Subspace diagonalization in iterative solution of the eigenvalue problem:
     a serial algorithm will be used

     bravais-lattice index     =            0
     lattice parameter (alat)  =       1.8897  a.u.
     unit-cell volume          =     462.3053 (a.u.)^3
     number of atoms/cell      =            4
     number of atomic types    =            2
     number of electrons       =        47.00
     number of Kohn-Sham states=           43
     kinetic-energy cutoff     =      58.7989  Ry
     charge density cutoff     =     587.9892  Ry
     convergence threshold     =      7.3E-09
     mixing beta               =       0.1000
     number of iterations used =           10  local-TF  mixing
     Exchange-correlation      = BEEF-VDW ( 1  4 27 13 2)
     nstep                     =           50

     celldm(1)=   1.889726  celldm(2)=   0.000000  celldm(3)=   0.000000
     celldm(4)=   0.000000  celldm(5)=   0.000000  celldm(6)=   0.000000

     crystal axes: (cart. coord. in units of alat)
               a(1) = (   4.091766   0.000000   0.000000 )
               a(2) = (   0.000000   4.091766   0.000000 )
               a(3) = (   0.000000   0.000000   4.091766 )

     reciprocal axes: (cart. coord. in units 2 pi/alat)
               b(1) = (  0.244393  0.000000  0.000000 )
               b(2) = (  0.000000  0.244393  0.000000 )
               b(3) = (  0.000000  0.000000  0.244393 )

     PseudoPot. # 1 for Au read from file:
     /home/vossj/suncat/psp/gbrv1.5pbe/Au.UPF
     MD5 check sum: 9d7f43293ad2c663164586bc4b293ffc
     Pseudo is Ultrasoft + core correction, Zval = 11.0
     Generated by new atomic code, or converted to UPF format
     Using radial grid of  985 points,  7 beta functions with:
                l(1) =   0
                l(2) =   0
                l(3) =   1
                l(4) =   1
                l(5) =   2
                l(6) =   2
                l(7) =   3
     Q(r) pseudized with  6 coefficients,  rinner =    1.900   1.900   1.900
                                                       1.900   1.900   1.900
                                                       1.900

     PseudoPot. # 2 for Cr read from file:
     /home/vossj/suncat/psp/gbrv1.5pbe/Cr.UPF
     MD5 check sum: 0d52af634a40206e4dee301ad30da4bf
     Pseudo is Ultrasoft + core correction, Zval = 14.0
     Generated by new atomic code, or converted to UPF format
     Using radial grid of  857 points,  6 beta functions with:
                l(1) =   0
                l(2) =   0
                l(3) =   1
                l(4) =   1
                l(5) =   2
                l(6) =   2
     Q(r) pseudized with  8 coefficients,  rinner =    0.950   0.950   0.950
                                                       0.950   0.950

     vdW kernel table read from file vdW_kernel_table
     MD5 check sum: 095c7af220d748ca6e76c0b4c6cfb241

     atomic species   valence    mass     pseudopotential
        Au1           11.00   196.96657     Au( 1.00)
        Cr1           14.00    51.99610     Cr( 1.00)

     48 Sym. Ops., with inversion, found (32 have fractional translation)

   Cartesian axes

     site n.     atom                  positions (alat units)
         1           Au1 tau(   1) = (   0.0000000   0.0000000   0.0000000  )
         2           Au1 tau(   2) = (   0.0000000   2.0458829   2.0458829  )
         3           Au1 tau(   3) = (   2.0458829   0.0000000   2.0458829  )
         4           Cr1 tau(   4) = (   2.0458829   2.0458829   0.0000000  )

     number of k points=    84  Fermi-Dirac smearing, width (Ry)=  0.0073
                       cart. coord. in units 2pi/alat
        k(    1) = (   0.0000000   0.0000000   0.0000000), wk =   0.0011574
        k(    2) = (   0.0000000   0.0000000   0.0203661), wk =   0.0069444
        k(    3) = (   0.0000000   0.0000000   0.0407322), wk =   0.0069444
        k(    4) = (   0.0000000   0.0000000   0.0610983), wk =   0.0069444
        k(    5) = (   0.0000000   0.0000000   0.0814644), wk =   0.0069444
        k(    6) = (   0.0000000   0.0000000   0.1018305), wk =   0.0069444
        k(    7) = (   0.0000000   0.0000000  -0.1221966), wk =   0.0034722
        k(    8) = (   0.0000000   0.0203661   0.0203661), wk =   0.0138889
        k(    9) = (   0.0000000   0.0203661   0.0407322), wk =   0.0277778
        k(   10) = (   0.0000000   0.0203661   0.0610983), wk =   0.0277778
        k(   11) = (   0.0000000   0.0203661   0.0814644), wk =   0.0277778
        k(   12) = (   0.0000000   0.0203661   0.1018305), wk =   0.0277778
        k(   13) = (   0.0000000   0.0203661  -0.1221966), wk =   0.0138889
        k(   14) = (   0.0000000   0.0407322   0.0407322), wk =   0.0138889
        k(   15) = (   0.0000000   0.0407322   0.0610983), wk =   0.0277778
        k(   16) = (   0.0000000   0.0407322   0.0814644), wk =   0.0277778
        k(   17) = (   0.0000000   0.0407322   0.1018305), wk =   0.0277778
        k(   18) = (   0.0000000   0.0407322  -0.1221966), wk =   0.0138889
        k(   19) = (   0.0000000   0.0610983   0.0610983), wk =   0.0138889
        k(   20) = (   0.0000000   0.0610983   0.0814644), wk =   0.0277778
        k(   21) = (   0.0000000   0.0610983   0.1018305), wk =   0.0277778
        k(   22) = (   0.0000000   0.0610983  -0.1221966), wk =   0.0138889
        k(   23) = (   0.0000000   0.0814644   0.0814644), wk =   0.0138889
        k(   24) = (   0.0000000   0.0814644   0.1018305), wk =   0.0277778
        k(   25) = (   0.0000000   0.0814644  -0.1221966), wk =   0.0138889
        k(   26) = (   0.0000000   0.1018305   0.1018305), wk =   0.0138889
        k(   27) = (   0.0000000   0.1018305  -0.1221966), wk =   0.0138889
        k(   28) = (   0.0000000  -0.1221966  -0.1221966), wk =   0.0034722
        k(   29) = (   0.0203661   0.0203661   0.0203661), wk =   0.0092593
        k(   30) = (   0.0203661   0.0203661   0.0407322), wk =   0.0277778
        k(   31) = (   0.0203661   0.0203661   0.0610983), wk =   0.0277778
        k(   32) = (   0.0203661   0.0203661   0.0814644), wk =   0.0277778
        k(   33) = (   0.0203661   0.0203661   0.1018305), wk =   0.0277778
        k(   34) = (   0.0203661   0.0203661  -0.1221966), wk =   0.0138889
        k(   35) = (   0.0203661   0.0407322   0.0407322), wk =   0.0277778
        k(   36) = (   0.0203661   0.0407322   0.0610983), wk =   0.0555556
        k(   37) = (   0.0203661   0.0407322   0.0814644), wk =   0.0555556
        k(   38) = (   0.0203661   0.0407322   0.1018305), wk =   0.0555556
        k(   39) = (   0.0203661   0.0407322  -0.1221966), wk =   0.0277778
        k(   40) = (   0.0203661   0.0610983   0.0610983), wk =   0.0277778
        k(   41) = (   0.0203661   0.0610983   0.0814644), wk =   0.0555556
        k(   42) = (   0.0203661   0.0610983   0.1018305), wk =   0.0555556
        k(   43) = (   0.0203661   0.0610983  -0.1221966), wk =   0.0277778
        k(   44) = (   0.0203661   0.0814644   0.0814644), wk =   0.0277778
        k(   45) = (   0.0203661   0.0814644   0.1018305), wk =   0.0555556
        k(   46) = (   0.0203661   0.0814644  -0.1221966), wk =   0.0277778
        k(   47) = (   0.0203661   0.1018305   0.1018305), wk =   0.0277778
        k(   48) = (   0.0203661   0.1018305  -0.1221966), wk =   0.0277778
        k(   49) = (   0.0203661  -0.1221966  -0.1221966), wk =   0.0069444
        k(   50) = (   0.0407322   0.0407322   0.0407322), wk =   0.0092593
        k(   51) = (   0.0407322   0.0407322   0.0610983), wk =   0.0277778
        k(   52) = (   0.0407322   0.0407322   0.0814644), wk =   0.0277778
        k(   53) = (   0.0407322   0.0407322   0.1018305), wk =   0.0277778
        k(   54) = (   0.0407322   0.0407322  -0.1221966), wk =   0.0138889
        k(   55) = (   0.0407322   0.0610983   0.0610983), wk =   0.0277778
        k(   56) = (   0.0407322   0.0610983   0.0814644), wk =   0.0555556
        k(   57) = (   0.0407322   0.0610983   0.1018305), wk =   0.0555556
        k(   58) = (   0.0407322   0.0610983  -0.1221966), wk =   0.0277778
        k(   59) = (   0.0407322   0.0814644   0.0814644), wk =   0.0277778
        k(   60) = (   0.0407322   0.0814644   0.1018305), wk =   0.0555556
[...]
        k(   70) = (   0.0610983   0.0814644   0.1018305), wk =   0.0555556
        k(   71) = (   0.0610983   0.0814644  -0.1221966), wk =   0.0277778
        k(   72) = (   0.0610983   0.1018305   0.1018305), wk =   0.0277778
        k(   73) = (   0.0610983   0.1018305  -0.1221966), wk =   0.0277778
        k(   74) = (   0.0610983  -0.1221966  -0.1221966), wk =   0.0069444
        k(   75) = (   0.0814644   0.0814644   0.0814644), wk =   0.0092593
        k(   76) = (   0.0814644   0.0814644   0.1018305), wk =   0.0277778
        k(   77) = (   0.0814644   0.0814644  -0.1221966), wk =   0.0138889
        k(   78) = (   0.0814644   0.1018305   0.1018305), wk =   0.0277778
        k(   79) = (   0.0814644   0.1018305  -0.1221966), wk =   0.0277778
        k(   80) = (   0.0814644  -0.1221966  -0.1221966), wk =   0.0069444
        k(   81) = (   0.1018305   0.1018305   0.1018305), wk =   0.0092593
        k(   82) = (   0.1018305   0.1018305  -0.1221966), wk =   0.0138889
        k(   83) = (   0.1018305  -0.1221966  -0.1221966), wk =   0.0069444
        k(   84) = (  -0.1221966  -0.1221966  -0.1221966), wk =   0.0011574

     Largest allocated arrays     est. size (Mb)     dimensions
     Largest temporary arrays     est. size (Mb)     dimensions

     Check: negative/imaginary core charge=   -0.000001    0.000000

     Initial potential from superposition of free atoms
     Check: negative starting charge=   -0.000681

     starting charge   45.99962, renormalised to   47.00000

     negative rho (up, down):  6.960E-04 0.000E+00

     *
     * You are using vdW-DF for exchange-correlation in this calculation.
     * Please cite the following three references that made this development
     * possible:
     *
     *   M. Dion, H. Rydberg, E. Schroder, D. C. Langreth, and
     *   B. I. Lundqvist, Phys. Rev. Lett. 92, 246401 (2004).
     *
     *   T. Thonhauser, V. R. Cooper, S. Li, A. Puzder, P. Hyldgaard, and
     *   D. C. Langreth, Phys. Rev. B 76, 125112 (2007).
     *
     *   G. Roman-Perez and J. M. Soler, Phys. Rev. Lett. 103, 096102 (2009).
     *
     *
     * If you are using vdW-DF2, please also cite:
     *
     *   K. Lee, E. D. Murray, L. Kong, B. I. Lundqvist, and
     *   D. C. Langreth, Phys. Rev. B 82, 081101(R) (2010).
     *
     *
     * If you are calculating the stress with vdW-DF, please also cite:
     *
     *   R. Sabatini, E. Kucukbenli, B. Kolb, T. Thonhauser, and
     *   S. de Gironcoli, J. Phys.: Condens. Matter 24, 424209 (2012).
     *

     Carrying out vdW-DF run using the following parameters:

     Nqs =      20    Nr_points =    1024   r_max =   100.000
     q_mesh =
               0.00001000     0.04494208     0.09755937     0.15916263
               0.23128650     0.31572767     0.41458969     0.53033537
               0.66584808     0.82450364     1.01025438     1.22772762
               1.48234092     1.78043706     2.12944203     2.53805004
               3.01644009     3.57652955     4.23227104     5.00000000

     Gradients computed in reciprocal space

     Starting wfc are   37 randomized atomic wfcs +    6 random wfc

     Self-consistent Calculation

     iteration #  1     ecut=    58.80 Ry     beta=0.10
     Davidson diagonalization with overlap
     ethr =  1.00E-02,  avg # of iterations =  5.1

[...]

     total energy              =    -526.45083677 Ry
     Harris-Foulkes estimate   =    -527.24439962 Ry
     estimated scf accuracy    <      15.27407248 Ry

[...]

     iteration # 11     ecut=    58.80 Ry     beta=0.10
     Davidson diagonalization with overlap
     c_bands:  1 eigenvalues not converged
     ethr =  1.17E-07,  avg # of iterations =  2.5

[...]

     total energy              =    -526.31353001 Ry
     Harris-Foulkes estimate   =    -526.31353001 Ry
     estimated scf accuracy    <       0.00000115 Ry

     iteration # 16     ecut=    58.80 Ry     beta=0.10
     Davidson diagonalization with overlap
     ethr =  3.25E-10,  avg # of iterations =  1.9

     negative rho (up, down):  5.909E-04 0.000E+00

     End of self-consistent calculation

          k = 0.0000 0.0000 0.0000 (  3575 PWs)   bands (ev):

   -57.3903 -28.6961 -28.6961 -28.6961   5.4851   7.7053   8.2538   8.2538
     8.2584   8.2584   8.2584  10.4340  10.4340  10.4340  11.5677  11.5677
    12.2587  12.6665  12.6665  12.6665  14.7159  14.7159  15.1618  15.1618
    15.1618  15.9347  15.9347  15.9347  20.1752  20.1752  22.8615  24.9278
    24.9278  24.9278  24.9518  24.9518  24.9518  29.7981  30.9754  30.9754
    32.9680  32.9680  32.9680

[...]

          k = 0.1018-0.1222-0.1222 (  3504 PWs)   bands (ev):

[...]

          k =-0.1222-0.1222-0.1222 (  3544 PWs)   bands (ev):

   -57.3901 -28.6978 -28.6978 -28.6978   7.8207   7.8207   7.8207   7.8974
     9.6855   9.6855   9.6855  10.4529  10.4529  10.4529  10.8654  10.8654
    12.3353  12.3353  12.3353  13.8897  13.9557  13.9557  13.9557  14.3947
    14.3947  14.3947  14.9495  14.9495  17.7672  17.7672  17.7672  20.2749
    29.0896  29.1492  29.1492  29.1492  31.8830  31.8831  31.9997  31.9997
    31.9997  32.3861  32.3864

     the Fermi energy is    14.3942 ev

!    total energy              =    -526.31353084 Ry
     Harris-Foulkes estimate   =    -526.31353009 Ry
     estimated scf accuracy    <          3.8E-09 Ry

     The total energy is the sum of the following terms:

     one-electron contribution =     -56.40228538 Ry
     hartree contribution      =      74.88100585 Ry
     xc contribution           =    -215.34097612 Ry
     ewald contribution        =    -329.42389136 Ry
     smearing contrib. (-TS)   =      -0.02738382 Ry

     convergence has been achieved in  16 iterations

     Forces acting on atoms (Ry/au):

     negative rho (up, down):  5.909E-04 0.000E+00
     atom    1 type  1   force =     0.00000000    0.00000000    0.00000000
     atom    2 type  1   force =     0.00000000    0.00000000    0.00000000
     atom    3 type  1   force =     0.00000000    0.00000000    0.00000000
     atom    4 type  2   force =     0.00000000    0.00000000    0.00000000

     Total force =     0.000000     Total SCF correction =     0.000000
 !ASE

     General routines

     Parallel routines

   This run was terminated on:   8:33:18  25Oct2017

   JOB DONE.