     Program PWSCF v.5.1rc2 (svn rev. ) starts on 25Oct2017 at  7:59:45

     Current dimensions of program PWSCF are:
     Max number of different atomic species (ntypx) = 10
     Max number of k-points (npk) =  40000
     Max angular momentum in pseudopotentials (lmaxx) =  3

     IMPORTANT: XC functional enforced from input :
     Exchange-correlation      = BEEF-VDW ( 1  4 27 13 2)
     Any further DFT definition will be discarded
     Please, verify this is what you really want

     Subspace diagonalization in iterative solution of the eigenvalue problem:
     a serial algorithm will be used

     bravais-lattice index     =            0
     lattice parameter (alat)  =       1.8897  a.u.
     unit-cell volume          =     540.7177 (a.u.)^3
     number of atoms/cell      =            4
     number of atomic types    =            2
     number of electrons       =        50.00
     number of Kohn-Sham states=           45
     kinetic-energy cutoff     =      58.7989  Ry
     charge density cutoff     =     587.9892  Ry
     convergence threshold     =      7.3E-09
     mixing beta               =       0.1000
     number of iterations used =           10  local-TF  mixing
     Exchange-correlation      = BEEF-VDW ( 1  4 27 13 2)
     nstep                     =           50

     celldm(1)=   1.889726  celldm(2)=   0.000000  celldm(3)=   0.000000
     celldm(4)=   0.000000  celldm(5)=   0.000000  celldm(6)=   0.000000

     crystal axes: (cart. coord. in units of alat)
               a(1) = (   4.311132   0.000000   0.000000 )
               a(2) = (   0.000000   4.311132   0.000000 )
               a(3) = (   0.000000   0.000000   4.311132 )

     reciprocal axes: (cart. coord. in units 2 pi/alat)
               b(1) = (  0.231958  0.000000  0.000000 )
               b(2) = (  0.000000  0.231958  0.000000 )
               b(3) = (  0.000000  0.000000  0.231958 )

     PseudoPot. # 1 for Hg read from file:
     /home/vossj/suncat/psp/gbrv1.5pbe/Hg.UPF
     MD5 check sum: 8f42caffe07f7fd9c0a564347f8c5498
     Pseudo is Ultrasoft + core correction, Zval = 12.0
     Generated by new atomic code, or converted to UPF format
     Using radial grid of  985 points,  6 beta functions with:
                l(1) =   0
                l(2) =   0
                l(3) =   1
                l(4) =   1
                l(5) =   2
                l(6) =   2
     Q(r) pseudized with  8 coefficients,  rinner =    2.000   2.000   2.000
                                                       2.000   2.000

     PseudoPot. # 2 for Cr read from file:
     /home/vossj/suncat/psp/gbrv1.5pbe/Cr.UPF
     MD5 check sum: 0d52af634a40206e4dee301ad30da4bf
     Pseudo is Ultrasoft + core correction, Zval = 14.0
     Generated by new atomic code, or converted to UPF format
     Using radial grid of  857 points,  6 beta functions with:
                l(1) =   0
                l(2) =   0
                l(3) =   1
                l(4) =   1
                l(5) =   2
                l(6) =   2
     Q(r) pseudized with  8 coefficients,  rinner =    0.950   0.950   0.950
                                                       0.950   0.950

     vdW kernel table read from file vdW_kernel_table
     MD5 check sum: 095c7af220d748ca6e76c0b4c6cfb241

     atomic species   valence    mass     pseudopotential
        Hg1           12.00   200.59200     Hg( 1.00)
        Cr1           14.00    51.99610     Cr( 1.00)

     48 Sym. Ops., with inversion, found (32 have fractional translation)

   Cartesian axes

     site n.     atom                  positions (alat units)
         1           Hg1 tau(   1) = (   0.0000000   0.0000000   0.0000000  )
         2           Hg1 tau(   2) = (   0.0000000   2.1555661   2.1555661  )
         3           Hg1 tau(   3) = (   2.1555661   0.0000000   2.1555661  )
         4           Cr1 tau(   4) = (   2.1555661   2.1555661   0.0000000  )

     number of k points=    84  Fermi-Dirac smearing, width (Ry)=  0.0073
                       cart. coord. in units 2pi/alat
        k(    1) = (   0.0000000   0.0000000   0.0000000), wk =   0.0011574
        k(    2) = (   0.0000000   0.0000000   0.0193298), wk =   0.0069444
        k(    3) = (   0.0000000   0.0000000   0.0386596), wk =   0.0069444
        k(    4) = (   0.0000000   0.0000000   0.0579894), wk =   0.0069444
        k(    5) = (   0.0000000   0.0000000   0.0773192), wk =   0.0069444
        k(    6) = (   0.0000000   0.0000000   0.0966490), wk =   0.0069444
        k(    7) = (   0.0000000   0.0000000  -0.1159788), wk =   0.0034722
        k(    8) = (   0.0000000   0.0193298   0.0193298), wk =   0.0138889
        k(    9) = (   0.0000000   0.0193298   0.0386596), wk =   0.0277778
        k(   10) = (   0.0000000   0.0193298   0.0579894), wk =   0.0277778
        k(   11) = (   0.0000000   0.0193298   0.0773192), wk =   0.0277778
        k(   12) = (   0.0000000   0.0193298   0.0966490), wk =   0.0277778
        k(   13) = (   0.0000000   0.0193298  -0.1159788), wk =   0.0138889
        k(   14) = (   0.0000000   0.0386596   0.0386596), wk =   0.0138889
        k(   15) = (   0.0000000   0.0386596   0.0579894), wk =   0.0277778
        k(   16) = (   0.0000000   0.0386596   0.0773192), wk =   0.0277778
        k(   17) = (   0.0000000   0.0386596   0.0966490), wk =   0.0277778
        k(   18) = (   0.0000000   0.0386596  -0.1159788), wk =   0.0138889
        k(   19) = (   0.0000000   0.0579894   0.0579894), wk =   0.0138889
        k(   20) = (   0.0000000   0.0579894   0.0773192), wk =   0.0277778
        k(   21) = (   0.0000000   0.0579894   0.0966490), wk =   0.0277778
        k(   22) = (   0.0000000   0.0579894  -0.1159788), wk =   0.0138889
        k(   23) = (   0.0000000   0.0773192   0.0773192), wk =   0.0138889
        k(   24) = (   0.0000000   0.0773192   0.0966490), wk =   0.0277778
        k(   25) = (   0.0000000   0.0773192  -0.1159788), wk =   0.0138889
        k(   26) = (   0.0000000   0.0966490   0.0966490), wk =   0.0138889
        k(   27) = (   0.0000000   0.0966490  -0.1159788), wk =   0.0138889
        k(   28) = (   0.0000000  -0.1159788  -0.1159788), wk =   0.0034722
        k(   29) = (   0.0193298   0.0193298   0.0193298), wk =   0.0092593
        k(   30) = (   0.0193298   0.0193298   0.0386596), wk =   0.0277778
        k(   31) = (   0.0193298   0.0193298   0.0579894), wk =   0.0277778
        k(   32) = (   0.0193298   0.0193298   0.0773192), wk =   0.0277778
        k(   33) = (   0.0193298   0.0193298   0.0966490), wk =   0.0277778
        k(   34) = (   0.0193298   0.0193298  -0.1159788), wk =   0.0138889
        k(   35) = (   0.0193298   0.0386596   0.0386596), wk =   0.0277778
        k(   36) = (   0.0193298   0.0386596   0.0579894), wk =   0.0555556
        k(   37) = (   0.0193298   0.0386596   0.0773192), wk =   0.0555556
        k(   38) = (   0.0193298   0.0386596   0.0966490), wk =   0.0555556
        k(   39) = (   0.0193298   0.0386596  -0.1159788), wk =   0.0277778
        k(   40) = (   0.0193298   0.0579894   0.0579894), wk =   0.0277778
        k(   41) = (   0.0193298   0.0579894   0.0773192), wk =   0.0555556
        k(   42) = (   0.0193298   0.0579894   0.0966490), wk =   0.0555556
        k(   43) = (   0.0193298   0.0579894  -0.1159788), wk =   0.0277778
        k(   44) = (   0.0193298   0.0773192   0.0773192), wk =   0.0277778
        k(   45) = (   0.0193298   0.0773192   0.0966490), wk =   0.0555556
        k(   46) = (   0.0193298   0.0773192  -0.1159788), wk =   0.0277778
        k(   47) = (   0.0193298   0.0966490   0.0966490), wk =   0.0277778
        k(   48) = (   0.0193298   0.0966490  -0.1159788), wk =   0.0277778
        k(   49) = (   0.0193298  -0.1159788  -0.1159788), wk =   0.0069444
        k(   50) = (   0.0386596   0.0386596   0.0386596), wk =   0.0092593
        k(   51) = (   0.0386596   0.0386596   0.0579894), wk =   0.0277778
        k(   52) = (   0.0386596   0.0386596   0.0773192), wk =   0.0277778
        k(   53) = (   0.0386596   0.0386596   0.0966490), wk =   0.0277778
        k(   54) = (   0.0386596   0.0386596  -0.1159788), wk =   0.0138889
        k(   55) = (   0.0386596   0.0579894   0.0579894), wk =   0.0277778
        k(   56) = (   0.0386596   0.0579894   0.0773192), wk =   0.0555556
        k(   57) = (   0.0386596   0.0579894   0.0966490), wk =   0.0555556
        k(   58) = (   0.0386596   0.0579894  -0.1159788), wk =   0.0277778
        k(   59) = (   0.0386596   0.0773192   0.0773192), wk =   0.0277778
        k(   60) = (   0.0386596   0.0773192   0.0966490), wk =   0.0555556
[...]
        k(   70) = (   0.0579894   0.0773192   0.0966490), wk =   0.0555556
        k(   71) = (   0.0579894   0.0773192  -0.1159788), wk =   0.0277778
        k(   72) = (   0.0579894   0.0966490   0.0966490), wk =   0.0277778
        k(   73) = (   0.0579894   0.0966490  -0.1159788), wk =   0.0277778
        k(   74) = (   0.0579894  -0.1159788  -0.1159788), wk =   0.0069444
        k(   75) = (   0.0773192   0.0773192   0.0773192), wk =   0.0092593
        k(   76) = (   0.0773192   0.0773192   0.0966490), wk =   0.0277778
        k(   77) = (   0.0773192   0.0773192  -0.1159788), wk =   0.0138889
        k(   78) = (   0.0773192   0.0966490   0.0966490), wk =   0.0277778
        k(   79) = (   0.0773192   0.0966490  -0.1159788), wk =   0.0277778
        k(   80) = (   0.0773192  -0.1159788  -0.1159788), wk =   0.0069444
        k(   81) = (   0.0966490   0.0966490   0.0966490), wk =   0.0092593
        k(   82) = (   0.0966490   0.0966490  -0.1159788), wk =   0.0138889
        k(   83) = (   0.0966490  -0.1159788  -0.1159788), wk =   0.0069444
        k(   84) = (  -0.1159788  -0.1159788  -0.1159788), wk =   0.0011574

     Largest allocated arrays     est. size (Mb)     dimensions
     Largest temporary arrays     est. size (Mb)     dimensions

     Check: negative/imaginary core charge=   -0.000001    0.000000

     Initial potential from superposition of free atoms
     Check: negative starting charge=   -0.000658

     starting charge   48.99981, renormalised to   50.00000

     negative rho (up, down):  6.713E-04 0.000E+00

     *
     * You are using vdW-DF for exchange-correlation in this calculation.
     * Please cite the following three references that made this development
     * possible:
     *
     *   M. Dion, H. Rydberg, E. Schroder, D. C. Langreth, and
     *   B. I. Lundqvist, Phys. Rev. Lett. 92, 246401 (2004).
     *
     *   T. Thonhauser, V. R. Cooper, S. Li, A. Puzder, P. Hyldgaard, and
     *   D. C. Langreth, Phys. Rev. B 76, 125112 (2007).
     *
     *   G. Roman-Perez and J. M. Soler, Phys. Rev. Lett. 103, 096102 (2009).
     *
     *
     * If you are using vdW-DF2, please also cite:
     *
     *   K. Lee, E. D. Murray, L. Kong, B. I. Lundqvist, and
     *   D. C. Langreth, Phys. Rev. B 82, 081101(R) (2010).
     *
     *
     * If you are calculating the stress with vdW-DF, please also cite:
     *
     *   R. Sabatini, E. Kucukbenli, B. Kolb, T. Thonhauser, and
     *   S. de Gironcoli, J. Phys.: Condens. Matter 24, 424209 (2012).
     *

     Carrying out vdW-DF run using the following parameters:

     Nqs =      20    Nr_points =    1024   r_max =   100.000
     q_mesh =
               0.00001000     0.04494208     0.09755937     0.15916263
               0.23128650     0.31572767     0.41458969     0.53033537
               0.66584808     0.82450364     1.01025438     1.22772762
               1.48234092     1.78043706     2.12944203     2.53805004
               3.01644009     3.57652955     4.23227104     5.00000000

     Gradients computed in reciprocal space

     Starting wfc are   37 randomized atomic wfcs +    8 random wfc

     Self-consistent Calculation

     iteration #  1     ecut=    58.80 Ry     beta=0.10
     Davidson diagonalization with overlap
     ethr =  1.00E-02,  avg # of iterations =  5.4

[...]

     total energy              =    -503.67139541 Ry
     Harris-Foulkes estimate   =    -504.18828952 Ry
     estimated scf accuracy    <      10.37011598 Ry

[...]

     total energy              =    -503.42366476 Ry
     Harris-Foulkes estimate   =    -503.42366472 Ry
     estimated scf accuracy    <       0.00000150 Ry

     iteration # 16     ecut=    58.80 Ry     beta=0.10
     Davidson diagonalization with overlap
     ethr =  1.73E-09,  avg # of iterations =  1.1

     negative rho (up, down):  5.420E-04 0.000E+00

     End of self-consistent calculation

          k = 0.0000 0.0000 0.0000 (  4067 PWs)   bands (ev):

   -58.5035 -29.8302 -29.8302 -29.8302   3.3886   4.3772   4.5319   4.5319
     4.5319   4.8352   4.8352   5.9600   5.9600   5.9600   6.4519   6.4519
     6.9270   7.1105   7.1105   7.1105  12.3012  12.3012  13.0672  13.0672
    13.0672  13.3888  13.3888  13.3888  15.3795  15.3795  18.2127  20.9378
    20.9378  20.9378  21.3856  21.3856  21.3856  26.0031  26.0031  26.9477
    27.5880  27.7784  27.7784  27.7784  29.5863

[...]

          k = 0.0966-0.1160-0.1160 (  4136 PWs)   bands (ev):

[...]

          k =-0.1160-0.1160-0.1160 (  4224 PWs)   bands (ev):

   -58.5035 -29.8310 -29.8310 -29.8310   4.4334   4.4334   4.4334   4.5850
     5.3610   5.3610   5.3610   5.9537   5.9537   5.9537   6.2218   6.2218
     6.9387   6.9387   6.9387  10.7511  10.7511  10.7511  10.9454  11.5764
    11.5764  11.5764  13.4068  13.4068  14.3931  14.3931  14.3931  16.1721
    26.0988  26.2908  26.2908  26.2908  26.8565  26.8565  27.3898  27.3898
    27.3898  27.9440  27.9440  27.9440  32.1660

     the Fermi energy is    13.1463 ev

!    total energy              =    -503.42366617 Ry
     Harris-Foulkes estimate   =    -503.42366489 Ry
     estimated scf accuracy    <          7.0E-09 Ry

     The total energy is the sum of the following terms:

     one-electron contribution =    -101.14790111 Ry
     hartree contribution      =      95.01893923 Ry
     xc contribution           =    -144.71709667 Ry
     ewald contribution        =    -352.56571075 Ry
     smearing contrib. (-TS)   =      -0.01189687 Ry

     convergence has been achieved in  16 iterations

     Forces acting on atoms (Ry/au):

     negative rho (up, down):  5.420E-04 0.000E+00
     atom    1 type  1   force =     0.00000000    0.00000000    0.00000000
     atom    2 type  1   force =     0.00000000    0.00000000    0.00000000
     atom    3 type  1   force =     0.00000000    0.00000000    0.00000000
     atom    4 type  2   force =     0.00000000    0.00000000    0.00000000

     Total force =     0.000000     Total SCF correction =     0.000000
 !ASE

     General routines

     Parallel routines

   This run was terminated on:   8: 0:46  25Oct2017

   JOB DONE.