     Program PWSCF v.5.1rc2 (svn rev. ) starts on 25Oct2017 at 16:55:46

     Current dimensions of program PWSCF are:
     Max number of different atomic species (ntypx) = 10
     Max number of k-points (npk) =  40000
     Max angular momentum in pseudopotentials (lmaxx) =  3

     IMPORTANT: XC functional enforced from input :
     Exchange-correlation      = BEEF-VDW ( 1  4 27 13 2)
     Any further DFT definition will be discarded
     Please, verify this is what you really want

     Subspace diagonalization in iterative solution of the eigenvalue problem:
     a serial algorithm will be used

     bravais-lattice index     =            0
     lattice parameter (alat)  =       1.8897  a.u.
     unit-cell volume          =     383.3422 (a.u.)^3
     number of atoms/cell      =            4
     number of atomic types    =            2
     number of electrons       =        67.00
     number of Kohn-Sham states=           53
     kinetic-energy cutoff     =      58.7989  Ry
     charge density cutoff     =     587.9892  Ry
     convergence threshold     =      7.3E-09
     mixing beta               =       0.1000
     number of iterations used =           10  local-TF  mixing
     Exchange-correlation      = BEEF-VDW ( 1  4 27 13 2)
     nstep                     =           50

     celldm(1)=   1.889726  celldm(2)=   0.000000  celldm(3)=   0.000000
     celldm(4)=   0.000000  celldm(5)=   0.000000  celldm(6)=   0.000000

     crystal axes: (cart. coord. in units of alat)
               a(1) = (   3.844118   0.000000   0.000000 )
               a(2) = (   0.000000   3.844118   0.000000 )
               a(3) = (   0.000000   0.000000   3.844118 )

     reciprocal axes: (cart. coord. in units 2 pi/alat)
               b(1) = (  0.260138  0.000000  0.000000 )
               b(2) = (  0.000000  0.260138  0.000000 )
               b(3) = (  0.000000  0.000000  0.260138 )

     PseudoPot. # 1 for Ru read from file:
     /home/vossj/suncat/psp/gbrv1.5pbe/Ru.UPF
     MD5 check sum: 7158a806dd851261a58e6920c40ebe78
     Pseudo is Ultrasoft + core correction, Zval = 16.0
     Generated by new atomic code, or converted to UPF format
     Using radial grid of  967 points,  6 beta functions with:
                l(1) =   0
                l(2) =   0
                l(3) =   1
                l(4) =   1
                l(5) =   2
                l(6) =   2
     Q(r) pseudized with  8 coefficients,  rinner =    1.300   1.300   1.300
                                                       1.300   1.300

     PseudoPot. # 2 for Ga read from file:
     /home/vossj/suncat/psp/gbrv1.5pbe/Ga.UPF
     MD5 check sum: ccd671392a58a050fbb373893b4fcd66
     Pseudo is Ultrasoft + core correction, Zval = 19.0
     Generated by new atomic code, or converted to UPF format
     Using radial grid of  871 points,  6 beta functions with:
                l(1) =   0
                l(2) =   0
                l(3) =   1
                l(4) =   1
                l(5) =   2
                l(6) =   2
     Q(r) pseudized with  8 coefficients,  rinner =    1.250   1.250   1.250
                                                       1.250   1.250

     vdW kernel table read from file vdW_kernel_table
     MD5 check sum: 095c7af220d748ca6e76c0b4c6cfb241

     atomic species   valence    mass     pseudopotential
        Ru1           16.00   101.07000     Ru( 1.00)
        Ga1           19.00    69.72300     Ga( 1.00)

     48 Sym. Ops., with inversion, found (32 have fractional translation)

   Cartesian axes

     site n.     atom                  positions (alat units)
         1           Ru1 tau(   1) = (   0.0000000   0.0000000   0.0000000  )
         2           Ru1 tau(   2) = (   0.0000000   1.9220589   1.9220589  )
         3           Ru1 tau(   3) = (   1.9220589   0.0000000   1.9220589  )
         4           Ga1 tau(   4) = (   1.9220589   1.9220589   0.0000000  )

     number of k points=    84  Fermi-Dirac smearing, width (Ry)=  0.0073
                       cart. coord. in units 2pi/alat
        k(    1) = (   0.0000000   0.0000000   0.0000000), wk =   0.0011574
        k(    2) = (   0.0000000   0.0000000   0.0216781), wk =   0.0069444
        k(    3) = (   0.0000000   0.0000000   0.0433563), wk =   0.0069444
        k(    4) = (   0.0000000   0.0000000   0.0650344), wk =   0.0069444
        k(    5) = (   0.0000000   0.0000000   0.0867126), wk =   0.0069444
        k(    6) = (   0.0000000   0.0000000   0.1083907), wk =   0.0069444
        k(    7) = (   0.0000000   0.0000000  -0.1300689), wk =   0.0034722
        k(    8) = (   0.0000000   0.0216781   0.0216781), wk =   0.0138889
        k(    9) = (   0.0000000   0.0216781   0.0433563), wk =   0.0277778
        k(   10) = (   0.0000000   0.0216781   0.0650344), wk =   0.0277778
        k(   11) = (   0.0000000   0.0216781   0.0867126), wk =   0.0277778
        k(   12) = (   0.0000000   0.0216781   0.1083907), wk =   0.0277778
        k(   13) = (   0.0000000   0.0216781  -0.1300689), wk =   0.0138889
        k(   14) = (   0.0000000   0.0433563   0.0433563), wk =   0.0138889
        k(   15) = (   0.0000000   0.0433563   0.0650344), wk =   0.0277778
        k(   16) = (   0.0000000   0.0433563   0.0867126), wk =   0.0277778
        k(   17) = (   0.0000000   0.0433563   0.1083907), wk =   0.0277778
        k(   18) = (   0.0000000   0.0433563  -0.1300689), wk =   0.0138889
        k(   19) = (   0.0000000   0.0650344   0.0650344), wk =   0.0138889
        k(   20) = (   0.0000000   0.0650344   0.0867126), wk =   0.0277778
        k(   21) = (   0.0000000   0.0650344   0.1083907), wk =   0.0277778
        k(   22) = (   0.0000000   0.0650344  -0.1300689), wk =   0.0138889
        k(   23) = (   0.0000000   0.0867126   0.0867126), wk =   0.0138889
        k(   24) = (   0.0000000   0.0867126   0.1083907), wk =   0.0277778
        k(   25) = (   0.0000000   0.0867126  -0.1300689), wk =   0.0138889
        k(   26) = (   0.0000000   0.1083907   0.1083907), wk =   0.0138889
        k(   27) = (   0.0000000   0.1083907  -0.1300689), wk =   0.0138889
        k(   28) = (   0.0000000  -0.1300689  -0.1300689), wk =   0.0034722
        k(   29) = (   0.0216781   0.0216781   0.0216781), wk =   0.0092593
        k(   30) = (   0.0216781   0.0216781   0.0433563), wk =   0.0277778
        k(   31) = (   0.0216781   0.0216781   0.0650344), wk =   0.0277778
        k(   32) = (   0.0216781   0.0216781   0.0867126), wk =   0.0277778
        k(   33) = (   0.0216781   0.0216781   0.1083907), wk =   0.0277778
        k(   34) = (   0.0216781   0.0216781  -0.1300689), wk =   0.0138889
        k(   35) = (   0.0216781   0.0433563   0.0433563), wk =   0.0277778
        k(   36) = (   0.0216781   0.0433563   0.0650344), wk =   0.0555556
        k(   37) = (   0.0216781   0.0433563   0.0867126), wk =   0.0555556
        k(   38) = (   0.0216781   0.0433563   0.1083907), wk =   0.0555556
        k(   39) = (   0.0216781   0.0433563  -0.1300689), wk =   0.0277778
        k(   40) = (   0.0216781   0.0650344   0.0650344), wk =   0.0277778
        k(   41) = (   0.0216781   0.0650344   0.0867126), wk =   0.0555556
        k(   42) = (   0.0216781   0.0650344   0.1083907), wk =   0.0555556
        k(   43) = (   0.0216781   0.0650344  -0.1300689), wk =   0.0277778
        k(   44) = (   0.0216781   0.0867126   0.0867126), wk =   0.0277778
        k(   45) = (   0.0216781   0.0867126   0.1083907), wk =   0.0555556
        k(   46) = (   0.0216781   0.0867126  -0.1300689), wk =   0.0277778
        k(   47) = (   0.0216781   0.1083907   0.1083907), wk =   0.0277778
        k(   48) = (   0.0216781   0.1083907  -0.1300689), wk =   0.0277778
        k(   49) = (   0.0216781  -0.1300689  -0.1300689), wk =   0.0069444
        k(   50) = (   0.0433563   0.0433563   0.0433563), wk =   0.0092593
        k(   51) = (   0.0433563   0.0433563   0.0650344), wk =   0.0277778
        k(   52) = (   0.0433563   0.0433563   0.0867126), wk =   0.0277778
        k(   53) = (   0.0433563   0.0433563   0.1083907), wk =   0.0277778
        k(   54) = (   0.0433563   0.0433563  -0.1300689), wk =   0.0138889
        k(   55) = (   0.0433563   0.0650344   0.0650344), wk =   0.0277778
        k(   56) = (   0.0433563   0.0650344   0.0867126), wk =   0.0555556
        k(   57) = (   0.0433563   0.0650344   0.1083907), wk =   0.0555556
        k(   58) = (   0.0433563   0.0650344  -0.1300689), wk =   0.0277778
        k(   59) = (   0.0433563   0.0867126   0.0867126), wk =   0.0277778
        k(   60) = (   0.0433563   0.0867126   0.1083907), wk =   0.0555556
[...]
        k(   70) = (   0.0650344   0.0867126   0.1083907), wk =   0.0555556
        k(   71) = (   0.0650344   0.0867126  -0.1300689), wk =   0.0277778
        k(   72) = (   0.0650344   0.1083907   0.1083907), wk =   0.0277778
        k(   73) = (   0.0650344   0.1083907  -0.1300689), wk =   0.0277778
        k(   74) = (   0.0650344  -0.1300689  -0.1300689), wk =   0.0069444
        k(   75) = (   0.0867126   0.0867126   0.0867126), wk =   0.0092593
        k(   76) = (   0.0867126   0.0867126   0.1083907), wk =   0.0277778
        k(   77) = (   0.0867126   0.0867126  -0.1300689), wk =   0.0138889
        k(   78) = (   0.0867126   0.1083907   0.1083907), wk =   0.0277778
        k(   79) = (   0.0867126   0.1083907  -0.1300689), wk =   0.0277778
        k(   80) = (   0.0867126  -0.1300689  -0.1300689), wk =   0.0069444
        k(   81) = (   0.1083907   0.1083907   0.1083907), wk =   0.0092593
        k(   82) = (   0.1083907   0.1083907  -0.1300689), wk =   0.0138889
        k(   83) = (   0.1083907  -0.1300689  -0.1300689), wk =   0.0069444
        k(   84) = (  -0.1300689  -0.1300689  -0.1300689), wk =   0.0011574

     Largest allocated arrays     est. size (Mb)     dimensions
     Largest temporary arrays     est. size (Mb)     dimensions

     Initial potential from superposition of free atoms
     Check: negative starting charge=   -0.222158

     starting charge   62.99995, renormalised to   67.00000

     negative rho (up, down):  2.363E-01 0.000E+00

     *
     * You are using vdW-DF for exchange-correlation in this calculation.
     * Please cite the following three references that made this development
     * possible:
     *
     *   M. Dion, H. Rydberg, E. Schroder, D. C. Langreth, and
     *   B. I. Lundqvist, Phys. Rev. Lett. 92, 246401 (2004).
     *
     *   T. Thonhauser, V. R. Cooper, S. Li, A. Puzder, P. Hyldgaard, and
     *   D. C. Langreth, Phys. Rev. B 76, 125112 (2007).
     *
     *   G. Roman-Perez and J. M. Soler, Phys. Rev. Lett. 103, 096102 (2009).
     *
     *
     * If you are using vdW-DF2, please also cite:
     *
     *   K. Lee, E. D. Murray, L. Kong, B. I. Lundqvist, and
     *   D. C. Langreth, Phys. Rev. B 82, 081101(R) (2010).
     *
     *
     * If you are calculating the stress with vdW-DF, please also cite:
     *
     *   R. Sabatini, E. Kucukbenli, B. Kolb, T. Thonhauser, and
     *   S. de Gironcoli, J. Phys.: Condens. Matter 24, 424209 (2012).
     *

     Carrying out vdW-DF run using the following parameters:

     Nqs =      20    Nr_points =    1024   r_max =   100.000
     q_mesh =
               0.00001000     0.04494208     0.09755937     0.15916263
               0.23128650     0.31572767     0.41458969     0.53033537
               0.66584808     0.82450364     1.01025438     1.22772762
               1.48234092     1.78043706     2.12944203     2.53805004
               3.01644009     3.57652955     4.23227104     5.00000000

     Gradients computed in reciprocal space

     Starting wfc are   51 randomized atomic wfcs +    2 random wfc

     Self-consistent Calculation

     iteration #  1     ecut=    58.80 Ry     beta=0.10
     Davidson diagonalization with overlap
     ethr =  1.00E-02,  avg # of iterations =  4.4

[...]

     total energy              =   -1003.12024591 Ry
     Harris-Foulkes estimate   =   -1006.50716934 Ry
     estimated scf accuracy    <      53.89112332 Ry

[...]

     total energy              =   -1002.02211891 Ry
     Harris-Foulkes estimate   =   -1002.02211881 Ry
     estimated scf accuracy    <       0.00000019 Ry

     iteration # 16     ecut=    58.80 Ry     beta=0.10
     Davidson diagonalization with overlap
     ethr =  2.78E-10,  avg # of iterations =  2.1

     negative rho (up, down):  2.267E-01 0.000E+00

     End of self-consistent calculation

          k = 0.0000 0.0000 0.0000 (  2945 PWs)   bands (ev):

   -74.1119 -74.1119 -74.1119 -52.4637 -52.3159 -52.3159 -22.6832 -22.6832
   -22.6832 -22.2726 -22.2726 -22.2726 -22.0767 -22.0767 -22.0767   5.4669
     5.4669   5.4851   5.4851   5.4851  10.6745  14.2941  15.9537  15.9537
    15.9537  16.1313  16.1313  19.6038  19.6038  19.6038  21.0265  21.0265
    21.3105  21.3105  21.3105  22.0715  22.5805  22.5805  22.5805  26.5296
    30.5188  30.5188  30.5188  30.9057  30.9057  34.1221  34.1221  34.1221
    36.0622  39.4507  39.4507  39.4507  39.4750

[...]

          k = 0.1084-0.1301-0.1301 (  2936 PWs)   bands (ev):

[...]

          k =-0.1301-0.1301-0.1301 (  2872 PWs)   bands (ev):

   -74.1119 -74.1119 -74.1119 -52.3643 -52.3643 -52.3643 -22.9162 -22.5982
   -22.5982 -22.5982 -22.1305 -22.1305 -22.0647 -22.0647 -22.0647   5.4743
     5.4743   5.4743   5.5461   5.5461  12.3232  15.7734  15.7734  15.7734
    17.9968  17.9968  17.9968  18.8904  18.8904  18.8904  19.5076  19.5076
    19.5076  20.2589  20.2589  21.5313  22.1091  22.1091  22.1091  23.5099
    28.1949  28.1949  28.1949  35.0889  35.0889  35.0889  35.4431  36.8396
    36.8396  36.8396  40.6547  41.0870  41.0870

     the Fermi energy is    20.3793 ev

!    total energy              =   -1002.02211982 Ry
     Harris-Foulkes estimate   =   -1002.02211895 Ry
     estimated scf accuracy    <          5.5E-10 Ry

     The total energy is the sum of the following terms:

     one-electron contribution =    -414.84706783 Ry
     hartree contribution      =     253.91706610 Ry
     xc contribution           =    -130.67760231 Ry
     ewald contribution        =    -710.40017831 Ry
     smearing contrib. (-TS)   =      -0.01433747 Ry

     convergence has been achieved in  16 iterations

     Forces acting on atoms (Ry/au):

     negative rho (up, down):  2.267E-01 0.000E+00
     atom    1 type  1   force =     0.00000000    0.00000000    0.00000000
     atom    2 type  1   force =     0.00000000   -0.00000000    0.00000000
     atom    3 type  1   force =     0.00000000    0.00000000    0.00000000
     atom    4 type  2   force =     0.00000000   -0.00000000   -0.00000000

     Total force =     0.000000     Total SCF correction =     0.000000
 !ASE

     General routines

     Parallel routines

   This run was terminated on:  16:56:53  25Oct2017

   JOB DONE.