     Program PWSCF v.5.1rc2 (svn rev. ) starts on 25Oct2017 at 17:56:54

     Current dimensions of program PWSCF are:
     Max number of different atomic species (ntypx) = 10
     Max number of k-points (npk) =  40000
     Max angular momentum in pseudopotentials (lmaxx) =  3

     IMPORTANT: XC functional enforced from input :
     Exchange-correlation      = BEEF-VDW ( 1  4 27 13 2)
     Any further DFT definition will be discarded
     Please, verify this is what you really want

     Subspace diagonalization in iterative solution of the eigenvalue problem:
     a serial algorithm will be used

     bravais-lattice index     =            0
     lattice parameter (alat)  =       1.8897  a.u.
     unit-cell volume          =     422.5292 (a.u.)^3
     number of atoms/cell      =            4
     number of atomic types    =            2
     number of electrons       =        60.00
     number of Kohn-Sham states=           50
     kinetic-energy cutoff     =      58.7989  Ry
     charge density cutoff     =     587.9892  Ry
     convergence threshold     =      7.3E-09
     mixing beta               =       0.1000
     number of iterations used =           10  local-TF  mixing
     Exchange-correlation      = BEEF-VDW ( 1  4 27 13 2)
     nstep                     =           50

     celldm(1)=   1.889726  celldm(2)=   0.000000  celldm(3)=   0.000000
     celldm(4)=   0.000000  celldm(5)=   0.000000  celldm(6)=   0.000000

     crystal axes: (cart. coord. in units of alat)
               a(1) = (   3.970879   0.000000   0.000000 )
               a(2) = (   0.000000   3.970879   0.000000 )
               a(3) = (   0.000000   0.000000   3.970879 )

     reciprocal axes: (cart. coord. in units 2 pi/alat)
               b(1) = (  0.251833  0.000000  0.000000 )
               b(2) = (  0.000000  0.251833  0.000000 )
               b(3) = (  0.000000  0.000000  0.251833 )

     PseudoPot. # 1 for Ru read from file:
     /home/vossj/suncat/psp/gbrv1.5pbe/Ru.UPF
     MD5 check sum: 7158a806dd851261a58e6920c40ebe78
     Pseudo is Ultrasoft + core correction, Zval = 16.0
     Generated by new atomic code, or converted to UPF format
     Using radial grid of  967 points,  6 beta functions with:
                l(1) =   0
                l(2) =   0
                l(3) =   1
                l(4) =   1
                l(5) =   2
                l(6) =   2
     Q(r) pseudized with  8 coefficients,  rinner =    1.300   1.300   1.300
                                                       1.300   1.300

     PseudoPot. # 2 for Zr read from file:
     /home/vossj/suncat/psp/gbrv1.5pbe/Zr.UPF
     MD5 check sum: 5db81b1e868ab7776c4564c113de050b
     Pseudo is Ultrasoft + core correction, Zval = 12.0
     Generated by new atomic code, or converted to UPF format
     Using radial grid of  887 points,  6 beta functions with:
                l(1) =   0
                l(2) =   0
                l(3) =   1
                l(4) =   1
                l(5) =   2
                l(6) =   2
     Q(r) pseudized with  6 coefficients,  rinner =    1.200   1.200   1.200
                                                       1.200   1.200

     vdW kernel table read from file vdW_kernel_table
     MD5 check sum: 095c7af220d748ca6e76c0b4c6cfb241

     atomic species   valence    mass     pseudopotential
        Ru1           16.00   101.07000     Ru( 1.00)
        Zr1           12.00    91.22400     Zr( 1.00)

     48 Sym. Ops., with inversion, found (32 have fractional translation)

   Cartesian axes

     site n.     atom                  positions (alat units)
         1           Ru1 tau(   1) = (   0.0000000   0.0000000   0.0000000  )
         2           Ru1 tau(   2) = (   0.0000000   1.9854397   1.9854397  )
         3           Ru1 tau(   3) = (   1.9854397   0.0000000   1.9854397  )
         4           Zr1 tau(   4) = (   1.9854397   1.9854397   0.0000000  )

     number of k points=    84  Fermi-Dirac smearing, width (Ry)=  0.0073
                       cart. coord. in units 2pi/alat
        k(    1) = (   0.0000000   0.0000000   0.0000000), wk =   0.0011574
        k(    2) = (   0.0000000   0.0000000   0.0209861), wk =   0.0069444
        k(    3) = (   0.0000000   0.0000000   0.0419722), wk =   0.0069444
        k(    4) = (   0.0000000   0.0000000   0.0629583), wk =   0.0069444
        k(    5) = (   0.0000000   0.0000000   0.0839445), wk =   0.0069444
        k(    6) = (   0.0000000   0.0000000   0.1049306), wk =   0.0069444
        k(    7) = (   0.0000000   0.0000000  -0.1259167), wk =   0.0034722
        k(    8) = (   0.0000000   0.0209861   0.0209861), wk =   0.0138889
        k(    9) = (   0.0000000   0.0209861   0.0419722), wk =   0.0277778
        k(   10) = (   0.0000000   0.0209861   0.0629583), wk =   0.0277778
        k(   11) = (   0.0000000   0.0209861   0.0839445), wk =   0.0277778
        k(   12) = (   0.0000000   0.0209861   0.1049306), wk =   0.0277778
        k(   13) = (   0.0000000   0.0209861  -0.1259167), wk =   0.0138889
        k(   14) = (   0.0000000   0.0419722   0.0419722), wk =   0.0138889
        k(   15) = (   0.0000000   0.0419722   0.0629583), wk =   0.0277778
        k(   16) = (   0.0000000   0.0419722   0.0839445), wk =   0.0277778
        k(   17) = (   0.0000000   0.0419722   0.1049306), wk =   0.0277778
        k(   18) = (   0.0000000   0.0419722  -0.1259167), wk =   0.0138889
        k(   19) = (   0.0000000   0.0629583   0.0629583), wk =   0.0138889
        k(   20) = (   0.0000000   0.0629583   0.0839445), wk =   0.0277778
        k(   21) = (   0.0000000   0.0629583   0.1049306), wk =   0.0277778
        k(   22) = (   0.0000000   0.0629583  -0.1259167), wk =   0.0138889
        k(   23) = (   0.0000000   0.0839445   0.0839445), wk =   0.0138889
        k(   24) = (   0.0000000   0.0839445   0.1049306), wk =   0.0277778
        k(   25) = (   0.0000000   0.0839445  -0.1259167), wk =   0.0138889
        k(   26) = (   0.0000000   0.1049306   0.1049306), wk =   0.0138889
        k(   27) = (   0.0000000   0.1049306  -0.1259167), wk =   0.0138889
        k(   28) = (   0.0000000  -0.1259167  -0.1259167), wk =   0.0034722
        k(   29) = (   0.0209861   0.0209861   0.0209861), wk =   0.0092593
        k(   30) = (   0.0209861   0.0209861   0.0419722), wk =   0.0277778
        k(   31) = (   0.0209861   0.0209861   0.0629583), wk =   0.0277778
        k(   32) = (   0.0209861   0.0209861   0.0839445), wk =   0.0277778
        k(   33) = (   0.0209861   0.0209861   0.1049306), wk =   0.0277778
        k(   34) = (   0.0209861   0.0209861  -0.1259167), wk =   0.0138889
        k(   35) = (   0.0209861   0.0419722   0.0419722), wk =   0.0277778
        k(   36) = (   0.0209861   0.0419722   0.0629583), wk =   0.0555556
        k(   37) = (   0.0209861   0.0419722   0.0839445), wk =   0.0555556
        k(   38) = (   0.0209861   0.0419722   0.1049306), wk =   0.0555556
        k(   39) = (   0.0209861   0.0419722  -0.1259167), wk =   0.0277778
        k(   40) = (   0.0209861   0.0629583   0.0629583), wk =   0.0277778
        k(   41) = (   0.0209861   0.0629583   0.0839445), wk =   0.0555556
        k(   42) = (   0.0209861   0.0629583   0.1049306), wk =   0.0555556
        k(   43) = (   0.0209861   0.0629583  -0.1259167), wk =   0.0277778
        k(   44) = (   0.0209861   0.0839445   0.0839445), wk =   0.0277778
        k(   45) = (   0.0209861   0.0839445   0.1049306), wk =   0.0555556
        k(   46) = (   0.0209861   0.0839445  -0.1259167), wk =   0.0277778
        k(   47) = (   0.0209861   0.1049306   0.1049306), wk =   0.0277778
        k(   48) = (   0.0209861   0.1049306  -0.1259167), wk =   0.0277778
        k(   49) = (   0.0209861  -0.1259167  -0.1259167), wk =   0.0069444
        k(   50) = (   0.0419722   0.0419722   0.0419722), wk =   0.0092593
        k(   51) = (   0.0419722   0.0419722   0.0629583), wk =   0.0277778
        k(   52) = (   0.0419722   0.0419722   0.0839445), wk =   0.0277778
        k(   53) = (   0.0419722   0.0419722   0.1049306), wk =   0.0277778
        k(   54) = (   0.0419722   0.0419722  -0.1259167), wk =   0.0138889
        k(   55) = (   0.0419722   0.0629583   0.0629583), wk =   0.0277778
        k(   56) = (   0.0419722   0.0629583   0.0839445), wk =   0.0555556
        k(   57) = (   0.0419722   0.0629583   0.1049306), wk =   0.0555556
        k(   58) = (   0.0419722   0.0629583  -0.1259167), wk =   0.0277778
        k(   59) = (   0.0419722   0.0839445   0.0839445), wk =   0.0277778
        k(   60) = (   0.0419722   0.0839445   0.1049306), wk =   0.0555556
[...]
        k(   70) = (   0.0629583   0.0839445   0.1049306), wk =   0.0555556
        k(   71) = (   0.0629583   0.0839445  -0.1259167), wk =   0.0277778
        k(   72) = (   0.0629583   0.1049306   0.1049306), wk =   0.0277778
        k(   73) = (   0.0629583   0.1049306  -0.1259167), wk =   0.0277778
        k(   74) = (   0.0629583  -0.1259167  -0.1259167), wk =   0.0069444
        k(   75) = (   0.0839445   0.0839445   0.0839445), wk =   0.0092593
        k(   76) = (   0.0839445   0.0839445   0.1049306), wk =   0.0277778
        k(   77) = (   0.0839445   0.0839445  -0.1259167), wk =   0.0138889
        k(   78) = (   0.0839445   0.1049306   0.1049306), wk =   0.0277778
        k(   79) = (   0.0839445   0.1049306  -0.1259167), wk =   0.0277778
        k(   80) = (   0.0839445  -0.1259167  -0.1259167), wk =   0.0069444
        k(   81) = (   0.1049306   0.1049306   0.1049306), wk =   0.0092593
        k(   82) = (   0.1049306   0.1049306  -0.1259167), wk =   0.0138889
        k(   83) = (   0.1049306  -0.1259167  -0.1259167), wk =   0.0069444
        k(   84) = (  -0.1259167  -0.1259167  -0.1259167), wk =   0.0011574

     Largest allocated arrays     est. size (Mb)     dimensions
     Largest temporary arrays     est. size (Mb)     dimensions

     Initial potential from superposition of free atoms
     Check: negative starting charge=   -0.285214

     starting charge   56.99780, renormalised to   60.00000

     negative rho (up, down):  3.002E-01 0.000E+00

     *
     * You are using vdW-DF for exchange-correlation in this calculation.
     * Please cite the following three references that made this development
     * possible:
     *
     *   M. Dion, H. Rydberg, E. Schroder, D. C. Langreth, and
     *   B. I. Lundqvist, Phys. Rev. Lett. 92, 246401 (2004).
     *
     *   T. Thonhauser, V. R. Cooper, S. Li, A. Puzder, P. Hyldgaard, and
     *   D. C. Langreth, Phys. Rev. B 76, 125112 (2007).
     *
     *   G. Roman-Perez and J. M. Soler, Phys. Rev. Lett. 103, 096102 (2009).
     *
     *
     * If you are using vdW-DF2, please also cite:
     *
     *   K. Lee, E. D. Murray, L. Kong, B. I. Lundqvist, and
     *   D. C. Langreth, Phys. Rev. B 82, 081101(R) (2010).
     *
     *
     * If you are calculating the stress with vdW-DF, please also cite:
     *
     *   R. Sabatini, E. Kucukbenli, B. Kolb, T. Thonhauser, and
     *   S. de Gironcoli, J. Phys.: Condens. Matter 24, 424209 (2012).
     *

     Carrying out vdW-DF run using the following parameters:

     Nqs =      20    Nr_points =    1024   r_max =   100.000
     q_mesh =
               0.00001000     0.04494208     0.09755937     0.15916263
               0.23128650     0.31572767     0.41458969     0.53033537
               0.66584808     0.82450364     1.01025438     1.22772762
               1.48234092     1.78043706     2.12944203     2.53805004
               3.01644009     3.57652955     4.23227104     5.00000000

     Gradients computed in reciprocal space

     Starting wfc are   52 randomized atomic wfcs

     Self-consistent Calculation

     iteration #  1     ecut=    58.80 Ry     beta=0.10
     Davidson diagonalization with overlap
     ethr =  1.00E-02,  avg # of iterations =  4.6

[...]

     total energy              =    -686.03032804 Ry
     Harris-Foulkes estimate   =    -686.27364430 Ry
     estimated scf accuracy    <       3.77072305 Ry

[...]

     total energy              =    -685.29682227 Ry
     Harris-Foulkes estimate   =    -685.29682617 Ry
     estimated scf accuracy    <       0.00000003 Ry

     iteration # 15     ecut=    58.80 Ry     beta=0.10
     Davidson diagonalization with overlap
     ethr =  5.05E-11,  avg # of iterations =  1.0

     negative rho (up, down):  2.929E-01 0.000E+00

     End of self-consistent calculation

          k = 0.0000 0.0000 0.0000 (  3191 PWs)   bands (ev):

   -52.5573 -52.4587 -52.4587 -28.5645 -22.7168 -22.7168 -22.7168 -22.4018
   -22.4018 -22.4018 -22.2715 -22.2715 -22.2715  -6.5611  -6.5611  -6.5611
    13.3509  14.9396  14.9396  15.0649  15.5024  15.5024  15.5024  18.5126
    18.5126  18.5126  20.4148  20.4148  21.5305  21.9824  21.9824  21.9824
    23.9734  23.9734  23.9734  24.2148  24.2148  25.5499  25.5499  25.5499
    31.8089  31.8089  31.8089  33.5186  33.8030  33.8030  34.0854  34.0854
    34.0854  34.1227

[...]

          k = 0.1049-0.1259-0.1259 (  3212 PWs)   bands (ev):

[...]

          k =-0.1259-0.1259-0.1259 (  3184 PWs)   bands (ev):

   -52.4910 -52.4910 -52.4910 -28.5581 -22.8906 -22.6468 -22.6468 -22.6468
   -22.3236 -22.3236 -22.2485 -22.2485 -22.2485  -6.6018  -6.6018  -6.6018
    15.1829  15.1829  15.1829  15.5558  17.9282  17.9282  17.9282  18.4366
    18.4366  18.4366  18.9237  18.9237  20.9671  21.5700  21.5700  21.5700
    21.8208  21.8208  21.8208  23.8071  23.8071  23.8071  24.7303  24.7303
    30.6699  30.6699  30.6699  31.2686  33.6623  33.6623  33.6623  33.9595
    38.5782  38.5782

     the Fermi energy is    19.9066 ev

!    total energy              =    -685.29682739 Ry
     Harris-Foulkes estimate   =    -685.29682228 Ry
     estimated scf accuracy    <          3.7E-10 Ry

     The total energy is the sum of the following terms:

     one-electron contribution =    -143.41872435 Ry
     hartree contribution      =     110.93004616 Ry
     xc contribution           =     -99.29109539 Ry
     ewald contribution        =    -553.50514437 Ry
     smearing contrib. (-TS)   =      -0.01190944 Ry

     convergence has been achieved in  15 iterations

     Forces acting on atoms (Ry/au):

     negative rho (up, down):  2.929E-01 0.000E+00
     atom    1 type  1   force =     0.00000000    0.00000000   -0.00000000
     atom    2 type  1   force =     0.00000000    0.00000000   -0.00000000
     atom    3 type  1   force =     0.00000000    0.00000000    0.00000000
     atom    4 type  2   force =     0.00000000    0.00000000    0.00000000

     Total force =     0.000000     Total SCF correction =     0.000000
 !ASE

     General routines

     Parallel routines

   This run was terminated on:  17:57:58  25Oct2017

   JOB DONE.