     Program PWSCF v.5.1rc2 (svn rev. ) starts on 31Oct2017 at 16:21:35

     Current dimensions of program PWSCF are:
     Max number of different atomic species (ntypx) = 10
     Max number of k-points (npk) =  40000
     Max angular momentum in pseudopotentials (lmaxx) =  3

     IMPORTANT: XC functional enforced from input :
     Exchange-correlation      = BEEF-VDW ( 1  4 27 13 2)
     Any further DFT definition will be discarded
     Please, verify this is what you really want

     Subspace diagonalization in iterative solution of the eigenvalue problem:
     a serial algorithm will be used

     bravais-lattice index     =            0
     lattice parameter (alat)  =       1.8897  a.u.
     unit-cell volume          =     408.8352 (a.u.)^3
     number of atoms/cell      =            4
     number of atomic types    =            2
     number of electrons       =        62.00
     number of Kohn-Sham states=           51
     kinetic-energy cutoff     =      58.7989  Ry
     charge density cutoff     =     587.9892  Ry
     convergence threshold     =      7.3E-09
     mixing beta               =       0.1000
     number of iterations used =           10  local-TF  mixing
     Exchange-correlation      = BEEF-VDW ( 1  4 27 13 2)
     nstep                     =           50

     celldm(1)=   1.889726  celldm(2)=   0.000000  celldm(3)=   0.000000
     celldm(4)=   0.000000  celldm(5)=   0.000000  celldm(6)=   0.000000

     crystal axes: (cart. coord. in units of alat)
               a(1) = (   3.927509   0.000000   0.000000 )
               a(2) = (   0.000000   3.927509   0.000000 )
               a(3) = (   0.000000   0.000000   3.927509 )

     reciprocal axes: (cart. coord. in units 2 pi/alat)
               b(1) = (  0.254614  0.000000  0.000000 )
               b(2) = (  0.000000  0.254614  0.000000 )
               b(3) = (  0.000000  0.000000  0.254614 )

     PseudoPot. # 1 for Co read from file:
     /home/vossj/suncat/psp/gbrv1.5pbe/Co.UPF
     MD5 check sum: 5f91765df6ddd3222702df6e7b74a16d
     Pseudo is Ultrasoft + core correction, Zval = 17.0
     Generated by new atomic code, or converted to UPF format
     Using radial grid of  863 points,  6 beta functions with:
                l(1) =   0
                l(2) =   0
                l(3) =   1
                l(4) =   1
                l(5) =   2
                l(6) =   2
     Q(r) pseudized with  8 coefficients,  rinner =    1.200   1.200   1.200
                                                       1.200   1.200

     PseudoPot. # 2 for La read from file:
     /home/vossj/suncat/psp/gbrv1.5pbe/La.UPF
     MD5 check sum: 5937b0c7494ba0601a847275249473aa
     Pseudo is Ultrasoft + core correction, Zval = 11.0
     Generated by new atomic code, or converted to UPF format
     Using radial grid of  995 points,  8 beta functions with:
                l(1) =   0
                l(2) =   0
                l(3) =   1
                l(4) =   1
                l(5) =   2
                l(6) =   2
                l(7) =   3
                l(8) =   3
     Q(r) pseudized with  8 coefficients,  rinner =    1.700   1.700   1.700
                                                       1.700   1.700   1.700
                                                       1.700

     vdW kernel table read from file vdW_kernel_table
     MD5 check sum: 095c7af220d748ca6e76c0b4c6cfb241

     atomic species   valence    mass     pseudopotential
        Co1           17.00    58.93319     Co( 1.00)
        La1           11.00   138.90547     La( 1.00)

     48 Sym. Ops., with inversion, found (32 have fractional translation)

   Cartesian axes

     site n.     atom                  positions (alat units)
         1           Co1 tau(   1) = (   0.0000000   0.0000000   0.0000000  )
         2           Co1 tau(   2) = (   0.0000000   1.9637547   1.9637547  )
         3           Co1 tau(   3) = (   1.9637547   0.0000000   1.9637547  )
         4           La1 tau(   4) = (   1.9637547   1.9637547   0.0000000  )

     number of k points=    84  Fermi-Dirac smearing, width (Ry)=  0.0073
                       cart. coord. in units 2pi/alat
        k(    1) = (   0.0000000   0.0000000   0.0000000), wk =   0.0011574
        k(    2) = (   0.0000000   0.0000000   0.0212179), wk =   0.0069444
        k(    3) = (   0.0000000   0.0000000   0.0424357), wk =   0.0069444
        k(    4) = (   0.0000000   0.0000000   0.0636536), wk =   0.0069444
        k(    5) = (   0.0000000   0.0000000   0.0848714), wk =   0.0069444
        k(    6) = (   0.0000000   0.0000000   0.1060893), wk =   0.0069444
        k(    7) = (   0.0000000   0.0000000  -0.1273071), wk =   0.0034722
        k(    8) = (   0.0000000   0.0212179   0.0212179), wk =   0.0138889
        k(    9) = (   0.0000000   0.0212179   0.0424357), wk =   0.0277778
        k(   10) = (   0.0000000   0.0212179   0.0636536), wk =   0.0277778
        k(   11) = (   0.0000000   0.0212179   0.0848714), wk =   0.0277778
        k(   12) = (   0.0000000   0.0212179   0.1060893), wk =   0.0277778
        k(   13) = (   0.0000000   0.0212179  -0.1273071), wk =   0.0138889
        k(   14) = (   0.0000000   0.0424357   0.0424357), wk =   0.0138889
        k(   15) = (   0.0000000   0.0424357   0.0636536), wk =   0.0277778
        k(   16) = (   0.0000000   0.0424357   0.0848714), wk =   0.0277778
        k(   17) = (   0.0000000   0.0424357   0.1060893), wk =   0.0277778
        k(   18) = (   0.0000000   0.0424357  -0.1273071), wk =   0.0138889
        k(   19) = (   0.0000000   0.0636536   0.0636536), wk =   0.0138889
        k(   20) = (   0.0000000   0.0636536   0.0848714), wk =   0.0277778
        k(   21) = (   0.0000000   0.0636536   0.1060893), wk =   0.0277778
        k(   22) = (   0.0000000   0.0636536  -0.1273071), wk =   0.0138889
        k(   23) = (   0.0000000   0.0848714   0.0848714), wk =   0.0138889
        k(   24) = (   0.0000000   0.0848714   0.1060893), wk =   0.0277778
        k(   25) = (   0.0000000   0.0848714  -0.1273071), wk =   0.0138889
        k(   26) = (   0.0000000   0.1060893   0.1060893), wk =   0.0138889
        k(   27) = (   0.0000000   0.1060893  -0.1273071), wk =   0.0138889
        k(   28) = (   0.0000000  -0.1273071  -0.1273071), wk =   0.0034722
        k(   29) = (   0.0212179   0.0212179   0.0212179), wk =   0.0092593
        k(   30) = (   0.0212179   0.0212179   0.0424357), wk =   0.0277778
        k(   31) = (   0.0212179   0.0212179   0.0636536), wk =   0.0277778
        k(   32) = (   0.0212179   0.0212179   0.0848714), wk =   0.0277778
        k(   33) = (   0.0212179   0.0212179   0.1060893), wk =   0.0277778
        k(   34) = (   0.0212179   0.0212179  -0.1273071), wk =   0.0138889
        k(   35) = (   0.0212179   0.0424357   0.0424357), wk =   0.0277778
        k(   36) = (   0.0212179   0.0424357   0.0636536), wk =   0.0555556
        k(   37) = (   0.0212179   0.0424357   0.0848714), wk =   0.0555556
        k(   38) = (   0.0212179   0.0424357   0.1060893), wk =   0.0555556
        k(   39) = (   0.0212179   0.0424357  -0.1273071), wk =   0.0277778
        k(   40) = (   0.0212179   0.0636536   0.0636536), wk =   0.0277778
        k(   41) = (   0.0212179   0.0636536   0.0848714), wk =   0.0555556
        k(   42) = (   0.0212179   0.0636536   0.1060893), wk =   0.0555556
        k(   43) = (   0.0212179   0.0636536  -0.1273071), wk =   0.0277778
        k(   44) = (   0.0212179   0.0848714   0.0848714), wk =   0.0277778
        k(   45) = (   0.0212179   0.0848714   0.1060893), wk =   0.0555556
        k(   46) = (   0.0212179   0.0848714  -0.1273071), wk =   0.0277778
        k(   47) = (   0.0212179   0.1060893   0.1060893), wk =   0.0277778
        k(   48) = (   0.0212179   0.1060893  -0.1273071), wk =   0.0277778
        k(   49) = (   0.0212179  -0.1273071  -0.1273071), wk =   0.0069444
        k(   50) = (   0.0424357   0.0424357   0.0424357), wk =   0.0092593
        k(   51) = (   0.0424357   0.0424357   0.0636536), wk =   0.0277778
        k(   52) = (   0.0424357   0.0424357   0.0848714), wk =   0.0277778
        k(   53) = (   0.0424357   0.0424357   0.1060893), wk =   0.0277778
        k(   54) = (   0.0424357   0.0424357  -0.1273071), wk =   0.0138889
        k(   55) = (   0.0424357   0.0636536   0.0636536), wk =   0.0277778
        k(   56) = (   0.0424357   0.0636536   0.0848714), wk =   0.0555556
        k(   57) = (   0.0424357   0.0636536   0.1060893), wk =   0.0555556
        k(   58) = (   0.0424357   0.0636536  -0.1273071), wk =   0.0277778
        k(   59) = (   0.0424357   0.0848714   0.0848714), wk =   0.0277778
        k(   60) = (   0.0424357   0.0848714   0.1060893), wk =   0.0555556
[...]
        k(   70) = (   0.0636536   0.0848714   0.1060893), wk =   0.0555556
        k(   71) = (   0.0636536   0.0848714  -0.1273071), wk =   0.0277778
        k(   72) = (   0.0636536   0.1060893   0.1060893), wk =   0.0277778
        k(   73) = (   0.0636536   0.1060893  -0.1273071), wk =   0.0277778
        k(   74) = (   0.0636536  -0.1273071  -0.1273071), wk =   0.0069444
        k(   75) = (   0.0848714   0.0848714   0.0848714), wk =   0.0092593
        k(   76) = (   0.0848714   0.0848714   0.1060893), wk =   0.0277778
        k(   77) = (   0.0848714   0.0848714  -0.1273071), wk =   0.0138889
        k(   78) = (   0.0848714   0.1060893   0.1060893), wk =   0.0277778
        k(   79) = (   0.0848714   0.1060893  -0.1273071), wk =   0.0277778
        k(   80) = (   0.0848714  -0.1273071  -0.1273071), wk =   0.0069444
        k(   81) = (   0.1060893   0.1060893   0.1060893), wk =   0.0092593
        k(   82) = (   0.1060893   0.1060893  -0.1273071), wk =   0.0138889
        k(   83) = (   0.1060893  -0.1273071  -0.1273071), wk =   0.0069444
        k(   84) = (  -0.1273071  -0.1273071  -0.1273071), wk =   0.0011574

     Largest allocated arrays     est. size (Mb)     dimensions
     Largest temporary arrays     est. size (Mb)     dimensions

     Check: negative/imaginary core charge=   -0.000028    0.000000

     Initial potential from superposition of free atoms
     Check: negative starting charge=   -0.070193

     starting charge   58.96791, renormalised to   62.00000

     negative rho (up, down):  7.380E-02 0.000E+00

     *
     * You are using vdW-DF for exchange-correlation in this calculation.
     * Please cite the following three references that made this development
     * possible:
     *
     *   M. Dion, H. Rydberg, E. Schroder, D. C. Langreth, and
     *   B. I. Lundqvist, Phys. Rev. Lett. 92, 246401 (2004).
     *
     *   T. Thonhauser, V. R. Cooper, S. Li, A. Puzder, P. Hyldgaard, and
     *   D. C. Langreth, Phys. Rev. B 76, 125112 (2007).
     *
     *   G. Roman-Perez and J. M. Soler, Phys. Rev. Lett. 103, 096102 (2009).
     *
     *
     * If you are using vdW-DF2, please also cite:
     *
     *   K. Lee, E. D. Murray, L. Kong, B. I. Lundqvist, and
     *   D. C. Langreth, Phys. Rev. B 82, 081101(R) (2010).
     *
     *
     * If you are calculating the stress with vdW-DF, please also cite:
     *
     *   R. Sabatini, E. Kucukbenli, B. Kolb, T. Thonhauser, and
     *   S. de Gironcoli, J. Phys.: Condens. Matter 24, 424209 (2012).
     *

     Carrying out vdW-DF run using the following parameters:

     Nqs =      20    Nr_points =    1024   r_max =   100.000
     q_mesh =
               0.00001000     0.04494208     0.09755937     0.15916263
               0.23128650     0.31572767     0.41458969     0.53033537
               0.66584808     0.82450364     1.01025438     1.22772762
               1.48234092     1.78043706     2.12944203     2.53805004
               3.01644009     3.57652955     4.23227104     5.00000000

     Gradients computed in reciprocal space

     Starting wfc are   59 randomized atomic wfcs

     Self-consistent Calculation

     iteration #  1     ecut=    58.80 Ry     beta=0.10
     Davidson diagonalization with overlap
     ethr =  1.00E-02,  avg # of iterations =  3.0

     total energy              =   -1000.07387247 Ry
     Harris-Foulkes estimate   =   -1009.79005106 Ry
     estimated scf accuracy    <     148.32138988 Ry

[...]

     total energy              =   -1002.57771488 Ry
     Harris-Foulkes estimate   =   -1002.57771363 Ry
     estimated scf accuracy    <       0.00000005 Ry

     iteration # 22     ecut=    58.80 Ry     beta=0.10
     Davidson diagonalization with overlap
     ethr =  3.25E-11,  avg # of iterations =  2.0

     negative rho (up, down):  3.310E-02 0.000E+00

     End of self-consistent calculation

          k = 0.0000 0.0000 0.0000 (  3119 PWs)   bands (ev):

   -78.3090 -78.2966 -78.2966 -41.6712 -41.6712 -41.6712 -41.6083 -41.6083
   -41.6083 -41.5966 -41.5966 -41.5966 -15.1462   1.1812   1.1812   1.1812
    10.2490  12.3246  12.3246  13.4531  13.4531  13.4531  13.7213  15.1101
    15.1101  15.1101  15.8994  15.8994  16.2886  16.4927  16.4927  16.4927
    19.0808  19.0808  19.0808  19.2525  19.2525  19.8421  19.8421  19.8421
    20.3517  21.8571  21.8571  21.8571  22.9708  22.9708  22.9708  27.0834
    27.6152  27.6152  27.6152

[...]

          k = 0.1061-0.1273-0.1273 (  3132 PWs)   bands (ev):

[...]

          k =-0.1273-0.1273-0.1273 (  3112 PWs)   bands (ev):

   -78.3006 -78.3006 -78.3006 -41.7057 -41.6433 -41.6433 -41.6433 -41.6219
   -41.6219 -41.5844 -41.5844 -41.5844 -15.0066   0.6935   0.6935   0.6935
    12.2753  12.2753  12.2753  14.2717  14.8180  14.8180  14.8180  15.1148
    15.1148  15.1148  15.2793  15.2793  15.5601  16.3326  16.3326  16.3326
    18.2143  18.2143  18.2143  19.4387  19.4387  19.4387  20.3544  20.3544
    20.3544  20.8560  20.9919  20.9919  20.9919  23.5271  23.5271  28.6809
    28.7053  28.7053  28.7053

     the Fermi energy is    15.9885 ev

!    total energy              =   -1002.57772037 Ry
     Harris-Foulkes estimate   =   -1002.57771489 Ry
     estimated scf accuracy    <          4.9E-09 Ry

     The total energy is the sum of the following terms:

     one-electron contribution =    -574.33446305 Ry
     hartree contribution      =     326.14803243 Ry
     xc contribution           =    -152.51628603 Ry
     ewald contribution        =    -601.85681380 Ry
     smearing contrib. (-TS)   =      -0.01818992 Ry

     convergence has been achieved in  22 iterations

     Forces acting on atoms (Ry/au):

     negative rho (up, down):  3.310E-02 0.000E+00
     atom    1 type  1   force =     0.00000000    0.00000000    0.00000000
     atom    2 type  1   force =     0.00000000    0.00000000    0.00000000
     atom    3 type  1   force =     0.00000000    0.00000000    0.00000000
     atom    4 type  2   force =     0.00000000    0.00000000    0.00000000

     Total force =     0.000000     Total SCF correction =     0.000000
 !ASE

     General routines

     Parallel routines

   This run was terminated on:  16:23:16  31Oct2017

   JOB DONE.