     Program PWSCF v.5.1rc2 (svn rev. ) starts on 25Oct2017 at 23: 9:57

     Current dimensions of program PWSCF are:
     Max number of different atomic species (ntypx) = 10
     Max number of k-points (npk) =  40000
     Max angular momentum in pseudopotentials (lmaxx) =  3

     IMPORTANT: XC functional enforced from input :
     Exchange-correlation      = BEEF-VDW ( 1  4 27 13 2)
     Any further DFT definition will be discarded
     Please, verify this is what you really want

     Subspace diagonalization in iterative solution of the eigenvalue problem:
     a serial algorithm will be used

     bravais-lattice index     =            0
     lattice parameter (alat)  =       1.8897  a.u.
     unit-cell volume          =     448.9683 (a.u.)^3
     number of atoms/cell      =            4
     number of atomic types    =            2
     number of electrons       =        52.00
     number of Kohn-Sham states=           46
     kinetic-energy cutoff     =      58.7989  Ry
     charge density cutoff     =     587.9892  Ry
     convergence threshold     =      7.3E-09
     mixing beta               =       0.1000
     number of iterations used =           10  local-TF  mixing
     Exchange-correlation      = BEEF-VDW ( 1  4 27 13 2)
     nstep                     =           50

     celldm(1)=   1.889726  celldm(2)=   0.000000  celldm(3)=   0.000000
     celldm(4)=   0.000000  celldm(5)=   0.000000  celldm(6)=   0.000000

     crystal axes: (cart. coord. in units of alat)
               a(1) = (   4.052033   0.000000   0.000000 )
               a(2) = (   0.000000   4.052033   0.000000 )
               a(3) = (   0.000000   0.000000   4.052033 )

     reciprocal axes: (cart. coord. in units 2 pi/alat)
               b(1) = (  0.246790  0.000000  0.000000 )
               b(2) = (  0.000000  0.246790  0.000000 )
               b(3) = (  0.000000  0.000000  0.246790 )

     PseudoPot. # 1 for Ti read from file:
     /home/vossj/suncat/psp/gbrv1.5pbe/Ti.UPF
     MD5 check sum: 88a00a6731bd790ddea75d31a80cb452
     Pseudo is Ultrasoft + core correction, Zval = 12.0
     Generated by new atomic code, or converted to UPF format
     Using radial grid of  851 points,  6 beta functions with:
                l(1) =   0
                l(2) =   0
                l(3) =   1
                l(4) =   1
                l(5) =   2
                l(6) =   2
     Q(r) pseudized with  6 coefficients,  rinner =    1.000   1.000   1.000
                                                       1.000   1.000

     PseudoPot. # 2 for Pd read from file:
     /home/vossj/suncat/psp/gbrv1.5pbe/Pd.UPF
     MD5 check sum: 2d733d2bc2cbfd217af676df1668a4bc
     Pseudo is Ultrasoft + core correction, Zval = 16.0
     Generated by new atomic code, or converted to UPF format
     Using radial grid of  887 points,  6 beta functions with:
                l(1) =   0
                l(2) =   0
                l(3) =   1
                l(4) =   1
                l(5) =   2
                l(6) =   2
     Q(r) pseudized with  8 coefficients,  rinner =    1.130   1.130   1.130
                                                       1.130   1.130

     vdW kernel table read from file vdW_kernel_table
     MD5 check sum: 095c7af220d748ca6e76c0b4c6cfb241

     atomic species   valence    mass     pseudopotential
        Ti1           12.00    47.86700     Ti( 1.00)
        Pd1           16.00   106.42000     Pd( 1.00)

     48 Sym. Ops., with inversion, found (32 have fractional translation)

   Cartesian axes

     site n.     atom                  positions (alat units)
         1           Ti1 tau(   1) = (   0.0000000   0.0000000   0.0000000  )
         2           Ti1 tau(   2) = (   0.0000000   2.0260167   2.0260167  )
         3           Ti1 tau(   3) = (   2.0260167   0.0000000   2.0260167  )
         4           Pd1 tau(   4) = (   2.0260167   2.0260167   0.0000000  )

     number of k points=    84  Fermi-Dirac smearing, width (Ry)=  0.0073
                       cart. coord. in units 2pi/alat
        k(    1) = (   0.0000000   0.0000000   0.0000000), wk =   0.0011574
        k(    2) = (   0.0000000   0.0000000   0.0205658), wk =   0.0069444
        k(    3) = (   0.0000000   0.0000000   0.0411316), wk =   0.0069444
        k(    4) = (   0.0000000   0.0000000   0.0616974), wk =   0.0069444
        k(    5) = (   0.0000000   0.0000000   0.0822632), wk =   0.0069444
        k(    6) = (   0.0000000   0.0000000   0.1028290), wk =   0.0069444
        k(    7) = (   0.0000000   0.0000000  -0.1233948), wk =   0.0034722
        k(    8) = (   0.0000000   0.0205658   0.0205658), wk =   0.0138889
        k(    9) = (   0.0000000   0.0205658   0.0411316), wk =   0.0277778
        k(   10) = (   0.0000000   0.0205658   0.0616974), wk =   0.0277778
        k(   11) = (   0.0000000   0.0205658   0.0822632), wk =   0.0277778
        k(   12) = (   0.0000000   0.0205658   0.1028290), wk =   0.0277778
        k(   13) = (   0.0000000   0.0205658  -0.1233948), wk =   0.0138889
        k(   14) = (   0.0000000   0.0411316   0.0411316), wk =   0.0138889
        k(   15) = (   0.0000000   0.0411316   0.0616974), wk =   0.0277778
        k(   16) = (   0.0000000   0.0411316   0.0822632), wk =   0.0277778
        k(   17) = (   0.0000000   0.0411316   0.1028290), wk =   0.0277778
        k(   18) = (   0.0000000   0.0411316  -0.1233948), wk =   0.0138889
        k(   19) = (   0.0000000   0.0616974   0.0616974), wk =   0.0138889
        k(   20) = (   0.0000000   0.0616974   0.0822632), wk =   0.0277778
        k(   21) = (   0.0000000   0.0616974   0.1028290), wk =   0.0277778
        k(   22) = (   0.0000000   0.0616974  -0.1233948), wk =   0.0138889
        k(   23) = (   0.0000000   0.0822632   0.0822632), wk =   0.0138889
        k(   24) = (   0.0000000   0.0822632   0.1028290), wk =   0.0277778
        k(   25) = (   0.0000000   0.0822632  -0.1233948), wk =   0.0138889
        k(   26) = (   0.0000000   0.1028290   0.1028290), wk =   0.0138889
        k(   27) = (   0.0000000   0.1028290  -0.1233948), wk =   0.0138889
        k(   28) = (   0.0000000  -0.1233948  -0.1233948), wk =   0.0034722
        k(   29) = (   0.0205658   0.0205658   0.0205658), wk =   0.0092593
        k(   30) = (   0.0205658   0.0205658   0.0411316), wk =   0.0277778
        k(   31) = (   0.0205658   0.0205658   0.0616974), wk =   0.0277778
        k(   32) = (   0.0205658   0.0205658   0.0822632), wk =   0.0277778
        k(   33) = (   0.0205658   0.0205658   0.1028290), wk =   0.0277778
        k(   34) = (   0.0205658   0.0205658  -0.1233948), wk =   0.0138889
        k(   35) = (   0.0205658   0.0411316   0.0411316), wk =   0.0277778
        k(   36) = (   0.0205658   0.0411316   0.0616974), wk =   0.0555556
        k(   37) = (   0.0205658   0.0411316   0.0822632), wk =   0.0555556
        k(   38) = (   0.0205658   0.0411316   0.1028290), wk =   0.0555556
        k(   39) = (   0.0205658   0.0411316  -0.1233948), wk =   0.0277778
        k(   40) = (   0.0205658   0.0616974   0.0616974), wk =   0.0277778
        k(   41) = (   0.0205658   0.0616974   0.0822632), wk =   0.0555556
        k(   42) = (   0.0205658   0.0616974   0.1028290), wk =   0.0555556
        k(   43) = (   0.0205658   0.0616974  -0.1233948), wk =   0.0277778
        k(   44) = (   0.0205658   0.0822632   0.0822632), wk =   0.0277778
        k(   45) = (   0.0205658   0.0822632   0.1028290), wk =   0.0555556
        k(   46) = (   0.0205658   0.0822632  -0.1233948), wk =   0.0277778
        k(   47) = (   0.0205658   0.1028290   0.1028290), wk =   0.0277778
        k(   48) = (   0.0205658   0.1028290  -0.1233948), wk =   0.0277778
        k(   49) = (   0.0205658  -0.1233948  -0.1233948), wk =   0.0069444
        k(   50) = (   0.0411316   0.0411316   0.0411316), wk =   0.0092593
        k(   51) = (   0.0411316   0.0411316   0.0616974), wk =   0.0277778
        k(   52) = (   0.0411316   0.0411316   0.0822632), wk =   0.0277778
        k(   53) = (   0.0411316   0.0411316   0.1028290), wk =   0.0277778
        k(   54) = (   0.0411316   0.0411316  -0.1233948), wk =   0.0138889
        k(   55) = (   0.0411316   0.0616974   0.0616974), wk =   0.0277778
        k(   56) = (   0.0411316   0.0616974   0.0822632), wk =   0.0555556
        k(   57) = (   0.0411316   0.0616974   0.1028290), wk =   0.0555556
        k(   58) = (   0.0411316   0.0616974  -0.1233948), wk =   0.0277778
        k(   59) = (   0.0411316   0.0822632   0.0822632), wk =   0.0277778
        k(   60) = (   0.0411316   0.0822632   0.1028290), wk =   0.0555556
[...]
        k(   70) = (   0.0616974   0.0822632   0.1028290), wk =   0.0555556
        k(   71) = (   0.0616974   0.0822632  -0.1233948), wk =   0.0277778
        k(   72) = (   0.0616974   0.1028290   0.1028290), wk =   0.0277778
        k(   73) = (   0.0616974   0.1028290  -0.1233948), wk =   0.0277778
        k(   74) = (   0.0616974  -0.1233948  -0.1233948), wk =   0.0069444
        k(   75) = (   0.0822632   0.0822632   0.0822632), wk =   0.0092593
        k(   76) = (   0.0822632   0.0822632   0.1028290), wk =   0.0277778
        k(   77) = (   0.0822632   0.0822632  -0.1233948), wk =   0.0138889
        k(   78) = (   0.0822632   0.1028290   0.1028290), wk =   0.0277778
        k(   79) = (   0.0822632   0.1028290  -0.1233948), wk =   0.0277778
        k(   80) = (   0.0822632  -0.1233948  -0.1233948), wk =   0.0069444
        k(   81) = (   0.1028290   0.1028290   0.1028290), wk =   0.0092593
        k(   82) = (   0.1028290   0.1028290  -0.1233948), wk =   0.0138889
        k(   83) = (   0.1028290  -0.1233948  -0.1233948), wk =   0.0069444
        k(   84) = (  -0.1233948  -0.1233948  -0.1233948), wk =   0.0011574

     Largest allocated arrays     est. size (Mb)     dimensions
     Largest temporary arrays     est. size (Mb)     dimensions

     Check: negative/imaginary core charge=   -0.000003    0.000000

     Initial potential from superposition of free atoms
     Check: negative starting charge=   -0.080932

     starting charge   48.49986, renormalised to   52.00000

     negative rho (up, down):  8.677E-02 0.000E+00

     *
     * You are using vdW-DF for exchange-correlation in this calculation.
     * Please cite the following three references that made this development
     * possible:
     *
     *   M. Dion, H. Rydberg, E. Schroder, D. C. Langreth, and
     *   B. I. Lundqvist, Phys. Rev. Lett. 92, 246401 (2004).
     *
     *   T. Thonhauser, V. R. Cooper, S. Li, A. Puzder, P. Hyldgaard, and
     *   D. C. Langreth, Phys. Rev. B 76, 125112 (2007).
     *
     *   G. Roman-Perez and J. M. Soler, Phys. Rev. Lett. 103, 096102 (2009).
     *
     *
     * If you are using vdW-DF2, please also cite:
     *
     *   K. Lee, E. D. Murray, L. Kong, B. I. Lundqvist, and
     *   D. C. Langreth, Phys. Rev. B 82, 081101(R) (2010).
     *
     *
     * If you are calculating the stress with vdW-DF, please also cite:
     *
     *   R. Sabatini, E. Kucukbenli, B. Kolb, T. Thonhauser, and
     *   S. de Gironcoli, J. Phys.: Condens. Matter 24, 424209 (2012).
     *

     Carrying out vdW-DF run using the following parameters:

     Nqs =      20    Nr_points =    1024   r_max =   100.000
     q_mesh =
               0.00001000     0.04494208     0.09755937     0.15916263
               0.23128650     0.31572767     0.41458969     0.53033537
               0.66584808     0.82450364     1.01025438     1.22772762
               1.48234092     1.78043706     2.12944203     2.53805004
               3.01644009     3.57652955     4.23227104     5.00000000

     Gradients computed in reciprocal space

     Starting wfc are   42 randomized atomic wfcs +    4 random wfc

     Self-consistent Calculation

     iteration #  1     ecut=    58.80 Ry     beta=0.10
     Davidson diagonalization with overlap
     ethr =  1.00E-02,  avg # of iterations =  4.0

[...]

     total energy              =    -562.72162610 Ry
     Harris-Foulkes estimate   =    -564.45618976 Ry
     estimated scf accuracy    <      35.50308931 Ry

[...]

     total energy              =    -559.62511419 Ry
     Harris-Foulkes estimate   =    -559.62511397 Ry
     estimated scf accuracy    <       0.00000002 Ry

     iteration # 21     ecut=    58.80 Ry     beta=0.10
     Davidson diagonalization with overlap
     ethr =  4.10E-11,  avg # of iterations =  1.0

     negative rho (up, down):  8.387E-02 0.000E+00

     End of self-consistent calculation

          k = 0.0000 0.0000 0.0000 (  3407 PWs)   bands (ev):

   -42.5268 -42.3863 -42.3863 -36.3722 -36.3722 -36.3722 -18.9144 -18.9144
   -18.9144 -18.6488 -18.6488 -18.6488 -18.4036 -18.4036 -18.4036   8.0399
    10.0473  10.0473  10.6638  10.6638  10.6638  11.5945  14.1136  14.1136
    14.1136  15.0394  15.0394  16.9240  16.9240  16.9240  17.3554  17.3554
    17.3554  17.4723  17.4723  17.9145  18.2456  18.2456  18.2456  24.3952
    25.1021  25.1021  26.2656  26.2656  26.2656  26.9485

[...]

          k = 0.1028-0.1234-0.1234 (  3408 PWs)   bands (ev):

[...]

          k =-0.1234-0.1234-0.1234 (  3448 PWs)   bands (ev):

   -42.4321 -42.4321 -42.4321 -36.3738 -36.3738 -36.3738 -19.0255 -18.9133
   -18.9133 -18.9133 -18.4850 -18.4850 -18.4850 -18.3751 -18.3751  10.2377
    10.2377  10.2377  11.1676  11.5412  11.5412  13.7758  13.7758  13.7758
    15.0287  15.0287  15.0287  15.0858  15.0858  15.0858  15.2880  16.8989
    16.8989  16.8989  17.1105  17.1105  17.9469  17.9469  17.9469  21.5435
    22.6213  22.6213  22.6213  29.4765  29.5300  29.5300

     the Fermi energy is    14.4612 ev

!    total energy              =    -559.62511517 Ry
     Harris-Foulkes estimate   =    -559.62511419 Ry
     estimated scf accuracy    <          4.1E-10 Ry

     The total energy is the sum of the following terms:

     one-electron contribution =    -176.33453568 Ry
     hartree contribution      =     113.86008168 Ry
     xc contribution           =     -88.83685521 Ry
     ewald contribution        =    -408.29681848 Ry
     smearing contrib. (-TS)   =      -0.01698748 Ry

     convergence has been achieved in  21 iterations

     Forces acting on atoms (Ry/au):

     negative rho (up, down):  8.387E-02 0.000E+00
     atom    1 type  1   force =     0.00000000    0.00000000    0.00000000
     atom    2 type  1   force =     0.00000000    0.00000000    0.00000000
     atom    3 type  1   force =     0.00000000    0.00000000    0.00000000
     atom    4 type  2   force =     0.00000000    0.00000000    0.00000000

     Total force =     0.000000     Total SCF correction =     0.000000
 !ASE

     General routines

     Parallel routines

   This run was terminated on:  23:11:16  25Oct2017

   JOB DONE.