     Program PWSCF v.5.1rc2 (svn rev. ) starts on 26Oct2017 at  1: 2:31

     Current dimensions of program PWSCF are:
     Max number of different atomic species (ntypx) = 10
     Max number of k-points (npk) =  40000
     Max angular momentum in pseudopotentials (lmaxx) =  3

     IMPORTANT: XC functional enforced from input :
     Exchange-correlation      = BEEF-VDW ( 1  4 27 13 2)
     Any further DFT definition will be discarded
     Please, verify this is what you really want

     Subspace diagonalization in iterative solution of the eigenvalue problem:
     a serial algorithm will be used

     bravais-lattice index     =            0
     lattice parameter (alat)  =       1.8897  a.u.
     unit-cell volume          =     643.2778 (a.u.)^3
     number of atoms/cell      =            4
     number of atomic types    =            2
     number of electrons       =        58.00
     number of Kohn-Sham states=           49
     kinetic-energy cutoff     =      58.7989  Ry
     charge density cutoff     =     587.9892  Ry
     convergence threshold     =      7.3E-09
     mixing beta               =       0.1000
     number of iterations used =           10  local-TF  mixing
     Exchange-correlation      = BEEF-VDW ( 1  4 27 13 2)
     nstep                     =           50

     celldm(1)=   1.889726  celldm(2)=   0.000000  celldm(3)=   0.000000
     celldm(4)=   0.000000  celldm(5)=   0.000000  celldm(6)=   0.000000

     crystal axes: (cart. coord. in units of alat)
               a(1) = (   4.568083   0.000000   0.000000 )
               a(2) = (   0.000000   4.568083   0.000000 )
               a(3) = (   0.000000   0.000000   4.568083 )

     reciprocal axes: (cart. coord. in units 2 pi/alat)
               b(1) = (  0.218910  0.000000  0.000000 )
               b(2) = (  0.000000  0.218910  0.000000 )
               b(3) = (  0.000000  0.000000  0.218910 )

     PseudoPot. # 1 for Sn read from file:
     /home/vossj/suncat/psp/gbrv1.5pbe/Sn.UPF
     MD5 check sum: 469debedee59599fedebd795477fea03
     Pseudo is Ultrasoft + core correction, Zval = 14.0
     Generated by new atomic code, or converted to UPF format
     Using radial grid of  891 points,  6 beta functions with:
                l(1) =   0
                l(2) =   0
                l(3) =   1
                l(4) =   1
                l(5) =   2
                l(6) =   2
     Q(r) pseudized with  8 coefficients,  rinner =    1.350   1.350   1.350
                                                       1.350   1.350

     PseudoPot. # 2 for Pt read from file:
     /home/vossj/suncat/psp/gbrv1.5pbe/Pt.UPF
     MD5 check sum: f09d6de1a584b5a045c4fc126da2d0c4
     Pseudo is Ultrasoft + core correction, Zval = 16.0
     Generated by new atomic code, or converted to UPF format
     Using radial grid of  985 points,  6 beta functions with:
                l(1) =   0
                l(2) =   0
                l(3) =   1
                l(4) =   1
                l(5) =   2
                l(6) =   2
     Q(r) pseudized with  8 coefficients,  rinner =    1.300   1.300   1.300
                                                       1.300   1.300

     vdW kernel table read from file vdW_kernel_table
     MD5 check sum: 095c7af220d748ca6e76c0b4c6cfb241

     atomic species   valence    mass     pseudopotential
        Sn1           14.00   118.71000     Sn( 1.00)
        Pt1           16.00   195.08400     Pt( 1.00)

     48 Sym. Ops., with inversion, found (32 have fractional translation)

   Cartesian axes

     site n.     atom                  positions (alat units)
         1           Sn1 tau(   1) = (   0.0000000   0.0000000   0.0000000  )
         2           Sn1 tau(   2) = (   0.0000000   2.2840415   2.2840415  )
         3           Sn1 tau(   3) = (   2.2840415   0.0000000   2.2840415  )
         4           Pt1 tau(   4) = (   2.2840415   2.2840415   0.0000000  )

     number of k points=    84  Fermi-Dirac smearing, width (Ry)=  0.0073
                       cart. coord. in units 2pi/alat
        k(    1) = (   0.0000000   0.0000000   0.0000000), wk =   0.0011574
        k(    2) = (   0.0000000   0.0000000   0.0182425), wk =   0.0069444
        k(    3) = (   0.0000000   0.0000000   0.0364850), wk =   0.0069444
        k(    4) = (   0.0000000   0.0000000   0.0547276), wk =   0.0069444
        k(    5) = (   0.0000000   0.0000000   0.0729701), wk =   0.0069444
        k(    6) = (   0.0000000   0.0000000   0.0912126), wk =   0.0069444
        k(    7) = (   0.0000000   0.0000000  -0.1094551), wk =   0.0034722
        k(    8) = (   0.0000000   0.0182425   0.0182425), wk =   0.0138889
        k(    9) = (   0.0000000   0.0182425   0.0364850), wk =   0.0277778
        k(   10) = (   0.0000000   0.0182425   0.0547276), wk =   0.0277778
        k(   11) = (   0.0000000   0.0182425   0.0729701), wk =   0.0277778
        k(   12) = (   0.0000000   0.0182425   0.0912126), wk =   0.0277778
        k(   13) = (   0.0000000   0.0182425  -0.1094551), wk =   0.0138889
        k(   14) = (   0.0000000   0.0364850   0.0364850), wk =   0.0138889
        k(   15) = (   0.0000000   0.0364850   0.0547276), wk =   0.0277778
        k(   16) = (   0.0000000   0.0364850   0.0729701), wk =   0.0277778
        k(   17) = (   0.0000000   0.0364850   0.0912126), wk =   0.0277778
        k(   18) = (   0.0000000   0.0364850  -0.1094551), wk =   0.0138889
        k(   19) = (   0.0000000   0.0547276   0.0547276), wk =   0.0138889
        k(   20) = (   0.0000000   0.0547276   0.0729701), wk =   0.0277778
        k(   21) = (   0.0000000   0.0547276   0.0912126), wk =   0.0277778
        k(   22) = (   0.0000000   0.0547276  -0.1094551), wk =   0.0138889
        k(   23) = (   0.0000000   0.0729701   0.0729701), wk =   0.0138889
        k(   24) = (   0.0000000   0.0729701   0.0912126), wk =   0.0277778
        k(   25) = (   0.0000000   0.0729701  -0.1094551), wk =   0.0138889
        k(   26) = (   0.0000000   0.0912126   0.0912126), wk =   0.0138889
        k(   27) = (   0.0000000   0.0912126  -0.1094551), wk =   0.0138889
        k(   28) = (   0.0000000  -0.1094551  -0.1094551), wk =   0.0034722
        k(   29) = (   0.0182425   0.0182425   0.0182425), wk =   0.0092593
        k(   30) = (   0.0182425   0.0182425   0.0364850), wk =   0.0277778
        k(   31) = (   0.0182425   0.0182425   0.0547276), wk =   0.0277778
        k(   32) = (   0.0182425   0.0182425   0.0729701), wk =   0.0277778
        k(   33) = (   0.0182425   0.0182425   0.0912126), wk =   0.0277778
        k(   34) = (   0.0182425   0.0182425  -0.1094551), wk =   0.0138889
        k(   35) = (   0.0182425   0.0364850   0.0364850), wk =   0.0277778
        k(   36) = (   0.0182425   0.0364850   0.0547276), wk =   0.0555556
        k(   37) = (   0.0182425   0.0364850   0.0729701), wk =   0.0555556
        k(   38) = (   0.0182425   0.0364850   0.0912126), wk =   0.0555556
        k(   39) = (   0.0182425   0.0364850  -0.1094551), wk =   0.0277778
        k(   40) = (   0.0182425   0.0547276   0.0547276), wk =   0.0277778
        k(   41) = (   0.0182425   0.0547276   0.0729701), wk =   0.0555556
        k(   42) = (   0.0182425   0.0547276   0.0912126), wk =   0.0555556
        k(   43) = (   0.0182425   0.0547276  -0.1094551), wk =   0.0277778
        k(   44) = (   0.0182425   0.0729701   0.0729701), wk =   0.0277778
        k(   45) = (   0.0182425   0.0729701   0.0912126), wk =   0.0555556
        k(   46) = (   0.0182425   0.0729701  -0.1094551), wk =   0.0277778
        k(   47) = (   0.0182425   0.0912126   0.0912126), wk =   0.0277778
        k(   48) = (   0.0182425   0.0912126  -0.1094551), wk =   0.0277778
        k(   49) = (   0.0182425  -0.1094551  -0.1094551), wk =   0.0069444
        k(   50) = (   0.0364850   0.0364850   0.0364850), wk =   0.0092593
        k(   51) = (   0.0364850   0.0364850   0.0547276), wk =   0.0277778
        k(   52) = (   0.0364850   0.0364850   0.0729701), wk =   0.0277778
        k(   53) = (   0.0364850   0.0364850   0.0912126), wk =   0.0277778
        k(   54) = (   0.0364850   0.0364850  -0.1094551), wk =   0.0138889
        k(   55) = (   0.0364850   0.0547276   0.0547276), wk =   0.0277778
        k(   56) = (   0.0364850   0.0547276   0.0729701), wk =   0.0555556
        k(   57) = (   0.0364850   0.0547276   0.0912126), wk =   0.0555556
        k(   58) = (   0.0364850   0.0547276  -0.1094551), wk =   0.0277778
        k(   59) = (   0.0364850   0.0729701   0.0729701), wk =   0.0277778
        k(   60) = (   0.0364850   0.0729701   0.0912126), wk =   0.0555556
[...]
        k(   70) = (   0.0547276   0.0729701   0.0912126), wk =   0.0555556
        k(   71) = (   0.0547276   0.0729701  -0.1094551), wk =   0.0277778
        k(   72) = (   0.0547276   0.0912126   0.0912126), wk =   0.0277778
        k(   73) = (   0.0547276   0.0912126  -0.1094551), wk =   0.0277778
        k(   74) = (   0.0547276  -0.1094551  -0.1094551), wk =   0.0069444
        k(   75) = (   0.0729701   0.0729701   0.0729701), wk =   0.0092593
        k(   76) = (   0.0729701   0.0729701   0.0912126), wk =   0.0277778
        k(   77) = (   0.0729701   0.0729701  -0.1094551), wk =   0.0138889
        k(   78) = (   0.0729701   0.0912126   0.0912126), wk =   0.0277778
        k(   79) = (   0.0729701   0.0912126  -0.1094551), wk =   0.0277778
        k(   80) = (   0.0729701  -0.1094551  -0.1094551), wk =   0.0069444
        k(   81) = (   0.0912126   0.0912126   0.0912126), wk =   0.0092593
        k(   82) = (   0.0912126   0.0912126  -0.1094551), wk =   0.0138889
        k(   83) = (   0.0912126  -0.1094551  -0.1094551), wk =   0.0069444
        k(   84) = (  -0.1094551  -0.1094551  -0.1094551), wk =   0.0011574

     Largest allocated arrays     est. size (Mb)     dimensions
     Largest temporary arrays     est. size (Mb)     dimensions

     Initial potential from superposition of free atoms
     Check: negative starting charge=   -0.185011

     starting charge   54.49985, renormalised to   58.00000

     negative rho (up, down):  1.969E-01 0.000E+00

     *
     * You are using vdW-DF for exchange-correlation in this calculation.
     * Please cite the following three references that made this development
     * possible:
     *
     *   M. Dion, H. Rydberg, E. Schroder, D. C. Langreth, and
     *   B. I. Lundqvist, Phys. Rev. Lett. 92, 246401 (2004).
     *
     *   T. Thonhauser, V. R. Cooper, S. Li, A. Puzder, P. Hyldgaard, and
     *   D. C. Langreth, Phys. Rev. B 76, 125112 (2007).
     *
     *   G. Roman-Perez and J. M. Soler, Phys. Rev. Lett. 103, 096102 (2009).
     *
     *
     * If you are using vdW-DF2, please also cite:
     *
     *   K. Lee, E. D. Murray, L. Kong, B. I. Lundqvist, and
     *   D. C. Langreth, Phys. Rev. B 82, 081101(R) (2010).
     *
     *
     * If you are calculating the stress with vdW-DF, please also cite:
     *
     *   R. Sabatini, E. Kucukbenli, B. Kolb, T. Thonhauser, and
     *   S. de Gironcoli, J. Phys.: Condens. Matter 24, 424209 (2012).
     *

     Carrying out vdW-DF run using the following parameters:

     Nqs =      20    Nr_points =    1024   r_max =   100.000
     q_mesh =
               0.00001000     0.04494208     0.09755937     0.15916263
               0.23128650     0.31572767     0.41458969     0.53033537
               0.66584808     0.82450364     1.01025438     1.22772762
               1.48234092     1.78043706     2.12944203     2.53805004
               3.01644009     3.57652955     4.23227104     5.00000000

     Gradients computed in reciprocal space

     Starting wfc are   39 randomized atomic wfcs +   10 random wfc

     Self-consistent Calculation

     iteration #  1     ecut=    58.80 Ry     beta=0.10
     Davidson diagonalization with overlap
     ethr =  1.00E-02,  avg # of iterations =  5.5

[...]

     total energy              =    -695.95134845 Ry
     Harris-Foulkes estimate   =    -696.58097545 Ry
     estimated scf accuracy    <      11.19960146 Ry

[...]

     total energy              =    -694.51735494 Ry
     Harris-Foulkes estimate   =    -694.51734568 Ry
     estimated scf accuracy    <       0.00000003 Ry

     iteration # 16     ecut=    58.80 Ry     beta=0.10
     Davidson diagonalization with overlap
     ethr =  5.80E-11,  avg # of iterations =  2.0

     negative rho (up, down):  1.781E-01 0.000E+00

     End of self-consistent calculation

          k = 0.0000 0.0000 0.0000 (  4945 PWs)   bands (ev):

   -39.4038 -39.4038 -39.4038  -9.5041  -9.5041  -9.5041  -9.4782  -9.3841
    -9.3841  -9.2926  -9.2926  -9.2926  -9.2712  -9.2712  -9.2032  -9.1845
    -9.1845  -9.1845   1.5188   7.6434   7.6434   9.5844   9.5844   9.5844
    10.3993  10.3993  10.3993  11.3680  11.3680  12.1576  15.4571  15.4571
    15.4571  17.3098  17.3098  17.3098  20.5508  20.7817  20.7817  20.7817
    21.0988  21.0988  24.3661  24.3661  24.3661  24.5042  28.1951  28.1951
    28.1951

[...]

          k = 0.0912-0.1095-0.1095 (  4852 PWs)   bands (ev):

[...]

          k =-0.1095-0.1095-0.1095 (  4896 PWs)   bands (ev):

   -39.4040 -39.4040 -39.4040  -9.4305  -9.4305  -9.4305  -9.4096  -9.4096
    -9.4096  -9.3869  -9.2915  -9.2915  -9.2915  -9.2652  -9.2652  -9.2037
    -9.2037  -9.2037   5.5977   5.5977   5.5977   7.4716   8.9132   8.9132
     8.9132  10.6730  10.6730  10.7462  11.3072  11.3072  11.3072  19.4232
    19.4232  19.8149  19.8149  19.8149  23.4618  23.4619  23.4619  23.4619
    24.3492  24.3492  24.3492  24.5850  24.5850  24.5850  24.6514  24.6514
    24.6514

     the Fermi energy is    12.6249 ev

!    total energy              =    -694.51739452 Ry
     Harris-Foulkes estimate   =    -694.51735494 Ry
     estimated scf accuracy    <          9.8E-10 Ry

     The total energy is the sum of the following terms:

     one-electron contribution =    -197.20795959 Ry
     hartree contribution      =     142.43104112 Ry
     xc contribution           =    -192.27935611 Ry
     ewald contribution        =    -447.45629960 Ry
     smearing contrib. (-TS)   =      -0.00482033 Ry

     convergence has been achieved in  16 iterations

     Forces acting on atoms (Ry/au):

     negative rho (up, down):  1.781E-01 0.000E+00
     atom    1 type  1   force =     0.00000000   -0.00000000    0.00000000
     atom    2 type  1   force =     0.00000000   -0.00000000   -0.00000000
     atom    3 type  1   force =     0.00000000   -0.00000000   -0.00000000
     atom    4 type  2   force =     0.00000000    0.00000000    0.00000000

     Total force =     0.000000     Total SCF correction =     0.000000
 !ASE

     General routines

     Parallel routines

   This run was terminated on:   1: 3:57  26Oct2017

   JOB DONE.