     Program PWSCF v.5.1rc2 (svn rev. ) starts on 25Oct2017 at  9:24:54

     Current dimensions of program PWSCF are:
     Max number of different atomic species (ntypx) = 10
     Max number of k-points (npk) =  40000
     Max angular momentum in pseudopotentials (lmaxx) =  3

     IMPORTANT: XC functional enforced from input :
     Exchange-correlation      = BEEF-VDW ( 1  4 27 13 2)
     Any further DFT definition will be discarded
     Please, verify this is what you really want

     Subspace diagonalization in iterative solution of the eigenvalue problem:
     a serial algorithm will be used

     bravais-lattice index     =            0
     lattice parameter (alat)  =       1.8897  a.u.
     unit-cell volume          =     742.2585 (a.u.)^3
     number of atoms/cell      =            4
     number of atomic types    =            2
     number of electrons       =        51.00
     number of Kohn-Sham states=           45
     kinetic-energy cutoff     =      58.7989  Ry
     charge density cutoff     =     587.9892  Ry
     convergence threshold     =      7.3E-09
     mixing beta               =       0.1000
     number of iterations used =           10  local-TF  mixing
     Exchange-correlation      = BEEF-VDW ( 1  4 27 13 2)
     nstep                     =           50

     celldm(1)=   1.889726  celldm(2)=   0.000000  celldm(3)=   0.000000
     celldm(4)=   0.000000  celldm(5)=   0.000000  celldm(6)=   0.000000

     crystal axes: (cart. coord. in units of alat)
               a(1) = (   4.791294   0.000000   0.000000 )
               a(2) = (   0.000000   4.791294   0.000000 )
               a(3) = (   0.000000   0.000000   4.791294 )

     reciprocal axes: (cart. coord. in units 2 pi/alat)
               b(1) = (  0.208712  0.000000  0.000000 )
               b(2) = (  0.000000  0.208712  0.000000 )
               b(3) = (  0.000000  0.000000  0.208712 )

     PseudoPot. # 1 for In read from file:
     /home/vossj/suncat/psp/gbrv1.5pbe/In.UPF
     MD5 check sum: 90777abd96fbb83f2e67db2a40c566b9
     Pseudo is Ultrasoft + core correction, Zval = 13.0
     Generated by new atomic code, or converted to UPF format
     Using radial grid of  889 points,  6 beta functions with:
                l(1) =   0
                l(2) =   0
                l(3) =   1
                l(4) =   1
                l(5) =   2
                l(6) =   2
     Q(r) pseudized with  6 coefficients,  rinner =    1.400   1.400   1.400
                                                       1.400   1.400

     PseudoPot. # 2 for Cd read from file:
     /home/vossj/suncat/psp/gbrv1.5pbe/Cd.UPF
     MD5 check sum: 17164a7926edb8e0dc231208abae86a6
     Pseudo is Ultrasoft + core correction, Zval = 12.0
     Generated by new atomic code, or converted to UPF format
     Using radial grid of  889 points,  6 beta functions with:
                l(1) =   0
                l(2) =   0
                l(3) =   1
                l(4) =   1
                l(5) =   2
                l(6) =   2
     Q(r) pseudized with  6 coefficients,  rinner =    1.000   1.000   1.000
                                                       1.000   1.000

     vdW kernel table read from file vdW_kernel_table
     MD5 check sum: 095c7af220d748ca6e76c0b4c6cfb241

     atomic species   valence    mass     pseudopotential
        In1           13.00   114.81800     In( 1.00)
        Cd1           12.00   112.41400     Cd( 1.00)

     48 Sym. Ops., with inversion, found (32 have fractional translation)

   Cartesian axes

     site n.     atom                  positions (alat units)
         1           In1 tau(   1) = (   0.0000000   0.0000000   0.0000000  )
         2           In1 tau(   2) = (   0.0000000   2.3956472   2.3956472  )
         3           In1 tau(   3) = (   2.3956472   0.0000000   2.3956472  )
         4           Cd1 tau(   4) = (   2.3956472   2.3956472   0.0000000  )

     number of k points=    84  Fermi-Dirac smearing, width (Ry)=  0.0073
                       cart. coord. in units 2pi/alat
        k(    1) = (   0.0000000   0.0000000   0.0000000), wk =   0.0011574
        k(    2) = (   0.0000000   0.0000000   0.0173927), wk =   0.0069444
        k(    3) = (   0.0000000   0.0000000   0.0347853), wk =   0.0069444
        k(    4) = (   0.0000000   0.0000000   0.0521780), wk =   0.0069444
        k(    5) = (   0.0000000   0.0000000   0.0695706), wk =   0.0069444
        k(    6) = (   0.0000000   0.0000000   0.0869633), wk =   0.0069444
        k(    7) = (   0.0000000   0.0000000  -0.1043559), wk =   0.0034722
        k(    8) = (   0.0000000   0.0173927   0.0173927), wk =   0.0138889
        k(    9) = (   0.0000000   0.0173927   0.0347853), wk =   0.0277778
        k(   10) = (   0.0000000   0.0173927   0.0521780), wk =   0.0277778
        k(   11) = (   0.0000000   0.0173927   0.0695706), wk =   0.0277778
        k(   12) = (   0.0000000   0.0173927   0.0869633), wk =   0.0277778
        k(   13) = (   0.0000000   0.0173927  -0.1043559), wk =   0.0138889
        k(   14) = (   0.0000000   0.0347853   0.0347853), wk =   0.0138889
        k(   15) = (   0.0000000   0.0347853   0.0521780), wk =   0.0277778
        k(   16) = (   0.0000000   0.0347853   0.0695706), wk =   0.0277778
        k(   17) = (   0.0000000   0.0347853   0.0869633), wk =   0.0277778
        k(   18) = (   0.0000000   0.0347853  -0.1043559), wk =   0.0138889
        k(   19) = (   0.0000000   0.0521780   0.0521780), wk =   0.0138889
        k(   20) = (   0.0000000   0.0521780   0.0695706), wk =   0.0277778
        k(   21) = (   0.0000000   0.0521780   0.0869633), wk =   0.0277778
        k(   22) = (   0.0000000   0.0521780  -0.1043559), wk =   0.0138889
        k(   23) = (   0.0000000   0.0695706   0.0695706), wk =   0.0138889
        k(   24) = (   0.0000000   0.0695706   0.0869633), wk =   0.0277778
        k(   25) = (   0.0000000   0.0695706  -0.1043559), wk =   0.0138889
        k(   26) = (   0.0000000   0.0869633   0.0869633), wk =   0.0138889
        k(   27) = (   0.0000000   0.0869633  -0.1043559), wk =   0.0138889
        k(   28) = (   0.0000000  -0.1043559  -0.1043559), wk =   0.0034722
        k(   29) = (   0.0173927   0.0173927   0.0173927), wk =   0.0092593
        k(   30) = (   0.0173927   0.0173927   0.0347853), wk =   0.0277778
        k(   31) = (   0.0173927   0.0173927   0.0521780), wk =   0.0277778
        k(   32) = (   0.0173927   0.0173927   0.0695706), wk =   0.0277778
        k(   33) = (   0.0173927   0.0173927   0.0869633), wk =   0.0277778
        k(   34) = (   0.0173927   0.0173927  -0.1043559), wk =   0.0138889
        k(   35) = (   0.0173927   0.0347853   0.0347853), wk =   0.0277778
        k(   36) = (   0.0173927   0.0347853   0.0521780), wk =   0.0555556
        k(   37) = (   0.0173927   0.0347853   0.0695706), wk =   0.0555556
        k(   38) = (   0.0173927   0.0347853   0.0869633), wk =   0.0555556
        k(   39) = (   0.0173927   0.0347853  -0.1043559), wk =   0.0277778
        k(   40) = (   0.0173927   0.0521780   0.0521780), wk =   0.0277778
        k(   41) = (   0.0173927   0.0521780   0.0695706), wk =   0.0555556
        k(   42) = (   0.0173927   0.0521780   0.0869633), wk =   0.0555556
        k(   43) = (   0.0173927   0.0521780  -0.1043559), wk =   0.0277778
        k(   44) = (   0.0173927   0.0695706   0.0695706), wk =   0.0277778
        k(   45) = (   0.0173927   0.0695706   0.0869633), wk =   0.0555556
        k(   46) = (   0.0173927   0.0695706  -0.1043559), wk =   0.0277778
        k(   47) = (   0.0173927   0.0869633   0.0869633), wk =   0.0277778
        k(   48) = (   0.0173927   0.0869633  -0.1043559), wk =   0.0277778
        k(   49) = (   0.0173927  -0.1043559  -0.1043559), wk =   0.0069444
        k(   50) = (   0.0347853   0.0347853   0.0347853), wk =   0.0092593
        k(   51) = (   0.0347853   0.0347853   0.0521780), wk =   0.0277778
        k(   52) = (   0.0347853   0.0347853   0.0695706), wk =   0.0277778
        k(   53) = (   0.0347853   0.0347853   0.0869633), wk =   0.0277778
        k(   54) = (   0.0347853   0.0347853  -0.1043559), wk =   0.0138889
        k(   55) = (   0.0347853   0.0521780   0.0521780), wk =   0.0277778
        k(   56) = (   0.0347853   0.0521780   0.0695706), wk =   0.0555556
        k(   57) = (   0.0347853   0.0521780   0.0869633), wk =   0.0555556
        k(   58) = (   0.0347853   0.0521780  -0.1043559), wk =   0.0277778
        k(   59) = (   0.0347853   0.0695706   0.0695706), wk =   0.0277778
        k(   60) = (   0.0347853   0.0695706   0.0869633), wk =   0.0555556
[...]
        k(   70) = (   0.0521780   0.0695706   0.0869633), wk =   0.0555556
        k(   71) = (   0.0521780   0.0695706  -0.1043559), wk =   0.0277778
        k(   72) = (   0.0521780   0.0869633   0.0869633), wk =   0.0277778
        k(   73) = (   0.0521780   0.0869633  -0.1043559), wk =   0.0277778
        k(   74) = (   0.0521780  -0.1043559  -0.1043559), wk =   0.0069444
        k(   75) = (   0.0695706   0.0695706   0.0695706), wk =   0.0092593
        k(   76) = (   0.0695706   0.0695706   0.0869633), wk =   0.0277778
        k(   77) = (   0.0695706   0.0695706  -0.1043559), wk =   0.0138889
        k(   78) = (   0.0695706   0.0869633   0.0869633), wk =   0.0277778
        k(   79) = (   0.0695706   0.0869633  -0.1043559), wk =   0.0277778
        k(   80) = (   0.0695706  -0.1043559  -0.1043559), wk =   0.0069444
        k(   81) = (   0.0869633   0.0869633   0.0869633), wk =   0.0092593
        k(   82) = (   0.0869633   0.0869633  -0.1043559), wk =   0.0138889
        k(   83) = (   0.0869633  -0.1043559  -0.1043559), wk =   0.0069444
        k(   84) = (  -0.1043559  -0.1043559  -0.1043559), wk =   0.0011574

     Largest allocated arrays     est. size (Mb)     dimensions
     Largest temporary arrays     est. size (Mb)     dimensions

     Initial potential from superposition of free atoms
     Check: negative starting charge=   -0.020453

     starting charge   45.99996, renormalised to   51.00000

     negative rho (up, down):  2.268E-02 0.000E+00

     *
     * You are using vdW-DF for exchange-correlation in this calculation.
     * Please cite the following three references that made this development
     * possible:
     *
     *   M. Dion, H. Rydberg, E. Schroder, D. C. Langreth, and
     *   B. I. Lundqvist, Phys. Rev. Lett. 92, 246401 (2004).
     *
     *   T. Thonhauser, V. R. Cooper, S. Li, A. Puzder, P. Hyldgaard, and
     *   D. C. Langreth, Phys. Rev. B 76, 125112 (2007).
     *
     *   G. Roman-Perez and J. M. Soler, Phys. Rev. Lett. 103, 096102 (2009).
     *
     *
     * If you are using vdW-DF2, please also cite:
     *
     *   K. Lee, E. D. Murray, L. Kong, B. I. Lundqvist, and
     *   D. C. Langreth, Phys. Rev. B 82, 081101(R) (2010).
     *
     *
     * If you are calculating the stress with vdW-DF, please also cite:
     *
     *   R. Sabatini, E. Kucukbenli, B. Kolb, T. Thonhauser, and
     *   S. de Gironcoli, J. Phys.: Condens. Matter 24, 424209 (2012).
     *

     Carrying out vdW-DF run using the following parameters:

     Nqs =      20    Nr_points =    1024   r_max =   100.000
     q_mesh =
               0.00001000     0.04494208     0.09755937     0.15916263
               0.23128650     0.31572767     0.41458969     0.53033537
               0.66584808     0.82450364     1.01025438     1.22772762
               1.48234092     1.78043706     2.12944203     2.53805004
               3.01644009     3.57652955     4.23227104     5.00000000

     Gradients computed in reciprocal space

     Starting wfc are   36 randomized atomic wfcs +    9 random wfc

     Self-consistent Calculation

     iteration #  1     ecut=    58.80 Ry     beta=0.10
     Davidson diagonalization with overlap
     ethr =  1.00E-02,  avg # of iterations =  5.2

[...]

     total energy              =    -522.87207120 Ry
     Harris-Foulkes estimate   =    -523.51817658 Ry
     estimated scf accuracy    <       9.14793635 Ry

[...]

     total energy              =    -520.46715111 Ry
     Harris-Foulkes estimate   =    -520.46714026 Ry
     estimated scf accuracy    <       0.00000013 Ry

     iteration # 14     ecut=    58.80 Ry     beta=0.10
     Davidson diagonalization with overlap
     ethr =  6.00E-11,  avg # of iterations =  2.0

     negative rho (up, down):  2.091E-02 0.000E+00

     End of self-consistent calculation

          k = 0.0000 0.0000 0.0000 (  5695 PWs)   bands (ev):

    -5.9341  -5.9341  -5.9341  -5.9171  -5.8144  -5.8144  -5.7008  -5.7008
    -5.7008  -5.6297  -5.6297  -5.5630  -5.5205  -5.5205  -5.5205   0.2895
     0.2895   0.3428   0.3540   0.3540   0.3540   7.1064   7.1064   7.4919
     7.4919   7.4919   8.5634  13.1985  13.1985  13.1985  13.8607  13.8607
    13.8607  16.8107  16.8107  16.9677  17.1386  17.1386  17.1386  19.8466
    19.8466  19.8466  20.8748  23.3783  23.3783

[...]

          k = 0.0870-0.1044-0.1044 (  5668 PWs)   bands (ev):

[...]

          k =-0.1044-0.1044-0.1044 (  5616 PWs)   bands (ev):

    -5.8513  -5.8436  -5.8436  -5.8436  -5.8167  -5.8167  -5.8167  -5.6676
    -5.6676  -5.6676  -5.6645  -5.6645  -5.5532  -5.5532  -5.5532   0.2470
     0.2470   0.2470   0.3771   0.3771   5.0398   5.0398   5.0398   6.0488
     6.5082   6.5082   6.5082   6.7981  17.1674  17.1674  17.3104  17.3104
    17.3104  18.5164  18.5164  18.5164  20.0834  20.2808  20.2808  20.2808
    21.5611  21.5611  21.5787  21.5788  21.5788

     the Fermi energy is     9.1359 ev

!    total energy              =    -520.46719718 Ry
     Harris-Foulkes estimate   =    -520.46715115 Ry
     estimated scf accuracy    <          5.0E-09 Ry

     The total energy is the sum of the following terms:

     one-electron contribution =    -153.03981756 Ry
     hartree contribution      =     120.21562587 Ry
     xc contribution           =    -158.17924697 Ry
     ewald contribution        =    -329.45885105 Ry
     smearing contrib. (-TS)   =      -0.00490747 Ry

     convergence has been achieved in  14 iterations

     Forces acting on atoms (Ry/au):

     negative rho (up, down):  2.091E-02 0.000E+00
     atom    1 type  1   force =     0.00000000    0.00000000    0.00000000
     atom    2 type  1   force =     0.00000000    0.00000000   -0.00000000
     atom    3 type  1   force =     0.00000000    0.00000000    0.00000000
     atom    4 type  2   force =     0.00000000   -0.00000000    0.00000000

     Total force =     0.000000     Total SCF correction =     0.000000
 !ASE

     General routines

     Parallel routines

   This run was terminated on:   9:26:39  25Oct2017

   JOB DONE.