     Program PWSCF v.5.1rc2 (svn rev. ) starts on 31Oct2017 at 14:54: 3

     Current dimensions of program PWSCF are:
     Max number of different atomic species (ntypx) = 10
     Max number of k-points (npk) =  40000
     Max angular momentum in pseudopotentials (lmaxx) =  3

     IMPORTANT: XC functional enforced from input :
     Exchange-correlation      = BEEF-VDW ( 1  4 27 13 2)
     Any further DFT definition will be discarded
     Please, verify this is what you really want

     Subspace diagonalization in iterative solution of the eigenvalue problem:
     a serial algorithm will be used

     bravais-lattice index     =            0
     lattice parameter (alat)  =       1.8897  a.u.
     unit-cell volume          =     311.9042 (a.u.)^3
     number of atoms/cell      =            4
     number of atomic types    =            2
     number of electrons       =        66.00
     number of Kohn-Sham states=           53
     kinetic-energy cutoff     =      58.7989  Ry
     charge density cutoff     =     587.9892  Ry
     convergence threshold     =      7.3E-09
     mixing beta               =       0.1000
     number of iterations used =           10  local-TF  mixing
     Exchange-correlation      = BEEF-VDW ( 1  4 27 13 2)
     nstep                     =           50

     celldm(1)=   1.889726  celldm(2)=   0.000000  celldm(3)=   0.000000
     celldm(4)=   0.000000  celldm(5)=   0.000000  celldm(6)=   0.000000

     crystal axes: (cart. coord. in units of alat)
               a(1) = (   3.588736   0.000000   0.000000 )
               a(2) = (   0.000000   3.588736   0.000000 )
               a(3) = (   0.000000   0.000000   3.588736 )

     reciprocal axes: (cart. coord. in units 2 pi/alat)
               b(1) = (  0.278650  0.000000  0.000000 )
               b(2) = (  0.000000  0.278650  0.000000 )
               b(3) = (  0.000000  0.000000  0.278650 )

     PseudoPot. # 1 for Co read from file:
     /home/vossj/suncat/psp/gbrv1.5pbe/Co.UPF
     MD5 check sum: 5f91765df6ddd3222702df6e7b74a16d
     Pseudo is Ultrasoft + core correction, Zval = 17.0
     Generated by new atomic code, or converted to UPF format
     Using radial grid of  863 points,  6 beta functions with:
                l(1) =   0
                l(2) =   0
                l(3) =   1
                l(4) =   1
                l(5) =   2
                l(6) =   2
     Q(r) pseudized with  8 coefficients,  rinner =    1.200   1.200   1.200
                                                       1.200   1.200

     PseudoPot. # 2 for Ir read from file:
     /home/vossj/suncat/psp/gbrv1.5pbe/Ir.UPF
     MD5 check sum: 8836f839c3459d2b385c504ce6d91f2c
     Pseudo is Ultrasoft + core correction, Zval = 15.0
     Generated by new atomic code, or converted to UPF format
     Using radial grid of  983 points,  7 beta functions with:
                l(1) =   0
                l(2) =   0
                l(3) =   1
                l(4) =   1
                l(5) =   1
                l(6) =   2
                l(7) =   2
     Q(r) pseudized with  8 coefficients,  rinner =    1.400   1.400   1.400
                                                       1.400   1.400

     vdW kernel table read from file vdW_kernel_table
     MD5 check sum: 095c7af220d748ca6e76c0b4c6cfb241

     atomic species   valence    mass     pseudopotential
        Co1           17.00    58.93319     Co( 1.00)
        Ir1           15.00   192.21700     Ir( 1.00)

     48 Sym. Ops., with inversion, found (32 have fractional translation)

   Cartesian axes

     site n.     atom                  positions (alat units)
         1           Co1 tau(   1) = (   0.0000000   0.0000000   0.0000000  )
         2           Co1 tau(   2) = (   0.0000000   1.7943681   1.7943681  )
         3           Co1 tau(   3) = (   1.7943681   0.0000000   1.7943681  )
         4           Ir1 tau(   4) = (   1.7943681   1.7943681   0.0000000  )

     number of k points=    84  Fermi-Dirac smearing, width (Ry)=  0.0073
                       cart. coord. in units 2pi/alat
        k(    1) = (   0.0000000   0.0000000   0.0000000), wk =   0.0011574
        k(    2) = (   0.0000000   0.0000000   0.0232208), wk =   0.0069444
        k(    3) = (   0.0000000   0.0000000   0.0464416), wk =   0.0069444
        k(    4) = (   0.0000000   0.0000000   0.0696624), wk =   0.0069444
        k(    5) = (   0.0000000   0.0000000   0.0928832), wk =   0.0069444
        k(    6) = (   0.0000000   0.0000000   0.1161040), wk =   0.0069444
        k(    7) = (   0.0000000   0.0000000  -0.1393248), wk =   0.0034722
        k(    8) = (   0.0000000   0.0232208   0.0232208), wk =   0.0138889
        k(    9) = (   0.0000000   0.0232208   0.0464416), wk =   0.0277778
        k(   10) = (   0.0000000   0.0232208   0.0696624), wk =   0.0277778
        k(   11) = (   0.0000000   0.0232208   0.0928832), wk =   0.0277778
        k(   12) = (   0.0000000   0.0232208   0.1161040), wk =   0.0277778
        k(   13) = (   0.0000000   0.0232208  -0.1393248), wk =   0.0138889
        k(   14) = (   0.0000000   0.0464416   0.0464416), wk =   0.0138889
        k(   15) = (   0.0000000   0.0464416   0.0696624), wk =   0.0277778
        k(   16) = (   0.0000000   0.0464416   0.0928832), wk =   0.0277778
        k(   17) = (   0.0000000   0.0464416   0.1161040), wk =   0.0277778
        k(   18) = (   0.0000000   0.0464416  -0.1393248), wk =   0.0138889
        k(   19) = (   0.0000000   0.0696624   0.0696624), wk =   0.0138889
        k(   20) = (   0.0000000   0.0696624   0.0928832), wk =   0.0277778
        k(   21) = (   0.0000000   0.0696624   0.1161040), wk =   0.0277778
        k(   22) = (   0.0000000   0.0696624  -0.1393248), wk =   0.0138889
        k(   23) = (   0.0000000   0.0928832   0.0928832), wk =   0.0138889
        k(   24) = (   0.0000000   0.0928832   0.1161040), wk =   0.0277778
        k(   25) = (   0.0000000   0.0928832  -0.1393248), wk =   0.0138889
        k(   26) = (   0.0000000   0.1161040   0.1161040), wk =   0.0138889
        k(   27) = (   0.0000000   0.1161040  -0.1393248), wk =   0.0138889
        k(   28) = (   0.0000000  -0.1393248  -0.1393248), wk =   0.0034722
        k(   29) = (   0.0232208   0.0232208   0.0232208), wk =   0.0092593
        k(   30) = (   0.0232208   0.0232208   0.0464416), wk =   0.0277778
        k(   31) = (   0.0232208   0.0232208   0.0696624), wk =   0.0277778
        k(   32) = (   0.0232208   0.0232208   0.0928832), wk =   0.0277778
        k(   33) = (   0.0232208   0.0232208   0.1161040), wk =   0.0277778
        k(   34) = (   0.0232208   0.0232208  -0.1393248), wk =   0.0138889
        k(   35) = (   0.0232208   0.0464416   0.0464416), wk =   0.0277778
        k(   36) = (   0.0232208   0.0464416   0.0696624), wk =   0.0555556
        k(   37) = (   0.0232208   0.0464416   0.0928832), wk =   0.0555556
        k(   38) = (   0.0232208   0.0464416   0.1161040), wk =   0.0555556
        k(   39) = (   0.0232208   0.0464416  -0.1393248), wk =   0.0277778
        k(   40) = (   0.0232208   0.0696624   0.0696624), wk =   0.0277778
        k(   41) = (   0.0232208   0.0696624   0.0928832), wk =   0.0555556
        k(   42) = (   0.0232208   0.0696624   0.1161040), wk =   0.0555556
        k(   43) = (   0.0232208   0.0696624  -0.1393248), wk =   0.0277778
        k(   44) = (   0.0232208   0.0928832   0.0928832), wk =   0.0277778
        k(   45) = (   0.0232208   0.0928832   0.1161040), wk =   0.0555556
        k(   46) = (   0.0232208   0.0928832  -0.1393248), wk =   0.0277778
        k(   47) = (   0.0232208   0.1161040   0.1161040), wk =   0.0277778
        k(   48) = (   0.0232208   0.1161040  -0.1393248), wk =   0.0277778
        k(   49) = (   0.0232208  -0.1393248  -0.1393248), wk =   0.0069444
        k(   50) = (   0.0464416   0.0464416   0.0464416), wk =   0.0092593
        k(   51) = (   0.0464416   0.0464416   0.0696624), wk =   0.0277778
        k(   52) = (   0.0464416   0.0464416   0.0928832), wk =   0.0277778
        k(   53) = (   0.0464416   0.0464416   0.1161040), wk =   0.0277778
        k(   54) = (   0.0464416   0.0464416  -0.1393248), wk =   0.0138889
        k(   55) = (   0.0464416   0.0696624   0.0696624), wk =   0.0277778
        k(   56) = (   0.0464416   0.0696624   0.0928832), wk =   0.0555556
        k(   57) = (   0.0464416   0.0696624   0.1161040), wk =   0.0555556
        k(   58) = (   0.0464416   0.0696624  -0.1393248), wk =   0.0277778
        k(   59) = (   0.0464416   0.0928832   0.0928832), wk =   0.0277778
        k(   60) = (   0.0464416   0.0928832   0.1161040), wk =   0.0555556
[...]
        k(   70) = (   0.0696624   0.0928832   0.1161040), wk =   0.0555556
        k(   71) = (   0.0696624   0.0928832  -0.1393248), wk =   0.0277778
        k(   72) = (   0.0696624   0.1161040   0.1161040), wk =   0.0277778
        k(   73) = (   0.0696624   0.1161040  -0.1393248), wk =   0.0277778
        k(   74) = (   0.0696624  -0.1393248  -0.1393248), wk =   0.0069444
        k(   75) = (   0.0928832   0.0928832   0.0928832), wk =   0.0092593
        k(   76) = (   0.0928832   0.0928832   0.1161040), wk =   0.0277778
        k(   77) = (   0.0928832   0.0928832  -0.1393248), wk =   0.0138889
        k(   78) = (   0.0928832   0.1161040   0.1161040), wk =   0.0277778
        k(   79) = (   0.0928832   0.1161040  -0.1393248), wk =   0.0277778
        k(   80) = (   0.0928832  -0.1393248  -0.1393248), wk =   0.0069444
        k(   81) = (   0.1161040   0.1161040   0.1161040), wk =   0.0092593
        k(   82) = (   0.1161040   0.1161040  -0.1393248), wk =   0.0138889
        k(   83) = (   0.1161040  -0.1393248  -0.1393248), wk =   0.0069444
        k(   84) = (  -0.1393248  -0.1393248  -0.1393248), wk =   0.0011574

     Largest allocated arrays     est. size (Mb)     dimensions
     Largest temporary arrays     est. size (Mb)     dimensions

     Check: negative/imaginary core charge=   -0.000030    0.000000

     Initial potential from superposition of free atoms
     Check: negative starting charge=   -0.363991

     starting charge   62.49995, renormalised to   66.00000

     negative rho (up, down):  3.844E-01 0.000E+00

     *
     * You are using vdW-DF for exchange-correlation in this calculation.
     * Please cite the following three references that made this development
     * possible:
     *
     *   M. Dion, H. Rydberg, E. Schroder, D. C. Langreth, and
     *   B. I. Lundqvist, Phys. Rev. Lett. 92, 246401 (2004).
     *
     *   T. Thonhauser, V. R. Cooper, S. Li, A. Puzder, P. Hyldgaard, and
     *   D. C. Langreth, Phys. Rev. B 76, 125112 (2007).
     *
     *   G. Roman-Perez and J. M. Soler, Phys. Rev. Lett. 103, 096102 (2009).
     *
     *
     * If you are using vdW-DF2, please also cite:
     *
     *   K. Lee, E. D. Murray, L. Kong, B. I. Lundqvist, and
     *   D. C. Langreth, Phys. Rev. B 82, 081101(R) (2010).
     *
     *
     * If you are calculating the stress with vdW-DF, please also cite:
     *
     *   R. Sabatini, E. Kucukbenli, B. Kolb, T. Thonhauser, and
     *   S. de Gironcoli, J. Phys.: Condens. Matter 24, 424209 (2012).
     *

     Carrying out vdW-DF run using the following parameters:

     Nqs =      20    Nr_points =    1024   r_max =   100.000
     q_mesh =
               0.00001000     0.04494208     0.09755937     0.15916263
               0.23128650     0.31572767     0.41458969     0.53033537
               0.66584808     0.82450364     1.01025438     1.22772762
               1.48234092     1.78043706     2.12944203     2.53805004
               3.01644009     3.57652955     4.23227104     5.00000000

     Gradients computed in reciprocal space

     Starting wfc are   51 randomized atomic wfcs +    2 random wfc

     Self-consistent Calculation

     iteration #  1     ecut=    58.80 Ry     beta=0.10
     Davidson diagonalization with overlap
     ethr =  1.00E-02,  avg # of iterations =  4.9

[...]

     total energy              =   -1084.57108059 Ry
     Harris-Foulkes estimate   =   -1086.13841130 Ry
     estimated scf accuracy    <      20.51079836 Ry

[...]

     total energy              =   -1081.99036964 Ry
     Harris-Foulkes estimate   =   -1081.99036926 Ry
     estimated scf accuracy    <       0.00000003 Ry

     iteration # 22     ecut=    58.80 Ry     beta=0.10
     Davidson diagonalization with overlap
     ethr =  5.28E-11,  avg # of iterations =  1.0

     negative rho (up, down):  3.169E-01 0.000E+00

     End of self-consistent calculation

          k = 0.0000 0.0000 0.0000 (  2373 PWs)   bands (ev):

   -74.9838 -74.9415 -74.9415 -38.3488 -38.3488 -38.3488 -38.2615 -38.2615
   -38.2615 -38.1504 -38.1504 -38.1504 -29.3451 -29.3451 -29.3451  10.7754
    14.1153  14.1153  15.2553  15.2553  15.2553  15.7676  18.1407  18.1407
    18.1407  19.5107  19.5107  20.1997  20.4984  20.4984  20.4984  20.8000
    20.8000  21.4107  21.4107  21.4107  22.7671  22.7671  22.7671  29.6966
    31.2999  32.0511  32.0511  33.1657  33.1657  33.1657  35.9294  35.9294
    35.9294  40.0704  41.5433  41.5433  41.5433

[...]

          k = 0.1161-0.1393-0.1393 (  2372 PWs)   bands (ev):

[...]

          k =-0.1393-0.1393-0.1393 (  2320 PWs)   bands (ev):

   -74.9555 -74.9555 -74.9555 -38.3594 -38.3591 -38.3591 -38.3591 -38.2002
   -38.2002 -38.2002 -38.1325 -38.1325 -29.3559 -29.3559 -29.3559  14.2915
    14.2915  14.2915  15.1499  17.3481  17.3481  18.0790  18.0790  18.0790
    18.2207  18.2207  18.2207  19.8279  20.1348  20.1348  20.1348  20.2682
    20.2682  20.2682  20.8025  20.8025  20.8025  20.8495  20.8495  26.1282
    28.1984  28.1984  28.1984  31.2981  38.9145  38.9145  38.9145  39.6646
    41.6484  41.6484  41.6484  43.9211  43.9211

     the Fermi energy is    20.1583 ev

!    total energy              =   -1081.99037130 Ry
     Harris-Foulkes estimate   =   -1081.99036964 Ry
     estimated scf accuracy    <          5.4E-10 Ry

     The total energy is the sum of the following terms:

     one-electron contribution =    -482.61716056 Ry
     hartree contribution      =     291.26684692 Ry
     xc contribution           =    -153.39222408 Ry
     ewald contribution        =    -737.22783586 Ry
     smearing contrib. (-TS)   =      -0.01999773 Ry

     convergence has been achieved in  22 iterations

     Forces acting on atoms (Ry/au):

     negative rho (up, down):  3.169E-01 0.000E+00
     atom    1 type  1   force =     0.00000000    0.00000000    0.00000000
     atom    2 type  1   force =     0.00000000    0.00000000    0.00000000
     atom    3 type  1   force =     0.00000000    0.00000000    0.00000000
     atom    4 type  2   force =     0.00000000    0.00000000    0.00000000

     Total force =     0.000000     Total SCF correction =     0.000000
 !ASE

     General routines

     Parallel routines

   This run was terminated on:  14:55:29  31Oct2017

   JOB DONE.