     Program PWSCF v.5.1rc2 (svn rev. ) starts on 25Oct2017 at 21:20:25

     Current dimensions of program PWSCF are:
     Max number of different atomic species (ntypx) = 10
     Max number of k-points (npk) =  40000
     Max angular momentum in pseudopotentials (lmaxx) =  3

     IMPORTANT: XC functional enforced from input :
     Exchange-correlation      = BEEF-VDW ( 1  4 27 13 2)
     Any further DFT definition will be discarded
     Please, verify this is what you really want

     Subspace diagonalization in iterative solution of the eigenvalue problem:
     a serial algorithm will be used

     bravais-lattice index     =            0
     lattice parameter (alat)  =       1.8897  a.u.
     unit-cell volume          =     517.3977 (a.u.)^3
     number of atoms/cell      =            4
     number of atomic types    =            2
     number of electrons       =        52.00
     number of Kohn-Sham states=           46
     kinetic-energy cutoff     =      58.7989  Ry
     charge density cutoff     =     587.9892  Ry
     convergence threshold     =      7.3E-09
     mixing beta               =       0.1000
     number of iterations used =           10  local-TF  mixing
     Exchange-correlation      = BEEF-VDW ( 1  4 27 13 2)
     nstep                     =           50

     celldm(1)=   1.889726  celldm(2)=   0.000000  celldm(3)=   0.000000
     celldm(4)=   0.000000  celldm(5)=   0.000000  celldm(6)=   0.000000

     crystal axes: (cart. coord. in units of alat)
               a(1) = (   4.248242   0.000000   0.000000 )
               a(2) = (   0.000000   4.248242   0.000000 )
               a(3) = (   0.000000   0.000000   4.248242 )

     reciprocal axes: (cart. coord. in units 2 pi/alat)
               b(1) = (  0.235391  0.000000  0.000000 )
               b(2) = (  0.000000  0.235391  0.000000 )
               b(3) = (  0.000000  0.000000  0.235391 )

     PseudoPot. # 1 for Nb read from file:
     /home/vossj/suncat/psp/gbrv1.5pbe/Nb.UPF
     MD5 check sum: 573aab8a2fa660278ed4a62cd769473f
     Pseudo is Ultrasoft + core correction, Zval = 13.0
     Generated by new atomic code, or converted to UPF format
     Using radial grid of  887 points,  6 beta functions with:
                l(1) =   0
                l(2) =   0
                l(3) =   1
                l(4) =   1
                l(5) =   2
                l(6) =   2
     Q(r) pseudized with  6 coefficients,  rinner =    1.000   1.000   1.000
                                                       1.000   1.000

     PseudoPot. # 2 for Tl read from file:
     /home/vossj/suncat/psp/gbrv1.5pbe/Tl.UPF
     MD5 check sum: b76cf1f7e72655a2b2c53cf6385d7059
     Pseudo is Ultrasoft + core correction, Zval = 13.0
     Generated by new atomic code, or converted to UPF format
     Using radial grid of  899 points,  6 beta functions with:
                l(1) =   0
                l(2) =   0
                l(3) =   1
                l(4) =   1
                l(5) =   2
                l(6) =   2
     Q(r) pseudized with  6 coefficients,  rinner =    1.100   1.100   1.100
                                                       1.100   1.100

     vdW kernel table read from file vdW_kernel_table
     MD5 check sum: 095c7af220d748ca6e76c0b4c6cfb241

     atomic species   valence    mass     pseudopotential
        Nb1           13.00    92.90637     Nb( 1.00)
        Tl1           13.00   204.38000     Tl( 1.00)

     48 Sym. Ops., with inversion, found (32 have fractional translation)

   Cartesian axes

     site n.     atom                  positions (alat units)
         1           Nb1 tau(   1) = (   0.0000000   0.0000000   0.0000000  )
         2           Nb1 tau(   2) = (   0.0000000   2.1241212   2.1241212  )
         3           Nb1 tau(   3) = (   2.1241212   0.0000000   2.1241212  )
         4           Tl1 tau(   4) = (   2.1241212   2.1241212   0.0000000  )

     number of k points=    84  Fermi-Dirac smearing, width (Ry)=  0.0073
                       cart. coord. in units 2pi/alat
        k(    1) = (   0.0000000   0.0000000   0.0000000), wk =   0.0011574
        k(    2) = (   0.0000000   0.0000000   0.0196160), wk =   0.0069444
        k(    3) = (   0.0000000   0.0000000   0.0392319), wk =   0.0069444
        k(    4) = (   0.0000000   0.0000000   0.0588479), wk =   0.0069444
        k(    5) = (   0.0000000   0.0000000   0.0784638), wk =   0.0069444
        k(    6) = (   0.0000000   0.0000000   0.0980798), wk =   0.0069444
        k(    7) = (   0.0000000   0.0000000  -0.1176957), wk =   0.0034722
        k(    8) = (   0.0000000   0.0196160   0.0196160), wk =   0.0138889
        k(    9) = (   0.0000000   0.0196160   0.0392319), wk =   0.0277778
        k(   10) = (   0.0000000   0.0196160   0.0588479), wk =   0.0277778
        k(   11) = (   0.0000000   0.0196160   0.0784638), wk =   0.0277778
        k(   12) = (   0.0000000   0.0196160   0.0980798), wk =   0.0277778
        k(   13) = (   0.0000000   0.0196160  -0.1176957), wk =   0.0138889
        k(   14) = (   0.0000000   0.0392319   0.0392319), wk =   0.0138889
        k(   15) = (   0.0000000   0.0392319   0.0588479), wk =   0.0277778
        k(   16) = (   0.0000000   0.0392319   0.0784638), wk =   0.0277778
        k(   17) = (   0.0000000   0.0392319   0.0980798), wk =   0.0277778
        k(   18) = (   0.0000000   0.0392319  -0.1176957), wk =   0.0138889
        k(   19) = (   0.0000000   0.0588479   0.0588479), wk =   0.0138889
        k(   20) = (   0.0000000   0.0588479   0.0784638), wk =   0.0277778
        k(   21) = (   0.0000000   0.0588479   0.0980798), wk =   0.0277778
        k(   22) = (   0.0000000   0.0588479  -0.1176957), wk =   0.0138889
        k(   23) = (   0.0000000   0.0784638   0.0784638), wk =   0.0138889
        k(   24) = (   0.0000000   0.0784638   0.0980798), wk =   0.0277778
        k(   25) = (   0.0000000   0.0784638  -0.1176957), wk =   0.0138889
        k(   26) = (   0.0000000   0.0980798   0.0980798), wk =   0.0138889
        k(   27) = (   0.0000000   0.0980798  -0.1176957), wk =   0.0138889
        k(   28) = (   0.0000000  -0.1176957  -0.1176957), wk =   0.0034722
        k(   29) = (   0.0196160   0.0196160   0.0196160), wk =   0.0092593
        k(   30) = (   0.0196160   0.0196160   0.0392319), wk =   0.0277778
        k(   31) = (   0.0196160   0.0196160   0.0588479), wk =   0.0277778
        k(   32) = (   0.0196160   0.0196160   0.0784638), wk =   0.0277778
        k(   33) = (   0.0196160   0.0196160   0.0980798), wk =   0.0277778
        k(   34) = (   0.0196160   0.0196160  -0.1176957), wk =   0.0138889
        k(   35) = (   0.0196160   0.0392319   0.0392319), wk =   0.0277778
        k(   36) = (   0.0196160   0.0392319   0.0588479), wk =   0.0555556
        k(   37) = (   0.0196160   0.0392319   0.0784638), wk =   0.0555556
        k(   38) = (   0.0196160   0.0392319   0.0980798), wk =   0.0555556
        k(   39) = (   0.0196160   0.0392319  -0.1176957), wk =   0.0277778
        k(   40) = (   0.0196160   0.0588479   0.0588479), wk =   0.0277778
        k(   41) = (   0.0196160   0.0588479   0.0784638), wk =   0.0555556
        k(   42) = (   0.0196160   0.0588479   0.0980798), wk =   0.0555556
        k(   43) = (   0.0196160   0.0588479  -0.1176957), wk =   0.0277778
        k(   44) = (   0.0196160   0.0784638   0.0784638), wk =   0.0277778
        k(   45) = (   0.0196160   0.0784638   0.0980798), wk =   0.0555556
        k(   46) = (   0.0196160   0.0784638  -0.1176957), wk =   0.0277778
        k(   47) = (   0.0196160   0.0980798   0.0980798), wk =   0.0277778
        k(   48) = (   0.0196160   0.0980798  -0.1176957), wk =   0.0277778
        k(   49) = (   0.0196160  -0.1176957  -0.1176957), wk =   0.0069444
        k(   50) = (   0.0392319   0.0392319   0.0392319), wk =   0.0092593
        k(   51) = (   0.0392319   0.0392319   0.0588479), wk =   0.0277778
        k(   52) = (   0.0392319   0.0392319   0.0784638), wk =   0.0277778
        k(   53) = (   0.0392319   0.0392319   0.0980798), wk =   0.0277778
        k(   54) = (   0.0392319   0.0392319  -0.1176957), wk =   0.0138889
        k(   55) = (   0.0392319   0.0588479   0.0588479), wk =   0.0277778
        k(   56) = (   0.0392319   0.0588479   0.0784638), wk =   0.0555556
        k(   57) = (   0.0392319   0.0588479   0.0980798), wk =   0.0555556
        k(   58) = (   0.0392319   0.0588479  -0.1176957), wk =   0.0277778
        k(   59) = (   0.0392319   0.0784638   0.0784638), wk =   0.0277778
        k(   60) = (   0.0392319   0.0784638   0.0980798), wk =   0.0555556
[...]
        k(   70) = (   0.0588479   0.0784638   0.0980798), wk =   0.0555556
        k(   71) = (   0.0588479   0.0784638  -0.1176957), wk =   0.0277778
        k(   72) = (   0.0588479   0.0980798   0.0980798), wk =   0.0277778
        k(   73) = (   0.0588479   0.0980798  -0.1176957), wk =   0.0277778
        k(   74) = (   0.0588479  -0.1176957  -0.1176957), wk =   0.0069444
        k(   75) = (   0.0784638   0.0784638   0.0784638), wk =   0.0092593
        k(   76) = (   0.0784638   0.0784638   0.0980798), wk =   0.0277778
        k(   77) = (   0.0784638   0.0784638  -0.1176957), wk =   0.0138889
        k(   78) = (   0.0784638   0.0980798   0.0980798), wk =   0.0277778
        k(   79) = (   0.0784638   0.0980798  -0.1176957), wk =   0.0277778
        k(   80) = (   0.0784638  -0.1176957  -0.1176957), wk =   0.0069444
        k(   81) = (   0.0980798   0.0980798   0.0980798), wk =   0.0092593
        k(   82) = (   0.0980798   0.0980798  -0.1176957), wk =   0.0138889
        k(   83) = (   0.0980798  -0.1176957  -0.1176957), wk =   0.0069444
        k(   84) = (  -0.1176957  -0.1176957  -0.1176957), wk =   0.0011574

     Largest allocated arrays     est. size (Mb)     dimensions
     Largest temporary arrays     est. size (Mb)     dimensions

     Initial potential from superposition of free atoms
     Check: negative starting charge=   -0.049110

     starting charge   51.98693, renormalised to   52.00000

     negative rho (up, down):  4.912E-02 0.000E+00

     *
     * You are using vdW-DF for exchange-correlation in this calculation.
     * Please cite the following three references that made this development
     * possible:
     *
     *   M. Dion, H. Rydberg, E. Schroder, D. C. Langreth, and
     *   B. I. Lundqvist, Phys. Rev. Lett. 92, 246401 (2004).
     *
     *   T. Thonhauser, V. R. Cooper, S. Li, A. Puzder, P. Hyldgaard, and
     *   D. C. Langreth, Phys. Rev. B 76, 125112 (2007).
     *
     *   G. Roman-Perez and J. M. Soler, Phys. Rev. Lett. 103, 096102 (2009).
     *
     *
     * If you are using vdW-DF2, please also cite:
     *
     *   K. Lee, E. D. Murray, L. Kong, B. I. Lundqvist, and
     *   D. C. Langreth, Phys. Rev. B 82, 081101(R) (2010).
     *
     *
     * If you are calculating the stress with vdW-DF, please also cite:
     *
     *   R. Sabatini, E. Kucukbenli, B. Kolb, T. Thonhauser, and
     *   S. de Gironcoli, J. Phys.: Condens. Matter 24, 424209 (2012).
     *

     Carrying out vdW-DF run using the following parameters:

     Nqs =      20    Nr_points =    1024   r_max =   100.000
     q_mesh =
               0.00001000     0.04494208     0.09755937     0.15916263
               0.23128650     0.31572767     0.41458969     0.53033537
               0.66584808     0.82450364     1.01025438     1.22772762
               1.48234092     1.78043706     2.12944203     2.53805004
               3.01644009     3.57652955     4.23227104     5.00000000

     Gradients computed in reciprocal space

     Starting wfc are   48 randomized atomic wfcs

     Self-consistent Calculation

     iteration #  1     ecut=    58.80 Ry     beta=0.10
     Davidson diagonalization with overlap
     ethr =  1.00E-02,  avg # of iterations =  4.9

     Threshold (ethr) on eigenvalues was too large:
     Diagonalizing with lowered threshold

     Davidson diagonalization with overlap
     ethr =  4.42E-04,  avg # of iterations =  1.3

[...]

     total energy              =    -502.51714560 Ry
     Harris-Foulkes estimate   =    -502.52550744 Ry
     estimated scf accuracy    <       0.23039717 Ry

[...]

     total energy              =    -502.47132396 Ry
     Harris-Foulkes estimate   =    -502.47128876 Ry
     estimated scf accuracy    <       0.00000002 Ry

     iteration # 11     ecut=    58.80 Ry     beta=0.10
     Davidson diagonalization with overlap
     ethr =  4.54E-11,  avg # of iterations =  2.1

     negative rho (up, down):  5.460E-02 0.000E+00

     End of self-consistent calculation

          k = 0.0000 0.0000 0.0000 (  3887 PWs)   bands (ev):

   -38.1457 -37.9732 -37.9732 -14.4417 -14.4417 -14.4417 -14.0531 -14.0531
   -14.0531 -13.6904 -13.6904 -13.6904   4.9609   4.9609   5.0168   5.0168
     5.0168   7.8331  12.7639  14.8325  14.8325  14.8325  14.8635  14.8635
    18.0328  18.0328  18.0328  18.6903  18.6903  18.6903  20.2840  20.2840
    21.1672  21.8507  21.8507  21.8507  22.1967  25.7669  25.7669  25.7669
    27.9754  27.9754  27.9754  28.0805  28.0805  28.7203

[...]

          k = 0.0981-0.1177-0.1177 (  3924 PWs)   bands (ev):

[...]

          k =-0.1177-0.1177-0.1177 (  3912 PWs)   bands (ev):

   -38.0296 -38.0296 -38.0296 -14.5850 -14.4485 -14.4485 -14.4485 -13.8093
   -13.8093 -13.8093 -13.6487 -13.6487   4.9828   4.9828   4.9828   5.2046
     5.2046   9.3015  14.3648  14.3648  14.3648  15.8941  15.8941  15.8941
    16.7207  16.7207  16.7207  18.3426  18.6161  18.6161  18.6161  19.3251
    19.3251  20.7389  21.2704  21.2704  21.2704  25.7629  25.7629  25.7629
    28.1594  28.1594  28.1594  28.5080  31.2788  31.2788

     the Fermi energy is    16.9127 ev

!    total energy              =    -502.47147401 Ry
     Harris-Foulkes estimate   =    -502.47132396 Ry
     estimated scf accuracy    <          3.1E-09 Ry

     The total energy is the sum of the following terms:

     one-electron contribution =     -57.93197470 Ry
     hartree contribution      =      63.00113210 Ry
     xc contribution           =    -121.46076754 Ry
     ewald contribution        =    -386.06889565 Ry
     smearing contrib. (-TS)   =      -0.01096822 Ry

     convergence has been achieved in  11 iterations

     Forces acting on atoms (Ry/au):

     negative rho (up, down):  5.460E-02 0.000E+00
     atom    1 type  1   force =     0.00000000    0.00000000    0.00000000
     atom    2 type  1   force =     0.00000000    0.00000000    0.00000000
     atom    3 type  1   force =     0.00000000    0.00000000    0.00000000
     atom    4 type  2   force =     0.00000000    0.00000000    0.00000000

     Total force =     0.000000     Total SCF correction =     0.000000
 !ASE

     General routines

     Parallel routines

   This run was terminated on:  21:21:15  25Oct2017

   JOB DONE.