     Program PWSCF v.5.1rc2 (svn rev. ) starts on 25Oct2017 at 15: 5:40

     Current dimensions of program PWSCF are:
     Max number of different atomic species (ntypx) = 10
     Max number of k-points (npk) =  40000
     Max angular momentum in pseudopotentials (lmaxx) =  3

     IMPORTANT: XC functional enforced from input :
     Exchange-correlation      = BEEF-VDW ( 1  4 27 13 2)
     Any further DFT definition will be discarded
     Please, verify this is what you really want

     Subspace diagonalization in iterative solution of the eigenvalue problem:
     a serial algorithm will be used

     bravais-lattice index     =            0
     lattice parameter (alat)  =       1.8897  a.u.
     unit-cell volume          =     595.7895 (a.u.)^3
     number of atoms/cell      =            4
     number of atomic types    =            2
     number of electrons       =        48.00
     number of Kohn-Sham states=           44
     kinetic-energy cutoff     =      58.7989  Ry
     charge density cutoff     =     587.9892  Ry
     convergence threshold     =      7.3E-09
     mixing beta               =       0.1000
     number of iterations used =           10  local-TF  mixing
     Exchange-correlation      = BEEF-VDW ( 1  4 27 13 2)
     nstep                     =           50

     celldm(1)=   1.889726  celldm(2)=   0.000000  celldm(3)=   0.000000
     celldm(4)=   0.000000  celldm(5)=   0.000000  celldm(6)=   0.000000

     crystal axes: (cart. coord. in units of alat)
               a(1) = (   4.452789   0.000000   0.000000 )
               a(2) = (   0.000000   4.452789   0.000000 )
               a(3) = (   0.000000   0.000000   4.452789 )

     reciprocal axes: (cart. coord. in units 2 pi/alat)
               b(1) = (  0.224578  0.000000  0.000000 )
               b(2) = (  0.000000  0.224578  0.000000 )
               b(3) = (  0.000000  0.000000  0.224578 )

     PseudoPot. # 1 for Cd read from file:
     /home/vossj/suncat/psp/gbrv1.5pbe/Cd.UPF
     MD5 check sum: 17164a7926edb8e0dc231208abae86a6
     Pseudo is Ultrasoft + core correction, Zval = 12.0
     Generated by new atomic code, or converted to UPF format
     Using radial grid of  889 points,  6 beta functions with:
                l(1) =   0
                l(2) =   0
                l(3) =   1
                l(4) =   1
                l(5) =   2
                l(6) =   2
     Q(r) pseudized with  6 coefficients,  rinner =    1.000   1.000   1.000
                                                       1.000   1.000

     PseudoPot. # 2 for Zr read from file:
     /home/vossj/suncat/psp/gbrv1.5pbe/Zr.UPF
     MD5 check sum: 5db81b1e868ab7776c4564c113de050b
     Pseudo is Ultrasoft + core correction, Zval = 12.0
     Generated by new atomic code, or converted to UPF format
     Using radial grid of  887 points,  6 beta functions with:
                l(1) =   0
                l(2) =   0
                l(3) =   1
                l(4) =   1
                l(5) =   2
                l(6) =   2
     Q(r) pseudized with  6 coefficients,  rinner =    1.200   1.200   1.200
                                                       1.200   1.200

     vdW kernel table read from file vdW_kernel_table
     MD5 check sum: 095c7af220d748ca6e76c0b4c6cfb241

     atomic species   valence    mass     pseudopotential
        Cd1           12.00   112.41400     Cd( 1.00)
        Zr1           12.00    91.22400     Zr( 1.00)

     48 Sym. Ops., with inversion, found (32 have fractional translation)

   Cartesian axes

     site n.     atom                  positions (alat units)
         1           Cd1 tau(   1) = (   0.0000000   0.0000000   0.0000000  )
         2           Cd1 tau(   2) = (   0.0000000   2.2263943   2.2263943  )
         3           Cd1 tau(   3) = (   2.2263943   0.0000000   2.2263943  )
         4           Zr1 tau(   4) = (   2.2263943   2.2263943   0.0000000  )

     number of k points=    84  Fermi-Dirac smearing, width (Ry)=  0.0073
                       cart. coord. in units 2pi/alat
        k(    1) = (   0.0000000   0.0000000   0.0000000), wk =   0.0011574
        k(    2) = (   0.0000000   0.0000000   0.0187149), wk =   0.0069444
        k(    3) = (   0.0000000   0.0000000   0.0374297), wk =   0.0069444
        k(    4) = (   0.0000000   0.0000000   0.0561446), wk =   0.0069444
        k(    5) = (   0.0000000   0.0000000   0.0748595), wk =   0.0069444
        k(    6) = (   0.0000000   0.0000000   0.0935743), wk =   0.0069444
        k(    7) = (   0.0000000   0.0000000  -0.1122892), wk =   0.0034722
        k(    8) = (   0.0000000   0.0187149   0.0187149), wk =   0.0138889
        k(    9) = (   0.0000000   0.0187149   0.0374297), wk =   0.0277778
        k(   10) = (   0.0000000   0.0187149   0.0561446), wk =   0.0277778
        k(   11) = (   0.0000000   0.0187149   0.0748595), wk =   0.0277778
        k(   12) = (   0.0000000   0.0187149   0.0935743), wk =   0.0277778
        k(   13) = (   0.0000000   0.0187149  -0.1122892), wk =   0.0138889
        k(   14) = (   0.0000000   0.0374297   0.0374297), wk =   0.0138889
        k(   15) = (   0.0000000   0.0374297   0.0561446), wk =   0.0277778
        k(   16) = (   0.0000000   0.0374297   0.0748595), wk =   0.0277778
        k(   17) = (   0.0000000   0.0374297   0.0935743), wk =   0.0277778
        k(   18) = (   0.0000000   0.0374297  -0.1122892), wk =   0.0138889
        k(   19) = (   0.0000000   0.0561446   0.0561446), wk =   0.0138889
        k(   20) = (   0.0000000   0.0561446   0.0748595), wk =   0.0277778
        k(   21) = (   0.0000000   0.0561446   0.0935743), wk =   0.0277778
        k(   22) = (   0.0000000   0.0561446  -0.1122892), wk =   0.0138889
        k(   23) = (   0.0000000   0.0748595   0.0748595), wk =   0.0138889
        k(   24) = (   0.0000000   0.0748595   0.0935743), wk =   0.0277778
        k(   25) = (   0.0000000   0.0748595  -0.1122892), wk =   0.0138889
        k(   26) = (   0.0000000   0.0935743   0.0935743), wk =   0.0138889
        k(   27) = (   0.0000000   0.0935743  -0.1122892), wk =   0.0138889
        k(   28) = (   0.0000000  -0.1122892  -0.1122892), wk =   0.0034722
        k(   29) = (   0.0187149   0.0187149   0.0187149), wk =   0.0092593
        k(   30) = (   0.0187149   0.0187149   0.0374297), wk =   0.0277778
        k(   31) = (   0.0187149   0.0187149   0.0561446), wk =   0.0277778
        k(   32) = (   0.0187149   0.0187149   0.0748595), wk =   0.0277778
        k(   33) = (   0.0187149   0.0187149   0.0935743), wk =   0.0277778
        k(   34) = (   0.0187149   0.0187149  -0.1122892), wk =   0.0138889
        k(   35) = (   0.0187149   0.0374297   0.0374297), wk =   0.0277778
        k(   36) = (   0.0187149   0.0374297   0.0561446), wk =   0.0555556
        k(   37) = (   0.0187149   0.0374297   0.0748595), wk =   0.0555556
        k(   38) = (   0.0187149   0.0374297   0.0935743), wk =   0.0555556
        k(   39) = (   0.0187149   0.0374297  -0.1122892), wk =   0.0277778
        k(   40) = (   0.0187149   0.0561446   0.0561446), wk =   0.0277778
        k(   41) = (   0.0187149   0.0561446   0.0748595), wk =   0.0555556
        k(   42) = (   0.0187149   0.0561446   0.0935743), wk =   0.0555556
        k(   43) = (   0.0187149   0.0561446  -0.1122892), wk =   0.0277778
        k(   44) = (   0.0187149   0.0748595   0.0748595), wk =   0.0277778
        k(   45) = (   0.0187149   0.0748595   0.0935743), wk =   0.0555556
        k(   46) = (   0.0187149   0.0748595  -0.1122892), wk =   0.0277778
        k(   47) = (   0.0187149   0.0935743   0.0935743), wk =   0.0277778
        k(   48) = (   0.0187149   0.0935743  -0.1122892), wk =   0.0277778
        k(   49) = (   0.0187149  -0.1122892  -0.1122892), wk =   0.0069444
        k(   50) = (   0.0374297   0.0374297   0.0374297), wk =   0.0092593
        k(   51) = (   0.0374297   0.0374297   0.0561446), wk =   0.0277778
        k(   52) = (   0.0374297   0.0374297   0.0748595), wk =   0.0277778
        k(   53) = (   0.0374297   0.0374297   0.0935743), wk =   0.0277778
        k(   54) = (   0.0374297   0.0374297  -0.1122892), wk =   0.0138889
        k(   55) = (   0.0374297   0.0561446   0.0561446), wk =   0.0277778
        k(   56) = (   0.0374297   0.0561446   0.0748595), wk =   0.0555556
        k(   57) = (   0.0374297   0.0561446   0.0935743), wk =   0.0555556
        k(   58) = (   0.0374297   0.0561446  -0.1122892), wk =   0.0277778
        k(   59) = (   0.0374297   0.0748595   0.0748595), wk =   0.0277778
        k(   60) = (   0.0374297   0.0748595   0.0935743), wk =   0.0555556
[...]
        k(   70) = (   0.0561446   0.0748595   0.0935743), wk =   0.0555556
        k(   71) = (   0.0561446   0.0748595  -0.1122892), wk =   0.0277778
        k(   72) = (   0.0561446   0.0935743   0.0935743), wk =   0.0277778
        k(   73) = (   0.0561446   0.0935743  -0.1122892), wk =   0.0277778
        k(   74) = (   0.0561446  -0.1122892  -0.1122892), wk =   0.0069444
        k(   75) = (   0.0748595   0.0748595   0.0748595), wk =   0.0092593
        k(   76) = (   0.0748595   0.0748595   0.0935743), wk =   0.0277778
        k(   77) = (   0.0748595   0.0748595  -0.1122892), wk =   0.0138889
        k(   78) = (   0.0748595   0.0935743   0.0935743), wk =   0.0277778
        k(   79) = (   0.0748595   0.0935743  -0.1122892), wk =   0.0277778
        k(   80) = (   0.0748595  -0.1122892  -0.1122892), wk =   0.0069444
        k(   81) = (   0.0935743   0.0935743   0.0935743), wk =   0.0092593
        k(   82) = (   0.0935743   0.0935743  -0.1122892), wk =   0.0138889
        k(   83) = (   0.0935743  -0.1122892  -0.1122892), wk =   0.0069444
        k(   84) = (  -0.1122892  -0.1122892  -0.1122892), wk =   0.0011574

     Largest allocated arrays     est. size (Mb)     dimensions
     Largest temporary arrays     est. size (Mb)     dimensions

     Initial potential from superposition of free atoms
     Check: negative starting charge=   -0.124850

     starting charge   46.49773, renormalised to   48.00000

     negative rho (up, down):  1.289E-01 0.000E+00

     *
     * You are using vdW-DF for exchange-correlation in this calculation.
     * Please cite the following three references that made this development
     * possible:
     *
     *   M. Dion, H. Rydberg, E. Schroder, D. C. Langreth, and
     *   B. I. Lundqvist, Phys. Rev. Lett. 92, 246401 (2004).
     *
     *   T. Thonhauser, V. R. Cooper, S. Li, A. Puzder, P. Hyldgaard, and
     *   D. C. Langreth, Phys. Rev. B 76, 125112 (2007).
     *
     *   G. Roman-Perez and J. M. Soler, Phys. Rev. Lett. 103, 096102 (2009).
     *
     *
     * If you are using vdW-DF2, please also cite:
     *
     *   K. Lee, E. D. Murray, L. Kong, B. I. Lundqvist, and
     *   D. C. Langreth, Phys. Rev. B 82, 081101(R) (2010).
     *
     *
     * If you are calculating the stress with vdW-DF, please also cite:
     *
     *   R. Sabatini, E. Kucukbenli, B. Kolb, T. Thonhauser, and
     *   S. de Gironcoli, J. Phys.: Condens. Matter 24, 424209 (2012).
     *

     Carrying out vdW-DF run using the following parameters:

     Nqs =      20    Nr_points =    1024   r_max =   100.000
     q_mesh =
               0.00001000     0.04494208     0.09755937     0.15916263
               0.23128650     0.31572767     0.41458969     0.53033537
               0.66584808     0.82450364     1.01025438     1.22772762
               1.48234092     1.78043706     2.12944203     2.53805004
               3.01644009     3.57652955     4.23227104     5.00000000

     Gradients computed in reciprocal space

     Starting wfc are   40 randomized atomic wfcs +    4 random wfc

     Self-consistent Calculation

     iteration #  1     ecut=    58.80 Ry     beta=0.10
     Davidson diagonalization with overlap
     ethr =  1.00E-02,  avg # of iterations =  4.4

     Threshold (ethr) on eigenvalues was too large:
     Diagonalizing with lowered threshold

     Davidson diagonalization with overlap
     ethr =  5.13E-04,  avg # of iterations =  1.1

[...]

     total energy              =    -448.16945633 Ry
     Harris-Foulkes estimate   =    -448.18418896 Ry
     estimated scf accuracy    <       0.24334476 Ry

[...]

     total energy              =    -448.10576698 Ry
     Harris-Foulkes estimate   =    -448.10575177 Ry
     estimated scf accuracy    <       0.00000020 Ry

     iteration # 13     ecut=    58.80 Ry     beta=0.10
     Davidson diagonalization with overlap
     ethr =  2.09E-10,  avg # of iterations =  2.0

     negative rho (up, down):  1.279E-01 0.000E+00

     End of self-consistent calculation

          k = 0.0000 0.0000 0.0000 (  4553 PWs)   bands (ev):

   -37.7877 -15.7321 -15.7321 -15.7321   2.3875   2.4872   2.4872   2.4872
     2.7132   2.7133   3.1856   3.1857   3.1857   3.4555   3.4556   3.7229
     3.7974   3.7974   3.7975   3.9676  10.8995  10.8995  12.0145  12.0146
    12.0146  13.4347  13.4347  13.4347  16.6410  16.8277  16.8277  18.4291
    18.4291  18.4292  20.8303  20.8303  20.8303  24.6767  24.9362  24.9362
    25.3146  25.3146  25.3146  26.7984

[...]

          k = 0.0936-0.1123-0.1123 (  4564 PWs)   bands (ev):

[...]

          k =-0.1123-0.1123-0.1123 (  4632 PWs)   bands (ev):

   -37.7863 -15.7456 -15.7456 -15.7456   2.5693   2.6347   2.6347   2.6347
     2.9365   2.9365   2.9365   3.2276   3.2277   3.2277   3.3132   3.3133
     3.7214   3.7214   3.7214   9.3085   9.3085   9.3085   9.9039  10.7365
    10.7365  10.7365  13.8135  13.8135  14.9529  15.9372  15.9372  15.9372
    23.8128  23.8128  23.8129  23.9130  23.9130  23.9130  24.3379  24.4482
    24.4482  28.2056  28.2406  28.2407

     the Fermi energy is    11.7060 ev

!    total energy              =    -448.10583238 Ry
     Harris-Foulkes estimate   =    -448.10576707 Ry
     estimated scf accuracy    <          4.6E-09 Ry

     The total energy is the sum of the following terms:

     one-electron contribution =     -70.94773179 Ry
     hartree contribution      =      77.60244986 Ry
     xc contribution           =    -140.90578418 Ry
     ewald contribution        =    -313.84687871 Ry
     smearing contrib. (-TS)   =      -0.00788755 Ry

     convergence has been achieved in  13 iterations

     Forces acting on atoms (Ry/au):

     negative rho (up, down):  1.279E-01 0.000E+00
     atom    1 type  1   force =     0.00000000    0.00000000    0.00000000
     atom    2 type  1   force =     0.00000000    0.00000000    0.00000000
     atom    3 type  1   force =     0.00000000    0.00000000    0.00000000
     atom    4 type  2   force =     0.00000000    0.00000000   -0.00000000

     Total force =     0.000000     Total SCF correction =     0.000000
 !ASE

     General routines

     Parallel routines

   This run was terminated on:  15: 6:53  25Oct2017

   JOB DONE.