     Program PWSCF v.5.1rc2 (svn rev. ) starts on 31Oct2017 at 14: 8:14

     Current dimensions of program PWSCF are:
     Max number of different atomic species (ntypx) = 10
     Max number of k-points (npk) =  40000
     Max angular momentum in pseudopotentials (lmaxx) =  3

     IMPORTANT: XC functional enforced from input :
     Exchange-correlation      = BEEF-VDW ( 1  4 27 13 2)
     Any further DFT definition will be discarded
     Please, verify this is what you really want

     Subspace diagonalization in iterative solution of the eigenvalue problem:
     a serial algorithm will be used

     bravais-lattice index     =            0
     lattice parameter (alat)  =       1.8897  a.u.
     unit-cell volume          =     443.8961 (a.u.)^3
     number of atoms/cell      =            4
     number of atomic types    =            2
     number of electrons       =        74.00
     number of Kohn-Sham states=           57
     kinetic-energy cutoff     =      58.7989  Ry
     charge density cutoff     =     587.9892  Ry
     convergence threshold     =      7.3E-09
     mixing beta               =       0.1000
     number of iterations used =           10  local-TF  mixing
     Exchange-correlation      = BEEF-VDW ( 1  4 27 13 2)
     nstep                     =           50

     celldm(1)=   1.889726  celldm(2)=   0.000000  celldm(3)=   0.000000
     celldm(4)=   0.000000  celldm(5)=   0.000000  celldm(6)=   0.000000

     crystal axes: (cart. coord. in units of alat)
               a(1) = (   4.036716   0.000000   0.000000 )
               a(2) = (   0.000000   4.036716   0.000000 )
               a(3) = (   0.000000   0.000000   4.036716 )

     reciprocal axes: (cart. coord. in units 2 pi/alat)
               b(1) = (  0.247726  0.000000  0.000000 )
               b(2) = (  0.000000  0.247726  0.000000 )
               b(3) = (  0.000000  0.000000  0.247726 )

     PseudoPot. # 1 for Ag read from file:
     /home/vossj/suncat/psp/gbrv1.5pbe/Ag.UPF
     MD5 check sum: d66d668201baa78d5eb5b04ef7011058
     Pseudo is Ultrasoft + core correction, Zval = 19.0
     Generated by new atomic code, or converted to UPF format
     Using radial grid of  887 points,  6 beta functions with:
                l(1) =   0
                l(2) =   0
                l(3) =   1
                l(4) =   1
                l(5) =   2
                l(6) =   2
     Q(r) pseudized with  6 coefficients,  rinner =    1.300   1.300   1.300
                                                       1.300   1.300

     PseudoPot. # 2 for Co read from file:
     /home/vossj/suncat/psp/gbrv1.5pbe/Co.UPF
     MD5 check sum: 5f91765df6ddd3222702df6e7b74a16d
     Pseudo is Ultrasoft + core correction, Zval = 17.0
     Generated by new atomic code, or converted to UPF format
     Using radial grid of  863 points,  6 beta functions with:
                l(1) =   0
                l(2) =   0
                l(3) =   1
                l(4) =   1
                l(5) =   2
                l(6) =   2
     Q(r) pseudized with  8 coefficients,  rinner =    1.200   1.200   1.200
                                                       1.200   1.200

     vdW kernel table read from file vdW_kernel_table
     MD5 check sum: 095c7af220d748ca6e76c0b4c6cfb241

     atomic species   valence    mass     pseudopotential
        Ag1           19.00   107.86820     Ag( 1.00)
        Co1           17.00    58.93319     Co( 1.00)

     48 Sym. Ops., with inversion, found (32 have fractional translation)

   Cartesian axes

     site n.     atom                  positions (alat units)
         1           Ag1 tau(   1) = (   0.0000000   0.0000000   0.0000000  )
         2           Ag1 tau(   2) = (   0.0000000   2.0183581   2.0183581  )
         3           Ag1 tau(   3) = (   2.0183581   0.0000000   2.0183581  )
         4           Co1 tau(   4) = (   2.0183581   2.0183581   0.0000000  )

     number of k points=    84  Fermi-Dirac smearing, width (Ry)=  0.0073
                       cart. coord. in units 2pi/alat
        k(    1) = (   0.0000000   0.0000000   0.0000000), wk =   0.0011574
        k(    2) = (   0.0000000   0.0000000   0.0206438), wk =   0.0069444
        k(    3) = (   0.0000000   0.0000000   0.0412877), wk =   0.0069444
        k(    4) = (   0.0000000   0.0000000   0.0619315), wk =   0.0069444
        k(    5) = (   0.0000000   0.0000000   0.0825754), wk =   0.0069444
        k(    6) = (   0.0000000   0.0000000   0.1032192), wk =   0.0069444
        k(    7) = (   0.0000000   0.0000000  -0.1238631), wk =   0.0034722
        k(    8) = (   0.0000000   0.0206438   0.0206438), wk =   0.0138889
        k(    9) = (   0.0000000   0.0206438   0.0412877), wk =   0.0277778
        k(   10) = (   0.0000000   0.0206438   0.0619315), wk =   0.0277778
        k(   11) = (   0.0000000   0.0206438   0.0825754), wk =   0.0277778
        k(   12) = (   0.0000000   0.0206438   0.1032192), wk =   0.0277778
        k(   13) = (   0.0000000   0.0206438  -0.1238631), wk =   0.0138889
        k(   14) = (   0.0000000   0.0412877   0.0412877), wk =   0.0138889
        k(   15) = (   0.0000000   0.0412877   0.0619315), wk =   0.0277778
        k(   16) = (   0.0000000   0.0412877   0.0825754), wk =   0.0277778
        k(   17) = (   0.0000000   0.0412877   0.1032192), wk =   0.0277778
        k(   18) = (   0.0000000   0.0412877  -0.1238631), wk =   0.0138889
        k(   19) = (   0.0000000   0.0619315   0.0619315), wk =   0.0138889
        k(   20) = (   0.0000000   0.0619315   0.0825754), wk =   0.0277778
        k(   21) = (   0.0000000   0.0619315   0.1032192), wk =   0.0277778
        k(   22) = (   0.0000000   0.0619315  -0.1238631), wk =   0.0138889
        k(   23) = (   0.0000000   0.0825754   0.0825754), wk =   0.0138889
        k(   24) = (   0.0000000   0.0825754   0.1032192), wk =   0.0277778
        k(   25) = (   0.0000000   0.0825754  -0.1238631), wk =   0.0138889
        k(   26) = (   0.0000000   0.1032192   0.1032192), wk =   0.0138889
        k(   27) = (   0.0000000   0.1032192  -0.1238631), wk =   0.0138889
        k(   28) = (   0.0000000  -0.1238631  -0.1238631), wk =   0.0034722
        k(   29) = (   0.0206438   0.0206438   0.0206438), wk =   0.0092593
        k(   30) = (   0.0206438   0.0206438   0.0412877), wk =   0.0277778
        k(   31) = (   0.0206438   0.0206438   0.0619315), wk =   0.0277778
        k(   32) = (   0.0206438   0.0206438   0.0825754), wk =   0.0277778
        k(   33) = (   0.0206438   0.0206438   0.1032192), wk =   0.0277778
        k(   34) = (   0.0206438   0.0206438  -0.1238631), wk =   0.0138889
        k(   35) = (   0.0206438   0.0412877   0.0412877), wk =   0.0277778
        k(   36) = (   0.0206438   0.0412877   0.0619315), wk =   0.0555556
        k(   37) = (   0.0206438   0.0412877   0.0825754), wk =   0.0555556
        k(   38) = (   0.0206438   0.0412877   0.1032192), wk =   0.0555556
        k(   39) = (   0.0206438   0.0412877  -0.1238631), wk =   0.0277778
        k(   40) = (   0.0206438   0.0619315   0.0619315), wk =   0.0277778
        k(   41) = (   0.0206438   0.0619315   0.0825754), wk =   0.0555556
        k(   42) = (   0.0206438   0.0619315   0.1032192), wk =   0.0555556
        k(   43) = (   0.0206438   0.0619315  -0.1238631), wk =   0.0277778
        k(   44) = (   0.0206438   0.0825754   0.0825754), wk =   0.0277778
        k(   45) = (   0.0206438   0.0825754   0.1032192), wk =   0.0555556
        k(   46) = (   0.0206438   0.0825754  -0.1238631), wk =   0.0277778
        k(   47) = (   0.0206438   0.1032192   0.1032192), wk =   0.0277778
        k(   48) = (   0.0206438   0.1032192  -0.1238631), wk =   0.0277778
        k(   49) = (   0.0206438  -0.1238631  -0.1238631), wk =   0.0069444
        k(   50) = (   0.0412877   0.0412877   0.0412877), wk =   0.0092593
        k(   51) = (   0.0412877   0.0412877   0.0619315), wk =   0.0277778
        k(   52) = (   0.0412877   0.0412877   0.0825754), wk =   0.0277778
        k(   53) = (   0.0412877   0.0412877   0.1032192), wk =   0.0277778
        k(   54) = (   0.0412877   0.0412877  -0.1238631), wk =   0.0138889
        k(   55) = (   0.0412877   0.0619315   0.0619315), wk =   0.0277778
        k(   56) = (   0.0412877   0.0619315   0.0825754), wk =   0.0555556
        k(   57) = (   0.0412877   0.0619315   0.1032192), wk =   0.0555556
        k(   58) = (   0.0412877   0.0619315  -0.1238631), wk =   0.0277778
        k(   59) = (   0.0412877   0.0825754   0.0825754), wk =   0.0277778
        k(   60) = (   0.0412877   0.0825754   0.1032192), wk =   0.0555556
[...]
        k(   70) = (   0.0619315   0.0825754   0.1032192), wk =   0.0555556
        k(   71) = (   0.0619315   0.0825754  -0.1238631), wk =   0.0277778
        k(   72) = (   0.0619315   0.1032192   0.1032192), wk =   0.0277778
        k(   73) = (   0.0619315   0.1032192  -0.1238631), wk =   0.0277778
        k(   74) = (   0.0619315  -0.1238631  -0.1238631), wk =   0.0069444
        k(   75) = (   0.0825754   0.0825754   0.0825754), wk =   0.0092593
        k(   76) = (   0.0825754   0.0825754   0.1032192), wk =   0.0277778
        k(   77) = (   0.0825754   0.0825754  -0.1238631), wk =   0.0138889
        k(   78) = (   0.0825754   0.1032192   0.1032192), wk =   0.0277778
        k(   79) = (   0.0825754   0.1032192  -0.1238631), wk =   0.0277778
        k(   80) = (   0.0825754  -0.1238631  -0.1238631), wk =   0.0069444
        k(   81) = (   0.1032192   0.1032192   0.1032192), wk =   0.0092593
        k(   82) = (   0.1032192   0.1032192  -0.1238631), wk =   0.0138889
        k(   83) = (   0.1032192  -0.1238631  -0.1238631), wk =   0.0069444
        k(   84) = (  -0.1238631  -0.1238631  -0.1238631), wk =   0.0011574

     Largest allocated arrays     est. size (Mb)     dimensions
     Largest temporary arrays     est. size (Mb)     dimensions

     Check: negative/imaginary core charge=   -0.000014    0.000000

     Initial potential from superposition of free atoms

     starting charge   71.49985, renormalised to   74.00000

     *
     * You are using vdW-DF for exchange-correlation in this calculation.
     * Please cite the following three references that made this development
     * possible:
     *
     *   M. Dion, H. Rydberg, E. Schroder, D. C. Langreth, and
     *   B. I. Lundqvist, Phys. Rev. Lett. 92, 246401 (2004).
     *
     *   T. Thonhauser, V. R. Cooper, S. Li, A. Puzder, P. Hyldgaard, and
     *   D. C. Langreth, Phys. Rev. B 76, 125112 (2007).
     *
     *   G. Roman-Perez and J. M. Soler, Phys. Rev. Lett. 103, 096102 (2009).
     *
     *
     * If you are using vdW-DF2, please also cite:
     *
     *   K. Lee, E. D. Murray, L. Kong, B. I. Lundqvist, and
     *   D. C. Langreth, Phys. Rev. B 82, 081101(R) (2010).
     *
     *
     * If you are calculating the stress with vdW-DF, please also cite:
     *
     *   R. Sabatini, E. Kucukbenli, B. Kolb, T. Thonhauser, and
     *   S. de Gironcoli, J. Phys.: Condens. Matter 24, 424209 (2012).
     *

     Carrying out vdW-DF run using the following parameters:

     Nqs =      20    Nr_points =    1024   r_max =   100.000
     q_mesh =
               0.00001000     0.04494208     0.09755937     0.15916263
               0.23128650     0.31572767     0.41458969     0.53033537
               0.66584808     0.82450364     1.01025438     1.22772762
               1.48234092     1.78043706     2.12944203     2.53805004
               3.01644009     3.57652955     4.23227104     5.00000000

     Gradients computed in reciprocal space

     Starting wfc are   52 randomized atomic wfcs +    5 random wfc

     Self-consistent Calculation

     iteration #  1     ecut=    58.80 Ry     beta=0.10
     Davidson diagonalization with overlap
     ethr =  1.00E-02,  avg # of iterations =  4.7

     total energy              =   -1190.70043885 Ry
     Harris-Foulkes estimate   =   -1191.20168066 Ry
     estimated scf accuracy    <       7.65883968 Ry

[...]

     total energy              =   -1189.44648195 Ry
     Harris-Foulkes estimate   =   -1189.44648138 Ry
     estimated scf accuracy    <       0.00000009 Ry

     iteration # 23     ecut=    58.80 Ry     beta=0.10
     Davidson diagonalization with overlap
     ethr =  1.23E-10,  avg # of iterations =  2.2

     End of self-consistent calculation

          k = 0.0000 0.0000 0.0000 (  3407 PWs)   bands (ev):

   -78.0820 -76.1116 -76.0913 -76.0913 -41.4174 -41.4174 -41.4174 -39.6538
   -39.6538 -39.6538 -39.5729 -39.5729 -39.5729 -39.5303 -39.5303 -39.5303
     8.5768   9.5140  10.0802  10.0802  10.0802  10.2921  10.2921  11.8193
    11.8193  11.8193  12.5430  12.5430  13.0684  13.2981  13.2981  13.2981
    15.6456  15.6456  15.9508  15.9508  15.9508  18.0108  18.0108  18.0108
    23.1197  23.1392  23.1392  26.9852  26.9852  26.9852  27.7172  27.7172
    27.7172  33.1677  33.1677  33.1677  33.4594  33.5414  33.8741  33.8741
    36.7845

[...]

          k = 0.1032-0.1239-0.1239 (  3380 PWs)   bands (ev):

[...]

          k =-0.1239-0.1239-0.1239 (  3328 PWs)   bands (ev):

   -78.0819 -76.0980 -76.0980 -76.0980 -41.4180 -41.4180 -41.4180 -39.7000
   -39.6325 -39.6325 -39.6325 -39.5437 -39.5437 -39.5300 -39.5300 -39.5300
     9.7260  10.0632  10.0632  10.0632  11.1835  11.1835  11.1835  11.8362
    11.8362  11.8362  12.1510  12.1510  13.0905  13.0905  13.0905  15.4651
    15.4651  15.4651  15.8332  15.8332  15.9066  15.9694  15.9694  15.9694
    20.0293  20.0977  20.0977  20.0977  32.3549  32.5747  32.5747  32.5747
    34.0203  34.0203  34.0203  34.9060  34.9060  35.5092  35.5092  35.5092
    37.8041

     the Fermi energy is    15.8452 ev

!    total energy              =   -1189.44648445 Ry
     Harris-Foulkes estimate   =   -1189.44648197 Ry
     estimated scf accuracy    <          2.7E-09 Ry

     The total energy is the sum of the following terms:

     one-electron contribution =    -561.04541857 Ry
     hartree contribution      =     319.43305179 Ry
     xc contribution           =    -124.11570006 Ry
     ewald contribution        =    -823.70255599 Ry
     smearing contrib. (-TS)   =      -0.01586162 Ry

     convergence has been achieved in  23 iterations

     Forces acting on atoms (Ry/au):

     atom    1 type  1   force =     0.00000000    0.00000000    0.00000000
     atom    2 type  1   force =     0.00000000    0.00000000    0.00000000
     atom    3 type  1   force =     0.00000000    0.00000000    0.00000000
     atom    4 type  2   force =     0.00000000    0.00000000    0.00000000

     Total force =     0.000000     Total SCF correction =     0.000000
 !ASE

     General routines

     Parallel routines

   This run was terminated on:  14: 9:59  31Oct2017

   JOB DONE.