     Program PWSCF v.5.1rc2 (svn rev. ) starts on 17Feb2018 at 12:44: 4

     Current dimensions of program PWSCF are:
     Max number of different atomic species (ntypx) = 10
     Max number of k-points (npk) =  40000
     Max angular momentum in pseudopotentials (lmaxx) =  3

     IMPORTANT: XC functional enforced from input :
     Exchange-correlation      = BEEF-VDW ( 1  4 27 13 2)
     Any further DFT definition will be discarded
     Please, verify this is what you really want

     Subspace diagonalization in iterative solution of the eigenvalue problem:
     a serial algorithm will be used

     bravais-lattice index     =            0
     lattice parameter (alat)  =       1.8897  a.u.
     unit-cell volume          =     583.9310 (a.u.)^3
     number of atoms/cell      =            4
     number of atomic types    =            2
     number of electrons       =        48.00
     number of Kohn-Sham states=           44
     kinetic-energy cutoff     =      58.7989  Ry
     charge density cutoff     =     587.9892  Ry
     convergence threshold     =      7.3E-09
     mixing beta               =       0.1000
     number of iterations used =           10  local-TF  mixing
     Exchange-correlation      = BEEF-VDW ( 1  4 27 13 2)
     nstep                     =           50

     celldm(1)=   1.889726  celldm(2)=   0.000000  celldm(3)=   0.000000
     celldm(4)=   0.000000  celldm(5)=   0.000000  celldm(6)=   0.000000

     crystal axes: (cart. coord. in units of alat)
               a(1) = (   4.423048   0.000000   0.000000 )
               a(2) = (   0.000000   4.423048   0.000000 )
               a(3) = (   0.000000   0.000000   4.423048 )

     reciprocal axes: (cart. coord. in units 2 pi/alat)
               b(1) = (  0.226088  0.000000  0.000000 )
               b(2) = (  0.000000  0.226088  0.000000 )
               b(3) = (  0.000000  0.000000  0.226088 )

     PseudoPot. # 1 for Au read from file:
     /home/mamunm/src/pseudo/gbrv1.5pbe/Au.UPF
     MD5 check sum: 9d7f43293ad2c663164586bc4b293ffc
     Pseudo is Ultrasoft + core correction, Zval = 11.0
     Generated by new atomic code, or converted to UPF format
     Using radial grid of  985 points,  7 beta functions with:
                l(1) =   0
                l(2) =   0
                l(3) =   1
                l(4) =   1
                l(5) =   2
                l(6) =   2
                l(7) =   3
     Q(r) pseudized with  6 coefficients,  rinner =    1.900   1.900   1.900
                                                       1.900   1.900   1.900
                                                       1.900

     PseudoPot. # 2 for Bi read from file:
     /home/mamunm/src/pseudo/gbrv1.5pbe/Bi.UPF
     MD5 check sum: 81103212dc04adf40945787f699eab19
     Pseudo is Ultrasoft + core correction, Zval = 15.0
     Generated by new atomic code, or converted to UPF format
     Using radial grid of  899 points,  6 beta functions with:
                l(1) =   0
                l(2) =   0
                l(3) =   1
                l(4) =   1
                l(5) =   2
                l(6) =   2
     Q(r) pseudized with  6 coefficients,  rinner =    1.000   1.000   1.000
                                                       1.000   1.000

     vdW kernel table read from file vdW_kernel_table
     MD5 check sum: 095c7af220d748ca6e76c0b4c6cfb241

     atomic species   valence    mass     pseudopotential
        Au1           11.00   196.96657     Au( 1.00)
        Bi1           15.00   208.98040     Bi( 1.00)

     48 Sym. Ops., with inversion, found (32 have fractional translation)

   Cartesian axes

     site n.     atom                  positions (alat units)
         1           Au1 tau(   1) = (   0.0000000   0.0000000   0.0000000  )
         2           Au1 tau(   2) = (   0.0000000   2.2115240   2.2115240  )
         3           Au1 tau(   3) = (   2.2115240   0.0000000   2.2115240  )
         4           Bi1 tau(   4) = (   2.2115240   2.2115240   0.0000000  )

     number of k points=    84  Fermi-Dirac smearing, width (Ry)=  0.0073
                       cart. coord. in units 2pi/alat
        k(    1) = (   0.0000000   0.0000000   0.0000000), wk =   0.0011574
        k(    2) = (   0.0000000   0.0000000   0.0188407), wk =   0.0069444
        k(    3) = (   0.0000000   0.0000000   0.0376814), wk =   0.0069444
        k(    4) = (   0.0000000   0.0000000   0.0565221), wk =   0.0069444
        k(    5) = (   0.0000000   0.0000000   0.0753628), wk =   0.0069444
        k(    6) = (   0.0000000   0.0000000   0.0942035), wk =   0.0069444
        k(    7) = (   0.0000000   0.0000000  -0.1130442), wk =   0.0034722
        k(    8) = (   0.0000000   0.0188407   0.0188407), wk =   0.0138889
        k(    9) = (   0.0000000   0.0188407   0.0376814), wk =   0.0277778
        k(   10) = (   0.0000000   0.0188407   0.0565221), wk =   0.0277778
        k(   11) = (   0.0000000   0.0188407   0.0753628), wk =   0.0277778
        k(   12) = (   0.0000000   0.0188407   0.0942035), wk =   0.0277778
        k(   13) = (   0.0000000   0.0188407  -0.1130442), wk =   0.0138889
        k(   14) = (   0.0000000   0.0376814   0.0376814), wk =   0.0138889
        k(   15) = (   0.0000000   0.0376814   0.0565221), wk =   0.0277778
        k(   16) = (   0.0000000   0.0376814   0.0753628), wk =   0.0277778
        k(   17) = (   0.0000000   0.0376814   0.0942035), wk =   0.0277778
        k(   18) = (   0.0000000   0.0376814  -0.1130442), wk =   0.0138889
        k(   19) = (   0.0000000   0.0565221   0.0565221), wk =   0.0138889
        k(   20) = (   0.0000000   0.0565221   0.0753628), wk =   0.0277778
        k(   21) = (   0.0000000   0.0565221   0.0942035), wk =   0.0277778
        k(   22) = (   0.0000000   0.0565221  -0.1130442), wk =   0.0138889
        k(   23) = (   0.0000000   0.0753628   0.0753628), wk =   0.0138889
        k(   24) = (   0.0000000   0.0753628   0.0942035), wk =   0.0277778
        k(   25) = (   0.0000000   0.0753628  -0.1130442), wk =   0.0138889
        k(   26) = (   0.0000000   0.0942035   0.0942035), wk =   0.0138889
        k(   27) = (   0.0000000   0.0942035  -0.1130442), wk =   0.0138889
        k(   28) = (   0.0000000  -0.1130442  -0.1130442), wk =   0.0034722
        k(   29) = (   0.0188407   0.0188407   0.0188407), wk =   0.0092593
        k(   30) = (   0.0188407   0.0188407   0.0376814), wk =   0.0277778
        k(   31) = (   0.0188407   0.0188407   0.0565221), wk =   0.0277778
        k(   32) = (   0.0188407   0.0188407   0.0753628), wk =   0.0277778
        k(   33) = (   0.0188407   0.0188407   0.0942035), wk =   0.0277778
        k(   34) = (   0.0188407   0.0188407  -0.1130442), wk =   0.0138889
        k(   35) = (   0.0188407   0.0376814   0.0376814), wk =   0.0277778
        k(   36) = (   0.0188407   0.0376814   0.0565221), wk =   0.0555556
        k(   37) = (   0.0188407   0.0376814   0.0753628), wk =   0.0555556
        k(   38) = (   0.0188407   0.0376814   0.0942035), wk =   0.0555556
        k(   39) = (   0.0188407   0.0376814  -0.1130442), wk =   0.0277778
        k(   40) = (   0.0188407   0.0565221   0.0565221), wk =   0.0277778
        k(   41) = (   0.0188407   0.0565221   0.0753628), wk =   0.0555556
        k(   42) = (   0.0188407   0.0565221   0.0942035), wk =   0.0555556
        k(   43) = (   0.0188407   0.0565221  -0.1130442), wk =   0.0277778
        k(   44) = (   0.0188407   0.0753628   0.0753628), wk =   0.0277778
        k(   45) = (   0.0188407   0.0753628   0.0942035), wk =   0.0555556
        k(   46) = (   0.0188407   0.0753628  -0.1130442), wk =   0.0277778
        k(   47) = (   0.0188407   0.0942035   0.0942035), wk =   0.0277778
        k(   48) = (   0.0188407   0.0942035  -0.1130442), wk =   0.0277778
        k(   49) = (   0.0188407  -0.1130442  -0.1130442), wk =   0.0069444
        k(   50) = (   0.0376814   0.0376814   0.0376814), wk =   0.0092593
        k(   51) = (   0.0376814   0.0376814   0.0565221), wk =   0.0277778
        k(   52) = (   0.0376814   0.0376814   0.0753628), wk =   0.0277778
        k(   53) = (   0.0376814   0.0376814   0.0942035), wk =   0.0277778
        k(   54) = (   0.0376814   0.0376814  -0.1130442), wk =   0.0138889
        k(   55) = (   0.0376814   0.0565221   0.0565221), wk =   0.0277778
        k(   56) = (   0.0376814   0.0565221   0.0753628), wk =   0.0555556
        k(   57) = (   0.0376814   0.0565221   0.0942035), wk =   0.0555556
        k(   58) = (   0.0376814   0.0565221  -0.1130442), wk =   0.0277778
        k(   59) = (   0.0376814   0.0753628   0.0753628), wk =   0.0277778
        k(   60) = (   0.0376814   0.0753628   0.0942035), wk =   0.0555556
[...]
        k(   70) = (   0.0565221   0.0753628   0.0942035), wk =   0.0555556
        k(   71) = (   0.0565221   0.0753628  -0.1130442), wk =   0.0277778
        k(   72) = (   0.0565221   0.0942035   0.0942035), wk =   0.0277778
        k(   73) = (   0.0565221   0.0942035  -0.1130442), wk =   0.0277778
        k(   74) = (   0.0565221  -0.1130442  -0.1130442), wk =   0.0069444
        k(   75) = (   0.0753628   0.0753628   0.0753628), wk =   0.0092593
        k(   76) = (   0.0753628   0.0753628   0.0942035), wk =   0.0277778
        k(   77) = (   0.0753628   0.0753628  -0.1130442), wk =   0.0138889
        k(   78) = (   0.0753628   0.0942035   0.0942035), wk =   0.0277778
        k(   79) = (   0.0753628   0.0942035  -0.1130442), wk =   0.0277778
        k(   80) = (   0.0753628  -0.1130442  -0.1130442), wk =   0.0069444
        k(   81) = (   0.0942035   0.0942035   0.0942035), wk =   0.0092593
        k(   82) = (   0.0942035   0.0942035  -0.1130442), wk =   0.0138889
        k(   83) = (   0.0942035  -0.1130442  -0.1130442), wk =   0.0069444
        k(   84) = (  -0.1130442  -0.1130442  -0.1130442), wk =   0.0011574

     Largest allocated arrays     est. size (Mb)     dimensions
     Largest temporary arrays     est. size (Mb)     dimensions

     Initial potential from superposition of free atoms
     Check: negative starting charge=   -0.041798

     starting charge   46.99959, renormalised to   48.00000

     negative rho (up, down):  4.269E-02 0.000E+00

     *
     * You are using vdW-DF for exchange-correlation in this calculation.
     * Please cite the following three references that made this development
     * possible:
     *
     *   M. Dion, H. Rydberg, E. Schroder, D. C. Langreth, and
     *   B. I. Lundqvist, Phys. Rev. Lett. 92, 246401 (2004).
     *
     *   T. Thonhauser, V. R. Cooper, S. Li, A. Puzder, P. Hyldgaard, and
     *   D. C. Langreth, Phys. Rev. B 76, 125112 (2007).
     *
     *   G. Roman-Perez and J. M. Soler, Phys. Rev. Lett. 103, 096102 (2009).
     *
     *
     * If you are using vdW-DF2, please also cite:
     *
     *   K. Lee, E. D. Murray, L. Kong, B. I. Lundqvist, and
     *   D. C. Langreth, Phys. Rev. B 82, 081101(R) (2010).
     *
     *
     * If you are calculating the stress with vdW-DF, please also cite:
     *
     *   R. Sabatini, E. Kucukbenli, B. Kolb, T. Thonhauser, and
     *   S. de Gironcoli, J. Phys.: Condens. Matter 24, 424209 (2012).
     *

     Carrying out vdW-DF run using the following parameters:

     Nqs =      20    Nr_points =    1024   r_max =   100.000
     q_mesh =
               0.00001000     0.04494208     0.09755937     0.15916263
               0.23128650     0.31572767     0.41458969     0.53033537
               0.66584808     0.82450364     1.01025438     1.22772762
               1.48234092     1.78043706     2.12944203     2.53805004
               3.01644009     3.57652955     4.23227104     5.00000000

     Gradients computed in reciprocal space

     Starting wfc are   36 randomized atomic wfcs +    8 random wfc

     Self-consistent Calculation

     iteration #  1     ecut=    58.80 Ry     beta=0.10
     Davidson diagonalization with overlap
     ethr =  1.00E-02,  avg # of iterations =  5.3

[...]

     total energy              =    -537.44242083 Ry
     Harris-Foulkes estimate   =    -537.48077489 Ry
     estimated scf accuracy    <       0.56307799 Ry

[...]

     total energy              =    -537.32762152 Ry
     Harris-Foulkes estimate   =    -537.32761436 Ry
     estimated scf accuracy    <       0.00000002 Ry

     iteration # 13     ecut=    58.80 Ry     beta=0.10
     Davidson diagonalization with overlap
     ethr =  4.74E-11,  avg # of iterations =  1.0

     negative rho (up, down):  4.342E-02 0.000E+00

     End of self-consistent calculation

          k = 0.0000 0.0000 0.0000 (  4457 PWs)   bands (ev):

   -10.5352 -10.5352 -10.5270 -10.5270 -10.5270   0.7561   6.8964   7.7649
     7.7649   7.7893   7.7893   7.7893   9.2719   9.2719   9.2719   9.9885
     9.9885  10.3443  10.5111  10.6994  10.6994  10.6994  11.3138  11.3138
    11.3138  15.6140  15.6140  18.8271  18.8271  18.8271  20.9215  20.9215
    20.9215  24.9144  24.9144  25.6338  25.8494  26.1712  26.1712  26.1712
    28.1385  28.1385  28.1385  33.1742

[...]

          k = 0.0942-0.1130-0.1130 (  4464 PWs)   bands (ev):

[...]

          k =-0.1130-0.1130-0.1130 (  4416 PWs)   bands (ev):

   -10.5331 -10.5331 -10.5331 -10.5152 -10.5152   1.8007   7.4442   7.4442
     7.4442   8.6237   8.6237   8.6237   9.3635   9.3635   9.3635   9.5169
     9.5169   9.6822   9.6822   9.6822   9.6958  10.4483  10.4483  10.4483
    12.6424  13.5236  13.5236  13.5236  22.7265  22.7265  22.7265  25.3926
    25.3926  25.3926  25.8606  26.3462  26.3462  26.3462  27.6751  27.6751
    28.4024  28.4024  30.1997  30.5208

     the Fermi energy is    12.9950 ev

!    total energy              =    -537.32765206 Ry
     Harris-Foulkes estimate   =    -537.32762152 Ry
     estimated scf accuracy    <          1.3E-09 Ry

     The total energy is the sum of the following terms:

     one-electron contribution =     -19.01146082 Ry
     hartree contribution      =      59.60928350 Ry
     xc contribution           =    -258.72761354 Ry
     ewald contribution        =    -319.19434739 Ry
     smearing contrib. (-TS)   =      -0.00351381 Ry

     convergence has been achieved in  13 iterations

     Forces acting on atoms (Ry/au):

     negative rho (up, down):  4.342E-02 0.000E+00
     atom    1 type  1   force =     0.00000000   -0.00000000    0.00000000
     atom    2 type  1   force =     0.00000000    0.00000000    0.00000000
     atom    3 type  1   force =     0.00000000    0.00000000    0.00000000
     atom    4 type  2   force =     0.00000000    0.00000000    0.00000000

     Total force =     0.000000     Total SCF correction =     0.000000
 !ASE

     General routines

     Parallel routines

   This run was terminated on:  12:45:19  17Feb2018

   JOB DONE.