     Program PWSCF v.5.1rc2 (svn rev. ) starts on  8Nov2017 at 13:31:18

     Current dimensions of program PWSCF are:
     Max number of different atomic species (ntypx) = 10
     Max number of k-points (npk) =  40000
     Max angular momentum in pseudopotentials (lmaxx) =  3

     IMPORTANT: XC functional enforced from input :
     Exchange-correlation      = BEEF-VDW ( 1  4 27 13 2)
     Any further DFT definition will be discarded
     Please, verify this is what you really want

     Subspace diagonalization in iterative solution of the eigenvalue problem:
     a serial algorithm will be used

     bravais-lattice index     =            0
     lattice parameter (alat)  =       1.8897  a.u.
     unit-cell volume          =     968.0451 (a.u.)^3
     number of atoms/cell      =            4
     number of atomic types    =            2
     number of electrons       =        56.00
     number of Kohn-Sham states=           48
     kinetic-energy cutoff     =      58.7989  Ry
     charge density cutoff     =     587.9892  Ry
     convergence threshold     =      7.3E-07
     mixing beta               =       0.3000
     number of iterations used =           10  local-TF  mixing
     Exchange-correlation      = BEEF-VDW ( 1  4 27 13 2)
     nstep                     =           50

     celldm(1)=   1.889726  celldm(2)=   0.000000  celldm(3)=   0.000000
     celldm(4)=   0.000000  celldm(5)=   0.000000  celldm(6)=   0.000000

     crystal axes: (cart. coord. in units of alat)
               a(1) = (   5.234795   0.000000   0.000000 )
               a(2) = (   0.000000   5.234795   0.000000 )
               a(3) = (   0.000000   0.000000   5.234795 )

     reciprocal axes: (cart. coord. in units 2 pi/alat)
               b(1) = (  0.191029  0.000000  0.000000 )
               b(2) = (  0.000000  0.191029  0.000000 )
               b(3) = (  0.000000  0.000000  0.191029 )

     PseudoPot. # 1 for Hg read from file:
     /home/vossj/suncat/psp/gbrv1.5pbe/Hg.UPF
     MD5 check sum: 8f42caffe07f7fd9c0a564347f8c5498
     Pseudo is Ultrasoft + core correction, Zval = 12.0
     Generated by new atomic code, or converted to UPF format
     Using radial grid of  985 points,  6 beta functions with:
                l(1) =   0
                l(2) =   0
                l(3) =   1
                l(4) =   1
                l(5) =   2
                l(6) =   2
     Q(r) pseudized with  8 coefficients,  rinner =    2.000   2.000   2.000
                                                       2.000   2.000

     PseudoPot. # 2 for Zn read from file:
     /home/vossj/suncat/psp/gbrv1.5pbe/Zn.UPF
     MD5 check sum: df62231357ef9e81f77b2b3087fa5675
     Pseudo is Ultrasoft, Zval = 20.0
     Generated by new atomic code, or converted to UPF format
     Using radial grid of  943 points,  6 beta functions with:
                l(1) =   0
                l(2) =   0
                l(3) =   1
                l(4) =   1
                l(5) =   2
                l(6) =   2
     Q(r) pseudized with  8 coefficients,  rinner =    1.100   1.100   1.100
                                                       1.100   1.100

     vdW kernel table read from file vdW_kernel_table
     MD5 check sum: 095c7af220d748ca6e76c0b4c6cfb241

     atomic species   valence    mass     pseudopotential
        Hg1           12.00   200.59200     Hg( 1.00)
        Zn1           20.00    65.38000     Zn( 1.00)

     48 Sym. Ops., with inversion, found (32 have fractional translation)

   Cartesian axes

     site n.     atom                  positions (alat units)
         1           Hg1 tau(   1) = (   0.0000000   0.0000000   0.0000000  )
         2           Hg1 tau(   2) = (   0.0000000   2.6173974   2.6173974  )
         3           Hg1 tau(   3) = (   2.6173974   0.0000000   2.6173974  )
         4           Zn1 tau(   4) = (   2.6173974   2.6173974   0.0000000  )

     number of k points=    56  Fermi-Dirac smearing, width (Ry)=  0.0073
                       cart. coord. in units 2pi/alat
        k(    1) = (   0.0000000   0.0000000   0.0000000), wk =   0.0015026
        k(    2) = (   0.0000000   0.0000000   0.0173663), wk =   0.0090158
        k(    3) = (   0.0000000   0.0000000   0.0347326), wk =   0.0090158
        k(    4) = (   0.0000000   0.0000000   0.0520989), wk =   0.0090158
        k(    5) = (   0.0000000   0.0000000   0.0694653), wk =   0.0090158
        k(    6) = (   0.0000000   0.0000000   0.0868316), wk =   0.0090158
        k(    7) = (   0.0000000   0.0173663   0.0173663), wk =   0.0180316
        k(    8) = (   0.0000000   0.0173663   0.0347326), wk =   0.0360631
        k(    9) = (   0.0000000   0.0173663   0.0520989), wk =   0.0360631
        k(   10) = (   0.0000000   0.0173663   0.0694653), wk =   0.0360631
        k(   11) = (   0.0000000   0.0173663   0.0868316), wk =   0.0360631
        k(   12) = (   0.0000000   0.0347326   0.0347326), wk =   0.0180316
        k(   13) = (   0.0000000   0.0347326   0.0520989), wk =   0.0360631
        k(   14) = (   0.0000000   0.0347326   0.0694653), wk =   0.0360631
        k(   15) = (   0.0000000   0.0347326   0.0868316), wk =   0.0360631
        k(   16) = (   0.0000000   0.0520989   0.0520989), wk =   0.0180316
        k(   17) = (   0.0000000   0.0520989   0.0694653), wk =   0.0360631
        k(   18) = (   0.0000000   0.0520989   0.0868316), wk =   0.0360631
        k(   19) = (   0.0000000   0.0694653   0.0694653), wk =   0.0180316
        k(   20) = (   0.0000000   0.0694653   0.0868316), wk =   0.0360631
        k(   21) = (   0.0000000   0.0868316   0.0868316), wk =   0.0180316
        k(   22) = (   0.0173663   0.0173663   0.0173663), wk =   0.0120210
        k(   23) = (   0.0173663   0.0173663   0.0347326), wk =   0.0360631
        k(   24) = (   0.0173663   0.0173663   0.0520989), wk =   0.0360631
        k(   25) = (   0.0173663   0.0173663   0.0694653), wk =   0.0360631
        k(   26) = (   0.0173663   0.0173663   0.0868316), wk =   0.0360631
        k(   27) = (   0.0173663   0.0347326   0.0347326), wk =   0.0360631
        k(   28) = (   0.0173663   0.0347326   0.0520989), wk =   0.0721262
        k(   29) = (   0.0173663   0.0347326   0.0694653), wk =   0.0721262
        k(   30) = (   0.0173663   0.0347326   0.0868316), wk =   0.0721262
        k(   31) = (   0.0173663   0.0520989   0.0520989), wk =   0.0360631
        k(   32) = (   0.0173663   0.0520989   0.0694653), wk =   0.0721262
        k(   33) = (   0.0173663   0.0520989   0.0868316), wk =   0.0721262
        k(   34) = (   0.0173663   0.0694653   0.0694653), wk =   0.0360631
        k(   35) = (   0.0173663   0.0694653   0.0868316), wk =   0.0721262
        k(   36) = (   0.0173663   0.0868316   0.0868316), wk =   0.0360631
        k(   37) = (   0.0347326   0.0347326   0.0347326), wk =   0.0120210
        k(   38) = (   0.0347326   0.0347326   0.0520989), wk =   0.0360631
        k(   39) = (   0.0347326   0.0347326   0.0694653), wk =   0.0360631
        k(   40) = (   0.0347326   0.0347326   0.0868316), wk =   0.0360631
        k(   41) = (   0.0347326   0.0520989   0.0520989), wk =   0.0360631
        k(   42) = (   0.0347326   0.0520989   0.0694653), wk =   0.0721262
        k(   43) = (   0.0347326   0.0520989   0.0868316), wk =   0.0721262
        k(   44) = (   0.0347326   0.0694653   0.0694653), wk =   0.0360631
        k(   45) = (   0.0347326   0.0694653   0.0868316), wk =   0.0721262
        k(   46) = (   0.0347326   0.0868316   0.0868316), wk =   0.0360631
        k(   47) = (   0.0520989   0.0520989   0.0520989), wk =   0.0120210
        k(   48) = (   0.0520989   0.0520989   0.0694653), wk =   0.0360631
        k(   49) = (   0.0520989   0.0520989   0.0868316), wk =   0.0360631
        k(   50) = (   0.0520989   0.0694653   0.0694653), wk =   0.0360631
        k(   51) = (   0.0520989   0.0694653   0.0868316), wk =   0.0721262
        k(   52) = (   0.0520989   0.0868316   0.0868316), wk =   0.0360631
        k(   53) = (   0.0694653   0.0694653   0.0694653), wk =   0.0120210
        k(   54) = (   0.0694653   0.0694653   0.0868316), wk =   0.0360631
        k(   55) = (   0.0694653   0.0868316   0.0868316), wk =   0.0360631
        k(   56) = (   0.0868316   0.0868316   0.0868316), wk =   0.0120210

     Largest allocated arrays     est. size (Mb)     dimensions
     Largest temporary arrays     est. size (Mb)     dimensions

     Initial potential from superposition of free atoms

     starting charge   55.99968, renormalised to   56.00000

     *
     * You are using vdW-DF for exchange-correlation in this calculation.
     * Please cite the following three references that made this development
     * possible:
     *
     *   M. Dion, H. Rydberg, E. Schroder, D. C. Langreth, and
     *   B. I. Lundqvist, Phys. Rev. Lett. 92, 246401 (2004).
     *
     *   T. Thonhauser, V. R. Cooper, S. Li, A. Puzder, P. Hyldgaard, and
     *   D. C. Langreth, Phys. Rev. B 76, 125112 (2007).
     *
     *   G. Roman-Perez and J. M. Soler, Phys. Rev. Lett. 103, 096102 (2009).
     *
     *
     * If you are using vdW-DF2, please also cite:
     *
     *   K. Lee, E. D. Murray, L. Kong, B. I. Lundqvist, and
     *   D. C. Langreth, Phys. Rev. B 82, 081101(R) (2010).
     *
     *
     * If you are calculating the stress with vdW-DF, please also cite:
     *
     *   R. Sabatini, E. Kucukbenli, B. Kolb, T. Thonhauser, and
     *   S. de Gironcoli, J. Phys.: Condens. Matter 24, 424209 (2012).
     *

     Carrying out vdW-DF run using the following parameters:

     Nqs =      20    Nr_points =    1024   r_max =   100.000
     q_mesh =
               0.00001000     0.04494208     0.09755937     0.15916263
               0.23128650     0.31572767     0.41458969     0.53033537
               0.66584808     0.82450364     1.01025438     1.22772762
               1.48234092     1.78043706     2.12944203     2.53805004
               3.01644009     3.57652955     4.23227104     5.00000000

     Gradients computed in reciprocal space

     Starting wfc are   40 randomized atomic wfcs +    8 random wfc

     Self-consistent Calculation

     iteration #  1     ecut=    58.80 Ry     beta=0.30
     Davidson diagonalization with overlap
     ethr =  1.00E-02,  avg # of iterations =  6.5

     Threshold (ethr) on eigenvalues was too large:
     Diagonalizing with lowered threshold

     Davidson diagonalization with overlap
     ethr =  2.61E-05,  avg # of iterations =  5.4

     total energy              =    -790.10675566 Ry
     Harris-Foulkes estimate   =    -790.11015712 Ry
     estimated scf accuracy    <       0.01410732 Ry

[...]

     total energy              =    -790.10564494 Ry
     Harris-Foulkes estimate   =    -790.10564612 Ry
     estimated scf accuracy    <       0.00000368 Ry

     iteration #  7     ecut=    58.80 Ry     beta=0.30
     Davidson diagonalization with overlap
     ethr =  4.50E-09,  avg # of iterations =  2.0

     End of self-consistent calculation

          k = 0.0000 0.0000 0.0000 (  7249 PWs)   bands (ev):

  -120.5225 -74.7095 -74.7095 -74.7095  -1.5242  -1.5242  -1.5242  -1.5009
    -1.5009  -1.4581  -1.3206  -1.3206  -1.3206  -1.1699  -1.1699  -0.9395
    -0.9395  -0.9395  -0.9083  -0.8529  -0.8529  -0.7473  -0.6711  -0.6711
    -0.6711   4.0342   4.0342   4.5634   5.9965   5.9965   5.9965  10.5675
    10.5675  10.5675  10.9991  10.9991  10.9991  13.7852  13.7852  14.1260
    14.9901  14.9901  14.9901  15.6233  15.6233  15.6233  17.8705  19.6004

[...]

          k = 0.0868 0.0868 0.0868 (  7397 PWs)   bands (ev):

  -120.5225 -74.7096 -74.7096 -74.7096  -1.4934  -1.4922  -1.4922  -1.4230
    -1.4230  -1.3851  -1.3012  -1.2912  -1.2912  -1.1900  -1.1900  -1.1811
    -0.9332  -0.9218  -0.9218  -0.9029  -0.9029  -0.7409  -0.7409  -0.7290
     2.4827   2.6772   2.6772   3.4081   5.1953   5.1953   5.2070   5.4485
    13.1350  13.2992  13.2992  14.0778  14.0778  14.3299  14.3574  14.3574
    16.9073  16.9458  16.9458  17.2200  17.8040  17.9272  17.9272  17.9500

     the Fermi energy is     4.8632 ev

!    total energy              =    -790.10564547 Ry
     Harris-Foulkes estimate   =    -790.10564544 Ry
     estimated scf accuracy    <       0.00000046 Ry

     The total energy is the sum of the following terms:

     one-electron contribution =    -566.81056401 Ry
     hartree contribution      =     315.50408973 Ry
     xc contribution           =    -164.49268507 Ry
     ewald contribution        =    -374.30632432 Ry
     smearing contrib. (-TS)   =      -0.00016181 Ry

     convergence has been achieved in   7 iterations

     Forces acting on atoms (Ry/au):

     atom    1 type  1   force =     0.00000000    0.00000000   -0.00000000
     atom    2 type  1   force =     0.00000000    0.00000000    0.00000000
     atom    3 type  1   force =     0.00000000    0.00000000   -0.00000000
     atom    4 type  2   force =     0.00000000    0.00000000    0.00000000

     Total force =     0.000000     Total SCF correction =     0.000000
 !ASE

     General routines

     Parallel routines

   This run was terminated on:  13:32:17   8Nov2017

   JOB DONE.