     Program PWSCF v.5.1rc2 (svn rev. ) starts on 26Oct2017 at  2: 8:47

     Current dimensions of program PWSCF are:
     Max number of different atomic species (ntypx) = 10
     Max number of k-points (npk) =  40000
     Max angular momentum in pseudopotentials (lmaxx) =  3

     IMPORTANT: XC functional enforced from input :
     Exchange-correlation      = BEEF-VDW ( 1  4 27 13 2)
     Any further DFT definition will be discarded
     Please, verify this is what you really want

     Subspace diagonalization in iterative solution of the eigenvalue problem:
     a serial algorithm will be used

     bravais-lattice index     =            0
     lattice parameter (alat)  =       1.8897  a.u.
     unit-cell volume          =     779.0880 (a.u.)^3
     number of atoms/cell      =            4
     number of atomic types    =            2
     number of electrons       =        50.00
     number of Kohn-Sham states=           45
     kinetic-energy cutoff     =      58.7989  Ry
     charge density cutoff     =     587.9892  Ry
     convergence threshold     =      7.3E-09
     mixing beta               =       0.1000
     number of iterations used =           10  local-TF  mixing
     Exchange-correlation      = BEEF-VDW ( 1  4 27 13 2)
     nstep                     =           50

     celldm(1)=   1.889726  celldm(2)=   0.000000  celldm(3)=   0.000000
     celldm(4)=   0.000000  celldm(5)=   0.000000  celldm(6)=   0.000000

     crystal axes: (cart. coord. in units of alat)
               a(1) = (   4.869264   0.000000   0.000000 )
               a(2) = (   0.000000   4.869264   0.000000 )
               a(3) = (   0.000000   0.000000   4.869264 )

     reciprocal axes: (cart. coord. in units 2 pi/alat)
               b(1) = (  0.205370  0.000000  0.000000 )
               b(2) = (  0.000000  0.205370  0.000000 )
               b(3) = (  0.000000  0.000000  0.205370 )

     PseudoPot. # 1 for Tl read from file:
     /home/vossj/suncat/psp/gbrv1.5pbe/Tl.UPF
     MD5 check sum: b76cf1f7e72655a2b2c53cf6385d7059
     Pseudo is Ultrasoft + core correction, Zval = 13.0
     Generated by new atomic code, or converted to UPF format
     Using radial grid of  899 points,  6 beta functions with:
                l(1) =   0
                l(2) =   0
                l(3) =   1
                l(4) =   1
                l(5) =   2
                l(6) =   2
     Q(r) pseudized with  6 coefficients,  rinner =    1.100   1.100   1.100
                                                       1.100   1.100

     PseudoPot. # 2 for Au read from file:
     /home/vossj/suncat/psp/gbrv1.5pbe/Au.UPF
     MD5 check sum: 9d7f43293ad2c663164586bc4b293ffc
     Pseudo is Ultrasoft + core correction, Zval = 11.0
     Generated by new atomic code, or converted to UPF format
     Using radial grid of  985 points,  7 beta functions with:
                l(1) =   0
                l(2) =   0
                l(3) =   1
                l(4) =   1
                l(5) =   2
                l(6) =   2
                l(7) =   3
     Q(r) pseudized with  6 coefficients,  rinner =    1.900   1.900   1.900
                                                       1.900   1.900   1.900
                                                       1.900

     vdW kernel table read from file vdW_kernel_table
     MD5 check sum: 095c7af220d748ca6e76c0b4c6cfb241

     atomic species   valence    mass     pseudopotential
        Tl1           13.00   204.38000     Tl( 1.00)
        Au1           11.00   196.96657     Au( 1.00)

     48 Sym. Ops., with inversion, found (32 have fractional translation)

   Cartesian axes

     site n.     atom                  positions (alat units)
         1           Tl1 tau(   1) = (   0.0000000   0.0000000   0.0000000  )
         2           Tl1 tau(   2) = (   0.0000000   2.4346319   2.4346319  )
         3           Tl1 tau(   3) = (   2.4346319   0.0000000   2.4346319  )
         4           Au1 tau(   4) = (   2.4346319   2.4346319   0.0000000  )

     number of k points=    84  Fermi-Dirac smearing, width (Ry)=  0.0073
                       cart. coord. in units 2pi/alat
        k(    1) = (   0.0000000   0.0000000   0.0000000), wk =   0.0011574
        k(    2) = (   0.0000000   0.0000000   0.0171142), wk =   0.0069444
        k(    3) = (   0.0000000   0.0000000   0.0342283), wk =   0.0069444
        k(    4) = (   0.0000000   0.0000000   0.0513425), wk =   0.0069444
        k(    5) = (   0.0000000   0.0000000   0.0684566), wk =   0.0069444
        k(    6) = (   0.0000000   0.0000000   0.0855708), wk =   0.0069444
        k(    7) = (   0.0000000   0.0000000  -0.1026849), wk =   0.0034722
        k(    8) = (   0.0000000   0.0171142   0.0171142), wk =   0.0138889
        k(    9) = (   0.0000000   0.0171142   0.0342283), wk =   0.0277778
        k(   10) = (   0.0000000   0.0171142   0.0513425), wk =   0.0277778
        k(   11) = (   0.0000000   0.0171142   0.0684566), wk =   0.0277778
        k(   12) = (   0.0000000   0.0171142   0.0855708), wk =   0.0277778
        k(   13) = (   0.0000000   0.0171142  -0.1026849), wk =   0.0138889
        k(   14) = (   0.0000000   0.0342283   0.0342283), wk =   0.0138889
        k(   15) = (   0.0000000   0.0342283   0.0513425), wk =   0.0277778
        k(   16) = (   0.0000000   0.0342283   0.0684566), wk =   0.0277778
        k(   17) = (   0.0000000   0.0342283   0.0855708), wk =   0.0277778
        k(   18) = (   0.0000000   0.0342283  -0.1026849), wk =   0.0138889
        k(   19) = (   0.0000000   0.0513425   0.0513425), wk =   0.0138889
        k(   20) = (   0.0000000   0.0513425   0.0684566), wk =   0.0277778
        k(   21) = (   0.0000000   0.0513425   0.0855708), wk =   0.0277778
        k(   22) = (   0.0000000   0.0513425  -0.1026849), wk =   0.0138889
        k(   23) = (   0.0000000   0.0684566   0.0684566), wk =   0.0138889
        k(   24) = (   0.0000000   0.0684566   0.0855708), wk =   0.0277778
        k(   25) = (   0.0000000   0.0684566  -0.1026849), wk =   0.0138889
        k(   26) = (   0.0000000   0.0855708   0.0855708), wk =   0.0138889
        k(   27) = (   0.0000000   0.0855708  -0.1026849), wk =   0.0138889
        k(   28) = (   0.0000000  -0.1026849  -0.1026849), wk =   0.0034722
        k(   29) = (   0.0171142   0.0171142   0.0171142), wk =   0.0092593
        k(   30) = (   0.0171142   0.0171142   0.0342283), wk =   0.0277778
        k(   31) = (   0.0171142   0.0171142   0.0513425), wk =   0.0277778
        k(   32) = (   0.0171142   0.0171142   0.0684566), wk =   0.0277778
        k(   33) = (   0.0171142   0.0171142   0.0855708), wk =   0.0277778
        k(   34) = (   0.0171142   0.0171142  -0.1026849), wk =   0.0138889
        k(   35) = (   0.0171142   0.0342283   0.0342283), wk =   0.0277778
        k(   36) = (   0.0171142   0.0342283   0.0513425), wk =   0.0555556
        k(   37) = (   0.0171142   0.0342283   0.0684566), wk =   0.0555556
        k(   38) = (   0.0171142   0.0342283   0.0855708), wk =   0.0555556
        k(   39) = (   0.0171142   0.0342283  -0.1026849), wk =   0.0277778
        k(   40) = (   0.0171142   0.0513425   0.0513425), wk =   0.0277778
        k(   41) = (   0.0171142   0.0513425   0.0684566), wk =   0.0555556
        k(   42) = (   0.0171142   0.0513425   0.0855708), wk =   0.0555556
        k(   43) = (   0.0171142   0.0513425  -0.1026849), wk =   0.0277778
        k(   44) = (   0.0171142   0.0684566   0.0684566), wk =   0.0277778
        k(   45) = (   0.0171142   0.0684566   0.0855708), wk =   0.0555556
        k(   46) = (   0.0171142   0.0684566  -0.1026849), wk =   0.0277778
        k(   47) = (   0.0171142   0.0855708   0.0855708), wk =   0.0277778
        k(   48) = (   0.0171142   0.0855708  -0.1026849), wk =   0.0277778
        k(   49) = (   0.0171142  -0.1026849  -0.1026849), wk =   0.0069444
        k(   50) = (   0.0342283   0.0342283   0.0342283), wk =   0.0092593
        k(   51) = (   0.0342283   0.0342283   0.0513425), wk =   0.0277778
        k(   52) = (   0.0342283   0.0342283   0.0684566), wk =   0.0277778
        k(   53) = (   0.0342283   0.0342283   0.0855708), wk =   0.0277778
        k(   54) = (   0.0342283   0.0342283  -0.1026849), wk =   0.0138889
        k(   55) = (   0.0342283   0.0513425   0.0513425), wk =   0.0277778
        k(   56) = (   0.0342283   0.0513425   0.0684566), wk =   0.0555556
        k(   57) = (   0.0342283   0.0513425   0.0855708), wk =   0.0555556
        k(   58) = (   0.0342283   0.0513425  -0.1026849), wk =   0.0277778
        k(   59) = (   0.0342283   0.0684566   0.0684566), wk =   0.0277778
        k(   60) = (   0.0342283   0.0684566   0.0855708), wk =   0.0555556
[...]
        k(   70) = (   0.0513425   0.0684566   0.0855708), wk =   0.0555556
        k(   71) = (   0.0513425   0.0684566  -0.1026849), wk =   0.0277778
        k(   72) = (   0.0513425   0.0855708   0.0855708), wk =   0.0277778
        k(   73) = (   0.0513425   0.0855708  -0.1026849), wk =   0.0277778
        k(   74) = (   0.0513425  -0.1026849  -0.1026849), wk =   0.0069444
        k(   75) = (   0.0684566   0.0684566   0.0684566), wk =   0.0092593
        k(   76) = (   0.0684566   0.0684566   0.0855708), wk =   0.0277778
        k(   77) = (   0.0684566   0.0684566  -0.1026849), wk =   0.0138889
        k(   78) = (   0.0684566   0.0855708   0.0855708), wk =   0.0277778
        k(   79) = (   0.0684566   0.0855708  -0.1026849), wk =   0.0277778
        k(   80) = (   0.0684566  -0.1026849  -0.1026849), wk =   0.0069444
        k(   81) = (   0.0855708   0.0855708   0.0855708), wk =   0.0092593
        k(   82) = (   0.0855708   0.0855708  -0.1026849), wk =   0.0138889
        k(   83) = (   0.0855708  -0.1026849  -0.1026849), wk =   0.0069444
        k(   84) = (  -0.1026849  -0.1026849  -0.1026849), wk =   0.0011574

     Largest allocated arrays     est. size (Mb)     dimensions
     Largest temporary arrays     est. size (Mb)     dimensions

     Initial potential from superposition of free atoms
     Check: negative starting charge=   -0.150692

     starting charge   49.98528, renormalised to   50.00000

     negative rho (up, down):  1.507E-01 0.000E+00

     *
     * You are using vdW-DF for exchange-correlation in this calculation.
     * Please cite the following three references that made this development
     * possible:
     *
     *   M. Dion, H. Rydberg, E. Schroder, D. C. Langreth, and
     *   B. I. Lundqvist, Phys. Rev. Lett. 92, 246401 (2004).
     *
     *   T. Thonhauser, V. R. Cooper, S. Li, A. Puzder, P. Hyldgaard, and
     *   D. C. Langreth, Phys. Rev. B 76, 125112 (2007).
     *
     *   G. Roman-Perez and J. M. Soler, Phys. Rev. Lett. 103, 096102 (2009).
     *
     *
     * If you are using vdW-DF2, please also cite:
     *
     *   K. Lee, E. D. Murray, L. Kong, B. I. Lundqvist, and
     *   D. C. Langreth, Phys. Rev. B 82, 081101(R) (2010).
     *
     *
     * If you are calculating the stress with vdW-DF, please also cite:
     *
     *   R. Sabatini, E. Kucukbenli, B. Kolb, T. Thonhauser, and
     *   S. de Gironcoli, J. Phys.: Condens. Matter 24, 424209 (2012).
     *

     Carrying out vdW-DF run using the following parameters:

     Nqs =      20    Nr_points =    1024   r_max =   100.000
     q_mesh =
               0.00001000     0.04494208     0.09755937     0.15916263
               0.23128650     0.31572767     0.41458969     0.53033537
               0.66584808     0.82450364     1.01025438     1.22772762
               1.48234092     1.78043706     2.12944203     2.53805004
               3.01644009     3.57652955     4.23227104     5.00000000

     Gradients computed in reciprocal space

     Starting wfc are   36 randomized atomic wfcs +    9 random wfc

     Self-consistent Calculation

     iteration #  1     ecut=    58.80 Ry     beta=0.10
     Davidson diagonalization with overlap
     ethr =  1.00E-02,  avg # of iterations =  5.7

     Threshold (ethr) on eigenvalues was too large:
     Diagonalizing with lowered threshold

     Davidson diagonalization with overlap
     c_bands:  1 eigenvalues not converged
     c_bands:  2 eigenvalues not converged
     ethr =  3.06E-05,  avg # of iterations =  6.5

[...]

     total energy              =    -557.14338743 Ry
     Harris-Foulkes estimate   =    -557.14086156 Ry
     estimated scf accuracy    <       0.01536930 Ry

[...]

     iteration #  4     ecut=    58.80 Ry     beta=0.10
     Davidson diagonalization with overlap
     c_bands:  1 eigenvalues not converged
     ethr =  2.84E-06,  avg # of iterations =  5.5

[...]

     total energy              =    -557.15407513 Ry
     Harris-Foulkes estimate   =    -557.15405973 Ry
     estimated scf accuracy    <          8.2E-09 Ry

     iteration # 27     ecut=    58.80 Ry     beta=0.10
     Davidson diagonalization with overlap
     ethr =  1.64E-11,  avg # of iterations =  1.5

     negative rho (up, down):  1.573E-01 0.000E+00

     End of self-consistent calculation

          k = 0.0000 0.0000 0.0000 (  6031 PWs)   bands (ev):

    -2.4599  -2.4389  -2.4389  -2.4389  -2.2220  -2.2220  -1.9824  -1.9824
    -1.9824  -1.8909  -1.8909  -1.7432  -1.6974  -1.6974  -1.6974   0.4194
     5.3076   5.3076   6.3580   6.3580   6.3580   7.2095   7.2095   8.6224
     8.6224   8.6224   9.3486  14.0932  14.0932  14.0932  15.0477  15.0477
    15.0477  17.9617  18.5323  18.5323  19.6720  19.6720  19.6720  21.0359
    21.0359  21.0359  21.4215  25.2766  25.8823

[...]

          k = 0.0856-0.1027-0.1027 (  5932 PWs)   bands (ev):

[...]

          k =-0.1027-0.1027-0.1027 (  5904 PWs)   bands (ev):

    -2.3318  -2.3318  -2.3318  -2.2771  -2.2103  -2.2103  -2.2103  -1.9734
    -1.9734  -1.9734  -1.9122  -1.9122  -1.7430  -1.7430  -1.7430   3.9466
     3.9466   3.9466   6.4178   6.4178   6.9003   6.9352   6.9352   6.9352
     7.8303   7.8303   7.8303   8.0669  17.8350  17.8350  18.1853  18.1853
    18.1853  19.9643  19.9643  19.9643  20.4996  21.0519  21.0519  21.0519
    22.6863  22.6863  22.6863  23.6030  23.6030

     the Fermi energy is     9.7924 ev

!    total energy              =    -557.15414080 Ry
     Harris-Foulkes estimate   =    -557.15407513 Ry
     estimated scf accuracy    <          7.2E-09 Ry

     The total energy is the sum of the following terms:

     one-electron contribution =     -67.74794805 Ry
     hartree contribution      =      78.78092048 Ry
     xc contribution           =    -256.02776067 Ry
     ewald contribution        =    -312.15342135 Ry
     smearing contrib. (-TS)   =      -0.00593121 Ry

     convergence has been achieved in  27 iterations

     Forces acting on atoms (Ry/au):

     negative rho (up, down):  1.573E-01 0.000E+00
     atom    1 type  1   force =     0.00000000    0.00000000    0.00000000
     atom    2 type  1   force =     0.00000000    0.00000000    0.00000000
     atom    3 type  1   force =     0.00000000    0.00000000    0.00000000
     atom    4 type  2   force =     0.00000000    0.00000000   -0.00000000

     Total force =     0.000000     Total SCF correction =     0.000000
 !ASE

     General routines

     Parallel routines

   This run was terminated on:   2:11:19  26Oct2017

   JOB DONE.