     Program PWSCF v.5.1rc2 (svn rev. ) starts on 25Oct2017 at  4: 9:31

     Current dimensions of program PWSCF are:
     Max number of different atomic species (ntypx) = 10
     Max number of k-points (npk) =  40000
     Max angular momentum in pseudopotentials (lmaxx) =  3

     IMPORTANT: XC functional enforced from input :
     Exchange-correlation      = BEEF-VDW ( 1  4 27 13 2)
     Any further DFT definition will be discarded
     Please, verify this is what you really want

     Subspace diagonalization in iterative solution of the eigenvalue problem:
     a serial algorithm will be used

     bravais-lattice index     =            0
     lattice parameter (alat)  =       1.8897  a.u.
     unit-cell volume          =     577.6465 (a.u.)^3
     number of atoms/cell      =            4
     number of atomic types    =            2
     number of electrons       =        49.00
     number of Kohn-Sham states=           44
     kinetic-energy cutoff     =      58.7989  Ry
     charge density cutoff     =     587.9892  Ry
     convergence threshold     =      7.3E-09
     mixing beta               =       0.1000
     number of iterations used =           10  local-TF  mixing
     Exchange-correlation      = BEEF-VDW ( 1  4 27 13 2)
     nstep                     =           50

     celldm(1)=   1.889726  celldm(2)=   0.000000  celldm(3)=   0.000000
     celldm(4)=   0.000000  celldm(5)=   0.000000  celldm(6)=   0.000000

     crystal axes: (cart. coord. in units of alat)
               a(1) = (   4.407123   0.000000   0.000000 )
               a(2) = (   0.000000   4.407123   0.000000 )
               a(3) = (   0.000000   0.000000   4.407123 )

     reciprocal axes: (cart. coord. in units 2 pi/alat)
               b(1) = (  0.226905  0.000000  0.000000 )
               b(2) = (  0.000000  0.226905  0.000000 )
               b(3) = (  0.000000  0.000000  0.226905 )

     PseudoPot. # 1 for Hf read from file:
     /home/vossj/suncat/psp/gbrv1.5pbe/Hf.UPF
     MD5 check sum: 8ee9378dfe14276e333edf04c5e4aa26
     Pseudo is Ultrasoft + core correction, Zval = 12.0
     Generated by new atomic code, or converted to UPF format
     Using radial grid of  921 points,  8 beta functions with:
                l(1) =   0
                l(2) =   0
                l(3) =   0
                l(4) =   1
                l(5) =   1
                l(6) =   2
                l(7) =   2
                l(8) =   3
     Q(r) pseudized with  6 coefficients,  rinner =    1.200   1.200   1.200
                                                       1.200   1.200   1.200
                                                       1.200

     PseudoPot. # 2 for Ta read from file:
     /home/vossj/suncat/psp/gbrv1.5pbe/Ta.UPF
     MD5 check sum: f8bbe9446314a3b8ea5d9f3e3836c939
     Pseudo is Ultrasoft + core correction, Zval = 13.0
     Generated by new atomic code, or converted to UPF format
     Using radial grid of  921 points,  7 beta functions with:
                l(1) =   0
                l(2) =   0
                l(3) =   1
                l(4) =   1
                l(5) =   2
                l(6) =   2
                l(7) =   3
     Q(r) pseudized with  6 coefficients,  rinner =    1.300   1.300   1.300
                                                       1.300   1.300   1.300
                                                       1.300

     vdW kernel table read from file vdW_kernel_table
     MD5 check sum: 095c7af220d748ca6e76c0b4c6cfb241

     atomic species   valence    mass     pseudopotential
        Hf1           12.00   178.49000     Hf( 1.00)
        Ta1           13.00   180.94788     Ta( 1.00)

     48 Sym. Ops., with inversion, found (32 have fractional translation)

   Cartesian axes

     site n.     atom                  positions (alat units)
         1           Hf1 tau(   1) = (   0.0000000   0.0000000   0.0000000  )
         2           Hf1 tau(   2) = (   0.0000000   2.2035616   2.2035616  )
         3           Hf1 tau(   3) = (   2.2035616   0.0000000   2.2035616  )
         4           Ta1 tau(   4) = (   2.2035616   2.2035616   0.0000000  )

     number of k points=    84  Fermi-Dirac smearing, width (Ry)=  0.0073
                       cart. coord. in units 2pi/alat
        k(    1) = (   0.0000000   0.0000000   0.0000000), wk =   0.0011574
        k(    2) = (   0.0000000   0.0000000   0.0189088), wk =   0.0069444
        k(    3) = (   0.0000000   0.0000000   0.0378176), wk =   0.0069444
        k(    4) = (   0.0000000   0.0000000   0.0567263), wk =   0.0069444
        k(    5) = (   0.0000000   0.0000000   0.0756351), wk =   0.0069444
        k(    6) = (   0.0000000   0.0000000   0.0945439), wk =   0.0069444
        k(    7) = (   0.0000000   0.0000000  -0.1134527), wk =   0.0034722
        k(    8) = (   0.0000000   0.0189088   0.0189088), wk =   0.0138889
        k(    9) = (   0.0000000   0.0189088   0.0378176), wk =   0.0277778
        k(   10) = (   0.0000000   0.0189088   0.0567263), wk =   0.0277778
        k(   11) = (   0.0000000   0.0189088   0.0756351), wk =   0.0277778
        k(   12) = (   0.0000000   0.0189088   0.0945439), wk =   0.0277778
        k(   13) = (   0.0000000   0.0189088  -0.1134527), wk =   0.0138889
        k(   14) = (   0.0000000   0.0378176   0.0378176), wk =   0.0138889
        k(   15) = (   0.0000000   0.0378176   0.0567263), wk =   0.0277778
        k(   16) = (   0.0000000   0.0378176   0.0756351), wk =   0.0277778
        k(   17) = (   0.0000000   0.0378176   0.0945439), wk =   0.0277778
        k(   18) = (   0.0000000   0.0378176  -0.1134527), wk =   0.0138889
        k(   19) = (   0.0000000   0.0567263   0.0567263), wk =   0.0138889
        k(   20) = (   0.0000000   0.0567263   0.0756351), wk =   0.0277778
        k(   21) = (   0.0000000   0.0567263   0.0945439), wk =   0.0277778
        k(   22) = (   0.0000000   0.0567263  -0.1134527), wk =   0.0138889
        k(   23) = (   0.0000000   0.0756351   0.0756351), wk =   0.0138889
        k(   24) = (   0.0000000   0.0756351   0.0945439), wk =   0.0277778
        k(   25) = (   0.0000000   0.0756351  -0.1134527), wk =   0.0138889
        k(   26) = (   0.0000000   0.0945439   0.0945439), wk =   0.0138889
        k(   27) = (   0.0000000   0.0945439  -0.1134527), wk =   0.0138889
        k(   28) = (   0.0000000  -0.1134527  -0.1134527), wk =   0.0034722
        k(   29) = (   0.0189088   0.0189088   0.0189088), wk =   0.0092593
        k(   30) = (   0.0189088   0.0189088   0.0378176), wk =   0.0277778
        k(   31) = (   0.0189088   0.0189088   0.0567263), wk =   0.0277778
        k(   32) = (   0.0189088   0.0189088   0.0756351), wk =   0.0277778
        k(   33) = (   0.0189088   0.0189088   0.0945439), wk =   0.0277778
        k(   34) = (   0.0189088   0.0189088  -0.1134527), wk =   0.0138889
        k(   35) = (   0.0189088   0.0378176   0.0378176), wk =   0.0277778
        k(   36) = (   0.0189088   0.0378176   0.0567263), wk =   0.0555556
        k(   37) = (   0.0189088   0.0378176   0.0756351), wk =   0.0555556
        k(   38) = (   0.0189088   0.0378176   0.0945439), wk =   0.0555556
        k(   39) = (   0.0189088   0.0378176  -0.1134527), wk =   0.0277778
        k(   40) = (   0.0189088   0.0567263   0.0567263), wk =   0.0277778
        k(   41) = (   0.0189088   0.0567263   0.0756351), wk =   0.0555556
        k(   42) = (   0.0189088   0.0567263   0.0945439), wk =   0.0555556
        k(   43) = (   0.0189088   0.0567263  -0.1134527), wk =   0.0277778
        k(   44) = (   0.0189088   0.0756351   0.0756351), wk =   0.0277778
        k(   45) = (   0.0189088   0.0756351   0.0945439), wk =   0.0555556
        k(   46) = (   0.0189088   0.0756351  -0.1134527), wk =   0.0277778
        k(   47) = (   0.0189088   0.0945439   0.0945439), wk =   0.0277778
        k(   48) = (   0.0189088   0.0945439  -0.1134527), wk =   0.0277778
        k(   49) = (   0.0189088  -0.1134527  -0.1134527), wk =   0.0069444
        k(   50) = (   0.0378176   0.0378176   0.0378176), wk =   0.0092593
        k(   51) = (   0.0378176   0.0378176   0.0567263), wk =   0.0277778
        k(   52) = (   0.0378176   0.0378176   0.0756351), wk =   0.0277778
        k(   53) = (   0.0378176   0.0378176   0.0945439), wk =   0.0277778
        k(   54) = (   0.0378176   0.0378176  -0.1134527), wk =   0.0138889
        k(   55) = (   0.0378176   0.0567263   0.0567263), wk =   0.0277778
        k(   56) = (   0.0378176   0.0567263   0.0756351), wk =   0.0555556
        k(   57) = (   0.0378176   0.0567263   0.0945439), wk =   0.0555556
        k(   58) = (   0.0378176   0.0567263  -0.1134527), wk =   0.0277778
        k(   59) = (   0.0378176   0.0756351   0.0756351), wk =   0.0277778
        k(   60) = (   0.0378176   0.0756351   0.0945439), wk =   0.0555556
[...]
        k(   70) = (   0.0567263   0.0756351   0.0945439), wk =   0.0555556
        k(   71) = (   0.0567263   0.0756351  -0.1134527), wk =   0.0277778
        k(   72) = (   0.0567263   0.0945439   0.0945439), wk =   0.0277778
        k(   73) = (   0.0567263   0.0945439  -0.1134527), wk =   0.0277778
        k(   74) = (   0.0567263  -0.1134527  -0.1134527), wk =   0.0069444
        k(   75) = (   0.0756351   0.0756351   0.0756351), wk =   0.0092593
        k(   76) = (   0.0756351   0.0756351   0.0945439), wk =   0.0277778
        k(   77) = (   0.0756351   0.0756351  -0.1134527), wk =   0.0138889
        k(   78) = (   0.0756351   0.0945439   0.0945439), wk =   0.0277778
        k(   79) = (   0.0756351   0.0945439  -0.1134527), wk =   0.0277778
        k(   80) = (   0.0756351  -0.1134527  -0.1134527), wk =   0.0069444
        k(   81) = (   0.0945439   0.0945439   0.0945439), wk =   0.0092593
        k(   82) = (   0.0945439   0.0945439  -0.1134527), wk =   0.0138889
        k(   83) = (   0.0945439  -0.1134527  -0.1134527), wk =   0.0069444
        k(   84) = (  -0.1134527  -0.1134527  -0.1134527), wk =   0.0011574

     Largest allocated arrays     est. size (Mb)     dimensions
     Largest temporary arrays     est. size (Mb)     dimensions

     Initial potential from superposition of free atoms
     Check: negative starting charge=   -0.418960

     starting charge   42.99888, renormalised to   49.00000

     negative rho (up, down):  4.774E-01 0.000E+00

     *
     * You are using vdW-DF for exchange-correlation in this calculation.
     * Please cite the following three references that made this development
     * possible:
     *
     *   M. Dion, H. Rydberg, E. Schroder, D. C. Langreth, and
     *   B. I. Lundqvist, Phys. Rev. Lett. 92, 246401 (2004).
     *
     *   T. Thonhauser, V. R. Cooper, S. Li, A. Puzder, P. Hyldgaard, and
     *   D. C. Langreth, Phys. Rev. B 76, 125112 (2007).
     *
     *   G. Roman-Perez and J. M. Soler, Phys. Rev. Lett. 103, 096102 (2009).
     *
     *
     * If you are using vdW-DF2, please also cite:
     *
     *   K. Lee, E. D. Murray, L. Kong, B. I. Lundqvist, and
     *   D. C. Langreth, Phys. Rev. B 82, 081101(R) (2010).
     *
     *
     * If you are calculating the stress with vdW-DF, please also cite:
     *
     *   R. Sabatini, E. Kucukbenli, B. Kolb, T. Thonhauser, and
     *   S. de Gironcoli, J. Phys.: Condens. Matter 24, 424209 (2012).
     *

     Carrying out vdW-DF run using the following parameters:

     Nqs =      20    Nr_points =    1024   r_max =   100.000
     q_mesh =
               0.00001000     0.04494208     0.09755937     0.15916263
               0.23128650     0.31572767     0.41458969     0.53033537
               0.66584808     0.82450364     1.01025438     1.22772762
               1.48234092     1.78043706     2.12944203     2.53805004
               3.01644009     3.57652955     4.23227104     5.00000000

     Gradients computed in reciprocal space

     Starting wfc are   52 randomized atomic wfcs

     Self-consistent Calculation

     iteration #  1     ecut=    58.80 Ry     beta=0.10
     Davidson diagonalization with overlap
     ethr =  1.00E-02,  avg # of iterations =  3.5

[...]

     total energy              =    -627.24974642 Ry
     Harris-Foulkes estimate   =    -627.54471413 Ry
     estimated scf accuracy    <       5.74629595 Ry

[...]

     total energy              =    -625.02554882 Ry
     Harris-Foulkes estimate   =    -625.02554877 Ry
     estimated scf accuracy    <       0.00000001 Ry

     iteration # 18     ecut=    58.80 Ry     beta=0.10
     Davidson diagonalization with overlap
     ethr =  3.01E-11,  avg # of iterations =  1.6

     negative rho (up, down):  4.554E-01 0.000E+00

     End of self-consistent calculation

          k = 0.0000 0.0000 0.0000 (  4385 PWs)   bands (ev):

   -53.0254 -46.9137 -46.8411 -46.8405 -19.3628 -19.3628 -19.3628 -15.7424
   -15.7422 -15.7422 -15.3638 -15.3638 -15.3634 -15.1495 -15.1492 -15.1492
     7.7600  11.6442  11.6526  11.6528  12.7335  12.7335  12.7335  16.3079
    16.3079  16.3080  17.7180  17.7180  17.7180  19.0389  19.0390  21.1626
    21.1629  21.5144  21.5148  21.5148  21.7534  22.3474  22.3474  22.3478
    25.1074  25.1074  25.1074  25.5073

[...]

          k = 0.0945-0.1135-0.1135 (  4376 PWs)   bands (ev):

[...]

          k =-0.1135-0.1135-0.1135 (  4416 PWs)   bands (ev):

   -53.0251 -46.8655 -46.8645 -46.8645 -19.3756 -19.3756 -19.3756 -15.9769
   -15.6582 -15.6582 -15.6577 -15.1902 -15.1897 -15.1597 -15.1597 -15.1592
    11.2019  11.3531  11.3532  11.3532  15.6762  15.6762  15.6764  15.7190
    15.7190  15.8137  16.0382  16.0384  16.0384  16.3873  16.3876  16.3876
    20.9671  20.9674  20.9674  21.1569  21.1572  21.7123  21.7124  21.7124
    24.4617  24.8007  24.8007  24.8007

     the Fermi energy is    15.1431 ev

!    total energy              =    -625.02554928 Ry
     Harris-Foulkes estimate   =    -625.02554908 Ry
     estimated scf accuracy    <          7.1E-09 Ry

     The total energy is the sum of the following terms:

     one-electron contribution =     -75.41827310 Ry
     hartree contribution      =      56.91471913 Ry
     xc contribution           =    -275.85622276 Ry
     ewald contribution        =    -330.65200859 Ry
     smearing contrib. (-TS)   =      -0.01376396 Ry

     convergence has been achieved in  18 iterations

     Forces acting on atoms (Ry/au):

     negative rho (up, down):  4.554E-01 0.000E+00
     atom    1 type  1   force =     0.00000000   -0.00000000   -0.00000000
     atom    2 type  1   force =     0.00000000   -0.00000000    0.00000000
     atom    3 type  1   force =     0.00000000    0.00000000    0.00000000
     atom    4 type  2   force =     0.00000000    0.00000000    0.00000000

     Total force =     0.000000     Total SCF correction =     0.000000
 !ASE

     General routines

     Parallel routines

   This run was terminated on:   4:11: 3  25Oct2017

   JOB DONE.