     Program PWSCF v.5.1rc2 (svn rev. ) starts on 25Oct2017 at 21:45:16

     Current dimensions of program PWSCF are:
     Max number of different atomic species (ntypx) = 10
     Max number of k-points (npk) =  40000
     Max angular momentum in pseudopotentials (lmaxx) =  3

     IMPORTANT: XC functional enforced from input :
     Exchange-correlation      = BEEF-VDW ( 1  4 27 13 2)
     Any further DFT definition will be discarded
     Please, verify this is what you really want

     Subspace diagonalization in iterative solution of the eigenvalue problem:
     a serial algorithm will be used

     bravais-lattice index     =            0
     lattice parameter (alat)  =       1.8897  a.u.
     unit-cell volume          =     385.4614 (a.u.)^3
     number of atoms/cell      =            4
     number of atomic types    =            2
     number of electrons       =        64.00
     number of Kohn-Sham states=           52
     kinetic-energy cutoff     =      58.7989  Ry
     charge density cutoff     =     587.9892  Ry
     convergence threshold     =      7.3E-09
     mixing beta               =       0.1000
     number of iterations used =           10  local-TF  mixing
     Exchange-correlation      = BEEF-VDW ( 1  4 27 13 2)
     nstep                     =           50

     celldm(1)=   1.889726  celldm(2)=   0.000000  celldm(3)=   0.000000
     celldm(4)=   0.000000  celldm(5)=   0.000000  celldm(6)=   0.000000

     crystal axes: (cart. coord. in units of alat)
               a(1) = (   3.851188   0.000000   0.000000 )
               a(2) = (   0.000000   3.851188   0.000000 )
               a(3) = (   0.000000   0.000000   3.851188 )

     reciprocal axes: (cart. coord. in units 2 pi/alat)
               b(1) = (  0.259660  0.000000  0.000000 )
               b(2) = (  0.000000  0.259660  0.000000 )
               b(3) = (  0.000000  0.000000  0.259660 )

     PseudoPot. # 1 for Os read from file:
     /home/vossj/suncat/psp/gbrv1.5pbe/Os.UPF
     MD5 check sum: a3fb40a04f0c37c25c34bbc47164c9a8
     Pseudo is Ultrasoft + core correction, Zval = 16.0
     Generated by new atomic code, or converted to UPF format
     Using radial grid of  983 points,  8 beta functions with:
                l(1) =   0
                l(2) =   0
                l(3) =   1
                l(4) =   1
                l(5) =   2
                l(6) =   2
                l(7) =   3
                l(8) =   3
     Q(r) pseudized with  8 coefficients,  rinner =    1.150   1.150   1.150
                                                       1.150   1.150   1.150
                                                       1.150

     PseudoPot. # 2 for Ru read from file:
     /home/vossj/suncat/psp/gbrv1.5pbe/Ru.UPF
     MD5 check sum: 7158a806dd851261a58e6920c40ebe78
     Pseudo is Ultrasoft + core correction, Zval = 16.0
     Generated by new atomic code, or converted to UPF format
     Using radial grid of  967 points,  6 beta functions with:
                l(1) =   0
                l(2) =   0
                l(3) =   1
                l(4) =   1
                l(5) =   2
                l(6) =   2
     Q(r) pseudized with  8 coefficients,  rinner =    1.300   1.300   1.300
                                                       1.300   1.300

     vdW kernel table read from file vdW_kernel_table
     MD5 check sum: 095c7af220d748ca6e76c0b4c6cfb241

     atomic species   valence    mass     pseudopotential
        Os1           16.00   190.23000     Os( 1.00)
        Ru1           16.00   101.07000     Ru( 1.00)

     48 Sym. Ops., with inversion, found (32 have fractional translation)

   Cartesian axes

     site n.     atom                  positions (alat units)
         1           Os1 tau(   1) = (   0.0000000   0.0000000   0.0000000  )
         2           Os1 tau(   2) = (   0.0000000   1.9255942   1.9255942  )
         3           Os1 tau(   3) = (   1.9255942   0.0000000   1.9255942  )
         4           Ru1 tau(   4) = (   1.9255942   1.9255942   0.0000000  )

     number of k points=    84  Fermi-Dirac smearing, width (Ry)=  0.0073
                       cart. coord. in units 2pi/alat
        k(    1) = (   0.0000000   0.0000000   0.0000000), wk =   0.0011574
        k(    2) = (   0.0000000   0.0000000   0.0216383), wk =   0.0069444
        k(    3) = (   0.0000000   0.0000000   0.0432767), wk =   0.0069444
        k(    4) = (   0.0000000   0.0000000   0.0649150), wk =   0.0069444
        k(    5) = (   0.0000000   0.0000000   0.0865534), wk =   0.0069444
        k(    6) = (   0.0000000   0.0000000   0.1081917), wk =   0.0069444
        k(    7) = (   0.0000000   0.0000000  -0.1298301), wk =   0.0034722
        k(    8) = (   0.0000000   0.0216383   0.0216383), wk =   0.0138889
        k(    9) = (   0.0000000   0.0216383   0.0432767), wk =   0.0277778
        k(   10) = (   0.0000000   0.0216383   0.0649150), wk =   0.0277778
        k(   11) = (   0.0000000   0.0216383   0.0865534), wk =   0.0277778
        k(   12) = (   0.0000000   0.0216383   0.1081917), wk =   0.0277778
        k(   13) = (   0.0000000   0.0216383  -0.1298301), wk =   0.0138889
        k(   14) = (   0.0000000   0.0432767   0.0432767), wk =   0.0138889
        k(   15) = (   0.0000000   0.0432767   0.0649150), wk =   0.0277778
        k(   16) = (   0.0000000   0.0432767   0.0865534), wk =   0.0277778
        k(   17) = (   0.0000000   0.0432767   0.1081917), wk =   0.0277778
        k(   18) = (   0.0000000   0.0432767  -0.1298301), wk =   0.0138889
        k(   19) = (   0.0000000   0.0649150   0.0649150), wk =   0.0138889
        k(   20) = (   0.0000000   0.0649150   0.0865534), wk =   0.0277778
        k(   21) = (   0.0000000   0.0649150   0.1081917), wk =   0.0277778
        k(   22) = (   0.0000000   0.0649150  -0.1298301), wk =   0.0138889
        k(   23) = (   0.0000000   0.0865534   0.0865534), wk =   0.0138889
        k(   24) = (   0.0000000   0.0865534   0.1081917), wk =   0.0277778
        k(   25) = (   0.0000000   0.0865534  -0.1298301), wk =   0.0138889
        k(   26) = (   0.0000000   0.1081917   0.1081917), wk =   0.0138889
        k(   27) = (   0.0000000   0.1081917  -0.1298301), wk =   0.0138889
        k(   28) = (   0.0000000  -0.1298301  -0.1298301), wk =   0.0034722
        k(   29) = (   0.0216383   0.0216383   0.0216383), wk =   0.0092593
        k(   30) = (   0.0216383   0.0216383   0.0432767), wk =   0.0277778
        k(   31) = (   0.0216383   0.0216383   0.0649150), wk =   0.0277778
        k(   32) = (   0.0216383   0.0216383   0.0865534), wk =   0.0277778
        k(   33) = (   0.0216383   0.0216383   0.1081917), wk =   0.0277778
        k(   34) = (   0.0216383   0.0216383  -0.1298301), wk =   0.0138889
        k(   35) = (   0.0216383   0.0432767   0.0432767), wk =   0.0277778
        k(   36) = (   0.0216383   0.0432767   0.0649150), wk =   0.0555556
        k(   37) = (   0.0216383   0.0432767   0.0865534), wk =   0.0555556
        k(   38) = (   0.0216383   0.0432767   0.1081917), wk =   0.0555556
        k(   39) = (   0.0216383   0.0432767  -0.1298301), wk =   0.0277778
        k(   40) = (   0.0216383   0.0649150   0.0649150), wk =   0.0277778
        k(   41) = (   0.0216383   0.0649150   0.0865534), wk =   0.0555556
        k(   42) = (   0.0216383   0.0649150   0.1081917), wk =   0.0555556
        k(   43) = (   0.0216383   0.0649150  -0.1298301), wk =   0.0277778
        k(   44) = (   0.0216383   0.0865534   0.0865534), wk =   0.0277778
        k(   45) = (   0.0216383   0.0865534   0.1081917), wk =   0.0555556
        k(   46) = (   0.0216383   0.0865534  -0.1298301), wk =   0.0277778
        k(   47) = (   0.0216383   0.1081917   0.1081917), wk =   0.0277778
        k(   48) = (   0.0216383   0.1081917  -0.1298301), wk =   0.0277778
        k(   49) = (   0.0216383  -0.1298301  -0.1298301), wk =   0.0069444
        k(   50) = (   0.0432767   0.0432767   0.0432767), wk =   0.0092593
        k(   51) = (   0.0432767   0.0432767   0.0649150), wk =   0.0277778
        k(   52) = (   0.0432767   0.0432767   0.0865534), wk =   0.0277778
        k(   53) = (   0.0432767   0.0432767   0.1081917), wk =   0.0277778
        k(   54) = (   0.0432767   0.0432767  -0.1298301), wk =   0.0138889
        k(   55) = (   0.0432767   0.0649150   0.0649150), wk =   0.0277778
        k(   56) = (   0.0432767   0.0649150   0.0865534), wk =   0.0555556
        k(   57) = (   0.0432767   0.0649150   0.1081917), wk =   0.0555556
        k(   58) = (   0.0432767   0.0649150  -0.1298301), wk =   0.0277778
        k(   59) = (   0.0432767   0.0865534   0.0865534), wk =   0.0277778
        k(   60) = (   0.0432767   0.0865534   0.1081917), wk =   0.0555556
[...]
        k(   70) = (   0.0649150   0.0865534   0.1081917), wk =   0.0555556
        k(   71) = (   0.0649150   0.0865534  -0.1298301), wk =   0.0277778
        k(   72) = (   0.0649150   0.1081917   0.1081917), wk =   0.0277778
        k(   73) = (   0.0649150   0.1081917  -0.1298301), wk =   0.0277778
        k(   74) = (   0.0649150  -0.1298301  -0.1298301), wk =   0.0069444
        k(   75) = (   0.0865534   0.0865534   0.0865534), wk =   0.0092593
        k(   76) = (   0.0865534   0.0865534   0.1081917), wk =   0.0277778
        k(   77) = (   0.0865534   0.0865534  -0.1298301), wk =   0.0138889
        k(   78) = (   0.0865534   0.1081917   0.1081917), wk =   0.0277778
        k(   79) = (   0.0865534   0.1081917  -0.1298301), wk =   0.0277778
        k(   80) = (   0.0865534  -0.1298301  -0.1298301), wk =   0.0069444
        k(   81) = (   0.1081917   0.1081917   0.1081917), wk =   0.0092593
        k(   82) = (   0.1081917   0.1081917  -0.1298301), wk =   0.0138889
        k(   83) = (   0.1081917  -0.1298301  -0.1298301), wk =   0.0069444
        k(   84) = (  -0.1298301  -0.1298301  -0.1298301), wk =   0.0011574

     Largest allocated arrays     est. size (Mb)     dimensions
     Largest temporary arrays     est. size (Mb)     dimensions

     Initial potential from superposition of free atoms
     Check: negative starting charge=   -0.446220

     starting charge   61.49987, renormalised to   64.00000

     negative rho (up, down):  4.644E-01 0.000E+00

     *
     * You are using vdW-DF for exchange-correlation in this calculation.
     * Please cite the following three references that made this development
     * possible:
     *
     *   M. Dion, H. Rydberg, E. Schroder, D. C. Langreth, and
     *   B. I. Lundqvist, Phys. Rev. Lett. 92, 246401 (2004).
     *
     *   T. Thonhauser, V. R. Cooper, S. Li, A. Puzder, P. Hyldgaard, and
     *   D. C. Langreth, Phys. Rev. B 76, 125112 (2007).
     *
     *   G. Roman-Perez and J. M. Soler, Phys. Rev. Lett. 103, 096102 (2009).
     *
     *
     * If you are using vdW-DF2, please also cite:
     *
     *   K. Lee, E. D. Murray, L. Kong, B. I. Lundqvist, and
     *   D. C. Langreth, Phys. Rev. B 82, 081101(R) (2010).
     *
     *
     * If you are calculating the stress with vdW-DF, please also cite:
     *
     *   R. Sabatini, E. Kucukbenli, B. Kolb, T. Thonhauser, and
     *   S. de Gironcoli, J. Phys.: Condens. Matter 24, 424209 (2012).
     *

     Carrying out vdW-DF run using the following parameters:

     Nqs =      20    Nr_points =    1024   r_max =   100.000
     q_mesh =
               0.00001000     0.04494208     0.09755937     0.15916263
               0.23128650     0.31572767     0.41458969     0.53033537
               0.66584808     0.82450364     1.01025438     1.22772762
               1.48234092     1.78043706     2.12944203     2.53805004
               3.01644009     3.57652955     4.23227104     5.00000000

     Gradients computed in reciprocal space

     Starting wfc are   52 randomized atomic wfcs

     Self-consistent Calculation

     iteration #  1     ecut=    58.80 Ry     beta=0.10
     Davidson diagonalization with overlap
     ethr =  1.00E-02,  avg # of iterations =  4.3

[...]

     total energy              =    -794.98495410 Ry
     Harris-Foulkes estimate   =    -795.07037205 Ry
     estimated scf accuracy    <       1.25700608 Ry

[...]

     total energy              =    -794.62722700 Ry
     Harris-Foulkes estimate   =    -794.62722643 Ry
     estimated scf accuracy    <       0.00000002 Ry

     iteration # 14     ecut=    58.80 Ry     beta=0.10
     Davidson diagonalization with overlap
     ethr =  3.19E-11,  avg # of iterations =  3.0

     negative rho (up, down):  4.533E-01 0.000E+00

     End of self-consistent calculation

          k = 0.0000 0.0000 0.0000 (  2945 PWs)   bands (ev):

   -62.3785 -62.2900 -62.2900 -48.6966 -21.9561 -21.9561 -21.9561 -21.5220
   -21.5220 -21.5220 -21.2978 -21.2978 -21.2978 -18.6193 -18.6193 -18.6193
    14.5956  17.4404  17.5563  17.5563  18.1304  18.1304  18.1304  21.7224
    21.7224  21.7224  24.4193  24.4193  26.4237  26.4237  26.8525  26.8911
    26.8911  26.8911  27.1063  27.1063  27.1063  27.5421  27.5421  27.5421
    36.1944  36.1944  36.6881  36.6881  36.6881  36.7743  36.7743  36.7743
    38.2740  38.3180  43.8961  43.8961

[...]

          k = 0.1082-0.1298-0.1298 (  2952 PWs)   bands (ev):

[...]

          k =-0.1298-0.1298-0.1298 (  3016 PWs)   bands (ev):

   -62.3192 -62.3192 -62.3192 -48.6961 -22.1672 -21.9024 -21.9024 -21.9024
   -21.3254 -21.3254 -21.2989 -21.2989 -21.2989 -18.6137 -18.6137 -18.6137
    17.3328  17.3328  17.3328  17.9363  21.5312  21.5312  21.5312  21.5566
    21.5566  21.5566  21.6622  21.6622  24.3388  24.6676  24.6676  24.6676
    26.3867  26.3867  26.3867  26.4785  26.4785  26.8902  26.8902  26.8902
    32.9288  32.9288  32.9288  35.1545  37.8818  38.0042  38.0042  38.0042
    44.0491  44.0492  44.1013  44.1014

     the Fermi energy is    24.4525 ev

!    total energy              =    -794.62722942 Ry
     Harris-Foulkes estimate   =    -794.62722700 Ry
     estimated scf accuracy    <          2.5E-09 Ry

     The total energy is the sum of the following terms:

     one-electron contribution =    -104.49750785 Ry
     hartree contribution      =      98.22448051 Ry
     xc contribution           =    -143.23650551 Ry
     ewald contribution        =    -645.10826637 Ry
     smearing contrib. (-TS)   =      -0.00943019 Ry

     convergence has been achieved in  14 iterations

     Forces acting on atoms (Ry/au):

     negative rho (up, down):  4.533E-01 0.000E+00
     atom    1 type  1   force =     0.00000000    0.00000000    0.00000000
     atom    2 type  1   force =     0.00000000   -0.00000000    0.00000000
     atom    3 type  1   force =     0.00000000    0.00000000    0.00000000
     atom    4 type  2   force =     0.00000000   -0.00000000    0.00000000

     Total force =     0.000000     Total SCF correction =     0.000000
 !ASE

     General routines

     Parallel routines

   This run was terminated on:  21:46:20  25Oct2017

   JOB DONE.