     Program PWSCF v.5.1rc2 (svn rev. ) starts on 25Oct2017 at 22:53:32

     Current dimensions of program PWSCF are:
     Max number of different atomic species (ntypx) = 10
     Max number of k-points (npk) =  40000
     Max angular momentum in pseudopotentials (lmaxx) =  3

     IMPORTANT: XC functional enforced from input :
     Exchange-correlation      = BEEF-VDW ( 1  4 27 13 2)
     Any further DFT definition will be discarded
     Please, verify this is what you really want

     Subspace diagonalization in iterative solution of the eigenvalue problem:
     a serial algorithm will be used

     bravais-lattice index     =            0
     lattice parameter (alat)  =       1.8897  a.u.
     unit-cell volume          =     473.1650 (a.u.)^3
     number of atoms/cell      =            4
     number of atomic types    =            2
     number of electrons       =        55.00
     number of Kohn-Sham states=           47
     kinetic-energy cutoff     =      58.7989  Ry
     charge density cutoff     =     587.9892  Ry
     convergence threshold     =      7.3E-09
     mixing beta               =       0.1000
     number of iterations used =           10  local-TF  mixing
     Exchange-correlation      = BEEF-VDW ( 1  4 27 13 2)
     nstep                     =           50

     celldm(1)=   1.889726  celldm(2)=   0.000000  celldm(3)=   0.000000
     celldm(4)=   0.000000  celldm(5)=   0.000000  celldm(6)=   0.000000

     crystal axes: (cart. coord. in units of alat)
               a(1) = (   4.123557   0.000000   0.000000 )
               a(2) = (   0.000000   4.123557   0.000000 )
               a(3) = (   0.000000   0.000000   4.123557 )

     reciprocal axes: (cart. coord. in units 2 pi/alat)
               b(1) = (  0.242509  0.000000  0.000000 )
               b(2) = (  0.000000  0.242509  0.000000 )
               b(3) = (  0.000000  0.000000  0.242509 )

     PseudoPot. # 1 for Ta read from file:
     /home/vossj/suncat/psp/gbrv1.5pbe/Ta.UPF
     MD5 check sum: f8bbe9446314a3b8ea5d9f3e3836c939
     Pseudo is Ultrasoft + core correction, Zval = 13.0
     Generated by new atomic code, or converted to UPF format
     Using radial grid of  921 points,  7 beta functions with:
                l(1) =   0
                l(2) =   0
                l(3) =   1
                l(4) =   1
                l(5) =   2
                l(6) =   2
                l(7) =   3
     Q(r) pseudized with  6 coefficients,  rinner =    1.300   1.300   1.300
                                                       1.300   1.300   1.300
                                                       1.300

     PseudoPot. # 2 for Os read from file:
     /home/vossj/suncat/psp/gbrv1.5pbe/Os.UPF
     MD5 check sum: a3fb40a04f0c37c25c34bbc47164c9a8
     Pseudo is Ultrasoft + core correction, Zval = 16.0
     Generated by new atomic code, or converted to UPF format
     Using radial grid of  983 points,  8 beta functions with:
                l(1) =   0
                l(2) =   0
                l(3) =   1
                l(4) =   1
                l(5) =   2
                l(6) =   2
                l(7) =   3
                l(8) =   3
     Q(r) pseudized with  8 coefficients,  rinner =    1.150   1.150   1.150
                                                       1.150   1.150   1.150
                                                       1.150

     vdW kernel table read from file vdW_kernel_table
     MD5 check sum: 095c7af220d748ca6e76c0b4c6cfb241

     atomic species   valence    mass     pseudopotential
        Ta1           13.00   180.94788     Ta( 1.00)
        Os1           16.00   190.23000     Os( 1.00)

     48 Sym. Ops., with inversion, found (32 have fractional translation)

   Cartesian axes

     site n.     atom                  positions (alat units)
         1           Ta1 tau(   1) = (   0.0000000   0.0000000   0.0000000  )
         2           Ta1 tau(   2) = (   0.0000000   2.0617785   2.0617785  )
         3           Ta1 tau(   3) = (   2.0617785   0.0000000   2.0617785  )
         4           Os1 tau(   4) = (   2.0617785   2.0617785   0.0000000  )

     number of k points=    84  Fermi-Dirac smearing, width (Ry)=  0.0073
                       cart. coord. in units 2pi/alat
        k(    1) = (   0.0000000   0.0000000   0.0000000), wk =   0.0011574
        k(    2) = (   0.0000000   0.0000000   0.0202091), wk =   0.0069444
        k(    3) = (   0.0000000   0.0000000   0.0404182), wk =   0.0069444
        k(    4) = (   0.0000000   0.0000000   0.0606273), wk =   0.0069444
        k(    5) = (   0.0000000   0.0000000   0.0808364), wk =   0.0069444
        k(    6) = (   0.0000000   0.0000000   0.1010454), wk =   0.0069444
        k(    7) = (   0.0000000   0.0000000  -0.1212545), wk =   0.0034722
        k(    8) = (   0.0000000   0.0202091   0.0202091), wk =   0.0138889
        k(    9) = (   0.0000000   0.0202091   0.0404182), wk =   0.0277778
        k(   10) = (   0.0000000   0.0202091   0.0606273), wk =   0.0277778
        k(   11) = (   0.0000000   0.0202091   0.0808364), wk =   0.0277778
        k(   12) = (   0.0000000   0.0202091   0.1010454), wk =   0.0277778
        k(   13) = (   0.0000000   0.0202091  -0.1212545), wk =   0.0138889
        k(   14) = (   0.0000000   0.0404182   0.0404182), wk =   0.0138889
        k(   15) = (   0.0000000   0.0404182   0.0606273), wk =   0.0277778
        k(   16) = (   0.0000000   0.0404182   0.0808364), wk =   0.0277778
        k(   17) = (   0.0000000   0.0404182   0.1010454), wk =   0.0277778
        k(   18) = (   0.0000000   0.0404182  -0.1212545), wk =   0.0138889
        k(   19) = (   0.0000000   0.0606273   0.0606273), wk =   0.0138889
        k(   20) = (   0.0000000   0.0606273   0.0808364), wk =   0.0277778
        k(   21) = (   0.0000000   0.0606273   0.1010454), wk =   0.0277778
        k(   22) = (   0.0000000   0.0606273  -0.1212545), wk =   0.0138889
        k(   23) = (   0.0000000   0.0808364   0.0808364), wk =   0.0138889
        k(   24) = (   0.0000000   0.0808364   0.1010454), wk =   0.0277778
        k(   25) = (   0.0000000   0.0808364  -0.1212545), wk =   0.0138889
        k(   26) = (   0.0000000   0.1010454   0.1010454), wk =   0.0138889
        k(   27) = (   0.0000000   0.1010454  -0.1212545), wk =   0.0138889
        k(   28) = (   0.0000000  -0.1212545  -0.1212545), wk =   0.0034722
        k(   29) = (   0.0202091   0.0202091   0.0202091), wk =   0.0092593
        k(   30) = (   0.0202091   0.0202091   0.0404182), wk =   0.0277778
        k(   31) = (   0.0202091   0.0202091   0.0606273), wk =   0.0277778
        k(   32) = (   0.0202091   0.0202091   0.0808364), wk =   0.0277778
        k(   33) = (   0.0202091   0.0202091   0.1010454), wk =   0.0277778
        k(   34) = (   0.0202091   0.0202091  -0.1212545), wk =   0.0138889
        k(   35) = (   0.0202091   0.0404182   0.0404182), wk =   0.0277778
        k(   36) = (   0.0202091   0.0404182   0.0606273), wk =   0.0555556
        k(   37) = (   0.0202091   0.0404182   0.0808364), wk =   0.0555556
        k(   38) = (   0.0202091   0.0404182   0.1010454), wk =   0.0555556
        k(   39) = (   0.0202091   0.0404182  -0.1212545), wk =   0.0277778
        k(   40) = (   0.0202091   0.0606273   0.0606273), wk =   0.0277778
        k(   41) = (   0.0202091   0.0606273   0.0808364), wk =   0.0555556
        k(   42) = (   0.0202091   0.0606273   0.1010454), wk =   0.0555556
        k(   43) = (   0.0202091   0.0606273  -0.1212545), wk =   0.0277778
        k(   44) = (   0.0202091   0.0808364   0.0808364), wk =   0.0277778
        k(   45) = (   0.0202091   0.0808364   0.1010454), wk =   0.0555556
        k(   46) = (   0.0202091   0.0808364  -0.1212545), wk =   0.0277778
        k(   47) = (   0.0202091   0.1010454   0.1010454), wk =   0.0277778
        k(   48) = (   0.0202091   0.1010454  -0.1212545), wk =   0.0277778
        k(   49) = (   0.0202091  -0.1212545  -0.1212545), wk =   0.0069444
        k(   50) = (   0.0404182   0.0404182   0.0404182), wk =   0.0092593
        k(   51) = (   0.0404182   0.0404182   0.0606273), wk =   0.0277778
        k(   52) = (   0.0404182   0.0404182   0.0808364), wk =   0.0277778
        k(   53) = (   0.0404182   0.0404182   0.1010454), wk =   0.0277778
        k(   54) = (   0.0404182   0.0404182  -0.1212545), wk =   0.0138889
        k(   55) = (   0.0404182   0.0606273   0.0606273), wk =   0.0277778
        k(   56) = (   0.0404182   0.0606273   0.0808364), wk =   0.0555556
        k(   57) = (   0.0404182   0.0606273   0.1010454), wk =   0.0555556
        k(   58) = (   0.0404182   0.0606273  -0.1212545), wk =   0.0277778
        k(   59) = (   0.0404182   0.0808364   0.0808364), wk =   0.0277778
        k(   60) = (   0.0404182   0.0808364   0.1010454), wk =   0.0555556
[...]
        k(   70) = (   0.0606273   0.0808364   0.1010454), wk =   0.0555556
        k(   71) = (   0.0606273   0.0808364  -0.1212545), wk =   0.0277778
        k(   72) = (   0.0606273   0.1010454   0.1010454), wk =   0.0277778
        k(   73) = (   0.0606273   0.1010454  -0.1212545), wk =   0.0277778
        k(   74) = (   0.0606273  -0.1212545  -0.1212545), wk =   0.0069444
        k(   75) = (   0.0808364   0.0808364   0.0808364), wk =   0.0092593
        k(   76) = (   0.0808364   0.0808364   0.1010454), wk =   0.0277778
        k(   77) = (   0.0808364   0.0808364  -0.1212545), wk =   0.0138889
        k(   78) = (   0.0808364   0.1010454   0.1010454), wk =   0.0277778
        k(   79) = (   0.0808364   0.1010454  -0.1212545), wk =   0.0277778
        k(   80) = (   0.0808364  -0.1212545  -0.1212545), wk =   0.0069444
        k(   81) = (   0.1010454   0.1010454   0.1010454), wk =   0.0092593
        k(   82) = (   0.1010454   0.1010454  -0.1212545), wk =   0.0138889
        k(   83) = (   0.1010454  -0.1212545  -0.1212545), wk =   0.0069444
        k(   84) = (  -0.1212545  -0.1212545  -0.1212545), wk =   0.0011574

     Largest allocated arrays     est. size (Mb)     dimensions
     Largest temporary arrays     est. size (Mb)     dimensions

     Initial potential from superposition of free atoms
     Check: negative starting charge=   -0.407012

     starting charge   54.49663, renormalised to   55.00000

     negative rho (up, down):  4.108E-01 0.000E+00

     *
     * You are using vdW-DF for exchange-correlation in this calculation.
     * Please cite the following three references that made this development
     * possible:
     *
     *   M. Dion, H. Rydberg, E. Schroder, D. C. Langreth, and
     *   B. I. Lundqvist, Phys. Rev. Lett. 92, 246401 (2004).
     *
     *   T. Thonhauser, V. R. Cooper, S. Li, A. Puzder, P. Hyldgaard, and
     *   D. C. Langreth, Phys. Rev. B 76, 125112 (2007).
     *
     *   G. Roman-Perez and J. M. Soler, Phys. Rev. Lett. 103, 096102 (2009).
     *
     *
     * If you are using vdW-DF2, please also cite:
     *
     *   K. Lee, E. D. Murray, L. Kong, B. I. Lundqvist, and
     *   D. C. Langreth, Phys. Rev. B 82, 081101(R) (2010).
     *
     *
     * If you are calculating the stress with vdW-DF, please also cite:
     *
     *   R. Sabatini, E. Kucukbenli, B. Kolb, T. Thonhauser, and
     *   S. de Gironcoli, J. Phys.: Condens. Matter 24, 424209 (2012).
     *

     Carrying out vdW-DF run using the following parameters:

     Nqs =      20    Nr_points =    1024   r_max =   100.000
     q_mesh =
               0.00001000     0.04494208     0.09755937     0.15916263
               0.23128650     0.31572767     0.41458969     0.53033537
               0.66584808     0.82450364     1.01025438     1.22772762
               1.48234092     1.78043706     2.12944203     2.53805004
               3.01644009     3.57652955     4.23227104     5.00000000

     Gradients computed in reciprocal space

     Starting wfc are   52 randomized atomic wfcs

     Self-consistent Calculation

     iteration #  1     ecut=    58.80 Ry     beta=0.10
     Davidson diagonalization with overlap
     ethr =  1.00E-02,  avg # of iterations =  4.3

[...]

     total energy              =    -629.68784234 Ry
     Harris-Foulkes estimate   =    -629.71190377 Ry
     estimated scf accuracy    <       0.55581112 Ry

[...]

     total energy              =    -629.61302873 Ry
     Harris-Foulkes estimate   =    -629.61302830 Ry
     estimated scf accuracy    <       0.00000003 Ry

     iteration # 13     ecut=    58.80 Ry     beta=0.10
     Davidson diagonalization with overlap
     ethr =  4.56E-11,  avg # of iterations =  1.3

     negative rho (up, down):  4.299E-01 0.000E+00

     End of self-consistent calculation

          k = 0.0000 0.0000 0.0000 (  3695 PWs)   bands (ev):

   -66.6495 -48.7153 -48.6014 -48.6014 -25.9084 -25.9084 -25.9084 -15.4305
   -15.4305 -15.4305 -14.9374 -14.9374 -14.9374 -14.6231 -14.6231 -14.6231
    10.8896  14.3930  14.3930  14.5050  15.3224  15.3224  15.3224  19.0365
    19.0365  19.0365  21.5254  21.5254  22.2858  22.2858  22.2858  24.3006
    24.3006  24.3006  24.4762  24.4762  25.5074  26.2387  26.2387  26.2387
    30.3005  30.3005  30.3005  30.7071  31.2716  31.2716  31.2716

[...]

          k = 0.1010-0.1213-0.1213 (  3588 PWs)   bands (ev):

[...]

          k =-0.1213-0.1213-0.1213 (  3544 PWs)   bands (ev):

   -66.6492 -48.6389 -48.6389 -48.6389 -25.9134 -25.9134 -25.9134 -15.7038
   -15.3594 -15.3594 -15.3594 -14.6635 -14.6635 -14.6635 -14.6436 -14.6436
    14.0926  14.3079  14.3079  14.3079  17.8876  17.8876  18.7269  18.7269
    18.7269  19.5762  19.5762  19.5762  19.9220  19.9220  19.9220  20.2783
    23.7979  23.7979  23.7979  24.2842  24.2842  25.5042  25.5042  25.5042
    28.6825  29.7055  29.7055  29.7055  31.6678  31.6709  31.6709

     the Fermi energy is    19.4112 ev

!    total energy              =    -629.61303054 Ry
     Harris-Foulkes estimate   =    -629.61302873 Ry
     estimated scf accuracy    <          1.6E-09 Ry

     The total energy is the sum of the following terms:

     one-electron contribution =     -84.19217331 Ry
     hartree contribution      =      71.26625441 Ry
     xc contribution           =    -169.76162648 Ry
     ewald contribution        =    -446.91296829 Ry
     smearing contrib. (-TS)   =      -0.01251687 Ry

     convergence has been achieved in  13 iterations

     Forces acting on atoms (Ry/au):

     negative rho (up, down):  4.299E-01 0.000E+00
     atom    1 type  1   force =     0.00000000   -0.00000000    0.00000000
     atom    2 type  1   force =     0.00000000   -0.00000000    0.00000000
     atom    3 type  1   force =     0.00000000    0.00000000    0.00000000
     atom    4 type  2   force =     0.00000000   -0.00000000    0.00000000

     Total force =     0.000000     Total SCF correction =     0.000000
 !ASE

     General routines

     Parallel routines

   This run was terminated on:  22:54:29  25Oct2017

   JOB DONE.