     Program PWSCF v.5.1rc2 (svn rev. ) starts on 26Oct2017 at 22: 9:11

     Current dimensions of program PWSCF are:
     Max number of different atomic species (ntypx) = 10
     Max number of k-points (npk) =  40000
     Max angular momentum in pseudopotentials (lmaxx) =  3

     IMPORTANT: XC functional enforced from input :
     Exchange-correlation      = BEEF-VDW ( 1  4 27 13 2)
     Any further DFT definition will be discarded
     Please, verify this is what you really want

     Subspace diagonalization in iterative solution of the eigenvalue problem:
     a serial algorithm will be used

     Generating pointlists ...
     new r_m :   0.4125 (alat units)  0.7795 (a.u.) for type    1
     new r_m :   0.4125 (alat units)  0.7795 (a.u.) for type    2

     bravais-lattice index     =            0
     lattice parameter (alat)  =       1.8897  a.u.
     unit-cell volume          =     322.4918 (a.u.)^3
     number of atoms/cell      =            4
     number of atomic types    =            2
     number of electrons       =        70.00
     number of Kohn-Sham states=           55
     kinetic-energy cutoff     =      58.7989  Ry
     charge density cutoff     =     587.9892  Ry
     convergence threshold     =      7.3E-09
     mixing beta               =       0.1000
     number of iterations used =           10  local-TF  mixing
     Exchange-correlation      = BEEF-VDW ( 1  4 27 13 2)
     nstep                     =           50

     celldm(1)=   1.889726  celldm(2)=   0.000000  celldm(3)=   0.000000
     celldm(4)=   0.000000  celldm(5)=   0.000000  celldm(6)=   0.000000

     crystal axes: (cart. coord. in units of alat)
               a(1) = (   3.628892   0.000000   0.000000 )
               a(2) = (   0.000000   3.628892   0.000000 )
               a(3) = (   0.000000   0.000000   3.628892 )

     reciprocal axes: (cart. coord. in units 2 pi/alat)
               b(1) = (  0.275566  0.000000  0.000000 )
               b(2) = (  0.000000  0.275566  0.000000 )
               b(3) = (  0.000000  0.000000  0.275566 )

     PseudoPot. # 1 for Ni read from file:
     /home/vossj/suncat/psp/gbrv1.5pbe/Ni.UPF
     MD5 check sum: 1ee80287db30b12d2bc1f57a5b5d6409
     Pseudo is Ultrasoft + core correction, Zval = 18.0
     Generated by new atomic code, or converted to UPF format
     Using radial grid of  865 points,  6 beta functions with:
                l(1) =   0
                l(2) =   0
                l(3) =   1
                l(4) =   1
                l(5) =   2
                l(6) =   2
     Q(r) pseudized with 10 coefficients,  rinner =    0.980   0.980   0.980
                                                       0.980   0.980

     PseudoPot. # 2 for Ru read from file:
     /home/vossj/suncat/psp/gbrv1.5pbe/Ru.UPF
     MD5 check sum: 7158a806dd851261a58e6920c40ebe78
     Pseudo is Ultrasoft + core correction, Zval = 16.0
     Generated by new atomic code, or converted to UPF format
     Using radial grid of  967 points,  6 beta functions with:
                l(1) =   0
                l(2) =   0
                l(3) =   1
                l(4) =   1
                l(5) =   2
                l(6) =   2
     Q(r) pseudized with  8 coefficients,  rinner =    1.300   1.300   1.300
                                                       1.300   1.300

     vdW kernel table read from file vdW_kernel_table
     MD5 check sum: 095c7af220d748ca6e76c0b4c6cfb241

     atomic species   valence    mass     pseudopotential
        Ni1           18.00    58.69340     Ni( 1.00)
        Ru1           16.00   101.07000     Ru( 1.00)

     Starting magnetic structure
     atomic species   magnetization
        Ni1          0.111
        Ru1          0.125

     48 Sym. Ops., with inversion, found (32 have fractional translation)

   Cartesian axes

     site n.     atom                  positions (alat units)
         1           Ni1 tau(   1) = (   0.0000000   0.0000000   0.0000000  )
         2           Ni1 tau(   2) = (   0.0000000   1.8144460   1.8144460  )
         3           Ni1 tau(   3) = (   1.8144460   0.0000000   1.8144460  )
         4           Ru1 tau(   4) = (   1.8144460   1.8144460   0.0000000  )

     number of k points=   168  Fermi-Dirac smearing, width (Ry)=  0.0073

     Number of k-points >= 100: set verbosity='high' to print them.

     Largest allocated arrays     est. size (Mb)     dimensions
     Largest temporary arrays     est. size (Mb)     dimensions

     Check: negative/imaginary core charge=   -0.000009    0.000000

     Initial potential from superposition of free atoms
     Check: negative starting charge=(component1):   -0.042612
     Check: negative starting charge=(component2):   -0.033142

     starting charge   62.99998, renormalised to   70.00000

     negative rho (up, down):  4.735E-02 3.682E-02

     *
     * You are using vdW-DF for exchange-correlation in this calculation.
     * Please cite the following three references that made this development
     * possible:
     *
     *   M. Dion, H. Rydberg, E. Schroder, D. C. Langreth, and
     *   B. I. Lundqvist, Phys. Rev. Lett. 92, 246401 (2004).
     *
     *   T. Thonhauser, V. R. Cooper, S. Li, A. Puzder, P. Hyldgaard, and
     *   D. C. Langreth, Phys. Rev. B 76, 125112 (2007).
     *
     *   G. Roman-Perez and J. M. Soler, Phys. Rev. Lett. 103, 096102 (2009).
     *
     *
     * If you are using vdW-DF2, please also cite:
     *
     *   K. Lee, E. D. Murray, L. Kong, B. I. Lundqvist, and
     *   D. C. Langreth, Phys. Rev. B 82, 081101(R) (2010).
     *
     *
     * If you are calculating the stress with vdW-DF, please also cite:
     *
     *   R. Sabatini, E. Kucukbenli, B. Kolb, T. Thonhauser, and
     *   S. de Gironcoli, J. Phys.: Condens. Matter 24, 424209 (2012).
     *

     Carrying out vdW-DF run using the following parameters:

     Nqs =      20    Nr_points =    1024   r_max =   100.000
     q_mesh =
               0.00001000     0.04494208     0.09755937     0.15916263
               0.23128650     0.31572767     0.41458969     0.53033537
               0.66584808     0.82450364     1.01025438     1.22772762
               1.48234092     1.78043706     2.12944203     2.53805004
               3.01644009     3.57652955     4.23227104     5.00000000

     Gradients computed in reciprocal space

     Starting wfc are   52 randomized atomic wfcs +    3 random wfc

     Self-consistent Calculation

     iteration #  1     ecut=    58.80 Ry     beta=0.10
     Davidson diagonalization with overlap
     ethr =  1.00E-02,  avg # of iterations =  4.2

[...]

     Magnetic moment per site:
     atom:    1    charge:   10.1751    magn:    1.0587    constr:    0.0000
     atom:    2    charge:   10.1751    magn:    1.0587    constr:    0.0000
     atom:    3    charge:   10.1751    magn:    1.0587    constr:    0.0000
     atom:    4    charge:    3.1163    magn:    0.3594    constr:    0.0000

     total energy              =   -1242.26895252 Ry
     Harris-Foulkes estimate   =   -1249.54010395 Ry
     estimated scf accuracy    <     106.33026409 Ry

     total magnetization       =     2.10 Bohr mag/cell
     absolute magnetization    =     2.16 Bohr mag/cell

[...]

     total energy              =   -1228.48816226 Ry
     Harris-Foulkes estimate   =   -1228.48816228 Ry
     estimated scf accuracy    <       0.00000002 Ry

[...]

     iteration # 57     ecut=    58.80 Ry     beta=0.10
     Davidson diagonalization with overlap
     ethr =  2.80E-11,  avg # of iterations =  2.0

     negative rho (up, down):  3.677E-02 4.063E-02

     Magnetic moment per site:
     atom:    1    charge:    9.3480    magn:    0.4335    constr:    0.0000
     atom:    2    charge:    9.3480    magn:    0.4335    constr:    0.0000
     atom:    3    charge:    9.3480    magn:    0.4335    constr:    0.0000
     atom:    4    charge:    2.8415    magn:    0.1626    constr:    0.0000

     End of self-consistent calculation

     Number of k-points >= 100: set verbosity='high' to print the bands.

     the Fermi energy is    18.5387 ev

!    total energy              =   -1228.48816233 Ry
     Harris-Foulkes estimate   =   -1228.48816230 Ry
     estimated scf accuracy    <          5.1E-09 Ry

     The total energy is the sum of the following terms:

     one-electron contribution =    -636.74758231 Ry
     hartree contribution      =     365.61550743 Ry
     xc contribution           =    -137.34423215 Ry
     ewald contribution        =    -819.99687223 Ry
     smearing contrib. (-TS)   =      -0.01498307 Ry

     total magnetization       =     3.26 Bohr mag/cell
     absolute magnetization    =     3.57 Bohr mag/cell

     convergence has been achieved in  57 iterations

     Forces acting on atoms (Ry/au):

     negative rho (up, down):  3.677E-02 4.063E-02
     atom    1 type  1   force =     0.00000000    0.00000000   -0.00000000
     atom    2 type  1   force =     0.00000000    0.00000000   -0.00000000
     atom    3 type  1   force =     0.00000000    0.00000000   -0.00000000
     atom    4 type  2   force =     0.00000000    0.00000000    0.00000000

     Total force =     0.000000     Total SCF correction =     0.000000
 !ASE

     General routines

     Parallel routines

   This run was terminated on:  22:16:27  26Oct2017

   JOB DONE.