     Program PWSCF v.5.1rc2 (svn rev. ) starts on 17Feb2018 at 13:42:48

     Current dimensions of program PWSCF are:
     Max number of different atomic species (ntypx) = 10
     Max number of k-points (npk) =  40000
     Max angular momentum in pseudopotentials (lmaxx) =  3

     IMPORTANT: XC functional enforced from input :
     Exchange-correlation      = BEEF-VDW ( 1  4 27 13 2)
     Any further DFT definition will be discarded
     Please, verify this is what you really want

     Subspace diagonalization in iterative solution of the eigenvalue problem:
     a serial algorithm will be used

     bravais-lattice index     =            0
     lattice parameter (alat)  =       1.8897  a.u.
     unit-cell volume          =     659.6007 (a.u.)^3
     number of atoms/cell      =            4
     number of atomic types    =            2
     number of electrons       =        72.00
     number of Kohn-Sham states=           56
     kinetic-energy cutoff     =      58.7989  Ry
     charge density cutoff     =     587.9892  Ry
     convergence threshold     =      7.3E-09
     mixing beta               =       0.1000
     number of iterations used =           10  local-TF  mixing
     Exchange-correlation      = BEEF-VDW ( 1  4 27 13 2)
     nstep                     =           50

     celldm(1)=   1.889726  celldm(2)=   0.000000  celldm(3)=   0.000000
     celldm(4)=   0.000000  celldm(5)=   0.000000  celldm(6)=   0.000000

     crystal axes: (cart. coord. in units of alat)
               a(1) = (   4.606398   0.000000   0.000000 )
               a(2) = (   0.000000   4.606398   0.000000 )
               a(3) = (   0.000000   0.000000   4.606398 )

     reciprocal axes: (cart. coord. in units 2 pi/alat)
               b(1) = (  0.217089  0.000000  0.000000 )
               b(2) = (  0.000000  0.217089  0.000000 )
               b(3) = (  0.000000  0.000000  0.217089 )

     PseudoPot. # 1 for Ga read from file:
     /home/mamunm/src/pseudo/gbrv1.5pbe/Ga.UPF
     MD5 check sum: ccd671392a58a050fbb373893b4fcd66
     Pseudo is Ultrasoft + core correction, Zval = 19.0
     Generated by new atomic code, or converted to UPF format
     Using radial grid of  871 points,  6 beta functions with:
                l(1) =   0
                l(2) =   0
                l(3) =   1
                l(4) =   1
                l(5) =   2
                l(6) =   2
     Q(r) pseudized with  8 coefficients,  rinner =    1.250   1.250   1.250
                                                       1.250   1.250

     PseudoPot. # 2 for Bi read from file:
     /home/mamunm/src/pseudo/gbrv1.5pbe/Bi.UPF
     MD5 check sum: 81103212dc04adf40945787f699eab19
     Pseudo is Ultrasoft + core correction, Zval = 15.0
     Generated by new atomic code, or converted to UPF format
     Using radial grid of  899 points,  6 beta functions with:
                l(1) =   0
                l(2) =   0
                l(3) =   1
                l(4) =   1
                l(5) =   2
                l(6) =   2
     Q(r) pseudized with  6 coefficients,  rinner =    1.000   1.000   1.000
                                                       1.000   1.000

     vdW kernel table read from file vdW_kernel_table
     MD5 check sum: 095c7af220d748ca6e76c0b4c6cfb241

     atomic species   valence    mass     pseudopotential
        Ga1           19.00    69.72300     Ga( 1.00)
        Bi1           15.00   208.98040     Bi( 1.00)

     48 Sym. Ops., with inversion, found (32 have fractional translation)

   Cartesian axes

     site n.     atom                  positions (alat units)
         1           Ga1 tau(   1) = (   0.0000000   0.0000000   0.0000000  )
         2           Ga1 tau(   2) = (   0.0000000   2.3031992   2.3031992  )
         3           Ga1 tau(   3) = (   2.3031992   0.0000000   2.3031992  )
         4           Bi1 tau(   4) = (   2.3031992   2.3031992   0.0000000  )

     number of k points=    84  Fermi-Dirac smearing, width (Ry)=  0.0073
                       cart. coord. in units 2pi/alat
        k(    1) = (   0.0000000   0.0000000   0.0000000), wk =   0.0011574
        k(    2) = (   0.0000000   0.0000000   0.0180908), wk =   0.0069444
        k(    3) = (   0.0000000   0.0000000   0.0361816), wk =   0.0069444
        k(    4) = (   0.0000000   0.0000000   0.0542723), wk =   0.0069444
        k(    5) = (   0.0000000   0.0000000   0.0723631), wk =   0.0069444
        k(    6) = (   0.0000000   0.0000000   0.0904539), wk =   0.0069444
        k(    7) = (   0.0000000   0.0000000  -0.1085447), wk =   0.0034722
        k(    8) = (   0.0000000   0.0180908   0.0180908), wk =   0.0138889
        k(    9) = (   0.0000000   0.0180908   0.0361816), wk =   0.0277778
        k(   10) = (   0.0000000   0.0180908   0.0542723), wk =   0.0277778
        k(   11) = (   0.0000000   0.0180908   0.0723631), wk =   0.0277778
        k(   12) = (   0.0000000   0.0180908   0.0904539), wk =   0.0277778
        k(   13) = (   0.0000000   0.0180908  -0.1085447), wk =   0.0138889
        k(   14) = (   0.0000000   0.0361816   0.0361816), wk =   0.0138889
        k(   15) = (   0.0000000   0.0361816   0.0542723), wk =   0.0277778
        k(   16) = (   0.0000000   0.0361816   0.0723631), wk =   0.0277778
        k(   17) = (   0.0000000   0.0361816   0.0904539), wk =   0.0277778
        k(   18) = (   0.0000000   0.0361816  -0.1085447), wk =   0.0138889
        k(   19) = (   0.0000000   0.0542723   0.0542723), wk =   0.0138889
        k(   20) = (   0.0000000   0.0542723   0.0723631), wk =   0.0277778
        k(   21) = (   0.0000000   0.0542723   0.0904539), wk =   0.0277778
        k(   22) = (   0.0000000   0.0542723  -0.1085447), wk =   0.0138889
        k(   23) = (   0.0000000   0.0723631   0.0723631), wk =   0.0138889
        k(   24) = (   0.0000000   0.0723631   0.0904539), wk =   0.0277778
        k(   25) = (   0.0000000   0.0723631  -0.1085447), wk =   0.0138889
        k(   26) = (   0.0000000   0.0904539   0.0904539), wk =   0.0138889
        k(   27) = (   0.0000000   0.0904539  -0.1085447), wk =   0.0138889
        k(   28) = (   0.0000000  -0.1085447  -0.1085447), wk =   0.0034722
        k(   29) = (   0.0180908   0.0180908   0.0180908), wk =   0.0092593
        k(   30) = (   0.0180908   0.0180908   0.0361816), wk =   0.0277778
        k(   31) = (   0.0180908   0.0180908   0.0542723), wk =   0.0277778
        k(   32) = (   0.0180908   0.0180908   0.0723631), wk =   0.0277778
        k(   33) = (   0.0180908   0.0180908   0.0904539), wk =   0.0277778
        k(   34) = (   0.0180908   0.0180908  -0.1085447), wk =   0.0138889
        k(   35) = (   0.0180908   0.0361816   0.0361816), wk =   0.0277778
        k(   36) = (   0.0180908   0.0361816   0.0542723), wk =   0.0555556
        k(   37) = (   0.0180908   0.0361816   0.0723631), wk =   0.0555556
        k(   38) = (   0.0180908   0.0361816   0.0904539), wk =   0.0555556
        k(   39) = (   0.0180908   0.0361816  -0.1085447), wk =   0.0277778
        k(   40) = (   0.0180908   0.0542723   0.0542723), wk =   0.0277778
        k(   41) = (   0.0180908   0.0542723   0.0723631), wk =   0.0555556
        k(   42) = (   0.0180908   0.0542723   0.0904539), wk =   0.0555556
        k(   43) = (   0.0180908   0.0542723  -0.1085447), wk =   0.0277778
        k(   44) = (   0.0180908   0.0723631   0.0723631), wk =   0.0277778
        k(   45) = (   0.0180908   0.0723631   0.0904539), wk =   0.0555556
        k(   46) = (   0.0180908   0.0723631  -0.1085447), wk =   0.0277778
        k(   47) = (   0.0180908   0.0904539   0.0904539), wk =   0.0277778
        k(   48) = (   0.0180908   0.0904539  -0.1085447), wk =   0.0277778
        k(   49) = (   0.0180908  -0.1085447  -0.1085447), wk =   0.0069444
        k(   50) = (   0.0361816   0.0361816   0.0361816), wk =   0.0092593
        k(   51) = (   0.0361816   0.0361816   0.0542723), wk =   0.0277778
        k(   52) = (   0.0361816   0.0361816   0.0723631), wk =   0.0277778
        k(   53) = (   0.0361816   0.0361816   0.0904539), wk =   0.0277778
        k(   54) = (   0.0361816   0.0361816  -0.1085447), wk =   0.0138889
        k(   55) = (   0.0361816   0.0542723   0.0542723), wk =   0.0277778
        k(   56) = (   0.0361816   0.0542723   0.0723631), wk =   0.0555556
        k(   57) = (   0.0361816   0.0542723   0.0904539), wk =   0.0555556
        k(   58) = (   0.0361816   0.0542723  -0.1085447), wk =   0.0277778
        k(   59) = (   0.0361816   0.0723631   0.0723631), wk =   0.0277778
        k(   60) = (   0.0361816   0.0723631   0.0904539), wk =   0.0555556
[...]
        k(   70) = (   0.0542723   0.0723631   0.0904539), wk =   0.0555556
        k(   71) = (   0.0542723   0.0723631  -0.1085447), wk =   0.0277778
        k(   72) = (   0.0542723   0.0904539   0.0904539), wk =   0.0277778
        k(   73) = (   0.0542723   0.0904539  -0.1085447), wk =   0.0277778
        k(   74) = (   0.0542723  -0.1085447  -0.1085447), wk =   0.0069444
        k(   75) = (   0.0723631   0.0723631   0.0723631), wk =   0.0092593
        k(   76) = (   0.0723631   0.0723631   0.0904539), wk =   0.0277778
        k(   77) = (   0.0723631   0.0723631  -0.1085447), wk =   0.0138889
        k(   78) = (   0.0723631   0.0904539   0.0904539), wk =   0.0277778
        k(   79) = (   0.0723631   0.0904539  -0.1085447), wk =   0.0277778
        k(   80) = (   0.0723631  -0.1085447  -0.1085447), wk =   0.0069444
        k(   81) = (   0.0904539   0.0904539   0.0904539), wk =   0.0092593
        k(   82) = (   0.0904539   0.0904539  -0.1085447), wk =   0.0138889
        k(   83) = (   0.0904539  -0.1085447  -0.1085447), wk =   0.0069444
        k(   84) = (  -0.1085447  -0.1085447  -0.1085447), wk =   0.0011574

     Largest allocated arrays     est. size (Mb)     dimensions
     Largest temporary arrays     est. size (Mb)     dimensions

     Initial potential from superposition of free atoms
     Check: negative starting charge=   -0.042685

     starting charge   67.99996, renormalised to   72.00000

     negative rho (up, down):  4.520E-02 0.000E+00

     *
     * You are using vdW-DF for exchange-correlation in this calculation.
     * Please cite the following three references that made this development
     * possible:
     *
     *   M. Dion, H. Rydberg, E. Schroder, D. C. Langreth, and
     *   B. I. Lundqvist, Phys. Rev. Lett. 92, 246401 (2004).
     *
     *   T. Thonhauser, V. R. Cooper, S. Li, A. Puzder, P. Hyldgaard, and
     *   D. C. Langreth, Phys. Rev. B 76, 125112 (2007).
     *
     *   G. Roman-Perez and J. M. Soler, Phys. Rev. Lett. 103, 096102 (2009).
     *
     *
     * If you are using vdW-DF2, please also cite:
     *
     *   K. Lee, E. D. Murray, L. Kong, B. I. Lundqvist, and
     *   D. C. Langreth, Phys. Rev. B 82, 081101(R) (2010).
     *
     *
     * If you are calculating the stress with vdW-DF, please also cite:
     *
     *   R. Sabatini, E. Kucukbenli, B. Kolb, T. Thonhauser, and
     *   S. de Gironcoli, J. Phys.: Condens. Matter 24, 424209 (2012).
     *

     Carrying out vdW-DF run using the following parameters:

     Nqs =      20    Nr_points =    1024   r_max =   100.000
     q_mesh =
               0.00001000     0.04494208     0.09755937     0.15916263
               0.23128650     0.31572767     0.41458969     0.53033537
               0.66584808     0.82450364     1.01025438     1.22772762
               1.48234092     1.78043706     2.12944203     2.53805004
               3.01644009     3.57652955     4.23227104     5.00000000

     Gradients computed in reciprocal space

     Starting wfc are   45 randomized atomic wfcs +   11 random wfc

     Self-consistent Calculation

     iteration #  1     ecut=    58.80 Ry     beta=0.10
     Davidson diagonalization with overlap
     ethr =  1.00E-02,  avg # of iterations =  5.1

[...]

     total energy              =   -1440.74693400 Ry
     Harris-Foulkes estimate   =   -1444.11701964 Ry
     estimated scf accuracy    <      46.84988477 Ry

[...]

     total energy              =   -1436.95192568 Ry
     Harris-Foulkes estimate   =   -1436.95191894 Ry
     estimated scf accuracy    <       0.00000006 Ry

     iteration # 17     ecut=    58.80 Ry     beta=0.10
     Davidson diagonalization with overlap
     ethr =  8.93E-11,  avg # of iterations =  2.0

     negative rho (up, down):  4.505E-02 0.000E+00

     End of self-consistent calculation

          k = 0.0000 0.0000 0.0000 (  4945 PWs)   bands (ev):

   -85.0616 -85.0616 -85.0616 -85.0580 -85.0580 -85.0580 -85.0580 -85.0580
   -85.0580 -13.4695 -13.4695 -13.4641 -13.4641 -13.4641  -5.4716  -5.4623
    -5.4623  -5.4623  -5.4123  -5.4123  -5.3659  -5.3659  -5.3659  -5.3357
    -5.3357  -5.3065  -5.2895  -5.2895  -5.2895  -2.1881   3.5379   6.4825
     6.4825   6.8922   6.8922   6.8922  12.7233  12.7233  12.7233  13.3341
    13.3341  13.3341  16.1544  16.3370  16.3370  16.9481  16.9481  16.9481
    18.6996  18.6996  18.6996  22.6979  23.3280  23.3280  23.3280  24.5319

[...]

          k = 0.0905-0.1085-0.1085 (  4980 PWs)   bands (ev):

[...]

          k =-0.1085-0.1085-0.1085 (  5040 PWs)   bands (ev):

   -85.0621 -85.0614 -85.0614 -85.0583 -85.0583 -85.0583 -85.0578 -85.0578
   -85.0578 -13.4690 -13.4690 -13.4690 -13.4572 -13.4572  -5.4796  -5.4240
    -5.4240  -5.4240  -5.4135  -5.4135  -5.4135  -5.3525  -5.3525  -5.3507
    -5.3507  -5.3507  -5.3028  -5.3028  -5.3028  -0.6095   4.5999   4.5999
     4.5999   5.6103   5.6103   5.6103   6.7317  16.2753  16.2753  16.2753
    16.9344  16.9344  16.9344  17.3491  17.3491  20.2803  21.3870  21.3870
    21.3870  21.6987  21.6987  21.6987  21.9952  21.9952  22.0072  22.0072

     the Fermi energy is     9.6803 ev

!    total energy              =   -1436.95195465 Ry
     Harris-Foulkes estimate   =   -1436.95192570 Ry
     estimated scf accuracy    <          3.3E-09 Ry

     The total energy is the sum of the following terms:

     one-electron contribution =   -1131.54647348 Ry
     hartree contribution      =     596.01248408 Ry
     xc contribution           =    -215.69786752 Ry
     ewald contribution        =    -685.71558538 Ry
     smearing contrib. (-TS)   =      -0.00451234 Ry

     convergence has been achieved in  17 iterations

     Forces acting on atoms (Ry/au):

     negative rho (up, down):  4.505E-02 0.000E+00
     atom    1 type  1   force =     0.00000000    0.00000000    0.00000000
     atom    2 type  1   force =     0.00000000   -0.00000000    0.00000000
     atom    3 type  1   force =     0.00000000   -0.00000000   -0.00000000
     atom    4 type  2   force =     0.00000000    0.00000000   -0.00000000

     Total force =     0.000000     Total SCF correction =     0.000000
 !ASE

     General routines

     Parallel routines

   This run was terminated on:  13:45: 3  17Feb2018

   JOB DONE.