     Program PWSCF v.5.1rc2 (svn rev. ) starts on 24Oct2017 at 21: 8:23

     Current dimensions of program PWSCF are:
     Max number of different atomic species (ntypx) = 10
     Max number of k-points (npk) =  40000
     Max angular momentum in pseudopotentials (lmaxx) =  3

     IMPORTANT: XC functional enforced from input :
     Exchange-correlation      = BEEF-VDW ( 1  4 27 13 2)
     Any further DFT definition will be discarded
     Please, verify this is what you really want

     Subspace diagonalization in iterative solution of the eigenvalue problem:
     a serial algorithm will be used

     bravais-lattice index     =            0
     lattice parameter (alat)  =       1.8897  a.u.
     unit-cell volume          =     404.1974 (a.u.)^3
     number of atoms/cell      =            4
     number of atomic types    =            2
     number of electrons       =        59.00
     number of Kohn-Sham states=           49
     kinetic-energy cutoff     =      58.7989  Ry
     charge density cutoff     =     587.9892  Ry
     convergence threshold     =      7.3E-09
     mixing beta               =       0.1000
     number of iterations used =           10  local-TF  mixing
     Exchange-correlation      = BEEF-VDW ( 1  4 27 13 2)
     nstep                     =           50

     celldm(1)=   1.889726  celldm(2)=   0.000000  celldm(3)=   0.000000
     celldm(4)=   0.000000  celldm(5)=   0.000000  celldm(6)=   0.000000

     crystal axes: (cart. coord. in units of alat)
               a(1) = (   3.912602   0.000000   0.000000 )
               a(2) = (   0.000000   3.912602   0.000000 )
               a(3) = (   0.000000   0.000000   3.912602 )

     reciprocal axes: (cart. coord. in units 2 pi/alat)
               b(1) = (  0.255584  0.000000  0.000000 )
               b(2) = (  0.000000  0.255584  0.000000 )
               b(3) = (  0.000000  0.000000  0.255584 )

     PseudoPot. # 1 for Tc read from file:
     /home/vossj/suncat/psp/gbrv1.5pbe/Tc.UPF
     MD5 check sum: 9eb49e5b028550b2339a02317eb7b844
     Pseudo is Ultrasoft + core correction, Zval = 15.0
     Generated by new atomic code, or converted to UPF format
     Using radial grid of  965 points,  6 beta functions with:
                l(1) =   0
                l(2) =   0
                l(3) =   1
                l(4) =   1
                l(5) =   2
                l(6) =   2
     Q(r) pseudized with  8 coefficients,  rinner =    1.300   1.300   1.300
                                                       1.300   1.300

     PseudoPot. # 2 for Mo read from file:
     /home/vossj/suncat/psp/gbrv1.5pbe/Mo.UPF
     MD5 check sum: 30c4dcd161f5d35cd49bb5239c51a633
     Pseudo is Ultrasoft + core correction, Zval = 14.0
     Generated by new atomic code, or converted to UPF format
     Using radial grid of  889 points,  6 beta functions with:
                l(1) =   0
                l(2) =   0
                l(3) =   1
                l(4) =   1
                l(5) =   2
                l(6) =   2
     Q(r) pseudized with  6 coefficients,  rinner =    1.000   1.000   1.000
                                                       1.000   1.000

     vdW kernel table read from file vdW_kernel_table
     MD5 check sum: 095c7af220d748ca6e76c0b4c6cfb241

     atomic species   valence    mass     pseudopotential
        Tc1           15.00    97.90721     Tc( 1.00)
        Mo1           14.00    95.95000     Mo( 1.00)

     48 Sym. Ops., with inversion, found (32 have fractional translation)

   Cartesian axes

     site n.     atom                  positions (alat units)
         1           Tc1 tau(   1) = (   0.0000000   0.0000000   0.0000000  )
         2           Tc1 tau(   2) = (   0.0000000   1.9563008   1.9563008  )
         3           Tc1 tau(   3) = (   1.9563008   0.0000000   1.9563008  )
         4           Mo1 tau(   4) = (   1.9563008   1.9563008   0.0000000  )

     number of k points=    84  Fermi-Dirac smearing, width (Ry)=  0.0073
                       cart. coord. in units 2pi/alat
        k(    1) = (   0.0000000   0.0000000   0.0000000), wk =   0.0011574
        k(    2) = (   0.0000000   0.0000000   0.0212987), wk =   0.0069444
        k(    3) = (   0.0000000   0.0000000   0.0425974), wk =   0.0069444
        k(    4) = (   0.0000000   0.0000000   0.0638961), wk =   0.0069444
        k(    5) = (   0.0000000   0.0000000   0.0851948), wk =   0.0069444
        k(    6) = (   0.0000000   0.0000000   0.1064935), wk =   0.0069444
        k(    7) = (   0.0000000   0.0000000  -0.1277922), wk =   0.0034722
        k(    8) = (   0.0000000   0.0212987   0.0212987), wk =   0.0138889
        k(    9) = (   0.0000000   0.0212987   0.0425974), wk =   0.0277778
        k(   10) = (   0.0000000   0.0212987   0.0638961), wk =   0.0277778
        k(   11) = (   0.0000000   0.0212987   0.0851948), wk =   0.0277778
        k(   12) = (   0.0000000   0.0212987   0.1064935), wk =   0.0277778
        k(   13) = (   0.0000000   0.0212987  -0.1277922), wk =   0.0138889
        k(   14) = (   0.0000000   0.0425974   0.0425974), wk =   0.0138889
        k(   15) = (   0.0000000   0.0425974   0.0638961), wk =   0.0277778
        k(   16) = (   0.0000000   0.0425974   0.0851948), wk =   0.0277778
        k(   17) = (   0.0000000   0.0425974   0.1064935), wk =   0.0277778
        k(   18) = (   0.0000000   0.0425974  -0.1277922), wk =   0.0138889
        k(   19) = (   0.0000000   0.0638961   0.0638961), wk =   0.0138889
        k(   20) = (   0.0000000   0.0638961   0.0851948), wk =   0.0277778
        k(   21) = (   0.0000000   0.0638961   0.1064935), wk =   0.0277778
        k(   22) = (   0.0000000   0.0638961  -0.1277922), wk =   0.0138889
        k(   23) = (   0.0000000   0.0851948   0.0851948), wk =   0.0138889
        k(   24) = (   0.0000000   0.0851948   0.1064935), wk =   0.0277778
        k(   25) = (   0.0000000   0.0851948  -0.1277922), wk =   0.0138889
        k(   26) = (   0.0000000   0.1064935   0.1064935), wk =   0.0138889
        k(   27) = (   0.0000000   0.1064935  -0.1277922), wk =   0.0138889
        k(   28) = (   0.0000000  -0.1277922  -0.1277922), wk =   0.0034722
        k(   29) = (   0.0212987   0.0212987   0.0212987), wk =   0.0092593
        k(   30) = (   0.0212987   0.0212987   0.0425974), wk =   0.0277778
        k(   31) = (   0.0212987   0.0212987   0.0638961), wk =   0.0277778
        k(   32) = (   0.0212987   0.0212987   0.0851948), wk =   0.0277778
        k(   33) = (   0.0212987   0.0212987   0.1064935), wk =   0.0277778
        k(   34) = (   0.0212987   0.0212987  -0.1277922), wk =   0.0138889
        k(   35) = (   0.0212987   0.0425974   0.0425974), wk =   0.0277778
        k(   36) = (   0.0212987   0.0425974   0.0638961), wk =   0.0555556
        k(   37) = (   0.0212987   0.0425974   0.0851948), wk =   0.0555556
        k(   38) = (   0.0212987   0.0425974   0.1064935), wk =   0.0555556
        k(   39) = (   0.0212987   0.0425974  -0.1277922), wk =   0.0277778
        k(   40) = (   0.0212987   0.0638961   0.0638961), wk =   0.0277778
        k(   41) = (   0.0212987   0.0638961   0.0851948), wk =   0.0555556
        k(   42) = (   0.0212987   0.0638961   0.1064935), wk =   0.0555556
        k(   43) = (   0.0212987   0.0638961  -0.1277922), wk =   0.0277778
        k(   44) = (   0.0212987   0.0851948   0.0851948), wk =   0.0277778
        k(   45) = (   0.0212987   0.0851948   0.1064935), wk =   0.0555556
        k(   46) = (   0.0212987   0.0851948  -0.1277922), wk =   0.0277778
        k(   47) = (   0.0212987   0.1064935   0.1064935), wk =   0.0277778
        k(   48) = (   0.0212987   0.1064935  -0.1277922), wk =   0.0277778
        k(   49) = (   0.0212987  -0.1277922  -0.1277922), wk =   0.0069444
        k(   50) = (   0.0425974   0.0425974   0.0425974), wk =   0.0092593
        k(   51) = (   0.0425974   0.0425974   0.0638961), wk =   0.0277778
        k(   52) = (   0.0425974   0.0425974   0.0851948), wk =   0.0277778
        k(   53) = (   0.0425974   0.0425974   0.1064935), wk =   0.0277778
        k(   54) = (   0.0425974   0.0425974  -0.1277922), wk =   0.0138889
        k(   55) = (   0.0425974   0.0638961   0.0638961), wk =   0.0277778
        k(   56) = (   0.0425974   0.0638961   0.0851948), wk =   0.0555556
        k(   57) = (   0.0425974   0.0638961   0.1064935), wk =   0.0555556
        k(   58) = (   0.0425974   0.0638961  -0.1277922), wk =   0.0277778
        k(   59) = (   0.0425974   0.0851948   0.0851948), wk =   0.0277778
        k(   60) = (   0.0425974   0.0851948   0.1064935), wk =   0.0555556
[...]
        k(   70) = (   0.0638961   0.0851948   0.1064935), wk =   0.0555556
        k(   71) = (   0.0638961   0.0851948  -0.1277922), wk =   0.0277778
        k(   72) = (   0.0638961   0.1064935   0.1064935), wk =   0.0277778
        k(   73) = (   0.0638961   0.1064935  -0.1277922), wk =   0.0277778
        k(   74) = (   0.0638961  -0.1277922  -0.1277922), wk =   0.0069444
        k(   75) = (   0.0851948   0.0851948   0.0851948), wk =   0.0092593
        k(   76) = (   0.0851948   0.0851948   0.1064935), wk =   0.0277778
        k(   77) = (   0.0851948   0.0851948  -0.1277922), wk =   0.0138889
        k(   78) = (   0.0851948   0.1064935   0.1064935), wk =   0.0277778
        k(   79) = (   0.0851948   0.1064935  -0.1277922), wk =   0.0277778
        k(   80) = (   0.0851948  -0.1277922  -0.1277922), wk =   0.0069444
        k(   81) = (   0.1064935   0.1064935   0.1064935), wk =   0.0092593
        k(   82) = (   0.1064935   0.1064935  -0.1277922), wk =   0.0138889
        k(   83) = (   0.1064935  -0.1277922  -0.1277922), wk =   0.0069444
        k(   84) = (  -0.1277922  -0.1277922  -0.1277922), wk =   0.0011574

     Largest allocated arrays     est. size (Mb)     dimensions
     Largest temporary arrays     est. size (Mb)     dimensions

     Check: negative/imaginary core charge=   -0.000009    0.000000

     Initial potential from superposition of free atoms
     Check: negative starting charge=   -0.370823

     starting charge   55.99885, renormalised to   59.00000

     negative rho (up, down):  3.907E-01 0.000E+00

     *
     * You are using vdW-DF for exchange-correlation in this calculation.
     * Please cite the following three references that made this development
     * possible:
     *
     *   M. Dion, H. Rydberg, E. Schroder, D. C. Langreth, and
     *   B. I. Lundqvist, Phys. Rev. Lett. 92, 246401 (2004).
     *
     *   T. Thonhauser, V. R. Cooper, S. Li, A. Puzder, P. Hyldgaard, and
     *   D. C. Langreth, Phys. Rev. B 76, 125112 (2007).
     *
     *   G. Roman-Perez and J. M. Soler, Phys. Rev. Lett. 103, 096102 (2009).
     *
     *
     * If you are using vdW-DF2, please also cite:
     *
     *   K. Lee, E. D. Murray, L. Kong, B. I. Lundqvist, and
     *   D. C. Langreth, Phys. Rev. B 82, 081101(R) (2010).
     *
     *
     * If you are calculating the stress with vdW-DF, please also cite:
     *
     *   R. Sabatini, E. Kucukbenli, B. Kolb, T. Thonhauser, and
     *   S. de Gironcoli, J. Phys.: Condens. Matter 24, 424209 (2012).
     *

     Carrying out vdW-DF run using the following parameters:

     Nqs =      20    Nr_points =    1024   r_max =   100.000
     q_mesh =
               0.00001000     0.04494208     0.09755937     0.15916263
               0.23128650     0.31572767     0.41458969     0.53033537
               0.66584808     0.82450364     1.01025438     1.22772762
               1.48234092     1.78043706     2.12944203     2.53805004
               3.01644009     3.57652955     4.23227104     5.00000000

     Gradients computed in reciprocal space

     Starting wfc are   52 randomized atomic wfcs

     Self-consistent Calculation

     iteration #  1     ecut=    58.80 Ry     beta=0.10
     Davidson diagonalization with overlap
     ethr =  1.00E-02,  avg # of iterations =  4.4

[...]

     total energy              =    -666.64876934 Ry
     Harris-Foulkes estimate   =    -666.80641993 Ry
     estimated scf accuracy    <       2.33666194 Ry

[...]

     total energy              =    -665.97388367 Ry
     Harris-Foulkes estimate   =    -665.97388338 Ry
     estimated scf accuracy    <       0.00000007 Ry

     iteration # 13     ecut=    58.80 Ry     beta=0.10
     Davidson diagonalization with overlap
     ethr =  1.18E-10,  avg # of iterations =  2.0

     negative rho (up, down):  3.896E-01 0.000E+00

     End of self-consistent calculation

          k = 0.0000 0.0000 0.0000 (  3071 PWs)   bands (ev):

   -45.6187 -45.4349 -45.4349 -39.6492 -17.9198 -17.9198 -17.9198 -17.4356
   -17.4356 -17.4356 -17.1880 -17.1880 -17.1880 -13.6340 -13.6340 -13.6340
    14.3551  15.9352  15.9352  15.9759  16.5366  16.5366  16.5366  19.9619
    19.9619  19.9619  22.4696  22.4696  24.1159  24.6609  24.6609  24.6757
    24.6757  24.6757  25.3838  25.3838  25.3838  25.4061  25.4061  25.4061
    34.1147  34.1147  34.1147  34.6234  34.6234  34.6234  35.5135  35.5136
    35.5473

[...]

          k = 0.1065-0.1278-0.1278 (  3088 PWs)   bands (ev):

[...]

          k =-0.1278-0.1278-0.1278 (  3112 PWs)   bands (ev):

   -45.4944 -45.4944 -45.4944 -39.6503 -18.1428 -17.8801 -17.8801 -17.8801
   -17.2075 -17.2075 -17.1896 -17.1896 -17.1896 -13.6291 -13.6291 -13.6291
    16.2918  16.2918  16.2918  16.3739  19.6692  19.6692  19.6692  19.8233
    19.8233  19.8233  19.9972  19.9972  22.6897  22.8557  22.8557  22.8557
    24.1541  24.1541  24.1541  24.6931  24.6931  24.6931  24.7041  24.7041
    32.1150  32.1150  32.1150  32.3659  34.8813  34.8813  34.8813  34.9465
    40.9691

     the Fermi energy is    21.4318 ev

!    total energy              =    -665.97388489 Ry
     Harris-Foulkes estimate   =    -665.97388368 Ry
     estimated scf accuracy    <          5.6E-09 Ry

     The total energy is the sum of the following terms:

     one-electron contribution =     -93.85605214 Ry
     hartree contribution      =      87.31500400 Ry
     xc contribution           =    -119.55130129 Ry
     ewald contribution        =    -539.87081196 Ry
     smearing contrib. (-TS)   =      -0.01072350 Ry

     convergence has been achieved in  13 iterations

     Forces acting on atoms (Ry/au):

     negative rho (up, down):  3.896E-01 0.000E+00
     atom    1 type  1   force =     0.00000000    0.00000000    0.00000000
     atom    2 type  1   force =     0.00000000    0.00000000    0.00000000
     atom    3 type  1   force =     0.00000000    0.00000000   -0.00000000
     atom    4 type  2   force =     0.00000000   -0.00000000    0.00000000

     Total force =     0.000000     Total SCF correction =     0.000000
 !ASE

     General routines

     Parallel routines

   This run was terminated on:  21: 9:18  24Oct2017

   JOB DONE.