     Program PWSCF v.5.1rc2 (svn rev. ) starts on 25Oct2017 at  5:24: 6

     Current dimensions of program PWSCF are:
     Max number of different atomic species (ntypx) = 10
     Max number of k-points (npk) =  40000
     Max angular momentum in pseudopotentials (lmaxx) =  3

     IMPORTANT: XC functional enforced from input :
     Exchange-correlation      = BEEF-VDW ( 1  4 27 13 2)
     Any further DFT definition will be discarded
     Please, verify this is what you really want

     Subspace diagonalization in iterative solution of the eigenvalue problem:
     a serial algorithm will be used

     bravais-lattice index     =            0
     lattice parameter (alat)  =       1.8897  a.u.
     unit-cell volume          =     578.8764 (a.u.)^3
     number of atoms/cell      =            4
     number of atomic types    =            2
     number of electrons       =        49.00
     number of Kohn-Sham states=           44
     kinetic-energy cutoff     =      58.7989  Ry
     charge density cutoff     =     587.9892  Ry
     convergence threshold     =      7.3E-09
     mixing beta               =       0.1000
     number of iterations used =           10  local-TF  mixing
     Exchange-correlation      = BEEF-VDW ( 1  4 27 13 2)
     nstep                     =           50

     celldm(1)=   1.889726  celldm(2)=   0.000000  celldm(3)=   0.000000
     celldm(4)=   0.000000  celldm(5)=   0.000000  celldm(6)=   0.000000

     crystal axes: (cart. coord. in units of alat)
               a(1) = (   4.410249   0.000000   0.000000 )
               a(2) = (   0.000000   4.410249   0.000000 )
               a(3) = (   0.000000   0.000000   4.410249 )

     reciprocal axes: (cart. coord. in units 2 pi/alat)
               b(1) = (  0.226745  0.000000  0.000000 )
               b(2) = (  0.000000  0.226745  0.000000 )
               b(3) = (  0.000000  0.000000  0.226745 )

     PseudoPot. # 1 for Hf read from file:
     /home/vossj/suncat/psp/gbrv1.5pbe/Hf.UPF
     MD5 check sum: 8ee9378dfe14276e333edf04c5e4aa26
     Pseudo is Ultrasoft + core correction, Zval = 12.0
     Generated by new atomic code, or converted to UPF format
     Using radial grid of  921 points,  8 beta functions with:
                l(1) =   0
                l(2) =   0
                l(3) =   0
                l(4) =   1
                l(5) =   1
                l(6) =   2
                l(7) =   2
                l(8) =   3
     Q(r) pseudized with  6 coefficients,  rinner =    1.200   1.200   1.200
                                                       1.200   1.200   1.200
                                                       1.200

     PseudoPot. # 2 for Nb read from file:
     /home/vossj/suncat/psp/gbrv1.5pbe/Nb.UPF
     MD5 check sum: 573aab8a2fa660278ed4a62cd769473f
     Pseudo is Ultrasoft + core correction, Zval = 13.0
     Generated by new atomic code, or converted to UPF format
     Using radial grid of  887 points,  6 beta functions with:
                l(1) =   0
                l(2) =   0
                l(3) =   1
                l(4) =   1
                l(5) =   2
                l(6) =   2
     Q(r) pseudized with  6 coefficients,  rinner =    1.000   1.000   1.000
                                                       1.000   1.000

     vdW kernel table read from file vdW_kernel_table
     MD5 check sum: 095c7af220d748ca6e76c0b4c6cfb241

     atomic species   valence    mass     pseudopotential
        Hf1           12.00   178.49000     Hf( 1.00)
        Nb1           13.00    92.90637     Nb( 1.00)

     48 Sym. Ops., with inversion, found (32 have fractional translation)

   Cartesian axes

     site n.     atom                  positions (alat units)
         1           Hf1 tau(   1) = (   0.0000000   0.0000000   0.0000000  )
         2           Hf1 tau(   2) = (   0.0000000   2.2051244   2.2051244  )
         3           Hf1 tau(   3) = (   2.2051244   0.0000000   2.2051244  )
         4           Nb1 tau(   4) = (   2.2051244   2.2051244   0.0000000  )

     number of k points=    84  Fermi-Dirac smearing, width (Ry)=  0.0073
                       cart. coord. in units 2pi/alat
        k(    1) = (   0.0000000   0.0000000   0.0000000), wk =   0.0011574
        k(    2) = (   0.0000000   0.0000000   0.0188954), wk =   0.0069444
        k(    3) = (   0.0000000   0.0000000   0.0377908), wk =   0.0069444
        k(    4) = (   0.0000000   0.0000000   0.0566861), wk =   0.0069444
        k(    5) = (   0.0000000   0.0000000   0.0755815), wk =   0.0069444
        k(    6) = (   0.0000000   0.0000000   0.0944769), wk =   0.0069444
        k(    7) = (   0.0000000   0.0000000  -0.1133723), wk =   0.0034722
        k(    8) = (   0.0000000   0.0188954   0.0188954), wk =   0.0138889
        k(    9) = (   0.0000000   0.0188954   0.0377908), wk =   0.0277778
        k(   10) = (   0.0000000   0.0188954   0.0566861), wk =   0.0277778
        k(   11) = (   0.0000000   0.0188954   0.0755815), wk =   0.0277778
        k(   12) = (   0.0000000   0.0188954   0.0944769), wk =   0.0277778
        k(   13) = (   0.0000000   0.0188954  -0.1133723), wk =   0.0138889
        k(   14) = (   0.0000000   0.0377908   0.0377908), wk =   0.0138889
        k(   15) = (   0.0000000   0.0377908   0.0566861), wk =   0.0277778
        k(   16) = (   0.0000000   0.0377908   0.0755815), wk =   0.0277778
        k(   17) = (   0.0000000   0.0377908   0.0944769), wk =   0.0277778
        k(   18) = (   0.0000000   0.0377908  -0.1133723), wk =   0.0138889
        k(   19) = (   0.0000000   0.0566861   0.0566861), wk =   0.0138889
        k(   20) = (   0.0000000   0.0566861   0.0755815), wk =   0.0277778
        k(   21) = (   0.0000000   0.0566861   0.0944769), wk =   0.0277778
        k(   22) = (   0.0000000   0.0566861  -0.1133723), wk =   0.0138889
        k(   23) = (   0.0000000   0.0755815   0.0755815), wk =   0.0138889
        k(   24) = (   0.0000000   0.0755815   0.0944769), wk =   0.0277778
        k(   25) = (   0.0000000   0.0755815  -0.1133723), wk =   0.0138889
        k(   26) = (   0.0000000   0.0944769   0.0944769), wk =   0.0138889
        k(   27) = (   0.0000000   0.0944769  -0.1133723), wk =   0.0138889
        k(   28) = (   0.0000000  -0.1133723  -0.1133723), wk =   0.0034722
        k(   29) = (   0.0188954   0.0188954   0.0188954), wk =   0.0092593
        k(   30) = (   0.0188954   0.0188954   0.0377908), wk =   0.0277778
        k(   31) = (   0.0188954   0.0188954   0.0566861), wk =   0.0277778
        k(   32) = (   0.0188954   0.0188954   0.0755815), wk =   0.0277778
        k(   33) = (   0.0188954   0.0188954   0.0944769), wk =   0.0277778
        k(   34) = (   0.0188954   0.0188954  -0.1133723), wk =   0.0138889
        k(   35) = (   0.0188954   0.0377908   0.0377908), wk =   0.0277778
        k(   36) = (   0.0188954   0.0377908   0.0566861), wk =   0.0555556
        k(   37) = (   0.0188954   0.0377908   0.0755815), wk =   0.0555556
        k(   38) = (   0.0188954   0.0377908   0.0944769), wk =   0.0555556
        k(   39) = (   0.0188954   0.0377908  -0.1133723), wk =   0.0277778
        k(   40) = (   0.0188954   0.0566861   0.0566861), wk =   0.0277778
        k(   41) = (   0.0188954   0.0566861   0.0755815), wk =   0.0555556
        k(   42) = (   0.0188954   0.0566861   0.0944769), wk =   0.0555556
        k(   43) = (   0.0188954   0.0566861  -0.1133723), wk =   0.0277778
        k(   44) = (   0.0188954   0.0755815   0.0755815), wk =   0.0277778
        k(   45) = (   0.0188954   0.0755815   0.0944769), wk =   0.0555556
        k(   46) = (   0.0188954   0.0755815  -0.1133723), wk =   0.0277778
        k(   47) = (   0.0188954   0.0944769   0.0944769), wk =   0.0277778
        k(   48) = (   0.0188954   0.0944769  -0.1133723), wk =   0.0277778
        k(   49) = (   0.0188954  -0.1133723  -0.1133723), wk =   0.0069444
        k(   50) = (   0.0377908   0.0377908   0.0377908), wk =   0.0092593
        k(   51) = (   0.0377908   0.0377908   0.0566861), wk =   0.0277778
        k(   52) = (   0.0377908   0.0377908   0.0755815), wk =   0.0277778
        k(   53) = (   0.0377908   0.0377908   0.0944769), wk =   0.0277778
        k(   54) = (   0.0377908   0.0377908  -0.1133723), wk =   0.0138889
        k(   55) = (   0.0377908   0.0566861   0.0566861), wk =   0.0277778
        k(   56) = (   0.0377908   0.0566861   0.0755815), wk =   0.0555556
        k(   57) = (   0.0377908   0.0566861   0.0944769), wk =   0.0555556
        k(   58) = (   0.0377908   0.0566861  -0.1133723), wk =   0.0277778
        k(   59) = (   0.0377908   0.0755815   0.0755815), wk =   0.0277778
        k(   60) = (   0.0377908   0.0755815   0.0944769), wk =   0.0555556
[...]
        k(   70) = (   0.0566861   0.0755815   0.0944769), wk =   0.0555556
        k(   71) = (   0.0566861   0.0755815  -0.1133723), wk =   0.0277778
        k(   72) = (   0.0566861   0.0944769   0.0944769), wk =   0.0277778
        k(   73) = (   0.0566861   0.0944769  -0.1133723), wk =   0.0277778
        k(   74) = (   0.0566861  -0.1133723  -0.1133723), wk =   0.0069444
        k(   75) = (   0.0755815   0.0755815   0.0755815), wk =   0.0092593
        k(   76) = (   0.0755815   0.0755815   0.0944769), wk =   0.0277778
        k(   77) = (   0.0755815   0.0755815  -0.1133723), wk =   0.0138889
        k(   78) = (   0.0755815   0.0944769   0.0944769), wk =   0.0277778
        k(   79) = (   0.0755815   0.0944769  -0.1133723), wk =   0.0277778
        k(   80) = (   0.0755815  -0.1133723  -0.1133723), wk =   0.0069444
        k(   81) = (   0.0944769   0.0944769   0.0944769), wk =   0.0092593
        k(   82) = (   0.0944769   0.0944769  -0.1133723), wk =   0.0138889
        k(   83) = (   0.0944769  -0.1133723  -0.1133723), wk =   0.0069444
        k(   84) = (  -0.1133723  -0.1133723  -0.1133723), wk =   0.0011574

     Largest allocated arrays     est. size (Mb)     dimensions
     Largest temporary arrays     est. size (Mb)     dimensions

     Initial potential from superposition of free atoms
     Check: negative starting charge=   -0.323557

     starting charge   42.99726, renormalised to   49.00000

     negative rho (up, down):  3.687E-01 0.000E+00

     *
     * You are using vdW-DF for exchange-correlation in this calculation.
     * Please cite the following three references that made this development
     * possible:
     *
     *   M. Dion, H. Rydberg, E. Schroder, D. C. Langreth, and
     *   B. I. Lundqvist, Phys. Rev. Lett. 92, 246401 (2004).
     *
     *   T. Thonhauser, V. R. Cooper, S. Li, A. Puzder, P. Hyldgaard, and
     *   D. C. Langreth, Phys. Rev. B 76, 125112 (2007).
     *
     *   G. Roman-Perez and J. M. Soler, Phys. Rev. Lett. 103, 096102 (2009).
     *
     *
     * If you are using vdW-DF2, please also cite:
     *
     *   K. Lee, E. D. Murray, L. Kong, B. I. Lundqvist, and
     *   D. C. Langreth, Phys. Rev. B 82, 081101(R) (2010).
     *
     *
     * If you are calculating the stress with vdW-DF, please also cite:
     *
     *   R. Sabatini, E. Kucukbenli, B. Kolb, T. Thonhauser, and
     *   S. de Gironcoli, J. Phys.: Condens. Matter 24, 424209 (2012).
     *

     Carrying out vdW-DF run using the following parameters:

     Nqs =      20    Nr_points =    1024   r_max =   100.000
     q_mesh =
               0.00001000     0.04494208     0.09755937     0.15916263
               0.23128650     0.31572767     0.41458969     0.53033537
               0.66584808     0.82450364     1.01025438     1.22772762
               1.48234092     1.78043706     2.12944203     2.53805004
               3.01644009     3.57652955     4.23227104     5.00000000

     Gradients computed in reciprocal space

     Starting wfc are   52 randomized atomic wfcs

     Self-consistent Calculation

     iteration #  1     ecut=    58.80 Ry     beta=0.10
     Davidson diagonalization with overlap
     ethr =  1.00E-02,  avg # of iterations =  4.0

[...]

     total energy              =    -603.00906026 Ry
     Harris-Foulkes estimate   =    -603.39564399 Ry
     estimated scf accuracy    <       7.76731158 Ry

[...]

     total energy              =    -600.34397204 Ry
     Harris-Foulkes estimate   =    -600.34397203 Ry
     estimated scf accuracy    <       0.00000001 Ry

     iteration # 43     ecut=    58.80 Ry     beta=0.10
     Davidson diagonalization with overlap
     ethr =  2.05E-11,  avg # of iterations =  2.0

     negative rho (up, down):  3.544E-01 0.000E+00

     End of self-consistent calculation

          k = 0.0000 0.0000 0.0000 (  4385 PWs)   bands (ev):

   -47.1393 -47.0670 -47.0663 -39.9286 -16.2012 -16.2012 -16.2011 -15.7570
   -15.7567 -15.7567 -15.5928 -15.5928 -15.5923 -15.3304 -15.3302 -15.3302
     7.9892  11.5131  11.5134  11.6930  12.5575  12.5575  12.5575  15.9995
    15.9995  15.9996  17.7054  17.7054  17.7054  18.4881  18.4883  20.7070
    20.7074  20.7843  20.7848  20.7848  21.5136  22.1189  22.1189  22.1194
    25.1374  25.2712  25.2717  25.2717

[...]

          k = 0.0945-0.1134-0.1134 (  4400 PWs)   bands (ev):

[...]

          k =-0.1134-0.1134-0.1134 (  4416 PWs)   bands (ev):

   -47.0912 -47.0901 -47.0901 -39.9284 -16.2667 -16.2667 -16.2665 -16.1836
   -15.5894 -15.5894 -15.5891 -15.4033 -15.4027 -15.3904 -15.3904 -15.3898
    11.1994  11.1995  11.1995  11.8087  15.3406  15.3406  15.6227  15.7114
    15.7114  15.7117  15.7358  15.7361  15.7361  16.1802  16.1806  16.1806
    20.2982  20.2985  20.2985  20.6272  20.6276  21.4818  21.4819  21.4819
    24.4066  24.4067  24.4067  25.6521

     the Fermi energy is    14.9766 ev

!    total energy              =    -600.34398287 Ry
     Harris-Foulkes estimate   =    -600.34397478 Ry
     estimated scf accuracy    <          4.3E-09 Ry

     The total energy is the sum of the following terms:

     one-electron contribution =     -76.61720339 Ry
     hartree contribution      =      58.00743102 Ry
     xc contribution           =    -251.30261231 Ry
     ewald contribution        =    -330.41767382 Ry
     smearing contrib. (-TS)   =      -0.01392436 Ry

     convergence has been achieved in  43 iterations

     Forces acting on atoms (Ry/au):

     negative rho (up, down):  3.544E-01 0.000E+00
     atom    1 type  1   force =     0.00000000    0.00000000    0.00000000
     atom    2 type  1   force =     0.00000000    0.00000000   -0.00000000
     atom    3 type  1   force =     0.00000000    0.00000000    0.00000000
     atom    4 type  2   force =     0.00000000    0.00000000    0.00000000

     Total force =     0.000000     Total SCF correction =     0.000000
 !ASE

     General routines

     Parallel routines

   This run was terminated on:   5:27:16  25Oct2017

   JOB DONE.