     Program PWSCF v.5.1rc2 (svn rev. ) starts on 25Oct2017 at 10:16:17

     Current dimensions of program PWSCF are:
     Max number of different atomic species (ntypx) = 10
     Max number of k-points (npk) =  40000
     Max angular momentum in pseudopotentials (lmaxx) =  3

     IMPORTANT: XC functional enforced from input :
     Exchange-correlation      = BEEF-VDW ( 1  4 27 13 2)
     Any further DFT definition will be discarded
     Please, verify this is what you really want

     Subspace diagonalization in iterative solution of the eigenvalue problem:
     a serial algorithm will be used

     bravais-lattice index     =            0
     lattice parameter (alat)  =       1.8897  a.u.
     unit-cell volume          =     397.6463 (a.u.)^3
     number of atoms/cell      =            4
     number of atomic types    =            2
     number of electrons       =        62.00
     number of Kohn-Sham states=           51
     kinetic-energy cutoff     =      58.7989  Ry
     charge density cutoff     =     587.9892  Ry
     convergence threshold     =      7.3E-09
     mixing beta               =       0.1000
     number of iterations used =           10  local-TF  mixing
     Exchange-correlation      = BEEF-VDW ( 1  4 27 13 2)
     nstep                     =           50

     celldm(1)=   1.889726  celldm(2)=   0.000000  celldm(3)=   0.000000
     celldm(4)=   0.000000  celldm(5)=   0.000000  celldm(6)=   0.000000

     crystal axes: (cart. coord. in units of alat)
               a(1) = (   3.891349   0.000000   0.000000 )
               a(2) = (   0.000000   3.891349   0.000000 )
               a(3) = (   0.000000   0.000000   3.891349 )

     reciprocal axes: (cart. coord. in units 2 pi/alat)
               b(1) = (  0.256980  0.000000  0.000000 )
               b(2) = (  0.000000  0.256980  0.000000 )
               b(3) = (  0.000000  0.000000  0.256980 )

     PseudoPot. # 1 for Pd read from file:
     /home/vossj/suncat/psp/gbrv1.5pbe/Pd.UPF
     MD5 check sum: 2d733d2bc2cbfd217af676df1668a4bc
     Pseudo is Ultrasoft + core correction, Zval = 16.0
     Generated by new atomic code, or converted to UPF format
     Using radial grid of  887 points,  6 beta functions with:
                l(1) =   0
                l(2) =   0
                l(3) =   1
                l(4) =   1
                l(5) =   2
                l(6) =   2
     Q(r) pseudized with  8 coefficients,  rinner =    1.130   1.130   1.130
                                                       1.130   1.130

     PseudoPot. # 2 for Cr read from file:
     /home/vossj/suncat/psp/gbrv1.5pbe/Cr.UPF
     MD5 check sum: 0d52af634a40206e4dee301ad30da4bf
     Pseudo is Ultrasoft + core correction, Zval = 14.0
     Generated by new atomic code, or converted to UPF format
     Using radial grid of  857 points,  6 beta functions with:
                l(1) =   0
                l(2) =   0
                l(3) =   1
                l(4) =   1
                l(5) =   2
                l(6) =   2
     Q(r) pseudized with  8 coefficients,  rinner =    0.950   0.950   0.950
                                                       0.950   0.950

     vdW kernel table read from file vdW_kernel_table
     MD5 check sum: 095c7af220d748ca6e76c0b4c6cfb241

     atomic species   valence    mass     pseudopotential
        Pd1           16.00   106.42000     Pd( 1.00)
        Cr1           14.00    51.99610     Cr( 1.00)

     48 Sym. Ops., with inversion, found (32 have fractional translation)

   Cartesian axes

     site n.     atom                  positions (alat units)
         1           Pd1 tau(   1) = (   0.0000000   0.0000000   0.0000000  )
         2           Pd1 tau(   2) = (   0.0000000   1.9456743   1.9456743  )
         3           Pd1 tau(   3) = (   1.9456743   0.0000000   1.9456743  )
         4           Cr1 tau(   4) = (   1.9456743   1.9456743   0.0000000  )

     number of k points=    84  Fermi-Dirac smearing, width (Ry)=  0.0073
                       cart. coord. in units 2pi/alat
        k(    1) = (   0.0000000   0.0000000   0.0000000), wk =   0.0011574
        k(    2) = (   0.0000000   0.0000000   0.0214150), wk =   0.0069444
        k(    3) = (   0.0000000   0.0000000   0.0428301), wk =   0.0069444
        k(    4) = (   0.0000000   0.0000000   0.0642451), wk =   0.0069444
        k(    5) = (   0.0000000   0.0000000   0.0856601), wk =   0.0069444
        k(    6) = (   0.0000000   0.0000000   0.1070751), wk =   0.0069444
        k(    7) = (   0.0000000   0.0000000  -0.1284902), wk =   0.0034722
        k(    8) = (   0.0000000   0.0214150   0.0214150), wk =   0.0138889
        k(    9) = (   0.0000000   0.0214150   0.0428301), wk =   0.0277778
        k(   10) = (   0.0000000   0.0214150   0.0642451), wk =   0.0277778
        k(   11) = (   0.0000000   0.0214150   0.0856601), wk =   0.0277778
        k(   12) = (   0.0000000   0.0214150   0.1070751), wk =   0.0277778
        k(   13) = (   0.0000000   0.0214150  -0.1284902), wk =   0.0138889
        k(   14) = (   0.0000000   0.0428301   0.0428301), wk =   0.0138889
        k(   15) = (   0.0000000   0.0428301   0.0642451), wk =   0.0277778
        k(   16) = (   0.0000000   0.0428301   0.0856601), wk =   0.0277778
        k(   17) = (   0.0000000   0.0428301   0.1070751), wk =   0.0277778
        k(   18) = (   0.0000000   0.0428301  -0.1284902), wk =   0.0138889
        k(   19) = (   0.0000000   0.0642451   0.0642451), wk =   0.0138889
        k(   20) = (   0.0000000   0.0642451   0.0856601), wk =   0.0277778
        k(   21) = (   0.0000000   0.0642451   0.1070751), wk =   0.0277778
        k(   22) = (   0.0000000   0.0642451  -0.1284902), wk =   0.0138889
        k(   23) = (   0.0000000   0.0856601   0.0856601), wk =   0.0138889
        k(   24) = (   0.0000000   0.0856601   0.1070751), wk =   0.0277778
        k(   25) = (   0.0000000   0.0856601  -0.1284902), wk =   0.0138889
        k(   26) = (   0.0000000   0.1070751   0.1070751), wk =   0.0138889
        k(   27) = (   0.0000000   0.1070751  -0.1284902), wk =   0.0138889
        k(   28) = (   0.0000000  -0.1284902  -0.1284902), wk =   0.0034722
        k(   29) = (   0.0214150   0.0214150   0.0214150), wk =   0.0092593
        k(   30) = (   0.0214150   0.0214150   0.0428301), wk =   0.0277778
        k(   31) = (   0.0214150   0.0214150   0.0642451), wk =   0.0277778
        k(   32) = (   0.0214150   0.0214150   0.0856601), wk =   0.0277778
        k(   33) = (   0.0214150   0.0214150   0.1070751), wk =   0.0277778
        k(   34) = (   0.0214150   0.0214150  -0.1284902), wk =   0.0138889
        k(   35) = (   0.0214150   0.0428301   0.0428301), wk =   0.0277778
        k(   36) = (   0.0214150   0.0428301   0.0642451), wk =   0.0555556
        k(   37) = (   0.0214150   0.0428301   0.0856601), wk =   0.0555556
        k(   38) = (   0.0214150   0.0428301   0.1070751), wk =   0.0555556
        k(   39) = (   0.0214150   0.0428301  -0.1284902), wk =   0.0277778
        k(   40) = (   0.0214150   0.0642451   0.0642451), wk =   0.0277778
        k(   41) = (   0.0214150   0.0642451   0.0856601), wk =   0.0555556
        k(   42) = (   0.0214150   0.0642451   0.1070751), wk =   0.0555556
        k(   43) = (   0.0214150   0.0642451  -0.1284902), wk =   0.0277778
        k(   44) = (   0.0214150   0.0856601   0.0856601), wk =   0.0277778
        k(   45) = (   0.0214150   0.0856601   0.1070751), wk =   0.0555556
        k(   46) = (   0.0214150   0.0856601  -0.1284902), wk =   0.0277778
        k(   47) = (   0.0214150   0.1070751   0.1070751), wk =   0.0277778
        k(   48) = (   0.0214150   0.1070751  -0.1284902), wk =   0.0277778
        k(   49) = (   0.0214150  -0.1284902  -0.1284902), wk =   0.0069444
        k(   50) = (   0.0428301   0.0428301   0.0428301), wk =   0.0092593
        k(   51) = (   0.0428301   0.0428301   0.0642451), wk =   0.0277778
        k(   52) = (   0.0428301   0.0428301   0.0856601), wk =   0.0277778
        k(   53) = (   0.0428301   0.0428301   0.1070751), wk =   0.0277778
        k(   54) = (   0.0428301   0.0428301  -0.1284902), wk =   0.0138889
        k(   55) = (   0.0428301   0.0642451   0.0642451), wk =   0.0277778
        k(   56) = (   0.0428301   0.0642451   0.0856601), wk =   0.0555556
        k(   57) = (   0.0428301   0.0642451   0.1070751), wk =   0.0555556
        k(   58) = (   0.0428301   0.0642451  -0.1284902), wk =   0.0277778
        k(   59) = (   0.0428301   0.0856601   0.0856601), wk =   0.0277778
        k(   60) = (   0.0428301   0.0856601   0.1070751), wk =   0.0555556
[...]
        k(   70) = (   0.0642451   0.0856601   0.1070751), wk =   0.0555556
        k(   71) = (   0.0642451   0.0856601  -0.1284902), wk =   0.0277778
        k(   72) = (   0.0642451   0.1070751   0.1070751), wk =   0.0277778
        k(   73) = (   0.0642451   0.1070751  -0.1284902), wk =   0.0277778
        k(   74) = (   0.0642451  -0.1284902  -0.1284902), wk =   0.0069444
        k(   75) = (   0.0856601   0.0856601   0.0856601), wk =   0.0092593
        k(   76) = (   0.0856601   0.0856601   0.1070751), wk =   0.0277778
        k(   77) = (   0.0856601   0.0856601  -0.1284902), wk =   0.0138889
        k(   78) = (   0.0856601   0.1070751   0.1070751), wk =   0.0277778
        k(   79) = (   0.0856601   0.1070751  -0.1284902), wk =   0.0277778
        k(   80) = (   0.0856601  -0.1284902  -0.1284902), wk =   0.0069444
        k(   81) = (   0.1070751   0.1070751   0.1070751), wk =   0.0092593
        k(   82) = (   0.1070751   0.1070751  -0.1284902), wk =   0.0138889
        k(   83) = (   0.1070751  -0.1284902  -0.1284902), wk =   0.0069444
        k(   84) = (  -0.1284902  -0.1284902  -0.1284902), wk =   0.0011574

     Largest allocated arrays     est. size (Mb)     dimensions
     Largest temporary arrays     est. size (Mb)     dimensions

     Check: negative/imaginary core charge=   -0.000002    0.000000

     Initial potential from superposition of free atoms
     Check: negative starting charge=   -0.234006

     starting charge   59.49996, renormalised to   62.00000

     negative rho (up, down):  2.438E-01 0.000E+00

     *
     * You are using vdW-DF for exchange-correlation in this calculation.
     * Please cite the following three references that made this development
     * possible:
     *
     *   M. Dion, H. Rydberg, E. Schroder, D. C. Langreth, and
     *   B. I. Lundqvist, Phys. Rev. Lett. 92, 246401 (2004).
     *
     *   T. Thonhauser, V. R. Cooper, S. Li, A. Puzder, P. Hyldgaard, and
     *   D. C. Langreth, Phys. Rev. B 76, 125112 (2007).
     *
     *   G. Roman-Perez and J. M. Soler, Phys. Rev. Lett. 103, 096102 (2009).
     *
     *
     * If you are using vdW-DF2, please also cite:
     *
     *   K. Lee, E. D. Murray, L. Kong, B. I. Lundqvist, and
     *   D. C. Langreth, Phys. Rev. B 82, 081101(R) (2010).
     *
     *
     * If you are calculating the stress with vdW-DF, please also cite:
     *
     *   R. Sabatini, E. Kucukbenli, B. Kolb, T. Thonhauser, and
     *   S. de Gironcoli, J. Phys.: Condens. Matter 24, 424209 (2012).
     *

     Carrying out vdW-DF run using the following parameters:

     Nqs =      20    Nr_points =    1024   r_max =   100.000
     q_mesh =
               0.00001000     0.04494208     0.09755937     0.15916263
               0.23128650     0.31572767     0.41458969     0.53033537
               0.66584808     0.82450364     1.01025438     1.22772762
               1.48234092     1.78043706     2.12944203     2.53805004
               3.01644009     3.57652955     4.23227104     5.00000000

     Gradients computed in reciprocal space

     Starting wfc are   46 randomized atomic wfcs +    5 random wfc

     Self-consistent Calculation

     iteration #  1     ecut=    58.80 Ry     beta=0.10
     Davidson diagonalization with overlap
     ethr =  1.00E-02,  avg # of iterations =  4.4

[...]

     total energy              =    -777.14759556 Ry
     Harris-Foulkes estimate   =    -778.43402989 Ry
     estimated scf accuracy    <      23.98853613 Ry

[...]

     total energy              =    -775.68789658 Ry
     Harris-Foulkes estimate   =    -775.68789619 Ry
     estimated scf accuracy    <       0.00000002 Ry

     iteration # 20     ecut=    58.80 Ry     beta=0.10
     Davidson diagonalization with overlap
     ethr =  3.78E-11,  avg # of iterations =  1.0

     negative rho (up, down):  2.466E-01 0.000E+00

     End of self-consistent calculation

          k = 0.0000 0.0000 0.0000 (  2969 PWs)   bands (ev):

   -54.3323 -32.7785 -32.7785 -32.7785 -32.6523 -32.6523 -32.6523 -32.4795
   -32.4795 -32.4795 -25.6149 -25.6149 -25.6149  10.4956  12.1142  12.5932
    12.5932  12.7389  12.7389  12.7389  15.0443  15.0443  15.0443  16.4487
    16.4487  17.2089  17.6483  17.6483  17.6483  18.4160  18.4160  18.8043
    18.8043  18.8043  20.7822  20.7822  20.7822  27.7628  27.7628  28.5027
    30.7404  30.7404  30.7404  31.0267  31.0267  31.0267  35.5874  37.9569
    37.9569  37.9569  38.6586

[...]

          k = 0.1071-0.1285-0.1285 (  3064 PWs)   bands (ev):

[...]

          k =-0.1285-0.1285-0.1285 (  3016 PWs)   bands (ev):

   -54.3319 -32.7947 -32.7925 -32.7925 -32.7925 -32.5598 -32.5598 -32.5598
   -32.4514 -32.4514 -25.6168 -25.6168 -25.6168  12.1836  12.6291  12.6291
    12.6291  14.4708  14.4708  14.4708  15.0848  15.0848  15.0848  15.4275
    15.4275  17.2980  17.2980  17.2980  18.3213  18.3213  18.3213  18.3726
    18.3726  18.3726  18.4775  18.4775  18.7048  24.6096  24.6096  24.6096
    25.0664  34.7055  34.7055  34.7055  34.8064  38.8028  38.8028  38.8028
    39.3992  39.3992  39.3992

     the Fermi energy is    17.8344 ev

!    total energy              =    -775.68789825 Ry
     Harris-Foulkes estimate   =    -775.68789658 Ry
     estimated scf accuracy    <          1.4E-09 Ry

     The total energy is the sum of the following terms:

     one-electron contribution =    -205.62830148 Ry
     hartree contribution      =     150.93989528 Ry
     xc contribution           =    -120.88732324 Ry
     ewald contribution        =    -600.09070216 Ry
     smearing contrib. (-TS)   =      -0.02146664 Ry

     convergence has been achieved in  20 iterations

     Forces acting on atoms (Ry/au):

     negative rho (up, down):  2.466E-01 0.000E+00
     atom    1 type  1   force =     0.00000000    0.00000000   -0.00000000
     atom    2 type  1   force =     0.00000000    0.00000000    0.00000000
     atom    3 type  1   force =     0.00000000    0.00000000    0.00000000
     atom    4 type  2   force =     0.00000000    0.00000000    0.00000000

     Total force =     0.000000     Total SCF correction =     0.000000
 !ASE

     General routines

     Parallel routines

   This run was terminated on:  10:17:29  25Oct2017

   JOB DONE.