     Program PWSCF v.5.1rc2 (svn rev. ) starts on 24Oct2017 at 20:24:53

     Current dimensions of program PWSCF are:
     Max number of different atomic species (ntypx) = 10
     Max number of k-points (npk) =  40000
     Max angular momentum in pseudopotentials (lmaxx) =  3

     IMPORTANT: XC functional enforced from input :
     Exchange-correlation      = BEEF-VDW ( 1  4 27 13 2)
     Any further DFT definition will be discarded
     Please, verify this is what you really want

     Subspace diagonalization in iterative solution of the eigenvalue problem:
     a serial algorithm will be used

     bravais-lattice index     =            0
     lattice parameter (alat)  =       1.8897  a.u.
     unit-cell volume          =     575.1605 (a.u.)^3
     number of atoms/cell      =            4
     number of atomic types    =            2
     number of electrons       =        71.00
     number of Kohn-Sham states=           55
     kinetic-energy cutoff     =      58.7989  Ry
     charge density cutoff     =     587.9892  Ry
     convergence threshold     =      7.3E-09
     mixing beta               =       0.1000
     number of iterations used =           10  local-TF  mixing
     Exchange-correlation      = BEEF-VDW ( 1  4 27 13 2)
     nstep                     =           50

     celldm(1)=   1.889726  celldm(2)=   0.000000  celldm(3)=   0.000000
     celldm(4)=   0.000000  celldm(5)=   0.000000  celldm(6)=   0.000000

     crystal axes: (cart. coord. in units of alat)
               a(1) = (   4.400792   0.000000   0.000000 )
               a(2) = (   0.000000   4.400792   0.000000 )
               a(3) = (   0.000000   0.000000   4.400792 )

     reciprocal axes: (cart. coord. in units 2 pi/alat)
               b(1) = (  0.227232  0.000000  0.000000 )
               b(2) = (  0.000000  0.227232  0.000000 )
               b(3) = (  0.000000  0.000000  0.227232 )

     PseudoPot. # 1 for Ag read from file:
     /home/vossj/suncat/psp/gbrv1.5pbe/Ag.UPF
     MD5 check sum: d66d668201baa78d5eb5b04ef7011058
     Pseudo is Ultrasoft + core correction, Zval = 19.0
     Generated by new atomic code, or converted to UPF format
     Using radial grid of  887 points,  6 beta functions with:
                l(1) =   0
                l(2) =   0
                l(3) =   1
                l(4) =   1
                l(5) =   2
                l(6) =   2
     Q(r) pseudized with  6 coefficients,  rinner =    1.300   1.300   1.300
                                                       1.300   1.300

     PseudoPot. # 2 for Pb read from file:
     /home/vossj/suncat/psp/gbrv1.5pbe/Pb.UPF
     MD5 check sum: 3d1c1779aa92214d1e8f3a7db79003e2
     Pseudo is Ultrasoft + core correction, Zval = 14.0
     Generated by new atomic code, or converted to UPF format
     Using radial grid of  899 points,  6 beta functions with:
                l(1) =   0
                l(2) =   0
                l(3) =   1
                l(4) =   1
                l(5) =   2
                l(6) =   2
     Q(r) pseudized with  6 coefficients,  rinner =    1.000   1.000   1.000
                                                       1.000   1.000

     vdW kernel table read from file vdW_kernel_table
     MD5 check sum: 095c7af220d748ca6e76c0b4c6cfb241

     atomic species   valence    mass     pseudopotential
        Ag1           19.00   107.86820     Ag( 1.00)
        Pb1           14.00   207.20000     Pb( 1.00)

     48 Sym. Ops., with inversion, found (32 have fractional translation)

   Cartesian axes

     site n.     atom                  positions (alat units)
         1           Ag1 tau(   1) = (   0.0000000   0.0000000   0.0000000  )
         2           Ag1 tau(   2) = (   0.0000000   2.2003958   2.2003958  )
         3           Ag1 tau(   3) = (   2.2003958   0.0000000   2.2003958  )
         4           Pb1 tau(   4) = (   2.2003958   2.2003958   0.0000000  )

     number of k points=    84  Fermi-Dirac smearing, width (Ry)=  0.0073
                       cart. coord. in units 2pi/alat
        k(    1) = (   0.0000000   0.0000000   0.0000000), wk =   0.0011574
        k(    2) = (   0.0000000   0.0000000   0.0189360), wk =   0.0069444
        k(    3) = (   0.0000000   0.0000000   0.0378720), wk =   0.0069444
        k(    4) = (   0.0000000   0.0000000   0.0568080), wk =   0.0069444
        k(    5) = (   0.0000000   0.0000000   0.0757439), wk =   0.0069444
        k(    6) = (   0.0000000   0.0000000   0.0946799), wk =   0.0069444
        k(    7) = (   0.0000000   0.0000000  -0.1136159), wk =   0.0034722
        k(    8) = (   0.0000000   0.0189360   0.0189360), wk =   0.0138889
        k(    9) = (   0.0000000   0.0189360   0.0378720), wk =   0.0277778
        k(   10) = (   0.0000000   0.0189360   0.0568080), wk =   0.0277778
        k(   11) = (   0.0000000   0.0189360   0.0757439), wk =   0.0277778
        k(   12) = (   0.0000000   0.0189360   0.0946799), wk =   0.0277778
        k(   13) = (   0.0000000   0.0189360  -0.1136159), wk =   0.0138889
        k(   14) = (   0.0000000   0.0378720   0.0378720), wk =   0.0138889
        k(   15) = (   0.0000000   0.0378720   0.0568080), wk =   0.0277778
        k(   16) = (   0.0000000   0.0378720   0.0757439), wk =   0.0277778
        k(   17) = (   0.0000000   0.0378720   0.0946799), wk =   0.0277778
        k(   18) = (   0.0000000   0.0378720  -0.1136159), wk =   0.0138889
        k(   19) = (   0.0000000   0.0568080   0.0568080), wk =   0.0138889
        k(   20) = (   0.0000000   0.0568080   0.0757439), wk =   0.0277778
        k(   21) = (   0.0000000   0.0568080   0.0946799), wk =   0.0277778
        k(   22) = (   0.0000000   0.0568080  -0.1136159), wk =   0.0138889
        k(   23) = (   0.0000000   0.0757439   0.0757439), wk =   0.0138889
        k(   24) = (   0.0000000   0.0757439   0.0946799), wk =   0.0277778
        k(   25) = (   0.0000000   0.0757439  -0.1136159), wk =   0.0138889
        k(   26) = (   0.0000000   0.0946799   0.0946799), wk =   0.0138889
        k(   27) = (   0.0000000   0.0946799  -0.1136159), wk =   0.0138889
        k(   28) = (   0.0000000  -0.1136159  -0.1136159), wk =   0.0034722
        k(   29) = (   0.0189360   0.0189360   0.0189360), wk =   0.0092593
        k(   30) = (   0.0189360   0.0189360   0.0378720), wk =   0.0277778
        k(   31) = (   0.0189360   0.0189360   0.0568080), wk =   0.0277778
        k(   32) = (   0.0189360   0.0189360   0.0757439), wk =   0.0277778
        k(   33) = (   0.0189360   0.0189360   0.0946799), wk =   0.0277778
        k(   34) = (   0.0189360   0.0189360  -0.1136159), wk =   0.0138889
        k(   35) = (   0.0189360   0.0378720   0.0378720), wk =   0.0277778
        k(   36) = (   0.0189360   0.0378720   0.0568080), wk =   0.0555556
        k(   37) = (   0.0189360   0.0378720   0.0757439), wk =   0.0555556
        k(   38) = (   0.0189360   0.0378720   0.0946799), wk =   0.0555556
        k(   39) = (   0.0189360   0.0378720  -0.1136159), wk =   0.0277778
        k(   40) = (   0.0189360   0.0568080   0.0568080), wk =   0.0277778
        k(   41) = (   0.0189360   0.0568080   0.0757439), wk =   0.0555556
        k(   42) = (   0.0189360   0.0568080   0.0946799), wk =   0.0555556
        k(   43) = (   0.0189360   0.0568080  -0.1136159), wk =   0.0277778
        k(   44) = (   0.0189360   0.0757439   0.0757439), wk =   0.0277778
        k(   45) = (   0.0189360   0.0757439   0.0946799), wk =   0.0555556
        k(   46) = (   0.0189360   0.0757439  -0.1136159), wk =   0.0277778
        k(   47) = (   0.0189360   0.0946799   0.0946799), wk =   0.0277778
        k(   48) = (   0.0189360   0.0946799  -0.1136159), wk =   0.0277778
        k(   49) = (   0.0189360  -0.1136159  -0.1136159), wk =   0.0069444
        k(   50) = (   0.0378720   0.0378720   0.0378720), wk =   0.0092593
        k(   51) = (   0.0378720   0.0378720   0.0568080), wk =   0.0277778
        k(   52) = (   0.0378720   0.0378720   0.0757439), wk =   0.0277778
        k(   53) = (   0.0378720   0.0378720   0.0946799), wk =   0.0277778
        k(   54) = (   0.0378720   0.0378720  -0.1136159), wk =   0.0138889
        k(   55) = (   0.0378720   0.0568080   0.0568080), wk =   0.0277778
        k(   56) = (   0.0378720   0.0568080   0.0757439), wk =   0.0555556
        k(   57) = (   0.0378720   0.0568080   0.0946799), wk =   0.0555556
        k(   58) = (   0.0378720   0.0568080  -0.1136159), wk =   0.0277778
        k(   59) = (   0.0378720   0.0757439   0.0757439), wk =   0.0277778
        k(   60) = (   0.0378720   0.0757439   0.0946799), wk =   0.0555556
[...]
        k(   70) = (   0.0568080   0.0757439   0.0946799), wk =   0.0555556
        k(   71) = (   0.0568080   0.0757439  -0.1136159), wk =   0.0277778
        k(   72) = (   0.0568080   0.0946799   0.0946799), wk =   0.0277778
        k(   73) = (   0.0568080   0.0946799  -0.1136159), wk =   0.0277778
        k(   74) = (   0.0568080  -0.1136159  -0.1136159), wk =   0.0069444
        k(   75) = (   0.0757439   0.0757439   0.0757439), wk =   0.0092593
        k(   76) = (   0.0757439   0.0757439   0.0946799), wk =   0.0277778
        k(   77) = (   0.0757439   0.0757439  -0.1136159), wk =   0.0138889
        k(   78) = (   0.0757439   0.0946799   0.0946799), wk =   0.0277778
        k(   79) = (   0.0757439   0.0946799  -0.1136159), wk =   0.0277778
        k(   80) = (   0.0757439  -0.1136159  -0.1136159), wk =   0.0069444
        k(   81) = (   0.0946799   0.0946799   0.0946799), wk =   0.0092593
        k(   82) = (   0.0946799   0.0946799  -0.1136159), wk =   0.0138889
        k(   83) = (   0.0946799  -0.1136159  -0.1136159), wk =   0.0069444
        k(   84) = (  -0.1136159  -0.1136159  -0.1136159), wk =   0.0011574

     Largest allocated arrays     est. size (Mb)     dimensions
     Largest temporary arrays     est. size (Mb)     dimensions

     Initial potential from superposition of free atoms
     Check: negative starting charge=   -0.016280

     starting charge   69.49751, renormalised to   71.00000

     negative rho (up, down):  1.663E-02 0.000E+00

     *
     * You are using vdW-DF for exchange-correlation in this calculation.
     * Please cite the following three references that made this development
     * possible:
     *
     *   M. Dion, H. Rydberg, E. Schroder, D. C. Langreth, and
     *   B. I. Lundqvist, Phys. Rev. Lett. 92, 246401 (2004).
     *
     *   T. Thonhauser, V. R. Cooper, S. Li, A. Puzder, P. Hyldgaard, and
     *   D. C. Langreth, Phys. Rev. B 76, 125112 (2007).
     *
     *   G. Roman-Perez and J. M. Soler, Phys. Rev. Lett. 103, 096102 (2009).
     *
     *
     * If you are using vdW-DF2, please also cite:
     *
     *   K. Lee, E. D. Murray, L. Kong, B. I. Lundqvist, and
     *   D. C. Langreth, Phys. Rev. B 82, 081101(R) (2010).
     *
     *
     * If you are calculating the stress with vdW-DF, please also cite:
     *
     *   R. Sabatini, E. Kucukbenli, B. Kolb, T. Thonhauser, and
     *   S. de Gironcoli, J. Phys.: Condens. Matter 24, 424209 (2012).
     *

     Carrying out vdW-DF run using the following parameters:

     Nqs =      20    Nr_points =    1024   r_max =   100.000
     q_mesh =
               0.00001000     0.04494208     0.09755937     0.15916263
               0.23128650     0.31572767     0.41458969     0.53033537
               0.66584808     0.82450364     1.01025438     1.22772762
               1.48234092     1.78043706     2.12944203     2.53805004
               3.01644009     3.57652955     4.23227104     5.00000000

     Gradients computed in reciprocal space

     Starting wfc are   48 randomized atomic wfcs +    7 random wfc

     Self-consistent Calculation

     iteration #  1     ecut=    58.80 Ry     beta=0.10
     Davidson diagonalization with overlap
     ethr =  1.00E-02,  avg # of iterations =  4.6

[...]

     total energy              =   -1056.46790771 Ry
     Harris-Foulkes estimate   =   -1056.62184071 Ry
     estimated scf accuracy    <       2.41390033 Ry

[...]

     total energy              =   -1056.02693146 Ry
     Harris-Foulkes estimate   =   -1056.02687590 Ry
     estimated scf accuracy    <          8.0E-09 Ry

     iteration # 14     ecut=    58.80 Ry     beta=0.10
     Davidson diagonalization with overlap
     ethr =  1.13E-11,  avg # of iterations =  2.0

     negative rho (up, down):  1.827E-02 0.000E+00

     End of self-consistent calculation

          k = 0.0000 0.0000 0.0000 (  4385 PWs)   bands (ev):

   -78.0972 -78.0919 -78.0919 -41.6142 -41.6142 -41.6142 -41.6008 -41.6008
   -41.6008 -41.5449 -41.5449 -41.5449  -3.1140  -3.1140  -3.0952  -3.0952
    -3.0952   4.0191   8.2891   8.7133   8.7133   8.7133   8.8592   8.8592
     9.8071   9.8071   9.8071  10.2588  10.2588  10.4957  10.7190  10.7190
    10.7190  13.5324  13.5579  13.5579  13.5579  17.9183  17.9183  20.9719
    20.9719  20.9719  22.4796  22.4796  22.4796  24.6222  25.9040  26.8724
    26.8724  26.8724  27.1298  27.1298  27.9849  30.0437  30.0437

[...]

          k = 0.0947-0.1136-0.1136 (  4360 PWs)   bands (ev):

[...]

          k =-0.1136-0.1136-0.1136 (  4416 PWs)   bands (ev):

   -78.0936 -78.0936 -78.0936 -41.6220 -41.6220 -41.6220 -41.5889 -41.5856
   -41.5856 -41.5856 -41.5349 -41.5349  -3.1124  -3.1124  -3.1124  -3.0592
    -3.0592   5.2470   8.7296   8.7296   8.7296   9.3026   9.3026   9.3026
     9.9056   9.9056   9.9056   9.9692   9.9692  10.5568  10.5568  10.5568
    10.8777  11.7742  11.7742  11.7742  13.8465  15.4268  15.4268  15.4268
    24.6480  25.5747  25.5747  25.5747  27.3726  27.3726  27.3726  27.7540
    28.0653  28.0653  28.0653  29.2545  29.2545  30.6499  30.6499

     the Fermi energy is    14.0936 ev

!    total energy              =   -1056.02716712 Ry
     Harris-Foulkes estimate   =   -1056.02693146 Ry
     estimated scf accuracy    <          3.3E-09 Ry

     The total energy is the sum of the following terms:

     one-electron contribution =    -474.10701485 Ry
     hartree contribution      =     273.66444360 Ry
     xc contribution           =    -155.70811481 Ry
     ewald contribution        =    -699.87324092 Ry
     smearing contrib. (-TS)   =      -0.00324014 Ry

     convergence has been achieved in  14 iterations

     Forces acting on atoms (Ry/au):

     negative rho (up, down):  1.827E-02 0.000E+00
     atom    1 type  1   force =     0.00000000    0.00000000    0.00000000
     atom    2 type  1   force =     0.00000000    0.00000000    0.00000000
     atom    3 type  1   force =     0.00000000    0.00000000    0.00000000
     atom    4 type  2   force =     0.00000000    0.00000000    0.00000000

     Total force =     0.000000     Total SCF correction =     0.000000
 !ASE

     General routines

     Parallel routines

   This run was terminated on:  20:26:21  24Oct2017

   JOB DONE.