     Program PWSCF v.5.1rc2 (svn rev. ) starts on 25Oct2017 at  6: 0: 6

     Current dimensions of program PWSCF are:
     Max number of different atomic species (ntypx) = 10
     Max number of k-points (npk) =  40000
     Max angular momentum in pseudopotentials (lmaxx) =  3

     IMPORTANT: XC functional enforced from input :
     Exchange-correlation      = BEEF-VDW ( 1  4 27 13 2)
     Any further DFT definition will be discarded
     Please, verify this is what you really want

     Subspace diagonalization in iterative solution of the eigenvalue problem:
     a serial algorithm will be used

     bravais-lattice index     =            0
     lattice parameter (alat)  =       1.8897  a.u.
     unit-cell volume          =     457.2829 (a.u.)^3
     number of atoms/cell      =            4
     number of atomic types    =            2
     number of electrons       =        55.00
     number of Kohn-Sham states=           47
     kinetic-energy cutoff     =      58.7989  Ry
     charge density cutoff     =     587.9892  Ry
     convergence threshold     =      7.3E-09
     mixing beta               =       0.1000
     number of iterations used =           10  local-TF  mixing
     Exchange-correlation      = BEEF-VDW ( 1  4 27 13 2)
     nstep                     =           50

     celldm(1)=   1.889726  celldm(2)=   0.000000  celldm(3)=   0.000000
     celldm(4)=   0.000000  celldm(5)=   0.000000  celldm(6)=   0.000000

     crystal axes: (cart. coord. in units of alat)
               a(1) = (   4.076894   0.000000   0.000000 )
               a(2) = (   0.000000   4.076894   0.000000 )
               a(3) = (   0.000000   0.000000   4.076894 )

     reciprocal axes: (cart. coord. in units 2 pi/alat)
               b(1) = (  0.245285  0.000000  0.000000 )
               b(2) = (  0.000000  0.245285  0.000000 )
               b(3) = (  0.000000  0.000000  0.245285 )

     PseudoPot. # 1 for Mo read from file:
     /home/vossj/suncat/psp/gbrv1.5pbe/Mo.UPF
     MD5 check sum: 30c4dcd161f5d35cd49bb5239c51a633
     Pseudo is Ultrasoft + core correction, Zval = 14.0
     Generated by new atomic code, or converted to UPF format
     Using radial grid of  889 points,  6 beta functions with:
                l(1) =   0
                l(2) =   0
                l(3) =   1
                l(4) =   1
                l(5) =   2
                l(6) =   2
     Q(r) pseudized with  6 coefficients,  rinner =    1.000   1.000   1.000
                                                       1.000   1.000

     PseudoPot. # 2 for In read from file:
     /home/vossj/suncat/psp/gbrv1.5pbe/In.UPF
     MD5 check sum: 90777abd96fbb83f2e67db2a40c566b9
     Pseudo is Ultrasoft + core correction, Zval = 13.0
     Generated by new atomic code, or converted to UPF format
     Using radial grid of  889 points,  6 beta functions with:
                l(1) =   0
                l(2) =   0
                l(3) =   1
                l(4) =   1
                l(5) =   2
                l(6) =   2
     Q(r) pseudized with  6 coefficients,  rinner =    1.400   1.400   1.400
                                                       1.400   1.400

     vdW kernel table read from file vdW_kernel_table
     MD5 check sum: 095c7af220d748ca6e76c0b4c6cfb241

     atomic species   valence    mass     pseudopotential
        Mo1           14.00    95.95000     Mo( 1.00)
        In1           13.00   114.81800     In( 1.00)

     48 Sym. Ops., with inversion, found (32 have fractional translation)

   Cartesian axes

     site n.     atom                  positions (alat units)
         1           Mo1 tau(   1) = (   0.0000000   0.0000000   0.0000000  )
         2           Mo1 tau(   2) = (   0.0000000   2.0384471   2.0384471  )
         3           Mo1 tau(   3) = (   2.0384471   0.0000000   2.0384471  )
         4           In1 tau(   4) = (   2.0384471   2.0384471   0.0000000  )

     number of k points=    84  Fermi-Dirac smearing, width (Ry)=  0.0073
                       cart. coord. in units 2pi/alat
        k(    1) = (   0.0000000   0.0000000   0.0000000), wk =   0.0011574
        k(    2) = (   0.0000000   0.0000000   0.0204404), wk =   0.0069444
        k(    3) = (   0.0000000   0.0000000   0.0408808), wk =   0.0069444
        k(    4) = (   0.0000000   0.0000000   0.0613212), wk =   0.0069444
        k(    5) = (   0.0000000   0.0000000   0.0817616), wk =   0.0069444
        k(    6) = (   0.0000000   0.0000000   0.1022020), wk =   0.0069444
        k(    7) = (   0.0000000   0.0000000  -0.1226424), wk =   0.0034722
        k(    8) = (   0.0000000   0.0204404   0.0204404), wk =   0.0138889
        k(    9) = (   0.0000000   0.0204404   0.0408808), wk =   0.0277778
        k(   10) = (   0.0000000   0.0204404   0.0613212), wk =   0.0277778
        k(   11) = (   0.0000000   0.0204404   0.0817616), wk =   0.0277778
        k(   12) = (   0.0000000   0.0204404   0.1022020), wk =   0.0277778
        k(   13) = (   0.0000000   0.0204404  -0.1226424), wk =   0.0138889
        k(   14) = (   0.0000000   0.0408808   0.0408808), wk =   0.0138889
        k(   15) = (   0.0000000   0.0408808   0.0613212), wk =   0.0277778
        k(   16) = (   0.0000000   0.0408808   0.0817616), wk =   0.0277778
        k(   17) = (   0.0000000   0.0408808   0.1022020), wk =   0.0277778
        k(   18) = (   0.0000000   0.0408808  -0.1226424), wk =   0.0138889
        k(   19) = (   0.0000000   0.0613212   0.0613212), wk =   0.0138889
        k(   20) = (   0.0000000   0.0613212   0.0817616), wk =   0.0277778
        k(   21) = (   0.0000000   0.0613212   0.1022020), wk =   0.0277778
        k(   22) = (   0.0000000   0.0613212  -0.1226424), wk =   0.0138889
        k(   23) = (   0.0000000   0.0817616   0.0817616), wk =   0.0138889
        k(   24) = (   0.0000000   0.0817616   0.1022020), wk =   0.0277778
        k(   25) = (   0.0000000   0.0817616  -0.1226424), wk =   0.0138889
        k(   26) = (   0.0000000   0.1022020   0.1022020), wk =   0.0138889
        k(   27) = (   0.0000000   0.1022020  -0.1226424), wk =   0.0138889
        k(   28) = (   0.0000000  -0.1226424  -0.1226424), wk =   0.0034722
        k(   29) = (   0.0204404   0.0204404   0.0204404), wk =   0.0092593
        k(   30) = (   0.0204404   0.0204404   0.0408808), wk =   0.0277778
        k(   31) = (   0.0204404   0.0204404   0.0613212), wk =   0.0277778
        k(   32) = (   0.0204404   0.0204404   0.0817616), wk =   0.0277778
        k(   33) = (   0.0204404   0.0204404   0.1022020), wk =   0.0277778
        k(   34) = (   0.0204404   0.0204404  -0.1226424), wk =   0.0138889
        k(   35) = (   0.0204404   0.0408808   0.0408808), wk =   0.0277778
        k(   36) = (   0.0204404   0.0408808   0.0613212), wk =   0.0555556
        k(   37) = (   0.0204404   0.0408808   0.0817616), wk =   0.0555556
        k(   38) = (   0.0204404   0.0408808   0.1022020), wk =   0.0555556
        k(   39) = (   0.0204404   0.0408808  -0.1226424), wk =   0.0277778
        k(   40) = (   0.0204404   0.0613212   0.0613212), wk =   0.0277778
        k(   41) = (   0.0204404   0.0613212   0.0817616), wk =   0.0555556
        k(   42) = (   0.0204404   0.0613212   0.1022020), wk =   0.0555556
        k(   43) = (   0.0204404   0.0613212  -0.1226424), wk =   0.0277778
        k(   44) = (   0.0204404   0.0817616   0.0817616), wk =   0.0277778
        k(   45) = (   0.0204404   0.0817616   0.1022020), wk =   0.0555556
        k(   46) = (   0.0204404   0.0817616  -0.1226424), wk =   0.0277778
        k(   47) = (   0.0204404   0.1022020   0.1022020), wk =   0.0277778
        k(   48) = (   0.0204404   0.1022020  -0.1226424), wk =   0.0277778
        k(   49) = (   0.0204404  -0.1226424  -0.1226424), wk =   0.0069444
        k(   50) = (   0.0408808   0.0408808   0.0408808), wk =   0.0092593
        k(   51) = (   0.0408808   0.0408808   0.0613212), wk =   0.0277778
        k(   52) = (   0.0408808   0.0408808   0.0817616), wk =   0.0277778
        k(   53) = (   0.0408808   0.0408808   0.1022020), wk =   0.0277778
        k(   54) = (   0.0408808   0.0408808  -0.1226424), wk =   0.0138889
        k(   55) = (   0.0408808   0.0613212   0.0613212), wk =   0.0277778
        k(   56) = (   0.0408808   0.0613212   0.0817616), wk =   0.0555556
        k(   57) = (   0.0408808   0.0613212   0.1022020), wk =   0.0555556
        k(   58) = (   0.0408808   0.0613212  -0.1226424), wk =   0.0277778
        k(   59) = (   0.0408808   0.0817616   0.0817616), wk =   0.0277778
        k(   60) = (   0.0408808   0.0817616   0.1022020), wk =   0.0555556
[...]
        k(   70) = (   0.0613212   0.0817616   0.1022020), wk =   0.0555556
        k(   71) = (   0.0613212   0.0817616  -0.1226424), wk =   0.0277778
        k(   72) = (   0.0613212   0.1022020   0.1022020), wk =   0.0277778
        k(   73) = (   0.0613212   0.1022020  -0.1226424), wk =   0.0277778
        k(   74) = (   0.0613212  -0.1226424  -0.1226424), wk =   0.0069444
        k(   75) = (   0.0817616   0.0817616   0.0817616), wk =   0.0092593
        k(   76) = (   0.0817616   0.0817616   0.1022020), wk =   0.0277778
        k(   77) = (   0.0817616   0.0817616  -0.1226424), wk =   0.0138889
        k(   78) = (   0.0817616   0.1022020   0.1022020), wk =   0.0277778
        k(   79) = (   0.0817616   0.1022020  -0.1226424), wk =   0.0277778
        k(   80) = (   0.0817616  -0.1226424  -0.1226424), wk =   0.0069444
        k(   81) = (   0.1022020   0.1022020   0.1022020), wk =   0.0092593
        k(   82) = (   0.1022020   0.1022020  -0.1226424), wk =   0.0138889
        k(   83) = (   0.1022020  -0.1226424  -0.1226424), wk =   0.0069444
        k(   84) = (  -0.1226424  -0.1226424  -0.1226424), wk =   0.0011574

     Largest allocated arrays     est. size (Mb)     dimensions
     Largest temporary arrays     est. size (Mb)     dimensions

     Initial potential from superposition of free atoms

     starting charge   53.49681, renormalised to   55.00000

     *
     * You are using vdW-DF for exchange-correlation in this calculation.
     * Please cite the following three references that made this development
     * possible:
     *
     *   M. Dion, H. Rydberg, E. Schroder, D. C. Langreth, and
     *   B. I. Lundqvist, Phys. Rev. Lett. 92, 246401 (2004).
     *
     *   T. Thonhauser, V. R. Cooper, S. Li, A. Puzder, P. Hyldgaard, and
     *   D. C. Langreth, Phys. Rev. B 76, 125112 (2007).
     *
     *   G. Roman-Perez and J. M. Soler, Phys. Rev. Lett. 103, 096102 (2009).
     *
     *
     * If you are using vdW-DF2, please also cite:
     *
     *   K. Lee, E. D. Murray, L. Kong, B. I. Lundqvist, and
     *   D. C. Langreth, Phys. Rev. B 82, 081101(R) (2010).
     *
     *
     * If you are calculating the stress with vdW-DF, please also cite:
     *
     *   R. Sabatini, E. Kucukbenli, B. Kolb, T. Thonhauser, and
     *   S. de Gironcoli, J. Phys.: Condens. Matter 24, 424209 (2012).
     *

     Carrying out vdW-DF run using the following parameters:

     Nqs =      20    Nr_points =    1024   r_max =   100.000
     q_mesh =
               0.00001000     0.04494208     0.09755937     0.15916263
               0.23128650     0.31572767     0.41458969     0.53033537
               0.66584808     0.82450364     1.01025438     1.22772762
               1.48234092     1.78043706     2.12944203     2.53805004
               3.01644009     3.57652955     4.23227104     5.00000000

     Gradients computed in reciprocal space

     Starting wfc are   48 randomized atomic wfcs

     Self-consistent Calculation

     iteration #  1     ecut=    58.80 Ry     beta=0.10
     Davidson diagonalization with overlap
     ethr =  1.00E-02,  avg # of iterations =  4.6

     total energy              =    -554.91807057 Ry
     Harris-Foulkes estimate   =    -554.96442827 Ry
     estimated scf accuracy    <       0.69086595 Ry

[...]

     total energy              =    -554.72109124 Ry
     Harris-Foulkes estimate   =    -554.72109060 Ry
     estimated scf accuracy    <       0.00000007 Ry

     iteration # 13     ecut=    58.80 Ry     beta=0.10
     Davidson diagonalization with overlap
     ethr =  1.19E-10,  avg # of iterations =  2.1

     End of self-consistent calculation

          k = 0.0000 0.0000 0.0000 (  3431 PWs)   bands (ev):

   -42.7581 -42.5848 -42.5848 -17.0512 -17.0512 -17.0512 -16.6420 -16.6420
   -16.6420 -16.3336 -16.3336 -16.3336   3.8508   3.8508   3.8784   3.8784
     3.8784   9.6159  13.4902  15.3163  15.3163  15.3163  15.3370  15.3370
    19.1290  19.1290  19.1290  19.5560  19.5560  19.5560  20.7343  20.7343
    21.7042  22.3469  22.3469  22.3469  25.7360  27.8785  27.8785  27.8785
    29.3350  29.3350  30.2530  30.2530  30.2530  31.2609  34.2043

[...]

          k = 0.1022-0.1226-0.1226 (  3488 PWs)   bands (ev):

[...]

          k =-0.1226-0.1226-0.1226 (  3448 PWs)   bands (ev):

   -42.6414 -42.6414 -42.6414 -17.2390 -17.0272 -17.0272 -17.0272 -16.4015
   -16.4015 -16.4015 -16.3235 -16.3235   3.8594   3.8594   3.8594   3.9982
     3.9982  11.3644  14.9731  14.9731  14.9731  17.2369  17.2369  17.2369
    17.3201  17.3201  17.3201  19.0613  19.0613  19.0613  19.6805  19.7876
    19.7876  21.7923  21.7923  21.7923  23.1593  26.8915  26.8915  26.8915
    30.6583  30.6583  30.6583  30.9756  33.8720  33.8720  33.8720

     the Fermi energy is    18.6807 ev

!    total energy              =    -554.72110419 Ry
     Harris-Foulkes estimate   =    -554.72109126 Ry
     estimated scf accuracy    <          1.0E-09 Ry

     The total energy is the sum of the following terms:

     one-electron contribution =     -86.83365510 Ry
     hartree contribution      =      81.87607197 Ry
     xc contribution           =     -99.48347248 Ry
     ewald contribution        =    -450.27217594 Ry
     smearing contrib. (-TS)   =      -0.00787264 Ry

     convergence has been achieved in  13 iterations

     Forces acting on atoms (Ry/au):

     atom    1 type  1   force =     0.00000000    0.00000000    0.00000000
     atom    2 type  1   force =     0.00000000    0.00000000    0.00000000
     atom    3 type  1   force =     0.00000000    0.00000000    0.00000000
     atom    4 type  2   force =     0.00000000    0.00000000   -0.00000000

     Total force =     0.000000     Total SCF correction =     0.000000
 !ASE

     General routines

     Parallel routines

   This run was terminated on:   6: 1: 5  25Oct2017

   JOB DONE.