     Program PWSCF v.5.1rc2 (svn rev. ) starts on 25Oct2017 at 15: 0:53

     Current dimensions of program PWSCF are:
     Max number of different atomic species (ntypx) = 10
     Max number of k-points (npk) =  40000
     Max angular momentum in pseudopotentials (lmaxx) =  3

     IMPORTANT: XC functional enforced from input :
     Exchange-correlation      = BEEF-VDW ( 1  4 27 13 2)
     Any further DFT definition will be discarded
     Please, verify this is what you really want

     Subspace diagonalization in iterative solution of the eigenvalue problem:
     a serial algorithm will be used

     bravais-lattice index     =            0
     lattice parameter (alat)  =       1.8897  a.u.
     unit-cell volume          =     380.7960 (a.u.)^3
     number of atoms/cell      =            4
     number of atomic types    =            2
     number of electrons       =        63.00
     number of Kohn-Sham states=           51
     kinetic-energy cutoff     =      58.7989  Ry
     charge density cutoff     =     587.9892  Ry
     convergence threshold     =      7.3E-09
     mixing beta               =       0.1000
     number of iterations used =           10  local-TF  mixing
     Exchange-correlation      = BEEF-VDW ( 1  4 27 13 2)
     nstep                     =           50

     celldm(1)=   1.889726  celldm(2)=   0.000000  celldm(3)=   0.000000
     celldm(4)=   0.000000  celldm(5)=   0.000000  celldm(6)=   0.000000

     crystal axes: (cart. coord. in units of alat)
               a(1) = (   3.835588   0.000000   0.000000 )
               a(2) = (   0.000000   3.835588   0.000000 )
               a(3) = (   0.000000   0.000000   3.835588 )

     reciprocal axes: (cart. coord. in units 2 pi/alat)
               b(1) = (  0.260716  0.000000  0.000000 )
               b(2) = (  0.000000  0.260716  0.000000 )
               b(3) = (  0.000000  0.000000  0.260716 )

     PseudoPot. # 1 for Ru read from file:
     /home/vossj/suncat/psp/gbrv1.5pbe/Ru.UPF
     MD5 check sum: 7158a806dd851261a58e6920c40ebe78
     Pseudo is Ultrasoft + core correction, Zval = 16.0
     Generated by new atomic code, or converted to UPF format
     Using radial grid of  967 points,  6 beta functions with:
                l(1) =   0
                l(2) =   0
                l(3) =   1
                l(4) =   1
                l(5) =   2
                l(6) =   2
     Q(r) pseudized with  8 coefficients,  rinner =    1.300   1.300   1.300
                                                       1.300   1.300

     PseudoPot. # 2 for Ir read from file:
     /home/vossj/suncat/psp/gbrv1.5pbe/Ir.UPF
     MD5 check sum: 8836f839c3459d2b385c504ce6d91f2c
     Pseudo is Ultrasoft + core correction, Zval = 15.0
     Generated by new atomic code, or converted to UPF format
     Using radial grid of  983 points,  7 beta functions with:
                l(1) =   0
                l(2) =   0
                l(3) =   1
                l(4) =   1
                l(5) =   1
                l(6) =   2
                l(7) =   2
     Q(r) pseudized with  8 coefficients,  rinner =    1.400   1.400   1.400
                                                       1.400   1.400

     vdW kernel table read from file vdW_kernel_table
     MD5 check sum: 095c7af220d748ca6e76c0b4c6cfb241

     atomic species   valence    mass     pseudopotential
        Ru1           16.00   101.07000     Ru( 1.00)
        Ir1           15.00   192.21700     Ir( 1.00)

     48 Sym. Ops., with inversion, found (32 have fractional translation)

   Cartesian axes

     site n.     atom                  positions (alat units)
         1           Ru1 tau(   1) = (   0.0000000   0.0000000   0.0000000  )
         2           Ru1 tau(   2) = (   0.0000000   1.9177939   1.9177939  )
         3           Ru1 tau(   3) = (   1.9177939   0.0000000   1.9177939  )
         4           Ir1 tau(   4) = (   1.9177939   1.9177939   0.0000000  )

     number of k points=    84  Fermi-Dirac smearing, width (Ry)=  0.0073
                       cart. coord. in units 2pi/alat
        k(    1) = (   0.0000000   0.0000000   0.0000000), wk =   0.0011574
        k(    2) = (   0.0000000   0.0000000   0.0217264), wk =   0.0069444
        k(    3) = (   0.0000000   0.0000000   0.0434527), wk =   0.0069444
        k(    4) = (   0.0000000   0.0000000   0.0651791), wk =   0.0069444
        k(    5) = (   0.0000000   0.0000000   0.0869054), wk =   0.0069444
        k(    6) = (   0.0000000   0.0000000   0.1086318), wk =   0.0069444
        k(    7) = (   0.0000000   0.0000000  -0.1303581), wk =   0.0034722
        k(    8) = (   0.0000000   0.0217264   0.0217264), wk =   0.0138889
        k(    9) = (   0.0000000   0.0217264   0.0434527), wk =   0.0277778
        k(   10) = (   0.0000000   0.0217264   0.0651791), wk =   0.0277778
        k(   11) = (   0.0000000   0.0217264   0.0869054), wk =   0.0277778
        k(   12) = (   0.0000000   0.0217264   0.1086318), wk =   0.0277778
        k(   13) = (   0.0000000   0.0217264  -0.1303581), wk =   0.0138889
        k(   14) = (   0.0000000   0.0434527   0.0434527), wk =   0.0138889
        k(   15) = (   0.0000000   0.0434527   0.0651791), wk =   0.0277778
        k(   16) = (   0.0000000   0.0434527   0.0869054), wk =   0.0277778
        k(   17) = (   0.0000000   0.0434527   0.1086318), wk =   0.0277778
        k(   18) = (   0.0000000   0.0434527  -0.1303581), wk =   0.0138889
        k(   19) = (   0.0000000   0.0651791   0.0651791), wk =   0.0138889
        k(   20) = (   0.0000000   0.0651791   0.0869054), wk =   0.0277778
        k(   21) = (   0.0000000   0.0651791   0.1086318), wk =   0.0277778
        k(   22) = (   0.0000000   0.0651791  -0.1303581), wk =   0.0138889
        k(   23) = (   0.0000000   0.0869054   0.0869054), wk =   0.0138889
        k(   24) = (   0.0000000   0.0869054   0.1086318), wk =   0.0277778
        k(   25) = (   0.0000000   0.0869054  -0.1303581), wk =   0.0138889
        k(   26) = (   0.0000000   0.1086318   0.1086318), wk =   0.0138889
        k(   27) = (   0.0000000   0.1086318  -0.1303581), wk =   0.0138889
        k(   28) = (   0.0000000  -0.1303581  -0.1303581), wk =   0.0034722
        k(   29) = (   0.0217264   0.0217264   0.0217264), wk =   0.0092593
        k(   30) = (   0.0217264   0.0217264   0.0434527), wk =   0.0277778
        k(   31) = (   0.0217264   0.0217264   0.0651791), wk =   0.0277778
        k(   32) = (   0.0217264   0.0217264   0.0869054), wk =   0.0277778
        k(   33) = (   0.0217264   0.0217264   0.1086318), wk =   0.0277778
        k(   34) = (   0.0217264   0.0217264  -0.1303581), wk =   0.0138889
        k(   35) = (   0.0217264   0.0434527   0.0434527), wk =   0.0277778
        k(   36) = (   0.0217264   0.0434527   0.0651791), wk =   0.0555556
        k(   37) = (   0.0217264   0.0434527   0.0869054), wk =   0.0555556
        k(   38) = (   0.0217264   0.0434527   0.1086318), wk =   0.0555556
        k(   39) = (   0.0217264   0.0434527  -0.1303581), wk =   0.0277778
        k(   40) = (   0.0217264   0.0651791   0.0651791), wk =   0.0277778
        k(   41) = (   0.0217264   0.0651791   0.0869054), wk =   0.0555556
        k(   42) = (   0.0217264   0.0651791   0.1086318), wk =   0.0555556
        k(   43) = (   0.0217264   0.0651791  -0.1303581), wk =   0.0277778
        k(   44) = (   0.0217264   0.0869054   0.0869054), wk =   0.0277778
        k(   45) = (   0.0217264   0.0869054   0.1086318), wk =   0.0555556
        k(   46) = (   0.0217264   0.0869054  -0.1303581), wk =   0.0277778
        k(   47) = (   0.0217264   0.1086318   0.1086318), wk =   0.0277778
        k(   48) = (   0.0217264   0.1086318  -0.1303581), wk =   0.0277778
        k(   49) = (   0.0217264  -0.1303581  -0.1303581), wk =   0.0069444
        k(   50) = (   0.0434527   0.0434527   0.0434527), wk =   0.0092593
        k(   51) = (   0.0434527   0.0434527   0.0651791), wk =   0.0277778
        k(   52) = (   0.0434527   0.0434527   0.0869054), wk =   0.0277778
        k(   53) = (   0.0434527   0.0434527   0.1086318), wk =   0.0277778
        k(   54) = (   0.0434527   0.0434527  -0.1303581), wk =   0.0138889
        k(   55) = (   0.0434527   0.0651791   0.0651791), wk =   0.0277778
        k(   56) = (   0.0434527   0.0651791   0.0869054), wk =   0.0555556
        k(   57) = (   0.0434527   0.0651791   0.1086318), wk =   0.0555556
        k(   58) = (   0.0434527   0.0651791  -0.1303581), wk =   0.0277778
        k(   59) = (   0.0434527   0.0869054   0.0869054), wk =   0.0277778
        k(   60) = (   0.0434527   0.0869054   0.1086318), wk =   0.0555556
[...]
        k(   70) = (   0.0651791   0.0869054   0.1086318), wk =   0.0555556
        k(   71) = (   0.0651791   0.0869054  -0.1303581), wk =   0.0277778
        k(   72) = (   0.0651791   0.1086318   0.1086318), wk =   0.0277778
        k(   73) = (   0.0651791   0.1086318  -0.1303581), wk =   0.0277778
        k(   74) = (   0.0651791  -0.1303581  -0.1303581), wk =   0.0069444
        k(   75) = (   0.0869054   0.0869054   0.0869054), wk =   0.0092593
        k(   76) = (   0.0869054   0.0869054   0.1086318), wk =   0.0277778
        k(   77) = (   0.0869054   0.0869054  -0.1303581), wk =   0.0138889
        k(   78) = (   0.0869054   0.1086318   0.1086318), wk =   0.0277778
        k(   79) = (   0.0869054   0.1086318  -0.1303581), wk =   0.0277778
        k(   80) = (   0.0869054  -0.1303581  -0.1303581), wk =   0.0069444
        k(   81) = (   0.1086318   0.1086318   0.1086318), wk =   0.0092593
        k(   82) = (   0.1086318   0.1086318  -0.1303581), wk =   0.0138889
        k(   83) = (   0.1086318  -0.1303581  -0.1303581), wk =   0.0069444
        k(   84) = (  -0.1303581  -0.1303581  -0.1303581), wk =   0.0011574

     Largest allocated arrays     est. size (Mb)     dimensions
     Largest temporary arrays     est. size (Mb)     dimensions

     Initial potential from superposition of free atoms
     Check: negative starting charge=   -0.586478

     starting charge   59.49992, renormalised to   63.00000

     negative rho (up, down):  6.210E-01 0.000E+00

     *
     * You are using vdW-DF for exchange-correlation in this calculation.
     * Please cite the following three references that made this development
     * possible:
     *
     *   M. Dion, H. Rydberg, E. Schroder, D. C. Langreth, and
     *   B. I. Lundqvist, Phys. Rev. Lett. 92, 246401 (2004).
     *
     *   T. Thonhauser, V. R. Cooper, S. Li, A. Puzder, P. Hyldgaard, and
     *   D. C. Langreth, Phys. Rev. B 76, 125112 (2007).
     *
     *   G. Roman-Perez and J. M. Soler, Phys. Rev. Lett. 103, 096102 (2009).
     *
     *
     * If you are using vdW-DF2, please also cite:
     *
     *   K. Lee, E. D. Murray, L. Kong, B. I. Lundqvist, and
     *   D. C. Langreth, Phys. Rev. B 82, 081101(R) (2010).
     *
     *
     * If you are calculating the stress with vdW-DF, please also cite:
     *
     *   R. Sabatini, E. Kucukbenli, B. Kolb, T. Thonhauser, and
     *   S. de Gironcoli, J. Phys.: Condens. Matter 24, 424209 (2012).
     *

     Carrying out vdW-DF run using the following parameters:

     Nqs =      20    Nr_points =    1024   r_max =   100.000
     q_mesh =
               0.00001000     0.04494208     0.09755937     0.15916263
               0.23128650     0.31572767     0.41458969     0.53033537
               0.66584808     0.82450364     1.01025438     1.22772762
               1.48234092     1.78043706     2.12944203     2.53805004
               3.01644009     3.57652955     4.23227104     5.00000000

     Gradients computed in reciprocal space

     Starting wfc are   51 randomized atomic wfcs

     Self-consistent Calculation

     iteration #  1     ecut=    58.80 Ry     beta=0.10
     Davidson diagonalization with overlap
     ethr =  1.00E-02,  avg # of iterations =  4.5

[...]

     total energy              =    -769.98496450 Ry
     Harris-Foulkes estimate   =    -770.33643947 Ry
     estimated scf accuracy    <       5.61090044 Ry

[...]

     total energy              =    -768.81598426 Ry
     Harris-Foulkes estimate   =    -768.81598351 Ry
     estimated scf accuracy    <       0.00000003 Ry

     iteration # 14     ecut=    58.80 Ry     beta=0.10
     Davidson diagonalization with overlap
     ethr =  4.17E-11,  avg # of iterations =  1.3

     negative rho (up, down):  5.500E-01 0.000E+00

     End of self-consistent calculation

          k = 0.0000 0.0000 0.0000 (  2945 PWs)   bands (ev):

   -50.4035 -50.2536 -50.2536 -26.7196 -26.7196 -26.7196 -20.5706 -20.5706
   -20.5706 -20.2075 -20.2075 -20.2075 -19.9615 -19.9615 -19.9615  14.3605
    16.3065  16.3065  16.6191  16.8460  16.8460  16.8460  20.0879  20.0879
    20.0879  22.4235  22.4235  24.1771  24.1771  24.2436  24.7091  24.7091
    24.7091  24.7824  24.7824  24.7824  26.0684  26.0684  26.0684  33.8573
    34.2791  35.6743  35.6743  35.6743  35.8904  35.8904  35.8904  36.2264
    36.2264  37.5882  43.0624

[...]

          k = 0.1086-0.1304-0.1304 (  2912 PWs)   bands (ev):

[...]

          k =-0.1304-0.1304-0.1304 (  2872 PWs)   bands (ev):

   -50.3028 -50.3028 -50.3028 -26.7297 -26.7297 -26.7297 -20.7755 -20.5107
   -20.5107 -20.5107 -19.9979 -19.9979 -19.9979 -19.9809 -19.9809  16.1680
    16.6759  16.6759  16.6759  19.6181  19.6181  19.9655  19.9655  19.9655
    20.1723  20.1723  20.1723  23.4406  23.4406  23.4406  23.8218  24.2057
    24.2057  24.2215  24.2215  24.2215  24.2991  24.2991  24.2991  30.2265
    32.5836  32.5836  32.5836  33.9090  37.1931  37.1931  37.1931  37.2557
    43.1825  43.1825  43.1828

     the Fermi energy is    22.7998 ev

!    total energy              =    -768.81598737 Ry
     Harris-Foulkes estimate   =    -768.81598426 Ry
     estimated scf accuracy    <          1.2E-09 Ry

     The total energy is the sum of the following terms:

     one-electron contribution =    -114.76315684 Ry
     hartree contribution      =     106.57237194 Ry
     xc contribution           =    -132.73322135 Ry
     ewald contribution        =    -627.88195253 Ry
     smearing contrib. (-TS)   =      -0.01002859 Ry

     convergence has been achieved in  14 iterations

     Forces acting on atoms (Ry/au):

     negative rho (up, down):  5.500E-01 0.000E+00
     atom    1 type  1   force =     0.00000000    0.00000000    0.00000000
     atom    2 type  1   force =     0.00000000   -0.00000000    0.00000000
     atom    3 type  1   force =     0.00000000    0.00000000    0.00000000
     atom    4 type  2   force =     0.00000000    0.00000000    0.00000000

     Total force =     0.000000     Total SCF correction =     0.000000
 !ASE

     General routines

     Parallel routines

   This run was terminated on:  15: 1:49  25Oct2017

   JOB DONE.