     Program PWSCF v.5.1rc2 (svn rev. ) starts on 25Oct2017 at  6:11:36

     Current dimensions of program PWSCF are:
     Max number of different atomic species (ntypx) = 10
     Max number of k-points (npk) =  40000
     Max angular momentum in pseudopotentials (lmaxx) =  3

     IMPORTANT: XC functional enforced from input :
     Exchange-correlation      = BEEF-VDW ( 1  4 27 13 2)
     Any further DFT definition will be discarded
     Please, verify this is what you really want

     Subspace diagonalization in iterative solution of the eigenvalue problem:
     a serial algorithm will be used

     bravais-lattice index     =            0
     lattice parameter (alat)  =       1.8897  a.u.
     unit-cell volume          =     412.5758 (a.u.)^3
     number of atoms/cell      =            4
     number of atomic types    =            2
     number of electrons       =        63.00
     number of Kohn-Sham states=           51
     kinetic-energy cutoff     =      58.7989  Ry
     charge density cutoff     =     587.9892  Ry
     convergence threshold     =      7.3E-09
     mixing beta               =       0.1000
     number of iterations used =           10  local-TF  mixing
     Exchange-correlation      = BEEF-VDW ( 1  4 27 13 2)
     nstep                     =           50

     celldm(1)=   1.889726  celldm(2)=   0.000000  celldm(3)=   0.000000
     celldm(4)=   0.000000  celldm(5)=   0.000000  celldm(6)=   0.000000

     crystal axes: (cart. coord. in units of alat)
               a(1) = (   3.939451   0.000000   0.000000 )
               a(2) = (   0.000000   3.939451   0.000000 )
               a(3) = (   0.000000   0.000000   3.939451 )

     reciprocal axes: (cart. coord. in units 2 pi/alat)
               b(1) = (  0.253842  0.000000  0.000000 )
               b(2) = (  0.000000  0.253842  0.000000 )
               b(3) = (  0.000000  0.000000  0.253842 )

     PseudoPot. # 1 for Pd read from file:
     /home/vossj/suncat/psp/gbrv1.5pbe/Pd.UPF
     MD5 check sum: 2d733d2bc2cbfd217af676df1668a4bc
     Pseudo is Ultrasoft + core correction, Zval = 16.0
     Generated by new atomic code, or converted to UPF format
     Using radial grid of  887 points,  6 beta functions with:
                l(1) =   0
                l(2) =   0
                l(3) =   1
                l(4) =   1
                l(5) =   2
                l(6) =   2
     Q(r) pseudized with  8 coefficients,  rinner =    1.130   1.130   1.130
                                                       1.130   1.130

     PseudoPot. # 2 for Re read from file:
     /home/vossj/suncat/psp/gbrv1.5pbe/Re.UPF
     MD5 check sum: 85f993410f3e006da9d71c142b4ad953
     Pseudo is Ultrasoft + core correction, Zval = 15.0
     Generated by new atomic code, or converted to UPF format
     Using radial grid of  981 points,  8 beta functions with:
                l(1) =   0
                l(2) =   0
                l(3) =   1
                l(4) =   1
                l(5) =   2
                l(6) =   2
                l(7) =   3
                l(8) =   3
     Q(r) pseudized with  8 coefficients,  rinner =    1.150   1.150   1.150
                                                       1.150   1.150   1.150
                                                       1.150

     vdW kernel table read from file vdW_kernel_table
     MD5 check sum: 095c7af220d748ca6e76c0b4c6cfb241

     atomic species   valence    mass     pseudopotential
        Pd1           16.00   106.42000     Pd( 1.00)
        Re1           15.00   186.20700     Re( 1.00)

     48 Sym. Ops., with inversion, found (32 have fractional translation)

   Cartesian axes

     site n.     atom                  positions (alat units)
         1           Pd1 tau(   1) = (   0.0000000   0.0000000   0.0000000  )
         2           Pd1 tau(   2) = (   0.0000000   1.9697256   1.9697256  )
         3           Pd1 tau(   3) = (   1.9697256   0.0000000   1.9697256  )
         4           Re1 tau(   4) = (   1.9697256   1.9697256   0.0000000  )

     number of k points=    84  Fermi-Dirac smearing, width (Ry)=  0.0073
                       cart. coord. in units 2pi/alat
        k(    1) = (   0.0000000   0.0000000   0.0000000), wk =   0.0011574
        k(    2) = (   0.0000000   0.0000000   0.0211535), wk =   0.0069444
        k(    3) = (   0.0000000   0.0000000   0.0423071), wk =   0.0069444
        k(    4) = (   0.0000000   0.0000000   0.0634606), wk =   0.0069444
        k(    5) = (   0.0000000   0.0000000   0.0846142), wk =   0.0069444
        k(    6) = (   0.0000000   0.0000000   0.1057677), wk =   0.0069444
        k(    7) = (   0.0000000   0.0000000  -0.1269212), wk =   0.0034722
        k(    8) = (   0.0000000   0.0211535   0.0211535), wk =   0.0138889
        k(    9) = (   0.0000000   0.0211535   0.0423071), wk =   0.0277778
        k(   10) = (   0.0000000   0.0211535   0.0634606), wk =   0.0277778
        k(   11) = (   0.0000000   0.0211535   0.0846142), wk =   0.0277778
        k(   12) = (   0.0000000   0.0211535   0.1057677), wk =   0.0277778
        k(   13) = (   0.0000000   0.0211535  -0.1269212), wk =   0.0138889
        k(   14) = (   0.0000000   0.0423071   0.0423071), wk =   0.0138889
        k(   15) = (   0.0000000   0.0423071   0.0634606), wk =   0.0277778
        k(   16) = (   0.0000000   0.0423071   0.0846142), wk =   0.0277778
        k(   17) = (   0.0000000   0.0423071   0.1057677), wk =   0.0277778
        k(   18) = (   0.0000000   0.0423071  -0.1269212), wk =   0.0138889
        k(   19) = (   0.0000000   0.0634606   0.0634606), wk =   0.0138889
        k(   20) = (   0.0000000   0.0634606   0.0846142), wk =   0.0277778
        k(   21) = (   0.0000000   0.0634606   0.1057677), wk =   0.0277778
        k(   22) = (   0.0000000   0.0634606  -0.1269212), wk =   0.0138889
        k(   23) = (   0.0000000   0.0846142   0.0846142), wk =   0.0138889
        k(   24) = (   0.0000000   0.0846142   0.1057677), wk =   0.0277778
        k(   25) = (   0.0000000   0.0846142  -0.1269212), wk =   0.0138889
        k(   26) = (   0.0000000   0.1057677   0.1057677), wk =   0.0138889
        k(   27) = (   0.0000000   0.1057677  -0.1269212), wk =   0.0138889
        k(   28) = (   0.0000000  -0.1269212  -0.1269212), wk =   0.0034722
        k(   29) = (   0.0211535   0.0211535   0.0211535), wk =   0.0092593
        k(   30) = (   0.0211535   0.0211535   0.0423071), wk =   0.0277778
        k(   31) = (   0.0211535   0.0211535   0.0634606), wk =   0.0277778
        k(   32) = (   0.0211535   0.0211535   0.0846142), wk =   0.0277778
        k(   33) = (   0.0211535   0.0211535   0.1057677), wk =   0.0277778
        k(   34) = (   0.0211535   0.0211535  -0.1269212), wk =   0.0138889
        k(   35) = (   0.0211535   0.0423071   0.0423071), wk =   0.0277778
        k(   36) = (   0.0211535   0.0423071   0.0634606), wk =   0.0555556
        k(   37) = (   0.0211535   0.0423071   0.0846142), wk =   0.0555556
        k(   38) = (   0.0211535   0.0423071   0.1057677), wk =   0.0555556
        k(   39) = (   0.0211535   0.0423071  -0.1269212), wk =   0.0277778
        k(   40) = (   0.0211535   0.0634606   0.0634606), wk =   0.0277778
        k(   41) = (   0.0211535   0.0634606   0.0846142), wk =   0.0555556
        k(   42) = (   0.0211535   0.0634606   0.1057677), wk =   0.0555556
        k(   43) = (   0.0211535   0.0634606  -0.1269212), wk =   0.0277778
        k(   44) = (   0.0211535   0.0846142   0.0846142), wk =   0.0277778
        k(   45) = (   0.0211535   0.0846142   0.1057677), wk =   0.0555556
        k(   46) = (   0.0211535   0.0846142  -0.1269212), wk =   0.0277778
        k(   47) = (   0.0211535   0.1057677   0.1057677), wk =   0.0277778
        k(   48) = (   0.0211535   0.1057677  -0.1269212), wk =   0.0277778
        k(   49) = (   0.0211535  -0.1269212  -0.1269212), wk =   0.0069444
        k(   50) = (   0.0423071   0.0423071   0.0423071), wk =   0.0092593
        k(   51) = (   0.0423071   0.0423071   0.0634606), wk =   0.0277778
        k(   52) = (   0.0423071   0.0423071   0.0846142), wk =   0.0277778
        k(   53) = (   0.0423071   0.0423071   0.1057677), wk =   0.0277778
        k(   54) = (   0.0423071   0.0423071  -0.1269212), wk =   0.0138889
        k(   55) = (   0.0423071   0.0634606   0.0634606), wk =   0.0277778
        k(   56) = (   0.0423071   0.0634606   0.0846142), wk =   0.0555556
        k(   57) = (   0.0423071   0.0634606   0.1057677), wk =   0.0555556
        k(   58) = (   0.0423071   0.0634606  -0.1269212), wk =   0.0277778
        k(   59) = (   0.0423071   0.0846142   0.0846142), wk =   0.0277778
        k(   60) = (   0.0423071   0.0846142   0.1057677), wk =   0.0555556
[...]
        k(   70) = (   0.0634606   0.0846142   0.1057677), wk =   0.0555556
        k(   71) = (   0.0634606   0.0846142  -0.1269212), wk =   0.0277778
        k(   72) = (   0.0634606   0.1057677   0.1057677), wk =   0.0277778
        k(   73) = (   0.0634606   0.1057677  -0.1269212), wk =   0.0277778
        k(   74) = (   0.0634606  -0.1269212  -0.1269212), wk =   0.0069444
        k(   75) = (   0.0846142   0.0846142   0.0846142), wk =   0.0092593
        k(   76) = (   0.0846142   0.0846142   0.1057677), wk =   0.0277778
        k(   77) = (   0.0846142   0.0846142  -0.1269212), wk =   0.0138889
        k(   78) = (   0.0846142   0.1057677   0.1057677), wk =   0.0277778
        k(   79) = (   0.0846142   0.1057677  -0.1269212), wk =   0.0277778
        k(   80) = (   0.0846142  -0.1269212  -0.1269212), wk =   0.0069444
        k(   81) = (   0.1057677   0.1057677   0.1057677), wk =   0.0092593
        k(   82) = (   0.1057677   0.1057677  -0.1269212), wk =   0.0138889
        k(   83) = (   0.1057677  -0.1269212  -0.1269212), wk =   0.0069444
        k(   84) = (  -0.1269212  -0.1269212  -0.1269212), wk =   0.0011574

     Largest allocated arrays     est. size (Mb)     dimensions
     Largest temporary arrays     est. size (Mb)     dimensions

     Initial potential from superposition of free atoms
     Check: negative starting charge=   -0.362173

     starting charge   60.99993, renormalised to   63.00000

     negative rho (up, down):  3.740E-01 0.000E+00

     *
     * You are using vdW-DF for exchange-correlation in this calculation.
     * Please cite the following three references that made this development
     * possible:
     *
     *   M. Dion, H. Rydberg, E. Schroder, D. C. Langreth, and
     *   B. I. Lundqvist, Phys. Rev. Lett. 92, 246401 (2004).
     *
     *   T. Thonhauser, V. R. Cooper, S. Li, A. Puzder, P. Hyldgaard, and
     *   D. C. Langreth, Phys. Rev. B 76, 125112 (2007).
     *
     *   G. Roman-Perez and J. M. Soler, Phys. Rev. Lett. 103, 096102 (2009).
     *
     *
     * If you are using vdW-DF2, please also cite:
     *
     *   K. Lee, E. D. Murray, L. Kong, B. I. Lundqvist, and
     *   D. C. Langreth, Phys. Rev. B 82, 081101(R) (2010).
     *
     *
     * If you are calculating the stress with vdW-DF, please also cite:
     *
     *   R. Sabatini, E. Kucukbenli, B. Kolb, T. Thonhauser, and
     *   S. de Gironcoli, J. Phys.: Condens. Matter 24, 424209 (2012).
     *

     Carrying out vdW-DF run using the following parameters:

     Nqs =      20    Nr_points =    1024   r_max =   100.000
     q_mesh =
               0.00001000     0.04494208     0.09755937     0.15916263
               0.23128650     0.31572767     0.41458969     0.53033537
               0.66584808     0.82450364     1.01025438     1.22772762
               1.48234092     1.78043706     2.12944203     2.53805004
               3.01644009     3.57652955     4.23227104     5.00000000

     Gradients computed in reciprocal space

     Starting wfc are   49 randomized atomic wfcs +    2 random wfc

     Self-consistent Calculation

     iteration #  1     ecut=    58.80 Ry     beta=0.10
     Davidson diagonalization with overlap
     ethr =  1.00E-02,  avg # of iterations =  4.5

[...]

     total energy              =    -792.54804250 Ry
     Harris-Foulkes estimate   =    -793.12116279 Ry
     estimated scf accuracy    <      10.10469831 Ry

[...]

     total energy              =    -791.53224077 Ry
     Harris-Foulkes estimate   =    -791.53223945 Ry
     estimated scf accuracy    <       0.00000003 Ry

     iteration # 14     ecut=    58.80 Ry     beta=0.10
     Davidson diagonalization with overlap
     ethr =  4.75E-11,  avg # of iterations =  1.0

     negative rho (up, down):  3.805E-01 0.000E+00

     End of self-consistent calculation

          k = 0.0000 0.0000 0.0000 (  3119 PWs)   bands (ev):

   -61.1694 -31.3117 -31.3117 -31.3117 -31.2123 -31.2123 -31.2123 -31.0221
   -31.0221 -31.0221 -22.8283 -22.8283 -22.8283  11.4240  13.5313  13.5313
    13.7115  13.9438  13.9438  13.9438  16.2551  16.2551  16.2551  17.7960
    17.7960  18.5478  18.9891  18.9891  18.9891  20.4431  20.4431  21.3456
    21.3456  21.3456  22.2533  22.2533  22.2533  29.0636  30.6676  30.6676
    31.3370  31.3370  31.3370  32.5981  32.5981  32.5981  35.6278  40.0988
    40.1770  40.1770  41.1598

[...]

          k = 0.1058-0.1269-0.1269 (  3148 PWs)   bands (ev):

[...]

          k =-0.1269-0.1269-0.1269 (  3112 PWs)   bands (ev):

   -61.1690 -31.3376 -31.3376 -31.3376 -31.2843 -31.1310 -31.1310 -31.1310
   -30.9849 -30.9849 -22.8341 -22.8341 -22.8341  13.2584  13.7801  13.7801
    13.7801  15.9541  15.9541  15.9541  16.2916  16.2916  16.2916  16.4531
    16.4531  18.6488  18.6488  18.6488  19.8751  19.8751  19.8751  20.0765
    20.2556  20.2556  20.2556  20.7194  20.7194  25.2922  27.3730  27.3730
    27.3730  34.8482  34.8482  34.8482  35.3187  38.6165  38.6165  38.6165
    40.1838  40.1838  41.0383

     the Fermi energy is    19.6050 ev

!    total energy              =    -791.53224639 Ry
     Harris-Foulkes estimate   =    -791.53224077 Ry
     estimated scf accuracy    <          4.2E-09 Ry

     The total energy is the sum of the following terms:

     one-electron contribution =    -158.94832997 Ry
     hartree contribution      =     130.46259036 Ry
     xc contribution           =    -151.70285361 Ry
     ewald contribution        =    -611.32787641 Ry
     smearing contrib. (-TS)   =      -0.01577676 Ry

     convergence has been achieved in  14 iterations

     Forces acting on atoms (Ry/au):

     negative rho (up, down):  3.805E-01 0.000E+00
     atom    1 type  1   force =     0.00000000    0.00000000    0.00000000
     atom    2 type  1   force =     0.00000000    0.00000000    0.00000000
     atom    3 type  1   force =     0.00000000    0.00000000   -0.00000000
     atom    4 type  2   force =     0.00000000    0.00000000   -0.00000000

     Total force =     0.000000     Total SCF correction =     0.000000
 !ASE

     General routines

     Parallel routines

   This run was terminated on:   6:12:47  25Oct2017

   JOB DONE.