     Program PWSCF v.5.1rc2 (svn rev. ) starts on 25Oct2017 at 16:20: 8

     Current dimensions of program PWSCF are:
     Max number of different atomic species (ntypx) = 10
     Max number of k-points (npk) =  40000
     Max angular momentum in pseudopotentials (lmaxx) =  3

     IMPORTANT: XC functional enforced from input :
     Exchange-correlation      = BEEF-VDW ( 1  4 27 13 2)
     Any further DFT definition will be discarded
     Please, verify this is what you really want

     Subspace diagonalization in iterative solution of the eigenvalue problem:
     a serial algorithm will be used

     bravais-lattice index     =            0
     lattice parameter (alat)  =       1.8897  a.u.
     unit-cell volume          =     466.6670 (a.u.)^3
     number of atoms/cell      =            4
     number of atomic types    =            2
     number of electrons       =        59.00
     number of Kohn-Sham states=           49
     kinetic-energy cutoff     =      58.7989  Ry
     charge density cutoff     =     587.9892  Ry
     convergence threshold     =      7.3E-09
     mixing beta               =       0.1000
     number of iterations used =           10  local-TF  mixing
     Exchange-correlation      = BEEF-VDW ( 1  4 27 13 2)
     nstep                     =           50

     celldm(1)=   1.889726  celldm(2)=   0.000000  celldm(3)=   0.000000
     celldm(4)=   0.000000  celldm(5)=   0.000000  celldm(6)=   0.000000

     crystal axes: (cart. coord. in units of alat)
               a(1) = (   4.104593   0.000000   0.000000 )
               a(2) = (   0.000000   4.104593   0.000000 )
               a(3) = (   0.000000   0.000000   4.104593 )

     reciprocal axes: (cart. coord. in units 2 pi/alat)
               b(1) = (  0.243629  0.000000  0.000000 )
               b(2) = (  0.000000  0.243629  0.000000 )
               b(3) = (  0.000000  0.000000  0.243629 )

     PseudoPot. # 1 for Nb read from file:
     /home/vossj/suncat/psp/gbrv1.5pbe/Nb.UPF
     MD5 check sum: 573aab8a2fa660278ed4a62cd769473f
     Pseudo is Ultrasoft + core correction, Zval = 13.0
     Generated by new atomic code, or converted to UPF format
     Using radial grid of  887 points,  6 beta functions with:
                l(1) =   0
                l(2) =   0
                l(3) =   1
                l(4) =   1
                l(5) =   2
                l(6) =   2
     Q(r) pseudized with  6 coefficients,  rinner =    1.000   1.000   1.000
                                                       1.000   1.000

     PseudoPot. # 2 for Zn read from file:
     /home/vossj/suncat/psp/gbrv1.5pbe/Zn.UPF
     MD5 check sum: df62231357ef9e81f77b2b3087fa5675
     Pseudo is Ultrasoft, Zval = 20.0
     Generated by new atomic code, or converted to UPF format
     Using radial grid of  943 points,  6 beta functions with:
                l(1) =   0
                l(2) =   0
                l(3) =   1
                l(4) =   1
                l(5) =   2
                l(6) =   2
     Q(r) pseudized with  8 coefficients,  rinner =    1.100   1.100   1.100
                                                       1.100   1.100

     vdW kernel table read from file vdW_kernel_table
     MD5 check sum: 095c7af220d748ca6e76c0b4c6cfb241

     atomic species   valence    mass     pseudopotential
        Nb1           13.00    92.90637     Nb( 1.00)
        Zn1           20.00    65.38000     Zn( 1.00)

     48 Sym. Ops., with inversion, found (32 have fractional translation)

   Cartesian axes

     site n.     atom                  positions (alat units)
         1           Nb1 tau(   1) = (   0.0000000   0.0000000   0.0000000  )
         2           Nb1 tau(   2) = (   0.0000000   2.0522967   2.0522967  )
         3           Nb1 tau(   3) = (   2.0522967   0.0000000   2.0522967  )
         4           Zn1 tau(   4) = (   2.0522967   2.0522967   0.0000000  )

     number of k points=    84  Fermi-Dirac smearing, width (Ry)=  0.0073
                       cart. coord. in units 2pi/alat
        k(    1) = (   0.0000000   0.0000000   0.0000000), wk =   0.0011574
        k(    2) = (   0.0000000   0.0000000   0.0203025), wk =   0.0069444
        k(    3) = (   0.0000000   0.0000000   0.0406049), wk =   0.0069444
        k(    4) = (   0.0000000   0.0000000   0.0609074), wk =   0.0069444
        k(    5) = (   0.0000000   0.0000000   0.0812098), wk =   0.0069444
        k(    6) = (   0.0000000   0.0000000   0.1015123), wk =   0.0069444
        k(    7) = (   0.0000000   0.0000000  -0.1218147), wk =   0.0034722
        k(    8) = (   0.0000000   0.0203025   0.0203025), wk =   0.0138889
        k(    9) = (   0.0000000   0.0203025   0.0406049), wk =   0.0277778
        k(   10) = (   0.0000000   0.0203025   0.0609074), wk =   0.0277778
        k(   11) = (   0.0000000   0.0203025   0.0812098), wk =   0.0277778
        k(   12) = (   0.0000000   0.0203025   0.1015123), wk =   0.0277778
        k(   13) = (   0.0000000   0.0203025  -0.1218147), wk =   0.0138889
        k(   14) = (   0.0000000   0.0406049   0.0406049), wk =   0.0138889
        k(   15) = (   0.0000000   0.0406049   0.0609074), wk =   0.0277778
        k(   16) = (   0.0000000   0.0406049   0.0812098), wk =   0.0277778
        k(   17) = (   0.0000000   0.0406049   0.1015123), wk =   0.0277778
        k(   18) = (   0.0000000   0.0406049  -0.1218147), wk =   0.0138889
        k(   19) = (   0.0000000   0.0609074   0.0609074), wk =   0.0138889
        k(   20) = (   0.0000000   0.0609074   0.0812098), wk =   0.0277778
        k(   21) = (   0.0000000   0.0609074   0.1015123), wk =   0.0277778
        k(   22) = (   0.0000000   0.0609074  -0.1218147), wk =   0.0138889
        k(   23) = (   0.0000000   0.0812098   0.0812098), wk =   0.0138889
        k(   24) = (   0.0000000   0.0812098   0.1015123), wk =   0.0277778
        k(   25) = (   0.0000000   0.0812098  -0.1218147), wk =   0.0138889
        k(   26) = (   0.0000000   0.1015123   0.1015123), wk =   0.0138889
        k(   27) = (   0.0000000   0.1015123  -0.1218147), wk =   0.0138889
        k(   28) = (   0.0000000  -0.1218147  -0.1218147), wk =   0.0034722
        k(   29) = (   0.0203025   0.0203025   0.0203025), wk =   0.0092593
        k(   30) = (   0.0203025   0.0203025   0.0406049), wk =   0.0277778
        k(   31) = (   0.0203025   0.0203025   0.0609074), wk =   0.0277778
        k(   32) = (   0.0203025   0.0203025   0.0812098), wk =   0.0277778
        k(   33) = (   0.0203025   0.0203025   0.1015123), wk =   0.0277778
        k(   34) = (   0.0203025   0.0203025  -0.1218147), wk =   0.0138889
        k(   35) = (   0.0203025   0.0406049   0.0406049), wk =   0.0277778
        k(   36) = (   0.0203025   0.0406049   0.0609074), wk =   0.0555556
        k(   37) = (   0.0203025   0.0406049   0.0812098), wk =   0.0555556
        k(   38) = (   0.0203025   0.0406049   0.1015123), wk =   0.0555556
        k(   39) = (   0.0203025   0.0406049  -0.1218147), wk =   0.0277778
        k(   40) = (   0.0203025   0.0609074   0.0609074), wk =   0.0277778
        k(   41) = (   0.0203025   0.0609074   0.0812098), wk =   0.0555556
        k(   42) = (   0.0203025   0.0609074   0.1015123), wk =   0.0555556
        k(   43) = (   0.0203025   0.0609074  -0.1218147), wk =   0.0277778
        k(   44) = (   0.0203025   0.0812098   0.0812098), wk =   0.0277778
        k(   45) = (   0.0203025   0.0812098   0.1015123), wk =   0.0555556
        k(   46) = (   0.0203025   0.0812098  -0.1218147), wk =   0.0277778
        k(   47) = (   0.0203025   0.1015123   0.1015123), wk =   0.0277778
        k(   48) = (   0.0203025   0.1015123  -0.1218147), wk =   0.0277778
        k(   49) = (   0.0203025  -0.1218147  -0.1218147), wk =   0.0069444
        k(   50) = (   0.0406049   0.0406049   0.0406049), wk =   0.0092593
        k(   51) = (   0.0406049   0.0406049   0.0609074), wk =   0.0277778
        k(   52) = (   0.0406049   0.0406049   0.0812098), wk =   0.0277778
        k(   53) = (   0.0406049   0.0406049   0.1015123), wk =   0.0277778
        k(   54) = (   0.0406049   0.0406049  -0.1218147), wk =   0.0138889
        k(   55) = (   0.0406049   0.0609074   0.0609074), wk =   0.0277778
        k(   56) = (   0.0406049   0.0609074   0.0812098), wk =   0.0555556
        k(   57) = (   0.0406049   0.0609074   0.1015123), wk =   0.0555556
        k(   58) = (   0.0406049   0.0609074  -0.1218147), wk =   0.0277778
        k(   59) = (   0.0406049   0.0812098   0.0812098), wk =   0.0277778
        k(   60) = (   0.0406049   0.0812098   0.1015123), wk =   0.0555556
[...]
        k(   70) = (   0.0609074   0.0812098   0.1015123), wk =   0.0555556
        k(   71) = (   0.0609074   0.0812098  -0.1218147), wk =   0.0277778
        k(   72) = (   0.0609074   0.1015123   0.1015123), wk =   0.0277778
        k(   73) = (   0.0609074   0.1015123  -0.1218147), wk =   0.0277778
        k(   74) = (   0.0609074  -0.1218147  -0.1218147), wk =   0.0069444
        k(   75) = (   0.0812098   0.0812098   0.0812098), wk =   0.0092593
        k(   76) = (   0.0812098   0.0812098   0.1015123), wk =   0.0277778
        k(   77) = (   0.0812098   0.0812098  -0.1218147), wk =   0.0138889
        k(   78) = (   0.0812098   0.1015123   0.1015123), wk =   0.0277778
        k(   79) = (   0.0812098   0.1015123  -0.1218147), wk =   0.0277778
        k(   80) = (   0.0812098  -0.1218147  -0.1218147), wk =   0.0069444
        k(   81) = (   0.1015123   0.1015123   0.1015123), wk =   0.0092593
        k(   82) = (   0.1015123   0.1015123  -0.1218147), wk =   0.0138889
        k(   83) = (   0.1015123  -0.1218147  -0.1218147), wk =   0.0069444
        k(   84) = (  -0.1218147  -0.1218147  -0.1218147), wk =   0.0011574

     Largest allocated arrays     est. size (Mb)     dimensions
     Largest temporary arrays     est. size (Mb)     dimensions

     Initial potential from superposition of free atoms

     starting charge   58.99166, renormalised to   59.00000

     *
     * You are using vdW-DF for exchange-correlation in this calculation.
     * Please cite the following three references that made this development
     * possible:
     *
     *   M. Dion, H. Rydberg, E. Schroder, D. C. Langreth, and
     *   B. I. Lundqvist, Phys. Rev. Lett. 92, 246401 (2004).
     *
     *   T. Thonhauser, V. R. Cooper, S. Li, A. Puzder, P. Hyldgaard, and
     *   D. C. Langreth, Phys. Rev. B 76, 125112 (2007).
     *
     *   G. Roman-Perez and J. M. Soler, Phys. Rev. Lett. 103, 096102 (2009).
     *
     *
     * If you are using vdW-DF2, please also cite:
     *
     *   K. Lee, E. D. Murray, L. Kong, B. I. Lundqvist, and
     *   D. C. Langreth, Phys. Rev. B 82, 081101(R) (2010).
     *
     *
     * If you are calculating the stress with vdW-DF, please also cite:
     *
     *   R. Sabatini, E. Kucukbenli, B. Kolb, T. Thonhauser, and
     *   S. de Gironcoli, J. Phys.: Condens. Matter 24, 424209 (2012).
     *

     Carrying out vdW-DF run using the following parameters:

     Nqs =      20    Nr_points =    1024   r_max =   100.000
     q_mesh =
               0.00001000     0.04494208     0.09755937     0.15916263
               0.23128650     0.31572767     0.41458969     0.53033537
               0.66584808     0.82450364     1.01025438     1.22772762
               1.48234092     1.78043706     2.12944203     2.53805004
               3.01644009     3.57652955     4.23227104     5.00000000

     Gradients computed in reciprocal space

     Starting wfc are   52 randomized atomic wfcs

     Self-consistent Calculation

     iteration #  1     ecut=    58.80 Ry     beta=0.10
     Davidson diagonalization with overlap
     ethr =  1.00E-02,  avg # of iterations =  4.5

     Threshold (ethr) on eigenvalues was too large:
     Diagonalizing with lowered threshold

     Davidson diagonalization with overlap
     ethr =  4.46E-04,  avg # of iterations =  1.2

     total energy              =    -818.56706310 Ry
     Harris-Foulkes estimate   =    -818.57873080 Ry
     estimated scf accuracy    <       0.25992882 Ry

[...]

     total energy              =    -818.51693636 Ry
     Harris-Foulkes estimate   =    -818.51693523 Ry
     estimated scf accuracy    <       0.00000004 Ry

     iteration # 11     ecut=    58.80 Ry     beta=0.10
     Davidson diagonalization with overlap
     ethr =  7.62E-11,  avg # of iterations =  1.3

     End of self-consistent calculation

          k = 0.0000 0.0000 0.0000 (  3575 PWs)   bands (ev):

  -109.2314 -63.3951 -63.3951 -63.3951 -38.1364 -37.8778 -37.8778 -14.5294
   -14.5294 -14.5294 -13.9315 -13.9315 -13.9315 -13.5502 -13.5502 -13.5502
     9.4859   9.6590   9.6590   9.7470   9.7470   9.7470  12.2345  14.4915
    14.4915  14.4915  14.6878  14.6878  18.8721  18.8721  18.8721  19.0935
    19.0935  19.0935  20.6714  20.6714  21.8589  22.5022  22.5022  22.5022
    24.7885  26.6794  26.6794  26.6794  29.2004  29.2004  30.0005  30.0005
    30.0005

[...]

          k = 0.1015-0.1218-0.1218 (  3532 PWs)   bands (ev):

[...]

          k =-0.1218-0.1218-0.1218 (  3544 PWs)   bands (ev):

  -109.2314 -63.3951 -63.3951 -63.3951 -37.9622 -37.9622 -37.9622 -14.8446
   -14.4682 -14.4682 -14.4682 -13.6037 -13.6037 -13.6037 -13.5581 -13.5581
     9.7184   9.7184   9.7184   9.9270   9.9270  11.1047  14.1008  14.1008
    14.1008  16.7915  16.7915  16.7915  16.8980  16.8980  16.8980  18.6716
    18.6716  18.6716  18.7477  19.6816  19.6816  21.8863  21.8863  21.8863
    22.7320  26.8842  26.8842  26.8842  29.5820  29.6466  29.6466  29.6466
    32.0013

     the Fermi energy is    16.8348 ev

!    total energy              =    -818.51694119 Ry
     Harris-Foulkes estimate   =    -818.51693637 Ry
     estimated scf accuracy    <          4.3E-09 Ry

     The total energy is the sum of the following terms:

     one-electron contribution =    -445.75365757 Ry
     hartree contribution      =     253.14970874 Ry
     xc contribution           =    -100.81822911 Ry
     ewald contribution        =    -525.08335438 Ry
     smearing contrib. (-TS)   =      -0.01140888 Ry

     convergence has been achieved in  11 iterations

     Forces acting on atoms (Ry/au):

     atom    1 type  1   force =     0.00000000    0.00000000    0.00000000
     atom    2 type  1   force =     0.00000000    0.00000000    0.00000000
     atom    3 type  1   force =     0.00000000    0.00000000    0.00000000
     atom    4 type  2   force =     0.00000000    0.00000000    0.00000000

     Total force =     0.000000     Total SCF correction =     0.000000
 !ASE

     General routines

     Parallel routines

   This run was terminated on:  16:21: 4  25Oct2017

   JOB DONE.