     Program PWSCF v.5.1rc2 (svn rev. ) starts on 25Oct2017 at  8:43:59

     Current dimensions of program PWSCF are:
     Max number of different atomic species (ntypx) = 10
     Max number of k-points (npk) =  40000
     Max angular momentum in pseudopotentials (lmaxx) =  3

     IMPORTANT: XC functional enforced from input :
     Exchange-correlation      = BEEF-VDW ( 1  4 27 13 2)
     Any further DFT definition will be discarded
     Please, verify this is what you really want

     Subspace diagonalization in iterative solution of the eigenvalue problem:
     a serial algorithm will be used

     bravais-lattice index     =            0
     lattice parameter (alat)  =       1.8897  a.u.
     unit-cell volume          =     491.0344 (a.u.)^3
     number of atoms/cell      =            4
     number of atomic types    =            2
     number of electrons       =        45.00
     number of Kohn-Sham states=           42
     kinetic-energy cutoff     =      58.7989  Ry
     charge density cutoff     =     587.9892  Ry
     convergence threshold     =      7.3E-09
     mixing beta               =       0.1000
     number of iterations used =           10  local-TF  mixing
     Exchange-correlation      = BEEF-VDW ( 1  4 27 13 2)
     nstep                     =           50

     celldm(1)=   1.889726  celldm(2)=   0.000000  celldm(3)=   0.000000
     celldm(4)=   0.000000  celldm(5)=   0.000000  celldm(6)=   0.000000

     crystal axes: (cart. coord. in units of alat)
               a(1) = (   4.174826   0.000000   0.000000 )
               a(2) = (   0.000000   4.174826   0.000000 )
               a(3) = (   0.000000   0.000000   4.174826 )

     reciprocal axes: (cart. coord. in units 2 pi/alat)
               b(1) = (  0.239531  0.000000  0.000000 )
               b(2) = (  0.000000  0.239531  0.000000 )
               b(3) = (  0.000000  0.000000  0.239531 )

     PseudoPot. # 1 for Au read from file:
     /home/vossj/suncat/psp/gbrv1.5pbe/Au.UPF
     MD5 check sum: 9d7f43293ad2c663164586bc4b293ffc
     Pseudo is Ultrasoft + core correction, Zval = 11.0
     Generated by new atomic code, or converted to UPF format
     Using radial grid of  985 points,  7 beta functions with:
                l(1) =   0
                l(2) =   0
                l(3) =   1
                l(4) =   1
                l(5) =   2
                l(6) =   2
                l(7) =   3
     Q(r) pseudized with  6 coefficients,  rinner =    1.900   1.900   1.900
                                                       1.900   1.900   1.900
                                                       1.900

     PseudoPot. # 2 for Ti read from file:
     /home/vossj/suncat/psp/gbrv1.5pbe/Ti.UPF
     MD5 check sum: 88a00a6731bd790ddea75d31a80cb452
     Pseudo is Ultrasoft + core correction, Zval = 12.0
     Generated by new atomic code, or converted to UPF format
     Using radial grid of  851 points,  6 beta functions with:
                l(1) =   0
                l(2) =   0
                l(3) =   1
                l(4) =   1
                l(5) =   2
                l(6) =   2
     Q(r) pseudized with  6 coefficients,  rinner =    1.000   1.000   1.000
                                                       1.000   1.000

     vdW kernel table read from file vdW_kernel_table
     MD5 check sum: 095c7af220d748ca6e76c0b4c6cfb241

     atomic species   valence    mass     pseudopotential
        Au1           11.00   196.96657     Au( 1.00)
        Ti1           12.00    47.86700     Ti( 1.00)

     48 Sym. Ops., with inversion, found (32 have fractional translation)

   Cartesian axes

     site n.     atom                  positions (alat units)
         1           Au1 tau(   1) = (   0.0000000   0.0000000   0.0000000  )
         2           Au1 tau(   2) = (   0.0000000   2.0874132   2.0874132  )
         3           Au1 tau(   3) = (   2.0874132   0.0000000   2.0874132  )
         4           Ti1 tau(   4) = (   2.0874132   2.0874132   0.0000000  )

     number of k points=    84  Fermi-Dirac smearing, width (Ry)=  0.0073
                       cart. coord. in units 2pi/alat
        k(    1) = (   0.0000000   0.0000000   0.0000000), wk =   0.0011574
        k(    2) = (   0.0000000   0.0000000   0.0199609), wk =   0.0069444
        k(    3) = (   0.0000000   0.0000000   0.0399218), wk =   0.0069444
        k(    4) = (   0.0000000   0.0000000   0.0598827), wk =   0.0069444
        k(    5) = (   0.0000000   0.0000000   0.0798436), wk =   0.0069444
        k(    6) = (   0.0000000   0.0000000   0.0998045), wk =   0.0069444
        k(    7) = (   0.0000000   0.0000000  -0.1197655), wk =   0.0034722
        k(    8) = (   0.0000000   0.0199609   0.0199609), wk =   0.0138889
        k(    9) = (   0.0000000   0.0199609   0.0399218), wk =   0.0277778
        k(   10) = (   0.0000000   0.0199609   0.0598827), wk =   0.0277778
        k(   11) = (   0.0000000   0.0199609   0.0798436), wk =   0.0277778
        k(   12) = (   0.0000000   0.0199609   0.0998045), wk =   0.0277778
        k(   13) = (   0.0000000   0.0199609  -0.1197655), wk =   0.0138889
        k(   14) = (   0.0000000   0.0399218   0.0399218), wk =   0.0138889
        k(   15) = (   0.0000000   0.0399218   0.0598827), wk =   0.0277778
        k(   16) = (   0.0000000   0.0399218   0.0798436), wk =   0.0277778
        k(   17) = (   0.0000000   0.0399218   0.0998045), wk =   0.0277778
        k(   18) = (   0.0000000   0.0399218  -0.1197655), wk =   0.0138889
        k(   19) = (   0.0000000   0.0598827   0.0598827), wk =   0.0138889
        k(   20) = (   0.0000000   0.0598827   0.0798436), wk =   0.0277778
        k(   21) = (   0.0000000   0.0598827   0.0998045), wk =   0.0277778
        k(   22) = (   0.0000000   0.0598827  -0.1197655), wk =   0.0138889
        k(   23) = (   0.0000000   0.0798436   0.0798436), wk =   0.0138889
        k(   24) = (   0.0000000   0.0798436   0.0998045), wk =   0.0277778
        k(   25) = (   0.0000000   0.0798436  -0.1197655), wk =   0.0138889
        k(   26) = (   0.0000000   0.0998045   0.0998045), wk =   0.0138889
        k(   27) = (   0.0000000   0.0998045  -0.1197655), wk =   0.0138889
        k(   28) = (   0.0000000  -0.1197655  -0.1197655), wk =   0.0034722
        k(   29) = (   0.0199609   0.0199609   0.0199609), wk =   0.0092593
        k(   30) = (   0.0199609   0.0199609   0.0399218), wk =   0.0277778
        k(   31) = (   0.0199609   0.0199609   0.0598827), wk =   0.0277778
        k(   32) = (   0.0199609   0.0199609   0.0798436), wk =   0.0277778
        k(   33) = (   0.0199609   0.0199609   0.0998045), wk =   0.0277778
        k(   34) = (   0.0199609   0.0199609  -0.1197655), wk =   0.0138889
        k(   35) = (   0.0199609   0.0399218   0.0399218), wk =   0.0277778
        k(   36) = (   0.0199609   0.0399218   0.0598827), wk =   0.0555556
        k(   37) = (   0.0199609   0.0399218   0.0798436), wk =   0.0555556
        k(   38) = (   0.0199609   0.0399218   0.0998045), wk =   0.0555556
        k(   39) = (   0.0199609   0.0399218  -0.1197655), wk =   0.0277778
        k(   40) = (   0.0199609   0.0598827   0.0598827), wk =   0.0277778
        k(   41) = (   0.0199609   0.0598827   0.0798436), wk =   0.0555556
        k(   42) = (   0.0199609   0.0598827   0.0998045), wk =   0.0555556
        k(   43) = (   0.0199609   0.0598827  -0.1197655), wk =   0.0277778
        k(   44) = (   0.0199609   0.0798436   0.0798436), wk =   0.0277778
        k(   45) = (   0.0199609   0.0798436   0.0998045), wk =   0.0555556
        k(   46) = (   0.0199609   0.0798436  -0.1197655), wk =   0.0277778
        k(   47) = (   0.0199609   0.0998045   0.0998045), wk =   0.0277778
        k(   48) = (   0.0199609   0.0998045  -0.1197655), wk =   0.0277778
        k(   49) = (   0.0199609  -0.1197655  -0.1197655), wk =   0.0069444
        k(   50) = (   0.0399218   0.0399218   0.0399218), wk =   0.0092593
        k(   51) = (   0.0399218   0.0399218   0.0598827), wk =   0.0277778
        k(   52) = (   0.0399218   0.0399218   0.0798436), wk =   0.0277778
        k(   53) = (   0.0399218   0.0399218   0.0998045), wk =   0.0277778
        k(   54) = (   0.0399218   0.0399218  -0.1197655), wk =   0.0138889
        k(   55) = (   0.0399218   0.0598827   0.0598827), wk =   0.0277778
        k(   56) = (   0.0399218   0.0598827   0.0798436), wk =   0.0555556
        k(   57) = (   0.0399218   0.0598827   0.0998045), wk =   0.0555556
        k(   58) = (   0.0399218   0.0598827  -0.1197655), wk =   0.0277778
        k(   59) = (   0.0399218   0.0798436   0.0798436), wk =   0.0277778
        k(   60) = (   0.0399218   0.0798436   0.0998045), wk =   0.0555556
[...]
        k(   70) = (   0.0598827   0.0798436   0.0998045), wk =   0.0555556
        k(   71) = (   0.0598827   0.0798436  -0.1197655), wk =   0.0277778
        k(   72) = (   0.0598827   0.0998045   0.0998045), wk =   0.0277778
        k(   73) = (   0.0598827   0.0998045  -0.1197655), wk =   0.0277778
        k(   74) = (   0.0598827  -0.1197655  -0.1197655), wk =   0.0069444
        k(   75) = (   0.0798436   0.0798436   0.0798436), wk =   0.0092593
        k(   76) = (   0.0798436   0.0798436   0.0998045), wk =   0.0277778
        k(   77) = (   0.0798436   0.0798436  -0.1197655), wk =   0.0138889
        k(   78) = (   0.0798436   0.0998045   0.0998045), wk =   0.0277778
        k(   79) = (   0.0798436   0.0998045  -0.1197655), wk =   0.0277778
        k(   80) = (   0.0798436  -0.1197655  -0.1197655), wk =   0.0069444
        k(   81) = (   0.0998045   0.0998045   0.0998045), wk =   0.0092593
        k(   82) = (   0.0998045   0.0998045  -0.1197655), wk =   0.0138889
        k(   83) = (   0.0998045  -0.1197655  -0.1197655), wk =   0.0069444
        k(   84) = (  -0.1197655  -0.1197655  -0.1197655), wk =   0.0011574

     Largest allocated arrays     est. size (Mb)     dimensions
     Largest temporary arrays     est. size (Mb)     dimensions

     Initial potential from superposition of free atoms
     Check: negative starting charge=   -0.001329

     starting charge   43.99959, renormalised to   45.00000

     negative rho (up, down):  1.359E-03 0.000E+00

     *
     * You are using vdW-DF for exchange-correlation in this calculation.
     * Please cite the following three references that made this development
     * possible:
     *
     *   M. Dion, H. Rydberg, E. Schroder, D. C. Langreth, and
     *   B. I. Lundqvist, Phys. Rev. Lett. 92, 246401 (2004).
     *
     *   T. Thonhauser, V. R. Cooper, S. Li, A. Puzder, P. Hyldgaard, and
     *   D. C. Langreth, Phys. Rev. B 76, 125112 (2007).
     *
     *   G. Roman-Perez and J. M. Soler, Phys. Rev. Lett. 103, 096102 (2009).
     *
     *
     * If you are using vdW-DF2, please also cite:
     *
     *   K. Lee, E. D. Murray, L. Kong, B. I. Lundqvist, and
     *   D. C. Langreth, Phys. Rev. B 82, 081101(R) (2010).
     *
     *
     * If you are calculating the stress with vdW-DF, please also cite:
     *
     *   R. Sabatini, E. Kucukbenli, B. Kolb, T. Thonhauser, and
     *   S. de Gironcoli, J. Phys.: Condens. Matter 24, 424209 (2012).
     *

     Carrying out vdW-DF run using the following parameters:

     Nqs =      20    Nr_points =    1024   r_max =   100.000
     q_mesh =
               0.00001000     0.04494208     0.09755937     0.15916263
               0.23128650     0.31572767     0.41458969     0.53033537
               0.66584808     0.82450364     1.01025438     1.22772762
               1.48234092     1.78043706     2.12944203     2.53805004
               3.01644009     3.57652955     4.23227104     5.00000000

     Gradients computed in reciprocal space

     Starting wfc are   37 randomized atomic wfcs +    5 random wfc

     Self-consistent Calculation

     iteration #  1     ecut=    58.80 Ry     beta=0.10
     Davidson diagonalization with overlap
     ethr =  1.00E-02,  avg # of iterations =  4.9

[...]

     total energy              =    -470.17771687 Ry
     Harris-Foulkes estimate   =    -471.45668913 Ry
     estimated scf accuracy    <      24.46871735 Ry

[...]

     total energy              =    -470.09815544 Ry
     Harris-Foulkes estimate   =    -470.09815539 Ry
     estimated scf accuracy    <       0.00000001 Ry

     iteration # 20     ecut=    58.80 Ry     beta=0.10
     Davidson diagonalization with overlap
     ethr =  3.09E-11,  avg # of iterations =  2.1

     negative rho (up, down):  6.174E-04 0.000E+00

     End of self-consistent calculation

          k = 0.0000 0.0000 0.0000 (  3743 PWs)   bands (ev):

   -44.1299 -20.3161 -20.3161 -20.3161   5.1679   7.4036   7.6776   7.6776
     7.7952   7.7952   7.7952   9.7295   9.7295   9.7295  10.8323  10.8323
    11.4021  11.8316  11.8316  11.8316  14.5170  14.5170  15.2246  15.2246
    15.2246  15.2607  15.2607  15.2607  19.2312  19.2312  22.4537  23.5046
    23.5046  23.5046  24.3264  24.3264  24.3264  28.4983  29.5219  29.5219
    31.7520  31.7520

[...]

          k = 0.0998-0.1198-0.1198 (  3744 PWs)   bands (ev):

[...]

          k =-0.1198-0.1198-0.1198 (  3648 PWs)   bands (ev):

   -44.1291 -20.3216 -20.3216 -20.3216   7.3719   7.3719   7.3719   7.4922
     9.0932   9.0932   9.0932   9.8043   9.8043   9.8043  10.1003  10.1003
    11.5099  11.5099  11.5099  13.3325  13.3483  13.3483  13.3483  13.9028
    13.9028  13.9028  15.0200  15.0200  17.3278  17.3278  17.3278  20.0471
    27.8143  27.8143  27.8143  28.0222  30.4413  30.4413  30.4413  30.4741
    30.4742  31.4289

     the Fermi energy is    13.9017 ev

!    total energy              =    -470.09815568 Ry
     Harris-Foulkes estimate   =    -470.09815544 Ry
     estimated scf accuracy    <          5.2E-09 Ry

     The total energy is the sum of the following terms:

     one-electron contribution =     -17.73757344 Ry
     hartree contribution      =      52.86397924 Ry
     xc contribution           =    -210.78439455 Ry
     ewald contribution        =    -294.42204192 Ry
     smearing contrib. (-TS)   =      -0.01812501 Ry

     convergence has been achieved in  20 iterations

     Forces acting on atoms (Ry/au):

     negative rho (up, down):  6.174E-04 0.000E+00
     atom    1 type  1   force =     0.00000000    0.00000000    0.00000000
     atom    2 type  1   force =     0.00000000    0.00000000    0.00000000
     atom    3 type  1   force =     0.00000000    0.00000000    0.00000000
     atom    4 type  2   force =     0.00000000    0.00000000    0.00000000

     Total force =     0.000000     Total SCF correction =     0.000000
 !ASE

     General routines

     Parallel routines

   This run was terminated on:   8:45:42  25Oct2017

   JOB DONE.