     Program PWSCF v.5.1rc2 (svn rev. ) starts on 25Oct2017 at  1:24:39

     Current dimensions of program PWSCF are:
     Max number of different atomic species (ntypx) = 10
     Max number of k-points (npk) =  40000
     Max angular momentum in pseudopotentials (lmaxx) =  3

     IMPORTANT: XC functional enforced from input :
     Exchange-correlation      = BEEF-VDW ( 1  4 27 13 2)
     Any further DFT definition will be discarded
     Please, verify this is what you really want

     Subspace diagonalization in iterative solution of the eigenvalue problem:
     a serial algorithm will be used

     bravais-lattice index     =            0
     lattice parameter (alat)  =       1.8897  a.u.
     unit-cell volume          =     422.6198 (a.u.)^3
     number of atoms/cell      =            4
     number of atomic types    =            2
     number of electrons       =        45.00
     number of Kohn-Sham states=           42
     kinetic-energy cutoff     =      58.7989  Ry
     charge density cutoff     =     587.9892  Ry
     convergence threshold     =      7.3E-09
     mixing beta               =       0.1000
     number of iterations used =           10  local-TF  mixing
     Exchange-correlation      = BEEF-VDW ( 1  4 27 13 2)
     nstep                     =           50

     celldm(1)=   1.889726  celldm(2)=   0.000000  celldm(3)=   0.000000
     celldm(4)=   0.000000  celldm(5)=   0.000000  celldm(6)=   0.000000

     crystal axes: (cart. coord. in units of alat)
               a(1) = (   3.971163   0.000000   0.000000 )
               a(2) = (   0.000000   3.971163   0.000000 )
               a(3) = (   0.000000   0.000000   3.971163 )

     reciprocal axes: (cart. coord. in units 2 pi/alat)
               b(1) = (  0.251815  0.000000  0.000000 )
               b(2) = (  0.000000  0.251815  0.000000 )
               b(3) = (  0.000000  0.000000  0.251815 )

     PseudoPot. # 1 for Mo read from file:
     /home/vossj/suncat/psp/gbrv1.5pbe/Mo.UPF
     MD5 check sum: 30c4dcd161f5d35cd49bb5239c51a633
     Pseudo is Ultrasoft + core correction, Zval = 14.0
     Generated by new atomic code, or converted to UPF format
     Using radial grid of  889 points,  6 beta functions with:
                l(1) =   0
                l(2) =   0
                l(3) =   1
                l(4) =   1
                l(5) =   2
                l(6) =   2
     Q(r) pseudized with  6 coefficients,  rinner =    1.000   1.000   1.000
                                                       1.000   1.000

     PseudoPot. # 2 for Al read from file:
     /home/vossj/suncat/psp/gbrv1.5pbe/Al.UPF
     MD5 check sum: 0a6289f5291fc8f409219462bc851e1f
     Pseudo is Ultrasoft + core correction, Zval =  3.0
     Generated by new atomic code, or converted to UPF format
     Using radial grid of  893 points,  3 beta functions with:
                l(1) =   0
                l(2) =   1
                l(3) =   2
     Q(r) pseudized with  8 coefficients,  rinner =    0.900   0.900   0.900
                                                       0.900   0.900

     vdW kernel table read from file vdW_kernel_table
     MD5 check sum: 095c7af220d748ca6e76c0b4c6cfb241

     atomic species   valence    mass     pseudopotential
        Mo1           14.00    95.95000     Mo( 1.00)
        Al1            3.00    26.98154     Al( 1.00)

     48 Sym. Ops., with inversion, found (32 have fractional translation)

   Cartesian axes

     site n.     atom                  positions (alat units)
         1           Mo1 tau(   1) = (   0.0000000   0.0000000   0.0000000  )
         2           Mo1 tau(   2) = (   0.0000000   1.9855816   1.9855816  )
         3           Mo1 tau(   3) = (   1.9855816   0.0000000   1.9855816  )
         4           Al1 tau(   4) = (   1.9855816   1.9855816   0.0000000  )

     number of k points=    84  Fermi-Dirac smearing, width (Ry)=  0.0073
                       cart. coord. in units 2pi/alat
        k(    1) = (   0.0000000   0.0000000   0.0000000), wk =   0.0011574
        k(    2) = (   0.0000000   0.0000000   0.0209846), wk =   0.0069444
        k(    3) = (   0.0000000   0.0000000   0.0419692), wk =   0.0069444
        k(    4) = (   0.0000000   0.0000000   0.0629538), wk =   0.0069444
        k(    5) = (   0.0000000   0.0000000   0.0839385), wk =   0.0069444
        k(    6) = (   0.0000000   0.0000000   0.1049231), wk =   0.0069444
        k(    7) = (   0.0000000   0.0000000  -0.1259077), wk =   0.0034722
        k(    8) = (   0.0000000   0.0209846   0.0209846), wk =   0.0138889
        k(    9) = (   0.0000000   0.0209846   0.0419692), wk =   0.0277778
        k(   10) = (   0.0000000   0.0209846   0.0629538), wk =   0.0277778
        k(   11) = (   0.0000000   0.0209846   0.0839385), wk =   0.0277778
        k(   12) = (   0.0000000   0.0209846   0.1049231), wk =   0.0277778
        k(   13) = (   0.0000000   0.0209846  -0.1259077), wk =   0.0138889
        k(   14) = (   0.0000000   0.0419692   0.0419692), wk =   0.0138889
        k(   15) = (   0.0000000   0.0419692   0.0629538), wk =   0.0277778
        k(   16) = (   0.0000000   0.0419692   0.0839385), wk =   0.0277778
        k(   17) = (   0.0000000   0.0419692   0.1049231), wk =   0.0277778
        k(   18) = (   0.0000000   0.0419692  -0.1259077), wk =   0.0138889
        k(   19) = (   0.0000000   0.0629538   0.0629538), wk =   0.0138889
        k(   20) = (   0.0000000   0.0629538   0.0839385), wk =   0.0277778
        k(   21) = (   0.0000000   0.0629538   0.1049231), wk =   0.0277778
        k(   22) = (   0.0000000   0.0629538  -0.1259077), wk =   0.0138889
        k(   23) = (   0.0000000   0.0839385   0.0839385), wk =   0.0138889
        k(   24) = (   0.0000000   0.0839385   0.1049231), wk =   0.0277778
        k(   25) = (   0.0000000   0.0839385  -0.1259077), wk =   0.0138889
        k(   26) = (   0.0000000   0.1049231   0.1049231), wk =   0.0138889
        k(   27) = (   0.0000000   0.1049231  -0.1259077), wk =   0.0138889
        k(   28) = (   0.0000000  -0.1259077  -0.1259077), wk =   0.0034722
        k(   29) = (   0.0209846   0.0209846   0.0209846), wk =   0.0092593
        k(   30) = (   0.0209846   0.0209846   0.0419692), wk =   0.0277778
        k(   31) = (   0.0209846   0.0209846   0.0629538), wk =   0.0277778
        k(   32) = (   0.0209846   0.0209846   0.0839385), wk =   0.0277778
        k(   33) = (   0.0209846   0.0209846   0.1049231), wk =   0.0277778
        k(   34) = (   0.0209846   0.0209846  -0.1259077), wk =   0.0138889
        k(   35) = (   0.0209846   0.0419692   0.0419692), wk =   0.0277778
        k(   36) = (   0.0209846   0.0419692   0.0629538), wk =   0.0555556
        k(   37) = (   0.0209846   0.0419692   0.0839385), wk =   0.0555556
        k(   38) = (   0.0209846   0.0419692   0.1049231), wk =   0.0555556
        k(   39) = (   0.0209846   0.0419692  -0.1259077), wk =   0.0277778
        k(   40) = (   0.0209846   0.0629538   0.0629538), wk =   0.0277778
        k(   41) = (   0.0209846   0.0629538   0.0839385), wk =   0.0555556
        k(   42) = (   0.0209846   0.0629538   0.1049231), wk =   0.0555556
        k(   43) = (   0.0209846   0.0629538  -0.1259077), wk =   0.0277778
        k(   44) = (   0.0209846   0.0839385   0.0839385), wk =   0.0277778
        k(   45) = (   0.0209846   0.0839385   0.1049231), wk =   0.0555556
        k(   46) = (   0.0209846   0.0839385  -0.1259077), wk =   0.0277778
        k(   47) = (   0.0209846   0.1049231   0.1049231), wk =   0.0277778
        k(   48) = (   0.0209846   0.1049231  -0.1259077), wk =   0.0277778
        k(   49) = (   0.0209846  -0.1259077  -0.1259077), wk =   0.0069444
        k(   50) = (   0.0419692   0.0419692   0.0419692), wk =   0.0092593
        k(   51) = (   0.0419692   0.0419692   0.0629538), wk =   0.0277778
        k(   52) = (   0.0419692   0.0419692   0.0839385), wk =   0.0277778
        k(   53) = (   0.0419692   0.0419692   0.1049231), wk =   0.0277778
        k(   54) = (   0.0419692   0.0419692  -0.1259077), wk =   0.0138889
        k(   55) = (   0.0419692   0.0629538   0.0629538), wk =   0.0277778
        k(   56) = (   0.0419692   0.0629538   0.0839385), wk =   0.0555556
        k(   57) = (   0.0419692   0.0629538   0.1049231), wk =   0.0555556
        k(   58) = (   0.0419692   0.0629538  -0.1259077), wk =   0.0277778
        k(   59) = (   0.0419692   0.0839385   0.0839385), wk =   0.0277778
        k(   60) = (   0.0419692   0.0839385   0.1049231), wk =   0.0555556
[...]
        k(   70) = (   0.0629538   0.0839385   0.1049231), wk =   0.0555556
        k(   71) = (   0.0629538   0.0839385  -0.1259077), wk =   0.0277778
        k(   72) = (   0.0629538   0.1049231   0.1049231), wk =   0.0277778
        k(   73) = (   0.0629538   0.1049231  -0.1259077), wk =   0.0277778
        k(   74) = (   0.0629538  -0.1259077  -0.1259077), wk =   0.0069444
        k(   75) = (   0.0839385   0.0839385   0.0839385), wk =   0.0092593
        k(   76) = (   0.0839385   0.0839385   0.1049231), wk =   0.0277778
        k(   77) = (   0.0839385   0.0839385  -0.1259077), wk =   0.0138889
        k(   78) = (   0.0839385   0.1049231   0.1049231), wk =   0.0277778
        k(   79) = (   0.0839385   0.1049231  -0.1259077), wk =   0.0277778
        k(   80) = (   0.0839385  -0.1259077  -0.1259077), wk =   0.0069444
        k(   81) = (   0.1049231   0.1049231   0.1049231), wk =   0.0092593
        k(   82) = (   0.1049231   0.1049231  -0.1259077), wk =   0.0138889
        k(   83) = (   0.1049231  -0.1259077  -0.1259077), wk =   0.0069444
        k(   84) = (  -0.1259077  -0.1259077  -0.1259077), wk =   0.0011574

     Largest allocated arrays     est. size (Mb)     dimensions
     Largest temporary arrays     est. size (Mb)     dimensions

     Initial potential from superposition of free atoms

     starting charge   44.99434, renormalised to   45.00000

     *
     * You are using vdW-DF for exchange-correlation in this calculation.
     * Please cite the following three references that made this development
     * possible:
     *
     *   M. Dion, H. Rydberg, E. Schroder, D. C. Langreth, and
     *   B. I. Lundqvist, Phys. Rev. Lett. 92, 246401 (2004).
     *
     *   T. Thonhauser, V. R. Cooper, S. Li, A. Puzder, P. Hyldgaard, and
     *   D. C. Langreth, Phys. Rev. B 76, 125112 (2007).
     *
     *   G. Roman-Perez and J. M. Soler, Phys. Rev. Lett. 103, 096102 (2009).
     *
     *
     * If you are using vdW-DF2, please also cite:
     *
     *   K. Lee, E. D. Murray, L. Kong, B. I. Lundqvist, and
     *   D. C. Langreth, Phys. Rev. B 82, 081101(R) (2010).
     *
     *
     * If you are calculating the stress with vdW-DF, please also cite:
     *
     *   R. Sabatini, E. Kucukbenli, B. Kolb, T. Thonhauser, and
     *   S. de Gironcoli, J. Phys.: Condens. Matter 24, 424209 (2012).
     *

     Carrying out vdW-DF run using the following parameters:

     Nqs =      20    Nr_points =    1024   r_max =   100.000
     q_mesh =
               0.00001000     0.04494208     0.09755937     0.15916263
               0.23128650     0.31572767     0.41458969     0.53033537
               0.66584808     0.82450364     1.01025438     1.22772762
               1.48234092     1.78043706     2.12944203     2.53805004
               3.01644009     3.57652955     4.23227104     5.00000000

     Gradients computed in reciprocal space

     Starting wfc are   43 randomized atomic wfcs

     Self-consistent Calculation

     iteration #  1     ecut=    58.80 Ry     beta=0.10
     Davidson diagonalization with overlap
     ethr =  1.00E-02,  avg # of iterations =  4.5

     Threshold (ethr) on eigenvalues was too large:
     Diagonalizing with lowered threshold

     Davidson diagonalization with overlap
     ethr =  1.51E-04,  avg # of iterations =  2.4

     total energy              =    -426.92409880 Ry
     Harris-Foulkes estimate   =    -426.92652003 Ry
     estimated scf accuracy    <       0.06763691 Ry

[...]

     total energy              =    -426.91119532 Ry
     Harris-Foulkes estimate   =    -426.91119456 Ry
     estimated scf accuracy    <       0.00000003 Ry

     iteration # 10     ecut=    58.80 Ry     beta=0.10
     Davidson diagonalization with overlap
     ethr =  7.62E-11,  avg # of iterations =  1.0

     End of self-consistent calculation

          k = 0.0000 0.0000 0.0000 (  3191 PWs)   bands (ev):

   -43.6784 -43.4408 -43.4408 -18.0471 -18.0471 -18.0471 -17.4918 -17.4918
   -17.4918 -17.1464 -17.1464 -17.1464   9.0111  12.0913  13.7084  13.7084
    13.8654  13.8654  13.8654  18.0223  18.0223  18.0223  18.6637  18.6637
    18.6637  20.0443  20.0443  21.2700  21.9165  21.9165  21.9165  25.3378
    27.1879  27.1879  27.1879  28.2395  28.2395  30.8485  30.8485  30.8485
    31.3954  33.8497

[...]

          k = 0.1049-0.1259-0.1259 (  3212 PWs)   bands (ev):

[...]

          k =-0.1259-0.1259-0.1259 (  3184 PWs)   bands (ev):

   -43.5184 -43.5184 -43.5184 -18.3367 -17.9858 -17.9858 -17.9858 -17.1878
   -17.1878 -17.1878 -17.1622 -17.1622  10.6420  13.5788  13.5788  13.5788
    16.3932  16.3932  16.3932  16.4008  16.4008  16.4008  17.8852  17.8852
    17.8852  18.8395  18.8395  19.0791  21.3212  21.3212  21.3212  22.7638
    26.2972  26.2972  26.2972  30.6465  30.6465  30.6465  30.8519  32.6760
    32.6760  32.6760

     the Fermi energy is    17.7241 ev

!    total energy              =    -426.91119858 Ry
     Harris-Foulkes estimate   =    -426.91119532 Ry
     estimated scf accuracy    <          3.3E-09 Ry

     The total energy is the sum of the following terms:

     one-electron contribution =     -99.76448617 Ry
     hartree contribution      =      74.21601275 Ry
     xc contribution           =     -64.79180745 Ry
     ewald contribution        =    -336.56304508 Ry
     smearing contrib. (-TS)   =      -0.00787263 Ry

     convergence has been achieved in  10 iterations

     Forces acting on atoms (Ry/au):

     atom    1 type  1   force =     0.00000000   -0.00000000    0.00000000
     atom    2 type  1   force =     0.00000000    0.00000000    0.00000000
     atom    3 type  1   force =     0.00000000    0.00000000    0.00000000
     atom    4 type  2   force =     0.00000000    0.00000000    0.00000000

     Total force =     0.000000     Total SCF correction =     0.000000
 !ASE

     General routines

     Parallel routines

   This run was terminated on:   1:25:16  25Oct2017

   JOB DONE.