     Program PWSCF v.5.1rc2 (svn rev. ) starts on 26Oct2017 at  2:12:46

     Current dimensions of program PWSCF are:
     Max number of different atomic species (ntypx) = 10
     Max number of k-points (npk) =  40000
     Max angular momentum in pseudopotentials (lmaxx) =  3

     IMPORTANT: XC functional enforced from input :
     Exchange-correlation      = BEEF-VDW ( 1  4 27 13 2)
     Any further DFT definition will be discarded
     Please, verify this is what you really want

     Subspace diagonalization in iterative solution of the eigenvalue problem:
     a serial algorithm will be used

     bravais-lattice index     =            0
     lattice parameter (alat)  =       1.8897  a.u.
     unit-cell volume          =     394.3521 (a.u.)^3
     number of atoms/cell      =            4
     number of atomic types    =            2
     number of electrons       =        74.00
     number of Kohn-Sham states=           57
     kinetic-energy cutoff     =      58.7989  Ry
     charge density cutoff     =     587.9892  Ry
     convergence threshold     =      7.3E-09
     mixing beta               =       0.1000
     number of iterations used =           10  local-TF  mixing
     Exchange-correlation      = BEEF-VDW ( 1  4 27 13 2)
     nstep                     =           50

     celldm(1)=   1.889726  celldm(2)=   0.000000  celldm(3)=   0.000000
     celldm(4)=   0.000000  celldm(5)=   0.000000  celldm(6)=   0.000000

     crystal axes: (cart. coord. in units of alat)
               a(1) = (   3.880573   0.000000   0.000000 )
               a(2) = (   0.000000   3.880573   0.000000 )
               a(3) = (   0.000000   0.000000   3.880573 )

     reciprocal axes: (cart. coord. in units 2 pi/alat)
               b(1) = (  0.257694  0.000000  0.000000 )
               b(2) = (  0.000000  0.257694  0.000000 )
               b(3) = (  0.000000  0.000000  0.257694 )

     PseudoPot. # 1 for Zn read from file:
     /home/vossj/suncat/psp/gbrv1.5pbe/Zn.UPF
     MD5 check sum: df62231357ef9e81f77b2b3087fa5675
     Pseudo is Ultrasoft, Zval = 20.0
     Generated by new atomic code, or converted to UPF format
     Using radial grid of  943 points,  6 beta functions with:
                l(1) =   0
                l(2) =   0
                l(3) =   1
                l(4) =   1
                l(5) =   2
                l(6) =   2
     Q(r) pseudized with  8 coefficients,  rinner =    1.100   1.100   1.100
                                                       1.100   1.100

     PseudoPot. # 2 for Mo read from file:
     /home/vossj/suncat/psp/gbrv1.5pbe/Mo.UPF
     MD5 check sum: 30c4dcd161f5d35cd49bb5239c51a633
     Pseudo is Ultrasoft + core correction, Zval = 14.0
     Generated by new atomic code, or converted to UPF format
     Using radial grid of  889 points,  6 beta functions with:
                l(1) =   0
                l(2) =   0
                l(3) =   1
                l(4) =   1
                l(5) =   2
                l(6) =   2
     Q(r) pseudized with  6 coefficients,  rinner =    1.000   1.000   1.000
                                                       1.000   1.000

     vdW kernel table read from file vdW_kernel_table
     MD5 check sum: 095c7af220d748ca6e76c0b4c6cfb241

     atomic species   valence    mass     pseudopotential
        Zn1           20.00    65.38000     Zn( 1.00)
        Mo1           14.00    95.95000     Mo( 1.00)

     48 Sym. Ops., with inversion, found (32 have fractional translation)

   Cartesian axes

     site n.     atom                  positions (alat units)
         1           Zn1 tau(   1) = (   0.0000000   0.0000000   0.0000000  )
         2           Zn1 tau(   2) = (   0.0000000   1.9402865   1.9402865  )
         3           Zn1 tau(   3) = (   1.9402865   0.0000000   1.9402865  )
         4           Mo1 tau(   4) = (   1.9402865   1.9402865   0.0000000  )

     number of k points=    84  Fermi-Dirac smearing, width (Ry)=  0.0073
                       cart. coord. in units 2pi/alat
        k(    1) = (   0.0000000   0.0000000   0.0000000), wk =   0.0011574
        k(    2) = (   0.0000000   0.0000000   0.0214745), wk =   0.0069444
        k(    3) = (   0.0000000   0.0000000   0.0429490), wk =   0.0069444
        k(    4) = (   0.0000000   0.0000000   0.0644235), wk =   0.0069444
        k(    5) = (   0.0000000   0.0000000   0.0858980), wk =   0.0069444
        k(    6) = (   0.0000000   0.0000000   0.1073725), wk =   0.0069444
        k(    7) = (   0.0000000   0.0000000  -0.1288470), wk =   0.0034722
        k(    8) = (   0.0000000   0.0214745   0.0214745), wk =   0.0138889
        k(    9) = (   0.0000000   0.0214745   0.0429490), wk =   0.0277778
        k(   10) = (   0.0000000   0.0214745   0.0644235), wk =   0.0277778
        k(   11) = (   0.0000000   0.0214745   0.0858980), wk =   0.0277778
        k(   12) = (   0.0000000   0.0214745   0.1073725), wk =   0.0277778
        k(   13) = (   0.0000000   0.0214745  -0.1288470), wk =   0.0138889
        k(   14) = (   0.0000000   0.0429490   0.0429490), wk =   0.0138889
        k(   15) = (   0.0000000   0.0429490   0.0644235), wk =   0.0277778
        k(   16) = (   0.0000000   0.0429490   0.0858980), wk =   0.0277778
        k(   17) = (   0.0000000   0.0429490   0.1073725), wk =   0.0277778
        k(   18) = (   0.0000000   0.0429490  -0.1288470), wk =   0.0138889
        k(   19) = (   0.0000000   0.0644235   0.0644235), wk =   0.0138889
        k(   20) = (   0.0000000   0.0644235   0.0858980), wk =   0.0277778
        k(   21) = (   0.0000000   0.0644235   0.1073725), wk =   0.0277778
        k(   22) = (   0.0000000   0.0644235  -0.1288470), wk =   0.0138889
        k(   23) = (   0.0000000   0.0858980   0.0858980), wk =   0.0138889
        k(   24) = (   0.0000000   0.0858980   0.1073725), wk =   0.0277778
        k(   25) = (   0.0000000   0.0858980  -0.1288470), wk =   0.0138889
        k(   26) = (   0.0000000   0.1073725   0.1073725), wk =   0.0138889
        k(   27) = (   0.0000000   0.1073725  -0.1288470), wk =   0.0138889
        k(   28) = (   0.0000000  -0.1288470  -0.1288470), wk =   0.0034722
        k(   29) = (   0.0214745   0.0214745   0.0214745), wk =   0.0092593
        k(   30) = (   0.0214745   0.0214745   0.0429490), wk =   0.0277778
        k(   31) = (   0.0214745   0.0214745   0.0644235), wk =   0.0277778
        k(   32) = (   0.0214745   0.0214745   0.0858980), wk =   0.0277778
        k(   33) = (   0.0214745   0.0214745   0.1073725), wk =   0.0277778
        k(   34) = (   0.0214745   0.0214745  -0.1288470), wk =   0.0138889
        k(   35) = (   0.0214745   0.0429490   0.0429490), wk =   0.0277778
        k(   36) = (   0.0214745   0.0429490   0.0644235), wk =   0.0555556
        k(   37) = (   0.0214745   0.0429490   0.0858980), wk =   0.0555556
        k(   38) = (   0.0214745   0.0429490   0.1073725), wk =   0.0555556
        k(   39) = (   0.0214745   0.0429490  -0.1288470), wk =   0.0277778
        k(   40) = (   0.0214745   0.0644235   0.0644235), wk =   0.0277778
        k(   41) = (   0.0214745   0.0644235   0.0858980), wk =   0.0555556
        k(   42) = (   0.0214745   0.0644235   0.1073725), wk =   0.0555556
        k(   43) = (   0.0214745   0.0644235  -0.1288470), wk =   0.0277778
        k(   44) = (   0.0214745   0.0858980   0.0858980), wk =   0.0277778
        k(   45) = (   0.0214745   0.0858980   0.1073725), wk =   0.0555556
        k(   46) = (   0.0214745   0.0858980  -0.1288470), wk =   0.0277778
        k(   47) = (   0.0214745   0.1073725   0.1073725), wk =   0.0277778
        k(   48) = (   0.0214745   0.1073725  -0.1288470), wk =   0.0277778
        k(   49) = (   0.0214745  -0.1288470  -0.1288470), wk =   0.0069444
        k(   50) = (   0.0429490   0.0429490   0.0429490), wk =   0.0092593
        k(   51) = (   0.0429490   0.0429490   0.0644235), wk =   0.0277778
        k(   52) = (   0.0429490   0.0429490   0.0858980), wk =   0.0277778
        k(   53) = (   0.0429490   0.0429490   0.1073725), wk =   0.0277778
        k(   54) = (   0.0429490   0.0429490  -0.1288470), wk =   0.0138889
        k(   55) = (   0.0429490   0.0644235   0.0644235), wk =   0.0277778
        k(   56) = (   0.0429490   0.0644235   0.0858980), wk =   0.0555556
        k(   57) = (   0.0429490   0.0644235   0.1073725), wk =   0.0555556
        k(   58) = (   0.0429490   0.0644235  -0.1288470), wk =   0.0277778
        k(   59) = (   0.0429490   0.0858980   0.0858980), wk =   0.0277778
        k(   60) = (   0.0429490   0.0858980   0.1073725), wk =   0.0555556
[...]
        k(   70) = (   0.0644235   0.0858980   0.1073725), wk =   0.0555556
        k(   71) = (   0.0644235   0.0858980  -0.1288470), wk =   0.0277778
        k(   72) = (   0.0644235   0.1073725   0.1073725), wk =   0.0277778
        k(   73) = (   0.0644235   0.1073725  -0.1288470), wk =   0.0277778
        k(   74) = (   0.0644235  -0.1288470  -0.1288470), wk =   0.0069444
        k(   75) = (   0.0858980   0.0858980   0.0858980), wk =   0.0092593
        k(   76) = (   0.0858980   0.0858980   0.1073725), wk =   0.0277778
        k(   77) = (   0.0858980   0.0858980  -0.1288470), wk =   0.0138889
        k(   78) = (   0.0858980   0.1073725   0.1073725), wk =   0.0277778
        k(   79) = (   0.0858980   0.1073725  -0.1288470), wk =   0.0277778
        k(   80) = (   0.0858980  -0.1288470  -0.1288470), wk =   0.0069444
        k(   81) = (   0.1073725   0.1073725   0.1073725), wk =   0.0092593
        k(   82) = (   0.1073725   0.1073725  -0.1288470), wk =   0.0138889
        k(   83) = (   0.1073725  -0.1288470  -0.1288470), wk =   0.0069444
        k(   84) = (  -0.1288470  -0.1288470  -0.1288470), wk =   0.0011574

     Largest allocated arrays     est. size (Mb)     dimensions
     Largest temporary arrays     est. size (Mb)     dimensions

     Initial potential from superposition of free atoms

     starting charge   73.99851, renormalised to   74.00000

     *
     * You are using vdW-DF for exchange-correlation in this calculation.
     * Please cite the following three references that made this development
     * possible:
     *
     *   M. Dion, H. Rydberg, E. Schroder, D. C. Langreth, and
     *   B. I. Lundqvist, Phys. Rev. Lett. 92, 246401 (2004).
     *
     *   T. Thonhauser, V. R. Cooper, S. Li, A. Puzder, P. Hyldgaard, and
     *   D. C. Langreth, Phys. Rev. B 76, 125112 (2007).
     *
     *   G. Roman-Perez and J. M. Soler, Phys. Rev. Lett. 103, 096102 (2009).
     *
     *
     * If you are using vdW-DF2, please also cite:
     *
     *   K. Lee, E. D. Murray, L. Kong, B. I. Lundqvist, and
     *   D. C. Langreth, Phys. Rev. B 82, 081101(R) (2010).
     *
     *
     * If you are calculating the stress with vdW-DF, please also cite:
     *
     *   R. Sabatini, E. Kucukbenli, B. Kolb, T. Thonhauser, and
     *   S. de Gironcoli, J. Phys.: Condens. Matter 24, 424209 (2012).
     *

     Carrying out vdW-DF run using the following parameters:

     Nqs =      20    Nr_points =    1024   r_max =   100.000
     q_mesh =
               0.00001000     0.04494208     0.09755937     0.15916263
               0.23128650     0.31572767     0.41458969     0.53033537
               0.66584808     0.82450364     1.01025438     1.22772762
               1.48234092     1.78043706     2.12944203     2.53805004
               3.01644009     3.57652955     4.23227104     5.00000000

     Gradients computed in reciprocal space

     Starting wfc are   52 randomized atomic wfcs +    5 random wfc

     Self-consistent Calculation

     iteration #  1     ecut=    58.80 Ry     beta=0.10
     Davidson diagonalization with overlap
     ethr =  1.00E-02,  avg # of iterations =  4.6

     Threshold (ethr) on eigenvalues was too large:
     Diagonalizing with lowered threshold

     Davidson diagonalization with overlap
     ethr =  9.65E-04,  avg # of iterations =  1.1

     total energy              =   -1528.46248281 Ry
     Harris-Foulkes estimate   =   -1528.49632727 Ry
     estimated scf accuracy    <       0.70848105 Ry

[...]

     total energy              =   -1528.37570580 Ry
     Harris-Foulkes estimate   =   -1528.37570508 Ry
     estimated scf accuracy    <       0.00000014 Ry

     iteration # 11     ecut=    58.80 Ry     beta=0.10
     Davidson diagonalization with overlap
     ethr =  1.10E-10,  avg # of iterations =  2.0

     End of self-consistent calculation

          k = 0.0000 0.0000 0.0000 (  2969 PWs)   bands (ev):

  -110.5659-110.5634-110.5634 -64.7738 -64.7738 -64.7738 -64.7225 -64.7225
   -64.7225 -64.7219 -64.7219 -64.7219 -45.2183 -19.2612 -19.2612 -19.2612
     6.0944   7.6726   7.8058   7.8058   7.8058   7.8141   7.8141   8.5466
     8.5466   8.5466   8.8206   8.8206   9.0660   9.1162   9.1162   9.1162
    13.9022  13.9022  15.9517  15.9517  15.9517  16.2344  16.2344  16.2344
    21.3645  21.8257  21.8257  24.0416  24.0416  24.0416  27.7051  27.7051
    27.7051  31.0849  31.0849  31.0849  31.7158  31.7158  33.2235  35.5790
    36.6661

[...]

          k = 0.1074-0.1288-0.1288 (  3032 PWs)   bands (ev):

[...]

          k =-0.1288-0.1288-0.1288 (  3016 PWs)   bands (ev):

  -110.5642-110.5642-110.5642 -64.7865 -64.7653 -64.7653 -64.7301 -64.7301
   -64.7301 -64.7159 -64.7159 -64.7159 -45.2152 -19.2839 -19.2839 -19.2839
     7.6923   7.6923   7.6923   7.8587   8.3403   8.3403   8.3403   8.5273
     8.5273   8.5273   8.6832   8.6832   9.0566   9.0566   9.0566  12.5217
    12.5217  12.5217  13.0073  14.3861  14.3861  14.3861  16.7156  16.7156
    19.8869  19.9259  19.9259  19.9259  30.7766  30.7766  30.7766  31.7474
    31.7474  31.9816  31.9816  31.9816  32.6199  34.8872  34.8872  34.8872
    36.3290

     the Fermi energy is    15.9336 ev

!    total energy              =   -1528.37570920 Ry
     Harris-Foulkes estimate   =   -1528.37570582 Ry
     estimated scf accuracy    <          4.2E-09 Ry

     The total energy is the sum of the following terms:

     one-electron contribution =   -1098.20951461 Ry
     hartree contribution      =     584.56386389 Ry
     xc contribution           =    -150.50200991 Ry
     ewald contribution        =    -864.22540451 Ry
     smearing contrib. (-TS)   =      -0.00264405 Ry

     convergence has been achieved in  11 iterations

     Forces acting on atoms (Ry/au):

     atom    1 type  1   force =     0.00000000    0.00000000    0.00000000
     atom    2 type  1   force =     0.00000000    0.00000000    0.00000000
     atom    3 type  1   force =     0.00000000    0.00000000    0.00000000
     atom    4 type  2   force =     0.00000000    0.00000000    0.00000000

     Total force =     0.000000     Total SCF correction =     0.000000
 !ASE

     General routines

     Parallel routines

   This run was terminated on:   2:13:41  26Oct2017

   JOB DONE.