     Program PWSCF v.5.1rc2 (svn rev. ) starts on 26Oct2017 at  0:46:13

     Current dimensions of program PWSCF are:
     Max number of different atomic species (ntypx) = 10
     Max number of k-points (npk) =  40000
     Max angular momentum in pseudopotentials (lmaxx) =  3

     IMPORTANT: XC functional enforced from input :
     Exchange-correlation      = BEEF-VDW ( 1  4 27 13 2)
     Any further DFT definition will be discarded
     Please, verify this is what you really want

     Subspace diagonalization in iterative solution of the eigenvalue problem:
     a serial algorithm will be used

     bravais-lattice index     =            0
     lattice parameter (alat)  =       1.8897  a.u.
     unit-cell volume          =     476.9485 (a.u.)^3
     number of atoms/cell      =            4
     number of atomic types    =            2
     number of electrons       =        42.00
     number of Kohn-Sham states=           41
     kinetic-energy cutoff     =      58.7989  Ry
     charge density cutoff     =     587.9892  Ry
     convergence threshold     =      7.3E-09
     mixing beta               =       0.1000
     number of iterations used =           10  local-TF  mixing
     Exchange-correlation      = BEEF-VDW ( 1  4 27 13 2)
     nstep                     =           50

     celldm(1)=   1.889726  celldm(2)=   0.000000  celldm(3)=   0.000000
     celldm(4)=   0.000000  celldm(5)=   0.000000  celldm(6)=   0.000000

     crystal axes: (cart. coord. in units of alat)
               a(1) = (   4.134519   0.000000   0.000000 )
               a(2) = (   0.000000   4.134519   0.000000 )
               a(3) = (   0.000000   0.000000   4.134519 )

     reciprocal axes: (cart. coord. in units 2 pi/alat)
               b(1) = (  0.241866  0.000000  0.000000 )
               b(2) = (  0.000000  0.241866  0.000000 )
               b(3) = (  0.000000  0.000000  0.241866 )

     PseudoPot. # 1 for Ta read from file:
     /home/vossj/suncat/psp/gbrv1.5pbe/Ta.UPF
     MD5 check sum: f8bbe9446314a3b8ea5d9f3e3836c939
     Pseudo is Ultrasoft + core correction, Zval = 13.0
     Generated by new atomic code, or converted to UPF format
     Using radial grid of  921 points,  7 beta functions with:
                l(1) =   0
                l(2) =   0
                l(3) =   1
                l(4) =   1
                l(5) =   2
                l(6) =   2
                l(7) =   3
     Q(r) pseudized with  6 coefficients,  rinner =    1.300   1.300   1.300
                                                       1.300   1.300   1.300
                                                       1.300

     PseudoPot. # 2 for Al read from file:
     /home/vossj/suncat/psp/gbrv1.5pbe/Al.UPF
     MD5 check sum: 0a6289f5291fc8f409219462bc851e1f
     Pseudo is Ultrasoft + core correction, Zval =  3.0
     Generated by new atomic code, or converted to UPF format
     Using radial grid of  893 points,  3 beta functions with:
                l(1) =   0
                l(2) =   1
                l(3) =   2
     Q(r) pseudized with  8 coefficients,  rinner =    0.900   0.900   0.900
                                                       0.900   0.900

     vdW kernel table read from file vdW_kernel_table
     MD5 check sum: 095c7af220d748ca6e76c0b4c6cfb241

     atomic species   valence    mass     pseudopotential
        Ta1           13.00   180.94788     Ta( 1.00)
        Al1            3.00    26.98154     Al( 1.00)

     48 Sym. Ops., with inversion, found (32 have fractional translation)

   Cartesian axes

     site n.     atom                  positions (alat units)
         1           Ta1 tau(   1) = (   0.0000000   0.0000000   0.0000000  )
         2           Ta1 tau(   2) = (   0.0000000   2.0672593   2.0672593  )
         3           Ta1 tau(   3) = (   2.0672593   0.0000000   2.0672593  )
         4           Al1 tau(   4) = (   2.0672593   2.0672593   0.0000000  )

     number of k points=    84  Fermi-Dirac smearing, width (Ry)=  0.0073
                       cart. coord. in units 2pi/alat
        k(    1) = (   0.0000000   0.0000000   0.0000000), wk =   0.0011574
        k(    2) = (   0.0000000   0.0000000   0.0201555), wk =   0.0069444
        k(    3) = (   0.0000000   0.0000000   0.0403110), wk =   0.0069444
        k(    4) = (   0.0000000   0.0000000   0.0604665), wk =   0.0069444
        k(    5) = (   0.0000000   0.0000000   0.0806220), wk =   0.0069444
        k(    6) = (   0.0000000   0.0000000   0.1007776), wk =   0.0069444
        k(    7) = (   0.0000000   0.0000000  -0.1209331), wk =   0.0034722
        k(    8) = (   0.0000000   0.0201555   0.0201555), wk =   0.0138889
        k(    9) = (   0.0000000   0.0201555   0.0403110), wk =   0.0277778
        k(   10) = (   0.0000000   0.0201555   0.0604665), wk =   0.0277778
        k(   11) = (   0.0000000   0.0201555   0.0806220), wk =   0.0277778
        k(   12) = (   0.0000000   0.0201555   0.1007776), wk =   0.0277778
        k(   13) = (   0.0000000   0.0201555  -0.1209331), wk =   0.0138889
        k(   14) = (   0.0000000   0.0403110   0.0403110), wk =   0.0138889
        k(   15) = (   0.0000000   0.0403110   0.0604665), wk =   0.0277778
        k(   16) = (   0.0000000   0.0403110   0.0806220), wk =   0.0277778
        k(   17) = (   0.0000000   0.0403110   0.1007776), wk =   0.0277778
        k(   18) = (   0.0000000   0.0403110  -0.1209331), wk =   0.0138889
        k(   19) = (   0.0000000   0.0604665   0.0604665), wk =   0.0138889
        k(   20) = (   0.0000000   0.0604665   0.0806220), wk =   0.0277778
        k(   21) = (   0.0000000   0.0604665   0.1007776), wk =   0.0277778
        k(   22) = (   0.0000000   0.0604665  -0.1209331), wk =   0.0138889
        k(   23) = (   0.0000000   0.0806220   0.0806220), wk =   0.0138889
        k(   24) = (   0.0000000   0.0806220   0.1007776), wk =   0.0277778
        k(   25) = (   0.0000000   0.0806220  -0.1209331), wk =   0.0138889
        k(   26) = (   0.0000000   0.1007776   0.1007776), wk =   0.0138889
        k(   27) = (   0.0000000   0.1007776  -0.1209331), wk =   0.0138889
        k(   28) = (   0.0000000  -0.1209331  -0.1209331), wk =   0.0034722
        k(   29) = (   0.0201555   0.0201555   0.0201555), wk =   0.0092593
        k(   30) = (   0.0201555   0.0201555   0.0403110), wk =   0.0277778
        k(   31) = (   0.0201555   0.0201555   0.0604665), wk =   0.0277778
        k(   32) = (   0.0201555   0.0201555   0.0806220), wk =   0.0277778
        k(   33) = (   0.0201555   0.0201555   0.1007776), wk =   0.0277778
        k(   34) = (   0.0201555   0.0201555  -0.1209331), wk =   0.0138889
        k(   35) = (   0.0201555   0.0403110   0.0403110), wk =   0.0277778
        k(   36) = (   0.0201555   0.0403110   0.0604665), wk =   0.0555556
        k(   37) = (   0.0201555   0.0403110   0.0806220), wk =   0.0555556
        k(   38) = (   0.0201555   0.0403110   0.1007776), wk =   0.0555556
        k(   39) = (   0.0201555   0.0403110  -0.1209331), wk =   0.0277778
        k(   40) = (   0.0201555   0.0604665   0.0604665), wk =   0.0277778
        k(   41) = (   0.0201555   0.0604665   0.0806220), wk =   0.0555556
        k(   42) = (   0.0201555   0.0604665   0.1007776), wk =   0.0555556
        k(   43) = (   0.0201555   0.0604665  -0.1209331), wk =   0.0277778
        k(   44) = (   0.0201555   0.0806220   0.0806220), wk =   0.0277778
        k(   45) = (   0.0201555   0.0806220   0.1007776), wk =   0.0555556
        k(   46) = (   0.0201555   0.0806220  -0.1209331), wk =   0.0277778
        k(   47) = (   0.0201555   0.1007776   0.1007776), wk =   0.0277778
        k(   48) = (   0.0201555   0.1007776  -0.1209331), wk =   0.0277778
        k(   49) = (   0.0201555  -0.1209331  -0.1209331), wk =   0.0069444
        k(   50) = (   0.0403110   0.0403110   0.0403110), wk =   0.0092593
        k(   51) = (   0.0403110   0.0403110   0.0604665), wk =   0.0277778
        k(   52) = (   0.0403110   0.0403110   0.0806220), wk =   0.0277778
        k(   53) = (   0.0403110   0.0403110   0.1007776), wk =   0.0277778
        k(   54) = (   0.0403110   0.0403110  -0.1209331), wk =   0.0138889
        k(   55) = (   0.0403110   0.0604665   0.0604665), wk =   0.0277778
        k(   56) = (   0.0403110   0.0604665   0.0806220), wk =   0.0555556
        k(   57) = (   0.0403110   0.0604665   0.1007776), wk =   0.0555556
        k(   58) = (   0.0403110   0.0604665  -0.1209331), wk =   0.0277778
        k(   59) = (   0.0403110   0.0806220   0.0806220), wk =   0.0277778
        k(   60) = (   0.0403110   0.0806220   0.1007776), wk =   0.0555556
[...]
        k(   70) = (   0.0604665   0.0806220   0.1007776), wk =   0.0555556
        k(   71) = (   0.0604665   0.0806220  -0.1209331), wk =   0.0277778
        k(   72) = (   0.0604665   0.1007776   0.1007776), wk =   0.0277778
        k(   73) = (   0.0604665   0.1007776  -0.1209331), wk =   0.0277778
        k(   74) = (   0.0604665  -0.1209331  -0.1209331), wk =   0.0069444
        k(   75) = (   0.0806220   0.0806220   0.0806220), wk =   0.0092593
        k(   76) = (   0.0806220   0.0806220   0.1007776), wk =   0.0277778
        k(   77) = (   0.0806220   0.0806220  -0.1209331), wk =   0.0138889
        k(   78) = (   0.0806220   0.1007776   0.1007776), wk =   0.0277778
        k(   79) = (   0.0806220   0.1007776  -0.1209331), wk =   0.0277778
        k(   80) = (   0.0806220  -0.1209331  -0.1209331), wk =   0.0069444
        k(   81) = (   0.1007776   0.1007776   0.1007776), wk =   0.0092593
        k(   82) = (   0.1007776   0.1007776  -0.1209331), wk =   0.0138889
        k(   83) = (   0.1007776  -0.1209331  -0.1209331), wk =   0.0069444
        k(   84) = (  -0.1209331  -0.1209331  -0.1209331), wk =   0.0011574

     Largest allocated arrays     est. size (Mb)     dimensions
     Largest temporary arrays     est. size (Mb)     dimensions

     Initial potential from superposition of free atoms
     Check: negative starting charge=   -0.283008

     starting charge   41.99420, renormalised to   42.00000

     negative rho (up, down):  2.830E-01 0.000E+00

     *
     * You are using vdW-DF for exchange-correlation in this calculation.
     * Please cite the following three references that made this development
     * possible:
     *
     *   M. Dion, H. Rydberg, E. Schroder, D. C. Langreth, and
     *   B. I. Lundqvist, Phys. Rev. Lett. 92, 246401 (2004).
     *
     *   T. Thonhauser, V. R. Cooper, S. Li, A. Puzder, P. Hyldgaard, and
     *   D. C. Langreth, Phys. Rev. B 76, 125112 (2007).
     *
     *   G. Roman-Perez and J. M. Soler, Phys. Rev. Lett. 103, 096102 (2009).
     *
     *
     * If you are using vdW-DF2, please also cite:
     *
     *   K. Lee, E. D. Murray, L. Kong, B. I. Lundqvist, and
     *   D. C. Langreth, Phys. Rev. B 82, 081101(R) (2010).
     *
     *
     * If you are calculating the stress with vdW-DF, please also cite:
     *
     *   R. Sabatini, E. Kucukbenli, B. Kolb, T. Thonhauser, and
     *   S. de Gironcoli, J. Phys.: Condens. Matter 24, 424209 (2012).
     *

     Carrying out vdW-DF run using the following parameters:

     Nqs =      20    Nr_points =    1024   r_max =   100.000
     q_mesh =
               0.00001000     0.04494208     0.09755937     0.15916263
               0.23128650     0.31572767     0.41458969     0.53033537
               0.66584808     0.82450364     1.01025438     1.22772762
               1.48234092     1.78043706     2.12944203     2.53805004
               3.01644009     3.57652955     4.23227104     5.00000000

     Gradients computed in reciprocal space

     Starting wfc are   43 randomized atomic wfcs

     Self-consistent Calculation

     iteration #  1     ecut=    58.80 Ry     beta=0.10
     Davidson diagonalization with overlap
     ethr =  1.00E-02,  avg # of iterations =  4.4

     Threshold (ethr) on eigenvalues was too large:
     Diagonalizing with lowered threshold

     Davidson diagonalization with overlap
     ethr =  1.70E-04,  avg # of iterations =  1.4

[...]

     total energy              =    -436.71272662 Ry
     Harris-Foulkes estimate   =    -436.71429086 Ry
     estimated scf accuracy    <       0.07213882 Ry

[...]

     total energy              =    -436.70166795 Ry
     Harris-Foulkes estimate   =    -436.70166719 Ry
     estimated scf accuracy    <          8.4E-09 Ry

     iteration #  9     ecut=    58.80 Ry     beta=0.10
     Davidson diagonalization with overlap
     ethr =  2.01E-11,  avg # of iterations =  2.0

     negative rho (up, down):  3.042E-01 0.000E+00

     End of self-consistent calculation

          k = 0.0000 0.0000 0.0000 (  3695 PWs)   bands (ev):

   -52.0168 -51.9065 -51.9065 -18.7328 -18.7328 -18.7328 -18.2868 -18.2868
   -18.2868 -17.9199 -17.9199 -17.9199   6.9498  11.0557  12.7126  12.7126
    13.3765  13.3765  13.3765  16.7091  16.7091  16.7091  17.9993  17.9993
    17.9993  20.5551  20.5551  22.0405  22.6261  22.8739  22.8739  22.8739
    24.6914  24.6914  24.6914  27.0968  27.0968  28.2018  28.2018  28.2018
    29.1839

[...]

          k = 0.1008-0.1209-0.1209 (  3604 PWs)   bands (ev):

[...]

          k =-0.1209-0.1209-0.1209 (  3648 PWs)   bands (ev):

   -51.9427 -51.9427 -51.9427 -18.9289 -18.7160 -18.7160 -18.7160 -18.0186
   -18.0186 -18.0186 -17.8937 -17.8937   9.5664  12.0959  12.0959  12.0959
    14.6161  14.6161  14.6161  16.2079  16.2079  16.2079  17.0284  17.6974
    17.6974  17.6974  18.9264  18.9264  21.8759  22.1053  22.1053  22.1053
    25.2612  25.2612  25.2612  28.2591  28.2591  28.2591  28.6054  29.9534
    29.9534

     the Fermi energy is    16.0281 ev

!    total energy              =    -436.70167119 Ry
     Harris-Foulkes estimate   =    -436.70166795 Ry
     estimated scf accuracy    <          3.8E-09 Ry

     The total energy is the sum of the following terms:

     one-electron contribution =     -78.14501601 Ry
     hartree contribution      =      57.45338142 Ry
     xc contribution           =    -135.56734601 Ry
     ewald contribution        =    -280.43032396 Ry
     smearing contrib. (-TS)   =      -0.01236664 Ry

     convergence has been achieved in   9 iterations

     Forces acting on atoms (Ry/au):

     negative rho (up, down):  3.042E-01 0.000E+00
     atom    1 type  1   force =     0.00000000    0.00000000    0.00000000
     atom    2 type  1   force =     0.00000000    0.00000000    0.00000000
     atom    3 type  1   force =     0.00000000    0.00000000    0.00000000
     atom    4 type  2   force =     0.00000000    0.00000000    0.00000000

     Total force =     0.000000     Total SCF correction =     0.000000
 !ASE

     General routines

     Parallel routines

   This run was terminated on:   0:46:50  26Oct2017

   JOB DONE.