     Program PWSCF v.5.1rc2 (svn rev. ) starts on 24Oct2017 at 21: 5: 6

     Current dimensions of program PWSCF are:
     Max number of different atomic species (ntypx) = 10
     Max number of k-points (npk) =  40000
     Max angular momentum in pseudopotentials (lmaxx) =  3

     IMPORTANT: XC functional enforced from input :
     Exchange-correlation      = BEEF-VDW ( 1  4 27 13 2)
     Any further DFT definition will be discarded
     Please, verify this is what you really want

     Subspace diagonalization in iterative solution of the eigenvalue problem:
     a serial algorithm will be used

     bravais-lattice index     =            0
     lattice parameter (alat)  =       1.8897  a.u.
     unit-cell volume          =     384.8174 (a.u.)^3
     number of atoms/cell      =            4
     number of atomic types    =            2
     number of electrons       =        75.00
     number of Kohn-Sham states=           57
     kinetic-energy cutoff     =      58.7989  Ry
     charge density cutoff     =     587.9892  Ry
     convergence threshold     =      7.3E-09
     mixing beta               =       0.1000
     number of iterations used =           10  local-TF  mixing
     Exchange-correlation      = BEEF-VDW ( 1  4 27 13 2)
     nstep                     =           50

     celldm(1)=   1.889726  celldm(2)=   0.000000  celldm(3)=   0.000000
     celldm(4)=   0.000000  celldm(5)=   0.000000  celldm(6)=   0.000000

     crystal axes: (cart. coord. in units of alat)
               a(1) = (   3.849042   0.000000   0.000000 )
               a(2) = (   0.000000   3.849042   0.000000 )
               a(3) = (   0.000000   0.000000   3.849042 )

     reciprocal axes: (cart. coord. in units 2 pi/alat)
               b(1) = (  0.259805  0.000000  0.000000 )
               b(2) = (  0.000000  0.259805  0.000000 )
               b(3) = (  0.000000  0.000000  0.259805 )

     PseudoPot. # 1 for Zn read from file:
     /home/vossj/suncat/psp/gbrv1.5pbe/Zn.UPF
     MD5 check sum: df62231357ef9e81f77b2b3087fa5675
     Pseudo is Ultrasoft, Zval = 20.0
     Generated by new atomic code, or converted to UPF format
     Using radial grid of  943 points,  6 beta functions with:
                l(1) =   0
                l(2) =   0
                l(3) =   1
                l(4) =   1
                l(5) =   2
                l(6) =   2
     Q(r) pseudized with  8 coefficients,  rinner =    1.100   1.100   1.100
                                                       1.100   1.100

     PseudoPot. # 2 for Re read from file:
     /home/vossj/suncat/psp/gbrv1.5pbe/Re.UPF
     MD5 check sum: 85f993410f3e006da9d71c142b4ad953
     Pseudo is Ultrasoft + core correction, Zval = 15.0
     Generated by new atomic code, or converted to UPF format
     Using radial grid of  981 points,  8 beta functions with:
                l(1) =   0
                l(2) =   0
                l(3) =   1
                l(4) =   1
                l(5) =   2
                l(6) =   2
                l(7) =   3
                l(8) =   3
     Q(r) pseudized with  8 coefficients,  rinner =    1.150   1.150   1.150
                                                       1.150   1.150   1.150
                                                       1.150

     vdW kernel table read from file vdW_kernel_table
     MD5 check sum: 095c7af220d748ca6e76c0b4c6cfb241

     atomic species   valence    mass     pseudopotential
        Zn1           20.00    65.38000     Zn( 1.00)
        Re1           15.00   186.20700     Re( 1.00)

     48 Sym. Ops., with inversion, found (32 have fractional translation)

   Cartesian axes

     site n.     atom                  positions (alat units)
         1           Zn1 tau(   1) = (   0.0000000   0.0000000   0.0000000  )
         2           Zn1 tau(   2) = (   0.0000000   1.9245212   1.9245212  )
         3           Zn1 tau(   3) = (   1.9245212   0.0000000   1.9245212  )
         4           Re1 tau(   4) = (   1.9245212   1.9245212   0.0000000  )

     number of k points=    84  Fermi-Dirac smearing, width (Ry)=  0.0073
                       cart. coord. in units 2pi/alat
        k(    1) = (   0.0000000   0.0000000   0.0000000), wk =   0.0011574
        k(    2) = (   0.0000000   0.0000000   0.0216504), wk =   0.0069444
        k(    3) = (   0.0000000   0.0000000   0.0433008), wk =   0.0069444
        k(    4) = (   0.0000000   0.0000000   0.0649512), wk =   0.0069444
        k(    5) = (   0.0000000   0.0000000   0.0866016), wk =   0.0069444
        k(    6) = (   0.0000000   0.0000000   0.1082520), wk =   0.0069444
        k(    7) = (   0.0000000   0.0000000  -0.1299024), wk =   0.0034722
        k(    8) = (   0.0000000   0.0216504   0.0216504), wk =   0.0138889
        k(    9) = (   0.0000000   0.0216504   0.0433008), wk =   0.0277778
        k(   10) = (   0.0000000   0.0216504   0.0649512), wk =   0.0277778
        k(   11) = (   0.0000000   0.0216504   0.0866016), wk =   0.0277778
        k(   12) = (   0.0000000   0.0216504   0.1082520), wk =   0.0277778
        k(   13) = (   0.0000000   0.0216504  -0.1299024), wk =   0.0138889
        k(   14) = (   0.0000000   0.0433008   0.0433008), wk =   0.0138889
        k(   15) = (   0.0000000   0.0433008   0.0649512), wk =   0.0277778
        k(   16) = (   0.0000000   0.0433008   0.0866016), wk =   0.0277778
        k(   17) = (   0.0000000   0.0433008   0.1082520), wk =   0.0277778
        k(   18) = (   0.0000000   0.0433008  -0.1299024), wk =   0.0138889
        k(   19) = (   0.0000000   0.0649512   0.0649512), wk =   0.0138889
        k(   20) = (   0.0000000   0.0649512   0.0866016), wk =   0.0277778
        k(   21) = (   0.0000000   0.0649512   0.1082520), wk =   0.0277778
        k(   22) = (   0.0000000   0.0649512  -0.1299024), wk =   0.0138889
        k(   23) = (   0.0000000   0.0866016   0.0866016), wk =   0.0138889
        k(   24) = (   0.0000000   0.0866016   0.1082520), wk =   0.0277778
        k(   25) = (   0.0000000   0.0866016  -0.1299024), wk =   0.0138889
        k(   26) = (   0.0000000   0.1082520   0.1082520), wk =   0.0138889
        k(   27) = (   0.0000000   0.1082520  -0.1299024), wk =   0.0138889
        k(   28) = (   0.0000000  -0.1299024  -0.1299024), wk =   0.0034722
        k(   29) = (   0.0216504   0.0216504   0.0216504), wk =   0.0092593
        k(   30) = (   0.0216504   0.0216504   0.0433008), wk =   0.0277778
        k(   31) = (   0.0216504   0.0216504   0.0649512), wk =   0.0277778
        k(   32) = (   0.0216504   0.0216504   0.0866016), wk =   0.0277778
        k(   33) = (   0.0216504   0.0216504   0.1082520), wk =   0.0277778
        k(   34) = (   0.0216504   0.0216504  -0.1299024), wk =   0.0138889
        k(   35) = (   0.0216504   0.0433008   0.0433008), wk =   0.0277778
        k(   36) = (   0.0216504   0.0433008   0.0649512), wk =   0.0555556
        k(   37) = (   0.0216504   0.0433008   0.0866016), wk =   0.0555556
        k(   38) = (   0.0216504   0.0433008   0.1082520), wk =   0.0555556
        k(   39) = (   0.0216504   0.0433008  -0.1299024), wk =   0.0277778
        k(   40) = (   0.0216504   0.0649512   0.0649512), wk =   0.0277778
        k(   41) = (   0.0216504   0.0649512   0.0866016), wk =   0.0555556
        k(   42) = (   0.0216504   0.0649512   0.1082520), wk =   0.0555556
        k(   43) = (   0.0216504   0.0649512  -0.1299024), wk =   0.0277778
        k(   44) = (   0.0216504   0.0866016   0.0866016), wk =   0.0277778
        k(   45) = (   0.0216504   0.0866016   0.1082520), wk =   0.0555556
        k(   46) = (   0.0216504   0.0866016  -0.1299024), wk =   0.0277778
        k(   47) = (   0.0216504   0.1082520   0.1082520), wk =   0.0277778
        k(   48) = (   0.0216504   0.1082520  -0.1299024), wk =   0.0277778
        k(   49) = (   0.0216504  -0.1299024  -0.1299024), wk =   0.0069444
        k(   50) = (   0.0433008   0.0433008   0.0433008), wk =   0.0092593
        k(   51) = (   0.0433008   0.0433008   0.0649512), wk =   0.0277778
        k(   52) = (   0.0433008   0.0433008   0.0866016), wk =   0.0277778
        k(   53) = (   0.0433008   0.0433008   0.1082520), wk =   0.0277778
        k(   54) = (   0.0433008   0.0433008  -0.1299024), wk =   0.0138889
        k(   55) = (   0.0433008   0.0649512   0.0649512), wk =   0.0277778
        k(   56) = (   0.0433008   0.0649512   0.0866016), wk =   0.0555556
        k(   57) = (   0.0433008   0.0649512   0.1082520), wk =   0.0555556
        k(   58) = (   0.0433008   0.0649512  -0.1299024), wk =   0.0277778
        k(   59) = (   0.0433008   0.0866016   0.0866016), wk =   0.0277778
        k(   60) = (   0.0433008   0.0866016   0.1082520), wk =   0.0555556
[...]
        k(   70) = (   0.0649512   0.0866016   0.1082520), wk =   0.0555556
        k(   71) = (   0.0649512   0.0866016  -0.1299024), wk =   0.0277778
        k(   72) = (   0.0649512   0.1082520   0.1082520), wk =   0.0277778
        k(   73) = (   0.0649512   0.1082520  -0.1299024), wk =   0.0277778
        k(   74) = (   0.0649512  -0.1299024  -0.1299024), wk =   0.0069444
        k(   75) = (   0.0866016   0.0866016   0.0866016), wk =   0.0092593
        k(   76) = (   0.0866016   0.0866016   0.1082520), wk =   0.0277778
        k(   77) = (   0.0866016   0.0866016  -0.1299024), wk =   0.0138889
        k(   78) = (   0.0866016   0.1082520   0.1082520), wk =   0.0277778
        k(   79) = (   0.0866016   0.1082520  -0.1299024), wk =   0.0277778
        k(   80) = (   0.0866016  -0.1299024  -0.1299024), wk =   0.0069444
        k(   81) = (   0.1082520   0.1082520   0.1082520), wk =   0.0092593
        k(   82) = (   0.1082520   0.1082520  -0.1299024), wk =   0.0138889
        k(   83) = (   0.1082520  -0.1299024  -0.1299024), wk =   0.0069444
        k(   84) = (  -0.1299024  -0.1299024  -0.1299024), wk =   0.0011574

     Largest allocated arrays     est. size (Mb)     dimensions
     Largest temporary arrays     est. size (Mb)     dimensions

     Initial potential from superposition of free atoms
     Check: negative starting charge=   -0.129295

     starting charge   74.49953, renormalised to   75.00000

     negative rho (up, down):  1.302E-01 0.000E+00

     *
     * You are using vdW-DF for exchange-correlation in this calculation.
     * Please cite the following three references that made this development
     * possible:
     *
     *   M. Dion, H. Rydberg, E. Schroder, D. C. Langreth, and
     *   B. I. Lundqvist, Phys. Rev. Lett. 92, 246401 (2004).
     *
     *   T. Thonhauser, V. R. Cooper, S. Li, A. Puzder, P. Hyldgaard, and
     *   D. C. Langreth, Phys. Rev. B 76, 125112 (2007).
     *
     *   G. Roman-Perez and J. M. Soler, Phys. Rev. Lett. 103, 096102 (2009).
     *
     *
     * If you are using vdW-DF2, please also cite:
     *
     *   K. Lee, E. D. Murray, L. Kong, B. I. Lundqvist, and
     *   D. C. Langreth, Phys. Rev. B 82, 081101(R) (2010).
     *
     *
     * If you are calculating the stress with vdW-DF, please also cite:
     *
     *   R. Sabatini, E. Kucukbenli, B. Kolb, T. Thonhauser, and
     *   S. de Gironcoli, J. Phys.: Condens. Matter 24, 424209 (2012).
     *

     Carrying out vdW-DF run using the following parameters:

     Nqs =      20    Nr_points =    1024   r_max =   100.000
     q_mesh =
               0.00001000     0.04494208     0.09755937     0.15916263
               0.23128650     0.31572767     0.41458969     0.53033537
               0.66584808     0.82450364     1.01025438     1.22772762
               1.48234092     1.78043706     2.12944203     2.53805004
               3.01644009     3.57652955     4.23227104     5.00000000

     Gradients computed in reciprocal space

     Starting wfc are   52 randomized atomic wfcs +    5 random wfc

     Self-consistent Calculation

     iteration #  1     ecut=    58.80 Ry     beta=0.10
     Davidson diagonalization with overlap
     ethr =  1.00E-02,  avg # of iterations =  4.5

[...]

     total energy              =   -1580.79114195 Ry
     Harris-Foulkes estimate   =   -1580.93120574 Ry
     estimated scf accuracy    <       2.48226643 Ry

[...]

     total energy              =   -1580.50624023 Ry
     Harris-Foulkes estimate   =   -1580.50623965 Ry
     estimated scf accuracy    <       0.00000013 Ry

     iteration # 12     ecut=    58.80 Ry     beta=0.10
     Davidson diagonalization with overlap
     ethr =  1.74E-10,  avg # of iterations =  2.0

     negative rho (up, down):  1.309E-01 0.000E+00

     End of self-consistent calculation

          k = 0.0000 0.0000 0.0000 (  2945 PWs)   bands (ev):

  -109.7034-109.7006-109.7006 -63.9168 -63.9168 -63.9168 -63.8576 -63.8576
   -63.8576 -63.8568 -63.8568 -63.8568 -63.3114 -25.0366 -25.0366 -25.0366
     6.3792   8.4033   8.5976   8.5976   8.6097   8.6097   8.6097   9.3951
     9.3951   9.3951   9.6901   9.6901   9.9538  10.0004  10.0004  10.0004
    14.5291  14.5291  16.6509  16.6509  16.6509  16.8971  16.8971  16.8971
    21.2304  23.0967  23.0967  25.1204  25.1204  25.1204  28.4143  28.4143
    28.4143  32.4346  32.4346  32.4346  33.2618  33.2618  34.4084  34.9688
    37.7138

[...]

          k = 0.1083-0.1299-0.1299 (  2944 PWs)   bands (ev):

[...]

          k =-0.1299-0.1299-0.1299 (  3016 PWs)   bands (ev):

  -109.7015-109.7015-109.7015 -63.9310 -63.9074 -63.9074 -63.8660 -63.8660
   -63.8660 -63.8501 -63.8501 -63.8501 -63.3108 -25.0499 -25.0499 -25.0499
     8.4734   8.4734   8.4734   8.5133   9.1934   9.1934   9.1934   9.3679
     9.3679   9.3679   9.5414   9.5414   9.9408   9.9408   9.9408  13.2349
    13.2349  13.2349  13.8000  14.9440  14.9440  14.9440  17.3575  17.3575
    18.6734  21.0532  21.0532  21.0532  32.0291  32.0291  32.0291  32.9673
    32.9673  33.1556  33.1556  33.1556  33.7154  36.0801  36.0801  36.0801
    37.6004

     the Fermi energy is    17.0508 ev

!    total energy              =   -1580.50624310 Ry
     Harris-Foulkes estimate   =   -1580.50624025 Ry
     estimated scf accuracy    <          1.2E-09 Ry

     The total energy is the sum of the following terms:

     one-electron contribution =   -1082.46795393 Ry
     hartree contribution      =     578.80555652 Ry
     xc contribution           =    -184.60916487 Ry
     ewald contribution        =    -892.22769458 Ry
     smearing contrib. (-TS)   =      -0.00698624 Ry

     convergence has been achieved in  12 iterations

     Forces acting on atoms (Ry/au):

     negative rho (up, down):  1.309E-01 0.000E+00
     atom    1 type  1   force =     0.00000000    0.00000000    0.00000000
     atom    2 type  1   force =     0.00000000    0.00000000   -0.00000000
     atom    3 type  1   force =     0.00000000   -0.00000000    0.00000000
     atom    4 type  2   force =     0.00000000    0.00000000    0.00000000

     Total force =     0.000000     Total SCF correction =     0.000000
 !ASE

     General routines

     Parallel routines

   This run was terminated on:  21: 6: 4  24Oct2017

   JOB DONE.