     Program PWSCF v.5.1rc2 (svn rev. ) starts on 31Oct2017 at 13:58:48

     Current dimensions of program PWSCF are:
     Max number of different atomic species (ntypx) = 10
     Max number of k-points (npk) =  40000
     Max angular momentum in pseudopotentials (lmaxx) =  3

     IMPORTANT: XC functional enforced from input :
     Exchange-correlation      = BEEF-VDW ( 1  4 27 13 2)
     Any further DFT definition will be discarded
     Please, verify this is what you really want

     Subspace diagonalization in iterative solution of the eigenvalue problem:
     a serial algorithm will be used

     bravais-lattice index     =            0
     lattice parameter (alat)  =       1.8897  a.u.
     unit-cell volume          =     391.4704 (a.u.)^3
     number of atoms/cell      =            4
     number of atomic types    =            2
     number of electrons       =        65.00
     number of Kohn-Sham states=           52
     kinetic-energy cutoff     =      58.7989  Ry
     charge density cutoff     =     587.9892  Ry
     convergence threshold     =      7.3E-09
     mixing beta               =       0.1000
     number of iterations used =           10  local-TF  mixing
     Exchange-correlation      = BEEF-VDW ( 1  4 27 13 2)
     nstep                     =           50

     celldm(1)=   1.889726  celldm(2)=   0.000000  celldm(3)=   0.000000
     celldm(4)=   0.000000  celldm(5)=   0.000000  celldm(6)=   0.000000

     crystal axes: (cart. coord. in units of alat)
               a(1) = (   3.871097   0.000000   0.000000 )
               a(2) = (   0.000000   3.871097   0.000000 )
               a(3) = (   0.000000   0.000000   3.871097 )

     reciprocal axes: (cart. coord. in units 2 pi/alat)
               b(1) = (  0.258325  0.000000  0.000000 )
               b(2) = (  0.000000  0.258325  0.000000 )
               b(3) = (  0.000000  0.000000  0.258325 )

     PseudoPot. # 1 for Pd read from file:
     /home/vossj/suncat/psp/gbrv1.5pbe/Pd.UPF
     MD5 check sum: 2d733d2bc2cbfd217af676df1668a4bc
     Pseudo is Ultrasoft + core correction, Zval = 16.0
     Generated by new atomic code, or converted to UPF format
     Using radial grid of  887 points,  6 beta functions with:
                l(1) =   0
                l(2) =   0
                l(3) =   1
                l(4) =   1
                l(5) =   2
                l(6) =   2
     Q(r) pseudized with  8 coefficients,  rinner =    1.130   1.130   1.130
                                                       1.130   1.130

     PseudoPot. # 2 for Co read from file:
     /home/vossj/suncat/psp/gbrv1.5pbe/Co.UPF
     MD5 check sum: 5f91765df6ddd3222702df6e7b74a16d
     Pseudo is Ultrasoft + core correction, Zval = 17.0
     Generated by new atomic code, or converted to UPF format
     Using radial grid of  863 points,  6 beta functions with:
                l(1) =   0
                l(2) =   0
                l(3) =   1
                l(4) =   1
                l(5) =   2
                l(6) =   2
     Q(r) pseudized with  8 coefficients,  rinner =    1.200   1.200   1.200
                                                       1.200   1.200

     vdW kernel table read from file vdW_kernel_table
     MD5 check sum: 095c7af220d748ca6e76c0b4c6cfb241

     atomic species   valence    mass     pseudopotential
        Pd1           16.00   106.42000     Pd( 1.00)
        Co1           17.00    58.93319     Co( 1.00)

     48 Sym. Ops., with inversion, found (32 have fractional translation)

   Cartesian axes

     site n.     atom                  positions (alat units)
         1           Pd1 tau(   1) = (   0.0000000   0.0000000   0.0000000  )
         2           Pd1 tau(   2) = (   0.0000000   1.9355487   1.9355487  )
         3           Pd1 tau(   3) = (   1.9355487   0.0000000   1.9355487  )
         4           Co1 tau(   4) = (   1.9355487   1.9355487   0.0000000  )

     number of k points=    84  Fermi-Dirac smearing, width (Ry)=  0.0073
                       cart. coord. in units 2pi/alat
        k(    1) = (   0.0000000   0.0000000   0.0000000), wk =   0.0011574
        k(    2) = (   0.0000000   0.0000000   0.0215271), wk =   0.0069444
        k(    3) = (   0.0000000   0.0000000   0.0430541), wk =   0.0069444
        k(    4) = (   0.0000000   0.0000000   0.0645812), wk =   0.0069444
        k(    5) = (   0.0000000   0.0000000   0.0861082), wk =   0.0069444
        k(    6) = (   0.0000000   0.0000000   0.1076353), wk =   0.0069444
        k(    7) = (   0.0000000   0.0000000  -0.1291623), wk =   0.0034722
        k(    8) = (   0.0000000   0.0215271   0.0215271), wk =   0.0138889
        k(    9) = (   0.0000000   0.0215271   0.0430541), wk =   0.0277778
        k(   10) = (   0.0000000   0.0215271   0.0645812), wk =   0.0277778
        k(   11) = (   0.0000000   0.0215271   0.0861082), wk =   0.0277778
        k(   12) = (   0.0000000   0.0215271   0.1076353), wk =   0.0277778
        k(   13) = (   0.0000000   0.0215271  -0.1291623), wk =   0.0138889
        k(   14) = (   0.0000000   0.0430541   0.0430541), wk =   0.0138889
        k(   15) = (   0.0000000   0.0430541   0.0645812), wk =   0.0277778
        k(   16) = (   0.0000000   0.0430541   0.0861082), wk =   0.0277778
        k(   17) = (   0.0000000   0.0430541   0.1076353), wk =   0.0277778
        k(   18) = (   0.0000000   0.0430541  -0.1291623), wk =   0.0138889
        k(   19) = (   0.0000000   0.0645812   0.0645812), wk =   0.0138889
        k(   20) = (   0.0000000   0.0645812   0.0861082), wk =   0.0277778
        k(   21) = (   0.0000000   0.0645812   0.1076353), wk =   0.0277778
        k(   22) = (   0.0000000   0.0645812  -0.1291623), wk =   0.0138889
        k(   23) = (   0.0000000   0.0861082   0.0861082), wk =   0.0138889
        k(   24) = (   0.0000000   0.0861082   0.1076353), wk =   0.0277778
        k(   25) = (   0.0000000   0.0861082  -0.1291623), wk =   0.0138889
        k(   26) = (   0.0000000   0.1076353   0.1076353), wk =   0.0138889
        k(   27) = (   0.0000000   0.1076353  -0.1291623), wk =   0.0138889
        k(   28) = (   0.0000000  -0.1291623  -0.1291623), wk =   0.0034722
        k(   29) = (   0.0215271   0.0215271   0.0215271), wk =   0.0092593
        k(   30) = (   0.0215271   0.0215271   0.0430541), wk =   0.0277778
        k(   31) = (   0.0215271   0.0215271   0.0645812), wk =   0.0277778
        k(   32) = (   0.0215271   0.0215271   0.0861082), wk =   0.0277778
        k(   33) = (   0.0215271   0.0215271   0.1076353), wk =   0.0277778
        k(   34) = (   0.0215271   0.0215271  -0.1291623), wk =   0.0138889
        k(   35) = (   0.0215271   0.0430541   0.0430541), wk =   0.0277778
        k(   36) = (   0.0215271   0.0430541   0.0645812), wk =   0.0555556
        k(   37) = (   0.0215271   0.0430541   0.0861082), wk =   0.0555556
        k(   38) = (   0.0215271   0.0430541   0.1076353), wk =   0.0555556
        k(   39) = (   0.0215271   0.0430541  -0.1291623), wk =   0.0277778
        k(   40) = (   0.0215271   0.0645812   0.0645812), wk =   0.0277778
        k(   41) = (   0.0215271   0.0645812   0.0861082), wk =   0.0555556
        k(   42) = (   0.0215271   0.0645812   0.1076353), wk =   0.0555556
        k(   43) = (   0.0215271   0.0645812  -0.1291623), wk =   0.0277778
        k(   44) = (   0.0215271   0.0861082   0.0861082), wk =   0.0277778
        k(   45) = (   0.0215271   0.0861082   0.1076353), wk =   0.0555556
        k(   46) = (   0.0215271   0.0861082  -0.1291623), wk =   0.0277778
        k(   47) = (   0.0215271   0.1076353   0.1076353), wk =   0.0277778
        k(   48) = (   0.0215271   0.1076353  -0.1291623), wk =   0.0277778
        k(   49) = (   0.0215271  -0.1291623  -0.1291623), wk =   0.0069444
        k(   50) = (   0.0430541   0.0430541   0.0430541), wk =   0.0092593
        k(   51) = (   0.0430541   0.0430541   0.0645812), wk =   0.0277778
        k(   52) = (   0.0430541   0.0430541   0.0861082), wk =   0.0277778
        k(   53) = (   0.0430541   0.0430541   0.1076353), wk =   0.0277778
        k(   54) = (   0.0430541   0.0430541  -0.1291623), wk =   0.0138889
        k(   55) = (   0.0430541   0.0645812   0.0645812), wk =   0.0277778
        k(   56) = (   0.0430541   0.0645812   0.0861082), wk =   0.0555556
        k(   57) = (   0.0430541   0.0645812   0.1076353), wk =   0.0555556
        k(   58) = (   0.0430541   0.0645812  -0.1291623), wk =   0.0277778
        k(   59) = (   0.0430541   0.0861082   0.0861082), wk =   0.0277778
        k(   60) = (   0.0430541   0.0861082   0.1076353), wk =   0.0555556
[...]
        k(   70) = (   0.0645812   0.0861082   0.1076353), wk =   0.0555556
        k(   71) = (   0.0645812   0.0861082  -0.1291623), wk =   0.0277778
        k(   72) = (   0.0645812   0.1076353   0.1076353), wk =   0.0277778
        k(   73) = (   0.0645812   0.1076353  -0.1291623), wk =   0.0277778
        k(   74) = (   0.0645812  -0.1291623  -0.1291623), wk =   0.0069444
        k(   75) = (   0.0861082   0.0861082   0.0861082), wk =   0.0092593
        k(   76) = (   0.0861082   0.0861082   0.1076353), wk =   0.0277778
        k(   77) = (   0.0861082   0.0861082  -0.1291623), wk =   0.0138889
        k(   78) = (   0.0861082   0.1076353   0.1076353), wk =   0.0277778
        k(   79) = (   0.0861082   0.1076353  -0.1291623), wk =   0.0277778
        k(   80) = (   0.0861082  -0.1291623  -0.1291623), wk =   0.0069444
        k(   81) = (   0.1076353   0.1076353   0.1076353), wk =   0.0092593
        k(   82) = (   0.1076353   0.1076353  -0.1291623), wk =   0.0138889
        k(   83) = (   0.1076353  -0.1291623  -0.1291623), wk =   0.0069444
        k(   84) = (  -0.1291623  -0.1291623  -0.1291623), wk =   0.0011574

     Largest allocated arrays     est. size (Mb)     dimensions
     Largest temporary arrays     est. size (Mb)     dimensions

     Check: negative/imaginary core charge=   -0.000009    0.000000

     Initial potential from superposition of free atoms
     Check: negative starting charge=   -0.233460

     starting charge   62.49997, renormalised to   65.00000

     negative rho (up, down):  2.428E-01 0.000E+00

     *
     * You are using vdW-DF for exchange-correlation in this calculation.
     * Please cite the following three references that made this development
     * possible:
     *
     *   M. Dion, H. Rydberg, E. Schroder, D. C. Langreth, and
     *   B. I. Lundqvist, Phys. Rev. Lett. 92, 246401 (2004).
     *
     *   T. Thonhauser, V. R. Cooper, S. Li, A. Puzder, P. Hyldgaard, and
     *   D. C. Langreth, Phys. Rev. B 76, 125112 (2007).
     *
     *   G. Roman-Perez and J. M. Soler, Phys. Rev. Lett. 103, 096102 (2009).
     *
     *
     * If you are using vdW-DF2, please also cite:
     *
     *   K. Lee, E. D. Murray, L. Kong, B. I. Lundqvist, and
     *   D. C. Langreth, Phys. Rev. B 82, 081101(R) (2010).
     *
     *
     * If you are calculating the stress with vdW-DF, please also cite:
     *
     *   R. Sabatini, E. Kucukbenli, B. Kolb, T. Thonhauser, and
     *   S. de Gironcoli, J. Phys.: Condens. Matter 24, 424209 (2012).
     *

     Carrying out vdW-DF run using the following parameters:

     Nqs =      20    Nr_points =    1024   r_max =   100.000
     q_mesh =
               0.00001000     0.04494208     0.09755937     0.15916263
               0.23128650     0.31572767     0.41458969     0.53033537
               0.66584808     0.82450364     1.01025438     1.22772762
               1.48234092     1.78043706     2.12944203     2.53805004
               3.01644009     3.57652955     4.23227104     5.00000000

     Gradients computed in reciprocal space

     Starting wfc are   49 randomized atomic wfcs +    3 random wfc

     Self-consistent Calculation

     iteration #  1     ecut=    58.80 Ry     beta=0.10
     Davidson diagonalization with overlap
     ethr =  1.00E-02,  avg # of iterations =  4.2

[...]

     total energy              =    -900.16972929 Ry
     Harris-Foulkes estimate   =    -900.63746858 Ry
     estimated scf accuracy    <       6.54388849 Ry

[...]

     total energy              =    -898.92447484 Ry
     Harris-Foulkes estimate   =    -898.92447289 Ry
     estimated scf accuracy    <       0.00000038 Ry

     iteration # 13     ecut=    58.80 Ry     beta=0.10
     Davidson diagonalization with overlap
     ethr =  4.92E-11,  avg # of iterations =  2.0

     negative rho (up, down):  2.453E-01 0.000E+00

     End of self-consistent calculation

          k = 0.0000 0.0000 0.0000 (  2945 PWs)   bands (ev):

   -77.2334 -40.5422 -40.5422 -40.5422 -32.9869 -32.9869 -32.9869 -32.8206
   -32.8206 -32.8206 -32.7013 -32.7013 -32.7013  10.1738  11.7489  12.5525
    12.5525  12.5533  12.5533  12.5533  14.8693  14.8693  14.8693  16.2029
    16.2029  17.1045  17.3581  17.3581  17.4742  17.4742  17.4742  17.6290
    17.6290  17.6290  20.4927  20.4927  20.4927  27.2383  27.4524  27.4524
    30.0756  30.0756  30.0756  31.4066  31.4066  31.4066  35.9987  37.6647
    37.6647  37.6647  37.9666  38.8777

[...]

          k = 0.1076-0.1292-0.1292 (  3004 PWs)   bands (ev):

[...]

          k =-0.1292-0.1292-0.1292 (  3016 PWs)   bands (ev):

   -77.2334 -40.5430 -40.5430 -40.5430 -33.0709 -32.9642 -32.9642 -32.9642
   -32.7230 -32.7230 -32.7230 -32.7073 -32.7073  11.8342  12.4455  12.4455
    12.4455  14.2874  14.2874  14.2874  14.8587  14.8587  14.8587  15.2415
    15.2415  17.1476  17.1476  17.1476  17.3935  17.3935  17.3936  17.3936
    17.3936  18.0724  18.0724  18.0724  18.4895  23.6636  24.2014  24.2014
    24.2014  34.9875  35.1276  35.1276  35.1276  37.7421  37.7421  37.7421
    39.4670  39.4670  40.1684  40.1684

     the Fermi energy is    17.2861 ev

!    total energy              =    -898.92448351 Ry
     Harris-Foulkes estimate   =    -898.92447486 Ry
     estimated scf accuracy    <          9.9E-10 Ry

     The total energy is the sum of the following terms:

     one-electron contribution =    -313.41840815 Ry
     hartree contribution      =     208.13340902 Ry
     xc contribution           =    -131.38048440 Ry
     ewald contribution        =    -662.23429175 Ry
     smearing contrib. (-TS)   =      -0.02470823 Ry

     convergence has been achieved in  13 iterations

     Forces acting on atoms (Ry/au):

     negative rho (up, down):  2.453E-01 0.000E+00
     atom    1 type  1   force =     0.00000000    0.00000000    0.00000000
     atom    2 type  1   force =     0.00000000    0.00000000    0.00000000
     atom    3 type  1   force =     0.00000000    0.00000000    0.00000000
     atom    4 type  2   force =     0.00000000    0.00000000   -0.00000000

     Total force =     0.000000     Total SCF correction =     0.000000
 !ASE

     General routines

     Parallel routines

   This run was terminated on:  13:59:47  31Oct2017

   JOB DONE.