     Program PWSCF v.5.1rc2 (svn rev. ) starts on 10Nov2017 at 12:42:20

     Current dimensions of program PWSCF are:
     Max number of different atomic species (ntypx) = 10
     Max number of k-points (npk) =  40000
     Max angular momentum in pseudopotentials (lmaxx) =  3

     IMPORTANT: XC functional enforced from input :
     Exchange-correlation      = BEEF-VDW ( 1  4 27 13 2)
     Any further DFT definition will be discarded
     Please, verify this is what you really want

     Subspace diagonalization in iterative solution of the eigenvalue problem:
     a serial algorithm will be used

     Generating pointlists ...
     new r_m :   0.4125 (alat units)  0.7795 (a.u.) for type    1
     new r_m :   0.4125 (alat units)  0.7795 (a.u.) for type    2

     bravais-lattice index     =            0
     lattice parameter (alat)  =       1.8897  a.u.
     unit-cell volume          =     311.3009 (a.u.)^3
     number of atoms/cell      =            4
     number of atomic types    =            2
     number of electrons       =        58.00
     number of Kohn-Sham states=           49
     kinetic-energy cutoff     =      58.7989  Ry
     charge density cutoff     =     587.9892  Ry
     convergence threshold     =      7.3E-06
     mixing beta               =       0.3000
     number of iterations used =           10  local-TF  mixing
     Exchange-correlation      = BEEF-VDW ( 1  4 27 13 2)
     nstep                     =           50

     celldm(1)=   1.889726  celldm(2)=   0.000000  celldm(3)=   0.000000
     celldm(4)=   0.000000  celldm(5)=   0.000000  celldm(6)=   0.000000

     crystal axes: (cart. coord. in units of alat)
               a(1) = (   3.586421   0.000000   0.000000 )
               a(2) = (   0.000000   3.586421   0.000000 )
               a(3) = (   0.000000   0.000000   3.586421 )

     reciprocal axes: (cart. coord. in units 2 pi/alat)
               b(1) = (  0.278830  0.000000  0.000000 )
               b(2) = (  0.000000  0.278830  0.000000 )
               b(3) = (  0.000000  0.000000  0.278830 )

     PseudoPot. # 1 for Cr read from file:
     /home/vossj/suncat/psp/gbrv1.5pbe/Cr.UPF
     MD5 check sum: 0d52af634a40206e4dee301ad30da4bf
     Pseudo is Ultrasoft + core correction, Zval = 14.0
     Generated by new atomic code, or converted to UPF format
     Using radial grid of  857 points,  6 beta functions with:
                l(1) =   0
                l(2) =   0
                l(3) =   1
                l(4) =   1
                l(5) =   2
                l(6) =   2
     Q(r) pseudized with  8 coefficients,  rinner =    0.950   0.950   0.950
                                                       0.950   0.950

     PseudoPot. # 2 for Fe read from file:
     /home/vossj/suncat/psp/gbrv1.5pbe/Fe.UPF
     MD5 check sum: a130daea23fe5165f5d574ae7f82ed95
     Pseudo is Ultrasoft + core correction, Zval = 16.0
     Generated by new atomic code, or converted to UPF format
     Using radial grid of  861 points,  6 beta functions with:
                l(1) =   0
                l(2) =   0
                l(3) =   1
                l(4) =   1
                l(5) =   2
                l(6) =   2
     Q(r) pseudized with  8 coefficients,  rinner =    1.000   1.000   1.000
                                                       1.000   1.000

     vdW kernel table read from file vdW_kernel_table
     MD5 check sum: 095c7af220d748ca6e76c0b4c6cfb241

     atomic species   valence    mass     pseudopotential
        Cr1           14.00    51.99610     Cr( 1.00)
        Fe1           16.00    55.84500     Fe( 1.00)

     Starting magnetic structure
     atomic species   magnetization
        Cr1          0.143
        Fe1          0.125

     48 Sym. Ops., with inversion, found (32 have fractional translation)

   Cartesian axes

     site n.     atom                  positions (alat units)
         1           Cr1 tau(   1) = (   0.0000000   0.0000000   0.0000000  )
         2           Cr1 tau(   2) = (   0.0000000   1.7932104   1.7932104  )
         3           Cr1 tau(   3) = (   1.7932104   0.0000000   1.7932104  )
         4           Fe1 tau(   4) = (   1.7932104   1.7932104   0.0000000  )

     number of k points=    70  Fermi-Dirac smearing, width (Ry)=  0.0073
                       cart. coord. in units 2pi/alat
        k(    1) = (   0.0000000   0.0000000   0.0000000), wk =   0.0013717
        k(    2) = (   0.0000000   0.0000000   0.0309811), wk =   0.0082305
        k(    3) = (   0.0000000   0.0000000   0.0619621), wk =   0.0082305
        k(    4) = (   0.0000000   0.0000000   0.0929432), wk =   0.0082305
        k(    5) = (   0.0000000   0.0000000   0.1239242), wk =   0.0082305
        k(    6) = (   0.0000000   0.0309811   0.0309811), wk =   0.0164609
        k(    7) = (   0.0000000   0.0309811   0.0619621), wk =   0.0329218
        k(    8) = (   0.0000000   0.0309811   0.0929432), wk =   0.0329218
        k(    9) = (   0.0000000   0.0309811   0.1239242), wk =   0.0329218
        k(   10) = (   0.0000000   0.0619621   0.0619621), wk =   0.0164609
        k(   11) = (   0.0000000   0.0619621   0.0929432), wk =   0.0329218
        k(   12) = (   0.0000000   0.0619621   0.1239242), wk =   0.0329218
        k(   13) = (   0.0000000   0.0929432   0.0929432), wk =   0.0164609
        k(   14) = (   0.0000000   0.0929432   0.1239242), wk =   0.0329218
        k(   15) = (   0.0000000   0.1239242   0.1239242), wk =   0.0164609
        k(   16) = (   0.0309811   0.0309811   0.0309811), wk =   0.0109739
        k(   17) = (   0.0309811   0.0309811   0.0619621), wk =   0.0329218
        k(   18) = (   0.0309811   0.0309811   0.0929432), wk =   0.0329218
        k(   19) = (   0.0309811   0.0309811   0.1239242), wk =   0.0329218
        k(   20) = (   0.0309811   0.0619621   0.0619621), wk =   0.0329218
        k(   21) = (   0.0309811   0.0619621   0.0929432), wk =   0.0658436
        k(   22) = (   0.0309811   0.0619621   0.1239242), wk =   0.0658436
        k(   23) = (   0.0309811   0.0929432   0.0929432), wk =   0.0329218
        k(   24) = (   0.0309811   0.0929432   0.1239242), wk =   0.0658436
        k(   25) = (   0.0309811   0.1239242   0.1239242), wk =   0.0329218
        k(   26) = (   0.0619621   0.0619621   0.0619621), wk =   0.0109739
        k(   27) = (   0.0619621   0.0619621   0.0929432), wk =   0.0329218
        k(   28) = (   0.0619621   0.0619621   0.1239242), wk =   0.0329218
        k(   29) = (   0.0619621   0.0929432   0.0929432), wk =   0.0329218
        k(   30) = (   0.0619621   0.0929432   0.1239242), wk =   0.0658436
        k(   31) = (   0.0619621   0.1239242   0.1239242), wk =   0.0329218
        k(   32) = (   0.0929432   0.0929432   0.0929432), wk =   0.0109739
        k(   33) = (   0.0929432   0.0929432   0.1239242), wk =   0.0329218
        k(   34) = (   0.0929432   0.1239242   0.1239242), wk =   0.0329218
        k(   35) = (   0.1239242   0.1239242   0.1239242), wk =   0.0109739
        k(   36) = (   0.0000000   0.0000000   0.0000000), wk =   0.0013717
        k(   37) = (   0.0000000   0.0000000   0.0309811), wk =   0.0082305
        k(   38) = (   0.0000000   0.0000000   0.0619621), wk =   0.0082305
        k(   39) = (   0.0000000   0.0000000   0.0929432), wk =   0.0082305
        k(   40) = (   0.0000000   0.0000000   0.1239242), wk =   0.0082305
        k(   41) = (   0.0000000   0.0309811   0.0309811), wk =   0.0164609
        k(   42) = (   0.0000000   0.0309811   0.0619621), wk =   0.0329218
        k(   43) = (   0.0000000   0.0309811   0.0929432), wk =   0.0329218
        k(   44) = (   0.0000000   0.0309811   0.1239242), wk =   0.0329218
        k(   45) = (   0.0000000   0.0619621   0.0619621), wk =   0.0164609
        k(   46) = (   0.0000000   0.0619621   0.0929432), wk =   0.0329218
        k(   47) = (   0.0000000   0.0619621   0.1239242), wk =   0.0329218
        k(   48) = (   0.0000000   0.0929432   0.0929432), wk =   0.0164609
        k(   49) = (   0.0000000   0.0929432   0.1239242), wk =   0.0329218
        k(   50) = (   0.0000000   0.1239242   0.1239242), wk =   0.0164609
        k(   51) = (   0.0309811   0.0309811   0.0309811), wk =   0.0109739
        k(   52) = (   0.0309811   0.0309811   0.0619621), wk =   0.0329218
        k(   53) = (   0.0309811   0.0309811   0.0929432), wk =   0.0329218
        k(   54) = (   0.0309811   0.0309811   0.1239242), wk =   0.0329218
        k(   55) = (   0.0309811   0.0619621   0.0619621), wk =   0.0329218
        k(   56) = (   0.0309811   0.0619621   0.0929432), wk =   0.0658436
        k(   57) = (   0.0309811   0.0619621   0.1239242), wk =   0.0658436
        k(   58) = (   0.0309811   0.0929432   0.0929432), wk =   0.0329218
        k(   59) = (   0.0309811   0.0929432   0.1239242), wk =   0.0658436
        k(   60) = (   0.0309811   0.1239242   0.1239242), wk =   0.0329218
        k(   61) = (   0.0619621   0.0619621   0.0619621), wk =   0.0109739
        k(   62) = (   0.0619621   0.0619621   0.0929432), wk =   0.0329218
        k(   63) = (   0.0619621   0.0619621   0.1239242), wk =   0.0329218
        k(   64) = (   0.0619621   0.0929432   0.0929432), wk =   0.0329218
        k(   65) = (   0.0619621   0.0929432   0.1239242), wk =   0.0658436
        k(   66) = (   0.0619621   0.1239242   0.1239242), wk =   0.0329218
        k(   67) = (   0.0929432   0.0929432   0.0929432), wk =   0.0109739
        k(   68) = (   0.0929432   0.0929432   0.1239242), wk =   0.0329218
        k(   69) = (   0.0929432   0.1239242   0.1239242), wk =   0.0329218
        k(   70) = (   0.1239242   0.1239242   0.1239242), wk =   0.0109739

     Largest allocated arrays     est. size (Mb)     dimensions
     Largest temporary arrays     est. size (Mb)     dimensions

     Check: negative/imaginary core charge=   -0.000024    0.000000

     Initial potential from superposition of free atoms
     Check: negative starting charge=(component1):   -0.001071
     Check: negative starting charge=(component2):   -0.000803

     starting charge   53.99995, renormalised to   58.00000

     negative rho (up, down):  1.150E-03 8.625E-04

     *
     * You are using vdW-DF for exchange-correlation in this calculation.
     * Please cite the following three references that made this development
     * possible:
     *
     *   M. Dion, H. Rydberg, E. Schroder, D. C. Langreth, and
     *   B. I. Lundqvist, Phys. Rev. Lett. 92, 246401 (2004).
     *
     *   T. Thonhauser, V. R. Cooper, S. Li, A. Puzder, P. Hyldgaard, and
     *   D. C. Langreth, Phys. Rev. B 76, 125112 (2007).
     *
     *   G. Roman-Perez and J. M. Soler, Phys. Rev. Lett. 103, 096102 (2009).
     *
     *
     * If you are using vdW-DF2, please also cite:
     *
     *   K. Lee, E. D. Murray, L. Kong, B. I. Lundqvist, and
     *   D. C. Langreth, Phys. Rev. B 82, 081101(R) (2010).
     *
     *
     * If you are calculating the stress with vdW-DF, please also cite:
     *
     *   R. Sabatini, E. Kucukbenli, B. Kolb, T. Thonhauser, and
     *   S. de Gironcoli, J. Phys.: Condens. Matter 24, 424209 (2012).
     *

     Carrying out vdW-DF run using the following parameters:

     Nqs =      20    Nr_points =    1024   r_max =   100.000
     q_mesh =
               0.00001000     0.04494208     0.09755937     0.15916263
               0.23128650     0.31572767     0.41458969     0.53033537
               0.66584808     0.82450364     1.01025438     1.22772762
               1.48234092     1.78043706     2.12944203     2.53805004
               3.01644009     3.57652955     4.23227104     5.00000000

     Gradients computed in reciprocal space

     Starting wfc are   43 randomized atomic wfcs +    6 random wfc

     Self-consistent Calculation

     iteration #  1     ecut=    58.80 Ry     beta=0.30
     Davidson diagonalization with overlap
     ethr =  1.00E-02,  avg # of iterations =  4.0

[...]

     Magnetic moment per site:
     atom:    1    charge:    5.1398    magn:    0.5916    constr:    0.0000
     atom:    2    charge:    5.1398    magn:    0.5916    constr:    0.0000
     atom:    3    charge:    5.1398    magn:    0.5916    constr:    0.0000
     atom:    4    charge:    7.2368    magn:    0.7736    constr:    0.0000

     total energy              =    -780.45276917 Ry
     Harris-Foulkes estimate   =    -782.41998440 Ry
     estimated scf accuracy    <       9.27214186 Ry

     total magnetization       =     3.00 Bohr mag/cell
     absolute magnetization    =     3.02 Bohr mag/cell

[...]

     total energy              =    -780.23003082 Ry
     Harris-Foulkes estimate   =    -780.23005245 Ry
     estimated scf accuracy    <       0.00000767 Ry

[...]

     iteration # 15     ecut=    58.80 Ry     beta=0.30
     Davidson diagonalization with overlap
     ethr =  1.32E-08,  avg # of iterations =  2.0

     negative rho (up, down):  1.020E-03 9.373E-04

     Magnetic moment per site:
     atom:    1    charge:    4.9441    magn:   -0.0340    constr:    0.0000
     atom:    2    charge:    4.9441    magn:   -0.0340    constr:    0.0000
     atom:    3    charge:    4.9441    magn:   -0.0340    constr:    0.0000
     atom:    4    charge:    7.0659    magn:    0.5857    constr:    0.0000

     End of self-consistent calculation

 ------ SPIN UP ------------

          k = 0.0000 0.0000 0.0000 (  2373 PWs)   bands (ev):

   -69.1155 -53.0752 -52.8846 -52.8846 -35.1400 -35.1400 -35.1400 -24.5720
   -24.5720 -24.5720 -24.2024 -24.2024 -24.2024 -23.9714 -23.9714 -23.9714
    10.8682  14.1891  14.1891  14.3033  15.0103  15.0103  15.0103  17.6463
    17.6463  17.6463  18.9769  18.9769  20.4949  20.4949  20.4949  20.6604
    20.6604  21.0993  21.4568  21.4568  21.4568  22.2180  22.2180  22.2180
    30.5440  30.6907  30.6907  33.4720  33.4720  33.4720  34.5444  34.5444
    34.5444

[...]

 ------ SPIN DOWN ----------

[...]

          k = 0.1239 0.1239 0.1239 (  2371 PWs)   bands (ev):

   -67.6133 -53.0562 -53.0504 -53.0504 -33.6846 -33.6846 -33.6843 -24.8406
   -24.6316 -24.6288 -24.6288 -24.1278 -24.1278 -24.1241 -24.0716 -24.0716
    14.3059  14.6943  14.7764  14.7764  17.7491  17.7932  17.7932  17.9122
    17.9122  17.9563  17.9563  18.0322  18.8584  18.9012  18.9012  19.1445
    20.6636  20.6636  20.7766  20.7766  21.0870  21.1545  21.3584  21.3584
    27.3355  27.9717  27.9717  28.3677  37.7742  37.8560  37.8560  38.0363
    42.3057

     the Fermi energy is    18.5833 ev

!    total energy              =    -780.23006594 Ry
     Harris-Foulkes estimate   =    -780.23006592 Ry
     estimated scf accuracy    <       0.00000065 Ry

     The total energy is the sum of the following terms:

     one-electron contribution =    -289.74192821 Ry
     hartree contribution      =     179.69434938 Ry
     xc contribution           =    -100.23541679 Ry
     ewald contribution        =    -569.93241841 Ry
     smearing contrib. (-TS)   =      -0.01465190 Ry

     total magnetization       =     0.89 Bohr mag/cell
     absolute magnetization    =     1.62 Bohr mag/cell

     convergence has been achieved in  15 iterations

     Forces acting on atoms (Ry/au):

     negative rho (up, down):  1.020E-03 9.373E-04
     atom    1 type  1   force =     0.00000000    0.00000000    0.00000000
     atom    2 type  1   force =     0.00000000    0.00000000    0.00000000
     atom    3 type  1   force =     0.00000000    0.00000000   -0.00000000
     atom    4 type  2   force =     0.00000000    0.00000000   -0.00000000

     Total force =     0.000000     Total SCF correction =     0.000000
 !ASE

     General routines

     Parallel routines

   This run was terminated on:  12:43: 6  10Nov2017

   JOB DONE.