     Program PWSCF v.5.1rc2 (svn rev. ) starts on 24Oct2017 at 20:20:16

     Current dimensions of program PWSCF are:
     Max number of different atomic species (ntypx) = 10
     Max number of k-points (npk) =  40000
     Max angular momentum in pseudopotentials (lmaxx) =  3

     IMPORTANT: XC functional enforced from input :
     Exchange-correlation      = BEEF-VDW ( 1  4 27 13 2)
     Any further DFT definition will be discarded
     Please, verify this is what you really want

     Subspace diagonalization in iterative solution of the eigenvalue problem:
     a serial algorithm will be used

     bravais-lattice index     =            0
     lattice parameter (alat)  =       1.8897  a.u.
     unit-cell volume          =     398.1473 (a.u.)^3
     number of atoms/cell      =            4
     number of atomic types    =            2
     number of electrons       =        69.00
     number of Kohn-Sham states=           54
     kinetic-energy cutoff     =      58.7989  Ry
     charge density cutoff     =     587.9892  Ry
     convergence threshold     =      7.3E-09
     mixing beta               =       0.1000
     number of iterations used =           10  local-TF  mixing
     Exchange-correlation      = BEEF-VDW ( 1  4 27 13 2)
     nstep                     =           50

     celldm(1)=   1.889726  celldm(2)=   0.000000  celldm(3)=   0.000000
     celldm(4)=   0.000000  celldm(5)=   0.000000  celldm(6)=   0.000000

     crystal axes: (cart. coord. in units of alat)
               a(1) = (   3.892982   0.000000   0.000000 )
               a(2) = (   0.000000   3.892982   0.000000 )
               a(3) = (   0.000000   0.000000   3.892982 )

     reciprocal axes: (cart. coord. in units 2 pi/alat)
               b(1) = (  0.256872  0.000000  0.000000 )
               b(2) = (  0.000000  0.256872  0.000000 )
               b(3) = (  0.000000  0.000000  0.256872 )

     PseudoPot. # 1 for Cu read from file:
     /home/vossj/suncat/psp/gbrv1.5pbe/Cu.UPF
     MD5 check sum: 6e991ff952a84172a2a52a1c1e996048
     Pseudo is Ultrasoft + core correction, Zval = 19.0
     Generated by new atomic code, or converted to UPF format
     Using radial grid of  867 points,  6 beta functions with:
                l(1) =   0
                l(2) =   0
                l(3) =   1
                l(4) =   1
                l(5) =   2
                l(6) =   2
     Q(r) pseudized with  8 coefficients,  rinner =    1.150   1.150   1.150
                                                       1.150   1.150

     PseudoPot. # 2 for Hg read from file:
     /home/vossj/suncat/psp/gbrv1.5pbe/Hg.UPF
     MD5 check sum: 8f42caffe07f7fd9c0a564347f8c5498
     Pseudo is Ultrasoft + core correction, Zval = 12.0
     Generated by new atomic code, or converted to UPF format
     Using radial grid of  985 points,  6 beta functions with:
                l(1) =   0
                l(2) =   0
                l(3) =   1
                l(4) =   1
                l(5) =   2
                l(6) =   2
     Q(r) pseudized with  8 coefficients,  rinner =    2.000   2.000   2.000
                                                       2.000   2.000

     vdW kernel table read from file vdW_kernel_table
     MD5 check sum: 095c7af220d748ca6e76c0b4c6cfb241

     atomic species   valence    mass     pseudopotential
        Cu1           19.00    63.54600     Cu( 1.00)
        Hg1           12.00   200.59200     Hg( 1.00)

     48 Sym. Ops., with inversion, found (32 have fractional translation)

   Cartesian axes

     site n.     atom                  positions (alat units)
         1           Cu1 tau(   1) = (   0.0000000   0.0000000   0.0000000  )
         2           Cu1 tau(   2) = (   0.0000000   1.9464911   1.9464911  )
         3           Cu1 tau(   3) = (   1.9464911   0.0000000   1.9464911  )
         4           Hg1 tau(   4) = (   1.9464911   1.9464911   0.0000000  )

     number of k points=    84  Fermi-Dirac smearing, width (Ry)=  0.0073
                       cart. coord. in units 2pi/alat
        k(    1) = (   0.0000000   0.0000000   0.0000000), wk =   0.0011574
        k(    2) = (   0.0000000   0.0000000   0.0214060), wk =   0.0069444
        k(    3) = (   0.0000000   0.0000000   0.0428121), wk =   0.0069444
        k(    4) = (   0.0000000   0.0000000   0.0642181), wk =   0.0069444
        k(    5) = (   0.0000000   0.0000000   0.0856242), wk =   0.0069444
        k(    6) = (   0.0000000   0.0000000   0.1070302), wk =   0.0069444
        k(    7) = (   0.0000000   0.0000000  -0.1284362), wk =   0.0034722
        k(    8) = (   0.0000000   0.0214060   0.0214060), wk =   0.0138889
        k(    9) = (   0.0000000   0.0214060   0.0428121), wk =   0.0277778
        k(   10) = (   0.0000000   0.0214060   0.0642181), wk =   0.0277778
        k(   11) = (   0.0000000   0.0214060   0.0856242), wk =   0.0277778
        k(   12) = (   0.0000000   0.0214060   0.1070302), wk =   0.0277778
        k(   13) = (   0.0000000   0.0214060  -0.1284362), wk =   0.0138889
        k(   14) = (   0.0000000   0.0428121   0.0428121), wk =   0.0138889
        k(   15) = (   0.0000000   0.0428121   0.0642181), wk =   0.0277778
        k(   16) = (   0.0000000   0.0428121   0.0856242), wk =   0.0277778
        k(   17) = (   0.0000000   0.0428121   0.1070302), wk =   0.0277778
        k(   18) = (   0.0000000   0.0428121  -0.1284362), wk =   0.0138889
        k(   19) = (   0.0000000   0.0642181   0.0642181), wk =   0.0138889
        k(   20) = (   0.0000000   0.0642181   0.0856242), wk =   0.0277778
        k(   21) = (   0.0000000   0.0642181   0.1070302), wk =   0.0277778
        k(   22) = (   0.0000000   0.0642181  -0.1284362), wk =   0.0138889
        k(   23) = (   0.0000000   0.0856242   0.0856242), wk =   0.0138889
        k(   24) = (   0.0000000   0.0856242   0.1070302), wk =   0.0277778
        k(   25) = (   0.0000000   0.0856242  -0.1284362), wk =   0.0138889
        k(   26) = (   0.0000000   0.1070302   0.1070302), wk =   0.0138889
        k(   27) = (   0.0000000   0.1070302  -0.1284362), wk =   0.0138889
        k(   28) = (   0.0000000  -0.1284362  -0.1284362), wk =   0.0034722
        k(   29) = (   0.0214060   0.0214060   0.0214060), wk =   0.0092593
        k(   30) = (   0.0214060   0.0214060   0.0428121), wk =   0.0277778
        k(   31) = (   0.0214060   0.0214060   0.0642181), wk =   0.0277778
        k(   32) = (   0.0214060   0.0214060   0.0856242), wk =   0.0277778
        k(   33) = (   0.0214060   0.0214060   0.1070302), wk =   0.0277778
        k(   34) = (   0.0214060   0.0214060  -0.1284362), wk =   0.0138889
        k(   35) = (   0.0214060   0.0428121   0.0428121), wk =   0.0277778
        k(   36) = (   0.0214060   0.0428121   0.0642181), wk =   0.0555556
        k(   37) = (   0.0214060   0.0428121   0.0856242), wk =   0.0555556
        k(   38) = (   0.0214060   0.0428121   0.1070302), wk =   0.0555556
        k(   39) = (   0.0214060   0.0428121  -0.1284362), wk =   0.0277778
        k(   40) = (   0.0214060   0.0642181   0.0642181), wk =   0.0277778
        k(   41) = (   0.0214060   0.0642181   0.0856242), wk =   0.0555556
        k(   42) = (   0.0214060   0.0642181   0.1070302), wk =   0.0555556
        k(   43) = (   0.0214060   0.0642181  -0.1284362), wk =   0.0277778
        k(   44) = (   0.0214060   0.0856242   0.0856242), wk =   0.0277778
        k(   45) = (   0.0214060   0.0856242   0.1070302), wk =   0.0555556
        k(   46) = (   0.0214060   0.0856242  -0.1284362), wk =   0.0277778
        k(   47) = (   0.0214060   0.1070302   0.1070302), wk =   0.0277778
        k(   48) = (   0.0214060   0.1070302  -0.1284362), wk =   0.0277778
        k(   49) = (   0.0214060  -0.1284362  -0.1284362), wk =   0.0069444
        k(   50) = (   0.0428121   0.0428121   0.0428121), wk =   0.0092593
        k(   51) = (   0.0428121   0.0428121   0.0642181), wk =   0.0277778
        k(   52) = (   0.0428121   0.0428121   0.0856242), wk =   0.0277778
        k(   53) = (   0.0428121   0.0428121   0.1070302), wk =   0.0277778
        k(   54) = (   0.0428121   0.0428121  -0.1284362), wk =   0.0138889
        k(   55) = (   0.0428121   0.0642181   0.0642181), wk =   0.0277778
        k(   56) = (   0.0428121   0.0642181   0.0856242), wk =   0.0555556
        k(   57) = (   0.0428121   0.0642181   0.1070302), wk =   0.0555556
        k(   58) = (   0.0428121   0.0642181  -0.1284362), wk =   0.0277778
        k(   59) = (   0.0428121   0.0856242   0.0856242), wk =   0.0277778
        k(   60) = (   0.0428121   0.0856242   0.1070302), wk =   0.0555556
[...]
        k(   70) = (   0.0642181   0.0856242   0.1070302), wk =   0.0555556
        k(   71) = (   0.0642181   0.0856242  -0.1284362), wk =   0.0277778
        k(   72) = (   0.0642181   0.1070302   0.1070302), wk =   0.0277778
        k(   73) = (   0.0642181   0.1070302  -0.1284362), wk =   0.0277778
        k(   74) = (   0.0642181  -0.1284362  -0.1284362), wk =   0.0069444
        k(   75) = (   0.0856242   0.0856242   0.0856242), wk =   0.0092593
        k(   76) = (   0.0856242   0.0856242   0.1070302), wk =   0.0277778
        k(   77) = (   0.0856242   0.0856242  -0.1284362), wk =   0.0138889
        k(   78) = (   0.0856242   0.1070302   0.1070302), wk =   0.0277778
        k(   79) = (   0.0856242   0.1070302  -0.1284362), wk =   0.0277778
        k(   80) = (   0.0856242  -0.1284362  -0.1284362), wk =   0.0069444
        k(   81) = (   0.1070302   0.1070302   0.1070302), wk =   0.0092593
        k(   82) = (   0.1070302   0.1070302  -0.1284362), wk =   0.0138889
        k(   83) = (   0.1070302  -0.1284362  -0.1284362), wk =   0.0069444
        k(   84) = (  -0.1284362  -0.1284362  -0.1284362), wk =   0.0011574

     Largest allocated arrays     est. size (Mb)     dimensions
     Largest temporary arrays     est. size (Mb)     dimensions

     Initial potential from superposition of free atoms

     starting charge   65.99994, renormalised to   69.00000

     *
     * You are using vdW-DF for exchange-correlation in this calculation.
     * Please cite the following three references that made this development
     * possible:
     *
     *   M. Dion, H. Rydberg, E. Schroder, D. C. Langreth, and
     *   B. I. Lundqvist, Phys. Rev. Lett. 92, 246401 (2004).
     *
     *   T. Thonhauser, V. R. Cooper, S. Li, A. Puzder, P. Hyldgaard, and
     *   D. C. Langreth, Phys. Rev. B 76, 125112 (2007).
     *
     *   G. Roman-Perez and J. M. Soler, Phys. Rev. Lett. 103, 096102 (2009).
     *
     *
     * If you are using vdW-DF2, please also cite:
     *
     *   K. Lee, E. D. Murray, L. Kong, B. I. Lundqvist, and
     *   D. C. Langreth, Phys. Rev. B 82, 081101(R) (2010).
     *
     *
     * If you are calculating the stress with vdW-DF, please also cite:
     *
     *   R. Sabatini, E. Kucukbenli, B. Kolb, T. Thonhauser, and
     *   S. de Gironcoli, J. Phys.: Condens. Matter 24, 424209 (2012).
     *

     Carrying out vdW-DF run using the following parameters:

     Nqs =      20    Nr_points =    1024   r_max =   100.000
     q_mesh =
               0.00001000     0.04494208     0.09755937     0.15916263
               0.23128650     0.31572767     0.41458969     0.53033537
               0.66584808     0.82450364     1.01025438     1.22772762
               1.48234092     1.78043706     2.12944203     2.53805004
               3.01644009     3.57652955     4.23227104     5.00000000

     Gradients computed in reciprocal space

     Starting wfc are   48 randomized atomic wfcs +    6 random wfc

     Self-consistent Calculation

     iteration #  1     ecut=    58.80 Ry     beta=0.10
     Davidson diagonalization with overlap
     ethr =  1.00E-02,  avg # of iterations =  4.7

     total energy              =   -1324.68705615 Ry
     Harris-Foulkes estimate   =   -1325.28697515 Ry
     estimated scf accuracy    <       7.26910908 Ry

[...]

     total energy              =   -1323.93964269 Ry
     Harris-Foulkes estimate   =   -1323.93963929 Ry
     estimated scf accuracy    <       0.00000014 Ry

     iteration # 15     ecut=    58.80 Ry     beta=0.10
     Davidson diagonalization with overlap
     ethr =  2.04E-10,  avg # of iterations =  2.0

     End of self-consistent calculation

          k = 0.0000 0.0000 0.0000 (  2969 PWs)   bands (ev):

   -98.3672 -98.3627 -98.3627 -55.7881 -55.7881 -55.7881 -55.7803 -55.7803
   -55.7803 -55.7308 -55.7308 -55.7308   4.6627   5.9867   5.9867   6.4513
     6.4513   6.4513   9.8584  10.8575  10.8575  10.8575  11.2027  11.2027
    11.9539  11.9539  11.9539  12.1093  12.1093  12.2385  12.4131  12.4131
    12.4131  14.9558  14.9558  14.9558  18.3034  19.8641  19.8641  24.2238
    24.2238  24.2238  25.3674  25.3674  25.3674  30.2317  30.2317  30.2317
    30.3806  30.8702  30.8702  32.7179  35.0881  35.0881

[...]

          k = 0.1070-0.1284-0.1284 (  3064 PWs)   bands (ev):

[...]

          k =-0.1284-0.1284-0.1284 (  3016 PWs)   bands (ev):

   -98.3642 -98.3642 -98.3642 -55.7946 -55.7946 -55.7946 -55.7699 -55.7699
   -55.7699 -55.7597 -55.7228 -55.7228   5.9917   5.9917   5.9917   6.8759
     6.8759   8.5752  10.6769  10.6769  10.6769  11.2271  11.2271  11.2271
    11.9732  11.9732  11.9732  11.9764  11.9764  12.2870  12.2870  12.2870
    12.7213  12.7213  12.7213  13.2963  14.8903  16.7830  16.7830  16.7830
    31.1597  31.1597  31.1597  31.3980  31.3980  31.3980  32.1770  32.4413
    32.4413  33.6772  33.6772  33.6772  35.2709  35.2709

     the Fermi energy is    14.2083 ev

!    total energy              =   -1323.93965681 Ry
     Harris-Foulkes estimate   =   -1323.93964272 Ry
     estimated scf accuracy    <          2.3E-09 Ry

     The total energy is the sum of the following terms:

     one-electron contribution =    -911.67132920 Ry
     hartree contribution      =     501.41287746 Ry
     xc contribution           =    -160.62093055 Ry
     ewald contribution        =    -753.05744168 Ry
     smearing contrib. (-TS)   =      -0.00283283 Ry

     convergence has been achieved in  15 iterations

     Forces acting on atoms (Ry/au):

     atom    1 type  1   force =     0.00000000   -0.00000000    0.00000000
     atom    2 type  1   force =     0.00000000    0.00000000    0.00000000
     atom    3 type  1   force =     0.00000000    0.00000000    0.00000000
     atom    4 type  2   force =     0.00000000    0.00000000    0.00000000

     Total force =     0.000000     Total SCF correction =     0.000000
 !ASE

     General routines

     Parallel routines

   This run was terminated on:  20:21:30  24Oct2017

   JOB DONE.