     Program PWSCF v.5.1rc2 (svn rev. ) starts on 24Oct2017 at 21: 9:19

     Current dimensions of program PWSCF are:
     Max number of different atomic species (ntypx) = 10
     Max number of k-points (npk) =  40000
     Max angular momentum in pseudopotentials (lmaxx) =  3

     IMPORTANT: XC functional enforced from input :
     Exchange-correlation      = BEEF-VDW ( 1  4 27 13 2)
     Any further DFT definition will be discarded
     Please, verify this is what you really want

     Subspace diagonalization in iterative solution of the eigenvalue problem:
     a serial algorithm will be used

     bravais-lattice index     =            0
     lattice parameter (alat)  =       1.8897  a.u.
     unit-cell volume          =     382.9672 (a.u.)^3
     number of atoms/cell      =            4
     number of atomic types    =            2
     number of electrons       =        23.00
     number of Kohn-Sham states=           31
     kinetic-energy cutoff     =      58.7989  Ry
     charge density cutoff     =     587.9892  Ry
     convergence threshold     =      7.3E-09
     mixing beta               =       0.1000
     number of iterations used =           10  local-TF  mixing
     Exchange-correlation      = BEEF-VDW ( 1  4 27 13 2)
     nstep                     =           50

     celldm(1)=   1.889726  celldm(2)=   0.000000  celldm(3)=   0.000000
     celldm(4)=   0.000000  celldm(5)=   0.000000  celldm(6)=   0.000000

     crystal axes: (cart. coord. in units of alat)
               a(1) = (   3.842864   0.000000   0.000000 )
               a(2) = (   0.000000   3.842864   0.000000 )
               a(3) = (   0.000000   0.000000   3.842864 )

     reciprocal axes: (cart. coord. in units 2 pi/alat)
               b(1) = (  0.260223  0.000000  0.000000 )
               b(2) = (  0.000000  0.260223  0.000000 )
               b(3) = (  0.000000  0.000000  0.260223 )

     PseudoPot. # 1 for Al read from file:
     /home/vossj/suncat/psp/gbrv1.5pbe/Al.UPF
     MD5 check sum: 0a6289f5291fc8f409219462bc851e1f
     Pseudo is Ultrasoft + core correction, Zval =  3.0
     Generated by new atomic code, or converted to UPF format
     Using radial grid of  893 points,  3 beta functions with:
                l(1) =   0
                l(2) =   1
                l(3) =   2
     Q(r) pseudized with  8 coefficients,  rinner =    0.900   0.900   0.900
                                                       0.900   0.900

     PseudoPot. # 2 for Cr read from file:
     /home/vossj/suncat/psp/gbrv1.5pbe/Cr.UPF
     MD5 check sum: 0d52af634a40206e4dee301ad30da4bf
     Pseudo is Ultrasoft + core correction, Zval = 14.0
     Generated by new atomic code, or converted to UPF format
     Using radial grid of  857 points,  6 beta functions with:
                l(1) =   0
                l(2) =   0
                l(3) =   1
                l(4) =   1
                l(5) =   2
                l(6) =   2
     Q(r) pseudized with  8 coefficients,  rinner =    0.950   0.950   0.950
                                                       0.950   0.950

     vdW kernel table read from file vdW_kernel_table
     MD5 check sum: 095c7af220d748ca6e76c0b4c6cfb241

     atomic species   valence    mass     pseudopotential
        Al1            3.00    26.98154     Al( 1.00)
        Cr1           14.00    51.99610     Cr( 1.00)

     48 Sym. Ops., with inversion, found (32 have fractional translation)

   Cartesian axes

     site n.     atom                  positions (alat units)
         1           Al1 tau(   1) = (   0.0000000   0.0000000   0.0000000  )
         2           Al1 tau(   2) = (   0.0000000   1.9214319   1.9214319  )
         3           Al1 tau(   3) = (   1.9214319   0.0000000   1.9214319  )
         4           Cr1 tau(   4) = (   1.9214319   1.9214319   0.0000000  )

     number of k points=    84  Fermi-Dirac smearing, width (Ry)=  0.0073
                       cart. coord. in units 2pi/alat
        k(    1) = (   0.0000000   0.0000000   0.0000000), wk =   0.0011574
        k(    2) = (   0.0000000   0.0000000   0.0216852), wk =   0.0069444
        k(    3) = (   0.0000000   0.0000000   0.0433704), wk =   0.0069444
        k(    4) = (   0.0000000   0.0000000   0.0650557), wk =   0.0069444
        k(    5) = (   0.0000000   0.0000000   0.0867409), wk =   0.0069444
        k(    6) = (   0.0000000   0.0000000   0.1084261), wk =   0.0069444
        k(    7) = (   0.0000000   0.0000000  -0.1301113), wk =   0.0034722
        k(    8) = (   0.0000000   0.0216852   0.0216852), wk =   0.0138889
        k(    9) = (   0.0000000   0.0216852   0.0433704), wk =   0.0277778
        k(   10) = (   0.0000000   0.0216852   0.0650557), wk =   0.0277778
        k(   11) = (   0.0000000   0.0216852   0.0867409), wk =   0.0277778
        k(   12) = (   0.0000000   0.0216852   0.1084261), wk =   0.0277778
        k(   13) = (   0.0000000   0.0216852  -0.1301113), wk =   0.0138889
        k(   14) = (   0.0000000   0.0433704   0.0433704), wk =   0.0138889
        k(   15) = (   0.0000000   0.0433704   0.0650557), wk =   0.0277778
        k(   16) = (   0.0000000   0.0433704   0.0867409), wk =   0.0277778
        k(   17) = (   0.0000000   0.0433704   0.1084261), wk =   0.0277778
        k(   18) = (   0.0000000   0.0433704  -0.1301113), wk =   0.0138889
        k(   19) = (   0.0000000   0.0650557   0.0650557), wk =   0.0138889
        k(   20) = (   0.0000000   0.0650557   0.0867409), wk =   0.0277778
        k(   21) = (   0.0000000   0.0650557   0.1084261), wk =   0.0277778
        k(   22) = (   0.0000000   0.0650557  -0.1301113), wk =   0.0138889
        k(   23) = (   0.0000000   0.0867409   0.0867409), wk =   0.0138889
        k(   24) = (   0.0000000   0.0867409   0.1084261), wk =   0.0277778
        k(   25) = (   0.0000000   0.0867409  -0.1301113), wk =   0.0138889
        k(   26) = (   0.0000000   0.1084261   0.1084261), wk =   0.0138889
        k(   27) = (   0.0000000   0.1084261  -0.1301113), wk =   0.0138889
        k(   28) = (   0.0000000  -0.1301113  -0.1301113), wk =   0.0034722
        k(   29) = (   0.0216852   0.0216852   0.0216852), wk =   0.0092593
        k(   30) = (   0.0216852   0.0216852   0.0433704), wk =   0.0277778
        k(   31) = (   0.0216852   0.0216852   0.0650557), wk =   0.0277778
        k(   32) = (   0.0216852   0.0216852   0.0867409), wk =   0.0277778
        k(   33) = (   0.0216852   0.0216852   0.1084261), wk =   0.0277778
        k(   34) = (   0.0216852   0.0216852  -0.1301113), wk =   0.0138889
        k(   35) = (   0.0216852   0.0433704   0.0433704), wk =   0.0277778
        k(   36) = (   0.0216852   0.0433704   0.0650557), wk =   0.0555556
        k(   37) = (   0.0216852   0.0433704   0.0867409), wk =   0.0555556
        k(   38) = (   0.0216852   0.0433704   0.1084261), wk =   0.0555556
        k(   39) = (   0.0216852   0.0433704  -0.1301113), wk =   0.0277778
        k(   40) = (   0.0216852   0.0650557   0.0650557), wk =   0.0277778
        k(   41) = (   0.0216852   0.0650557   0.0867409), wk =   0.0555556
        k(   42) = (   0.0216852   0.0650557   0.1084261), wk =   0.0555556
        k(   43) = (   0.0216852   0.0650557  -0.1301113), wk =   0.0277778
        k(   44) = (   0.0216852   0.0867409   0.0867409), wk =   0.0277778
        k(   45) = (   0.0216852   0.0867409   0.1084261), wk =   0.0555556
        k(   46) = (   0.0216852   0.0867409  -0.1301113), wk =   0.0277778
        k(   47) = (   0.0216852   0.1084261   0.1084261), wk =   0.0277778
        k(   48) = (   0.0216852   0.1084261  -0.1301113), wk =   0.0277778
        k(   49) = (   0.0216852  -0.1301113  -0.1301113), wk =   0.0069444
        k(   50) = (   0.0433704   0.0433704   0.0433704), wk =   0.0092593
        k(   51) = (   0.0433704   0.0433704   0.0650557), wk =   0.0277778
        k(   52) = (   0.0433704   0.0433704   0.0867409), wk =   0.0277778
        k(   53) = (   0.0433704   0.0433704   0.1084261), wk =   0.0277778
        k(   54) = (   0.0433704   0.0433704  -0.1301113), wk =   0.0138889
        k(   55) = (   0.0433704   0.0650557   0.0650557), wk =   0.0277778
        k(   56) = (   0.0433704   0.0650557   0.0867409), wk =   0.0555556
        k(   57) = (   0.0433704   0.0650557   0.1084261), wk =   0.0555556
        k(   58) = (   0.0433704   0.0650557  -0.1301113), wk =   0.0277778
        k(   59) = (   0.0433704   0.0867409   0.0867409), wk =   0.0277778
        k(   60) = (   0.0433704   0.0867409   0.1084261), wk =   0.0555556
[...]
        k(   70) = (   0.0650557   0.0867409   0.1084261), wk =   0.0555556
        k(   71) = (   0.0650557   0.0867409  -0.1301113), wk =   0.0277778
        k(   72) = (   0.0650557   0.1084261   0.1084261), wk =   0.0277778
        k(   73) = (   0.0650557   0.1084261  -0.1301113), wk =   0.0277778
        k(   74) = (   0.0650557  -0.1301113  -0.1301113), wk =   0.0069444
        k(   75) = (   0.0867409   0.0867409   0.0867409), wk =   0.0092593
        k(   76) = (   0.0867409   0.0867409   0.1084261), wk =   0.0277778
        k(   77) = (   0.0867409   0.0867409  -0.1301113), wk =   0.0138889
        k(   78) = (   0.0867409   0.1084261   0.1084261), wk =   0.0277778
        k(   79) = (   0.0867409   0.1084261  -0.1301113), wk =   0.0277778
        k(   80) = (   0.0867409  -0.1301113  -0.1301113), wk =   0.0069444
        k(   81) = (   0.1084261   0.1084261   0.1084261), wk =   0.0092593
        k(   82) = (   0.1084261   0.1084261  -0.1301113), wk =   0.0138889
        k(   83) = (   0.1084261  -0.1301113  -0.1301113), wk =   0.0069444
        k(   84) = (  -0.1301113  -0.1301113  -0.1301113), wk =   0.0011574

     Largest allocated arrays     est. size (Mb)     dimensions
     Largest temporary arrays     est. size (Mb)     dimensions

     Check: negative/imaginary core charge=   -0.000002    0.000000

     Initial potential from superposition of free atoms
     Check: negative starting charge=   -0.000557

     starting charge   21.99259, renormalised to   23.00000

     negative rho (up, down):  5.823E-04 0.000E+00

     *
     * You are using vdW-DF for exchange-correlation in this calculation.
     * Please cite the following three references that made this development
     * possible:
     *
     *   M. Dion, H. Rydberg, E. Schroder, D. C. Langreth, and
     *   B. I. Lundqvist, Phys. Rev. Lett. 92, 246401 (2004).
     *
     *   T. Thonhauser, V. R. Cooper, S. Li, A. Puzder, P. Hyldgaard, and
     *   D. C. Langreth, Phys. Rev. B 76, 125112 (2007).
     *
     *   G. Roman-Perez and J. M. Soler, Phys. Rev. Lett. 103, 096102 (2009).
     *
     *
     * If you are using vdW-DF2, please also cite:
     *
     *   K. Lee, E. D. Murray, L. Kong, B. I. Lundqvist, and
     *   D. C. Langreth, Phys. Rev. B 82, 081101(R) (2010).
     *
     *
     * If you are calculating the stress with vdW-DF, please also cite:
     *
     *   R. Sabatini, E. Kucukbenli, B. Kolb, T. Thonhauser, and
     *   S. de Gironcoli, J. Phys.: Condens. Matter 24, 424209 (2012).
     *

     Carrying out vdW-DF run using the following parameters:

     Nqs =      20    Nr_points =    1024   r_max =   100.000
     q_mesh =
               0.00001000     0.04494208     0.09755937     0.15916263
               0.23128650     0.31572767     0.41458969     0.53033537
               0.66584808     0.82450364     1.01025438     1.22772762
               1.48234092     1.78043706     2.12944203     2.53805004
               3.01644009     3.57652955     4.23227104     5.00000000

     Gradients computed in reciprocal space

     Starting wfc are   22 randomized atomic wfcs +    9 random wfc

     Self-consistent Calculation

     iteration #  1     ecut=    58.80 Ry     beta=0.10
     Davidson diagonalization with overlap
     ethr =  1.00E-02,  avg # of iterations =  5.1

[...]

     total energy              =    -197.09030324 Ry
     Harris-Foulkes estimate   =    -197.23671767 Ry
     estimated scf accuracy    <       2.38591422 Ry

[...]

     total energy              =    -196.96723875 Ry
     Harris-Foulkes estimate   =    -196.96723825 Ry
     estimated scf accuracy    <       0.00000001 Ry

     iteration # 11     ecut=    58.80 Ry     beta=0.10
     Davidson diagonalization with overlap
     ethr =  4.87E-11,  avg # of iterations =  3.0

     negative rho (up, down):  5.193E-04 0.000E+00

     End of self-consistent calculation

          k = 0.0000 0.0000 0.0000 (  2945 PWs)   bands (ev):

   -60.7791 -32.1140 -32.1140 -32.1140  -0.4999   7.7064   7.7064   8.5436
     8.5436   8.5436  10.1958  10.1958  10.1958  11.2857  14.1330  14.1330
    17.3013  17.3013  17.3013  18.7782  18.7782  18.7782  19.8350  19.8350
    19.8350  22.6541  22.6541  26.8105  27.4741  27.4741  27.4741

[...]

          k = 0.1084-0.1301-0.1301 (  2936 PWs)   bands (ev):

[...]

          k =-0.1301-0.1301-0.1301 (  2872 PWs)   bands (ev):

   -60.7785 -32.1192 -32.1192 -32.1192   5.5624   5.7159   5.7159   5.7159
     7.0429   7.0429   7.0429  10.4719  10.9517  10.9517  12.4688  12.4688
    12.4688  23.1932  23.1932  23.1932  23.8206  23.8206  23.9204  23.9204
    23.9204  24.6478  24.6478  24.6478  26.9636  26.9905  26.9905

     the Fermi energy is    10.7824 ev

!    total energy              =    -196.96724093 Ry
     Harris-Foulkes estimate   =    -196.96723876 Ry
     estimated scf accuracy    <          3.1E-09 Ry

     The total energy is the sum of the following terms:

     one-electron contribution =    -116.03188138 Ry
     hartree contribution      =      67.71635944 Ry
     xc contribution           =     -36.96490014 Ry
     ewald contribution        =    -111.67356121 Ry
     smearing contrib. (-TS)   =      -0.01325763 Ry

     convergence has been achieved in  11 iterations

     Forces acting on atoms (Ry/au):

     negative rho (up, down):  5.193E-04 0.000E+00
     atom    1 type  1   force =     0.00000000    0.00000000   -0.00000000
     atom    2 type  1   force =     0.00000000    0.00000000    0.00000000
     atom    3 type  1   force =     0.00000000    0.00000000    0.00000000
     atom    4 type  2   force =     0.00000000    0.00000000    0.00000000

     Total force =     0.000000     Total SCF correction =     0.000000
 !ASE

     General routines

     Parallel routines

   This run was terminated on:  21: 9:45  24Oct2017

   JOB DONE.