     Program PWSCF v.5.1rc2 (svn rev. ) starts on 25Oct2017 at  2:58:31

     Current dimensions of program PWSCF are:
     Max number of different atomic species (ntypx) = 10
     Max number of k-points (npk) =  40000
     Max angular momentum in pseudopotentials (lmaxx) =  3

     IMPORTANT: XC functional enforced from input :
     Exchange-correlation      = BEEF-VDW ( 1  4 27 13 2)
     Any further DFT definition will be discarded
     Please, verify this is what you really want

     Subspace diagonalization in iterative solution of the eigenvalue problem:
     a serial algorithm will be used

     bravais-lattice index     =            0
     lattice parameter (alat)  =       1.8897  a.u.
     unit-cell volume          =     633.4067 (a.u.)^3
     number of atoms/cell      =            4
     number of atomic types    =            2
     number of electrons       =        46.00
     number of Kohn-Sham states=           43
     kinetic-energy cutoff     =      58.7989  Ry
     charge density cutoff     =     587.9892  Ry
     convergence threshold     =      7.3E-09
     mixing beta               =       0.1000
     number of iterations used =           10  local-TF  mixing
     Exchange-correlation      = BEEF-VDW ( 1  4 27 13 2)
     nstep                     =           50

     celldm(1)=   1.889726  celldm(2)=   0.000000  celldm(3)=   0.000000
     celldm(4)=   0.000000  celldm(5)=   0.000000  celldm(6)=   0.000000

     crystal axes: (cart. coord. in units of alat)
               a(1) = (   4.544597   0.000000   0.000000 )
               a(2) = (   0.000000   4.544597   0.000000 )
               a(3) = (   0.000000   0.000000   4.544597 )

     reciprocal axes: (cart. coord. in units 2 pi/alat)
               b(1) = (  0.220042  0.000000  0.000000 )
               b(2) = (  0.000000  0.220042  0.000000 )
               b(3) = (  0.000000  0.000000  0.220042 )

     PseudoPot. # 1 for Sc read from file:
     /home/vossj/suncat/psp/gbrv1.5pbe/Sc.UPF
     MD5 check sum: db30a2753ba66ef00f23801d899b7e7f
     Pseudo is Ultrasoft + core correction, Zval = 11.0
     Generated by new atomic code, or converted to UPF format
     Using radial grid of  849 points,  6 beta functions with:
                l(1) =   0
                l(2) =   0
                l(3) =   1
                l(4) =   1
                l(5) =   2
                l(6) =   2
     Q(r) pseudized with  6 coefficients,  rinner =    1.200   1.200   1.200
                                                       1.200   1.200

     PseudoPot. # 2 for Tl read from file:
     /home/vossj/suncat/psp/gbrv1.5pbe/Tl.UPF
     MD5 check sum: b76cf1f7e72655a2b2c53cf6385d7059
     Pseudo is Ultrasoft + core correction, Zval = 13.0
     Generated by new atomic code, or converted to UPF format
     Using radial grid of  899 points,  6 beta functions with:
                l(1) =   0
                l(2) =   0
                l(3) =   1
                l(4) =   1
                l(5) =   2
                l(6) =   2
     Q(r) pseudized with  6 coefficients,  rinner =    1.100   1.100   1.100
                                                       1.100   1.100

     vdW kernel table read from file vdW_kernel_table
     MD5 check sum: 095c7af220d748ca6e76c0b4c6cfb241

     atomic species   valence    mass     pseudopotential
        Sc1           11.00    44.95591     Sc( 1.00)
        Tl1           13.00   204.38000     Tl( 1.00)

     48 Sym. Ops., with inversion, found (32 have fractional translation)

   Cartesian axes

     site n.     atom                  positions (alat units)
         1           Sc1 tau(   1) = (   0.0000000   0.0000000   0.0000000  )
         2           Sc1 tau(   2) = (   0.0000000   2.2722984   2.2722984  )
         3           Sc1 tau(   3) = (   2.2722984   0.0000000   2.2722984  )
         4           Tl1 tau(   4) = (   2.2722984   2.2722984   0.0000000  )

     number of k points=    84  Fermi-Dirac smearing, width (Ry)=  0.0073
                       cart. coord. in units 2pi/alat
        k(    1) = (   0.0000000   0.0000000   0.0000000), wk =   0.0011574
        k(    2) = (   0.0000000   0.0000000   0.0183368), wk =   0.0069444
        k(    3) = (   0.0000000   0.0000000   0.0366736), wk =   0.0069444
        k(    4) = (   0.0000000   0.0000000   0.0550104), wk =   0.0069444
        k(    5) = (   0.0000000   0.0000000   0.0733472), wk =   0.0069444
        k(    6) = (   0.0000000   0.0000000   0.0916840), wk =   0.0069444
        k(    7) = (   0.0000000   0.0000000  -0.1100208), wk =   0.0034722
        k(    8) = (   0.0000000   0.0183368   0.0183368), wk =   0.0138889
        k(    9) = (   0.0000000   0.0183368   0.0366736), wk =   0.0277778
        k(   10) = (   0.0000000   0.0183368   0.0550104), wk =   0.0277778
        k(   11) = (   0.0000000   0.0183368   0.0733472), wk =   0.0277778
        k(   12) = (   0.0000000   0.0183368   0.0916840), wk =   0.0277778
        k(   13) = (   0.0000000   0.0183368  -0.1100208), wk =   0.0138889
        k(   14) = (   0.0000000   0.0366736   0.0366736), wk =   0.0138889
        k(   15) = (   0.0000000   0.0366736   0.0550104), wk =   0.0277778
        k(   16) = (   0.0000000   0.0366736   0.0733472), wk =   0.0277778
        k(   17) = (   0.0000000   0.0366736   0.0916840), wk =   0.0277778
        k(   18) = (   0.0000000   0.0366736  -0.1100208), wk =   0.0138889
        k(   19) = (   0.0000000   0.0550104   0.0550104), wk =   0.0138889
        k(   20) = (   0.0000000   0.0550104   0.0733472), wk =   0.0277778
        k(   21) = (   0.0000000   0.0550104   0.0916840), wk =   0.0277778
        k(   22) = (   0.0000000   0.0550104  -0.1100208), wk =   0.0138889
        k(   23) = (   0.0000000   0.0733472   0.0733472), wk =   0.0138889
        k(   24) = (   0.0000000   0.0733472   0.0916840), wk =   0.0277778
        k(   25) = (   0.0000000   0.0733472  -0.1100208), wk =   0.0138889
        k(   26) = (   0.0000000   0.0916840   0.0916840), wk =   0.0138889
        k(   27) = (   0.0000000   0.0916840  -0.1100208), wk =   0.0138889
        k(   28) = (   0.0000000  -0.1100208  -0.1100208), wk =   0.0034722
        k(   29) = (   0.0183368   0.0183368   0.0183368), wk =   0.0092593
        k(   30) = (   0.0183368   0.0183368   0.0366736), wk =   0.0277778
        k(   31) = (   0.0183368   0.0183368   0.0550104), wk =   0.0277778
        k(   32) = (   0.0183368   0.0183368   0.0733472), wk =   0.0277778
        k(   33) = (   0.0183368   0.0183368   0.0916840), wk =   0.0277778
        k(   34) = (   0.0183368   0.0183368  -0.1100208), wk =   0.0138889
        k(   35) = (   0.0183368   0.0366736   0.0366736), wk =   0.0277778
        k(   36) = (   0.0183368   0.0366736   0.0550104), wk =   0.0555556
        k(   37) = (   0.0183368   0.0366736   0.0733472), wk =   0.0555556
        k(   38) = (   0.0183368   0.0366736   0.0916840), wk =   0.0555556
        k(   39) = (   0.0183368   0.0366736  -0.1100208), wk =   0.0277778
        k(   40) = (   0.0183368   0.0550104   0.0550104), wk =   0.0277778
        k(   41) = (   0.0183368   0.0550104   0.0733472), wk =   0.0555556
        k(   42) = (   0.0183368   0.0550104   0.0916840), wk =   0.0555556
        k(   43) = (   0.0183368   0.0550104  -0.1100208), wk =   0.0277778
        k(   44) = (   0.0183368   0.0733472   0.0733472), wk =   0.0277778
        k(   45) = (   0.0183368   0.0733472   0.0916840), wk =   0.0555556
        k(   46) = (   0.0183368   0.0733472  -0.1100208), wk =   0.0277778
        k(   47) = (   0.0183368   0.0916840   0.0916840), wk =   0.0277778
        k(   48) = (   0.0183368   0.0916840  -0.1100208), wk =   0.0277778
        k(   49) = (   0.0183368  -0.1100208  -0.1100208), wk =   0.0069444
        k(   50) = (   0.0366736   0.0366736   0.0366736), wk =   0.0092593
        k(   51) = (   0.0366736   0.0366736   0.0550104), wk =   0.0277778
        k(   52) = (   0.0366736   0.0366736   0.0733472), wk =   0.0277778
        k(   53) = (   0.0366736   0.0366736   0.0916840), wk =   0.0277778
        k(   54) = (   0.0366736   0.0366736  -0.1100208), wk =   0.0138889
        k(   55) = (   0.0366736   0.0550104   0.0550104), wk =   0.0277778
        k(   56) = (   0.0366736   0.0550104   0.0733472), wk =   0.0555556
        k(   57) = (   0.0366736   0.0550104   0.0916840), wk =   0.0555556
        k(   58) = (   0.0366736   0.0550104  -0.1100208), wk =   0.0277778
        k(   59) = (   0.0366736   0.0733472   0.0733472), wk =   0.0277778
        k(   60) = (   0.0366736   0.0733472   0.0916840), wk =   0.0555556
[...]
        k(   70) = (   0.0550104   0.0733472   0.0916840), wk =   0.0555556
        k(   71) = (   0.0550104   0.0733472  -0.1100208), wk =   0.0277778
        k(   72) = (   0.0550104   0.0916840   0.0916840), wk =   0.0277778
        k(   73) = (   0.0550104   0.0916840  -0.1100208), wk =   0.0277778
        k(   74) = (   0.0550104  -0.1100208  -0.1100208), wk =   0.0069444
        k(   75) = (   0.0733472   0.0733472   0.0733472), wk =   0.0092593
        k(   76) = (   0.0733472   0.0733472   0.0916840), wk =   0.0277778
        k(   77) = (   0.0733472   0.0733472  -0.1100208), wk =   0.0138889
        k(   78) = (   0.0733472   0.0916840   0.0916840), wk =   0.0277778
        k(   79) = (   0.0733472   0.0916840  -0.1100208), wk =   0.0277778
        k(   80) = (   0.0733472  -0.1100208  -0.1100208), wk =   0.0069444
        k(   81) = (   0.0916840   0.0916840   0.0916840), wk =   0.0092593
        k(   82) = (   0.0916840   0.0916840  -0.1100208), wk =   0.0138889
        k(   83) = (   0.0916840  -0.1100208  -0.1100208), wk =   0.0069444
        k(   84) = (  -0.1100208  -0.1100208  -0.1100208), wk =   0.0011574

     Largest allocated arrays     est. size (Mb)     dimensions
     Largest temporary arrays     est. size (Mb)     dimensions

     Check: negative/imaginary core charge=   -0.000001    0.000000

     Initial potential from superposition of free atoms
     Check: negative starting charge=   -0.049130

     starting charge   45.98793, renormalised to   46.00000

     negative rho (up, down):  4.914E-02 0.000E+00

     *
     * You are using vdW-DF for exchange-correlation in this calculation.
     * Please cite the following three references that made this development
     * possible:
     *
     *   M. Dion, H. Rydberg, E. Schroder, D. C. Langreth, and
     *   B. I. Lundqvist, Phys. Rev. Lett. 92, 246401 (2004).
     *
     *   T. Thonhauser, V. R. Cooper, S. Li, A. Puzder, P. Hyldgaard, and
     *   D. C. Langreth, Phys. Rev. B 76, 125112 (2007).
     *
     *   G. Roman-Perez and J. M. Soler, Phys. Rev. Lett. 103, 096102 (2009).
     *
     *
     * If you are using vdW-DF2, please also cite:
     *
     *   K. Lee, E. D. Murray, L. Kong, B. I. Lundqvist, and
     *   D. C. Langreth, Phys. Rev. B 82, 081101(R) (2010).
     *
     *
     * If you are calculating the stress with vdW-DF, please also cite:
     *
     *   R. Sabatini, E. Kucukbenli, B. Kolb, T. Thonhauser, and
     *   S. de Gironcoli, J. Phys.: Condens. Matter 24, 424209 (2012).
     *

     Carrying out vdW-DF run using the following parameters:

     Nqs =      20    Nr_points =    1024   r_max =   100.000
     q_mesh =
               0.00001000     0.04494208     0.09755937     0.15916263
               0.23128650     0.31572767     0.41458969     0.53033537
               0.66584808     0.82450364     1.01025438     1.22772762
               1.48234092     1.78043706     2.12944203     2.53805004
               3.01644009     3.57652955     4.23227104     5.00000000

     Gradients computed in reciprocal space

     Starting wfc are   48 randomized atomic wfcs

     Self-consistent Calculation

     iteration #  1     ecut=    58.80 Ry     beta=0.10
     Davidson diagonalization with overlap
     ethr =  1.00E-02,  avg # of iterations =  3.4

     Threshold (ethr) on eigenvalues was too large:
     Diagonalizing with lowered threshold

     Davidson diagonalization with overlap
     ethr =  1.04E-04,  avg # of iterations =  4.3

[...]

     total energy              =    -431.36777253 Ry
     Harris-Foulkes estimate   =    -431.36846557 Ry
     estimated scf accuracy    <       0.04896532 Ry

[...]

     total energy              =    -431.36282298 Ry
     Harris-Foulkes estimate   =    -431.36282148 Ry
     estimated scf accuracy    <       0.00000002 Ry

     iteration # 30     ecut=    58.80 Ry     beta=0.10
     Davidson diagonalization with overlap
     ethr =  2.46E-11,  avg # of iterations =  2.0

     negative rho (up, down):  5.429E-02 0.000E+00

     End of self-consistent calculation

          k = 0.0000 0.0000 0.0000 (  4801 PWs)   bands (ev):

   -39.1960 -39.1262 -39.1262 -17.9023 -17.9023 -17.9023 -17.7473 -17.7473
   -17.7473 -17.5873 -17.5873 -17.5873  -0.8050  -0.8050  -0.7720  -0.7720
    -0.7720   2.7203   8.2003  10.1796  10.1796  10.4935  10.4935  10.4935
    11.2374  11.2374  11.2374  12.9205  12.9205  12.9205  13.8215  13.8215
    14.2405  14.2949  14.5673  14.5673  14.5673  18.0925  18.0925  18.0925
    18.4491  18.4491  19.9628

[...]

          k = 0.0917-0.1100-0.1100 (  4788 PWs)   bands (ev):

[...]

          k =-0.1100-0.1100-0.1100 (  4776 PWs)   bands (ev):

   -39.1490 -39.1490 -39.1490 -17.9533 -17.9083 -17.9083 -17.9083 -17.6479
   -17.6479 -17.6479 -17.5648 -17.5648  -0.8054  -0.8054  -0.8054  -0.6895
    -0.6895   4.3635   9.4539   9.4539   9.4539   9.5373   9.5373   9.5373
    10.9329  11.8883  11.8883  11.8883  12.8645  12.8645  12.8645  13.2808
    13.2808  13.6429  14.3183  14.3183  14.3183  16.7868  16.7868  16.7868
    22.0631  22.0631  22.0631

     the Fermi energy is    10.7279 ev

!    total energy              =    -431.36284062 Ry
     Harris-Foulkes estimate   =    -431.36282298 Ry
     estimated scf accuracy    <          1.7E-09 Ry

     The total energy is the sum of the following terms:

     one-electron contribution =    -123.52702761 Ry
     hartree contribution      =      81.20373290 Ry
     xc contribution           =    -105.81974492 Ry
     ewald contribution        =    -283.20262483 Ry
     smearing contrib. (-TS)   =      -0.01717615 Ry

     convergence has been achieved in  30 iterations

     Forces acting on atoms (Ry/au):

     negative rho (up, down):  5.429E-02 0.000E+00
     atom    1 type  1   force =     0.00000000    0.00000000    0.00000000
     atom    2 type  1   force =     0.00000000   -0.00000000    0.00000000
     atom    3 type  1   force =     0.00000000    0.00000000   -0.00000000
     atom    4 type  2   force =     0.00000000    0.00000000    0.00000000

     Total force =     0.000000     Total SCF correction =     0.000000
 !ASE

     General routines

     Parallel routines

   This run was terminated on:   3: 0:59  25Oct2017

   JOB DONE.