     Program PWSCF v.5.1rc2 (svn rev. ) starts on 25Oct2017 at 14:17:46

     Current dimensions of program PWSCF are:
     Max number of different atomic species (ntypx) = 10
     Max number of k-points (npk) =  40000
     Max angular momentum in pseudopotentials (lmaxx) =  3

     IMPORTANT: XC functional enforced from input :
     Exchange-correlation      = BEEF-VDW ( 1  4 27 13 2)
     Any further DFT definition will be discarded
     Please, verify this is what you really want

     Subspace diagonalization in iterative solution of the eigenvalue problem:
     a serial algorithm will be used

     bravais-lattice index     =            0
     lattice parameter (alat)  =       1.8897  a.u.
     unit-cell volume          =     430.4837 (a.u.)^3
     number of atoms/cell      =            4
     number of atomic types    =            2
     number of electrons       =        58.00
     number of Kohn-Sham states=           49
     kinetic-energy cutoff     =      58.7989  Ry
     charge density cutoff     =     587.9892  Ry
     convergence threshold     =      7.3E-09
     mixing beta               =       0.1000
     number of iterations used =           10  local-TF  mixing
     Exchange-correlation      = BEEF-VDW ( 1  4 27 13 2)
     nstep                     =           50

     celldm(1)=   1.889726  celldm(2)=   0.000000  celldm(3)=   0.000000
     celldm(4)=   0.000000  celldm(5)=   0.000000  celldm(6)=   0.000000

     crystal axes: (cart. coord. in units of alat)
               a(1) = (   3.995643   0.000000   0.000000 )
               a(2) = (   0.000000   3.995643   0.000000 )
               a(3) = (   0.000000   0.000000   3.995643 )

     reciprocal axes: (cart. coord. in units 2 pi/alat)
               b(1) = (  0.250273  0.000000  0.000000 )
               b(2) = (  0.000000  0.250273  0.000000 )
               b(3) = (  0.000000  0.000000  0.250273 )

     PseudoPot. # 1 for Ir read from file:
     /home/vossj/suncat/psp/gbrv1.5pbe/Ir.UPF
     MD5 check sum: 8836f839c3459d2b385c504ce6d91f2c
     Pseudo is Ultrasoft + core correction, Zval = 15.0
     Generated by new atomic code, or converted to UPF format
     Using radial grid of  983 points,  7 beta functions with:
                l(1) =   0
                l(2) =   0
                l(3) =   1
                l(4) =   1
                l(5) =   1
                l(6) =   2
                l(7) =   2
     Q(r) pseudized with  8 coefficients,  rinner =    1.400   1.400   1.400
                                                       1.400   1.400

     PseudoPot. # 2 for In read from file:
     /home/vossj/suncat/psp/gbrv1.5pbe/In.UPF
     MD5 check sum: 90777abd96fbb83f2e67db2a40c566b9
     Pseudo is Ultrasoft + core correction, Zval = 13.0
     Generated by new atomic code, or converted to UPF format
     Using radial grid of  889 points,  6 beta functions with:
                l(1) =   0
                l(2) =   0
                l(3) =   1
                l(4) =   1
                l(5) =   2
                l(6) =   2
     Q(r) pseudized with  6 coefficients,  rinner =    1.400   1.400   1.400
                                                       1.400   1.400

     vdW kernel table read from file vdW_kernel_table
     MD5 check sum: 095c7af220d748ca6e76c0b4c6cfb241

     atomic species   valence    mass     pseudopotential
        Ir1           15.00   192.21700     Ir( 1.00)
        In1           13.00   114.81800     In( 1.00)

     48 Sym. Ops., with inversion, found (32 have fractional translation)

   Cartesian axes

     site n.     atom                  positions (alat units)
         1           Ir1 tau(   1) = (   0.0000000   0.0000000   0.0000000  )
         2           Ir1 tau(   2) = (   0.0000000   1.9978216   1.9978216  )
         3           Ir1 tau(   3) = (   1.9978216   0.0000000   1.9978216  )
         4           In1 tau(   4) = (   1.9978216   1.9978216   0.0000000  )

     number of k points=    84  Fermi-Dirac smearing, width (Ry)=  0.0073
                       cart. coord. in units 2pi/alat
        k(    1) = (   0.0000000   0.0000000   0.0000000), wk =   0.0011574
        k(    2) = (   0.0000000   0.0000000   0.0208560), wk =   0.0069444
        k(    3) = (   0.0000000   0.0000000   0.0417121), wk =   0.0069444
        k(    4) = (   0.0000000   0.0000000   0.0625681), wk =   0.0069444
        k(    5) = (   0.0000000   0.0000000   0.0834242), wk =   0.0069444
        k(    6) = (   0.0000000   0.0000000   0.1042802), wk =   0.0069444
        k(    7) = (   0.0000000   0.0000000  -0.1251363), wk =   0.0034722
        k(    8) = (   0.0000000   0.0208560   0.0208560), wk =   0.0138889
        k(    9) = (   0.0000000   0.0208560   0.0417121), wk =   0.0277778
        k(   10) = (   0.0000000   0.0208560   0.0625681), wk =   0.0277778
        k(   11) = (   0.0000000   0.0208560   0.0834242), wk =   0.0277778
        k(   12) = (   0.0000000   0.0208560   0.1042802), wk =   0.0277778
        k(   13) = (   0.0000000   0.0208560  -0.1251363), wk =   0.0138889
        k(   14) = (   0.0000000   0.0417121   0.0417121), wk =   0.0138889
        k(   15) = (   0.0000000   0.0417121   0.0625681), wk =   0.0277778
        k(   16) = (   0.0000000   0.0417121   0.0834242), wk =   0.0277778
        k(   17) = (   0.0000000   0.0417121   0.1042802), wk =   0.0277778
        k(   18) = (   0.0000000   0.0417121  -0.1251363), wk =   0.0138889
        k(   19) = (   0.0000000   0.0625681   0.0625681), wk =   0.0138889
        k(   20) = (   0.0000000   0.0625681   0.0834242), wk =   0.0277778
        k(   21) = (   0.0000000   0.0625681   0.1042802), wk =   0.0277778
        k(   22) = (   0.0000000   0.0625681  -0.1251363), wk =   0.0138889
        k(   23) = (   0.0000000   0.0834242   0.0834242), wk =   0.0138889
        k(   24) = (   0.0000000   0.0834242   0.1042802), wk =   0.0277778
        k(   25) = (   0.0000000   0.0834242  -0.1251363), wk =   0.0138889
        k(   26) = (   0.0000000   0.1042802   0.1042802), wk =   0.0138889
        k(   27) = (   0.0000000   0.1042802  -0.1251363), wk =   0.0138889
        k(   28) = (   0.0000000  -0.1251363  -0.1251363), wk =   0.0034722
        k(   29) = (   0.0208560   0.0208560   0.0208560), wk =   0.0092593
        k(   30) = (   0.0208560   0.0208560   0.0417121), wk =   0.0277778
        k(   31) = (   0.0208560   0.0208560   0.0625681), wk =   0.0277778
        k(   32) = (   0.0208560   0.0208560   0.0834242), wk =   0.0277778
        k(   33) = (   0.0208560   0.0208560   0.1042802), wk =   0.0277778
        k(   34) = (   0.0208560   0.0208560  -0.1251363), wk =   0.0138889
        k(   35) = (   0.0208560   0.0417121   0.0417121), wk =   0.0277778
        k(   36) = (   0.0208560   0.0417121   0.0625681), wk =   0.0555556
        k(   37) = (   0.0208560   0.0417121   0.0834242), wk =   0.0555556
        k(   38) = (   0.0208560   0.0417121   0.1042802), wk =   0.0555556
        k(   39) = (   0.0208560   0.0417121  -0.1251363), wk =   0.0277778
        k(   40) = (   0.0208560   0.0625681   0.0625681), wk =   0.0277778
        k(   41) = (   0.0208560   0.0625681   0.0834242), wk =   0.0555556
        k(   42) = (   0.0208560   0.0625681   0.1042802), wk =   0.0555556
        k(   43) = (   0.0208560   0.0625681  -0.1251363), wk =   0.0277778
        k(   44) = (   0.0208560   0.0834242   0.0834242), wk =   0.0277778
        k(   45) = (   0.0208560   0.0834242   0.1042802), wk =   0.0555556
        k(   46) = (   0.0208560   0.0834242  -0.1251363), wk =   0.0277778
        k(   47) = (   0.0208560   0.1042802   0.1042802), wk =   0.0277778
        k(   48) = (   0.0208560   0.1042802  -0.1251363), wk =   0.0277778
        k(   49) = (   0.0208560  -0.1251363  -0.1251363), wk =   0.0069444
        k(   50) = (   0.0417121   0.0417121   0.0417121), wk =   0.0092593
        k(   51) = (   0.0417121   0.0417121   0.0625681), wk =   0.0277778
        k(   52) = (   0.0417121   0.0417121   0.0834242), wk =   0.0277778
        k(   53) = (   0.0417121   0.0417121   0.1042802), wk =   0.0277778
        k(   54) = (   0.0417121   0.0417121  -0.1251363), wk =   0.0138889
        k(   55) = (   0.0417121   0.0625681   0.0625681), wk =   0.0277778
        k(   56) = (   0.0417121   0.0625681   0.0834242), wk =   0.0555556
        k(   57) = (   0.0417121   0.0625681   0.1042802), wk =   0.0555556
        k(   58) = (   0.0417121   0.0625681  -0.1251363), wk =   0.0277778
        k(   59) = (   0.0417121   0.0834242   0.0834242), wk =   0.0277778
        k(   60) = (   0.0417121   0.0834242   0.1042802), wk =   0.0555556
[...]
        k(   70) = (   0.0625681   0.0834242   0.1042802), wk =   0.0555556
        k(   71) = (   0.0625681   0.0834242  -0.1251363), wk =   0.0277778
        k(   72) = (   0.0625681   0.1042802   0.1042802), wk =   0.0277778
        k(   73) = (   0.0625681   0.1042802  -0.1251363), wk =   0.0277778
        k(   74) = (   0.0625681  -0.1251363  -0.1251363), wk =   0.0069444
        k(   75) = (   0.0834242   0.0834242   0.0834242), wk =   0.0092593
        k(   76) = (   0.0834242   0.0834242   0.1042802), wk =   0.0277778
        k(   77) = (   0.0834242   0.0834242  -0.1251363), wk =   0.0138889
        k(   78) = (   0.0834242   0.1042802   0.1042802), wk =   0.0277778
        k(   79) = (   0.0834242   0.1042802  -0.1251363), wk =   0.0277778
        k(   80) = (   0.0834242  -0.1251363  -0.1251363), wk =   0.0069444
        k(   81) = (   0.1042802   0.1042802   0.1042802), wk =   0.0092593
        k(   82) = (   0.1042802   0.1042802  -0.1251363), wk =   0.0138889
        k(   83) = (   0.1042802  -0.1251363  -0.1251363), wk =   0.0069444
        k(   84) = (  -0.1251363  -0.1251363  -0.1251363), wk =   0.0011574

     Largest allocated arrays     est. size (Mb)     dimensions
     Largest temporary arrays     est. size (Mb)     dimensions

     Initial potential from superposition of free atoms
     Check: negative starting charge=   -1.093008

     starting charge   54.99990, renormalised to   58.00000

     negative rho (up, down):  1.153E+00 0.000E+00

     *
     * You are using vdW-DF for exchange-correlation in this calculation.
     * Please cite the following three references that made this development
     * possible:
     *
     *   M. Dion, H. Rydberg, E. Schroder, D. C. Langreth, and
     *   B. I. Lundqvist, Phys. Rev. Lett. 92, 246401 (2004).
     *
     *   T. Thonhauser, V. R. Cooper, S. Li, A. Puzder, P. Hyldgaard, and
     *   D. C. Langreth, Phys. Rev. B 76, 125112 (2007).
     *
     *   G. Roman-Perez and J. M. Soler, Phys. Rev. Lett. 103, 096102 (2009).
     *
     *
     * If you are using vdW-DF2, please also cite:
     *
     *   K. Lee, E. D. Murray, L. Kong, B. I. Lundqvist, and
     *   D. C. Langreth, Phys. Rev. B 82, 081101(R) (2010).
     *
     *
     * If you are calculating the stress with vdW-DF, please also cite:
     *
     *   R. Sabatini, E. Kucukbenli, B. Kolb, T. Thonhauser, and
     *   S. de Gironcoli, J. Phys.: Condens. Matter 24, 424209 (2012).
     *

     Carrying out vdW-DF run using the following parameters:

     Nqs =      20    Nr_points =    1024   r_max =   100.000
     q_mesh =
               0.00001000     0.04494208     0.09755937     0.15916263
               0.23128650     0.31572767     0.41458969     0.53033537
               0.66584808     0.82450364     1.01025438     1.22772762
               1.48234092     1.78043706     2.12944203     2.53805004
               3.01644009     3.57652955     4.23227104     5.00000000

     Gradients computed in reciprocal space

     Starting wfc are   45 randomized atomic wfcs +    4 random wfc

     Self-consistent Calculation

     iteration #  1     ecut=    58.80 Ry     beta=0.10
     Davidson diagonalization with overlap
     ethr =  1.00E-02,  avg # of iterations =  4.6

[...]

     total energy              =    -685.91878225 Ry
     Harris-Foulkes estimate   =    -686.20560681 Ry
     estimated scf accuracy    <       4.33279107 Ry

[...]

     total energy              =    -684.83261920 Ry
     Harris-Foulkes estimate   =    -684.83261575 Ry
     estimated scf accuracy    <       0.00000013 Ry

     iteration # 12     ecut=    58.80 Ry     beta=0.10
     Davidson diagonalization with overlap
     ethr =  2.26E-10,  avg # of iterations =  1.9

     negative rho (up, down):  9.771E-01 0.000E+00

     End of self-consistent calculation

          k = 0.0000 0.0000 0.0000 (  3239 PWs)   bands (ev):

   -29.0897 -29.0897 -29.0897 -28.8735 -28.8735 -28.8735 -28.7493 -28.7493
   -28.7493   5.3416   5.3416   5.3982   5.3982   5.3982   9.6939  13.6481
    15.3291  15.3291  15.3291  15.4662  15.4662  18.7807  18.7807  18.7807
    20.1021  20.1021  20.5875  20.5875  20.5875  21.0799  21.6406  21.6406
    21.6406  26.2860  28.2044  28.2044  29.4106  29.4106  29.4106  31.2005
    31.2005  31.2005  31.5156  31.5208  31.5208  34.0762  35.8470  38.0643
    38.0643

[...]

          k = 0.1043-0.1251-0.1251 (  3268 PWs)   bands (ev):

[...]

          k =-0.1251-0.1251-0.1251 (  3328 PWs)   bands (ev):

   -29.2051 -29.0488 -29.0488 -29.0488 -28.7728 -28.7728 -28.7556 -28.7556
   -28.7556   5.3472   5.3472   5.3472   5.5307   5.5307  12.3473  14.6456
    14.6456  14.6456  17.0941  17.0941  17.0941  18.2382  18.2382  18.2382
    18.6754  18.6754  18.6754  19.3512  19.3512  20.0427  21.1472  21.1472
    21.1472  23.8985  25.4291  25.4291  25.4291  31.5174  31.5174  31.5174
    33.4246  33.4246  33.4246  33.8102  35.8477  36.1031  36.1031  36.1031
    38.4676

     the Fermi energy is    19.9662 ev

!    total energy              =    -684.83263443 Ry
     Harris-Foulkes estimate   =    -684.83261922 Ry
     estimated scf accuracy    <          3.0E-09 Ry

     The total energy is the sum of the following terms:

     one-electron contribution =     -62.31402756 Ry
     hartree contribution      =      84.54055777 Ry
     xc contribution           =    -195.48753414 Ry
     ewald contribution        =    -511.56156642 Ry
     smearing contrib. (-TS)   =      -0.01006408 Ry

     convergence has been achieved in  12 iterations

     Forces acting on atoms (Ry/au):

     negative rho (up, down):  9.771E-01 0.000E+00
     atom    1 type  1   force =     0.00000000    0.00000000    0.00000000
     atom    2 type  1   force =     0.00000000    0.00000000    0.00000000
     atom    3 type  1   force =     0.00000000    0.00000000    0.00000000
     atom    4 type  2   force =     0.00000000    0.00000000    0.00000000

     Total force =     0.000000     Total SCF correction =     0.000000
 !ASE

     General routines

     Parallel routines

   This run was terminated on:  14:18:41  25Oct2017

   JOB DONE.