     Program PWSCF v.5.1rc2 (svn rev. ) starts on 17Feb2018 at 13:28:16

     Current dimensions of program PWSCF are:
     Max number of different atomic species (ntypx) = 10
     Max number of k-points (npk) =  40000
     Max angular momentum in pseudopotentials (lmaxx) =  3

     IMPORTANT: XC functional enforced from input :
     Exchange-correlation      = BEEF-VDW ( 1  4 27 13 2)
     Any further DFT definition will be discarded
     Please, verify this is what you really want

     Subspace diagonalization in iterative solution of the eigenvalue problem:
     a serial algorithm will be used

     bravais-lattice index     =            0
     lattice parameter (alat)  =       1.8897  a.u.
     unit-cell volume          =     615.9533 (a.u.)^3
     number of atoms/cell      =            4
     number of atomic types    =            2
     number of electrons       =        51.00
     number of Kohn-Sham states=           45
     kinetic-energy cutoff     =      58.7989  Ry
     charge density cutoff     =     587.9892  Ry
     convergence threshold     =      7.3E-09
     mixing beta               =       0.1000
     number of iterations used =           10  local-TF  mixing
     Exchange-correlation      = BEEF-VDW ( 1  4 27 13 2)
     nstep                     =           50

     celldm(1)=   1.889726  celldm(2)=   0.000000  celldm(3)=   0.000000
     celldm(4)=   0.000000  celldm(5)=   0.000000  celldm(6)=   0.000000

     crystal axes: (cart. coord. in units of alat)
               a(1) = (   4.502465   0.000000   0.000000 )
               a(2) = (   0.000000   4.502465   0.000000 )
               a(3) = (   0.000000   0.000000   4.502465 )

     reciprocal axes: (cart. coord. in units 2 pi/alat)
               b(1) = (  0.222101  0.000000  0.000000 )
               b(2) = (  0.000000  0.222101  0.000000 )
               b(3) = (  0.000000  0.000000  0.222101 )

     PseudoPot. # 1 for Hf read from file:
     /home/mamunm/src/pseudo/gbrv1.5pbe/Hf.UPF
     MD5 check sum: 8ee9378dfe14276e333edf04c5e4aa26
     Pseudo is Ultrasoft + core correction, Zval = 12.0
     Generated by new atomic code, or converted to UPF format
     Using radial grid of  921 points,  8 beta functions with:
                l(1) =   0
                l(2) =   0
                l(3) =   0
                l(4) =   1
                l(5) =   1
                l(6) =   2
                l(7) =   2
                l(8) =   3
     Q(r) pseudized with  6 coefficients,  rinner =    1.200   1.200   1.200
                                                       1.200   1.200   1.200
                                                       1.200

     PseudoPot. # 2 for Bi read from file:
     /home/mamunm/src/pseudo/gbrv1.5pbe/Bi.UPF
     MD5 check sum: 81103212dc04adf40945787f699eab19
     Pseudo is Ultrasoft + core correction, Zval = 15.0
     Generated by new atomic code, or converted to UPF format
     Using radial grid of  899 points,  6 beta functions with:
                l(1) =   0
                l(2) =   0
                l(3) =   1
                l(4) =   1
                l(5) =   2
                l(6) =   2
     Q(r) pseudized with  6 coefficients,  rinner =    1.000   1.000   1.000
                                                       1.000   1.000

     vdW kernel table read from file vdW_kernel_table
     MD5 check sum: 095c7af220d748ca6e76c0b4c6cfb241

     atomic species   valence    mass     pseudopotential
        Hf1           12.00   178.49000     Hf( 1.00)
        Bi1           15.00   208.98040     Bi( 1.00)

     48 Sym. Ops., with inversion, found (32 have fractional translation)

   Cartesian axes

     site n.     atom                  positions (alat units)
         1           Hf1 tau(   1) = (   0.0000000   0.0000000   0.0000000  )
         2           Hf1 tau(   2) = (   0.0000000   2.2512327   2.2512327  )
         3           Hf1 tau(   3) = (   2.2512327   0.0000000   2.2512327  )
         4           Bi1 tau(   4) = (   2.2512327   2.2512327   0.0000000  )

     number of k points=    84  Fermi-Dirac smearing, width (Ry)=  0.0073
                       cart. coord. in units 2pi/alat
        k(    1) = (   0.0000000   0.0000000   0.0000000), wk =   0.0011574
        k(    2) = (   0.0000000   0.0000000   0.0185084), wk =   0.0069444
        k(    3) = (   0.0000000   0.0000000   0.0370168), wk =   0.0069444
        k(    4) = (   0.0000000   0.0000000   0.0555251), wk =   0.0069444
        k(    5) = (   0.0000000   0.0000000   0.0740335), wk =   0.0069444
        k(    6) = (   0.0000000   0.0000000   0.0925419), wk =   0.0069444
        k(    7) = (   0.0000000   0.0000000  -0.1110503), wk =   0.0034722
        k(    8) = (   0.0000000   0.0185084   0.0185084), wk =   0.0138889
        k(    9) = (   0.0000000   0.0185084   0.0370168), wk =   0.0277778
        k(   10) = (   0.0000000   0.0185084   0.0555251), wk =   0.0277778
        k(   11) = (   0.0000000   0.0185084   0.0740335), wk =   0.0277778
        k(   12) = (   0.0000000   0.0185084   0.0925419), wk =   0.0277778
        k(   13) = (   0.0000000   0.0185084  -0.1110503), wk =   0.0138889
        k(   14) = (   0.0000000   0.0370168   0.0370168), wk =   0.0138889
        k(   15) = (   0.0000000   0.0370168   0.0555251), wk =   0.0277778
        k(   16) = (   0.0000000   0.0370168   0.0740335), wk =   0.0277778
        k(   17) = (   0.0000000   0.0370168   0.0925419), wk =   0.0277778
        k(   18) = (   0.0000000   0.0370168  -0.1110503), wk =   0.0138889
        k(   19) = (   0.0000000   0.0555251   0.0555251), wk =   0.0138889
        k(   20) = (   0.0000000   0.0555251   0.0740335), wk =   0.0277778
        k(   21) = (   0.0000000   0.0555251   0.0925419), wk =   0.0277778
        k(   22) = (   0.0000000   0.0555251  -0.1110503), wk =   0.0138889
        k(   23) = (   0.0000000   0.0740335   0.0740335), wk =   0.0138889
        k(   24) = (   0.0000000   0.0740335   0.0925419), wk =   0.0277778
        k(   25) = (   0.0000000   0.0740335  -0.1110503), wk =   0.0138889
        k(   26) = (   0.0000000   0.0925419   0.0925419), wk =   0.0138889
        k(   27) = (   0.0000000   0.0925419  -0.1110503), wk =   0.0138889
        k(   28) = (   0.0000000  -0.1110503  -0.1110503), wk =   0.0034722
        k(   29) = (   0.0185084   0.0185084   0.0185084), wk =   0.0092593
        k(   30) = (   0.0185084   0.0185084   0.0370168), wk =   0.0277778
        k(   31) = (   0.0185084   0.0185084   0.0555251), wk =   0.0277778
        k(   32) = (   0.0185084   0.0185084   0.0740335), wk =   0.0277778
        k(   33) = (   0.0185084   0.0185084   0.0925419), wk =   0.0277778
        k(   34) = (   0.0185084   0.0185084  -0.1110503), wk =   0.0138889
        k(   35) = (   0.0185084   0.0370168   0.0370168), wk =   0.0277778
        k(   36) = (   0.0185084   0.0370168   0.0555251), wk =   0.0555556
        k(   37) = (   0.0185084   0.0370168   0.0740335), wk =   0.0555556
        k(   38) = (   0.0185084   0.0370168   0.0925419), wk =   0.0555556
        k(   39) = (   0.0185084   0.0370168  -0.1110503), wk =   0.0277778
        k(   40) = (   0.0185084   0.0555251   0.0555251), wk =   0.0277778
        k(   41) = (   0.0185084   0.0555251   0.0740335), wk =   0.0555556
        k(   42) = (   0.0185084   0.0555251   0.0925419), wk =   0.0555556
        k(   43) = (   0.0185084   0.0555251  -0.1110503), wk =   0.0277778
        k(   44) = (   0.0185084   0.0740335   0.0740335), wk =   0.0277778
        k(   45) = (   0.0185084   0.0740335   0.0925419), wk =   0.0555556
        k(   46) = (   0.0185084   0.0740335  -0.1110503), wk =   0.0277778
        k(   47) = (   0.0185084   0.0925419   0.0925419), wk =   0.0277778
        k(   48) = (   0.0185084   0.0925419  -0.1110503), wk =   0.0277778
        k(   49) = (   0.0185084  -0.1110503  -0.1110503), wk =   0.0069444
        k(   50) = (   0.0370168   0.0370168   0.0370168), wk =   0.0092593
        k(   51) = (   0.0370168   0.0370168   0.0555251), wk =   0.0277778
        k(   52) = (   0.0370168   0.0370168   0.0740335), wk =   0.0277778
        k(   53) = (   0.0370168   0.0370168   0.0925419), wk =   0.0277778
        k(   54) = (   0.0370168   0.0370168  -0.1110503), wk =   0.0138889
        k(   55) = (   0.0370168   0.0555251   0.0555251), wk =   0.0277778
        k(   56) = (   0.0370168   0.0555251   0.0740335), wk =   0.0555556
        k(   57) = (   0.0370168   0.0555251   0.0925419), wk =   0.0555556
        k(   58) = (   0.0370168   0.0555251  -0.1110503), wk =   0.0277778
        k(   59) = (   0.0370168   0.0740335   0.0740335), wk =   0.0277778
        k(   60) = (   0.0370168   0.0740335   0.0925419), wk =   0.0555556
[...]
        k(   70) = (   0.0555251   0.0740335   0.0925419), wk =   0.0555556
        k(   71) = (   0.0555251   0.0740335  -0.1110503), wk =   0.0277778
        k(   72) = (   0.0555251   0.0925419   0.0925419), wk =   0.0277778
        k(   73) = (   0.0555251   0.0925419  -0.1110503), wk =   0.0277778
        k(   74) = (   0.0555251  -0.1110503  -0.1110503), wk =   0.0069444
        k(   75) = (   0.0740335   0.0740335   0.0740335), wk =   0.0092593
        k(   76) = (   0.0740335   0.0740335   0.0925419), wk =   0.0277778
        k(   77) = (   0.0740335   0.0740335  -0.1110503), wk =   0.0138889
        k(   78) = (   0.0740335   0.0925419   0.0925419), wk =   0.0277778
        k(   79) = (   0.0740335   0.0925419  -0.1110503), wk =   0.0277778
        k(   80) = (   0.0740335  -0.1110503  -0.1110503), wk =   0.0069444
        k(   81) = (   0.0925419   0.0925419   0.0925419), wk =   0.0092593
        k(   82) = (   0.0925419   0.0925419  -0.1110503), wk =   0.0138889
        k(   83) = (   0.0925419  -0.1110503  -0.1110503), wk =   0.0069444
        k(   84) = (  -0.1110503  -0.1110503  -0.1110503), wk =   0.0011574

     Largest allocated arrays     est. size (Mb)     dimensions
     Largest temporary arrays     est. size (Mb)     dimensions

     Initial potential from superposition of free atoms
     Check: negative starting charge=   -0.364743

     starting charge   43.99995, renormalised to   51.00000

     negative rho (up, down):  4.228E-01 0.000E+00

     *
     * You are using vdW-DF for exchange-correlation in this calculation.
     * Please cite the following three references that made this development
     * possible:
     *
     *   M. Dion, H. Rydberg, E. Schroder, D. C. Langreth, and
     *   B. I. Lundqvist, Phys. Rev. Lett. 92, 246401 (2004).
     *
     *   T. Thonhauser, V. R. Cooper, S. Li, A. Puzder, P. Hyldgaard, and
     *   D. C. Langreth, Phys. Rev. B 76, 125112 (2007).
     *
     *   G. Roman-Perez and J. M. Soler, Phys. Rev. Lett. 103, 096102 (2009).
     *
     *
     * If you are using vdW-DF2, please also cite:
     *
     *   K. Lee, E. D. Murray, L. Kong, B. I. Lundqvist, and
     *   D. C. Langreth, Phys. Rev. B 82, 081101(R) (2010).
     *
     *
     * If you are calculating the stress with vdW-DF, please also cite:
     *
     *   R. Sabatini, E. Kucukbenli, B. Kolb, T. Thonhauser, and
     *   S. de Gironcoli, J. Phys.: Condens. Matter 24, 424209 (2012).
     *

     Carrying out vdW-DF run using the following parameters:

     Nqs =      20    Nr_points =    1024   r_max =   100.000
     q_mesh =
               0.00001000     0.04494208     0.09755937     0.15916263
               0.23128650     0.31572767     0.41458969     0.53033537
               0.66584808     0.82450364     1.01025438     1.22772762
               1.48234092     1.78043706     2.12944203     2.53805004
               3.01644009     3.57652955     4.23227104     5.00000000

     Gradients computed in reciprocal space

     Starting wfc are   48 randomized atomic wfcs

     Self-consistent Calculation

     iteration #  1     ecut=    58.80 Ry     beta=0.10
     Davidson diagonalization with overlap
     ethr =  1.00E-02,  avg # of iterations =  4.0

[...]

     total energy              =    -672.17653287 Ry
     Harris-Foulkes estimate   =    -672.63381234 Ry
     estimated scf accuracy    <       8.50665132 Ry

[...]

     total energy              =    -668.97017161 Ry
     Harris-Foulkes estimate   =    -668.97016639 Ry
     estimated scf accuracy    <          9.7E-09 Ry

     iteration # 14     ecut=    58.80 Ry     beta=0.10
     Davidson diagonalization with overlap
     ethr =  1.90E-11,  avg # of iterations =  2.0

     negative rho (up, down):  3.950E-01 0.000E+00

     End of self-consistent calculation

          k = 0.0000 0.0000 0.0000 (  4697 PWs)   bands (ev):

   -47.4097 -47.3555 -47.3547 -16.1902 -16.1902 -16.1900 -15.9741 -15.9741
   -15.9736 -15.6044 -15.6037 -15.6037  -8.3767  -8.3767  -8.3767  -8.3731
    -8.3730   2.6488  10.5838  12.5300  12.5303  13.2190  13.2190  13.2191
    13.5538  13.5538  13.5539  15.6510  17.3966  17.3970  17.3970  19.6093
    19.6097  20.6671  21.2368  21.2369  21.2369  21.5180  21.5180  21.5185
    23.9939  23.9939  23.9939  24.3384  24.3384

[...]

          k = 0.0925-0.1111-0.1111 (  4688 PWs)   bands (ev):

[...]

          k =-0.1111-0.1111-0.1111 (  4680 PWs)   bands (ev):

   -47.3739 -47.3727 -47.3727 -16.2409 -16.2409 -16.2403 -16.1634 -15.8069
   -15.8069 -15.8063 -15.5301 -15.5294  -8.3807  -8.3807  -8.3807  -8.3538
    -8.3537   3.5441  11.6685  11.6685  11.6687  11.9567  11.9568  11.9568
    15.5279  15.7979  15.7982  15.7982  16.9193  17.2165  17.2172  17.2172
    18.1106  18.1111  20.8238  20.8239  20.8239  22.9869  22.9869  22.9869
    23.9425  23.9425  23.9427  25.4210  26.0258

     the Fermi energy is    15.0242 ev

!    total energy              =    -668.97018528 Ry
     Harris-Foulkes estimate   =    -668.97016881 Ry
     estimated scf accuracy    <          6.0E-09 Ry

     The total energy is the sum of the following terms:

     one-electron contribution =     -87.28361813 Ry
     hartree contribution      =      69.47210412 Ry
     xc contribution           =    -298.96445065 Ry
     ewald contribution        =    -352.18336531 Ry
     smearing contrib. (-TS)   =      -0.01085530 Ry

     convergence has been achieved in  14 iterations

     Forces acting on atoms (Ry/au):

     negative rho (up, down):  3.950E-01 0.000E+00
     atom    1 type  1   force =     0.00000000    0.00000000    0.00000000
     atom    2 type  1   force =     0.00000000   -0.00000000   -0.00000000
     atom    3 type  1   force =     0.00000000    0.00000000    0.00000000
     atom    4 type  2   force =     0.00000000   -0.00000000    0.00000000

     Total force =     0.000000     Total SCF correction =     0.000000
 !ASE

     General routines

     Parallel routines

   This run was terminated on:  13:29:42  17Feb2018

   JOB DONE.