     Program PWSCF v.5.1rc2 (svn rev. ) starts on 25Oct2017 at 11:28: 4

     Current dimensions of program PWSCF are:
     Max number of different atomic species (ntypx) = 10
     Max number of k-points (npk) =  40000
     Max angular momentum in pseudopotentials (lmaxx) =  3

     IMPORTANT: XC functional enforced from input :
     Exchange-correlation      = BEEF-VDW ( 1  4 27 13 2)
     Any further DFT definition will be discarded
     Please, verify this is what you really want

     Subspace diagonalization in iterative solution of the eigenvalue problem:
     a serial algorithm will be used

     bravais-lattice index     =            0
     lattice parameter (alat)  =       1.8897  a.u.
     unit-cell volume          =     610.4099 (a.u.)^3
     number of atoms/cell      =            4
     number of atomic types    =            2
     number of electrons       =        47.00
     number of Kohn-Sham states=           43
     kinetic-energy cutoff     =      58.7989  Ry
     charge density cutoff     =     587.9892  Ry
     convergence threshold     =      7.3E-09
     mixing beta               =       0.1000
     number of iterations used =           10  local-TF  mixing
     Exchange-correlation      = BEEF-VDW ( 1  4 27 13 2)
     nstep                     =           50

     celldm(1)=   1.889726  celldm(2)=   0.000000  celldm(3)=   0.000000
     celldm(4)=   0.000000  celldm(5)=   0.000000  celldm(6)=   0.000000

     crystal axes: (cart. coord. in units of alat)
               a(1) = (   4.488918   0.000000   0.000000 )
               a(2) = (   0.000000   4.488918   0.000000 )
               a(3) = (   0.000000   0.000000   4.488918 )

     reciprocal axes: (cart. coord. in units 2 pi/alat)
               b(1) = (  0.222771  0.000000  0.000000 )
               b(2) = (  0.000000  0.222771  0.000000 )
               b(3) = (  0.000000  0.000000  0.222771 )

     PseudoPot. # 1 for Cd read from file:
     /home/vossj/suncat/psp/gbrv1.5pbe/Cd.UPF
     MD5 check sum: 17164a7926edb8e0dc231208abae86a6
     Pseudo is Ultrasoft + core correction, Zval = 12.0
     Generated by new atomic code, or converted to UPF format
     Using radial grid of  889 points,  6 beta functions with:
                l(1) =   0
                l(2) =   0
                l(3) =   1
                l(4) =   1
                l(5) =   2
                l(6) =   2
     Q(r) pseudized with  6 coefficients,  rinner =    1.000   1.000   1.000
                                                       1.000   1.000

     PseudoPot. # 2 for Sc read from file:
     /home/vossj/suncat/psp/gbrv1.5pbe/Sc.UPF
     MD5 check sum: db30a2753ba66ef00f23801d899b7e7f
     Pseudo is Ultrasoft + core correction, Zval = 11.0
     Generated by new atomic code, or converted to UPF format
     Using radial grid of  849 points,  6 beta functions with:
                l(1) =   0
                l(2) =   0
                l(3) =   1
                l(4) =   1
                l(5) =   2
                l(6) =   2
     Q(r) pseudized with  6 coefficients,  rinner =    1.200   1.200   1.200
                                                       1.200   1.200

     vdW kernel table read from file vdW_kernel_table
     MD5 check sum: 095c7af220d748ca6e76c0b4c6cfb241

     atomic species   valence    mass     pseudopotential
        Cd1           12.00   112.41400     Cd( 1.00)
        Sc1           11.00    44.95591     Sc( 1.00)

     48 Sym. Ops., with inversion, found (32 have fractional translation)

   Cartesian axes

     site n.     atom                  positions (alat units)
         1           Cd1 tau(   1) = (   0.0000000   0.0000000   0.0000000  )
         2           Cd1 tau(   2) = (   0.0000000   2.2444589   2.2444589  )
         3           Cd1 tau(   3) = (   2.2444589   0.0000000   2.2444589  )
         4           Sc1 tau(   4) = (   2.2444589   2.2444589   0.0000000  )

     number of k points=    84  Fermi-Dirac smearing, width (Ry)=  0.0073
                       cart. coord. in units 2pi/alat
        k(    1) = (   0.0000000   0.0000000   0.0000000), wk =   0.0011574
        k(    2) = (   0.0000000   0.0000000   0.0185642), wk =   0.0069444
        k(    3) = (   0.0000000   0.0000000   0.0371285), wk =   0.0069444
        k(    4) = (   0.0000000   0.0000000   0.0556927), wk =   0.0069444
        k(    5) = (   0.0000000   0.0000000   0.0742569), wk =   0.0069444
        k(    6) = (   0.0000000   0.0000000   0.0928212), wk =   0.0069444
        k(    7) = (   0.0000000   0.0000000  -0.1113854), wk =   0.0034722
        k(    8) = (   0.0000000   0.0185642   0.0185642), wk =   0.0138889
        k(    9) = (   0.0000000   0.0185642   0.0371285), wk =   0.0277778
        k(   10) = (   0.0000000   0.0185642   0.0556927), wk =   0.0277778
        k(   11) = (   0.0000000   0.0185642   0.0742569), wk =   0.0277778
        k(   12) = (   0.0000000   0.0185642   0.0928212), wk =   0.0277778
        k(   13) = (   0.0000000   0.0185642  -0.1113854), wk =   0.0138889
        k(   14) = (   0.0000000   0.0371285   0.0371285), wk =   0.0138889
        k(   15) = (   0.0000000   0.0371285   0.0556927), wk =   0.0277778
        k(   16) = (   0.0000000   0.0371285   0.0742569), wk =   0.0277778
        k(   17) = (   0.0000000   0.0371285   0.0928212), wk =   0.0277778
        k(   18) = (   0.0000000   0.0371285  -0.1113854), wk =   0.0138889
        k(   19) = (   0.0000000   0.0556927   0.0556927), wk =   0.0138889
        k(   20) = (   0.0000000   0.0556927   0.0742569), wk =   0.0277778
        k(   21) = (   0.0000000   0.0556927   0.0928212), wk =   0.0277778
        k(   22) = (   0.0000000   0.0556927  -0.1113854), wk =   0.0138889
        k(   23) = (   0.0000000   0.0742569   0.0742569), wk =   0.0138889
        k(   24) = (   0.0000000   0.0742569   0.0928212), wk =   0.0277778
        k(   25) = (   0.0000000   0.0742569  -0.1113854), wk =   0.0138889
        k(   26) = (   0.0000000   0.0928212   0.0928212), wk =   0.0138889
        k(   27) = (   0.0000000   0.0928212  -0.1113854), wk =   0.0138889
        k(   28) = (   0.0000000  -0.1113854  -0.1113854), wk =   0.0034722
        k(   29) = (   0.0185642   0.0185642   0.0185642), wk =   0.0092593
        k(   30) = (   0.0185642   0.0185642   0.0371285), wk =   0.0277778
        k(   31) = (   0.0185642   0.0185642   0.0556927), wk =   0.0277778
        k(   32) = (   0.0185642   0.0185642   0.0742569), wk =   0.0277778
        k(   33) = (   0.0185642   0.0185642   0.0928212), wk =   0.0277778
        k(   34) = (   0.0185642   0.0185642  -0.1113854), wk =   0.0138889
        k(   35) = (   0.0185642   0.0371285   0.0371285), wk =   0.0277778
        k(   36) = (   0.0185642   0.0371285   0.0556927), wk =   0.0555556
        k(   37) = (   0.0185642   0.0371285   0.0742569), wk =   0.0555556
        k(   38) = (   0.0185642   0.0371285   0.0928212), wk =   0.0555556
        k(   39) = (   0.0185642   0.0371285  -0.1113854), wk =   0.0277778
        k(   40) = (   0.0185642   0.0556927   0.0556927), wk =   0.0277778
        k(   41) = (   0.0185642   0.0556927   0.0742569), wk =   0.0555556
        k(   42) = (   0.0185642   0.0556927   0.0928212), wk =   0.0555556
        k(   43) = (   0.0185642   0.0556927  -0.1113854), wk =   0.0277778
        k(   44) = (   0.0185642   0.0742569   0.0742569), wk =   0.0277778
        k(   45) = (   0.0185642   0.0742569   0.0928212), wk =   0.0555556
        k(   46) = (   0.0185642   0.0742569  -0.1113854), wk =   0.0277778
        k(   47) = (   0.0185642   0.0928212   0.0928212), wk =   0.0277778
        k(   48) = (   0.0185642   0.0928212  -0.1113854), wk =   0.0277778
        k(   49) = (   0.0185642  -0.1113854  -0.1113854), wk =   0.0069444
        k(   50) = (   0.0371285   0.0371285   0.0371285), wk =   0.0092593
        k(   51) = (   0.0371285   0.0371285   0.0556927), wk =   0.0277778
        k(   52) = (   0.0371285   0.0371285   0.0742569), wk =   0.0277778
        k(   53) = (   0.0371285   0.0371285   0.0928212), wk =   0.0277778
        k(   54) = (   0.0371285   0.0371285  -0.1113854), wk =   0.0138889
        k(   55) = (   0.0371285   0.0556927   0.0556927), wk =   0.0277778
        k(   56) = (   0.0371285   0.0556927   0.0742569), wk =   0.0555556
        k(   57) = (   0.0371285   0.0556927   0.0928212), wk =   0.0555556
        k(   58) = (   0.0371285   0.0556927  -0.1113854), wk =   0.0277778
        k(   59) = (   0.0371285   0.0742569   0.0742569), wk =   0.0277778
        k(   60) = (   0.0371285   0.0742569   0.0928212), wk =   0.0555556
[...]
        k(   70) = (   0.0556927   0.0742569   0.0928212), wk =   0.0555556
        k(   71) = (   0.0556927   0.0742569  -0.1113854), wk =   0.0277778
        k(   72) = (   0.0556927   0.0928212   0.0928212), wk =   0.0277778
        k(   73) = (   0.0556927   0.0928212  -0.1113854), wk =   0.0277778
        k(   74) = (   0.0556927  -0.1113854  -0.1113854), wk =   0.0069444
        k(   75) = (   0.0742569   0.0742569   0.0742569), wk =   0.0092593
        k(   76) = (   0.0742569   0.0742569   0.0928212), wk =   0.0277778
        k(   77) = (   0.0742569   0.0742569  -0.1113854), wk =   0.0138889
        k(   78) = (   0.0742569   0.0928212   0.0928212), wk =   0.0277778
        k(   79) = (   0.0742569   0.0928212  -0.1113854), wk =   0.0277778
        k(   80) = (   0.0742569  -0.1113854  -0.1113854), wk =   0.0069444
        k(   81) = (   0.0928212   0.0928212   0.0928212), wk =   0.0092593
        k(   82) = (   0.0928212   0.0928212  -0.1113854), wk =   0.0138889
        k(   83) = (   0.0928212  -0.1113854  -0.1113854), wk =   0.0069444
        k(   84) = (  -0.1113854  -0.1113854  -0.1113854), wk =   0.0011574

     Largest allocated arrays     est. size (Mb)     dimensions
     Largest temporary arrays     est. size (Mb)     dimensions

     Initial potential from superposition of free atoms
     Check: negative starting charge=   -0.063197

     starting charge   45.49747, renormalised to   47.00000

     negative rho (up, down):  6.528E-02 0.000E+00

     *
     * You are using vdW-DF for exchange-correlation in this calculation.
     * Please cite the following three references that made this development
     * possible:
     *
     *   M. Dion, H. Rydberg, E. Schroder, D. C. Langreth, and
     *   B. I. Lundqvist, Phys. Rev. Lett. 92, 246401 (2004).
     *
     *   T. Thonhauser, V. R. Cooper, S. Li, A. Puzder, P. Hyldgaard, and
     *   D. C. Langreth, Phys. Rev. B 76, 125112 (2007).
     *
     *   G. Roman-Perez and J. M. Soler, Phys. Rev. Lett. 103, 096102 (2009).
     *
     *
     * If you are using vdW-DF2, please also cite:
     *
     *   K. Lee, E. D. Murray, L. Kong, B. I. Lundqvist, and
     *   D. C. Langreth, Phys. Rev. B 82, 081101(R) (2010).
     *
     *
     * If you are calculating the stress with vdW-DF, please also cite:
     *
     *   R. Sabatini, E. Kucukbenli, B. Kolb, T. Thonhauser, and
     *   S. de Gironcoli, J. Phys.: Condens. Matter 24, 424209 (2012).
     *

     Carrying out vdW-DF run using the following parameters:

     Nqs =      20    Nr_points =    1024   r_max =   100.000
     q_mesh =
               0.00001000     0.04494208     0.09755937     0.15916263
               0.23128650     0.31572767     0.41458969     0.53033537
               0.66584808     0.82450364     1.01025438     1.22772762
               1.48234092     1.78043706     2.12944203     2.53805004
               3.01644009     3.57652955     4.23227104     5.00000000

     Gradients computed in reciprocal space

     Starting wfc are   40 randomized atomic wfcs +    3 random wfc

     Self-consistent Calculation

     iteration #  1     ecut=    58.80 Ry     beta=0.10
     Davidson diagonalization with overlap
     ethr =  1.00E-02,  avg # of iterations =  4.6

     Threshold (ethr) on eigenvalues was too large:
     Diagonalizing with lowered threshold

     Davidson diagonalization with overlap
     ethr =  7.19E-04,  avg # of iterations =  1.0

[...]

     total energy              =    -443.27079378 Ry
     Harris-Foulkes estimate   =    -443.29132332 Ry
     estimated scf accuracy    <       0.33393961 Ry

[...]

     total energy              =    -443.18991937 Ry
     Harris-Foulkes estimate   =    -443.18990106 Ry
     estimated scf accuracy    <       0.00000001 Ry

     iteration # 14     ecut=    58.80 Ry     beta=0.10
     Davidson diagonalization with overlap
     ethr =  2.95E-11,  avg # of iterations =  2.5

     negative rho (up, down):  6.585E-02 0.000E+00

     End of self-consistent calculation

          k = 0.0000 0.0000 0.0000 (  4697 PWs)   bands (ev):

   -39.7688 -18.3469 -18.3469 -18.3469   1.0433   1.1353   1.1353   1.1353
     1.3555   1.3556   1.7925   1.7926   1.7926   2.0427   2.0428   2.2626
     2.3545   2.3545   2.3546   2.7617  10.0072  10.0072  10.5302  10.5302
    10.5302  12.1417  12.1417  12.1417  14.4963  14.4963  14.9797  17.2051
    17.2051  17.2051  18.8348  18.8349  18.8349  22.2294  22.2294  22.7094
    22.7094  22.7094  24.5643

[...]

          k = 0.0928-0.1114-0.1114 (  4664 PWs)   bands (ev):

[...]

          k =-0.1114-0.1114-0.1114 (  4680 PWs)   bands (ev):

   -39.7682 -18.3524 -18.3524 -18.3524   1.2034   1.2780   1.2780   1.2781
     1.5314   1.5314   1.5314   1.8501   1.8502   1.8502   1.9058   1.9059
     2.2736   2.2737   2.2737   8.2774   8.2775   8.2775   8.6290   9.1770
     9.1770   9.1770  12.3940  12.3940  13.2515  13.6761  13.6761  13.6761
    22.6774  22.6774  22.6775  22.8372  22.8372  23.0384  23.0384  23.0384
    23.2654  25.6409  25.6409

     the Fermi energy is    10.4913 ev

!    total energy              =    -443.18998400 Ry
     Harris-Foulkes estimate   =    -443.18991939 Ry
     estimated scf accuracy    <          6.6E-10 Ry

     The total energy is the sum of the following terms:

     one-electron contribution =     -94.28136586 Ry
     hartree contribution      =      86.15149653 Ry
     xc contribution           =    -136.36773800 Ry
     ewald contribution        =    -298.68364958 Ry
     smearing contrib. (-TS)   =      -0.00872709 Ry

     convergence has been achieved in  14 iterations

     Forces acting on atoms (Ry/au):

     negative rho (up, down):  6.585E-02 0.000E+00
     atom    1 type  1   force =     0.00000000   -0.00000000    0.00000000
     atom    2 type  1   force =     0.00000000   -0.00000000    0.00000000
     atom    3 type  1   force =     0.00000000    0.00000000    0.00000000
     atom    4 type  2   force =     0.00000000    0.00000000    0.00000000

     Total force =     0.000000     Total SCF correction =     0.000000
 !ASE

     General routines

     Parallel routines

   This run was terminated on:  11:29:20  25Oct2017

   JOB DONE.