     Program PWSCF v.5.1rc2 (svn rev. ) starts on 24Oct2017 at 22:23:58

     Current dimensions of program PWSCF are:
     Max number of different atomic species (ntypx) = 10
     Max number of k-points (npk) =  40000
     Max angular momentum in pseudopotentials (lmaxx) =  3

     IMPORTANT: XC functional enforced from input :
     Exchange-correlation      = BEEF-VDW ( 1  4 27 13 2)
     Any further DFT definition will be discarded
     Please, verify this is what you really want

     Subspace diagonalization in iterative solution of the eigenvalue problem:
     a serial algorithm will be used

     bravais-lattice index     =            0
     lattice parameter (alat)  =       1.8897  a.u.
     unit-cell volume          =     428.9401 (a.u.)^3
     number of atoms/cell      =            4
     number of atomic types    =            2
     number of electrons       =        22.00
     number of Kohn-Sham states=           31
     kinetic-energy cutoff     =      58.7989  Ry
     charge density cutoff     =     587.9892  Ry
     convergence threshold     =      7.3E-09
     mixing beta               =       0.1000
     number of iterations used =           10  local-TF  mixing
     Exchange-correlation      = BEEF-VDW ( 1  4 27 13 2)
     nstep                     =           50

     celldm(1)=   1.889726  celldm(2)=   0.000000  celldm(3)=   0.000000
     celldm(4)=   0.000000  celldm(5)=   0.000000  celldm(6)=   0.000000

     crystal axes: (cart. coord. in units of alat)
               a(1) = (   3.990862   0.000000   0.000000 )
               a(2) = (   0.000000   3.990862   0.000000 )
               a(3) = (   0.000000   0.000000   3.990862 )

     reciprocal axes: (cart. coord. in units 2 pi/alat)
               b(1) = (  0.250572  0.000000  0.000000 )
               b(2) = (  0.000000  0.250572  0.000000 )
               b(3) = (  0.000000  0.000000  0.250572 )

     PseudoPot. # 1 for Al read from file:
     /home/vossj/suncat/psp/gbrv1.5pbe/Al.UPF
     MD5 check sum: 0a6289f5291fc8f409219462bc851e1f
     Pseudo is Ultrasoft + core correction, Zval =  3.0
     Generated by new atomic code, or converted to UPF format
     Using radial grid of  893 points,  3 beta functions with:
                l(1) =   0
                l(2) =   1
                l(3) =   2
     Q(r) pseudized with  8 coefficients,  rinner =    0.900   0.900   0.900
                                                       0.900   0.900

     PseudoPot. # 2 for Ta read from file:
     /home/vossj/suncat/psp/gbrv1.5pbe/Ta.UPF
     MD5 check sum: f8bbe9446314a3b8ea5d9f3e3836c939
     Pseudo is Ultrasoft + core correction, Zval = 13.0
     Generated by new atomic code, or converted to UPF format
     Using radial grid of  921 points,  7 beta functions with:
                l(1) =   0
                l(2) =   0
                l(3) =   1
                l(4) =   1
                l(5) =   2
                l(6) =   2
                l(7) =   3
     Q(r) pseudized with  6 coefficients,  rinner =    1.300   1.300   1.300
                                                       1.300   1.300   1.300
                                                       1.300

     vdW kernel table read from file vdW_kernel_table
     MD5 check sum: 095c7af220d748ca6e76c0b4c6cfb241

     atomic species   valence    mass     pseudopotential
        Al1            3.00    26.98154     Al( 1.00)
        Ta1           13.00   180.94788     Ta( 1.00)

     48 Sym. Ops., with inversion, found (32 have fractional translation)

   Cartesian axes

     site n.     atom                  positions (alat units)
         1           Al1 tau(   1) = (   0.0000000   0.0000000   0.0000000  )
         2           Al1 tau(   2) = (   0.0000000   1.9954308   1.9954308  )
         3           Al1 tau(   3) = (   1.9954308   0.0000000   1.9954308  )
         4           Ta1 tau(   4) = (   1.9954308   1.9954308   0.0000000  )

     number of k points=    84  Fermi-Dirac smearing, width (Ry)=  0.0073
                       cart. coord. in units 2pi/alat
        k(    1) = (   0.0000000   0.0000000   0.0000000), wk =   0.0011574
        k(    2) = (   0.0000000   0.0000000   0.0208810), wk =   0.0069444
        k(    3) = (   0.0000000   0.0000000   0.0417621), wk =   0.0069444
        k(    4) = (   0.0000000   0.0000000   0.0626431), wk =   0.0069444
        k(    5) = (   0.0000000   0.0000000   0.0835242), wk =   0.0069444
        k(    6) = (   0.0000000   0.0000000   0.1044052), wk =   0.0069444
        k(    7) = (   0.0000000   0.0000000  -0.1252862), wk =   0.0034722
        k(    8) = (   0.0000000   0.0208810   0.0208810), wk =   0.0138889
        k(    9) = (   0.0000000   0.0208810   0.0417621), wk =   0.0277778
        k(   10) = (   0.0000000   0.0208810   0.0626431), wk =   0.0277778
        k(   11) = (   0.0000000   0.0208810   0.0835242), wk =   0.0277778
        k(   12) = (   0.0000000   0.0208810   0.1044052), wk =   0.0277778
        k(   13) = (   0.0000000   0.0208810  -0.1252862), wk =   0.0138889
        k(   14) = (   0.0000000   0.0417621   0.0417621), wk =   0.0138889
        k(   15) = (   0.0000000   0.0417621   0.0626431), wk =   0.0277778
        k(   16) = (   0.0000000   0.0417621   0.0835242), wk =   0.0277778
        k(   17) = (   0.0000000   0.0417621   0.1044052), wk =   0.0277778
        k(   18) = (   0.0000000   0.0417621  -0.1252862), wk =   0.0138889
        k(   19) = (   0.0000000   0.0626431   0.0626431), wk =   0.0138889
        k(   20) = (   0.0000000   0.0626431   0.0835242), wk =   0.0277778
        k(   21) = (   0.0000000   0.0626431   0.1044052), wk =   0.0277778
        k(   22) = (   0.0000000   0.0626431  -0.1252862), wk =   0.0138889
        k(   23) = (   0.0000000   0.0835242   0.0835242), wk =   0.0138889
        k(   24) = (   0.0000000   0.0835242   0.1044052), wk =   0.0277778
        k(   25) = (   0.0000000   0.0835242  -0.1252862), wk =   0.0138889
        k(   26) = (   0.0000000   0.1044052   0.1044052), wk =   0.0138889
        k(   27) = (   0.0000000   0.1044052  -0.1252862), wk =   0.0138889
        k(   28) = (   0.0000000  -0.1252862  -0.1252862), wk =   0.0034722
        k(   29) = (   0.0208810   0.0208810   0.0208810), wk =   0.0092593
        k(   30) = (   0.0208810   0.0208810   0.0417621), wk =   0.0277778
        k(   31) = (   0.0208810   0.0208810   0.0626431), wk =   0.0277778
        k(   32) = (   0.0208810   0.0208810   0.0835242), wk =   0.0277778
        k(   33) = (   0.0208810   0.0208810   0.1044052), wk =   0.0277778
        k(   34) = (   0.0208810   0.0208810  -0.1252862), wk =   0.0138889
        k(   35) = (   0.0208810   0.0417621   0.0417621), wk =   0.0277778
        k(   36) = (   0.0208810   0.0417621   0.0626431), wk =   0.0555556
        k(   37) = (   0.0208810   0.0417621   0.0835242), wk =   0.0555556
        k(   38) = (   0.0208810   0.0417621   0.1044052), wk =   0.0555556
        k(   39) = (   0.0208810   0.0417621  -0.1252862), wk =   0.0277778
        k(   40) = (   0.0208810   0.0626431   0.0626431), wk =   0.0277778
        k(   41) = (   0.0208810   0.0626431   0.0835242), wk =   0.0555556
        k(   42) = (   0.0208810   0.0626431   0.1044052), wk =   0.0555556
        k(   43) = (   0.0208810   0.0626431  -0.1252862), wk =   0.0277778
        k(   44) = (   0.0208810   0.0835242   0.0835242), wk =   0.0277778
        k(   45) = (   0.0208810   0.0835242   0.1044052), wk =   0.0555556
        k(   46) = (   0.0208810   0.0835242  -0.1252862), wk =   0.0277778
        k(   47) = (   0.0208810   0.1044052   0.1044052), wk =   0.0277778
        k(   48) = (   0.0208810   0.1044052  -0.1252862), wk =   0.0277778
        k(   49) = (   0.0208810  -0.1252862  -0.1252862), wk =   0.0069444
        k(   50) = (   0.0417621   0.0417621   0.0417621), wk =   0.0092593
        k(   51) = (   0.0417621   0.0417621   0.0626431), wk =   0.0277778
        k(   52) = (   0.0417621   0.0417621   0.0835242), wk =   0.0277778
        k(   53) = (   0.0417621   0.0417621   0.1044052), wk =   0.0277778
        k(   54) = (   0.0417621   0.0417621  -0.1252862), wk =   0.0138889
        k(   55) = (   0.0417621   0.0626431   0.0626431), wk =   0.0277778
        k(   56) = (   0.0417621   0.0626431   0.0835242), wk =   0.0555556
        k(   57) = (   0.0417621   0.0626431   0.1044052), wk =   0.0555556
        k(   58) = (   0.0417621   0.0626431  -0.1252862), wk =   0.0277778
        k(   59) = (   0.0417621   0.0835242   0.0835242), wk =   0.0277778
        k(   60) = (   0.0417621   0.0835242   0.1044052), wk =   0.0555556
[...]
        k(   70) = (   0.0626431   0.0835242   0.1044052), wk =   0.0555556
        k(   71) = (   0.0626431   0.0835242  -0.1252862), wk =   0.0277778
        k(   72) = (   0.0626431   0.1044052   0.1044052), wk =   0.0277778
        k(   73) = (   0.0626431   0.1044052  -0.1252862), wk =   0.0277778
        k(   74) = (   0.0626431  -0.1252862  -0.1252862), wk =   0.0069444
        k(   75) = (   0.0835242   0.0835242   0.0835242), wk =   0.0092593
        k(   76) = (   0.0835242   0.0835242   0.1044052), wk =   0.0277778
        k(   77) = (   0.0835242   0.0835242  -0.1252862), wk =   0.0138889
        k(   78) = (   0.0835242   0.1044052   0.1044052), wk =   0.0277778
        k(   79) = (   0.0835242   0.1044052  -0.1252862), wk =   0.0277778
        k(   80) = (   0.0835242  -0.1252862  -0.1252862), wk =   0.0069444
        k(   81) = (   0.1044052   0.1044052   0.1044052), wk =   0.0092593
        k(   82) = (   0.1044052   0.1044052  -0.1252862), wk =   0.0138889
        k(   83) = (   0.1044052  -0.1252862  -0.1252862), wk =   0.0069444
        k(   84) = (  -0.1252862  -0.1252862  -0.1252862), wk =   0.0011574

     Largest allocated arrays     est. size (Mb)     dimensions
     Largest temporary arrays     est. size (Mb)     dimensions

     Initial potential from superposition of free atoms
     Check: negative starting charge=   -0.093729

     starting charge   21.99149, renormalised to   22.00000

     negative rho (up, down):  9.377E-02 0.000E+00

     *
     * You are using vdW-DF for exchange-correlation in this calculation.
     * Please cite the following three references that made this development
     * possible:
     *
     *   M. Dion, H. Rydberg, E. Schroder, D. C. Langreth, and
     *   B. I. Lundqvist, Phys. Rev. Lett. 92, 246401 (2004).
     *
     *   T. Thonhauser, V. R. Cooper, S. Li, A. Puzder, P. Hyldgaard, and
     *   D. C. Langreth, Phys. Rev. B 76, 125112 (2007).
     *
     *   G. Roman-Perez and J. M. Soler, Phys. Rev. Lett. 103, 096102 (2009).
     *
     *
     * If you are using vdW-DF2, please also cite:
     *
     *   K. Lee, E. D. Murray, L. Kong, B. I. Lundqvist, and
     *   D. C. Langreth, Phys. Rev. B 82, 081101(R) (2010).
     *
     *
     * If you are calculating the stress with vdW-DF, please also cite:
     *
     *   R. Sabatini, E. Kucukbenli, B. Kolb, T. Thonhauser, and
     *   S. de Gironcoli, J. Phys.: Condens. Matter 24, 424209 (2012).
     *

     Carrying out vdW-DF run using the following parameters:

     Nqs =      20    Nr_points =    1024   r_max =   100.000
     q_mesh =
               0.00001000     0.04494208     0.09755937     0.15916263
               0.23128650     0.31572767     0.41458969     0.53033537
               0.66584808     0.82450364     1.01025438     1.22772762
               1.48234092     1.78043706     2.12944203     2.53805004
               3.01644009     3.57652955     4.23227104     5.00000000

     Gradients computed in reciprocal space

     Starting wfc are   25 randomized atomic wfcs +    6 random wfc

     Self-consistent Calculation

     iteration #  1     ecut=    58.80 Ry     beta=0.10
     Davidson diagonalization with overlap
     ethr =  1.00E-02,  avg # of iterations =  5.1

     Threshold (ethr) on eigenvalues was too large:
     Diagonalizing with lowered threshold

     Davidson diagonalization with overlap
     ethr =  1.60E-04,  avg # of iterations =  1.5

[...]

     total energy              =    -163.96920609 Ry
     Harris-Foulkes estimate   =    -163.97008275 Ry
     estimated scf accuracy    <       0.03511276 Ry

[...]

     total energy              =    -163.96339401 Ry
     Harris-Foulkes estimate   =    -163.96339331 Ry
     estimated scf accuracy    <       0.00000002 Ry

     iteration # 10     ecut=    58.80 Ry     beta=0.10
     Davidson diagonalization with overlap
     ethr =  6.49E-11,  avg # of iterations =  1.0

     negative rho (up, down):  1.007E-01 0.000E+00

     End of self-consistent calculation

          k = 0.0000 0.0000 0.0000 (  3239 PWs)   bands (ev):

   -56.9051 -23.2907 -23.2907 -23.2907   0.5036   7.6848   7.6848   9.4313
     9.4313   9.4313  11.3868  11.3868  11.3868  11.9464  16.7414  16.7414
    16.7414  17.0071  17.0071  20.4517  20.4517  20.4517  20.6286  20.6286
    20.6286  23.8049  23.8049  26.5483  26.9470  29.5599  29.5599

[...]

          k = 0.1044-0.1253-0.1253 (  3256 PWs)   bands (ev):

[...]

          k =-0.1253-0.1253-0.1253 (  3184 PWs)   bands (ev):

   -56.9039 -23.3136 -23.3136 -23.3136   5.9007   5.9007   5.9007   6.6788
     8.1602   8.1602   8.1602  10.6280  13.0881  13.0881  15.7183  15.7183
    15.7183  22.5995  22.5995  22.5995  22.8515  22.8515  22.8515  23.2298
    23.2298  24.9138  24.9138  24.9138  25.6409  25.6409  25.6409

     the Fermi energy is    11.7225 ev

!    total energy              =    -163.96339700 Ry
     Harris-Foulkes estimate   =    -163.96339401 Ry
     estimated scf accuracy    <          1.0E-09 Ry

     The total energy is the sum of the following terms:

     one-electron contribution =     -38.86191410 Ry
     hartree contribution      =      28.15527385 Ry
     xc contribution           =     -57.26715345 Ry
     ewald contribution        =     -95.98402106 Ry
     smearing contrib. (-TS)   =      -0.00558224 Ry

     convergence has been achieved in  10 iterations

     Forces acting on atoms (Ry/au):

     negative rho (up, down):  1.007E-01 0.000E+00
     atom    1 type  1   force =     0.00000000   -0.00000000    0.00000000
     atom    2 type  1   force =     0.00000000    0.00000000   -0.00000000
     atom    3 type  1   force =     0.00000000    0.00000000    0.00000000
     atom    4 type  2   force =     0.00000000    0.00000000    0.00000000

     Total force =     0.000000     Total SCF correction =     0.000000
 !ASE

     General routines

     Parallel routines

   This run was terminated on:  22:24:23  24Oct2017

   JOB DONE.