     Program PWSCF v.5.1rc2 (svn rev. ) starts on 25Oct2017 at 10:16:53

     Current dimensions of program PWSCF are:
     Max number of different atomic species (ntypx) = 10
     Max number of k-points (npk) =  40000
     Max angular momentum in pseudopotentials (lmaxx) =  3

     IMPORTANT: XC functional enforced from input :
     Exchange-correlation      = BEEF-VDW ( 1  4 27 13 2)
     Any further DFT definition will be discarded
     Please, verify this is what you really want

     Subspace diagonalization in iterative solution of the eigenvalue problem:
     a serial algorithm will be used

     bravais-lattice index     =            0
     lattice parameter (alat)  =       1.8897  a.u.
     unit-cell volume          =     751.5382 (a.u.)^3
     number of atoms/cell      =            4
     number of atomic types    =            2
     number of electrons       =        61.00
     number of Kohn-Sham states=           50
     kinetic-energy cutoff     =      58.7989  Ry
     charge density cutoff     =     587.9892  Ry
     convergence threshold     =      7.3E-09
     mixing beta               =       0.1000
     number of iterations used =           10  local-TF  mixing
     Exchange-correlation      = BEEF-VDW ( 1  4 27 13 2)
     nstep                     =           50

     celldm(1)=   1.889726  celldm(2)=   0.000000  celldm(3)=   0.000000
     celldm(4)=   0.000000  celldm(5)=   0.000000  celldm(6)=   0.000000

     crystal axes: (cart. coord. in units of alat)
               a(1) = (   4.811179   0.000000   0.000000 )
               a(2) = (   0.000000   4.811179   0.000000 )
               a(3) = (   0.000000   0.000000   4.811179 )

     reciprocal axes: (cart. coord. in units 2 pi/alat)
               b(1) = (  0.207849  0.000000  0.000000 )
               b(2) = (  0.000000  0.207849  0.000000 )
               b(3) = (  0.000000  0.000000  0.207849 )

     PseudoPot. # 1 for Pb read from file:
     /home/vossj/suncat/psp/gbrv1.5pbe/Pb.UPF
     MD5 check sum: 3d1c1779aa92214d1e8f3a7db79003e2
     Pseudo is Ultrasoft + core correction, Zval = 14.0
     Generated by new atomic code, or converted to UPF format
     Using radial grid of  899 points,  6 beta functions with:
                l(1) =   0
                l(2) =   0
                l(3) =   1
                l(4) =   1
                l(5) =   2
                l(6) =   2
     Q(r) pseudized with  6 coefficients,  rinner =    1.000   1.000   1.000
                                                       1.000   1.000

     PseudoPot. # 2 for Cu read from file:
     /home/vossj/suncat/psp/gbrv1.5pbe/Cu.UPF
     MD5 check sum: 6e991ff952a84172a2a52a1c1e996048
     Pseudo is Ultrasoft + core correction, Zval = 19.0
     Generated by new atomic code, or converted to UPF format
     Using radial grid of  867 points,  6 beta functions with:
                l(1) =   0
                l(2) =   0
                l(3) =   1
                l(4) =   1
                l(5) =   2
                l(6) =   2
     Q(r) pseudized with  8 coefficients,  rinner =    1.150   1.150   1.150
                                                       1.150   1.150

     vdW kernel table read from file vdW_kernel_table
     MD5 check sum: 095c7af220d748ca6e76c0b4c6cfb241

     atomic species   valence    mass     pseudopotential
        Pb1           14.00   207.20000     Pb( 1.00)
        Cu1           19.00    63.54600     Cu( 1.00)

     48 Sym. Ops., with inversion, found (32 have fractional translation)

   Cartesian axes

     site n.     atom                  positions (alat units)
         1           Pb1 tau(   1) = (   0.0000000   0.0000000   0.0000000  )
         2           Pb1 tau(   2) = (   0.0000000   2.4055894   2.4055894  )
         3           Pb1 tau(   3) = (   2.4055894   0.0000000   2.4055894  )
         4           Cu1 tau(   4) = (   2.4055894   2.4055894   0.0000000  )

     number of k points=    84  Fermi-Dirac smearing, width (Ry)=  0.0073
                       cart. coord. in units 2pi/alat
        k(    1) = (   0.0000000   0.0000000   0.0000000), wk =   0.0011574
        k(    2) = (   0.0000000   0.0000000   0.0173208), wk =   0.0069444
        k(    3) = (   0.0000000   0.0000000   0.0346415), wk =   0.0069444
        k(    4) = (   0.0000000   0.0000000   0.0519623), wk =   0.0069444
        k(    5) = (   0.0000000   0.0000000   0.0692831), wk =   0.0069444
        k(    6) = (   0.0000000   0.0000000   0.0866039), wk =   0.0069444
        k(    7) = (   0.0000000   0.0000000  -0.1039246), wk =   0.0034722
        k(    8) = (   0.0000000   0.0173208   0.0173208), wk =   0.0138889
        k(    9) = (   0.0000000   0.0173208   0.0346415), wk =   0.0277778
        k(   10) = (   0.0000000   0.0173208   0.0519623), wk =   0.0277778
        k(   11) = (   0.0000000   0.0173208   0.0692831), wk =   0.0277778
        k(   12) = (   0.0000000   0.0173208   0.0866039), wk =   0.0277778
        k(   13) = (   0.0000000   0.0173208  -0.1039246), wk =   0.0138889
        k(   14) = (   0.0000000   0.0346415   0.0346415), wk =   0.0138889
        k(   15) = (   0.0000000   0.0346415   0.0519623), wk =   0.0277778
        k(   16) = (   0.0000000   0.0346415   0.0692831), wk =   0.0277778
        k(   17) = (   0.0000000   0.0346415   0.0866039), wk =   0.0277778
        k(   18) = (   0.0000000   0.0346415  -0.1039246), wk =   0.0138889
        k(   19) = (   0.0000000   0.0519623   0.0519623), wk =   0.0138889
        k(   20) = (   0.0000000   0.0519623   0.0692831), wk =   0.0277778
        k(   21) = (   0.0000000   0.0519623   0.0866039), wk =   0.0277778
        k(   22) = (   0.0000000   0.0519623  -0.1039246), wk =   0.0138889
        k(   23) = (   0.0000000   0.0692831   0.0692831), wk =   0.0138889
        k(   24) = (   0.0000000   0.0692831   0.0866039), wk =   0.0277778
        k(   25) = (   0.0000000   0.0692831  -0.1039246), wk =   0.0138889
        k(   26) = (   0.0000000   0.0866039   0.0866039), wk =   0.0138889
        k(   27) = (   0.0000000   0.0866039  -0.1039246), wk =   0.0138889
        k(   28) = (   0.0000000  -0.1039246  -0.1039246), wk =   0.0034722
        k(   29) = (   0.0173208   0.0173208   0.0173208), wk =   0.0092593
        k(   30) = (   0.0173208   0.0173208   0.0346415), wk =   0.0277778
        k(   31) = (   0.0173208   0.0173208   0.0519623), wk =   0.0277778
        k(   32) = (   0.0173208   0.0173208   0.0692831), wk =   0.0277778
        k(   33) = (   0.0173208   0.0173208   0.0866039), wk =   0.0277778
        k(   34) = (   0.0173208   0.0173208  -0.1039246), wk =   0.0138889
        k(   35) = (   0.0173208   0.0346415   0.0346415), wk =   0.0277778
        k(   36) = (   0.0173208   0.0346415   0.0519623), wk =   0.0555556
        k(   37) = (   0.0173208   0.0346415   0.0692831), wk =   0.0555556
        k(   38) = (   0.0173208   0.0346415   0.0866039), wk =   0.0555556
        k(   39) = (   0.0173208   0.0346415  -0.1039246), wk =   0.0277778
        k(   40) = (   0.0173208   0.0519623   0.0519623), wk =   0.0277778
        k(   41) = (   0.0173208   0.0519623   0.0692831), wk =   0.0555556
        k(   42) = (   0.0173208   0.0519623   0.0866039), wk =   0.0555556
        k(   43) = (   0.0173208   0.0519623  -0.1039246), wk =   0.0277778
        k(   44) = (   0.0173208   0.0692831   0.0692831), wk =   0.0277778
        k(   45) = (   0.0173208   0.0692831   0.0866039), wk =   0.0555556
        k(   46) = (   0.0173208   0.0692831  -0.1039246), wk =   0.0277778
        k(   47) = (   0.0173208   0.0866039   0.0866039), wk =   0.0277778
        k(   48) = (   0.0173208   0.0866039  -0.1039246), wk =   0.0277778
        k(   49) = (   0.0173208  -0.1039246  -0.1039246), wk =   0.0069444
        k(   50) = (   0.0346415   0.0346415   0.0346415), wk =   0.0092593
        k(   51) = (   0.0346415   0.0346415   0.0519623), wk =   0.0277778
        k(   52) = (   0.0346415   0.0346415   0.0692831), wk =   0.0277778
        k(   53) = (   0.0346415   0.0346415   0.0866039), wk =   0.0277778
        k(   54) = (   0.0346415   0.0346415  -0.1039246), wk =   0.0138889
        k(   55) = (   0.0346415   0.0519623   0.0519623), wk =   0.0277778
        k(   56) = (   0.0346415   0.0519623   0.0692831), wk =   0.0555556
        k(   57) = (   0.0346415   0.0519623   0.0866039), wk =   0.0555556
        k(   58) = (   0.0346415   0.0519623  -0.1039246), wk =   0.0277778
        k(   59) = (   0.0346415   0.0692831   0.0692831), wk =   0.0277778
        k(   60) = (   0.0346415   0.0692831   0.0866039), wk =   0.0555556
[...]
        k(   70) = (   0.0519623   0.0692831   0.0866039), wk =   0.0555556
        k(   71) = (   0.0519623   0.0692831  -0.1039246), wk =   0.0277778
        k(   72) = (   0.0519623   0.0866039   0.0866039), wk =   0.0277778
        k(   73) = (   0.0519623   0.0866039  -0.1039246), wk =   0.0277778
        k(   74) = (   0.0519623  -0.1039246  -0.1039246), wk =   0.0069444
        k(   75) = (   0.0692831   0.0692831   0.0692831), wk =   0.0092593
        k(   76) = (   0.0692831   0.0692831   0.0866039), wk =   0.0277778
        k(   77) = (   0.0692831   0.0692831  -0.1039246), wk =   0.0138889
        k(   78) = (   0.0692831   0.0866039   0.0866039), wk =   0.0277778
        k(   79) = (   0.0692831   0.0866039  -0.1039246), wk =   0.0277778
        k(   80) = (   0.0692831  -0.1039246  -0.1039246), wk =   0.0069444
        k(   81) = (   0.0866039   0.0866039   0.0866039), wk =   0.0092593
        k(   82) = (   0.0866039   0.0866039  -0.1039246), wk =   0.0138889
        k(   83) = (   0.0866039  -0.1039246  -0.1039246), wk =   0.0069444
        k(   84) = (  -0.1039246  -0.1039246  -0.1039246), wk =   0.0011574

     Largest allocated arrays     est. size (Mb)     dimensions
     Largest temporary arrays     est. size (Mb)     dimensions

     Initial potential from superposition of free atoms
     Check: negative starting charge=   -0.046252

     starting charge   59.99294, renormalised to   61.00000

     negative rho (up, down):  4.703E-02 0.000E+00

     *
     * You are using vdW-DF for exchange-correlation in this calculation.
     * Please cite the following three references that made this development
     * possible:
     *
     *   M. Dion, H. Rydberg, E. Schroder, D. C. Langreth, and
     *   B. I. Lundqvist, Phys. Rev. Lett. 92, 246401 (2004).
     *
     *   T. Thonhauser, V. R. Cooper, S. Li, A. Puzder, P. Hyldgaard, and
     *   D. C. Langreth, Phys. Rev. B 76, 125112 (2007).
     *
     *   G. Roman-Perez and J. M. Soler, Phys. Rev. Lett. 103, 096102 (2009).
     *
     *
     * If you are using vdW-DF2, please also cite:
     *
     *   K. Lee, E. D. Murray, L. Kong, B. I. Lundqvist, and
     *   D. C. Langreth, Phys. Rev. B 82, 081101(R) (2010).
     *
     *
     * If you are calculating the stress with vdW-DF, please also cite:
     *
     *   R. Sabatini, E. Kucukbenli, B. Kolb, T. Thonhauser, and
     *   S. de Gironcoli, J. Phys.: Condens. Matter 24, 424209 (2012).
     *

     Carrying out vdW-DF run using the following parameters:

     Nqs =      20    Nr_points =    1024   r_max =   100.000
     q_mesh =
               0.00001000     0.04494208     0.09755937     0.15916263
               0.23128650     0.31572767     0.41458969     0.53033537
               0.66584808     0.82450364     1.01025438     1.22772762
               1.48234092     1.78043706     2.12944203     2.53805004
               3.01644009     3.57652955     4.23227104     5.00000000

     Gradients computed in reciprocal space

     Starting wfc are   40 randomized atomic wfcs +   10 random wfc

     Self-consistent Calculation

     iteration #  1     ecut=    58.80 Ry     beta=0.10
     Davidson diagonalization with overlap
     ethr =  1.00E-02,  avg # of iterations =  5.0

[...]

     total energy              =    -903.33932121 Ry
     Harris-Foulkes estimate   =    -903.40666544 Ry
     estimated scf accuracy    <       1.66221451 Ry

[...]

     total energy              =    -902.96872770 Ry
     Harris-Foulkes estimate   =    -902.96870741 Ry
     estimated scf accuracy    <          9.1E-09 Ry

     iteration # 26     ecut=    58.80 Ry     beta=0.10
     Davidson diagonalization with overlap
     ethr =  1.50E-11,  avg # of iterations =  3.0

     negative rho (up, down):  5.106E-02 0.000E+00

     End of self-consistent calculation

          k = 0.0000 0.0000 0.0000 (  5743 PWs)   bands (ev):

  -101.5652 -58.9800 -58.9800 -58.9800  -7.0920  -7.0920  -7.0920  -7.0645
    -6.9278  -6.9277  -6.7875  -6.7875  -6.7875  -6.7347  -6.7346  -6.6420
    -6.6041  -6.6041  -6.6041  -0.8127   4.0383   4.0384   7.9236   7.9236
     7.9236   8.2628   8.2628   8.2628   8.3366   8.3366  10.0746  13.2691
    13.2691  13.2691  14.4801  14.4801  14.4801  17.3316  17.3316  17.3771
    18.3791  18.3791  18.3791  20.1735  20.1735  20.1735  20.8986  20.9405
    20.9406  21.6557

[...]

          k = 0.0866-0.1039-0.1039 (  5748 PWs)   bands (ev):

[...]

          k =-0.1039-0.1039-0.1039 (  5832 PWs)   bands (ev):

  -101.5652 -58.9800 -58.9800 -58.9800  -6.9929  -6.9929  -6.9929  -6.9519
    -6.9518  -6.9518  -6.9403  -6.7715  -6.7715  -6.7715  -6.7469  -6.7468
    -6.6380  -6.6380  -6.6380   2.4224   2.4224   2.4224   6.0984   7.2938
     7.2938   7.2938   8.3088   8.3088   8.3850   8.3850   8.3850   9.1749
    16.7089  16.7090  17.1976  17.1976  17.1977  19.2902  19.2902  19.2902
    20.5827  20.7449  20.7450  20.7450  21.2844  21.2844  21.2844  21.6171
    21.6171  21.6171

     the Fermi energy is    10.5218 ev

!    total energy              =    -902.96881377 Ry
     Harris-Foulkes estimate   =    -902.96872771 Ry
     estimated scf accuracy    <          6.4E-10 Ry

     The total energy is the sum of the following terms:

     one-electron contribution =    -467.05885226 Ry
     hartree contribution      =     273.82617226 Ry
     xc contribution           =    -235.97024887 Ry
     ewald contribution        =    -473.76099484 Ry
     smearing contrib. (-TS)   =      -0.00489005 Ry

     convergence has been achieved in  26 iterations

     Forces acting on atoms (Ry/au):

     negative rho (up, down):  5.106E-02 0.000E+00
     atom    1 type  1   force =     0.00000000    0.00000000    0.00000000
     atom    2 type  1   force =     0.00000000    0.00000000    0.00000000
     atom    3 type  1   force =     0.00000000   -0.00000000    0.00000000
     atom    4 type  2   force =     0.00000000    0.00000000    0.00000000

     Total force =     0.000000     Total SCF correction =     0.000000
 !ASE

     General routines

     Parallel routines

   This run was terminated on:  10:19:24  25Oct2017

   JOB DONE.