     Program PWSCF v.5.1rc2 (svn rev. ) starts on 31Oct2017 at 17: 1:32

     Current dimensions of program PWSCF are:
     Max number of different atomic species (ntypx) = 10
     Max number of k-points (npk) =  40000
     Max angular momentum in pseudopotentials (lmaxx) =  3

     IMPORTANT: XC functional enforced from input :
     Exchange-correlation      = BEEF-VDW ( 1  4 27 13 2)
     Any further DFT definition will be discarded
     Please, verify this is what you really want

     Subspace diagonalization in iterative solution of the eigenvalue problem:
     a serial algorithm will be used

     bravais-lattice index     =            0
     lattice parameter (alat)  =       1.8897  a.u.
     unit-cell volume          =     521.4605 (a.u.)^3
     number of atoms/cell      =            4
     number of atomic types    =            2
     number of electrons       =        50.00
     number of Kohn-Sham states=           45
     kinetic-energy cutoff     =      58.7989  Ry
     charge density cutoff     =     587.9892  Ry
     convergence threshold     =      7.3E-09
     mixing beta               =       0.1000
     number of iterations used =           10  local-TF  mixing
     Exchange-correlation      = BEEF-VDW ( 1  4 27 13 2)
     nstep                     =           50

     celldm(1)=   1.889726  celldm(2)=   0.000000  celldm(3)=   0.000000
     celldm(4)=   0.000000  celldm(5)=   0.000000  celldm(6)=   0.000000

     crystal axes: (cart. coord. in units of alat)
               a(1) = (   4.259333   0.000000   0.000000 )
               a(2) = (   0.000000   4.259333   0.000000 )
               a(3) = (   0.000000   0.000000   4.259333 )

     reciprocal axes: (cart. coord. in units 2 pi/alat)
               b(1) = (  0.234779  0.000000  0.000000 )
               b(2) = (  0.000000  0.234779  0.000000 )
               b(3) = (  0.000000  0.000000  0.234779 )

     PseudoPot. # 1 for Sc read from file:
     /home/vossj/suncat/psp/gbrv1.5pbe/Sc.UPF
     MD5 check sum: db30a2753ba66ef00f23801d899b7e7f
     Pseudo is Ultrasoft + core correction, Zval = 11.0
     Generated by new atomic code, or converted to UPF format
     Using radial grid of  849 points,  6 beta functions with:
                l(1) =   0
                l(2) =   0
                l(3) =   1
                l(4) =   1
                l(5) =   2
                l(6) =   2
     Q(r) pseudized with  6 coefficients,  rinner =    1.200   1.200   1.200
                                                       1.200   1.200

     PseudoPot. # 2 for Co read from file:
     /home/vossj/suncat/psp/gbrv1.5pbe/Co.UPF
     MD5 check sum: 5f91765df6ddd3222702df6e7b74a16d
     Pseudo is Ultrasoft + core correction, Zval = 17.0
     Generated by new atomic code, or converted to UPF format
     Using radial grid of  863 points,  6 beta functions with:
                l(1) =   0
                l(2) =   0
                l(3) =   1
                l(4) =   1
                l(5) =   2
                l(6) =   2
     Q(r) pseudized with  8 coefficients,  rinner =    1.200   1.200   1.200
                                                       1.200   1.200

     vdW kernel table read from file vdW_kernel_table
     MD5 check sum: 095c7af220d748ca6e76c0b4c6cfb241

     atomic species   valence    mass     pseudopotential
        Sc1           11.00    44.95591     Sc( 1.00)
        Co1           17.00    58.93319     Co( 1.00)

     48 Sym. Ops., with inversion, found (32 have fractional translation)

   Cartesian axes

     site n.     atom                  positions (alat units)
         1           Sc1 tau(   1) = (   0.0000000   0.0000000   0.0000000  )
         2           Sc1 tau(   2) = (   0.0000000   2.1296666   2.1296666  )
         3           Sc1 tau(   3) = (   2.1296666   0.0000000   2.1296666  )
         4           Co1 tau(   4) = (   2.1296666   2.1296666   0.0000000  )

     number of k points=    84  Fermi-Dirac smearing, width (Ry)=  0.0073
                       cart. coord. in units 2pi/alat
        k(    1) = (   0.0000000   0.0000000   0.0000000), wk =   0.0011574
        k(    2) = (   0.0000000   0.0000000   0.0195649), wk =   0.0069444
        k(    3) = (   0.0000000   0.0000000   0.0391298), wk =   0.0069444
        k(    4) = (   0.0000000   0.0000000   0.0586946), wk =   0.0069444
        k(    5) = (   0.0000000   0.0000000   0.0782595), wk =   0.0069444
        k(    6) = (   0.0000000   0.0000000   0.0978244), wk =   0.0069444
        k(    7) = (   0.0000000   0.0000000  -0.1173893), wk =   0.0034722
        k(    8) = (   0.0000000   0.0195649   0.0195649), wk =   0.0138889
        k(    9) = (   0.0000000   0.0195649   0.0391298), wk =   0.0277778
        k(   10) = (   0.0000000   0.0195649   0.0586946), wk =   0.0277778
        k(   11) = (   0.0000000   0.0195649   0.0782595), wk =   0.0277778
        k(   12) = (   0.0000000   0.0195649   0.0978244), wk =   0.0277778
        k(   13) = (   0.0000000   0.0195649  -0.1173893), wk =   0.0138889
        k(   14) = (   0.0000000   0.0391298   0.0391298), wk =   0.0138889
        k(   15) = (   0.0000000   0.0391298   0.0586946), wk =   0.0277778
        k(   16) = (   0.0000000   0.0391298   0.0782595), wk =   0.0277778
        k(   17) = (   0.0000000   0.0391298   0.0978244), wk =   0.0277778
        k(   18) = (   0.0000000   0.0391298  -0.1173893), wk =   0.0138889
        k(   19) = (   0.0000000   0.0586946   0.0586946), wk =   0.0138889
        k(   20) = (   0.0000000   0.0586946   0.0782595), wk =   0.0277778
        k(   21) = (   0.0000000   0.0586946   0.0978244), wk =   0.0277778
        k(   22) = (   0.0000000   0.0586946  -0.1173893), wk =   0.0138889
        k(   23) = (   0.0000000   0.0782595   0.0782595), wk =   0.0138889
        k(   24) = (   0.0000000   0.0782595   0.0978244), wk =   0.0277778
        k(   25) = (   0.0000000   0.0782595  -0.1173893), wk =   0.0138889
        k(   26) = (   0.0000000   0.0978244   0.0978244), wk =   0.0138889
        k(   27) = (   0.0000000   0.0978244  -0.1173893), wk =   0.0138889
        k(   28) = (   0.0000000  -0.1173893  -0.1173893), wk =   0.0034722
        k(   29) = (   0.0195649   0.0195649   0.0195649), wk =   0.0092593
        k(   30) = (   0.0195649   0.0195649   0.0391298), wk =   0.0277778
        k(   31) = (   0.0195649   0.0195649   0.0586946), wk =   0.0277778
        k(   32) = (   0.0195649   0.0195649   0.0782595), wk =   0.0277778
        k(   33) = (   0.0195649   0.0195649   0.0978244), wk =   0.0277778
        k(   34) = (   0.0195649   0.0195649  -0.1173893), wk =   0.0138889
        k(   35) = (   0.0195649   0.0391298   0.0391298), wk =   0.0277778
        k(   36) = (   0.0195649   0.0391298   0.0586946), wk =   0.0555556
        k(   37) = (   0.0195649   0.0391298   0.0782595), wk =   0.0555556
        k(   38) = (   0.0195649   0.0391298   0.0978244), wk =   0.0555556
        k(   39) = (   0.0195649   0.0391298  -0.1173893), wk =   0.0277778
        k(   40) = (   0.0195649   0.0586946   0.0586946), wk =   0.0277778
        k(   41) = (   0.0195649   0.0586946   0.0782595), wk =   0.0555556
        k(   42) = (   0.0195649   0.0586946   0.0978244), wk =   0.0555556
        k(   43) = (   0.0195649   0.0586946  -0.1173893), wk =   0.0277778
        k(   44) = (   0.0195649   0.0782595   0.0782595), wk =   0.0277778
        k(   45) = (   0.0195649   0.0782595   0.0978244), wk =   0.0555556
        k(   46) = (   0.0195649   0.0782595  -0.1173893), wk =   0.0277778
        k(   47) = (   0.0195649   0.0978244   0.0978244), wk =   0.0277778
        k(   48) = (   0.0195649   0.0978244  -0.1173893), wk =   0.0277778
        k(   49) = (   0.0195649  -0.1173893  -0.1173893), wk =   0.0069444
        k(   50) = (   0.0391298   0.0391298   0.0391298), wk =   0.0092593
        k(   51) = (   0.0391298   0.0391298   0.0586946), wk =   0.0277778
        k(   52) = (   0.0391298   0.0391298   0.0782595), wk =   0.0277778
        k(   53) = (   0.0391298   0.0391298   0.0978244), wk =   0.0277778
        k(   54) = (   0.0391298   0.0391298  -0.1173893), wk =   0.0138889
        k(   55) = (   0.0391298   0.0586946   0.0586946), wk =   0.0277778
        k(   56) = (   0.0391298   0.0586946   0.0782595), wk =   0.0555556
        k(   57) = (   0.0391298   0.0586946   0.0978244), wk =   0.0555556
        k(   58) = (   0.0391298   0.0586946  -0.1173893), wk =   0.0277778
        k(   59) = (   0.0391298   0.0782595   0.0782595), wk =   0.0277778
        k(   60) = (   0.0391298   0.0782595   0.0978244), wk =   0.0555556
[...]
        k(   70) = (   0.0586946   0.0782595   0.0978244), wk =   0.0555556
        k(   71) = (   0.0586946   0.0782595  -0.1173893), wk =   0.0277778
        k(   72) = (   0.0586946   0.0978244   0.0978244), wk =   0.0277778
        k(   73) = (   0.0586946   0.0978244  -0.1173893), wk =   0.0277778
        k(   74) = (   0.0586946  -0.1173893  -0.1173893), wk =   0.0069444
        k(   75) = (   0.0782595   0.0782595   0.0782595), wk =   0.0092593
        k(   76) = (   0.0782595   0.0782595   0.0978244), wk =   0.0277778
        k(   77) = (   0.0782595   0.0782595  -0.1173893), wk =   0.0138889
        k(   78) = (   0.0782595   0.0978244   0.0978244), wk =   0.0277778
        k(   79) = (   0.0782595   0.0978244  -0.1173893), wk =   0.0277778
        k(   80) = (   0.0782595  -0.1173893  -0.1173893), wk =   0.0069444
        k(   81) = (   0.0978244   0.0978244   0.0978244), wk =   0.0092593
        k(   82) = (   0.0978244   0.0978244  -0.1173893), wk =   0.0138889
        k(   83) = (   0.0978244  -0.1173893  -0.1173893), wk =   0.0069444
        k(   84) = (  -0.1173893  -0.1173893  -0.1173893), wk =   0.0011574

     Largest allocated arrays     est. size (Mb)     dimensions
     Largest temporary arrays     est. size (Mb)     dimensions

     Check: negative/imaginary core charge=   -0.000013    0.000000

     Initial potential from superposition of free atoms

     starting charge   48.99279, renormalised to   50.00000

     *
     * You are using vdW-DF for exchange-correlation in this calculation.
     * Please cite the following three references that made this development
     * possible:
     *
     *   M. Dion, H. Rydberg, E. Schroder, D. C. Langreth, and
     *   B. I. Lundqvist, Phys. Rev. Lett. 92, 246401 (2004).
     *
     *   T. Thonhauser, V. R. Cooper, S. Li, A. Puzder, P. Hyldgaard, and
     *   D. C. Langreth, Phys. Rev. B 76, 125112 (2007).
     *
     *   G. Roman-Perez and J. M. Soler, Phys. Rev. Lett. 103, 096102 (2009).
     *
     *
     * If you are using vdW-DF2, please also cite:
     *
     *   K. Lee, E. D. Murray, L. Kong, B. I. Lundqvist, and
     *   D. C. Langreth, Phys. Rev. B 82, 081101(R) (2010).
     *
     *
     * If you are calculating the stress with vdW-DF, please also cite:
     *
     *   R. Sabatini, E. Kucukbenli, B. Kolb, T. Thonhauser, and
     *   S. de Gironcoli, J. Phys.: Condens. Matter 24, 424209 (2012).
     *

     Carrying out vdW-DF run using the following parameters:

     Nqs =      20    Nr_points =    1024   r_max =   100.000
     q_mesh =
               0.00001000     0.04494208     0.09755937     0.15916263
               0.23128650     0.31572767     0.41458969     0.53033537
               0.66584808     0.82450364     1.01025438     1.22772762
               1.48234092     1.78043706     2.12944203     2.53805004
               3.01644009     3.57652955     4.23227104     5.00000000

     Gradients computed in reciprocal space

     Starting wfc are   52 randomized atomic wfcs

     Self-consistent Calculation

     iteration #  1     ecut=    58.80 Ry     beta=0.10
     Davidson diagonalization with overlap
     ethr =  1.00E-02,  avg # of iterations =  3.7

     total energy              =    -584.17785898 Ry
     Harris-Foulkes estimate   =    -584.32338777 Ry
     estimated scf accuracy    <       2.08490807 Ry

[...]

     total energy              =    -584.04167120 Ry
     Harris-Foulkes estimate   =    -584.04167024 Ry
     estimated scf accuracy    <          9.9E-09 Ry

     iteration # 18     ecut=    58.80 Ry     beta=0.10
     Davidson diagonalization with overlap
     ethr =  1.97E-11,  avg # of iterations =  1.0

     End of self-consistent calculation

          k = 0.0000 0.0000 0.0000 (  3911 PWs)   bands (ev):

   -83.0769 -46.3713 -46.3713 -46.3713 -38.3013 -38.1497 -38.1497 -17.1133
   -17.1133 -17.1133 -16.7428 -16.7428 -16.7428 -16.5792 -16.5792 -16.5792
     5.5509   8.7778   9.1716   9.1716   9.7256   9.7256   9.7256  11.6897
    11.6897  11.6897  12.3467  12.3467  13.8522  13.8522  13.8522  14.4005
    14.4005  14.4005  15.0942  15.0942  15.8030  16.0490  16.0490  16.0490
    20.0372  21.2746  21.2747  21.2858  21.2858

[...]

          k = 0.0978-0.1174-0.1174 (  3964 PWs)   bands (ev):

[...]

          k =-0.1174-0.1174-0.1174 (  3912 PWs)   bands (ev):

   -83.0769 -46.3714 -46.3714 -46.3714 -38.1989 -38.1989 -38.1989 -17.3407
   -17.0381 -17.0381 -17.0381 -16.6215 -16.6215 -16.5655 -16.5655 -16.5655
     8.3984   9.1450   9.1450   9.1450  10.5712  10.5712  11.3524  11.3524
    11.3524  11.8118  11.8118  11.8118  12.1035  12.7957  12.7957  12.7957
    14.1948  14.1948  14.1948  14.7695  14.7695  15.7716  15.7716  15.7716
    17.8145  19.2885  19.2885  19.2885  24.9725

     the Fermi energy is    11.3203 ev

!    total energy              =    -584.04168035 Ry
     Harris-Foulkes estimate   =    -584.04167120 Ry
     estimated scf accuracy    <          9.8E-11 Ry

     The total energy is the sum of the following terms:

     one-electron contribution =    -322.71358182 Ry
     hartree contribution      =     177.80408029 Ry
     xc contribution           =     -75.54011373 Ry
     ewald contribution        =    -363.57652940 Ry
     smearing contrib. (-TS)   =      -0.01553569 Ry

     convergence has been achieved in  18 iterations

     Forces acting on atoms (Ry/au):

     atom    1 type  1   force =     0.00000000    0.00000000   -0.00000000
     atom    2 type  1   force =     0.00000000    0.00000000    0.00000000
     atom    3 type  1   force =     0.00000000    0.00000000    0.00000000
     atom    4 type  2   force =     0.00000000   -0.00000000    0.00000000

     Total force =     0.000000     Total SCF correction =     0.000000
 !ASE

     General routines

     Parallel routines

   This run was terminated on:  17: 2:50  31Oct2017

   JOB DONE.