     Program PWSCF v.5.1rc2 (svn rev. ) starts on 25Oct2017 at 22:15:29

     Current dimensions of program PWSCF are:
     Max number of different atomic species (ntypx) = 10
     Max number of k-points (npk) =  40000
     Max angular momentum in pseudopotentials (lmaxx) =  3

     IMPORTANT: XC functional enforced from input :
     Exchange-correlation      = BEEF-VDW ( 1  4 27 13 2)
     Any further DFT definition will be discarded
     Please, verify this is what you really want

     Subspace diagonalization in iterative solution of the eigenvalue problem:
     a serial algorithm will be used

     bravais-lattice index     =            0
     lattice parameter (alat)  =       1.8897  a.u.
     unit-cell volume          =     598.9884 (a.u.)^3
     number of atoms/cell      =            4
     number of atomic types    =            2
     number of electrons       =        52.00
     number of Kohn-Sham states=           46
     kinetic-energy cutoff     =      58.7989  Ry
     charge density cutoff     =     587.9892  Ry
     convergence threshold     =      7.3E-09
     mixing beta               =       0.1000
     number of iterations used =           10  local-TF  mixing
     Exchange-correlation      = BEEF-VDW ( 1  4 27 13 2)
     nstep                     =           50

     celldm(1)=   1.889726  celldm(2)=   0.000000  celldm(3)=   0.000000
     celldm(4)=   0.000000  celldm(5)=   0.000000  celldm(6)=   0.000000

     crystal axes: (cart. coord. in units of alat)
               a(1) = (   4.460744   0.000000   0.000000 )
               a(2) = (   0.000000   4.460744   0.000000 )
               a(3) = (   0.000000   0.000000   4.460744 )

     reciprocal axes: (cart. coord. in units 2 pi/alat)
               b(1) = (  0.224178  0.000000  0.000000 )
               b(2) = (  0.000000  0.224178  0.000000 )
               b(3) = (  0.000000  0.000000  0.224178 )

     PseudoPot. # 1 for Sc read from file:
     /home/vossj/suncat/psp/gbrv1.5pbe/Sc.UPF
     MD5 check sum: db30a2753ba66ef00f23801d899b7e7f
     Pseudo is Ultrasoft + core correction, Zval = 11.0
     Generated by new atomic code, or converted to UPF format
     Using radial grid of  849 points,  6 beta functions with:
                l(1) =   0
                l(2) =   0
                l(3) =   1
                l(4) =   1
                l(5) =   2
                l(6) =   2
     Q(r) pseudized with  6 coefficients,  rinner =    1.200   1.200   1.200
                                                       1.200   1.200

     PseudoPot. # 2 for Ag read from file:
     /home/vossj/suncat/psp/gbrv1.5pbe/Ag.UPF
     MD5 check sum: d66d668201baa78d5eb5b04ef7011058
     Pseudo is Ultrasoft + core correction, Zval = 19.0
     Generated by new atomic code, or converted to UPF format
     Using radial grid of  887 points,  6 beta functions with:
                l(1) =   0
                l(2) =   0
                l(3) =   1
                l(4) =   1
                l(5) =   2
                l(6) =   2
     Q(r) pseudized with  6 coefficients,  rinner =    1.300   1.300   1.300
                                                       1.300   1.300

     vdW kernel table read from file vdW_kernel_table
     MD5 check sum: 095c7af220d748ca6e76c0b4c6cfb241

     atomic species   valence    mass     pseudopotential
        Sc1           11.00    44.95591     Sc( 1.00)
        Ag1           19.00   107.86820     Ag( 1.00)

     48 Sym. Ops., with inversion, found (32 have fractional translation)

   Cartesian axes

     site n.     atom                  positions (alat units)
         1           Sc1 tau(   1) = (   0.0000000   0.0000000   0.0000000  )
         2           Sc1 tau(   2) = (   0.0000000   2.2303718   2.2303718  )
         3           Sc1 tau(   3) = (   2.2303718   0.0000000   2.2303718  )
         4           Ag1 tau(   4) = (   2.2303718   2.2303718   0.0000000  )

     number of k points=    84  Fermi-Dirac smearing, width (Ry)=  0.0073
                       cart. coord. in units 2pi/alat
        k(    1) = (   0.0000000   0.0000000   0.0000000), wk =   0.0011574
        k(    2) = (   0.0000000   0.0000000   0.0186815), wk =   0.0069444
        k(    3) = (   0.0000000   0.0000000   0.0373630), wk =   0.0069444
        k(    4) = (   0.0000000   0.0000000   0.0560445), wk =   0.0069444
        k(    5) = (   0.0000000   0.0000000   0.0747260), wk =   0.0069444
        k(    6) = (   0.0000000   0.0000000   0.0934074), wk =   0.0069444
        k(    7) = (   0.0000000   0.0000000  -0.1120889), wk =   0.0034722
        k(    8) = (   0.0000000   0.0186815   0.0186815), wk =   0.0138889
        k(    9) = (   0.0000000   0.0186815   0.0373630), wk =   0.0277778
        k(   10) = (   0.0000000   0.0186815   0.0560445), wk =   0.0277778
        k(   11) = (   0.0000000   0.0186815   0.0747260), wk =   0.0277778
        k(   12) = (   0.0000000   0.0186815   0.0934074), wk =   0.0277778
        k(   13) = (   0.0000000   0.0186815  -0.1120889), wk =   0.0138889
        k(   14) = (   0.0000000   0.0373630   0.0373630), wk =   0.0138889
        k(   15) = (   0.0000000   0.0373630   0.0560445), wk =   0.0277778
        k(   16) = (   0.0000000   0.0373630   0.0747260), wk =   0.0277778
        k(   17) = (   0.0000000   0.0373630   0.0934074), wk =   0.0277778
        k(   18) = (   0.0000000   0.0373630  -0.1120889), wk =   0.0138889
        k(   19) = (   0.0000000   0.0560445   0.0560445), wk =   0.0138889
        k(   20) = (   0.0000000   0.0560445   0.0747260), wk =   0.0277778
        k(   21) = (   0.0000000   0.0560445   0.0934074), wk =   0.0277778
        k(   22) = (   0.0000000   0.0560445  -0.1120889), wk =   0.0138889
        k(   23) = (   0.0000000   0.0747260   0.0747260), wk =   0.0138889
        k(   24) = (   0.0000000   0.0747260   0.0934074), wk =   0.0277778
        k(   25) = (   0.0000000   0.0747260  -0.1120889), wk =   0.0138889
        k(   26) = (   0.0000000   0.0934074   0.0934074), wk =   0.0138889
        k(   27) = (   0.0000000   0.0934074  -0.1120889), wk =   0.0138889
        k(   28) = (   0.0000000  -0.1120889  -0.1120889), wk =   0.0034722
        k(   29) = (   0.0186815   0.0186815   0.0186815), wk =   0.0092593
        k(   30) = (   0.0186815   0.0186815   0.0373630), wk =   0.0277778
        k(   31) = (   0.0186815   0.0186815   0.0560445), wk =   0.0277778
        k(   32) = (   0.0186815   0.0186815   0.0747260), wk =   0.0277778
        k(   33) = (   0.0186815   0.0186815   0.0934074), wk =   0.0277778
        k(   34) = (   0.0186815   0.0186815  -0.1120889), wk =   0.0138889
        k(   35) = (   0.0186815   0.0373630   0.0373630), wk =   0.0277778
        k(   36) = (   0.0186815   0.0373630   0.0560445), wk =   0.0555556
        k(   37) = (   0.0186815   0.0373630   0.0747260), wk =   0.0555556
        k(   38) = (   0.0186815   0.0373630   0.0934074), wk =   0.0555556
        k(   39) = (   0.0186815   0.0373630  -0.1120889), wk =   0.0277778
        k(   40) = (   0.0186815   0.0560445   0.0560445), wk =   0.0277778
        k(   41) = (   0.0186815   0.0560445   0.0747260), wk =   0.0555556
        k(   42) = (   0.0186815   0.0560445   0.0934074), wk =   0.0555556
        k(   43) = (   0.0186815   0.0560445  -0.1120889), wk =   0.0277778
        k(   44) = (   0.0186815   0.0747260   0.0747260), wk =   0.0277778
        k(   45) = (   0.0186815   0.0747260   0.0934074), wk =   0.0555556
        k(   46) = (   0.0186815   0.0747260  -0.1120889), wk =   0.0277778
        k(   47) = (   0.0186815   0.0934074   0.0934074), wk =   0.0277778
        k(   48) = (   0.0186815   0.0934074  -0.1120889), wk =   0.0277778
        k(   49) = (   0.0186815  -0.1120889  -0.1120889), wk =   0.0069444
        k(   50) = (   0.0373630   0.0373630   0.0373630), wk =   0.0092593
        k(   51) = (   0.0373630   0.0373630   0.0560445), wk =   0.0277778
        k(   52) = (   0.0373630   0.0373630   0.0747260), wk =   0.0277778
        k(   53) = (   0.0373630   0.0373630   0.0934074), wk =   0.0277778
        k(   54) = (   0.0373630   0.0373630  -0.1120889), wk =   0.0138889
        k(   55) = (   0.0373630   0.0560445   0.0560445), wk =   0.0277778
        k(   56) = (   0.0373630   0.0560445   0.0747260), wk =   0.0555556
        k(   57) = (   0.0373630   0.0560445   0.0934074), wk =   0.0555556
        k(   58) = (   0.0373630   0.0560445  -0.1120889), wk =   0.0277778
        k(   59) = (   0.0373630   0.0747260   0.0747260), wk =   0.0277778
        k(   60) = (   0.0373630   0.0747260   0.0934074), wk =   0.0555556
[...]
        k(   70) = (   0.0560445   0.0747260   0.0934074), wk =   0.0555556
        k(   71) = (   0.0560445   0.0747260  -0.1120889), wk =   0.0277778
        k(   72) = (   0.0560445   0.0934074   0.0934074), wk =   0.0277778
        k(   73) = (   0.0560445   0.0934074  -0.1120889), wk =   0.0277778
        k(   74) = (   0.0560445  -0.1120889  -0.1120889), wk =   0.0069444
        k(   75) = (   0.0747260   0.0747260   0.0747260), wk =   0.0092593
        k(   76) = (   0.0747260   0.0747260   0.0934074), wk =   0.0277778
        k(   77) = (   0.0747260   0.0747260  -0.1120889), wk =   0.0138889
        k(   78) = (   0.0747260   0.0934074   0.0934074), wk =   0.0277778
        k(   79) = (   0.0747260   0.0934074  -0.1120889), wk =   0.0277778
        k(   80) = (   0.0747260  -0.1120889  -0.1120889), wk =   0.0069444
        k(   81) = (   0.0934074   0.0934074   0.0934074), wk =   0.0092593
        k(   82) = (   0.0934074   0.0934074  -0.1120889), wk =   0.0138889
        k(   83) = (   0.0934074  -0.1120889  -0.1120889), wk =   0.0069444
        k(   84) = (  -0.1120889  -0.1120889  -0.1120889), wk =   0.0011574

     Largest allocated arrays     est. size (Mb)     dimensions
     Largest temporary arrays     est. size (Mb)     dimensions

     Initial potential from superposition of free atoms

     starting charge   51.49275, renormalised to   52.00000

     *
     * You are using vdW-DF for exchange-correlation in this calculation.
     * Please cite the following three references that made this development
     * possible:
     *
     *   M. Dion, H. Rydberg, E. Schroder, D. C. Langreth, and
     *   B. I. Lundqvist, Phys. Rev. Lett. 92, 246401 (2004).
     *
     *   T. Thonhauser, V. R. Cooper, S. Li, A. Puzder, P. Hyldgaard, and
     *   D. C. Langreth, Phys. Rev. B 76, 125112 (2007).
     *
     *   G. Roman-Perez and J. M. Soler, Phys. Rev. Lett. 103, 096102 (2009).
     *
     *
     * If you are using vdW-DF2, please also cite:
     *
     *   K. Lee, E. D. Murray, L. Kong, B. I. Lundqvist, and
     *   D. C. Langreth, Phys. Rev. B 82, 081101(R) (2010).
     *
     *
     * If you are calculating the stress with vdW-DF, please also cite:
     *
     *   R. Sabatini, E. Kucukbenli, B. Kolb, T. Thonhauser, and
     *   S. de Gironcoli, J. Phys.: Condens. Matter 24, 424209 (2012).
     *

     Carrying out vdW-DF run using the following parameters:

     Nqs =      20    Nr_points =    1024   r_max =   100.000
     q_mesh =
               0.00001000     0.04494208     0.09755937     0.15916263
               0.23128650     0.31572767     0.41458969     0.53033537
               0.66584808     0.82450364     1.01025438     1.22772762
               1.48234092     1.78043706     2.12944203     2.53805004
               3.01644009     3.57652955     4.23227104     5.00000000

     Gradients computed in reciprocal space

     Starting wfc are   52 randomized atomic wfcs

     Self-consistent Calculation

     iteration #  1     ecut=    58.80 Ry     beta=0.10
     Davidson diagonalization with overlap
     ethr =  1.00E-02,  avg # of iterations =  3.7

     total energy              =    -581.31770744 Ry
     Harris-Foulkes estimate   =    -581.38499947 Ry
     estimated scf accuracy    <       1.28967045 Ry

[...]

     total energy              =    -581.18853975 Ry
     Harris-Foulkes estimate   =    -581.18853955 Ry
     estimated scf accuracy    <       0.00000002 Ry

     iteration # 15     ecut=    58.80 Ry     beta=0.10
     Davidson diagonalization with overlap
     ethr =  4.77E-11,  avg # of iterations =  1.9

     End of self-consistent calculation

          k = 0.0000 0.0000 0.0000 (  4553 PWs)   bands (ev):

   -81.5056 -44.9562 -44.9562 -44.9562 -38.9013 -38.8144 -38.8144 -17.6242
   -17.6242 -17.6242 -17.4076 -17.4076 -17.4076 -17.2737 -17.2737 -17.2737
     5.1792   6.0039   6.0039   6.2181   6.2181   6.2181   8.7841  10.9431
    10.9431  10.9431  11.1100  11.1100  12.9031  12.9031  12.9031  13.5231
    13.5231  13.5231  14.2402  14.2402  14.7947  15.0283  15.0283  15.0283
    18.3603  19.6005  19.6005  20.0080  20.0080  20.0080

[...]

          k = 0.0934-0.1121-0.1121 (  4592 PWs)   bands (ev):

[...]

          k =-0.1121-0.1121-0.1121 (  4632 PWs)   bands (ev):

   -81.5057 -44.9565 -44.9565 -44.9565 -38.8428 -38.8428 -38.8428 -17.7431
   -17.5962 -17.5962 -17.5962 -17.2911 -17.2911 -17.2911 -17.2803 -17.2803
     6.0413   6.0413   6.0413   6.4928   6.4928   8.0219  10.1791  10.1791
    10.1791  11.0621  11.0621  11.0621  11.3327  12.2581  12.2581  12.2581
    13.3938  13.3938  13.3938  13.8622  13.8622  14.7861  14.7861  14.7861
    16.4113  17.6870  17.6870  17.6870  23.5446  23.6829

     the Fermi energy is    10.9819 ev

!    total energy              =    -581.18856045 Ry
     Harris-Foulkes estimate   =    -581.18853975 Ry
     estimated scf accuracy    <          1.0E-09 Ry

     The total energy is the sum of the following terms:

     one-electron contribution =    -285.53132707 Ry
     hartree contribution      =     156.61938255 Ry
     xc contribution           =     -71.74138076 Ry
     ewald contribution        =    -380.51653301 Ry
     smearing contrib. (-TS)   =      -0.01870216 Ry

     convergence has been achieved in  15 iterations

     Forces acting on atoms (Ry/au):

     atom    1 type  1   force =     0.00000000    0.00000000    0.00000000
     atom    2 type  1   force =     0.00000000    0.00000000    0.00000000
     atom    3 type  1   force =     0.00000000   -0.00000000   -0.00000000
     atom    4 type  2   force =     0.00000000   -0.00000000    0.00000000

     Total force =     0.000000     Total SCF correction =     0.000000
 !ASE

     General routines

     Parallel routines

   This run was terminated on:  22:16:40  25Oct2017

   JOB DONE.