     Program PWSCF v.5.1rc2 (svn rev. ) starts on 17Feb2018 at 12:54:22

     Current dimensions of program PWSCF are:
     Max number of different atomic species (ntypx) = 10
     Max number of k-points (npk) =  40000
     Max angular momentum in pseudopotentials (lmaxx) =  3

     IMPORTANT: XC functional enforced from input :
     Exchange-correlation      = BEEF-VDW ( 1  4 27 13 2)
     Any further DFT definition will be discarded
     Please, verify this is what you really want

     Subspace diagonalization in iterative solution of the eigenvalue problem:
     a serial algorithm will be used

     bravais-lattice index     =            0
     lattice parameter (alat)  =       1.8897  a.u.
     unit-cell volume          =     785.4643 (a.u.)^3
     number of atoms/cell      =            4
     number of atomic types    =            2
     number of electrons       =        56.00
     number of Kohn-Sham states=           48
     kinetic-energy cutoff     =      58.7989  Ry
     charge density cutoff     =     587.9892  Ry
     convergence threshold     =      7.3E-09
     mixing beta               =       0.1000
     number of iterations used =           10  local-TF  mixing
     Exchange-correlation      = BEEF-VDW ( 1  4 27 13 2)
     nstep                     =           50

     celldm(1)=   1.889726  celldm(2)=   0.000000  celldm(3)=   0.000000
     celldm(4)=   0.000000  celldm(5)=   0.000000  celldm(6)=   0.000000

     crystal axes: (cart. coord. in units of alat)
               a(1) = (   4.882512   0.000000   0.000000 )
               a(2) = (   0.000000   4.882512   0.000000 )
               a(3) = (   0.000000   0.000000   4.882512 )

     reciprocal axes: (cart. coord. in units 2 pi/alat)
               b(1) = (  0.204813  0.000000  0.000000 )
               b(2) = (  0.000000  0.204813  0.000000 )
               b(3) = (  0.000000  0.000000  0.204813 )

     PseudoPot. # 1 for Bi read from file:
     /home/mamunm/src/pseudo/gbrv1.5pbe/Bi.UPF
     MD5 check sum: 81103212dc04adf40945787f699eab19
     Pseudo is Ultrasoft + core correction, Zval = 15.0
     Generated by new atomic code, or converted to UPF format
     Using radial grid of  899 points,  6 beta functions with:
                l(1) =   0
                l(2) =   0
                l(3) =   1
                l(4) =   1
                l(5) =   2
                l(6) =   2
     Q(r) pseudized with  6 coefficients,  rinner =    1.000   1.000   1.000
                                                       1.000   1.000

     PseudoPot. # 2 for Au read from file:
     /home/mamunm/src/pseudo/gbrv1.5pbe/Au.UPF
     MD5 check sum: 9d7f43293ad2c663164586bc4b293ffc
     Pseudo is Ultrasoft + core correction, Zval = 11.0
     Generated by new atomic code, or converted to UPF format
     Using radial grid of  985 points,  7 beta functions with:
                l(1) =   0
                l(2) =   0
                l(3) =   1
                l(4) =   1
                l(5) =   2
                l(6) =   2
                l(7) =   3
     Q(r) pseudized with  6 coefficients,  rinner =    1.900   1.900   1.900
                                                       1.900   1.900   1.900
                                                       1.900

     vdW kernel table read from file vdW_kernel_table
     MD5 check sum: 095c7af220d748ca6e76c0b4c6cfb241

     atomic species   valence    mass     pseudopotential
        Bi1           15.00   208.98040     Bi( 1.00)
        Au1           11.00   196.96657     Au( 1.00)

     48 Sym. Ops., with inversion, found (32 have fractional translation)

   Cartesian axes

     site n.     atom                  positions (alat units)
         1           Bi1 tau(   1) = (   0.0000000   0.0000000   0.0000000  )
         2           Bi1 tau(   2) = (   0.0000000   2.4412558   2.4412558  )
         3           Bi1 tau(   3) = (   2.4412558   0.0000000   2.4412558  )
         4           Au1 tau(   4) = (   2.4412558   2.4412558   0.0000000  )

     number of k points=    84  Fermi-Dirac smearing, width (Ry)=  0.0073
                       cart. coord. in units 2pi/alat
        k(    1) = (   0.0000000   0.0000000   0.0000000), wk =   0.0011574
        k(    2) = (   0.0000000   0.0000000   0.0170677), wk =   0.0069444
        k(    3) = (   0.0000000   0.0000000   0.0341354), wk =   0.0069444
        k(    4) = (   0.0000000   0.0000000   0.0512032), wk =   0.0069444
        k(    5) = (   0.0000000   0.0000000   0.0682709), wk =   0.0069444
        k(    6) = (   0.0000000   0.0000000   0.0853386), wk =   0.0069444
        k(    7) = (   0.0000000   0.0000000  -0.1024063), wk =   0.0034722
        k(    8) = (   0.0000000   0.0170677   0.0170677), wk =   0.0138889
        k(    9) = (   0.0000000   0.0170677   0.0341354), wk =   0.0277778
        k(   10) = (   0.0000000   0.0170677   0.0512032), wk =   0.0277778
        k(   11) = (   0.0000000   0.0170677   0.0682709), wk =   0.0277778
        k(   12) = (   0.0000000   0.0170677   0.0853386), wk =   0.0277778
        k(   13) = (   0.0000000   0.0170677  -0.1024063), wk =   0.0138889
        k(   14) = (   0.0000000   0.0341354   0.0341354), wk =   0.0138889
        k(   15) = (   0.0000000   0.0341354   0.0512032), wk =   0.0277778
        k(   16) = (   0.0000000   0.0341354   0.0682709), wk =   0.0277778
        k(   17) = (   0.0000000   0.0341354   0.0853386), wk =   0.0277778
        k(   18) = (   0.0000000   0.0341354  -0.1024063), wk =   0.0138889
        k(   19) = (   0.0000000   0.0512032   0.0512032), wk =   0.0138889
        k(   20) = (   0.0000000   0.0512032   0.0682709), wk =   0.0277778
        k(   21) = (   0.0000000   0.0512032   0.0853386), wk =   0.0277778
        k(   22) = (   0.0000000   0.0512032  -0.1024063), wk =   0.0138889
        k(   23) = (   0.0000000   0.0682709   0.0682709), wk =   0.0138889
        k(   24) = (   0.0000000   0.0682709   0.0853386), wk =   0.0277778
        k(   25) = (   0.0000000   0.0682709  -0.1024063), wk =   0.0138889
        k(   26) = (   0.0000000   0.0853386   0.0853386), wk =   0.0138889
        k(   27) = (   0.0000000   0.0853386  -0.1024063), wk =   0.0138889
        k(   28) = (   0.0000000  -0.1024063  -0.1024063), wk =   0.0034722
        k(   29) = (   0.0170677   0.0170677   0.0170677), wk =   0.0092593
        k(   30) = (   0.0170677   0.0170677   0.0341354), wk =   0.0277778
        k(   31) = (   0.0170677   0.0170677   0.0512032), wk =   0.0277778
        k(   32) = (   0.0170677   0.0170677   0.0682709), wk =   0.0277778
        k(   33) = (   0.0170677   0.0170677   0.0853386), wk =   0.0277778
        k(   34) = (   0.0170677   0.0170677  -0.1024063), wk =   0.0138889
        k(   35) = (   0.0170677   0.0341354   0.0341354), wk =   0.0277778
        k(   36) = (   0.0170677   0.0341354   0.0512032), wk =   0.0555556
        k(   37) = (   0.0170677   0.0341354   0.0682709), wk =   0.0555556
        k(   38) = (   0.0170677   0.0341354   0.0853386), wk =   0.0555556
        k(   39) = (   0.0170677   0.0341354  -0.1024063), wk =   0.0277778
        k(   40) = (   0.0170677   0.0512032   0.0512032), wk =   0.0277778
        k(   41) = (   0.0170677   0.0512032   0.0682709), wk =   0.0555556
        k(   42) = (   0.0170677   0.0512032   0.0853386), wk =   0.0555556
        k(   43) = (   0.0170677   0.0512032  -0.1024063), wk =   0.0277778
        k(   44) = (   0.0170677   0.0682709   0.0682709), wk =   0.0277778
        k(   45) = (   0.0170677   0.0682709   0.0853386), wk =   0.0555556
        k(   46) = (   0.0170677   0.0682709  -0.1024063), wk =   0.0277778
        k(   47) = (   0.0170677   0.0853386   0.0853386), wk =   0.0277778
        k(   48) = (   0.0170677   0.0853386  -0.1024063), wk =   0.0277778
        k(   49) = (   0.0170677  -0.1024063  -0.1024063), wk =   0.0069444
        k(   50) = (   0.0341354   0.0341354   0.0341354), wk =   0.0092593
        k(   51) = (   0.0341354   0.0341354   0.0512032), wk =   0.0277778
        k(   52) = (   0.0341354   0.0341354   0.0682709), wk =   0.0277778
        k(   53) = (   0.0341354   0.0341354   0.0853386), wk =   0.0277778
        k(   54) = (   0.0341354   0.0341354  -0.1024063), wk =   0.0138889
        k(   55) = (   0.0341354   0.0512032   0.0512032), wk =   0.0277778
        k(   56) = (   0.0341354   0.0512032   0.0682709), wk =   0.0555556
        k(   57) = (   0.0341354   0.0512032   0.0853386), wk =   0.0555556
        k(   58) = (   0.0341354   0.0512032  -0.1024063), wk =   0.0277778
        k(   59) = (   0.0341354   0.0682709   0.0682709), wk =   0.0277778
        k(   60) = (   0.0341354   0.0682709   0.0853386), wk =   0.0555556
[...]
        k(   70) = (   0.0512032   0.0682709   0.0853386), wk =   0.0555556
        k(   71) = (   0.0512032   0.0682709  -0.1024063), wk =   0.0277778
        k(   72) = (   0.0512032   0.0853386   0.0853386), wk =   0.0277778
        k(   73) = (   0.0512032   0.0853386  -0.1024063), wk =   0.0277778
        k(   74) = (   0.0512032  -0.1024063  -0.1024063), wk =   0.0069444
        k(   75) = (   0.0682709   0.0682709   0.0682709), wk =   0.0092593
        k(   76) = (   0.0682709   0.0682709   0.0853386), wk =   0.0277778
        k(   77) = (   0.0682709   0.0682709  -0.1024063), wk =   0.0138889
        k(   78) = (   0.0682709   0.0853386   0.0853386), wk =   0.0277778
        k(   79) = (   0.0682709   0.0853386  -0.1024063), wk =   0.0277778
        k(   80) = (   0.0682709  -0.1024063  -0.1024063), wk =   0.0069444
        k(   81) = (   0.0853386   0.0853386   0.0853386), wk =   0.0092593
        k(   82) = (   0.0853386   0.0853386  -0.1024063), wk =   0.0138889
        k(   83) = (   0.0853386  -0.1024063  -0.1024063), wk =   0.0069444
        k(   84) = (  -0.1024063  -0.1024063  -0.1024063), wk =   0.0011574

     Largest allocated arrays     est. size (Mb)     dimensions
     Largest temporary arrays     est. size (Mb)     dimensions

     Initial potential from superposition of free atoms
     Check: negative starting charge=   -0.127748

     starting charge   52.99975, renormalised to   56.00000

     negative rho (up, down):  1.350E-01 0.000E+00

     *
     * You are using vdW-DF for exchange-correlation in this calculation.
     * Please cite the following three references that made this development
     * possible:
     *
     *   M. Dion, H. Rydberg, E. Schroder, D. C. Langreth, and
     *   B. I. Lundqvist, Phys. Rev. Lett. 92, 246401 (2004).
     *
     *   T. Thonhauser, V. R. Cooper, S. Li, A. Puzder, P. Hyldgaard, and
     *   D. C. Langreth, Phys. Rev. B 76, 125112 (2007).
     *
     *   G. Roman-Perez and J. M. Soler, Phys. Rev. Lett. 103, 096102 (2009).
     *
     *
     * If you are using vdW-DF2, please also cite:
     *
     *   K. Lee, E. D. Murray, L. Kong, B. I. Lundqvist, and
     *   D. C. Langreth, Phys. Rev. B 82, 081101(R) (2010).
     *
     *
     * If you are calculating the stress with vdW-DF, please also cite:
     *
     *   R. Sabatini, E. Kucukbenli, B. Kolb, T. Thonhauser, and
     *   S. de Gironcoli, J. Phys.: Condens. Matter 24, 424209 (2012).
     *

     Carrying out vdW-DF run using the following parameters:

     Nqs =      20    Nr_points =    1024   r_max =   100.000
     q_mesh =
               0.00001000     0.04494208     0.09755937     0.15916263
               0.23128650     0.31572767     0.41458969     0.53033537
               0.66584808     0.82450364     1.01025438     1.22772762
               1.48234092     1.78043706     2.12944203     2.53805004
               3.01644009     3.57652955     4.23227104     5.00000000

     Gradients computed in reciprocal space

     Starting wfc are   36 randomized atomic wfcs +   12 random wfc

     Self-consistent Calculation

     iteration #  1     ecut=    58.80 Ry     beta=0.10
     Davidson diagonalization with overlap
     ethr =  1.00E-02,  avg # of iterations =  5.7

[...]

     total energy              =    -678.81032731 Ry
     Harris-Foulkes estimate   =    -678.97629131 Ry
     estimated scf accuracy    <       2.50623618 Ry

[...]

     total energy              =    -678.20356700 Ry
     Harris-Foulkes estimate   =    -678.20354516 Ry
     estimated scf accuracy    <       0.00000002 Ry

     iteration # 16     ecut=    58.80 Ry     beta=0.10
     Davidson diagonalization with overlap
     ethr =  3.19E-11,  avg # of iterations =  2.0

     negative rho (up, down):  1.337E-01 0.000E+00

     End of self-consistent calculation

          k = 0.0000 0.0000 0.0000 (  6031 PWs)   bands (ev):

   -12.1884 -12.1882 -12.1882 -12.1446 -12.1327 -12.1324 -12.0653 -12.0653
   -12.0649 -12.0016 -12.0013 -12.0008 -11.9448 -11.9446 -11.9446  -1.7588
     1.9139   1.9141   7.6724   7.6724   7.6725   7.7896   7.7896   7.7896
     7.8771   7.8771   9.6427  12.2782  12.2783  12.2783  14.0643  14.0643
    14.0644  16.8660  17.7085  17.7085  18.3980  18.3980  18.3980  20.0976
    20.0977  20.0977  21.6693  24.1852  24.7758  24.7758  24.7758  26.5161

[...]

          k = 0.0853-0.1024-0.1024 (  5956 PWs)   bands (ev):

[...]

          k =-0.1024-0.1024-0.1024 (  6008 PWs)   bands (ev):

   -12.1415 -12.1415 -12.1413 -12.1299 -12.1244 -12.1244 -12.1244 -12.0482
   -12.0479 -12.0167 -12.0167 -12.0164 -11.9769 -11.9769 -11.9769   0.6715
     0.6715   0.6718   5.9830   7.2455   7.2456   7.2456   7.9181   7.9181
     8.0252   8.0252   8.0253   8.9151  15.2409  15.2411  15.5333  15.5335
    15.5335  19.9071  19.9072  19.9072  20.2502  20.2502  20.2502  20.7852
    21.5308  21.5308  21.5308  22.0206  22.0206  22.0207  23.4703  23.4704

     the Fermi energy is    11.4740 ev

!    total energy              =    -678.20365974 Ry
     Harris-Foulkes estimate   =    -678.20356686 Ry
     estimated scf accuracy    <          2.8E-09 Ry

     The total energy is the sum of the following terms:

     one-electron contribution =    -129.22242006 Ry
     hartree contribution      =     107.28377007 Ry
     xc contribution           =    -263.74350280 Ry
     ewald contribution        =    -392.51570569 Ry
     smearing contrib. (-TS)   =      -0.00580125 Ry

     convergence has been achieved in  16 iterations

     Forces acting on atoms (Ry/au):

     negative rho (up, down):  1.337E-01 0.000E+00
     atom    1 type  1   force =     0.00000000    0.00000000    0.00000000
     atom    2 type  1   force =     0.00000000    0.00000000   -0.00000000
     atom    3 type  1   force =     0.00000000    0.00000000    0.00000000
     atom    4 type  2   force =     0.00000000    0.00000000    0.00000000

     Total force =     0.000000     Total SCF correction =     0.000000
 !ASE

     General routines

     Parallel routines

   This run was terminated on:  12:56: 9  17Feb2018

   JOB DONE.