     Program PWSCF v.5.1rc2 (svn rev. ) starts on 18Feb2018 at 16:12:37

     Current dimensions of program PWSCF are:
     Max number of different atomic species (ntypx) = 10
     Max number of k-points (npk) =  40000
     Max angular momentum in pseudopotentials (lmaxx) =  3

     IMPORTANT: XC functional enforced from input :
     Exchange-correlation      = BEEF-VDW ( 1  4 27 13 2)
     Any further DFT definition will be discarded
     Please, verify this is what you really want

     Subspace diagonalization in iterative solution of the eigenvalue problem:
     a serial algorithm will be used

     bravais-lattice index     =            0
     lattice parameter (alat)  =       1.8897  a.u.
     unit-cell volume          =     786.7167 (a.u.)^3
     number of atoms/cell      =            4
     number of atomic types    =            2
     number of electrons       =        57.00
     number of Kohn-Sham states=           48
     kinetic-energy cutoff     =      58.7989  Ry
     charge density cutoff     =     587.9892  Ry
     convergence threshold     =      7.3E-09
     mixing beta               =       0.1000
     number of iterations used =           10  local-TF  mixing
     Exchange-correlation      = BEEF-VDW ( 1  4 27 13 2)
     nstep                     =           50

     celldm(1)=   1.889726  celldm(2)=   0.000000  celldm(3)=   0.000000
     celldm(4)=   0.000000  celldm(5)=   0.000000  celldm(6)=   0.000000

     crystal axes: (cart. coord. in units of alat)
               a(1) = (   4.885105   0.000000   0.000000 )
               a(2) = (   0.000000   4.885105   0.000000 )
               a(3) = (   0.000000   0.000000   4.885105 )

     reciprocal axes: (cart. coord. in units 2 pi/alat)
               b(1) = (  0.204704  0.000000  0.000000 )
               b(2) = (  0.000000  0.204704  0.000000 )
               b(3) = (  0.000000  0.000000  0.204704 )

     PseudoPot. # 1 for Bi read from file:
     /home/mamunm/src/pseudo/gbrv1.5pbe/Bi.UPF
     MD5 check sum: 81103212dc04adf40945787f699eab19
     Pseudo is Ultrasoft + core correction, Zval = 15.0
     Generated by new atomic code, or converted to UPF format
     Using radial grid of  899 points,  6 beta functions with:
                l(1) =   0
                l(2) =   0
                l(3) =   1
                l(4) =   1
                l(5) =   2
                l(6) =   2
     Q(r) pseudized with  6 coefficients,  rinner =    1.000   1.000   1.000
                                                       1.000   1.000

     PseudoPot. # 2 for Zr read from file:
     /home/mamunm/src/pseudo/gbrv1.5pbe/Zr.UPF
     MD5 check sum: 5db81b1e868ab7776c4564c113de050b
     Pseudo is Ultrasoft + core correction, Zval = 12.0
     Generated by new atomic code, or converted to UPF format
     Using radial grid of  887 points,  6 beta functions with:
                l(1) =   0
                l(2) =   0
                l(3) =   1
                l(4) =   1
                l(5) =   2
                l(6) =   2
     Q(r) pseudized with  6 coefficients,  rinner =    1.200   1.200   1.200
                                                       1.200   1.200

     vdW kernel table read from file vdW_kernel_table
     MD5 check sum: 095c7af220d748ca6e76c0b4c6cfb241

     atomic species   valence    mass     pseudopotential
        Bi1           15.00   208.98040     Bi( 1.00)
        Zr1           12.00    91.22400     Zr( 1.00)

     48 Sym. Ops., with inversion, found (32 have fractional translation)

   Cartesian axes

     site n.     atom                  positions (alat units)
         1           Bi1 tau(   1) = (   0.0000000   0.0000000   0.0000000  )
         2           Bi1 tau(   2) = (   0.0000000   2.4425526   2.4425526  )
         3           Bi1 tau(   3) = (   2.4425526   0.0000000   2.4425526  )
         4           Zr1 tau(   4) = (   2.4425526   2.4425526   0.0000000  )

     number of k points=    84  Fermi-Dirac smearing, width (Ry)=  0.0073
                       cart. coord. in units 2pi/alat
        k(    1) = (   0.0000000   0.0000000   0.0000000), wk =   0.0011574
        k(    2) = (   0.0000000   0.0000000   0.0170587), wk =   0.0069444
        k(    3) = (   0.0000000   0.0000000   0.0341173), wk =   0.0069444
        k(    4) = (   0.0000000   0.0000000   0.0511760), wk =   0.0069444
        k(    5) = (   0.0000000   0.0000000   0.0682346), wk =   0.0069444
        k(    6) = (   0.0000000   0.0000000   0.0852933), wk =   0.0069444
        k(    7) = (   0.0000000   0.0000000  -0.1023519), wk =   0.0034722
        k(    8) = (   0.0000000   0.0170587   0.0170587), wk =   0.0138889
        k(    9) = (   0.0000000   0.0170587   0.0341173), wk =   0.0277778
        k(   10) = (   0.0000000   0.0170587   0.0511760), wk =   0.0277778
        k(   11) = (   0.0000000   0.0170587   0.0682346), wk =   0.0277778
        k(   12) = (   0.0000000   0.0170587   0.0852933), wk =   0.0277778
        k(   13) = (   0.0000000   0.0170587  -0.1023519), wk =   0.0138889
        k(   14) = (   0.0000000   0.0341173   0.0341173), wk =   0.0138889
        k(   15) = (   0.0000000   0.0341173   0.0511760), wk =   0.0277778
        k(   16) = (   0.0000000   0.0341173   0.0682346), wk =   0.0277778
        k(   17) = (   0.0000000   0.0341173   0.0852933), wk =   0.0277778
        k(   18) = (   0.0000000   0.0341173  -0.1023519), wk =   0.0138889
        k(   19) = (   0.0000000   0.0511760   0.0511760), wk =   0.0138889
        k(   20) = (   0.0000000   0.0511760   0.0682346), wk =   0.0277778
        k(   21) = (   0.0000000   0.0511760   0.0852933), wk =   0.0277778
        k(   22) = (   0.0000000   0.0511760  -0.1023519), wk =   0.0138889
        k(   23) = (   0.0000000   0.0682346   0.0682346), wk =   0.0138889
        k(   24) = (   0.0000000   0.0682346   0.0852933), wk =   0.0277778
        k(   25) = (   0.0000000   0.0682346  -0.1023519), wk =   0.0138889
        k(   26) = (   0.0000000   0.0852933   0.0852933), wk =   0.0138889
        k(   27) = (   0.0000000   0.0852933  -0.1023519), wk =   0.0138889
        k(   28) = (   0.0000000  -0.1023519  -0.1023519), wk =   0.0034722
        k(   29) = (   0.0170587   0.0170587   0.0170587), wk =   0.0092593
        k(   30) = (   0.0170587   0.0170587   0.0341173), wk =   0.0277778
        k(   31) = (   0.0170587   0.0170587   0.0511760), wk =   0.0277778
        k(   32) = (   0.0170587   0.0170587   0.0682346), wk =   0.0277778
        k(   33) = (   0.0170587   0.0170587   0.0852933), wk =   0.0277778
        k(   34) = (   0.0170587   0.0170587  -0.1023519), wk =   0.0138889
        k(   35) = (   0.0170587   0.0341173   0.0341173), wk =   0.0277778
        k(   36) = (   0.0170587   0.0341173   0.0511760), wk =   0.0555556
        k(   37) = (   0.0170587   0.0341173   0.0682346), wk =   0.0555556
        k(   38) = (   0.0170587   0.0341173   0.0852933), wk =   0.0555556
        k(   39) = (   0.0170587   0.0341173  -0.1023519), wk =   0.0277778
        k(   40) = (   0.0170587   0.0511760   0.0511760), wk =   0.0277778
        k(   41) = (   0.0170587   0.0511760   0.0682346), wk =   0.0555556
        k(   42) = (   0.0170587   0.0511760   0.0852933), wk =   0.0555556
        k(   43) = (   0.0170587   0.0511760  -0.1023519), wk =   0.0277778
        k(   44) = (   0.0170587   0.0682346   0.0682346), wk =   0.0277778
        k(   45) = (   0.0170587   0.0682346   0.0852933), wk =   0.0555556
        k(   46) = (   0.0170587   0.0682346  -0.1023519), wk =   0.0277778
        k(   47) = (   0.0170587   0.0852933   0.0852933), wk =   0.0277778
        k(   48) = (   0.0170587   0.0852933  -0.1023519), wk =   0.0277778
        k(   49) = (   0.0170587  -0.1023519  -0.1023519), wk =   0.0069444
        k(   50) = (   0.0341173   0.0341173   0.0341173), wk =   0.0092593
        k(   51) = (   0.0341173   0.0341173   0.0511760), wk =   0.0277778
        k(   52) = (   0.0341173   0.0341173   0.0682346), wk =   0.0277778
        k(   53) = (   0.0341173   0.0341173   0.0852933), wk =   0.0277778
        k(   54) = (   0.0341173   0.0341173  -0.1023519), wk =   0.0138889
        k(   55) = (   0.0341173   0.0511760   0.0511760), wk =   0.0277778
        k(   56) = (   0.0341173   0.0511760   0.0682346), wk =   0.0555556
        k(   57) = (   0.0341173   0.0511760   0.0852933), wk =   0.0555556
        k(   58) = (   0.0341173   0.0511760  -0.1023519), wk =   0.0277778
        k(   59) = (   0.0341173   0.0682346   0.0682346), wk =   0.0277778
        k(   60) = (   0.0341173   0.0682346   0.0852933), wk =   0.0555556
[...]
        k(   70) = (   0.0511760   0.0682346   0.0852933), wk =   0.0555556
        k(   71) = (   0.0511760   0.0682346  -0.1023519), wk =   0.0277778
        k(   72) = (   0.0511760   0.0852933   0.0852933), wk =   0.0277778
        k(   73) = (   0.0511760   0.0852933  -0.1023519), wk =   0.0277778
        k(   74) = (   0.0511760  -0.1023519  -0.1023519), wk =   0.0069444
        k(   75) = (   0.0682346   0.0682346   0.0682346), wk =   0.0092593
        k(   76) = (   0.0682346   0.0682346   0.0852933), wk =   0.0277778
        k(   77) = (   0.0682346   0.0682346  -0.1023519), wk =   0.0138889
        k(   78) = (   0.0682346   0.0852933   0.0852933), wk =   0.0277778
        k(   79) = (   0.0682346   0.0852933  -0.1023519), wk =   0.0277778
        k(   80) = (   0.0682346  -0.1023519  -0.1023519), wk =   0.0069444
        k(   81) = (   0.0852933   0.0852933   0.0852933), wk =   0.0092593
        k(   82) = (   0.0852933   0.0852933  -0.1023519), wk =   0.0138889
        k(   83) = (   0.0852933  -0.1023519  -0.1023519), wk =   0.0069444
        k(   84) = (  -0.1023519  -0.1023519  -0.1023519), wk =   0.0011574

     Largest allocated arrays     est. size (Mb)     dimensions
     Largest temporary arrays     est. size (Mb)     dimensions

     Initial potential from superposition of free atoms
     Check: negative starting charge=   -0.188207

     starting charge   53.99773, renormalised to   57.00000

     negative rho (up, down):  1.987E-01 0.000E+00

     *
     * You are using vdW-DF for exchange-correlation in this calculation.
     * Please cite the following three references that made this development
     * possible:
     *
     *   M. Dion, H. Rydberg, E. Schroder, D. C. Langreth, and
     *   B. I. Lundqvist, Phys. Rev. Lett. 92, 246401 (2004).
     *
     *   T. Thonhauser, V. R. Cooper, S. Li, A. Puzder, P. Hyldgaard, and
     *   D. C. Langreth, Phys. Rev. B 76, 125112 (2007).
     *
     *   G. Roman-Perez and J. M. Soler, Phys. Rev. Lett. 103, 096102 (2009).
     *
     *
     * If you are using vdW-DF2, please also cite:
     *
     *   K. Lee, E. D. Murray, L. Kong, B. I. Lundqvist, and
     *   D. C. Langreth, Phys. Rev. B 82, 081101(R) (2010).
     *
     *
     * If you are calculating the stress with vdW-DF, please also cite:
     *
     *   R. Sabatini, E. Kucukbenli, B. Kolb, T. Thonhauser, and
     *   S. de Gironcoli, J. Phys.: Condens. Matter 24, 424209 (2012).
     *

     Carrying out vdW-DF run using the following parameters:

     Nqs =      20    Nr_points =    1024   r_max =   100.000
     q_mesh =
               0.00001000     0.04494208     0.09755937     0.15916263
               0.23128650     0.31572767     0.41458969     0.53033537
               0.66584808     0.82450364     1.01025438     1.22772762
               1.48234092     1.78043706     2.12944203     2.53805004
               3.01644009     3.57652955     4.23227104     5.00000000

     Gradients computed in reciprocal space

     Starting wfc are   40 randomized atomic wfcs +    8 random wfc

     Self-consistent Calculation

     iteration #  1     ecut=    58.80 Ry     beta=0.10
     Davidson diagonalization with overlap
     ethr =  1.00E-02,  avg # of iterations =  5.4

[...]

     total energy              =    -661.79229624 Ry
     Harris-Foulkes estimate   =    -661.88625264 Ry
     estimated scf accuracy    <       1.41296444 Ry

[...]

     total energy              =    -661.26073248 Ry
     Harris-Foulkes estimate   =    -661.26071374 Ry
     estimated scf accuracy    <       0.00000002 Ry

     iteration # 16     ecut=    58.80 Ry     beta=0.10
     Davidson diagonalization with overlap
     ethr =  2.86E-11,  avg # of iterations =  2.0

     negative rho (up, down):  1.961E-01 0.000E+00

     End of self-consistent calculation

          k = 0.0000 0.0000 0.0000 (  6031 PWs)   bands (ev):

   -37.8908 -15.8183 -15.8183 -15.8183 -10.9850 -10.9848 -10.9848 -10.9835
   -10.8440 -10.8439 -10.8317 -10.8317 -10.7931 -10.7931 -10.7926 -10.7401
   -10.7398 -10.7398 -10.7017  -0.7839   2.9348   2.9350   8.5490   8.5490
     8.5490  12.5030  12.5030  12.6141  12.6141  12.6141  12.7426  12.9787
    12.9788  12.9788  15.1878  15.1878  15.1879  18.6319  19.9996  19.9996
    20.0437  20.0437  20.0437  21.7615  22.1729  22.1730  22.1730  26.5377

[...]

          k = 0.0853-0.1024-0.1024 (  5956 PWs)   bands (ev):

[...]

          k =-0.1024-0.1024-0.1024 (  6008 PWs)   bands (ev):

   -37.8906 -15.8225 -15.8225 -15.8225 -10.9357 -10.9357 -10.9357 -10.8934
   -10.8934 -10.8933 -10.8577 -10.8401 -10.8401 -10.8400 -10.7710 -10.7707
   -10.7252 -10.7252 -10.7250   1.6625   1.6625   1.6628   6.8913   8.0736
     8.0738   8.0738  12.1998  13.2417  13.2417  13.3717  13.3717  13.3717
    16.2383  16.2384  16.2602  16.2603  16.2603  21.0672  21.0673  21.0673
    21.2227  21.2805  21.2805  21.2805  22.5783  22.5783  22.5784  22.8221

     the Fermi energy is    12.5674 ev

!    total energy              =    -661.26081199 Ry
     Harris-Foulkes estimate   =    -661.26073202 Ry
     estimated scf accuracy    <          1.1E-09 Ry

     The total energy is the sum of the following terms:

     one-electron contribution =    -147.32462374 Ry
     hartree contribution      =     109.35424135 Ry
     xc contribution           =    -218.22536503 Ry
     ewald contribution        =    -405.05546405 Ry
     smearing contrib. (-TS)   =      -0.00960052 Ry

     convergence has been achieved in  16 iterations

     Forces acting on atoms (Ry/au):

     negative rho (up, down):  1.961E-01 0.000E+00
     atom    1 type  1   force =     0.00000000    0.00000000    0.00000000
     atom    2 type  1   force =     0.00000000   -0.00000000    0.00000000
     atom    3 type  1   force =     0.00000000    0.00000000    0.00000000
     atom    4 type  2   force =     0.00000000    0.00000000    0.00000000

     Total force =     0.000000     Total SCF correction =     0.000000
 !ASE

     General routines

     Parallel routines

   This run was terminated on:  16:14:21  18Feb2018

   JOB DONE.