     Program PWSCF v.5.1rc2 (svn rev. ) starts on 25Oct2017 at  8:49:11

     Current dimensions of program PWSCF are:
     Max number of different atomic species (ntypx) = 10
     Max number of k-points (npk) =  40000
     Max angular momentum in pseudopotentials (lmaxx) =  3

     IMPORTANT: XC functional enforced from input :
     Exchange-correlation      = BEEF-VDW ( 1  4 27 13 2)
     Any further DFT definition will be discarded
     Please, verify this is what you really want

     Subspace diagonalization in iterative solution of the eigenvalue problem:
     a serial algorithm will be used

     bravais-lattice index     =            0
     lattice parameter (alat)  =       1.8897  a.u.
     unit-cell volume          =     669.6415 (a.u.)^3
     number of atoms/cell      =            4
     number of atomic types    =            2
     number of electrons       =        48.00
     number of Kohn-Sham states=           44
     kinetic-energy cutoff     =      58.7989  Ry
     charge density cutoff     =     587.9892  Ry
     convergence threshold     =      7.3E-09
     mixing beta               =       0.1000
     number of iterations used =           10  local-TF  mixing
     Exchange-correlation      = BEEF-VDW ( 1  4 27 13 2)
     nstep                     =           50

     celldm(1)=   1.889726  celldm(2)=   0.000000  celldm(3)=   0.000000
     celldm(4)=   0.000000  celldm(5)=   0.000000  celldm(6)=   0.000000

     crystal axes: (cart. coord. in units of alat)
               a(1) = (   4.629655   0.000000   0.000000 )
               a(2) = (   0.000000   4.629655   0.000000 )
               a(3) = (   0.000000   0.000000   4.629655 )

     reciprocal axes: (cart. coord. in units 2 pi/alat)
               b(1) = (  0.215999  0.000000  0.000000 )
               b(2) = (  0.000000  0.215999  0.000000 )
               b(3) = (  0.000000  0.000000  0.215999 )

     PseudoPot. # 1 for Cd read from file:
     /home/vossj/suncat/psp/gbrv1.5pbe/Cd.UPF
     MD5 check sum: 17164a7926edb8e0dc231208abae86a6
     Pseudo is Ultrasoft + core correction, Zval = 12.0
     Generated by new atomic code, or converted to UPF format
     Using radial grid of  889 points,  6 beta functions with:
                l(1) =   0
                l(2) =   0
                l(3) =   1
                l(4) =   1
                l(5) =   2
                l(6) =   2
     Q(r) pseudized with  6 coefficients,  rinner =    1.000   1.000   1.000
                                                       1.000   1.000

     PseudoPot. # 2 for Hg read from file:
     /home/vossj/suncat/psp/gbrv1.5pbe/Hg.UPF
     MD5 check sum: 8f42caffe07f7fd9c0a564347f8c5498
     Pseudo is Ultrasoft + core correction, Zval = 12.0
     Generated by new atomic code, or converted to UPF format
     Using radial grid of  985 points,  6 beta functions with:
                l(1) =   0
                l(2) =   0
                l(3) =   1
                l(4) =   1
                l(5) =   2
                l(6) =   2
     Q(r) pseudized with  8 coefficients,  rinner =    2.000   2.000   2.000
                                                       2.000   2.000

     vdW kernel table read from file vdW_kernel_table
     MD5 check sum: 095c7af220d748ca6e76c0b4c6cfb241

     atomic species   valence    mass     pseudopotential
        Cd1           12.00   112.41400     Cd( 1.00)
        Hg1           12.00   200.59200     Hg( 1.00)

     48 Sym. Ops., with inversion, found (32 have fractional translation)

   Cartesian axes

     site n.     atom                  positions (alat units)
         1           Cd1 tau(   1) = (   0.0000000   0.0000000   0.0000000  )
         2           Cd1 tau(   2) = (   0.0000000   2.3148273   2.3148273  )
         3           Cd1 tau(   3) = (   2.3148273   0.0000000   2.3148273  )
         4           Hg1 tau(   4) = (   2.3148273   2.3148273   0.0000000  )

     number of k points=    84  Fermi-Dirac smearing, width (Ry)=  0.0073
                       cart. coord. in units 2pi/alat
        k(    1) = (   0.0000000   0.0000000   0.0000000), wk =   0.0011574
        k(    2) = (   0.0000000   0.0000000   0.0179999), wk =   0.0069444
        k(    3) = (   0.0000000   0.0000000   0.0359998), wk =   0.0069444
        k(    4) = (   0.0000000   0.0000000   0.0539997), wk =   0.0069444
        k(    5) = (   0.0000000   0.0000000   0.0719996), wk =   0.0069444
        k(    6) = (   0.0000000   0.0000000   0.0899995), wk =   0.0069444
        k(    7) = (   0.0000000   0.0000000  -0.1079994), wk =   0.0034722
        k(    8) = (   0.0000000   0.0179999   0.0179999), wk =   0.0138889
        k(    9) = (   0.0000000   0.0179999   0.0359998), wk =   0.0277778
        k(   10) = (   0.0000000   0.0179999   0.0539997), wk =   0.0277778
        k(   11) = (   0.0000000   0.0179999   0.0719996), wk =   0.0277778
        k(   12) = (   0.0000000   0.0179999   0.0899995), wk =   0.0277778
        k(   13) = (   0.0000000   0.0179999  -0.1079994), wk =   0.0138889
        k(   14) = (   0.0000000   0.0359998   0.0359998), wk =   0.0138889
        k(   15) = (   0.0000000   0.0359998   0.0539997), wk =   0.0277778
        k(   16) = (   0.0000000   0.0359998   0.0719996), wk =   0.0277778
        k(   17) = (   0.0000000   0.0359998   0.0899995), wk =   0.0277778
        k(   18) = (   0.0000000   0.0359998  -0.1079994), wk =   0.0138889
        k(   19) = (   0.0000000   0.0539997   0.0539997), wk =   0.0138889
        k(   20) = (   0.0000000   0.0539997   0.0719996), wk =   0.0277778
        k(   21) = (   0.0000000   0.0539997   0.0899995), wk =   0.0277778
        k(   22) = (   0.0000000   0.0539997  -0.1079994), wk =   0.0138889
        k(   23) = (   0.0000000   0.0719996   0.0719996), wk =   0.0138889
        k(   24) = (   0.0000000   0.0719996   0.0899995), wk =   0.0277778
        k(   25) = (   0.0000000   0.0719996  -0.1079994), wk =   0.0138889
        k(   26) = (   0.0000000   0.0899995   0.0899995), wk =   0.0138889
        k(   27) = (   0.0000000   0.0899995  -0.1079994), wk =   0.0138889
        k(   28) = (   0.0000000  -0.1079994  -0.1079994), wk =   0.0034722
        k(   29) = (   0.0179999   0.0179999   0.0179999), wk =   0.0092593
        k(   30) = (   0.0179999   0.0179999   0.0359998), wk =   0.0277778
        k(   31) = (   0.0179999   0.0179999   0.0539997), wk =   0.0277778
        k(   32) = (   0.0179999   0.0179999   0.0719996), wk =   0.0277778
        k(   33) = (   0.0179999   0.0179999   0.0899995), wk =   0.0277778
        k(   34) = (   0.0179999   0.0179999  -0.1079994), wk =   0.0138889
        k(   35) = (   0.0179999   0.0359998   0.0359998), wk =   0.0277778
        k(   36) = (   0.0179999   0.0359998   0.0539997), wk =   0.0555556
        k(   37) = (   0.0179999   0.0359998   0.0719996), wk =   0.0555556
        k(   38) = (   0.0179999   0.0359998   0.0899995), wk =   0.0555556
        k(   39) = (   0.0179999   0.0359998  -0.1079994), wk =   0.0277778
        k(   40) = (   0.0179999   0.0539997   0.0539997), wk =   0.0277778
        k(   41) = (   0.0179999   0.0539997   0.0719996), wk =   0.0555556
        k(   42) = (   0.0179999   0.0539997   0.0899995), wk =   0.0555556
        k(   43) = (   0.0179999   0.0539997  -0.1079994), wk =   0.0277778
        k(   44) = (   0.0179999   0.0719996   0.0719996), wk =   0.0277778
        k(   45) = (   0.0179999   0.0719996   0.0899995), wk =   0.0555556
        k(   46) = (   0.0179999   0.0719996  -0.1079994), wk =   0.0277778
        k(   47) = (   0.0179999   0.0899995   0.0899995), wk =   0.0277778
        k(   48) = (   0.0179999   0.0899995  -0.1079994), wk =   0.0277778
        k(   49) = (   0.0179999  -0.1079994  -0.1079994), wk =   0.0069444
        k(   50) = (   0.0359998   0.0359998   0.0359998), wk =   0.0092593
        k(   51) = (   0.0359998   0.0359998   0.0539997), wk =   0.0277778
        k(   52) = (   0.0359998   0.0359998   0.0719996), wk =   0.0277778
        k(   53) = (   0.0359998   0.0359998   0.0899995), wk =   0.0277778
        k(   54) = (   0.0359998   0.0359998  -0.1079994), wk =   0.0138889
        k(   55) = (   0.0359998   0.0539997   0.0539997), wk =   0.0277778
        k(   56) = (   0.0359998   0.0539997   0.0719996), wk =   0.0555556
        k(   57) = (   0.0359998   0.0539997   0.0899995), wk =   0.0555556
        k(   58) = (   0.0359998   0.0539997  -0.1079994), wk =   0.0277778
        k(   59) = (   0.0359998   0.0719996   0.0719996), wk =   0.0277778
        k(   60) = (   0.0359998   0.0719996   0.0899995), wk =   0.0555556
[...]
        k(   70) = (   0.0539997   0.0719996   0.0899995), wk =   0.0555556
        k(   71) = (   0.0539997   0.0719996  -0.1079994), wk =   0.0277778
        k(   72) = (   0.0539997   0.0899995   0.0899995), wk =   0.0277778
        k(   73) = (   0.0539997   0.0899995  -0.1079994), wk =   0.0277778
        k(   74) = (   0.0539997  -0.1079994  -0.1079994), wk =   0.0069444
        k(   75) = (   0.0719996   0.0719996   0.0719996), wk =   0.0092593
        k(   76) = (   0.0719996   0.0719996   0.0899995), wk =   0.0277778
        k(   77) = (   0.0719996   0.0719996  -0.1079994), wk =   0.0138889
        k(   78) = (   0.0719996   0.0899995   0.0899995), wk =   0.0277778
        k(   79) = (   0.0719996   0.0899995  -0.1079994), wk =   0.0277778
        k(   80) = (   0.0719996  -0.1079994  -0.1079994), wk =   0.0069444
        k(   81) = (   0.0899995   0.0899995   0.0899995), wk =   0.0092593
        k(   82) = (   0.0899995   0.0899995  -0.1079994), wk =   0.0138889
        k(   83) = (   0.0899995  -0.1079994  -0.1079994), wk =   0.0069444
        k(   84) = (  -0.1079994  -0.1079994  -0.1079994), wk =   0.0011574

     Largest allocated arrays     est. size (Mb)     dimensions
     Largest temporary arrays     est. size (Mb)     dimensions

     Initial potential from superposition of free atoms
     Check: negative starting charge=   -0.062647

     starting charge   46.49982, renormalised to   48.00000

     negative rho (up, down):  6.467E-02 0.000E+00

     *
     * You are using vdW-DF for exchange-correlation in this calculation.
     * Please cite the following three references that made this development
     * possible:
     *
     *   M. Dion, H. Rydberg, E. Schroder, D. C. Langreth, and
     *   B. I. Lundqvist, Phys. Rev. Lett. 92, 246401 (2004).
     *
     *   T. Thonhauser, V. R. Cooper, S. Li, A. Puzder, P. Hyldgaard, and
     *   D. C. Langreth, Phys. Rev. B 76, 125112 (2007).
     *
     *   G. Roman-Perez and J. M. Soler, Phys. Rev. Lett. 103, 096102 (2009).
     *
     *
     * If you are using vdW-DF2, please also cite:
     *
     *   K. Lee, E. D. Murray, L. Kong, B. I. Lundqvist, and
     *   D. C. Langreth, Phys. Rev. B 82, 081101(R) (2010).
     *
     *
     * If you are calculating the stress with vdW-DF, please also cite:
     *
     *   R. Sabatini, E. Kucukbenli, B. Kolb, T. Thonhauser, and
     *   S. de Gironcoli, J. Phys.: Condens. Matter 24, 424209 (2012).
     *

     Carrying out vdW-DF run using the following parameters:

     Nqs =      20    Nr_points =    1024   r_max =   100.000
     q_mesh =
               0.00001000     0.04494208     0.09755937     0.15916263
               0.23128650     0.31572767     0.41458969     0.53033537
               0.66584808     0.82450364     1.01025438     1.22772762
               1.48234092     1.78043706     2.12944203     2.53805004
               3.01644009     3.57652955     4.23227104     5.00000000

     Gradients computed in reciprocal space

     Starting wfc are   36 randomized atomic wfcs +    8 random wfc

     Self-consistent Calculation

     iteration #  1     ecut=    58.80 Ry     beta=0.10
     Davidson diagonalization with overlap
     ethr =  1.00E-02,  avg # of iterations =  4.9

     Threshold (ethr) on eigenvalues was too large:
     Diagonalizing with lowered threshold

     Davidson diagonalization with overlap
     ethr =  9.17E-04,  avg # of iterations =  1.1

[...]

     total energy              =    -457.49667414 Ry
     Harris-Foulkes estimate   =    -457.52160024 Ry
     estimated scf accuracy    <       0.43567076 Ry

[...]

     total energy              =    -457.40683395 Ry
     Harris-Foulkes estimate   =    -457.40682716 Ry
     estimated scf accuracy    <          7.6E-09 Ry

     iteration # 21     ecut=    58.80 Ry     beta=0.10
     Davidson diagonalization with overlap
     ethr =  1.59E-11,  avg # of iterations =  2.2

     negative rho (up, down):  6.464E-02 0.000E+00

     End of self-consistent calculation

          k = 0.0000 0.0000 0.0000 (  5041 PWs)   bands (ev):

     0.2941   0.3440   0.3440   0.3440   0.5011   0.5011   0.8643   0.8643
     0.8643   1.1120   1.1120   1.2750   1.3657   1.3657   1.3657   1.6277
     2.7627   2.7627   2.9341   2.9341   2.9341   9.3747   9.3747   9.3747
     9.5930  10.9378  10.9378  16.0771  16.0771  16.0771  16.2044  16.2044
    16.2044  19.4961  20.3609  20.3609  20.6924  20.6924  20.6924  22.8418
    23.3730  23.3730  23.3730  27.4182

[...]

          k = 0.0900-0.1080-0.1080 (  5072 PWs)   bands (ev):

[...]

          k =-0.1080-0.1080-0.1080 (  5040 PWs)   bands (ev):

     0.3318   0.4914   0.4914   0.4914   0.6921   0.6921   0.6921   0.9116
     0.9116   0.9116   0.9752   0.9752   1.2937   1.2937   1.2937   2.6926
     2.6926   2.6926   2.8840   2.8840   6.9378   7.9619   8.0746   8.0746
     8.0746   8.5198   8.5198   8.5198  21.0192  21.0192  21.0192  21.0553
    21.0553  21.3438  21.3438  21.3438  22.1002  22.1308  22.1308  22.1308
    25.1907  25.1907  25.1907  25.4265

     the Fermi energy is     9.7389 ev

!    total energy              =    -457.40685338 Ry
     Harris-Foulkes estimate   =    -457.40683395 Ry
     estimated scf accuracy    <          6.5E-10 Ry

     The total energy is the sum of the following terms:

     one-electron contribution =     -79.59680959 Ry
     hartree contribution      =      86.90173545 Ry
     xc contribution           =    -162.85078924 Ry
     ewald contribution        =    -301.85703958 Ry
     smearing contrib. (-TS)   =      -0.00395042 Ry

     convergence has been achieved in  21 iterations

     Forces acting on atoms (Ry/au):

     negative rho (up, down):  6.464E-02 0.000E+00
     atom    1 type  1   force =     0.00000000    0.00000000   -0.00000000
     atom    2 type  1   force =     0.00000000    0.00000000   -0.00000000
     atom    3 type  1   force =     0.00000000    0.00000000    0.00000000
     atom    4 type  2   force =     0.00000000    0.00000000    0.00000000

     Total force =     0.000000     Total SCF correction =     0.000000
 !ASE

     General routines

     Parallel routines

   This run was terminated on:   8:50:59  25Oct2017

   JOB DONE.