     Program PWSCF v.5.1rc2 (svn rev. ) starts on 31Oct2017 at 15:56:59

     Current dimensions of program PWSCF are:
     Max number of different atomic species (ntypx) = 10
     Max number of k-points (npk) =  40000
     Max angular momentum in pseudopotentials (lmaxx) =  3

     IMPORTANT: XC functional enforced from input :
     Exchange-correlation      = BEEF-VDW ( 1  4 27 13 2)
     Any further DFT definition will be discarded
     Please, verify this is what you really want

     Subspace diagonalization in iterative solution of the eigenvalue problem:
     a serial algorithm will be used

     bravais-lattice index     =            0
     lattice parameter (alat)  =       1.8897  a.u.
     unit-cell volume          =     445.2483 (a.u.)^3
     number of atoms/cell      =            4
     number of atomic types    =            2
     number of electrons       =        56.00
     number of Kohn-Sham states=           48
     kinetic-energy cutoff     =      58.7989  Ry
     charge density cutoff     =     587.9892  Ry
     convergence threshold     =      7.3E-09
     mixing beta               =       0.1000
     number of iterations used =           10  local-TF  mixing
     Exchange-correlation      = BEEF-VDW ( 1  4 27 13 2)
     nstep                     =           50

     celldm(1)=   1.889726  celldm(2)=   0.000000  celldm(3)=   0.000000
     celldm(4)=   0.000000  celldm(5)=   0.000000  celldm(6)=   0.000000

     crystal axes: (cart. coord. in units of alat)
               a(1) = (   4.040811   0.000000   0.000000 )
               a(2) = (   0.000000   4.040811   0.000000 )
               a(3) = (   0.000000   0.000000   4.040811 )

     reciprocal axes: (cart. coord. in units 2 pi/alat)
               b(1) = (  0.247475  0.000000  0.000000 )
               b(2) = (  0.000000  0.247475  0.000000 )
               b(3) = (  0.000000  0.000000  0.247475 )

     PseudoPot. # 1 for Nb read from file:
     /home/vossj/suncat/psp/gbrv1.5pbe/Nb.UPF
     MD5 check sum: 573aab8a2fa660278ed4a62cd769473f
     Pseudo is Ultrasoft + core correction, Zval = 13.0
     Generated by new atomic code, or converted to UPF format
     Using radial grid of  887 points,  6 beta functions with:
                l(1) =   0
                l(2) =   0
                l(3) =   1
                l(4) =   1
                l(5) =   2
                l(6) =   2
     Q(r) pseudized with  6 coefficients,  rinner =    1.000   1.000   1.000
                                                       1.000   1.000

     PseudoPot. # 2 for Co read from file:
     /home/vossj/suncat/psp/gbrv1.5pbe/Co.UPF
     MD5 check sum: 5f91765df6ddd3222702df6e7b74a16d
     Pseudo is Ultrasoft + core correction, Zval = 17.0
     Generated by new atomic code, or converted to UPF format
     Using radial grid of  863 points,  6 beta functions with:
                l(1) =   0
                l(2) =   0
                l(3) =   1
                l(4) =   1
                l(5) =   2
                l(6) =   2
     Q(r) pseudized with  8 coefficients,  rinner =    1.200   1.200   1.200
                                                       1.200   1.200

     vdW kernel table read from file vdW_kernel_table
     MD5 check sum: 095c7af220d748ca6e76c0b4c6cfb241

     atomic species   valence    mass     pseudopotential
        Nb1           13.00    92.90637     Nb( 1.00)
        Co1           17.00    58.93319     Co( 1.00)

     48 Sym. Ops., with inversion, found (32 have fractional translation)

   Cartesian axes

     site n.     atom                  positions (alat units)
         1           Nb1 tau(   1) = (   0.0000000   0.0000000   0.0000000  )
         2           Nb1 tau(   2) = (   0.0000000   2.0204056   2.0204056  )
         3           Nb1 tau(   3) = (   2.0204056   0.0000000   2.0204056  )
         4           Co1 tau(   4) = (   2.0204056   2.0204056   0.0000000  )

     number of k points=    84  Fermi-Dirac smearing, width (Ry)=  0.0073
                       cart. coord. in units 2pi/alat
        k(    1) = (   0.0000000   0.0000000   0.0000000), wk =   0.0011574
        k(    2) = (   0.0000000   0.0000000   0.0206229), wk =   0.0069444
        k(    3) = (   0.0000000   0.0000000   0.0412458), wk =   0.0069444
        k(    4) = (   0.0000000   0.0000000   0.0618688), wk =   0.0069444
        k(    5) = (   0.0000000   0.0000000   0.0824917), wk =   0.0069444
        k(    6) = (   0.0000000   0.0000000   0.1031146), wk =   0.0069444
        k(    7) = (   0.0000000   0.0000000  -0.1237375), wk =   0.0034722
        k(    8) = (   0.0000000   0.0206229   0.0206229), wk =   0.0138889
        k(    9) = (   0.0000000   0.0206229   0.0412458), wk =   0.0277778
        k(   10) = (   0.0000000   0.0206229   0.0618688), wk =   0.0277778
        k(   11) = (   0.0000000   0.0206229   0.0824917), wk =   0.0277778
        k(   12) = (   0.0000000   0.0206229   0.1031146), wk =   0.0277778
        k(   13) = (   0.0000000   0.0206229  -0.1237375), wk =   0.0138889
        k(   14) = (   0.0000000   0.0412458   0.0412458), wk =   0.0138889
        k(   15) = (   0.0000000   0.0412458   0.0618688), wk =   0.0277778
        k(   16) = (   0.0000000   0.0412458   0.0824917), wk =   0.0277778
        k(   17) = (   0.0000000   0.0412458   0.1031146), wk =   0.0277778
        k(   18) = (   0.0000000   0.0412458  -0.1237375), wk =   0.0138889
        k(   19) = (   0.0000000   0.0618688   0.0618688), wk =   0.0138889
        k(   20) = (   0.0000000   0.0618688   0.0824917), wk =   0.0277778
        k(   21) = (   0.0000000   0.0618688   0.1031146), wk =   0.0277778
        k(   22) = (   0.0000000   0.0618688  -0.1237375), wk =   0.0138889
        k(   23) = (   0.0000000   0.0824917   0.0824917), wk =   0.0138889
        k(   24) = (   0.0000000   0.0824917   0.1031146), wk =   0.0277778
        k(   25) = (   0.0000000   0.0824917  -0.1237375), wk =   0.0138889
        k(   26) = (   0.0000000   0.1031146   0.1031146), wk =   0.0138889
        k(   27) = (   0.0000000   0.1031146  -0.1237375), wk =   0.0138889
        k(   28) = (   0.0000000  -0.1237375  -0.1237375), wk =   0.0034722
        k(   29) = (   0.0206229   0.0206229   0.0206229), wk =   0.0092593
        k(   30) = (   0.0206229   0.0206229   0.0412458), wk =   0.0277778
        k(   31) = (   0.0206229   0.0206229   0.0618688), wk =   0.0277778
        k(   32) = (   0.0206229   0.0206229   0.0824917), wk =   0.0277778
        k(   33) = (   0.0206229   0.0206229   0.1031146), wk =   0.0277778
        k(   34) = (   0.0206229   0.0206229  -0.1237375), wk =   0.0138889
        k(   35) = (   0.0206229   0.0412458   0.0412458), wk =   0.0277778
        k(   36) = (   0.0206229   0.0412458   0.0618688), wk =   0.0555556
        k(   37) = (   0.0206229   0.0412458   0.0824917), wk =   0.0555556
        k(   38) = (   0.0206229   0.0412458   0.1031146), wk =   0.0555556
        k(   39) = (   0.0206229   0.0412458  -0.1237375), wk =   0.0277778
        k(   40) = (   0.0206229   0.0618688   0.0618688), wk =   0.0277778
        k(   41) = (   0.0206229   0.0618688   0.0824917), wk =   0.0555556
        k(   42) = (   0.0206229   0.0618688   0.1031146), wk =   0.0555556
        k(   43) = (   0.0206229   0.0618688  -0.1237375), wk =   0.0277778
        k(   44) = (   0.0206229   0.0824917   0.0824917), wk =   0.0277778
        k(   45) = (   0.0206229   0.0824917   0.1031146), wk =   0.0555556
        k(   46) = (   0.0206229   0.0824917  -0.1237375), wk =   0.0277778
        k(   47) = (   0.0206229   0.1031146   0.1031146), wk =   0.0277778
        k(   48) = (   0.0206229   0.1031146  -0.1237375), wk =   0.0277778
        k(   49) = (   0.0206229  -0.1237375  -0.1237375), wk =   0.0069444
        k(   50) = (   0.0412458   0.0412458   0.0412458), wk =   0.0092593
        k(   51) = (   0.0412458   0.0412458   0.0618688), wk =   0.0277778
        k(   52) = (   0.0412458   0.0412458   0.0824917), wk =   0.0277778
        k(   53) = (   0.0412458   0.0412458   0.1031146), wk =   0.0277778
        k(   54) = (   0.0412458   0.0412458  -0.1237375), wk =   0.0138889
        k(   55) = (   0.0412458   0.0618688   0.0618688), wk =   0.0277778
        k(   56) = (   0.0412458   0.0618688   0.0824917), wk =   0.0555556
        k(   57) = (   0.0412458   0.0618688   0.1031146), wk =   0.0555556
        k(   58) = (   0.0412458   0.0618688  -0.1237375), wk =   0.0277778
        k(   59) = (   0.0412458   0.0824917   0.0824917), wk =   0.0277778
        k(   60) = (   0.0412458   0.0824917   0.1031146), wk =   0.0555556
[...]
        k(   70) = (   0.0618688   0.0824917   0.1031146), wk =   0.0555556
        k(   71) = (   0.0618688   0.0824917  -0.1237375), wk =   0.0277778
        k(   72) = (   0.0618688   0.1031146   0.1031146), wk =   0.0277778
        k(   73) = (   0.0618688   0.1031146  -0.1237375), wk =   0.0277778
        k(   74) = (   0.0618688  -0.1237375  -0.1237375), wk =   0.0069444
        k(   75) = (   0.0824917   0.0824917   0.0824917), wk =   0.0092593
        k(   76) = (   0.0824917   0.0824917   0.1031146), wk =   0.0277778
        k(   77) = (   0.0824917   0.0824917  -0.1237375), wk =   0.0138889
        k(   78) = (   0.0824917   0.1031146   0.1031146), wk =   0.0277778
        k(   79) = (   0.0824917   0.1031146  -0.1237375), wk =   0.0277778
        k(   80) = (   0.0824917  -0.1237375  -0.1237375), wk =   0.0069444
        k(   81) = (   0.1031146   0.1031146   0.1031146), wk =   0.0092593
        k(   82) = (   0.1031146   0.1031146  -0.1237375), wk =   0.0138889
        k(   83) = (   0.1031146  -0.1237375  -0.1237375), wk =   0.0069444
        k(   84) = (  -0.1237375  -0.1237375  -0.1237375), wk =   0.0011574

     Largest allocated arrays     est. size (Mb)     dimensions
     Largest temporary arrays     est. size (Mb)     dimensions

     Check: negative/imaginary core charge=   -0.000013    0.000000

     Initial potential from superposition of free atoms

     starting charge   54.99179, renormalised to   56.00000

     *
     * You are using vdW-DF for exchange-correlation in this calculation.
     * Please cite the following three references that made this development
     * possible:
     *
     *   M. Dion, H. Rydberg, E. Schroder, D. C. Langreth, and
     *   B. I. Lundqvist, Phys. Rev. Lett. 92, 246401 (2004).
     *
     *   T. Thonhauser, V. R. Cooper, S. Li, A. Puzder, P. Hyldgaard, and
     *   D. C. Langreth, Phys. Rev. B 76, 125112 (2007).
     *
     *   G. Roman-Perez and J. M. Soler, Phys. Rev. Lett. 103, 096102 (2009).
     *
     *
     * If you are using vdW-DF2, please also cite:
     *
     *   K. Lee, E. D. Murray, L. Kong, B. I. Lundqvist, and
     *   D. C. Langreth, Phys. Rev. B 82, 081101(R) (2010).
     *
     *
     * If you are calculating the stress with vdW-DF, please also cite:
     *
     *   R. Sabatini, E. Kucukbenli, B. Kolb, T. Thonhauser, and
     *   S. de Gironcoli, J. Phys.: Condens. Matter 24, 424209 (2012).
     *

     Carrying out vdW-DF run using the following parameters:

     Nqs =      20    Nr_points =    1024   r_max =   100.000
     q_mesh =
               0.00001000     0.04494208     0.09755937     0.15916263
               0.23128650     0.31572767     0.41458969     0.53033537
               0.66584808     0.82450364     1.01025438     1.22772762
               1.48234092     1.78043706     2.12944203     2.53805004
               3.01644009     3.57652955     4.23227104     5.00000000

     Gradients computed in reciprocal space

     Starting wfc are   52 randomized atomic wfcs

     Self-consistent Calculation

     iteration #  1     ecut=    58.80 Ry     beta=0.10
     Davidson diagonalization with overlap
     ethr =  1.00E-02,  avg # of iterations =  4.6

     total energy              =    -655.55178071 Ry
     Harris-Foulkes estimate   =    -655.62242930 Ry
     estimated scf accuracy    <       1.24304227 Ry

[...]

     total energy              =    -655.24085932 Ry
     Harris-Foulkes estimate   =    -655.24085798 Ry
     estimated scf accuracy    <       0.00000067 Ry

     iteration # 12     ecut=    58.80 Ry     beta=0.10
     Davidson diagonalization with overlap
     ethr =  1.20E-09,  avg # of iterations =  1.0

     End of self-consistent calculation

          k = 0.0000 0.0000 0.0000 (  3407 PWs)   bands (ev):

   -77.0172 -40.3047 -40.3047 -40.3047 -37.4366 -37.1273 -37.1273 -13.8827
   -13.8827 -13.8827 -13.1629 -13.1629 -13.1629 -12.7710 -12.7710 -12.7710
    11.0784  12.7483  13.9173  13.9173  14.2622  14.2622  14.2622  16.9186
    16.9186  16.9186  18.1244  18.1244  20.4908  20.4908  20.4908  21.0954
    21.0954  21.0954  21.6695  21.6695  22.9241  23.5369  23.5369  23.5369
    28.5490  28.5490  28.5490  29.1948  31.1577  31.1580  31.4089  31.4090

[...]

          k = 0.1031-0.1237-0.1237 (  3396 PWs)   bands (ev):

[...]

          k =-0.1237-0.1237-0.1237 (  3448 PWs)   bands (ev):

   -77.0171 -40.3051 -40.3051 -40.3051 -37.2282 -37.2282 -37.2282 -14.2942
   -13.7753 -13.7753 -13.7753 -12.8141 -12.8141 -12.7888 -12.7888 -12.7888
    12.8432  13.9831  13.9831  13.9831  16.4837  16.4837  16.7519  16.7519
    16.7519  17.5294  17.5294  17.5294  18.6902  18.6902  18.6902  19.6406
    20.2270  20.2270  20.2270  21.0680  21.0680  22.9069  22.9069  22.9069
    26.3203  28.5642  28.5642  28.5642  30.5677  30.8147  30.8147  30.8147

     the Fermi energy is    17.5431 ev

!    total energy              =    -655.24086517 Ry
     Harris-Foulkes estimate   =    -655.24085935 Ry
     estimated scf accuracy    <          2.5E-09 Ry

     The total energy is the sum of the following terms:

     one-electron contribution =    -243.56141608 Ry
     hartree contribution      =     153.72334411 Ry
     xc contribution           =     -91.11111804 Ry
     ewald contribution        =    -474.27667438 Ry
     smearing contrib. (-TS)   =      -0.01500077 Ry

     convergence has been achieved in  12 iterations

     Forces acting on atoms (Ry/au):

     atom    1 type  1   force =     0.00000000   -0.00000000   -0.00000000
     atom    2 type  1   force =     0.00000000    0.00000000    0.00000000
     atom    3 type  1   force =     0.00000000    0.00000000    0.00000000
     atom    4 type  2   force =     0.00000000   -0.00000000    0.00000000

     Total force =     0.000000     Total SCF correction =     0.000000
 !ASE

     General routines

     Parallel routines

   This run was terminated on:  15:57:51  31Oct2017

   JOB DONE.