     Program PWSCF v.5.1rc2 (svn rev. ) starts on 25Oct2017 at 22: 1:53

     Current dimensions of program PWSCF are:
     Max number of different atomic species (ntypx) = 10
     Max number of k-points (npk) =  40000
     Max angular momentum in pseudopotentials (lmaxx) =  3

     IMPORTANT: XC functional enforced from input :
     Exchange-correlation      = BEEF-VDW ( 1  4 27 13 2)
     Any further DFT definition will be discarded
     Please, verify this is what you really want

     Subspace diagonalization in iterative solution of the eigenvalue problem:
     a serial algorithm will be used

     bravais-lattice index     =            0
     lattice parameter (alat)  =       1.8897  a.u.
     unit-cell volume          =     439.8987 (a.u.)^3
     number of atoms/cell      =            4
     number of atomic types    =            2
     number of electrons       =        61.00
     number of Kohn-Sham states=           50
     kinetic-energy cutoff     =      58.7989  Ry
     charge density cutoff     =     587.9892  Ry
     convergence threshold     =      7.3E-09
     mixing beta               =       0.1000
     number of iterations used =           10  local-TF  mixing
     Exchange-correlation      = BEEF-VDW ( 1  4 27 13 2)
     nstep                     =           50

     celldm(1)=   1.889726  celldm(2)=   0.000000  celldm(3)=   0.000000
     celldm(4)=   0.000000  celldm(5)=   0.000000  celldm(6)=   0.000000

     crystal axes: (cart. coord. in units of alat)
               a(1) = (   4.024563   0.000000   0.000000 )
               a(2) = (   0.000000   4.024563   0.000000 )
               a(3) = (   0.000000   0.000000   4.024563 )

     reciprocal axes: (cart. coord. in units 2 pi/alat)
               b(1) = (  0.248474  0.000000  0.000000 )
               b(2) = (  0.000000  0.248474  0.000000 )
               b(3) = (  0.000000  0.000000  0.248474 )

     PseudoPot. # 1 for Os read from file:
     /home/vossj/suncat/psp/gbrv1.5pbe/Os.UPF
     MD5 check sum: a3fb40a04f0c37c25c34bbc47164c9a8
     Pseudo is Ultrasoft + core correction, Zval = 16.0
     Generated by new atomic code, or converted to UPF format
     Using radial grid of  983 points,  8 beta functions with:
                l(1) =   0
                l(2) =   0
                l(3) =   1
                l(4) =   1
                l(5) =   2
                l(6) =   2
                l(7) =   3
                l(8) =   3
     Q(r) pseudized with  8 coefficients,  rinner =    1.150   1.150   1.150
                                                       1.150   1.150   1.150
                                                       1.150

     PseudoPot. # 2 for Tl read from file:
     /home/vossj/suncat/psp/gbrv1.5pbe/Tl.UPF
     MD5 check sum: b76cf1f7e72655a2b2c53cf6385d7059
     Pseudo is Ultrasoft + core correction, Zval = 13.0
     Generated by new atomic code, or converted to UPF format
     Using radial grid of  899 points,  6 beta functions with:
                l(1) =   0
                l(2) =   0
                l(3) =   1
                l(4) =   1
                l(5) =   2
                l(6) =   2
     Q(r) pseudized with  6 coefficients,  rinner =    1.100   1.100   1.100
                                                       1.100   1.100

     vdW kernel table read from file vdW_kernel_table
     MD5 check sum: 095c7af220d748ca6e76c0b4c6cfb241

     atomic species   valence    mass     pseudopotential
        Os1           16.00   190.23000     Os( 1.00)
        Tl1           13.00   204.38000     Tl( 1.00)

     48 Sym. Ops., with inversion, found (32 have fractional translation)

   Cartesian axes

     site n.     atom                  positions (alat units)
         1           Os1 tau(   1) = (   0.0000000   0.0000000   0.0000000  )
         2           Os1 tau(   2) = (   0.0000000   2.0122814   2.0122814  )
         3           Os1 tau(   3) = (   2.0122814   0.0000000   2.0122814  )
         4           Tl1 tau(   4) = (   2.0122814   2.0122814   0.0000000  )

     number of k points=    84  Fermi-Dirac smearing, width (Ry)=  0.0073
                       cart. coord. in units 2pi/alat
        k(    1) = (   0.0000000   0.0000000   0.0000000), wk =   0.0011574
        k(    2) = (   0.0000000   0.0000000   0.0207062), wk =   0.0069444
        k(    3) = (   0.0000000   0.0000000   0.0414124), wk =   0.0069444
        k(    4) = (   0.0000000   0.0000000   0.0621185), wk =   0.0069444
        k(    5) = (   0.0000000   0.0000000   0.0828247), wk =   0.0069444
        k(    6) = (   0.0000000   0.0000000   0.1035309), wk =   0.0069444
        k(    7) = (   0.0000000   0.0000000  -0.1242371), wk =   0.0034722
        k(    8) = (   0.0000000   0.0207062   0.0207062), wk =   0.0138889
        k(    9) = (   0.0000000   0.0207062   0.0414124), wk =   0.0277778
        k(   10) = (   0.0000000   0.0207062   0.0621185), wk =   0.0277778
        k(   11) = (   0.0000000   0.0207062   0.0828247), wk =   0.0277778
        k(   12) = (   0.0000000   0.0207062   0.1035309), wk =   0.0277778
        k(   13) = (   0.0000000   0.0207062  -0.1242371), wk =   0.0138889
        k(   14) = (   0.0000000   0.0414124   0.0414124), wk =   0.0138889
        k(   15) = (   0.0000000   0.0414124   0.0621185), wk =   0.0277778
        k(   16) = (   0.0000000   0.0414124   0.0828247), wk =   0.0277778
        k(   17) = (   0.0000000   0.0414124   0.1035309), wk =   0.0277778
        k(   18) = (   0.0000000   0.0414124  -0.1242371), wk =   0.0138889
        k(   19) = (   0.0000000   0.0621185   0.0621185), wk =   0.0138889
        k(   20) = (   0.0000000   0.0621185   0.0828247), wk =   0.0277778
        k(   21) = (   0.0000000   0.0621185   0.1035309), wk =   0.0277778
        k(   22) = (   0.0000000   0.0621185  -0.1242371), wk =   0.0138889
        k(   23) = (   0.0000000   0.0828247   0.0828247), wk =   0.0138889
        k(   24) = (   0.0000000   0.0828247   0.1035309), wk =   0.0277778
        k(   25) = (   0.0000000   0.0828247  -0.1242371), wk =   0.0138889
        k(   26) = (   0.0000000   0.1035309   0.1035309), wk =   0.0138889
        k(   27) = (   0.0000000   0.1035309  -0.1242371), wk =   0.0138889
        k(   28) = (   0.0000000  -0.1242371  -0.1242371), wk =   0.0034722
        k(   29) = (   0.0207062   0.0207062   0.0207062), wk =   0.0092593
        k(   30) = (   0.0207062   0.0207062   0.0414124), wk =   0.0277778
        k(   31) = (   0.0207062   0.0207062   0.0621185), wk =   0.0277778
        k(   32) = (   0.0207062   0.0207062   0.0828247), wk =   0.0277778
        k(   33) = (   0.0207062   0.0207062   0.1035309), wk =   0.0277778
        k(   34) = (   0.0207062   0.0207062  -0.1242371), wk =   0.0138889
        k(   35) = (   0.0207062   0.0414124   0.0414124), wk =   0.0277778
        k(   36) = (   0.0207062   0.0414124   0.0621185), wk =   0.0555556
        k(   37) = (   0.0207062   0.0414124   0.0828247), wk =   0.0555556
        k(   38) = (   0.0207062   0.0414124   0.1035309), wk =   0.0555556
        k(   39) = (   0.0207062   0.0414124  -0.1242371), wk =   0.0277778
        k(   40) = (   0.0207062   0.0621185   0.0621185), wk =   0.0277778
        k(   41) = (   0.0207062   0.0621185   0.0828247), wk =   0.0555556
        k(   42) = (   0.0207062   0.0621185   0.1035309), wk =   0.0555556
        k(   43) = (   0.0207062   0.0621185  -0.1242371), wk =   0.0277778
        k(   44) = (   0.0207062   0.0828247   0.0828247), wk =   0.0277778
        k(   45) = (   0.0207062   0.0828247   0.1035309), wk =   0.0555556
        k(   46) = (   0.0207062   0.0828247  -0.1242371), wk =   0.0277778
        k(   47) = (   0.0207062   0.1035309   0.1035309), wk =   0.0277778
        k(   48) = (   0.0207062   0.1035309  -0.1242371), wk =   0.0277778
        k(   49) = (   0.0207062  -0.1242371  -0.1242371), wk =   0.0069444
        k(   50) = (   0.0414124   0.0414124   0.0414124), wk =   0.0092593
        k(   51) = (   0.0414124   0.0414124   0.0621185), wk =   0.0277778
        k(   52) = (   0.0414124   0.0414124   0.0828247), wk =   0.0277778
        k(   53) = (   0.0414124   0.0414124   0.1035309), wk =   0.0277778
        k(   54) = (   0.0414124   0.0414124  -0.1242371), wk =   0.0138889
        k(   55) = (   0.0414124   0.0621185   0.0621185), wk =   0.0277778
        k(   56) = (   0.0414124   0.0621185   0.0828247), wk =   0.0555556
        k(   57) = (   0.0414124   0.0621185   0.1035309), wk =   0.0555556
        k(   58) = (   0.0414124   0.0621185  -0.1242371), wk =   0.0277778
        k(   59) = (   0.0414124   0.0828247   0.0828247), wk =   0.0277778
        k(   60) = (   0.0414124   0.0828247   0.1035309), wk =   0.0555556
[...]
        k(   70) = (   0.0621185   0.0828247   0.1035309), wk =   0.0555556
        k(   71) = (   0.0621185   0.0828247  -0.1242371), wk =   0.0277778
        k(   72) = (   0.0621185   0.1035309   0.1035309), wk =   0.0277778
        k(   73) = (   0.0621185   0.1035309  -0.1242371), wk =   0.0277778
        k(   74) = (   0.0621185  -0.1242371  -0.1242371), wk =   0.0069444
        k(   75) = (   0.0828247   0.0828247   0.0828247), wk =   0.0092593
        k(   76) = (   0.0828247   0.0828247   0.1035309), wk =   0.0277778
        k(   77) = (   0.0828247   0.0828247  -0.1242371), wk =   0.0138889
        k(   78) = (   0.0828247   0.1035309   0.1035309), wk =   0.0277778
        k(   79) = (   0.0828247   0.1035309  -0.1242371), wk =   0.0277778
        k(   80) = (   0.0828247  -0.1242371  -0.1242371), wk =   0.0069444
        k(   81) = (   0.1035309   0.1035309   0.1035309), wk =   0.0092593
        k(   82) = (   0.1035309   0.1035309  -0.1242371), wk =   0.0138889
        k(   83) = (   0.1035309  -0.1242371  -0.1242371), wk =   0.0069444
        k(   84) = (  -0.1242371  -0.1242371  -0.1242371), wk =   0.0011574

     Largest allocated arrays     est. size (Mb)     dimensions
     Largest temporary arrays     est. size (Mb)     dimensions

     Initial potential from superposition of free atoms
     Check: negative starting charge=   -0.419126

     starting charge   59.49502, renormalised to   61.00000

     negative rho (up, down):  4.297E-01 0.000E+00

     *
     * You are using vdW-DF for exchange-correlation in this calculation.
     * Please cite the following three references that made this development
     * possible:
     *
     *   M. Dion, H. Rydberg, E. Schroder, D. C. Langreth, and
     *   B. I. Lundqvist, Phys. Rev. Lett. 92, 246401 (2004).
     *
     *   T. Thonhauser, V. R. Cooper, S. Li, A. Puzder, P. Hyldgaard, and
     *   D. C. Langreth, Phys. Rev. B 76, 125112 (2007).
     *
     *   G. Roman-Perez and J. M. Soler, Phys. Rev. Lett. 103, 096102 (2009).
     *
     *
     * If you are using vdW-DF2, please also cite:
     *
     *   K. Lee, E. D. Murray, L. Kong, B. I. Lundqvist, and
     *   D. C. Langreth, Phys. Rev. B 82, 081101(R) (2010).
     *
     *
     * If you are calculating the stress with vdW-DF, please also cite:
     *
     *   R. Sabatini, E. Kucukbenli, B. Kolb, T. Thonhauser, and
     *   S. de Gironcoli, J. Phys.: Condens. Matter 24, 424209 (2012).
     *

     Carrying out vdW-DF run using the following parameters:

     Nqs =      20    Nr_points =    1024   r_max =   100.000
     q_mesh =
               0.00001000     0.04494208     0.09755937     0.15916263
               0.23128650     0.31572767     0.41458969     0.53033537
               0.66584808     0.82450364     1.01025438     1.22772762
               1.48234092     1.78043706     2.12944203     2.53805004
               3.01644009     3.57652955     4.23227104     5.00000000

     Gradients computed in reciprocal space

     Starting wfc are   48 randomized atomic wfcs +    2 random wfc

     Self-consistent Calculation

     iteration #  1     ecut=    58.80 Ry     beta=0.10
     Davidson diagonalization with overlap
     ethr =  1.00E-02,  avg # of iterations =  4.2

     Threshold (ethr) on eigenvalues was too large:
     Diagonalizing with lowered threshold

     Davidson diagonalization with overlap
     ethr =  6.16E-04,  avg # of iterations =  1.1

[...]

     total energy              =    -746.09386811 Ry
     Harris-Foulkes estimate   =    -746.11594455 Ry
     estimated scf accuracy    <       0.37699134 Ry

[...]

     total energy              =    -745.97119629 Ry
     Harris-Foulkes estimate   =    -745.97117767 Ry
     estimated scf accuracy    <       0.00000009 Ry

     iteration # 13     ecut=    58.80 Ry     beta=0.10
     Davidson diagonalization with overlap
     ethr =  1.44E-10,  avg # of iterations =  2.0

     negative rho (up, down):  4.142E-01 0.000E+00

     End of self-consistent calculation

          k = 0.0000 0.0000 0.0000 (  3407 PWs)   bands (ev):

   -64.9656 -64.9169 -64.9169 -24.4570 -24.4570 -24.4570 -24.1861 -24.1861
   -24.1861 -24.0366 -24.0366 -24.0366   9.0255   9.0255   9.1805   9.1805
     9.1805  10.2489  14.9510  17.1640  17.1640  17.1640  17.4847  17.4847
    20.9985  20.9985  20.9985  21.7920  21.7920  21.7920  22.2808  22.2808
    23.3343  23.9713  23.9713  23.9713  26.3410  30.3135  30.3135  30.5188
    30.5188  30.5188  32.1229  32.1229  32.1229  34.4990  39.2771  39.2771
    39.7157  39.7157

[...]

          k = 0.1035-0.1242-0.1242 (  3348 PWs)   bands (ev):

[...]

          k =-0.1242-0.1242-0.1242 (  3328 PWs)   bands (ev):

   -64.9329 -64.9329 -64.9329 -24.6029 -24.4054 -24.4054 -24.4054 -24.0669
   -24.0669 -24.0404 -24.0404 -24.0404   9.0549   9.0549   9.0549   9.4826
     9.4826  12.7252  16.4117  16.4117  16.4117  18.9022  18.9022  18.9022
    19.4226  19.4226  19.4226  20.8141  20.8141  20.8141  21.2210  21.5535
    21.5535  23.4114  23.4114  23.4114  24.5648  27.5920  27.5920  27.5920
    33.9140  33.9140  33.9140  34.2793  37.2600  37.2600  37.2600  39.0938
    39.5053  39.5053

     the Fermi energy is    21.4047 ev

!    total energy              =    -745.97127567 Ry
     Harris-Foulkes estimate   =    -745.97119632 Ry
     estimated scf accuracy    <          1.7E-09 Ry

     The total energy is the sum of the following terms:

     one-electron contribution =     -95.74920492 Ry
     hartree contribution      =      93.06312495 Ry
     xc contribution           =    -180.46801500 Ry
     ewald contribution        =    -562.80168478 Ry
     smearing contrib. (-TS)   =      -0.01549592 Ry

     convergence has been achieved in  13 iterations

     Forces acting on atoms (Ry/au):

     negative rho (up, down):  4.142E-01 0.000E+00
     atom    1 type  1   force =     0.00000000    0.00000000    0.00000000
     atom    2 type  1   force =     0.00000000    0.00000000    0.00000000
     atom    3 type  1   force =     0.00000000    0.00000000   -0.00000000
     atom    4 type  2   force =     0.00000000    0.00000000    0.00000000

     Total force =     0.000000     Total SCF correction =     0.000000
 !ASE

     General routines

     Parallel routines

   This run was terminated on:  22: 2:59  25Oct2017

   JOB DONE.