     Program PWSCF v.5.1rc2 (svn rev. ) starts on 25Oct2017 at 12:36:39

     Current dimensions of program PWSCF are:
     Max number of different atomic species (ntypx) = 10
     Max number of k-points (npk) =  40000
     Max angular momentum in pseudopotentials (lmaxx) =  3

     IMPORTANT: XC functional enforced from input :
     Exchange-correlation      = BEEF-VDW ( 1  4 27 13 2)
     Any further DFT definition will be discarded
     Please, verify this is what you really want

     Subspace diagonalization in iterative solution of the eigenvalue problem:
     a serial algorithm will be used

     bravais-lattice index     =            0
     lattice parameter (alat)  =       1.8897  a.u.
     unit-cell volume          =     603.7330 (a.u.)^3
     number of atoms/cell      =            4
     number of atomic types    =            2
     number of electrons       =        48.00
     number of Kohn-Sham states=           44
     kinetic-energy cutoff     =      58.7989  Ry
     charge density cutoff     =     587.9892  Ry
     convergence threshold     =      7.3E-09
     mixing beta               =       0.1000
     number of iterations used =           10  local-TF  mixing
     Exchange-correlation      = BEEF-VDW ( 1  4 27 13 2)
     nstep                     =           50

     celldm(1)=   1.889726  celldm(2)=   0.000000  celldm(3)=   0.000000
     celldm(4)=   0.000000  celldm(5)=   0.000000  celldm(6)=   0.000000

     crystal axes: (cart. coord. in units of alat)
               a(1) = (   4.472491   0.000000   0.000000 )
               a(2) = (   0.000000   4.472491   0.000000 )
               a(3) = (   0.000000   0.000000   4.472491 )

     reciprocal axes: (cart. coord. in units 2 pi/alat)
               b(1) = (  0.223589  0.000000  0.000000 )
               b(2) = (  0.000000  0.223589  0.000000 )
               b(3) = (  0.000000  0.000000  0.223589 )

     PseudoPot. # 1 for Zr read from file:
     /home/vossj/suncat/psp/gbrv1.5pbe/Zr.UPF
     MD5 check sum: 5db81b1e868ab7776c4564c113de050b
     Pseudo is Ultrasoft + core correction, Zval = 12.0
     Generated by new atomic code, or converted to UPF format
     Using radial grid of  887 points,  6 beta functions with:
                l(1) =   0
                l(2) =   0
                l(3) =   1
                l(4) =   1
                l(5) =   2
                l(6) =   2
     Q(r) pseudized with  6 coefficients,  rinner =    1.200   1.200   1.200
                                                       1.200   1.200

     PseudoPot. # 2 for Cd read from file:
     /home/vossj/suncat/psp/gbrv1.5pbe/Cd.UPF
     MD5 check sum: 17164a7926edb8e0dc231208abae86a6
     Pseudo is Ultrasoft + core correction, Zval = 12.0
     Generated by new atomic code, or converted to UPF format
     Using radial grid of  889 points,  6 beta functions with:
                l(1) =   0
                l(2) =   0
                l(3) =   1
                l(4) =   1
                l(5) =   2
                l(6) =   2
     Q(r) pseudized with  6 coefficients,  rinner =    1.000   1.000   1.000
                                                       1.000   1.000

     vdW kernel table read from file vdW_kernel_table
     MD5 check sum: 095c7af220d748ca6e76c0b4c6cfb241

     atomic species   valence    mass     pseudopotential
        Zr1           12.00    91.22400     Zr( 1.00)
        Cd1           12.00   112.41400     Cd( 1.00)

     48 Sym. Ops., with inversion, found (32 have fractional translation)

   Cartesian axes

     site n.     atom                  positions (alat units)
         1           Zr1 tau(   1) = (   0.0000000   0.0000000   0.0000000  )
         2           Zr1 tau(   2) = (   0.0000000   2.2362453   2.2362453  )
         3           Zr1 tau(   3) = (   2.2362453   0.0000000   2.2362453  )
         4           Cd1 tau(   4) = (   2.2362453   2.2362453   0.0000000  )

     number of k points=    84  Fermi-Dirac smearing, width (Ry)=  0.0073
                       cart. coord. in units 2pi/alat
        k(    1) = (   0.0000000   0.0000000   0.0000000), wk =   0.0011574
        k(    2) = (   0.0000000   0.0000000   0.0186324), wk =   0.0069444
        k(    3) = (   0.0000000   0.0000000   0.0372648), wk =   0.0069444
        k(    4) = (   0.0000000   0.0000000   0.0558973), wk =   0.0069444
        k(    5) = (   0.0000000   0.0000000   0.0745297), wk =   0.0069444
        k(    6) = (   0.0000000   0.0000000   0.0931621), wk =   0.0069444
        k(    7) = (   0.0000000   0.0000000  -0.1117945), wk =   0.0034722
        k(    8) = (   0.0000000   0.0186324   0.0186324), wk =   0.0138889
        k(    9) = (   0.0000000   0.0186324   0.0372648), wk =   0.0277778
        k(   10) = (   0.0000000   0.0186324   0.0558973), wk =   0.0277778
        k(   11) = (   0.0000000   0.0186324   0.0745297), wk =   0.0277778
        k(   12) = (   0.0000000   0.0186324   0.0931621), wk =   0.0277778
        k(   13) = (   0.0000000   0.0186324  -0.1117945), wk =   0.0138889
        k(   14) = (   0.0000000   0.0372648   0.0372648), wk =   0.0138889
        k(   15) = (   0.0000000   0.0372648   0.0558973), wk =   0.0277778
        k(   16) = (   0.0000000   0.0372648   0.0745297), wk =   0.0277778
        k(   17) = (   0.0000000   0.0372648   0.0931621), wk =   0.0277778
        k(   18) = (   0.0000000   0.0372648  -0.1117945), wk =   0.0138889
        k(   19) = (   0.0000000   0.0558973   0.0558973), wk =   0.0138889
        k(   20) = (   0.0000000   0.0558973   0.0745297), wk =   0.0277778
        k(   21) = (   0.0000000   0.0558973   0.0931621), wk =   0.0277778
        k(   22) = (   0.0000000   0.0558973  -0.1117945), wk =   0.0138889
        k(   23) = (   0.0000000   0.0745297   0.0745297), wk =   0.0138889
        k(   24) = (   0.0000000   0.0745297   0.0931621), wk =   0.0277778
        k(   25) = (   0.0000000   0.0745297  -0.1117945), wk =   0.0138889
        k(   26) = (   0.0000000   0.0931621   0.0931621), wk =   0.0138889
        k(   27) = (   0.0000000   0.0931621  -0.1117945), wk =   0.0138889
        k(   28) = (   0.0000000  -0.1117945  -0.1117945), wk =   0.0034722
        k(   29) = (   0.0186324   0.0186324   0.0186324), wk =   0.0092593
        k(   30) = (   0.0186324   0.0186324   0.0372648), wk =   0.0277778
        k(   31) = (   0.0186324   0.0186324   0.0558973), wk =   0.0277778
        k(   32) = (   0.0186324   0.0186324   0.0745297), wk =   0.0277778
        k(   33) = (   0.0186324   0.0186324   0.0931621), wk =   0.0277778
        k(   34) = (   0.0186324   0.0186324  -0.1117945), wk =   0.0138889
        k(   35) = (   0.0186324   0.0372648   0.0372648), wk =   0.0277778
        k(   36) = (   0.0186324   0.0372648   0.0558973), wk =   0.0555556
        k(   37) = (   0.0186324   0.0372648   0.0745297), wk =   0.0555556
        k(   38) = (   0.0186324   0.0372648   0.0931621), wk =   0.0555556
        k(   39) = (   0.0186324   0.0372648  -0.1117945), wk =   0.0277778
        k(   40) = (   0.0186324   0.0558973   0.0558973), wk =   0.0277778
        k(   41) = (   0.0186324   0.0558973   0.0745297), wk =   0.0555556
        k(   42) = (   0.0186324   0.0558973   0.0931621), wk =   0.0555556
        k(   43) = (   0.0186324   0.0558973  -0.1117945), wk =   0.0277778
        k(   44) = (   0.0186324   0.0745297   0.0745297), wk =   0.0277778
        k(   45) = (   0.0186324   0.0745297   0.0931621), wk =   0.0555556
        k(   46) = (   0.0186324   0.0745297  -0.1117945), wk =   0.0277778
        k(   47) = (   0.0186324   0.0931621   0.0931621), wk =   0.0277778
        k(   48) = (   0.0186324   0.0931621  -0.1117945), wk =   0.0277778
        k(   49) = (   0.0186324  -0.1117945  -0.1117945), wk =   0.0069444
        k(   50) = (   0.0372648   0.0372648   0.0372648), wk =   0.0092593
        k(   51) = (   0.0372648   0.0372648   0.0558973), wk =   0.0277778
        k(   52) = (   0.0372648   0.0372648   0.0745297), wk =   0.0277778
        k(   53) = (   0.0372648   0.0372648   0.0931621), wk =   0.0277778
        k(   54) = (   0.0372648   0.0372648  -0.1117945), wk =   0.0138889
        k(   55) = (   0.0372648   0.0558973   0.0558973), wk =   0.0277778
        k(   56) = (   0.0372648   0.0558973   0.0745297), wk =   0.0555556
        k(   57) = (   0.0372648   0.0558973   0.0931621), wk =   0.0555556
        k(   58) = (   0.0372648   0.0558973  -0.1117945), wk =   0.0277778
        k(   59) = (   0.0372648   0.0745297   0.0745297), wk =   0.0277778
        k(   60) = (   0.0372648   0.0745297   0.0931621), wk =   0.0555556
[...]
        k(   70) = (   0.0558973   0.0745297   0.0931621), wk =   0.0555556
        k(   71) = (   0.0558973   0.0745297  -0.1117945), wk =   0.0277778
        k(   72) = (   0.0558973   0.0931621   0.0931621), wk =   0.0277778
        k(   73) = (   0.0558973   0.0931621  -0.1117945), wk =   0.0277778
        k(   74) = (   0.0558973  -0.1117945  -0.1117945), wk =   0.0069444
        k(   75) = (   0.0745297   0.0745297   0.0745297), wk =   0.0092593
        k(   76) = (   0.0745297   0.0745297   0.0931621), wk =   0.0277778
        k(   77) = (   0.0745297   0.0745297  -0.1117945), wk =   0.0138889
        k(   78) = (   0.0745297   0.0931621   0.0931621), wk =   0.0277778
        k(   79) = (   0.0745297   0.0931621  -0.1117945), wk =   0.0277778
        k(   80) = (   0.0745297  -0.1117945  -0.1117945), wk =   0.0069444
        k(   81) = (   0.0931621   0.0931621   0.0931621), wk =   0.0092593
        k(   82) = (   0.0931621   0.0931621  -0.1117945), wk =   0.0138889
        k(   83) = (   0.0931621  -0.1117945  -0.1117945), wk =   0.0069444
        k(   84) = (  -0.1117945  -0.1117945  -0.1117945), wk =   0.0011574

     Largest allocated arrays     est. size (Mb)     dimensions
     Largest temporary arrays     est. size (Mb)     dimensions

     Initial potential from superposition of free atoms
     Check: negative starting charge=   -0.203789

     starting charge   47.49351, renormalised to   48.00000

     negative rho (up, down):  2.060E-01 0.000E+00

     *
     * You are using vdW-DF for exchange-correlation in this calculation.
     * Please cite the following three references that made this development
     * possible:
     *
     *   M. Dion, H. Rydberg, E. Schroder, D. C. Langreth, and
     *   B. I. Lundqvist, Phys. Rev. Lett. 92, 246401 (2004).
     *
     *   T. Thonhauser, V. R. Cooper, S. Li, A. Puzder, P. Hyldgaard, and
     *   D. C. Langreth, Phys. Rev. B 76, 125112 (2007).
     *
     *   G. Roman-Perez and J. M. Soler, Phys. Rev. Lett. 103, 096102 (2009).
     *
     *
     * If you are using vdW-DF2, please also cite:
     *
     *   K. Lee, E. D. Murray, L. Kong, B. I. Lundqvist, and
     *   D. C. Langreth, Phys. Rev. B 82, 081101(R) (2010).
     *
     *
     * If you are calculating the stress with vdW-DF, please also cite:
     *
     *   R. Sabatini, E. Kucukbenli, B. Kolb, T. Thonhauser, and
     *   S. de Gironcoli, J. Phys.: Condens. Matter 24, 424209 (2012).
     *

     Carrying out vdW-DF run using the following parameters:

     Nqs =      20    Nr_points =    1024   r_max =   100.000
     q_mesh =
               0.00001000     0.04494208     0.09755937     0.15916263
               0.23128650     0.31572767     0.41458969     0.53033537
               0.66584808     0.82450364     1.01025438     1.22772762
               1.48234092     1.78043706     2.12944203     2.53805004
               3.01644009     3.57652955     4.23227104     5.00000000

     Gradients computed in reciprocal space

     Starting wfc are   48 randomized atomic wfcs

     Self-consistent Calculation

     iteration #  1     ecut=    58.80 Ry     beta=0.10
     Davidson diagonalization with overlap
     ethr =  1.00E-02,  avg # of iterations =  4.1

     Threshold (ethr) on eigenvalues was too large:
     Diagonalizing with lowered threshold

     Davidson diagonalization with overlap
     ethr =  1.57E-04,  avg # of iterations =  2.5

[...]

     total energy              =    -415.48059433 Ry
     Harris-Foulkes estimate   =    -415.48372401 Ry
     estimated scf accuracy    <       0.07715858 Ry

[...]

     total energy              =    -415.46249583 Ry
     Harris-Foulkes estimate   =    -415.46248657 Ry
     estimated scf accuracy    <       0.00000015 Ry

     iteration # 10     ecut=    58.80 Ry     beta=0.10
     Davidson diagonalization with overlap
     ethr =  3.05E-10,  avg # of iterations =  3.2

     negative rho (up, down):  2.088E-01 0.000E+00

     End of self-consistent calculation

          k = 0.0000 0.0000 0.0000 (  4625 PWs)   bands (ev):

   -35.6096 -35.4521 -35.4520 -13.8529 -13.8529 -13.8529 -13.4487 -13.4487
   -13.4486 -13.1537 -13.1536 -13.1536   4.9151   4.9151   4.9673   4.9673
     4.9673   6.9608  10.0916  12.2514  12.2514  12.2515  12.2606  12.2607
    15.3627  15.3627  15.3627  16.0874  16.0875  16.0875  17.6365  17.6366
    18.6315  19.1837  19.1837  19.1838  20.7032  21.9241  21.9241  21.9241
    24.1881  24.1882  24.2917  24.2917

[...]

          k = 0.0932-0.1118-0.1118 (  4656 PWs)   bands (ev):

[...]

          k =-0.1118-0.1118-0.1118 (  4632 PWs)   bands (ev):

   -35.5037 -35.5035 -35.5035 -14.0496 -13.8258 -13.8258 -13.8257 -13.2172
   -13.2172 -13.2171 -13.1426 -13.1425   4.9310   4.9310   4.9310   5.1202
     5.1202   8.8389  11.5787  11.5787  11.5787  13.4365  13.4365  13.4365
    14.2278  14.2279  14.2279  14.7941  15.8791  15.8792  15.8792  16.7615
    16.7616  18.6520  18.6521  18.6521  19.2649  22.2332  22.2332  22.2332
    24.3988  24.4020  24.4020  24.4020

     the Fermi energy is    13.3721 ev

!    total energy              =    -415.46253637 Ry
     Harris-Foulkes estimate   =    -415.46249663 Ry
     estimated scf accuracy    <          4.1E-09 Ry

     The total energy is the sum of the following terms:

     one-electron contribution =     -68.40463068 Ry
     hartree contribution      =      61.58870977 Ry
     xc contribution           =     -96.17202287 Ry
     ewald contribution        =    -312.46433559 Ry
     smearing contrib. (-TS)   =      -0.01025701 Ry

     convergence has been achieved in  10 iterations

     Forces acting on atoms (Ry/au):

     negative rho (up, down):  2.088E-01 0.000E+00
     atom    1 type  1   force =     0.00000000   -0.00000000   -0.00000000
     atom    2 type  1   force =     0.00000000    0.00000000   -0.00000000
     atom    3 type  1   force =     0.00000000    0.00000000    0.00000000
     atom    4 type  2   force =     0.00000000    0.00000000   -0.00000000

     Total force =     0.000000     Total SCF correction =     0.000000
 !ASE

     General routines

     Parallel routines

   This run was terminated on:  12:37:32  25Oct2017

   JOB DONE.