     Program PWSCF v.5.1rc2 (svn rev. ) starts on 25Oct2017 at  8:24:37

     Current dimensions of program PWSCF are:
     Max number of different atomic species (ntypx) = 10
     Max number of k-points (npk) =  40000
     Max angular momentum in pseudopotentials (lmaxx) =  3

     IMPORTANT: XC functional enforced from input :
     Exchange-correlation      = BEEF-VDW ( 1  4 27 13 2)
     Any further DFT definition will be discarded
     Please, verify this is what you really want

     Subspace diagonalization in iterative solution of the eigenvalue problem:
     a serial algorithm will be used

     bravais-lattice index     =            0
     lattice parameter (alat)  =       1.8897  a.u.
     unit-cell volume          =     497.2227 (a.u.)^3
     number of atoms/cell      =            4
     number of atomic types    =            2
     number of electrons       =        52.00
     number of Kohn-Sham states=           46
     kinetic-energy cutoff     =      58.7989  Ry
     charge density cutoff     =     587.9892  Ry
     convergence threshold     =      7.3E-09
     mixing beta               =       0.1000
     number of iterations used =           10  local-TF  mixing
     Exchange-correlation      = BEEF-VDW ( 1  4 27 13 2)
     nstep                     =           50

     celldm(1)=   1.889726  celldm(2)=   0.000000  celldm(3)=   0.000000
     celldm(4)=   0.000000  celldm(5)=   0.000000  celldm(6)=   0.000000

     crystal axes: (cart. coord. in units of alat)
               a(1) = (   4.192291   0.000000   0.000000 )
               a(2) = (   0.000000   4.192291   0.000000 )
               a(3) = (   0.000000   0.000000   4.192291 )

     reciprocal axes: (cart. coord. in units 2 pi/alat)
               b(1) = (  0.238533  0.000000  0.000000 )
               b(2) = (  0.000000  0.238533  0.000000 )
               b(3) = (  0.000000  0.000000  0.238533 )

     PseudoPot. # 1 for Au read from file:
     /home/vossj/suncat/psp/gbrv1.5pbe/Au.UPF
     MD5 check sum: 9d7f43293ad2c663164586bc4b293ffc
     Pseudo is Ultrasoft + core correction, Zval = 11.0
     Generated by new atomic code, or converted to UPF format
     Using radial grid of  985 points,  7 beta functions with:
                l(1) =   0
                l(2) =   0
                l(3) =   1
                l(4) =   1
                l(5) =   2
                l(6) =   2
                l(7) =   3
     Q(r) pseudized with  6 coefficients,  rinner =    1.900   1.900   1.900
                                                       1.900   1.900   1.900
                                                       1.900

     PseudoPot. # 2 for Ag read from file:
     /home/vossj/suncat/psp/gbrv1.5pbe/Ag.UPF
     MD5 check sum: d66d668201baa78d5eb5b04ef7011058
     Pseudo is Ultrasoft + core correction, Zval = 19.0
     Generated by new atomic code, or converted to UPF format
     Using radial grid of  887 points,  6 beta functions with:
                l(1) =   0
                l(2) =   0
                l(3) =   1
                l(4) =   1
                l(5) =   2
                l(6) =   2
     Q(r) pseudized with  6 coefficients,  rinner =    1.300   1.300   1.300
                                                       1.300   1.300

     vdW kernel table read from file vdW_kernel_table
     MD5 check sum: 095c7af220d748ca6e76c0b4c6cfb241

     atomic species   valence    mass     pseudopotential
        Au1           11.00   196.96657     Au( 1.00)
        Ag1           19.00   107.86820     Ag( 1.00)

     48 Sym. Ops., with inversion, found (32 have fractional translation)

   Cartesian axes

     site n.     atom                  positions (alat units)
         1           Au1 tau(   1) = (   0.0000000   0.0000000   0.0000000  )
         2           Au1 tau(   2) = (   0.0000000   2.0961457   2.0961457  )
         3           Au1 tau(   3) = (   2.0961457   0.0000000   2.0961457  )
         4           Ag1 tau(   4) = (   2.0961457   2.0961457   0.0000000  )

     number of k points=    84  Fermi-Dirac smearing, width (Ry)=  0.0073
                       cart. coord. in units 2pi/alat
        k(    1) = (   0.0000000   0.0000000   0.0000000), wk =   0.0011574
        k(    2) = (   0.0000000   0.0000000   0.0198778), wk =   0.0069444
        k(    3) = (   0.0000000   0.0000000   0.0397555), wk =   0.0069444
        k(    4) = (   0.0000000   0.0000000   0.0596333), wk =   0.0069444
        k(    5) = (   0.0000000   0.0000000   0.0795110), wk =   0.0069444
        k(    6) = (   0.0000000   0.0000000   0.0993888), wk =   0.0069444
        k(    7) = (   0.0000000   0.0000000  -0.1192665), wk =   0.0034722
        k(    8) = (   0.0000000   0.0198778   0.0198778), wk =   0.0138889
        k(    9) = (   0.0000000   0.0198778   0.0397555), wk =   0.0277778
        k(   10) = (   0.0000000   0.0198778   0.0596333), wk =   0.0277778
        k(   11) = (   0.0000000   0.0198778   0.0795110), wk =   0.0277778
        k(   12) = (   0.0000000   0.0198778   0.0993888), wk =   0.0277778
        k(   13) = (   0.0000000   0.0198778  -0.1192665), wk =   0.0138889
        k(   14) = (   0.0000000   0.0397555   0.0397555), wk =   0.0138889
        k(   15) = (   0.0000000   0.0397555   0.0596333), wk =   0.0277778
        k(   16) = (   0.0000000   0.0397555   0.0795110), wk =   0.0277778
        k(   17) = (   0.0000000   0.0397555   0.0993888), wk =   0.0277778
        k(   18) = (   0.0000000   0.0397555  -0.1192665), wk =   0.0138889
        k(   19) = (   0.0000000   0.0596333   0.0596333), wk =   0.0138889
        k(   20) = (   0.0000000   0.0596333   0.0795110), wk =   0.0277778
        k(   21) = (   0.0000000   0.0596333   0.0993888), wk =   0.0277778
        k(   22) = (   0.0000000   0.0596333  -0.1192665), wk =   0.0138889
        k(   23) = (   0.0000000   0.0795110   0.0795110), wk =   0.0138889
        k(   24) = (   0.0000000   0.0795110   0.0993888), wk =   0.0277778
        k(   25) = (   0.0000000   0.0795110  -0.1192665), wk =   0.0138889
        k(   26) = (   0.0000000   0.0993888   0.0993888), wk =   0.0138889
        k(   27) = (   0.0000000   0.0993888  -0.1192665), wk =   0.0138889
        k(   28) = (   0.0000000  -0.1192665  -0.1192665), wk =   0.0034722
        k(   29) = (   0.0198778   0.0198778   0.0198778), wk =   0.0092593
        k(   30) = (   0.0198778   0.0198778   0.0397555), wk =   0.0277778
        k(   31) = (   0.0198778   0.0198778   0.0596333), wk =   0.0277778
        k(   32) = (   0.0198778   0.0198778   0.0795110), wk =   0.0277778
        k(   33) = (   0.0198778   0.0198778   0.0993888), wk =   0.0277778
        k(   34) = (   0.0198778   0.0198778  -0.1192665), wk =   0.0138889
        k(   35) = (   0.0198778   0.0397555   0.0397555), wk =   0.0277778
        k(   36) = (   0.0198778   0.0397555   0.0596333), wk =   0.0555556
        k(   37) = (   0.0198778   0.0397555   0.0795110), wk =   0.0555556
        k(   38) = (   0.0198778   0.0397555   0.0993888), wk =   0.0555556
        k(   39) = (   0.0198778   0.0397555  -0.1192665), wk =   0.0277778
        k(   40) = (   0.0198778   0.0596333   0.0596333), wk =   0.0277778
        k(   41) = (   0.0198778   0.0596333   0.0795110), wk =   0.0555556
        k(   42) = (   0.0198778   0.0596333   0.0993888), wk =   0.0555556
        k(   43) = (   0.0198778   0.0596333  -0.1192665), wk =   0.0277778
        k(   44) = (   0.0198778   0.0795110   0.0795110), wk =   0.0277778
        k(   45) = (   0.0198778   0.0795110   0.0993888), wk =   0.0555556
        k(   46) = (   0.0198778   0.0795110  -0.1192665), wk =   0.0277778
        k(   47) = (   0.0198778   0.0993888   0.0993888), wk =   0.0277778
        k(   48) = (   0.0198778   0.0993888  -0.1192665), wk =   0.0277778
        k(   49) = (   0.0198778  -0.1192665  -0.1192665), wk =   0.0069444
        k(   50) = (   0.0397555   0.0397555   0.0397555), wk =   0.0092593
        k(   51) = (   0.0397555   0.0397555   0.0596333), wk =   0.0277778
        k(   52) = (   0.0397555   0.0397555   0.0795110), wk =   0.0277778
        k(   53) = (   0.0397555   0.0397555   0.0993888), wk =   0.0277778
        k(   54) = (   0.0397555   0.0397555  -0.1192665), wk =   0.0138889
        k(   55) = (   0.0397555   0.0596333   0.0596333), wk =   0.0277778
        k(   56) = (   0.0397555   0.0596333   0.0795110), wk =   0.0555556
        k(   57) = (   0.0397555   0.0596333   0.0993888), wk =   0.0555556
        k(   58) = (   0.0397555   0.0596333  -0.1192665), wk =   0.0277778
        k(   59) = (   0.0397555   0.0795110   0.0795110), wk =   0.0277778
        k(   60) = (   0.0397555   0.0795110   0.0993888), wk =   0.0555556
[...]
        k(   70) = (   0.0596333   0.0795110   0.0993888), wk =   0.0555556
        k(   71) = (   0.0596333   0.0795110  -0.1192665), wk =   0.0277778
        k(   72) = (   0.0596333   0.0993888   0.0993888), wk =   0.0277778
        k(   73) = (   0.0596333   0.0993888  -0.1192665), wk =   0.0277778
        k(   74) = (   0.0596333  -0.1192665  -0.1192665), wk =   0.0069444
        k(   75) = (   0.0795110   0.0795110   0.0795110), wk =   0.0092593
        k(   76) = (   0.0795110   0.0795110   0.0993888), wk =   0.0277778
        k(   77) = (   0.0795110   0.0795110  -0.1192665), wk =   0.0138889
        k(   78) = (   0.0795110   0.0993888   0.0993888), wk =   0.0277778
        k(   79) = (   0.0795110   0.0993888  -0.1192665), wk =   0.0277778
        k(   80) = (   0.0795110  -0.1192665  -0.1192665), wk =   0.0069444
        k(   81) = (   0.0993888   0.0993888   0.0993888), wk =   0.0092593
        k(   82) = (   0.0993888   0.0993888  -0.1192665), wk =   0.0138889
        k(   83) = (   0.0993888  -0.1192665  -0.1192665), wk =   0.0069444
        k(   84) = (  -0.1192665  -0.1192665  -0.1192665), wk =   0.0011574

     Largest allocated arrays     est. size (Mb)     dimensions
     Largest temporary arrays     est. size (Mb)     dimensions

     Initial potential from superposition of free atoms

     starting charge   51.49959, renormalised to   52.00000

     *
     * You are using vdW-DF for exchange-correlation in this calculation.
     * Please cite the following three references that made this development
     * possible:
     *
     *   M. Dion, H. Rydberg, E. Schroder, D. C. Langreth, and
     *   B. I. Lundqvist, Phys. Rev. Lett. 92, 246401 (2004).
     *
     *   T. Thonhauser, V. R. Cooper, S. Li, A. Puzder, P. Hyldgaard, and
     *   D. C. Langreth, Phys. Rev. B 76, 125112 (2007).
     *
     *   G. Roman-Perez and J. M. Soler, Phys. Rev. Lett. 103, 096102 (2009).
     *
     *
     * If you are using vdW-DF2, please also cite:
     *
     *   K. Lee, E. D. Murray, L. Kong, B. I. Lundqvist, and
     *   D. C. Langreth, Phys. Rev. B 82, 081101(R) (2010).
     *
     *
     * If you are calculating the stress with vdW-DF, please also cite:
     *
     *   R. Sabatini, E. Kucukbenli, B. Kolb, T. Thonhauser, and
     *   S. de Gironcoli, J. Phys.: Condens. Matter 24, 424209 (2012).
     *

     Carrying out vdW-DF run using the following parameters:

     Nqs =      20    Nr_points =    1024   r_max =   100.000
     q_mesh =
               0.00001000     0.04494208     0.09755937     0.15916263
               0.23128650     0.31572767     0.41458969     0.53033537
               0.66584808     0.82450364     1.01025438     1.22772762
               1.48234092     1.78043706     2.12944203     2.53805004
               3.01644009     3.57652955     4.23227104     5.00000000

     Gradients computed in reciprocal space

     Starting wfc are   40 randomized atomic wfcs +    6 random wfc

     Self-consistent Calculation

     iteration #  1     ecut=    58.80 Ry     beta=0.10
     Davidson diagonalization with overlap
     ethr =  1.00E-02,  avg # of iterations =  5.3

     Threshold (ethr) on eigenvalues was too large:
     Diagonalizing with lowered threshold

     Davidson diagonalization with overlap
     ethr =  7.12E-04,  avg # of iterations =  1.1

     total energy              =    -646.92565290 Ry
     Harris-Foulkes estimate   =    -646.95012817 Ry
     estimated scf accuracy    <       0.36832550 Ry

[...]

     total energy              =    -646.84845806 Ry
     Harris-Foulkes estimate   =    -646.84845638 Ry
     estimated scf accuracy    <       0.00000007 Ry

     iteration # 12     ecut=    58.80 Ry     beta=0.10
     Davidson diagonalization with overlap
     ethr =  1.31E-10,  avg # of iterations =  2.0

     End of self-consistent calculation

          k = 0.0000 0.0000 0.0000 (  3791 PWs)   bands (ev):

   -77.7279 -41.2255 -41.2255 -41.2255   5.6525   7.8883   7.8883   7.9012
     8.1007   8.1007   8.1007   9.7193   9.7193   9.7193  10.8279  10.8279
    11.7354  11.7354  11.8402  11.8402  11.8402  12.0332  12.3650  12.3650
    12.3650  15.6928  15.6928  15.6928  19.0940  19.0940  20.9274  24.2098
    24.2098  24.2098  24.2938  24.2938  24.2938  29.3726  30.1967  30.1967
    31.1931  32.3083  32.3083  32.3083  32.7499  32.7499

[...]

          k = 0.0994-0.1193-0.1193 (  3788 PWs)   bands (ev):

[...]

          k =-0.1193-0.1193-0.1193 (  3840 PWs)   bands (ev):

   -77.7279 -41.2261 -41.2261 -41.2261   7.6557   7.6557   7.6557   7.9993
     9.6283   9.6283   9.6852   9.6852   9.6852   9.7438   9.7438   9.7438
    11.6864  11.6864  11.6864  11.7244  11.7244  12.0847  12.0847  12.0847
    13.7736  13.8632  13.8632  13.8632  16.5166  16.5166  16.5166  18.4704
    28.6557  28.7463  28.7463  28.7464  30.8868  30.8868  30.9021  30.9021
    30.9021  31.2847  31.2847  31.2847  34.4576  34.4683

     the Fermi energy is    14.1676 ev

!    total energy              =    -646.84846525 Ry
     Harris-Foulkes estimate   =    -646.84845808 Ry
     estimated scf accuracy    <          3.2E-09 Ry

     The total energy is the sum of the following terms:

     one-electron contribution =    -137.25160678 Ry
     hartree contribution      =     117.55999103 Ry
     xc contribution           =    -222.27131133 Ry
     ewald contribution        =    -404.88281359 Ry
     smearing contrib. (-TS)   =      -0.00272458 Ry

     convergence has been achieved in  12 iterations

     Forces acting on atoms (Ry/au):

     atom    1 type  1   force =     0.00000000    0.00000000    0.00000000
     atom    2 type  1   force =     0.00000000    0.00000000    0.00000000
     atom    3 type  1   force =     0.00000000    0.00000000    0.00000000
     atom    4 type  2   force =     0.00000000   -0.00000000    0.00000000

     Total force =     0.000000     Total SCF correction =     0.000000
 !ASE

     General routines

     Parallel routines

   This run was terminated on:   8:25:36  25Oct2017

   JOB DONE.