     Program PWSCF v.5.1rc2 (svn rev. ) starts on 24Oct2017 at 23: 6:51

     Current dimensions of program PWSCF are:
     Max number of different atomic species (ntypx) = 10
     Max number of k-points (npk) =  40000
     Max angular momentum in pseudopotentials (lmaxx) =  3

     IMPORTANT: XC functional enforced from input :
     Exchange-correlation      = BEEF-VDW ( 1  4 27 13 2)
     Any further DFT definition will be discarded
     Please, verify this is what you really want

     Subspace diagonalization in iterative solution of the eigenvalue problem:
     a serial algorithm will be used

     bravais-lattice index     =            0
     lattice parameter (alat)  =       1.8897  a.u.
     unit-cell volume          =     551.0804 (a.u.)^3
     number of atoms/cell      =            4
     number of atomic types    =            2
     number of electrons       =        49.00
     number of Kohn-Sham states=           44
     kinetic-energy cutoff     =      58.7989  Ry
     charge density cutoff     =     587.9892  Ry
     convergence threshold     =      7.3E-09
     mixing beta               =       0.1000
     number of iterations used =           10  local-TF  mixing
     Exchange-correlation      = BEEF-VDW ( 1  4 27 13 2)
     nstep                     =           50

     celldm(1)=   1.889726  celldm(2)=   0.000000  celldm(3)=   0.000000
     celldm(4)=   0.000000  celldm(5)=   0.000000  celldm(6)=   0.000000

     crystal axes: (cart. coord. in units of alat)
               a(1) = (   4.338498   0.000000   0.000000 )
               a(2) = (   0.000000   4.338498   0.000000 )
               a(3) = (   0.000000   0.000000   4.338498 )

     reciprocal axes: (cart. coord. in units 2 pi/alat)
               b(1) = (  0.230494  0.000000  0.000000 )
               b(2) = (  0.000000  0.230494  0.000000 )
               b(3) = (  0.000000  0.000000  0.230494 )

     PseudoPot. # 1 for Cd read from file:
     /home/vossj/suncat/psp/gbrv1.5pbe/Cd.UPF
     MD5 check sum: 17164a7926edb8e0dc231208abae86a6
     Pseudo is Ultrasoft + core correction, Zval = 12.0
     Generated by new atomic code, or converted to UPF format
     Using radial grid of  889 points,  6 beta functions with:
                l(1) =   0
                l(2) =   0
                l(3) =   1
                l(4) =   1
                l(5) =   2
                l(6) =   2
     Q(r) pseudized with  6 coefficients,  rinner =    1.000   1.000   1.000
                                                       1.000   1.000

     PseudoPot. # 2 for Nb read from file:
     /home/vossj/suncat/psp/gbrv1.5pbe/Nb.UPF
     MD5 check sum: 573aab8a2fa660278ed4a62cd769473f
     Pseudo is Ultrasoft + core correction, Zval = 13.0
     Generated by new atomic code, or converted to UPF format
     Using radial grid of  887 points,  6 beta functions with:
                l(1) =   0
                l(2) =   0
                l(3) =   1
                l(4) =   1
                l(5) =   2
                l(6) =   2
     Q(r) pseudized with  6 coefficients,  rinner =    1.000   1.000   1.000
                                                       1.000   1.000

     vdW kernel table read from file vdW_kernel_table
     MD5 check sum: 095c7af220d748ca6e76c0b4c6cfb241

     atomic species   valence    mass     pseudopotential
        Cd1           12.00   112.41400     Cd( 1.00)
        Nb1           13.00    92.90637     Nb( 1.00)

     48 Sym. Ops., with inversion, found (32 have fractional translation)

   Cartesian axes

     site n.     atom                  positions (alat units)
         1           Cd1 tau(   1) = (   0.0000000   0.0000000   0.0000000  )
         2           Cd1 tau(   2) = (   0.0000000   2.1692492   2.1692492  )
         3           Cd1 tau(   3) = (   2.1692492   0.0000000   2.1692492  )
         4           Nb1 tau(   4) = (   2.1692492   2.1692492   0.0000000  )

     number of k points=    84  Fermi-Dirac smearing, width (Ry)=  0.0073
                       cart. coord. in units 2pi/alat
        k(    1) = (   0.0000000   0.0000000   0.0000000), wk =   0.0011574
        k(    2) = (   0.0000000   0.0000000   0.0192079), wk =   0.0069444
        k(    3) = (   0.0000000   0.0000000   0.0384157), wk =   0.0069444
        k(    4) = (   0.0000000   0.0000000   0.0576236), wk =   0.0069444
        k(    5) = (   0.0000000   0.0000000   0.0768315), wk =   0.0069444
        k(    6) = (   0.0000000   0.0000000   0.0960394), wk =   0.0069444
        k(    7) = (   0.0000000   0.0000000  -0.1152472), wk =   0.0034722
        k(    8) = (   0.0000000   0.0192079   0.0192079), wk =   0.0138889
        k(    9) = (   0.0000000   0.0192079   0.0384157), wk =   0.0277778
        k(   10) = (   0.0000000   0.0192079   0.0576236), wk =   0.0277778
        k(   11) = (   0.0000000   0.0192079   0.0768315), wk =   0.0277778
        k(   12) = (   0.0000000   0.0192079   0.0960394), wk =   0.0277778
        k(   13) = (   0.0000000   0.0192079  -0.1152472), wk =   0.0138889
        k(   14) = (   0.0000000   0.0384157   0.0384157), wk =   0.0138889
        k(   15) = (   0.0000000   0.0384157   0.0576236), wk =   0.0277778
        k(   16) = (   0.0000000   0.0384157   0.0768315), wk =   0.0277778
        k(   17) = (   0.0000000   0.0384157   0.0960394), wk =   0.0277778
        k(   18) = (   0.0000000   0.0384157  -0.1152472), wk =   0.0138889
        k(   19) = (   0.0000000   0.0576236   0.0576236), wk =   0.0138889
        k(   20) = (   0.0000000   0.0576236   0.0768315), wk =   0.0277778
        k(   21) = (   0.0000000   0.0576236   0.0960394), wk =   0.0277778
        k(   22) = (   0.0000000   0.0576236  -0.1152472), wk =   0.0138889
        k(   23) = (   0.0000000   0.0768315   0.0768315), wk =   0.0138889
        k(   24) = (   0.0000000   0.0768315   0.0960394), wk =   0.0277778
        k(   25) = (   0.0000000   0.0768315  -0.1152472), wk =   0.0138889
        k(   26) = (   0.0000000   0.0960394   0.0960394), wk =   0.0138889
        k(   27) = (   0.0000000   0.0960394  -0.1152472), wk =   0.0138889
        k(   28) = (   0.0000000  -0.1152472  -0.1152472), wk =   0.0034722
        k(   29) = (   0.0192079   0.0192079   0.0192079), wk =   0.0092593
        k(   30) = (   0.0192079   0.0192079   0.0384157), wk =   0.0277778
        k(   31) = (   0.0192079   0.0192079   0.0576236), wk =   0.0277778
        k(   32) = (   0.0192079   0.0192079   0.0768315), wk =   0.0277778
        k(   33) = (   0.0192079   0.0192079   0.0960394), wk =   0.0277778
        k(   34) = (   0.0192079   0.0192079  -0.1152472), wk =   0.0138889
        k(   35) = (   0.0192079   0.0384157   0.0384157), wk =   0.0277778
        k(   36) = (   0.0192079   0.0384157   0.0576236), wk =   0.0555556
        k(   37) = (   0.0192079   0.0384157   0.0768315), wk =   0.0555556
        k(   38) = (   0.0192079   0.0384157   0.0960394), wk =   0.0555556
        k(   39) = (   0.0192079   0.0384157  -0.1152472), wk =   0.0277778
        k(   40) = (   0.0192079   0.0576236   0.0576236), wk =   0.0277778
        k(   41) = (   0.0192079   0.0576236   0.0768315), wk =   0.0555556
        k(   42) = (   0.0192079   0.0576236   0.0960394), wk =   0.0555556
        k(   43) = (   0.0192079   0.0576236  -0.1152472), wk =   0.0277778
        k(   44) = (   0.0192079   0.0768315   0.0768315), wk =   0.0277778
        k(   45) = (   0.0192079   0.0768315   0.0960394), wk =   0.0555556
        k(   46) = (   0.0192079   0.0768315  -0.1152472), wk =   0.0277778
        k(   47) = (   0.0192079   0.0960394   0.0960394), wk =   0.0277778
        k(   48) = (   0.0192079   0.0960394  -0.1152472), wk =   0.0277778
        k(   49) = (   0.0192079  -0.1152472  -0.1152472), wk =   0.0069444
        k(   50) = (   0.0384157   0.0384157   0.0384157), wk =   0.0092593
        k(   51) = (   0.0384157   0.0384157   0.0576236), wk =   0.0277778
        k(   52) = (   0.0384157   0.0384157   0.0768315), wk =   0.0277778
        k(   53) = (   0.0384157   0.0384157   0.0960394), wk =   0.0277778
        k(   54) = (   0.0384157   0.0384157  -0.1152472), wk =   0.0138889
        k(   55) = (   0.0384157   0.0576236   0.0576236), wk =   0.0277778
        k(   56) = (   0.0384157   0.0576236   0.0768315), wk =   0.0555556
        k(   57) = (   0.0384157   0.0576236   0.0960394), wk =   0.0555556
        k(   58) = (   0.0384157   0.0576236  -0.1152472), wk =   0.0277778
        k(   59) = (   0.0384157   0.0768315   0.0768315), wk =   0.0277778
        k(   60) = (   0.0384157   0.0768315   0.0960394), wk =   0.0555556
[...]
        k(   70) = (   0.0576236   0.0768315   0.0960394), wk =   0.0555556
        k(   71) = (   0.0576236   0.0768315  -0.1152472), wk =   0.0277778
        k(   72) = (   0.0576236   0.0960394   0.0960394), wk =   0.0277778
        k(   73) = (   0.0576236   0.0960394  -0.1152472), wk =   0.0277778
        k(   74) = (   0.0576236  -0.1152472  -0.1152472), wk =   0.0069444
        k(   75) = (   0.0768315   0.0768315   0.0768315), wk =   0.0092593
        k(   76) = (   0.0768315   0.0768315   0.0960394), wk =   0.0277778
        k(   77) = (   0.0768315   0.0768315  -0.1152472), wk =   0.0138889
        k(   78) = (   0.0768315   0.0960394   0.0960394), wk =   0.0277778
        k(   79) = (   0.0768315   0.0960394  -0.1152472), wk =   0.0277778
        k(   80) = (   0.0768315  -0.1152472  -0.1152472), wk =   0.0069444
        k(   81) = (   0.0960394   0.0960394   0.0960394), wk =   0.0092593
        k(   82) = (   0.0960394   0.0960394  -0.1152472), wk =   0.0138889
        k(   83) = (   0.0960394  -0.1152472  -0.1152472), wk =   0.0069444
        k(   84) = (  -0.1152472  -0.1152472  -0.1152472), wk =   0.0011574

     Largest allocated arrays     est. size (Mb)     dimensions
     Largest temporary arrays     est. size (Mb)     dimensions

     Initial potential from superposition of free atoms
     Check: negative starting charge=   -0.062183

     starting charge   47.49714, renormalised to   49.00000

     negative rho (up, down):  6.415E-02 0.000E+00

     *
     * You are using vdW-DF for exchange-correlation in this calculation.
     * Please cite the following three references that made this development
     * possible:
     *
     *   M. Dion, H. Rydberg, E. Schroder, D. C. Langreth, and
     *   B. I. Lundqvist, Phys. Rev. Lett. 92, 246401 (2004).
     *
     *   T. Thonhauser, V. R. Cooper, S. Li, A. Puzder, P. Hyldgaard, and
     *   D. C. Langreth, Phys. Rev. B 76, 125112 (2007).
     *
     *   G. Roman-Perez and J. M. Soler, Phys. Rev. Lett. 103, 096102 (2009).
     *
     *
     * If you are using vdW-DF2, please also cite:
     *
     *   K. Lee, E. D. Murray, L. Kong, B. I. Lundqvist, and
     *   D. C. Langreth, Phys. Rev. B 82, 081101(R) (2010).
     *
     *
     * If you are calculating the stress with vdW-DF, please also cite:
     *
     *   R. Sabatini, E. Kucukbenli, B. Kolb, T. Thonhauser, and
     *   S. de Gironcoli, J. Phys.: Condens. Matter 24, 424209 (2012).
     *

     Carrying out vdW-DF run using the following parameters:

     Nqs =      20    Nr_points =    1024   r_max =   100.000
     q_mesh =
               0.00001000     0.04494208     0.09755937     0.15916263
               0.23128650     0.31572767     0.41458969     0.53033537
               0.66584808     0.82450364     1.01025438     1.22772762
               1.48234092     1.78043706     2.12944203     2.53805004
               3.01644009     3.57652955     4.23227104     5.00000000

     Gradients computed in reciprocal space

     Starting wfc are   40 randomized atomic wfcs +    4 random wfc

     Self-consistent Calculation

     iteration #  1     ecut=    58.80 Ry     beta=0.10
     Davidson diagonalization with overlap
     ethr =  1.00E-02,  avg # of iterations =  4.6

[...]

     total energy              =    -466.99466706 Ry
     Harris-Foulkes estimate   =    -467.04156965 Ry
     estimated scf accuracy    <       0.91137180 Ry

[...]

     total energy              =    -466.82756861 Ry
     Harris-Foulkes estimate   =    -466.82755855 Ry
     estimated scf accuracy    <       0.00000001 Ry

     iteration # 14     ecut=    58.80 Ry     beta=0.10
     Davidson diagonalization with overlap
     ethr =  2.82E-11,  avg # of iterations =  1.0

     negative rho (up, down):  6.466E-02 0.000E+00

     End of self-consistent calculation

          k = 0.0000 0.0000 0.0000 (  4169 PWs)   bands (ev):

   -42.5417 -18.5441 -18.5441 -18.5441   3.1979   3.3693   3.3694   3.3694
     3.6451   3.6451   4.2227   4.2227   4.2228   4.5055   4.5055   4.6472
     4.8475   4.9088   4.9088   4.9088  11.7874  11.7874  13.0443  13.0443
    13.0443  13.8044  13.8044  13.8044  17.8762  17.9036  17.9036  20.0464
    20.0464  20.0464  22.1736  22.1736  22.1736  26.2796  26.5786  26.5786
    26.9414  26.9414  26.9414  28.4367

[...]

          k = 0.0960-0.1152-0.1152 (  4224 PWs)   bands (ev):

[...]

          k =-0.1152-0.1152-0.1152 (  4224 PWs)   bands (ev):

   -42.5407 -18.5537 -18.5537 -18.5537   3.4874   3.5114   3.5114   3.5114
     3.9136   3.9136   3.9137   4.2309   4.2309   4.2309   4.3827   4.3827
     4.8305   4.8305   4.8306  10.3351  10.3351  10.3351  10.7269  11.6845
    11.6845  11.6845  14.1031  14.1031  16.0461  16.4732  16.4732  16.4732
    25.5371  25.5371  25.5371  25.7737  25.8549  25.8549  25.8549  26.3366
    26.3366  29.7356  29.7356  29.7356

     the Fermi energy is    12.7484 ev

!    total energy              =    -466.82761149 Ry
     Harris-Foulkes estimate   =    -466.82756861 Ry
     estimated scf accuracy    <          1.7E-09 Ry

     The total energy is the sum of the following terms:

     one-electron contribution =     -67.31136365 Ry
     hartree contribution      =      77.95128744 Ry
     xc contribution           =    -141.58059189 Ry
     ewald contribution        =    -335.88213784 Ry
     smearing contrib. (-TS)   =      -0.00480556 Ry

     convergence has been achieved in  14 iterations

     Forces acting on atoms (Ry/au):

     negative rho (up, down):  6.466E-02 0.000E+00
     atom    1 type  1   force =     0.00000000   -0.00000000    0.00000000
     atom    2 type  1   force =     0.00000000    0.00000000   -0.00000000
     atom    3 type  1   force =     0.00000000    0.00000000    0.00000000
     atom    4 type  2   force =     0.00000000   -0.00000000    0.00000000

     Total force =     0.000000     Total SCF correction =     0.000000
 !ASE

     General routines

     Parallel routines

   This run was terminated on:  23: 7:53  24Oct2017

   JOB DONE.