     Program PWSCF v.5.1rc2 (svn rev. ) starts on 24Oct2017 at 22: 3:56

     Current dimensions of program PWSCF are:
     Max number of different atomic species (ntypx) = 10
     Max number of k-points (npk) =  40000
     Max angular momentum in pseudopotentials (lmaxx) =  3

     IMPORTANT: XC functional enforced from input :
     Exchange-correlation      = BEEF-VDW ( 1  4 27 13 2)
     Any further DFT definition will be discarded
     Please, verify this is what you really want

     Subspace diagonalization in iterative solution of the eigenvalue problem:
     a serial algorithm will be used

     bravais-lattice index     =            0
     lattice parameter (alat)  =       1.8897  a.u.
     unit-cell volume          =     472.5037 (a.u.)^3
     number of atoms/cell      =            4
     number of atomic types    =            2
     number of electrons       =        73.00
     number of Kohn-Sham states=           56
     kinetic-energy cutoff     =      58.7989  Ry
     charge density cutoff     =     587.9892  Ry
     convergence threshold     =      7.3E-09
     mixing beta               =       0.1000
     number of iterations used =           10  local-TF  mixing
     Exchange-correlation      = BEEF-VDW ( 1  4 27 13 2)
     nstep                     =           50

     celldm(1)=   1.889726  celldm(2)=   0.000000  celldm(3)=   0.000000
     celldm(4)=   0.000000  celldm(5)=   0.000000  celldm(6)=   0.000000

     crystal axes: (cart. coord. in units of alat)
               a(1) = (   4.121635   0.000000   0.000000 )
               a(2) = (   0.000000   4.121635   0.000000 )
               a(3) = (   0.000000   0.000000   4.121635 )

     reciprocal axes: (cart. coord. in units 2 pi/alat)
               b(1) = (  0.242622  0.000000  0.000000 )
               b(2) = (  0.000000  0.242622  0.000000 )
               b(3) = (  0.000000  0.000000  0.242622 )

     PseudoPot. # 1 for Ag read from file:
     /home/vossj/suncat/psp/gbrv1.5pbe/Ag.UPF
     MD5 check sum: d66d668201baa78d5eb5b04ef7011058
     Pseudo is Ultrasoft + core correction, Zval = 19.0
     Generated by new atomic code, or converted to UPF format
     Using radial grid of  887 points,  6 beta functions with:
                l(1) =   0
                l(2) =   0
                l(3) =   1
                l(4) =   1
                l(5) =   2
                l(6) =   2
     Q(r) pseudized with  6 coefficients,  rinner =    1.300   1.300   1.300
                                                       1.300   1.300

     PseudoPot. # 2 for Pt read from file:
     /home/vossj/suncat/psp/gbrv1.5pbe/Pt.UPF
     MD5 check sum: f09d6de1a584b5a045c4fc126da2d0c4
     Pseudo is Ultrasoft + core correction, Zval = 16.0
     Generated by new atomic code, or converted to UPF format
     Using radial grid of  985 points,  6 beta functions with:
                l(1) =   0
                l(2) =   0
                l(3) =   1
                l(4) =   1
                l(5) =   2
                l(6) =   2
     Q(r) pseudized with  8 coefficients,  rinner =    1.300   1.300   1.300
                                                       1.300   1.300

     vdW kernel table read from file vdW_kernel_table
     MD5 check sum: 095c7af220d748ca6e76c0b4c6cfb241

     atomic species   valence    mass     pseudopotential
        Ag1           19.00   107.86820     Ag( 1.00)
        Pt1           16.00   195.08400     Pt( 1.00)

     48 Sym. Ops., with inversion, found (32 have fractional translation)

   Cartesian axes

     site n.     atom                  positions (alat units)
         1           Ag1 tau(   1) = (   0.0000000   0.0000000   0.0000000  )
         2           Ag1 tau(   2) = (   0.0000000   2.0608176   2.0608176  )
         3           Ag1 tau(   3) = (   2.0608176   0.0000000   2.0608176  )
         4           Pt1 tau(   4) = (   2.0608176   2.0608176   0.0000000  )

     number of k points=    84  Fermi-Dirac smearing, width (Ry)=  0.0073
                       cart. coord. in units 2pi/alat
        k(    1) = (   0.0000000   0.0000000   0.0000000), wk =   0.0011574
        k(    2) = (   0.0000000   0.0000000   0.0202185), wk =   0.0069444
        k(    3) = (   0.0000000   0.0000000   0.0404370), wk =   0.0069444
        k(    4) = (   0.0000000   0.0000000   0.0606555), wk =   0.0069444
        k(    5) = (   0.0000000   0.0000000   0.0808741), wk =   0.0069444
        k(    6) = (   0.0000000   0.0000000   0.1010926), wk =   0.0069444
        k(    7) = (   0.0000000   0.0000000  -0.1213111), wk =   0.0034722
        k(    8) = (   0.0000000   0.0202185   0.0202185), wk =   0.0138889
        k(    9) = (   0.0000000   0.0202185   0.0404370), wk =   0.0277778
        k(   10) = (   0.0000000   0.0202185   0.0606555), wk =   0.0277778
        k(   11) = (   0.0000000   0.0202185   0.0808741), wk =   0.0277778
        k(   12) = (   0.0000000   0.0202185   0.1010926), wk =   0.0277778
        k(   13) = (   0.0000000   0.0202185  -0.1213111), wk =   0.0138889
        k(   14) = (   0.0000000   0.0404370   0.0404370), wk =   0.0138889
        k(   15) = (   0.0000000   0.0404370   0.0606555), wk =   0.0277778
        k(   16) = (   0.0000000   0.0404370   0.0808741), wk =   0.0277778
        k(   17) = (   0.0000000   0.0404370   0.1010926), wk =   0.0277778
        k(   18) = (   0.0000000   0.0404370  -0.1213111), wk =   0.0138889
        k(   19) = (   0.0000000   0.0606555   0.0606555), wk =   0.0138889
        k(   20) = (   0.0000000   0.0606555   0.0808741), wk =   0.0277778
        k(   21) = (   0.0000000   0.0606555   0.1010926), wk =   0.0277778
        k(   22) = (   0.0000000   0.0606555  -0.1213111), wk =   0.0138889
        k(   23) = (   0.0000000   0.0808741   0.0808741), wk =   0.0138889
        k(   24) = (   0.0000000   0.0808741   0.1010926), wk =   0.0277778
        k(   25) = (   0.0000000   0.0808741  -0.1213111), wk =   0.0138889
        k(   26) = (   0.0000000   0.1010926   0.1010926), wk =   0.0138889
        k(   27) = (   0.0000000   0.1010926  -0.1213111), wk =   0.0138889
        k(   28) = (   0.0000000  -0.1213111  -0.1213111), wk =   0.0034722
        k(   29) = (   0.0202185   0.0202185   0.0202185), wk =   0.0092593
        k(   30) = (   0.0202185   0.0202185   0.0404370), wk =   0.0277778
        k(   31) = (   0.0202185   0.0202185   0.0606555), wk =   0.0277778
        k(   32) = (   0.0202185   0.0202185   0.0808741), wk =   0.0277778
        k(   33) = (   0.0202185   0.0202185   0.1010926), wk =   0.0277778
        k(   34) = (   0.0202185   0.0202185  -0.1213111), wk =   0.0138889
        k(   35) = (   0.0202185   0.0404370   0.0404370), wk =   0.0277778
        k(   36) = (   0.0202185   0.0404370   0.0606555), wk =   0.0555556
        k(   37) = (   0.0202185   0.0404370   0.0808741), wk =   0.0555556
        k(   38) = (   0.0202185   0.0404370   0.1010926), wk =   0.0555556
        k(   39) = (   0.0202185   0.0404370  -0.1213111), wk =   0.0277778
        k(   40) = (   0.0202185   0.0606555   0.0606555), wk =   0.0277778
        k(   41) = (   0.0202185   0.0606555   0.0808741), wk =   0.0555556
        k(   42) = (   0.0202185   0.0606555   0.1010926), wk =   0.0555556
        k(   43) = (   0.0202185   0.0606555  -0.1213111), wk =   0.0277778
        k(   44) = (   0.0202185   0.0808741   0.0808741), wk =   0.0277778
        k(   45) = (   0.0202185   0.0808741   0.1010926), wk =   0.0555556
        k(   46) = (   0.0202185   0.0808741  -0.1213111), wk =   0.0277778
        k(   47) = (   0.0202185   0.1010926   0.1010926), wk =   0.0277778
        k(   48) = (   0.0202185   0.1010926  -0.1213111), wk =   0.0277778
        k(   49) = (   0.0202185  -0.1213111  -0.1213111), wk =   0.0069444
        k(   50) = (   0.0404370   0.0404370   0.0404370), wk =   0.0092593
        k(   51) = (   0.0404370   0.0404370   0.0606555), wk =   0.0277778
        k(   52) = (   0.0404370   0.0404370   0.0808741), wk =   0.0277778
        k(   53) = (   0.0404370   0.0404370   0.1010926), wk =   0.0277778
        k(   54) = (   0.0404370   0.0404370  -0.1213111), wk =   0.0138889
        k(   55) = (   0.0404370   0.0606555   0.0606555), wk =   0.0277778
        k(   56) = (   0.0404370   0.0606555   0.0808741), wk =   0.0555556
        k(   57) = (   0.0404370   0.0606555   0.1010926), wk =   0.0555556
        k(   58) = (   0.0404370   0.0606555  -0.1213111), wk =   0.0277778
        k(   59) = (   0.0404370   0.0808741   0.0808741), wk =   0.0277778
        k(   60) = (   0.0404370   0.0808741   0.1010926), wk =   0.0555556
[...]
        k(   70) = (   0.0606555   0.0808741   0.1010926), wk =   0.0555556
        k(   71) = (   0.0606555   0.0808741  -0.1213111), wk =   0.0277778
        k(   72) = (   0.0606555   0.1010926   0.1010926), wk =   0.0277778
        k(   73) = (   0.0606555   0.1010926  -0.1213111), wk =   0.0277778
        k(   74) = (   0.0606555  -0.1213111  -0.1213111), wk =   0.0069444
        k(   75) = (   0.0808741   0.0808741   0.0808741), wk =   0.0092593
        k(   76) = (   0.0808741   0.0808741   0.1010926), wk =   0.0277778
        k(   77) = (   0.0808741   0.0808741  -0.1213111), wk =   0.0138889
        k(   78) = (   0.0808741   0.1010926   0.1010926), wk =   0.0277778
        k(   79) = (   0.0808741   0.1010926  -0.1213111), wk =   0.0277778
        k(   80) = (   0.0808741  -0.1213111  -0.1213111), wk =   0.0069444
        k(   81) = (   0.1010926   0.1010926   0.1010926), wk =   0.0092593
        k(   82) = (   0.1010926   0.1010926  -0.1213111), wk =   0.0138889
        k(   83) = (   0.1010926  -0.1213111  -0.1213111), wk =   0.0069444
        k(   84) = (  -0.1213111  -0.1213111  -0.1213111), wk =   0.0011574

     Largest allocated arrays     est. size (Mb)     dimensions
     Largest temporary arrays     est. size (Mb)     dimensions

     Initial potential from superposition of free atoms
     Check: negative starting charge=   -0.184975

     starting charge   70.99985, renormalised to   73.00000

     negative rho (up, down):  1.902E-01 0.000E+00

     *
     * You are using vdW-DF for exchange-correlation in this calculation.
     * Please cite the following three references that made this development
     * possible:
     *
     *   M. Dion, H. Rydberg, E. Schroder, D. C. Langreth, and
     *   B. I. Lundqvist, Phys. Rev. Lett. 92, 246401 (2004).
     *
     *   T. Thonhauser, V. R. Cooper, S. Li, A. Puzder, P. Hyldgaard, and
     *   D. C. Langreth, Phys. Rev. B 76, 125112 (2007).
     *
     *   G. Roman-Perez and J. M. Soler, Phys. Rev. Lett. 103, 096102 (2009).
     *
     *
     * If you are using vdW-DF2, please also cite:
     *
     *   K. Lee, E. D. Murray, L. Kong, B. I. Lundqvist, and
     *   D. C. Langreth, Phys. Rev. B 82, 081101(R) (2010).
     *
     *
     * If you are calculating the stress with vdW-DF, please also cite:
     *
     *   R. Sabatini, E. Kucukbenli, B. Kolb, T. Thonhauser, and
     *   S. de Gironcoli, J. Phys.: Condens. Matter 24, 424209 (2012).
     *

     Carrying out vdW-DF run using the following parameters:

     Nqs =      20    Nr_points =    1024   r_max =   100.000
     q_mesh =
               0.00001000     0.04494208     0.09755937     0.15916263
               0.23128650     0.31572767     0.41458969     0.53033537
               0.66584808     0.82450364     1.01025438     1.22772762
               1.48234092     1.78043706     2.12944203     2.53805004
               3.01644009     3.57652955     4.23227104     5.00000000

     Gradients computed in reciprocal space

     Starting wfc are   51 randomized atomic wfcs +    5 random wfc

     Self-consistent Calculation

     iteration #  1     ecut=    58.80 Ry     beta=0.10
     Davidson diagonalization with overlap
     ethr =  1.00E-02,  avg # of iterations =  4.7

[...]

     total energy              =   -1103.12147113 Ry
     Harris-Foulkes estimate   =   -1103.37189519 Ry
     estimated scf accuracy    <       3.65468200 Ry

[...]

     total energy              =   -1102.39626104 Ry
     Harris-Foulkes estimate   =   -1102.39625702 Ry
     estimated scf accuracy    <       0.00000004 Ry

     iteration # 14     ecut=    58.80 Ry     beta=0.10
     Davidson diagonalization with overlap
     ethr =  1.37E-11,  avg # of iterations =  2.0

     negative rho (up, down):  1.791E-01 0.000E+00

     End of self-consistent calculation

          k = 0.0000 0.0000 0.0000 (  3695 PWs)   bands (ev):

   -75.1244 -75.1096 -75.1096 -38.6709 -38.6709 -38.6709 -38.5860 -38.5860
   -38.5860 -38.5660 -38.5660 -38.5660 -35.0581 -35.0581 -35.0581   9.2772
    10.5826  10.9569  10.9569  10.9624  10.9624  10.9624  12.4929  12.4929
    12.4929  13.3445  13.3445  13.9059  14.0908  14.0908  14.0908  15.5458
    15.5458  16.1181  16.1181  16.1181  18.8893  18.8893  18.8893  22.9756
    24.4818  24.4818  27.6196  27.6196  27.6196  28.0391  28.0391  28.0391
    33.0868  33.6185  34.5689  34.5689  34.8673  34.8673  34.8673  36.6255

[...]

          k = 0.1011-0.1213-0.1213 (  3588 PWs)   bands (ev):

[...]

          k =-0.1213-0.1213-0.1213 (  3544 PWs)   bands (ev):

   -75.1144 -75.1144 -75.1144 -38.7189 -38.6349 -38.6349 -38.6349 -38.5962
   -38.5962 -38.5518 -38.5518 -38.5518 -35.0586 -35.0586 -35.0586  10.5572
    10.9125  10.9125  10.9125  12.1922  12.1922  12.1922  12.4685  12.4685
    12.4685  12.7738  12.7738  13.9133  13.9133  13.9133  15.3437  15.3437
    15.3437  15.8106  15.8106  16.7203  16.9848  16.9848  16.9848  19.6900
    21.4119  21.4119  21.4119  32.3214  32.3214  32.3214  32.3444  34.4977
    34.4977  34.4977  34.8710  34.8710  35.5181  35.5181  35.5181  39.4546

     the Fermi energy is    16.5940 ev

!    total energy              =   -1102.39627827 Ry
     Harris-Foulkes estimate   =   -1102.39626105 Ry
     estimated scf accuracy    <          1.6E-10 Ry

     The total energy is the sum of the following terms:

     one-electron contribution =    -419.42438912 Ry
     hartree contribution      =     252.28869329 Ry
     xc contribution           =    -149.07342019 Ry
     ewald contribution        =    -786.18430727 Ry
     smearing contrib. (-TS)   =      -0.00285498 Ry

     convergence has been achieved in  14 iterations

     Forces acting on atoms (Ry/au):

     negative rho (up, down):  1.791E-01 0.000E+00
     atom    1 type  1   force =     0.00000000    0.00000000    0.00000000
     atom    2 type  1   force =     0.00000000    0.00000000    0.00000000
     atom    3 type  1   force =     0.00000000    0.00000000    0.00000000
     atom    4 type  2   force =     0.00000000    0.00000000    0.00000000

     Total force =     0.000000     Total SCF correction =     0.000000
 !ASE

     General routines

     Parallel routines

   This run was terminated on:  22: 5: 6  24Oct2017

   JOB DONE.