     Program PWSCF v.5.1rc2 (svn rev. ) starts on 25Oct2017 at 13:55: 9

     Current dimensions of program PWSCF are:
     Max number of different atomic species (ntypx) = 10
     Max number of k-points (npk) =  40000
     Max angular momentum in pseudopotentials (lmaxx) =  3

     IMPORTANT: XC functional enforced from input :
     Exchange-correlation      = BEEF-VDW ( 1  4 27 13 2)
     Any further DFT definition will be discarded
     Please, verify this is what you really want

     Subspace diagonalization in iterative solution of the eigenvalue problem:
     a serial algorithm will be used

     bravais-lattice index     =            0
     lattice parameter (alat)  =       1.8897  a.u.
     unit-cell volume          =     372.9436 (a.u.)^3
     number of atoms/cell      =            4
     number of atomic types    =            2
     number of electrons       =        55.00
     number of Kohn-Sham states=           47
     kinetic-energy cutoff     =      58.7989  Ry
     charge density cutoff     =     587.9892  Ry
     convergence threshold     =      7.3E-09
     mixing beta               =       0.1000
     number of iterations used =           10  local-TF  mixing
     Exchange-correlation      = BEEF-VDW ( 1  4 27 13 2)
     nstep                     =           50

     celldm(1)=   1.889726  celldm(2)=   0.000000  celldm(3)=   0.000000
     celldm(4)=   0.000000  celldm(5)=   0.000000  celldm(6)=   0.000000

     crystal axes: (cart. coord. in units of alat)
               a(1) = (   3.809040   0.000000   0.000000 )
               a(2) = (   0.000000   3.809040   0.000000 )
               a(3) = (   0.000000   0.000000   3.809040 )

     reciprocal axes: (cart. coord. in units 2 pi/alat)
               b(1) = (  0.262533  0.000000  0.000000 )
               b(2) = (  0.000000  0.262533  0.000000 )
               b(3) = (  0.000000  0.000000  0.262533 )

     PseudoPot. # 1 for Cr read from file:
     /home/vossj/suncat/psp/gbrv1.5pbe/Cr.UPF
     MD5 check sum: 0d52af634a40206e4dee301ad30da4bf
     Pseudo is Ultrasoft + core correction, Zval = 14.0
     Generated by new atomic code, or converted to UPF format
     Using radial grid of  857 points,  6 beta functions with:
                l(1) =   0
                l(2) =   0
                l(3) =   1
                l(4) =   1
                l(5) =   2
                l(6) =   2
     Q(r) pseudized with  8 coefficients,  rinner =    0.950   0.950   0.950
                                                       0.950   0.950

     PseudoPot. # 2 for Ta read from file:
     /home/vossj/suncat/psp/gbrv1.5pbe/Ta.UPF
     MD5 check sum: f8bbe9446314a3b8ea5d9f3e3836c939
     Pseudo is Ultrasoft + core correction, Zval = 13.0
     Generated by new atomic code, or converted to UPF format
     Using radial grid of  921 points,  7 beta functions with:
                l(1) =   0
                l(2) =   0
                l(3) =   1
                l(4) =   1
                l(5) =   2
                l(6) =   2
                l(7) =   3
     Q(r) pseudized with  6 coefficients,  rinner =    1.300   1.300   1.300
                                                       1.300   1.300   1.300
                                                       1.300

     vdW kernel table read from file vdW_kernel_table
     MD5 check sum: 095c7af220d748ca6e76c0b4c6cfb241

     atomic species   valence    mass     pseudopotential
        Cr1           14.00    51.99610     Cr( 1.00)
        Ta1           13.00   180.94788     Ta( 1.00)

     48 Sym. Ops., with inversion, found (32 have fractional translation)

   Cartesian axes

     site n.     atom                  positions (alat units)
         1           Cr1 tau(   1) = (   0.0000000   0.0000000   0.0000000  )
         2           Cr1 tau(   2) = (   0.0000000   1.9045200   1.9045200  )
         3           Cr1 tau(   3) = (   1.9045200   0.0000000   1.9045200  )
         4           Ta1 tau(   4) = (   1.9045200   1.9045200   0.0000000  )

     number of k points=    84  Fermi-Dirac smearing, width (Ry)=  0.0073
                       cart. coord. in units 2pi/alat
        k(    1) = (   0.0000000   0.0000000   0.0000000), wk =   0.0011574
        k(    2) = (   0.0000000   0.0000000   0.0218778), wk =   0.0069444
        k(    3) = (   0.0000000   0.0000000   0.0437556), wk =   0.0069444
        k(    4) = (   0.0000000   0.0000000   0.0656333), wk =   0.0069444
        k(    5) = (   0.0000000   0.0000000   0.0875111), wk =   0.0069444
        k(    6) = (   0.0000000   0.0000000   0.1093889), wk =   0.0069444
        k(    7) = (   0.0000000   0.0000000  -0.1312667), wk =   0.0034722
        k(    8) = (   0.0000000   0.0218778   0.0218778), wk =   0.0138889
        k(    9) = (   0.0000000   0.0218778   0.0437556), wk =   0.0277778
        k(   10) = (   0.0000000   0.0218778   0.0656333), wk =   0.0277778
        k(   11) = (   0.0000000   0.0218778   0.0875111), wk =   0.0277778
        k(   12) = (   0.0000000   0.0218778   0.1093889), wk =   0.0277778
        k(   13) = (   0.0000000   0.0218778  -0.1312667), wk =   0.0138889
        k(   14) = (   0.0000000   0.0437556   0.0437556), wk =   0.0138889
        k(   15) = (   0.0000000   0.0437556   0.0656333), wk =   0.0277778
        k(   16) = (   0.0000000   0.0437556   0.0875111), wk =   0.0277778
        k(   17) = (   0.0000000   0.0437556   0.1093889), wk =   0.0277778
        k(   18) = (   0.0000000   0.0437556  -0.1312667), wk =   0.0138889
        k(   19) = (   0.0000000   0.0656333   0.0656333), wk =   0.0138889
        k(   20) = (   0.0000000   0.0656333   0.0875111), wk =   0.0277778
        k(   21) = (   0.0000000   0.0656333   0.1093889), wk =   0.0277778
        k(   22) = (   0.0000000   0.0656333  -0.1312667), wk =   0.0138889
        k(   23) = (   0.0000000   0.0875111   0.0875111), wk =   0.0138889
        k(   24) = (   0.0000000   0.0875111   0.1093889), wk =   0.0277778
        k(   25) = (   0.0000000   0.0875111  -0.1312667), wk =   0.0138889
        k(   26) = (   0.0000000   0.1093889   0.1093889), wk =   0.0138889
        k(   27) = (   0.0000000   0.1093889  -0.1312667), wk =   0.0138889
        k(   28) = (   0.0000000  -0.1312667  -0.1312667), wk =   0.0034722
        k(   29) = (   0.0218778   0.0218778   0.0218778), wk =   0.0092593
        k(   30) = (   0.0218778   0.0218778   0.0437556), wk =   0.0277778
        k(   31) = (   0.0218778   0.0218778   0.0656333), wk =   0.0277778
        k(   32) = (   0.0218778   0.0218778   0.0875111), wk =   0.0277778
        k(   33) = (   0.0218778   0.0218778   0.1093889), wk =   0.0277778
        k(   34) = (   0.0218778   0.0218778  -0.1312667), wk =   0.0138889
        k(   35) = (   0.0218778   0.0437556   0.0437556), wk =   0.0277778
        k(   36) = (   0.0218778   0.0437556   0.0656333), wk =   0.0555556
        k(   37) = (   0.0218778   0.0437556   0.0875111), wk =   0.0555556
        k(   38) = (   0.0218778   0.0437556   0.1093889), wk =   0.0555556
        k(   39) = (   0.0218778   0.0437556  -0.1312667), wk =   0.0277778
        k(   40) = (   0.0218778   0.0656333   0.0656333), wk =   0.0277778
        k(   41) = (   0.0218778   0.0656333   0.0875111), wk =   0.0555556
        k(   42) = (   0.0218778   0.0656333   0.1093889), wk =   0.0555556
        k(   43) = (   0.0218778   0.0656333  -0.1312667), wk =   0.0277778
        k(   44) = (   0.0218778   0.0875111   0.0875111), wk =   0.0277778
        k(   45) = (   0.0218778   0.0875111   0.1093889), wk =   0.0555556
        k(   46) = (   0.0218778   0.0875111  -0.1312667), wk =   0.0277778
        k(   47) = (   0.0218778   0.1093889   0.1093889), wk =   0.0277778
        k(   48) = (   0.0218778   0.1093889  -0.1312667), wk =   0.0277778
        k(   49) = (   0.0218778  -0.1312667  -0.1312667), wk =   0.0069444
        k(   50) = (   0.0437556   0.0437556   0.0437556), wk =   0.0092593
        k(   51) = (   0.0437556   0.0437556   0.0656333), wk =   0.0277778
        k(   52) = (   0.0437556   0.0437556   0.0875111), wk =   0.0277778
        k(   53) = (   0.0437556   0.0437556   0.1093889), wk =   0.0277778
        k(   54) = (   0.0437556   0.0437556  -0.1312667), wk =   0.0138889
        k(   55) = (   0.0437556   0.0656333   0.0656333), wk =   0.0277778
        k(   56) = (   0.0437556   0.0656333   0.0875111), wk =   0.0555556
        k(   57) = (   0.0437556   0.0656333   0.1093889), wk =   0.0555556
        k(   58) = (   0.0437556   0.0656333  -0.1312667), wk =   0.0277778
        k(   59) = (   0.0437556   0.0875111   0.0875111), wk =   0.0277778
        k(   60) = (   0.0437556   0.0875111   0.1093889), wk =   0.0555556
[...]
        k(   70) = (   0.0656333   0.0875111   0.1093889), wk =   0.0555556
        k(   71) = (   0.0656333   0.0875111  -0.1312667), wk =   0.0277778
        k(   72) = (   0.0656333   0.1093889   0.1093889), wk =   0.0277778
        k(   73) = (   0.0656333   0.1093889  -0.1312667), wk =   0.0277778
        k(   74) = (   0.0656333  -0.1312667  -0.1312667), wk =   0.0069444
        k(   75) = (   0.0875111   0.0875111   0.0875111), wk =   0.0092593
        k(   76) = (   0.0875111   0.0875111   0.1093889), wk =   0.0277778
        k(   77) = (   0.0875111   0.0875111  -0.1312667), wk =   0.0138889
        k(   78) = (   0.0875111   0.1093889   0.1093889), wk =   0.0277778
        k(   79) = (   0.0875111   0.1093889  -0.1312667), wk =   0.0277778
        k(   80) = (   0.0875111  -0.1312667  -0.1312667), wk =   0.0069444
        k(   81) = (   0.1093889   0.1093889   0.1093889), wk =   0.0092593
        k(   82) = (   0.1093889   0.1093889  -0.1312667), wk =   0.0138889
        k(   83) = (   0.1093889  -0.1312667  -0.1312667), wk =   0.0069444
        k(   84) = (  -0.1312667  -0.1312667  -0.1312667), wk =   0.0011574

     Largest allocated arrays     est. size (Mb)     dimensions
     Largest temporary arrays     est. size (Mb)     dimensions

     Check: negative/imaginary core charge=   -0.000004    0.000000

     Initial potential from superposition of free atoms
     Check: negative starting charge=   -0.096541

     starting charge   51.99884, renormalised to   55.00000

     negative rho (up, down):  1.021E-01 0.000E+00

     *
     * You are using vdW-DF for exchange-correlation in this calculation.
     * Please cite the following three references that made this development
     * possible:
     *
     *   M. Dion, H. Rydberg, E. Schroder, D. C. Langreth, and
     *   B. I. Lundqvist, Phys. Rev. Lett. 92, 246401 (2004).
     *
     *   T. Thonhauser, V. R. Cooper, S. Li, A. Puzder, P. Hyldgaard, and
     *   D. C. Langreth, Phys. Rev. B 76, 125112 (2007).
     *
     *   G. Roman-Perez and J. M. Soler, Phys. Rev. Lett. 103, 096102 (2009).
     *
     *
     * If you are using vdW-DF2, please also cite:
     *
     *   K. Lee, E. D. Murray, L. Kong, B. I. Lundqvist, and
     *   D. C. Langreth, Phys. Rev. B 82, 081101(R) (2010).
     *
     *
     * If you are calculating the stress with vdW-DF, please also cite:
     *
     *   R. Sabatini, E. Kucukbenli, B. Kolb, T. Thonhauser, and
     *   S. de Gironcoli, J. Phys.: Condens. Matter 24, 424209 (2012).
     *

     Carrying out vdW-DF run using the following parameters:

     Nqs =      20    Nr_points =    1024   r_max =   100.000
     q_mesh =
               0.00001000     0.04494208     0.09755937     0.15916263
               0.23128650     0.31572767     0.41458969     0.53033537
               0.66584808     0.82450364     1.01025438     1.22772762
               1.48234092     1.78043706     2.12944203     2.53805004
               3.01644009     3.57652955     4.23227104     5.00000000

     Gradients computed in reciprocal space

     Starting wfc are   43 randomized atomic wfcs +    4 random wfc

     Self-consistent Calculation

     iteration #  1     ecut=    58.80 Ry     beta=0.10
     Davidson diagonalization with overlap
     ethr =  1.00E-02,  avg # of iterations =  4.2

[...]

     total energy              =    -672.87867228 Ry
     Harris-Foulkes estimate   =    -673.20039282 Ry
     estimated scf accuracy    <       4.27086125 Ry

[...]

     total energy              =    -672.07298778 Ry
     Harris-Foulkes estimate   =    -672.07298738 Ry
     estimated scf accuracy    <       0.00000019 Ry

     iteration # 16     ecut=    58.80 Ry     beta=0.10
     Davidson diagonalization with overlap
     ethr =  3.39E-10,  avg # of iterations =  1.6

     negative rho (up, down):  1.029E-01 0.000E+00

     End of self-consistent calculation

          k = 0.0000 0.0000 0.0000 (  2897 PWs)   bands (ev):

   -53.8448 -53.7491 -53.7491 -49.9235 -25.2739 -25.2739 -25.2739 -25.0438
   -25.0438 -25.0438 -24.9269 -24.9269 -24.9269 -16.3092 -16.3092 -16.3092
    10.1874  13.4987  13.4987  14.3464  14.6669  14.6669  14.6669  17.4793
    17.4793  17.4793  19.0478  19.0478  19.8042  20.0614  20.0614  20.0614
    21.1633  21.1633  21.1633  21.6054  21.6054  22.8290  22.8290  22.8290
    28.5921  30.1391  30.1391  30.1391  31.9921  31.9921  32.9424

[...]

          k = 0.1094-0.1313-0.1313 (  2852 PWs)   bands (ev):

[...]

          k =-0.1313-0.1313-0.1313 (  2872 PWs)   bands (ev):

   -53.7797 -53.7797 -53.7797 -49.9238 -25.3860 -25.2471 -25.2471 -25.2471
   -24.9435 -24.9435 -24.9263 -24.9263 -24.9263 -16.3345 -16.3345 -16.3345
    13.7663  13.7663  13.7663  14.0482  17.2578  17.2578  17.2578  17.4297
    17.4297  17.4297  17.5145  17.5145  18.1491  18.7611  18.7611  18.7611
    19.8156  19.8156  19.8156  21.2764  21.2764  21.2764  22.1630  22.1630
    25.9090  28.5464  28.5464  28.5464  33.9297  33.9297  33.9297

     the Fermi energy is    17.7580 ev

!    total energy              =    -672.07298970 Ry
     Harris-Foulkes estimate   =    -672.07298780 Ry
     estimated scf accuracy    <          1.0E-10 Ry

     The total energy is the sum of the following terms:

     one-electron contribution =    -212.23584225 Ry
     hartree contribution      =     135.71318156 Ry
     xc contribution           =    -113.59491035 Ry
     ewald contribution        =    -481.93562899 Ry
     smearing contrib. (-TS)   =      -0.01978966 Ry

     convergence has been achieved in  16 iterations

     Forces acting on atoms (Ry/au):

     negative rho (up, down):  1.029E-01 0.000E+00
     atom    1 type  1   force =     0.00000000    0.00000000    0.00000000
     atom    2 type  1   force =     0.00000000    0.00000000   -0.00000000
     atom    3 type  1   force =     0.00000000    0.00000000    0.00000000
     atom    4 type  2   force =     0.00000000   -0.00000000    0.00000000

     Total force =     0.000000     Total SCF correction =     0.000000
 !ASE

     General routines

     Parallel routines

   This run was terminated on:  13:56:10  25Oct2017

   JOB DONE.