     Program PWSCF v.5.1rc2 (svn rev. ) starts on 26Oct2017 at  1:15:45

     Current dimensions of program PWSCF are:
     Max number of different atomic species (ntypx) = 10
     Max number of k-points (npk) =  40000
     Max angular momentum in pseudopotentials (lmaxx) =  3

     IMPORTANT: XC functional enforced from input :
     Exchange-correlation      = BEEF-VDW ( 1  4 27 13 2)
     Any further DFT definition will be discarded
     Please, verify this is what you really want

     Subspace diagonalization in iterative solution of the eigenvalue problem:
     a serial algorithm will be used

     bravais-lattice index     =            0
     lattice parameter (alat)  =       1.8897  a.u.
     unit-cell volume          =     426.4712 (a.u.)^3
     number of atoms/cell      =            4
     number of atomic types    =            2
     number of electrons       =        57.00
     number of Kohn-Sham states=           48
     kinetic-energy cutoff     =      58.7989  Ry
     charge density cutoff     =     587.9892  Ry
     convergence threshold     =      7.3E-09
     mixing beta               =       0.1000
     number of iterations used =           10  local-TF  mixing
     Exchange-correlation      = BEEF-VDW ( 1  4 27 13 2)
     nstep                     =           50

     celldm(1)=   1.889726  celldm(2)=   0.000000  celldm(3)=   0.000000
     celldm(4)=   0.000000  celldm(5)=   0.000000  celldm(6)=   0.000000

     crystal axes: (cart. coord. in units of alat)
               a(1) = (   3.983190   0.000000   0.000000 )
               a(2) = (   0.000000   3.983190   0.000000 )
               a(3) = (   0.000000   0.000000   3.983190 )

     reciprocal axes: (cart. coord. in units 2 pi/alat)
               b(1) = (  0.251055  0.000000  0.000000 )
               b(2) = (  0.000000  0.251055  0.000000 )
               b(3) = (  0.000000  0.000000  0.251055 )

     PseudoPot. # 1 for Tc read from file:
     /home/vossj/suncat/psp/gbrv1.5pbe/Tc.UPF
     MD5 check sum: 9eb49e5b028550b2339a02317eb7b844
     Pseudo is Ultrasoft + core correction, Zval = 15.0
     Generated by new atomic code, or converted to UPF format
     Using radial grid of  965 points,  6 beta functions with:
                l(1) =   0
                l(2) =   0
                l(3) =   1
                l(4) =   1
                l(5) =   2
                l(6) =   2
     Q(r) pseudized with  8 coefficients,  rinner =    1.300   1.300   1.300
                                                       1.300   1.300

     PseudoPot. # 2 for Hg read from file:
     /home/vossj/suncat/psp/gbrv1.5pbe/Hg.UPF
     MD5 check sum: 8f42caffe07f7fd9c0a564347f8c5498
     Pseudo is Ultrasoft + core correction, Zval = 12.0
     Generated by new atomic code, or converted to UPF format
     Using radial grid of  985 points,  6 beta functions with:
                l(1) =   0
                l(2) =   0
                l(3) =   1
                l(4) =   1
                l(5) =   2
                l(6) =   2
     Q(r) pseudized with  8 coefficients,  rinner =    2.000   2.000   2.000
                                                       2.000   2.000

     vdW kernel table read from file vdW_kernel_table
     MD5 check sum: 095c7af220d748ca6e76c0b4c6cfb241

     atomic species   valence    mass     pseudopotential
        Tc1           15.00    97.90721     Tc( 1.00)
        Hg1           12.00   200.59200     Hg( 1.00)

     48 Sym. Ops., with inversion, found (32 have fractional translation)

   Cartesian axes

     site n.     atom                  positions (alat units)
         1           Tc1 tau(   1) = (   0.0000000   0.0000000   0.0000000  )
         2           Tc1 tau(   2) = (   0.0000000   1.9915951   1.9915951  )
         3           Tc1 tau(   3) = (   1.9915951   0.0000000   1.9915951  )
         4           Hg1 tau(   4) = (   1.9915951   1.9915951   0.0000000  )

     number of k points=    84  Fermi-Dirac smearing, width (Ry)=  0.0073
                       cart. coord. in units 2pi/alat
        k(    1) = (   0.0000000   0.0000000   0.0000000), wk =   0.0011574
        k(    2) = (   0.0000000   0.0000000   0.0209213), wk =   0.0069444
        k(    3) = (   0.0000000   0.0000000   0.0418425), wk =   0.0069444
        k(    4) = (   0.0000000   0.0000000   0.0627638), wk =   0.0069444
        k(    5) = (   0.0000000   0.0000000   0.0836850), wk =   0.0069444
        k(    6) = (   0.0000000   0.0000000   0.1046063), wk =   0.0069444
        k(    7) = (   0.0000000   0.0000000  -0.1255275), wk =   0.0034722
        k(    8) = (   0.0000000   0.0209213   0.0209213), wk =   0.0138889
        k(    9) = (   0.0000000   0.0209213   0.0418425), wk =   0.0277778
        k(   10) = (   0.0000000   0.0209213   0.0627638), wk =   0.0277778
        k(   11) = (   0.0000000   0.0209213   0.0836850), wk =   0.0277778
        k(   12) = (   0.0000000   0.0209213   0.1046063), wk =   0.0277778
        k(   13) = (   0.0000000   0.0209213  -0.1255275), wk =   0.0138889
        k(   14) = (   0.0000000   0.0418425   0.0418425), wk =   0.0138889
        k(   15) = (   0.0000000   0.0418425   0.0627638), wk =   0.0277778
        k(   16) = (   0.0000000   0.0418425   0.0836850), wk =   0.0277778
        k(   17) = (   0.0000000   0.0418425   0.1046063), wk =   0.0277778
        k(   18) = (   0.0000000   0.0418425  -0.1255275), wk =   0.0138889
        k(   19) = (   0.0000000   0.0627638   0.0627638), wk =   0.0138889
        k(   20) = (   0.0000000   0.0627638   0.0836850), wk =   0.0277778
        k(   21) = (   0.0000000   0.0627638   0.1046063), wk =   0.0277778
        k(   22) = (   0.0000000   0.0627638  -0.1255275), wk =   0.0138889
        k(   23) = (   0.0000000   0.0836850   0.0836850), wk =   0.0138889
        k(   24) = (   0.0000000   0.0836850   0.1046063), wk =   0.0277778
        k(   25) = (   0.0000000   0.0836850  -0.1255275), wk =   0.0138889
        k(   26) = (   0.0000000   0.1046063   0.1046063), wk =   0.0138889
        k(   27) = (   0.0000000   0.1046063  -0.1255275), wk =   0.0138889
        k(   28) = (   0.0000000  -0.1255275  -0.1255275), wk =   0.0034722
        k(   29) = (   0.0209213   0.0209213   0.0209213), wk =   0.0092593
        k(   30) = (   0.0209213   0.0209213   0.0418425), wk =   0.0277778
        k(   31) = (   0.0209213   0.0209213   0.0627638), wk =   0.0277778
        k(   32) = (   0.0209213   0.0209213   0.0836850), wk =   0.0277778
        k(   33) = (   0.0209213   0.0209213   0.1046063), wk =   0.0277778
        k(   34) = (   0.0209213   0.0209213  -0.1255275), wk =   0.0138889
        k(   35) = (   0.0209213   0.0418425   0.0418425), wk =   0.0277778
        k(   36) = (   0.0209213   0.0418425   0.0627638), wk =   0.0555556
        k(   37) = (   0.0209213   0.0418425   0.0836850), wk =   0.0555556
        k(   38) = (   0.0209213   0.0418425   0.1046063), wk =   0.0555556
        k(   39) = (   0.0209213   0.0418425  -0.1255275), wk =   0.0277778
        k(   40) = (   0.0209213   0.0627638   0.0627638), wk =   0.0277778
        k(   41) = (   0.0209213   0.0627638   0.0836850), wk =   0.0555556
        k(   42) = (   0.0209213   0.0627638   0.1046063), wk =   0.0555556
        k(   43) = (   0.0209213   0.0627638  -0.1255275), wk =   0.0277778
        k(   44) = (   0.0209213   0.0836850   0.0836850), wk =   0.0277778
        k(   45) = (   0.0209213   0.0836850   0.1046063), wk =   0.0555556
        k(   46) = (   0.0209213   0.0836850  -0.1255275), wk =   0.0277778
        k(   47) = (   0.0209213   0.1046063   0.1046063), wk =   0.0277778
        k(   48) = (   0.0209213   0.1046063  -0.1255275), wk =   0.0277778
        k(   49) = (   0.0209213  -0.1255275  -0.1255275), wk =   0.0069444
        k(   50) = (   0.0418425   0.0418425   0.0418425), wk =   0.0092593
        k(   51) = (   0.0418425   0.0418425   0.0627638), wk =   0.0277778
        k(   52) = (   0.0418425   0.0418425   0.0836850), wk =   0.0277778
        k(   53) = (   0.0418425   0.0418425   0.1046063), wk =   0.0277778
        k(   54) = (   0.0418425   0.0418425  -0.1255275), wk =   0.0138889
        k(   55) = (   0.0418425   0.0627638   0.0627638), wk =   0.0277778
        k(   56) = (   0.0418425   0.0627638   0.0836850), wk =   0.0555556
        k(   57) = (   0.0418425   0.0627638   0.1046063), wk =   0.0555556
        k(   58) = (   0.0418425   0.0627638  -0.1255275), wk =   0.0277778
        k(   59) = (   0.0418425   0.0836850   0.0836850), wk =   0.0277778
        k(   60) = (   0.0418425   0.0836850   0.1046063), wk =   0.0555556
[...]
        k(   70) = (   0.0627638   0.0836850   0.1046063), wk =   0.0555556
        k(   71) = (   0.0627638   0.0836850  -0.1255275), wk =   0.0277778
        k(   72) = (   0.0627638   0.1046063   0.1046063), wk =   0.0277778
        k(   73) = (   0.0627638   0.1046063  -0.1255275), wk =   0.0277778
        k(   74) = (   0.0627638  -0.1255275  -0.1255275), wk =   0.0069444
        k(   75) = (   0.0836850   0.0836850   0.0836850), wk =   0.0092593
        k(   76) = (   0.0836850   0.0836850   0.1046063), wk =   0.0277778
        k(   77) = (   0.0836850   0.0836850  -0.1255275), wk =   0.0138889
        k(   78) = (   0.0836850   0.1046063   0.1046063), wk =   0.0277778
        k(   79) = (   0.0836850   0.1046063  -0.1255275), wk =   0.0277778
        k(   80) = (   0.0836850  -0.1255275  -0.1255275), wk =   0.0069444
        k(   81) = (   0.1046063   0.1046063   0.1046063), wk =   0.0092593
        k(   82) = (   0.1046063   0.1046063  -0.1255275), wk =   0.0138889
        k(   83) = (   0.1046063  -0.1255275  -0.1255275), wk =   0.0069444
        k(   84) = (  -0.1255275  -0.1255275  -0.1255275), wk =   0.0011574

     Largest allocated arrays     est. size (Mb)     dimensions
     Largest temporary arrays     est. size (Mb)     dimensions

     Check: negative/imaginary core charge=   -0.000006    0.000000

     Initial potential from superposition of free atoms
     Check: negative starting charge=   -0.372828

     starting charge   53.99986, renormalised to   57.00000

     negative rho (up, down):  3.935E-01 0.000E+00

     *
     * You are using vdW-DF for exchange-correlation in this calculation.
     * Please cite the following three references that made this development
     * possible:
     *
     *   M. Dion, H. Rydberg, E. Schroder, D. C. Langreth, and
     *   B. I. Lundqvist, Phys. Rev. Lett. 92, 246401 (2004).
     *
     *   T. Thonhauser, V. R. Cooper, S. Li, A. Puzder, P. Hyldgaard, and
     *   D. C. Langreth, Phys. Rev. B 76, 125112 (2007).
     *
     *   G. Roman-Perez and J. M. Soler, Phys. Rev. Lett. 103, 096102 (2009).
     *
     *
     * If you are using vdW-DF2, please also cite:
     *
     *   K. Lee, E. D. Murray, L. Kong, B. I. Lundqvist, and
     *   D. C. Langreth, Phys. Rev. B 82, 081101(R) (2010).
     *
     *
     * If you are calculating the stress with vdW-DF, please also cite:
     *
     *   R. Sabatini, E. Kucukbenli, B. Kolb, T. Thonhauser, and
     *   S. de Gironcoli, J. Phys.: Condens. Matter 24, 424209 (2012).
     *

     Carrying out vdW-DF run using the following parameters:

     Nqs =      20    Nr_points =    1024   r_max =   100.000
     q_mesh =
               0.00001000     0.04494208     0.09755937     0.15916263
               0.23128650     0.31572767     0.41458969     0.53033537
               0.66584808     0.82450364     1.01025438     1.22772762
               1.48234092     1.78043706     2.12944203     2.53805004
               3.01644009     3.57652955     4.23227104     5.00000000

     Gradients computed in reciprocal space

     Starting wfc are   48 randomized atomic wfcs

     Self-consistent Calculation

     iteration #  1     ecut=    58.80 Ry     beta=0.10
     Davidson diagonalization with overlap
     ethr =  1.00E-02,  avg # of iterations =  4.8

[...]

     total energy              =    -635.63973271 Ry
     Harris-Foulkes estimate   =    -635.83223632 Ry
     estimated scf accuracy    <       2.81293989 Ry

[...]

     total energy              =    -634.91957982 Ry
     Harris-Foulkes estimate   =    -634.91957967 Ry
     estimated scf accuracy    <          7.5E-09 Ry

     iteration # 14     ecut=    58.80 Ry     beta=0.10
     Davidson diagonalization with overlap
     ethr =  1.32E-11,  avg # of iterations =  2.2

     negative rho (up, down):  3.872E-01 0.000E+00

     End of self-consistent calculation

          k = 0.0000 0.0000 0.0000 (  3239 PWs)   bands (ev):

   -47.3273 -47.1820 -47.1820 -19.5556 -19.5556 -19.5556 -19.2061 -19.2061
   -19.2061 -18.9406 -18.9406 -18.9406  10.7927  11.1050  11.1050  11.4170
    11.4170  11.4170  14.4317  16.6205  16.6205  16.6205  17.5205  17.5205
    20.3325  20.3325  20.3325  21.2496  21.2496  21.8898  21.8898  21.8898
    22.0478  22.6547  22.6547  22.6547  27.7061  30.5659  30.5659  30.5659
    31.4491  31.4491  32.0400  32.0400  32.0400  33.5753  38.5808  38.5808

[...]

          k = 0.1046-0.1255-0.1255 (  3244 PWs)   bands (ev):

[...]

          k =-0.1255-0.1255-0.1255 (  3184 PWs)   bands (ev):

   -47.2296 -47.2296 -47.2296 -19.7181 -19.5304 -19.5304 -19.5304 -18.9989
   -18.9989 -18.9989 -18.9347 -18.9347  11.2921  11.2921  11.2921  12.0844
    12.0844  12.5952  16.4235  16.4235  16.4235  17.9898  17.9898  17.9898
    19.3754  19.3754  19.3754  20.2659  20.2659  20.2659  20.7013  20.7013
    20.9256  22.1419  22.1419  22.1419  24.4903  28.3901  28.3901  28.3901
    33.0872  33.0872  33.0872  33.2800  37.3188  37.3188  37.3188  38.9771

     the Fermi energy is    20.0308 ev

!    total energy              =    -634.91958049 Ry
     Harris-Foulkes estimate   =    -634.91957982 Ry
     estimated scf accuracy    <          4.3E-09 Ry

     The total energy is the sum of the following terms:

     one-electron contribution =     -84.71468698 Ry
     hartree contribution      =      86.53350488 Ry
     xc contribution           =    -139.95166271 Ry
     ewald contribution        =    -496.77231380 Ry
     smearing contrib. (-TS)   =      -0.01442189 Ry

     convergence has been achieved in  14 iterations

     Forces acting on atoms (Ry/au):

     negative rho (up, down):  3.872E-01 0.000E+00
     atom    1 type  1   force =     0.00000000    0.00000000    0.00000000
     atom    2 type  1   force =     0.00000000    0.00000000    0.00000000
     atom    3 type  1   force =     0.00000000    0.00000000    0.00000000
     atom    4 type  2   force =     0.00000000    0.00000000    0.00000000

     Total force =     0.000000     Total SCF correction =     0.000000
 !ASE

     General routines

     Parallel routines

   This run was terminated on:   1:16:42  26Oct2017

   JOB DONE.