     Program PWSCF v.5.1rc2 (svn rev. ) starts on 24Oct2017 at 21:17:20

     Current dimensions of program PWSCF are:
     Max number of different atomic species (ntypx) = 10
     Max number of k-points (npk) =  40000
     Max angular momentum in pseudopotentials (lmaxx) =  3

     IMPORTANT: XC functional enforced from input :
     Exchange-correlation      = BEEF-VDW ( 1  4 27 13 2)
     Any further DFT definition will be discarded
     Please, verify this is what you really want

     Subspace diagonalization in iterative solution of the eigenvalue problem:
     a serial algorithm will be used

     bravais-lattice index     =            0
     lattice parameter (alat)  =       1.8897  a.u.
     unit-cell volume          =     602.5046 (a.u.)^3
     number of atoms/cell      =            4
     number of atomic types    =            2
     number of electrons       =        20.00
     number of Kohn-Sham states=           30
     kinetic-energy cutoff     =      58.7989  Ry
     charge density cutoff     =     587.9892  Ry
     convergence threshold     =      7.3E-09
     mixing beta               =       0.1000
     number of iterations used =           10  local-TF  mixing
     Exchange-correlation      = BEEF-VDW ( 1  4 27 13 2)
     nstep                     =           50

     celldm(1)=   1.889726  celldm(2)=   0.000000  celldm(3)=   0.000000
     celldm(4)=   0.000000  celldm(5)=   0.000000  celldm(6)=   0.000000

     crystal axes: (cart. coord. in units of alat)
               a(1) = (   4.469455   0.000000   0.000000 )
               a(2) = (   0.000000   4.469455   0.000000 )
               a(3) = (   0.000000   0.000000   4.469455 )

     reciprocal axes: (cart. coord. in units 2 pi/alat)
               b(1) = (  0.223741  0.000000  0.000000 )
               b(2) = (  0.000000  0.223741  0.000000 )
               b(3) = (  0.000000  0.000000  0.223741 )

     PseudoPot. # 1 for Al read from file:
     /home/vossj/suncat/psp/gbrv1.5pbe/Al.UPF
     MD5 check sum: 0a6289f5291fc8f409219462bc851e1f
     Pseudo is Ultrasoft + core correction, Zval =  3.0
     Generated by new atomic code, or converted to UPF format
     Using radial grid of  893 points,  3 beta functions with:
                l(1) =   0
                l(2) =   1
                l(3) =   2
     Q(r) pseudized with  8 coefficients,  rinner =    0.900   0.900   0.900
                                                       0.900   0.900

     PseudoPot. # 2 for La read from file:
     /home/vossj/suncat/psp/gbrv1.5pbe/La.UPF
     MD5 check sum: 5937b0c7494ba0601a847275249473aa
     Pseudo is Ultrasoft + core correction, Zval = 11.0
     Generated by new atomic code, or converted to UPF format
     Using radial grid of  995 points,  8 beta functions with:
                l(1) =   0
                l(2) =   0
                l(3) =   1
                l(4) =   1
                l(5) =   2
                l(6) =   2
                l(7) =   3
                l(8) =   3
     Q(r) pseudized with  8 coefficients,  rinner =    1.700   1.700   1.700
                                                       1.700   1.700   1.700
                                                       1.700

     vdW kernel table read from file vdW_kernel_table
     MD5 check sum: 095c7af220d748ca6e76c0b4c6cfb241

     atomic species   valence    mass     pseudopotential
        Al1            3.00    26.98154     Al( 1.00)
        La1           11.00   138.90547     La( 1.00)

     48 Sym. Ops., with inversion, found (32 have fractional translation)

   Cartesian axes

     site n.     atom                  positions (alat units)
         1           Al1 tau(   1) = (   0.0000000   0.0000000   0.0000000  )
         2           Al1 tau(   2) = (   0.0000000   2.2347277   2.2347277  )
         3           Al1 tau(   3) = (   2.2347277   0.0000000   2.2347277  )
         4           La1 tau(   4) = (   2.2347277   2.2347277   0.0000000  )

     number of k points=    84  Fermi-Dirac smearing, width (Ry)=  0.0073
                       cart. coord. in units 2pi/alat
        k(    1) = (   0.0000000   0.0000000   0.0000000), wk =   0.0011574
        k(    2) = (   0.0000000   0.0000000   0.0186451), wk =   0.0069444
        k(    3) = (   0.0000000   0.0000000   0.0372902), wk =   0.0069444
        k(    4) = (   0.0000000   0.0000000   0.0559352), wk =   0.0069444
        k(    5) = (   0.0000000   0.0000000   0.0745803), wk =   0.0069444
        k(    6) = (   0.0000000   0.0000000   0.0932254), wk =   0.0069444
        k(    7) = (   0.0000000   0.0000000  -0.1118705), wk =   0.0034722
        k(    8) = (   0.0000000   0.0186451   0.0186451), wk =   0.0138889
        k(    9) = (   0.0000000   0.0186451   0.0372902), wk =   0.0277778
        k(   10) = (   0.0000000   0.0186451   0.0559352), wk =   0.0277778
        k(   11) = (   0.0000000   0.0186451   0.0745803), wk =   0.0277778
        k(   12) = (   0.0000000   0.0186451   0.0932254), wk =   0.0277778
        k(   13) = (   0.0000000   0.0186451  -0.1118705), wk =   0.0138889
        k(   14) = (   0.0000000   0.0372902   0.0372902), wk =   0.0138889
        k(   15) = (   0.0000000   0.0372902   0.0559352), wk =   0.0277778
        k(   16) = (   0.0000000   0.0372902   0.0745803), wk =   0.0277778
        k(   17) = (   0.0000000   0.0372902   0.0932254), wk =   0.0277778
        k(   18) = (   0.0000000   0.0372902  -0.1118705), wk =   0.0138889
        k(   19) = (   0.0000000   0.0559352   0.0559352), wk =   0.0138889
        k(   20) = (   0.0000000   0.0559352   0.0745803), wk =   0.0277778
        k(   21) = (   0.0000000   0.0559352   0.0932254), wk =   0.0277778
        k(   22) = (   0.0000000   0.0559352  -0.1118705), wk =   0.0138889
        k(   23) = (   0.0000000   0.0745803   0.0745803), wk =   0.0138889
        k(   24) = (   0.0000000   0.0745803   0.0932254), wk =   0.0277778
        k(   25) = (   0.0000000   0.0745803  -0.1118705), wk =   0.0138889
        k(   26) = (   0.0000000   0.0932254   0.0932254), wk =   0.0138889
        k(   27) = (   0.0000000   0.0932254  -0.1118705), wk =   0.0138889
        k(   28) = (   0.0000000  -0.1118705  -0.1118705), wk =   0.0034722
        k(   29) = (   0.0186451   0.0186451   0.0186451), wk =   0.0092593
        k(   30) = (   0.0186451   0.0186451   0.0372902), wk =   0.0277778
        k(   31) = (   0.0186451   0.0186451   0.0559352), wk =   0.0277778
        k(   32) = (   0.0186451   0.0186451   0.0745803), wk =   0.0277778
        k(   33) = (   0.0186451   0.0186451   0.0932254), wk =   0.0277778
        k(   34) = (   0.0186451   0.0186451  -0.1118705), wk =   0.0138889
        k(   35) = (   0.0186451   0.0372902   0.0372902), wk =   0.0277778
        k(   36) = (   0.0186451   0.0372902   0.0559352), wk =   0.0555556
        k(   37) = (   0.0186451   0.0372902   0.0745803), wk =   0.0555556
        k(   38) = (   0.0186451   0.0372902   0.0932254), wk =   0.0555556
        k(   39) = (   0.0186451   0.0372902  -0.1118705), wk =   0.0277778
        k(   40) = (   0.0186451   0.0559352   0.0559352), wk =   0.0277778
        k(   41) = (   0.0186451   0.0559352   0.0745803), wk =   0.0555556
        k(   42) = (   0.0186451   0.0559352   0.0932254), wk =   0.0555556
        k(   43) = (   0.0186451   0.0559352  -0.1118705), wk =   0.0277778
        k(   44) = (   0.0186451   0.0745803   0.0745803), wk =   0.0277778
        k(   45) = (   0.0186451   0.0745803   0.0932254), wk =   0.0555556
        k(   46) = (   0.0186451   0.0745803  -0.1118705), wk =   0.0277778
        k(   47) = (   0.0186451   0.0932254   0.0932254), wk =   0.0277778
        k(   48) = (   0.0186451   0.0932254  -0.1118705), wk =   0.0277778
        k(   49) = (   0.0186451  -0.1118705  -0.1118705), wk =   0.0069444
        k(   50) = (   0.0372902   0.0372902   0.0372902), wk =   0.0092593
        k(   51) = (   0.0372902   0.0372902   0.0559352), wk =   0.0277778
        k(   52) = (   0.0372902   0.0372902   0.0745803), wk =   0.0277778
        k(   53) = (   0.0372902   0.0372902   0.0932254), wk =   0.0277778
        k(   54) = (   0.0372902   0.0372902  -0.1118705), wk =   0.0138889
        k(   55) = (   0.0372902   0.0559352   0.0559352), wk =   0.0277778
        k(   56) = (   0.0372902   0.0559352   0.0745803), wk =   0.0555556
        k(   57) = (   0.0372902   0.0559352   0.0932254), wk =   0.0555556
        k(   58) = (   0.0372902   0.0559352  -0.1118705), wk =   0.0277778
        k(   59) = (   0.0372902   0.0745803   0.0745803), wk =   0.0277778
        k(   60) = (   0.0372902   0.0745803   0.0932254), wk =   0.0555556
[...]
        k(   70) = (   0.0559352   0.0745803   0.0932254), wk =   0.0555556
        k(   71) = (   0.0559352   0.0745803  -0.1118705), wk =   0.0277778
        k(   72) = (   0.0559352   0.0932254   0.0932254), wk =   0.0277778
        k(   73) = (   0.0559352   0.0932254  -0.1118705), wk =   0.0277778
        k(   74) = (   0.0559352  -0.1118705  -0.1118705), wk =   0.0069444
        k(   75) = (   0.0745803   0.0745803   0.0745803), wk =   0.0092593
        k(   76) = (   0.0745803   0.0745803   0.0932254), wk =   0.0277778
        k(   77) = (   0.0745803   0.0745803  -0.1118705), wk =   0.0138889
        k(   78) = (   0.0745803   0.0932254   0.0932254), wk =   0.0277778
        k(   79) = (   0.0745803   0.0932254  -0.1118705), wk =   0.0277778
        k(   80) = (   0.0745803  -0.1118705  -0.1118705), wk =   0.0069444
        k(   81) = (   0.0932254   0.0932254   0.0932254), wk =   0.0092593
        k(   82) = (   0.0932254   0.0932254  -0.1118705), wk =   0.0138889
        k(   83) = (   0.0932254  -0.1118705  -0.1118705), wk =   0.0069444
        k(   84) = (  -0.1118705  -0.1118705  -0.1118705), wk =   0.0011574

     Largest allocated arrays     est. size (Mb)     dimensions
     Largest temporary arrays     est. size (Mb)     dimensions

     Initial potential from superposition of free atoms
     Check: negative starting charge=   -0.069505

     starting charge   19.96054, renormalised to   20.00000

     negative rho (up, down):  6.964E-02 0.000E+00

     *
     * You are using vdW-DF for exchange-correlation in this calculation.
     * Please cite the following three references that made this development
     * possible:
     *
     *   M. Dion, H. Rydberg, E. Schroder, D. C. Langreth, and
     *   B. I. Lundqvist, Phys. Rev. Lett. 92, 246401 (2004).
     *
     *   T. Thonhauser, V. R. Cooper, S. Li, A. Puzder, P. Hyldgaard, and
     *   D. C. Langreth, Phys. Rev. B 76, 125112 (2007).
     *
     *   G. Roman-Perez and J. M. Soler, Phys. Rev. Lett. 103, 096102 (2009).
     *
     *
     * If you are using vdW-DF2, please also cite:
     *
     *   K. Lee, E. D. Murray, L. Kong, B. I. Lundqvist, and
     *   D. C. Langreth, Phys. Rev. B 82, 081101(R) (2010).
     *
     *
     * If you are calculating the stress with vdW-DF, please also cite:
     *
     *   R. Sabatini, E. Kucukbenli, B. Kolb, T. Thonhauser, and
     *   S. de Gironcoli, J. Phys.: Condens. Matter 24, 424209 (2012).
     *

     Carrying out vdW-DF run using the following parameters:

     Nqs =      20    Nr_points =    1024   r_max =   100.000
     q_mesh =
               0.00001000     0.04494208     0.09755937     0.15916263
               0.23128650     0.31572767     0.41458969     0.53033537
               0.66584808     0.82450364     1.01025438     1.22772762
               1.48234092     1.78043706     2.12944203     2.53805004
               3.01644009     3.57652955     4.23227104     5.00000000

     Gradients computed in reciprocal space

     Starting wfc are   32 randomized atomic wfcs

     Self-consistent Calculation

     iteration #  1     ecut=    58.80 Ry     beta=0.10
     Davidson diagonalization with overlap
     ethr =  1.00E-02,  avg # of iterations =  4.6

     Threshold (ethr) on eigenvalues was too large:
     Diagonalizing with lowered threshold

     Davidson diagonalization with overlap
     ethr =  7.01E-04,  avg # of iterations =  1.1

[...]

     total energy              =    -124.80174133 Ry
     Harris-Foulkes estimate   =    -124.80800846 Ry
     estimated scf accuracy    <       0.13888075 Ry

[...]

     total energy              =    -124.77213193 Ry
     Harris-Foulkes estimate   =    -124.77211233 Ry
     estimated scf accuracy    <       0.00000002 Ry

     iteration # 11     ecut=    58.80 Ry     beta=0.10
     Davidson diagonalization with overlap
     ethr =  1.13E-10,  avg # of iterations =  2.0

     negative rho (up, down):  5.097E-02 0.000E+00

     End of self-consistent calculation

          k = 0.0000 0.0000 0.0000 (  4625 PWs)   bands (ev):

   -23.7904  -7.4917  -7.4917  -7.4917   0.1569   5.4871   5.4871   7.4414
     7.4414   7.4414  10.2558  10.2558  10.2558  10.2682  10.2682  10.2682
    11.0737  11.1060  11.4256  11.4256  11.4256  12.9516  12.9516  13.4644
    13.4644  13.4644  16.2875  16.2875  16.2875  17.2426

[...]

          k = 0.0932-0.1119-0.1119 (  4648 PWs)   bands (ev):

[...]

          k =-0.1119-0.1119-0.1119 (  4632 PWs)   bands (ev):

   -23.7615  -7.6627  -7.6627  -7.6627   3.6523   3.6523   3.6523   4.8717
     7.3811   7.3811   7.3811  10.9916  10.9916  10.9916  11.1072  11.1072
    11.1072  11.2794  11.8008  12.4273  12.4273  14.2512  14.2512  14.2512
    16.9257  16.9257  16.9257  17.0038  17.0038  18.0536

     the Fermi energy is     8.3235 ev

!    total energy              =    -124.77221544 Ry
     Harris-Foulkes estimate   =    -124.77213194 Ry
     estimated scf accuracy    <          5.2E-09 Ry

     The total energy is the sum of the following terms:

     one-electron contribution =      -4.63702344 Ry
     hartree contribution      =      11.02200259 Ry
     xc contribution           =     -64.05452502 Ry
     ewald contribution        =     -67.09831111 Ry
     smearing contrib. (-TS)   =      -0.00435846 Ry

     convergence has been achieved in  11 iterations

     Forces acting on atoms (Ry/au):

     negative rho (up, down):  5.097E-02 0.000E+00
     atom    1 type  1   force =     0.00000000    0.00000000    0.00000000
     atom    2 type  1   force =     0.00000000   -0.00000000   -0.00000000
     atom    3 type  1   force =     0.00000000   -0.00000000    0.00000000
     atom    4 type  2   force =     0.00000000    0.00000000    0.00000000

     Total force =     0.000000     Total SCF correction =     0.000000
 !ASE

     General routines

     Parallel routines

   This run was terminated on:  21:17:56  24Oct2017

   JOB DONE.