     Program PWSCF v.5.1rc2 (svn rev. ) starts on 25Oct2017 at 12:41: 9

     Current dimensions of program PWSCF are:
     Max number of different atomic species (ntypx) = 10
     Max number of k-points (npk) =  40000
     Max angular momentum in pseudopotentials (lmaxx) =  3

     IMPORTANT: XC functional enforced from input :
     Exchange-correlation      = BEEF-VDW ( 1  4 27 13 2)
     Any further DFT definition will be discarded
     Please, verify this is what you really want

     Subspace diagonalization in iterative solution of the eigenvalue problem:
     a serial algorithm will be used

     bravais-lattice index     =            0
     lattice parameter (alat)  =       1.8897  a.u.
     unit-cell volume          =     558.0185 (a.u.)^3
     number of atoms/cell      =            4
     number of atomic types    =            2
     number of electrons       =        51.00
     number of Kohn-Sham states=           45
     kinetic-energy cutoff     =      58.7989  Ry
     charge density cutoff     =     587.9892  Ry
     convergence threshold     =      7.3E-09
     mixing beta               =       0.1000
     number of iterations used =           10  local-TF  mixing
     Exchange-correlation      = BEEF-VDW ( 1  4 27 13 2)
     nstep                     =           50

     celldm(1)=   1.889726  celldm(2)=   0.000000  celldm(3)=   0.000000
     celldm(4)=   0.000000  celldm(5)=   0.000000  celldm(6)=   0.000000

     crystal axes: (cart. coord. in units of alat)
               a(1) = (   4.356630   0.000000   0.000000 )
               a(2) = (   0.000000   4.356630   0.000000 )
               a(3) = (   0.000000   0.000000   4.356630 )

     reciprocal axes: (cart. coord. in units 2 pi/alat)
               b(1) = (  0.229535  0.000000  0.000000 )
               b(2) = (  0.000000  0.229535  0.000000 )
               b(3) = (  0.000000  0.000000  0.229535 )

     PseudoPot. # 1 for Zr read from file:
     /home/vossj/suncat/psp/gbrv1.5pbe/Zr.UPF
     MD5 check sum: 5db81b1e868ab7776c4564c113de050b
     Pseudo is Ultrasoft + core correction, Zval = 12.0
     Generated by new atomic code, or converted to UPF format
     Using radial grid of  887 points,  6 beta functions with:
                l(1) =   0
                l(2) =   0
                l(3) =   1
                l(4) =   1
                l(5) =   2
                l(6) =   2
     Q(r) pseudized with  6 coefficients,  rinner =    1.200   1.200   1.200
                                                       1.200   1.200

     PseudoPot. # 2 for Tc read from file:
     /home/vossj/suncat/psp/gbrv1.5pbe/Tc.UPF
     MD5 check sum: 9eb49e5b028550b2339a02317eb7b844
     Pseudo is Ultrasoft + core correction, Zval = 15.0
     Generated by new atomic code, or converted to UPF format
     Using radial grid of  965 points,  6 beta functions with:
                l(1) =   0
                l(2) =   0
                l(3) =   1
                l(4) =   1
                l(5) =   2
                l(6) =   2
     Q(r) pseudized with  8 coefficients,  rinner =    1.300   1.300   1.300
                                                       1.300   1.300

     vdW kernel table read from file vdW_kernel_table
     MD5 check sum: 095c7af220d748ca6e76c0b4c6cfb241

     atomic species   valence    mass     pseudopotential
        Zr1           12.00    91.22400     Zr( 1.00)
        Tc1           15.00    97.90721     Tc( 1.00)

     48 Sym. Ops., with inversion, found (32 have fractional translation)

   Cartesian axes

     site n.     atom                  positions (alat units)
         1           Zr1 tau(   1) = (   0.0000000   0.0000000   0.0000000  )
         2           Zr1 tau(   2) = (   0.0000000   2.1783149   2.1783149  )
         3           Zr1 tau(   3) = (   2.1783149   0.0000000   2.1783149  )
         4           Tc1 tau(   4) = (   2.1783149   2.1783149   0.0000000  )

     number of k points=    84  Fermi-Dirac smearing, width (Ry)=  0.0073
                       cart. coord. in units 2pi/alat
        k(    1) = (   0.0000000   0.0000000   0.0000000), wk =   0.0011574
        k(    2) = (   0.0000000   0.0000000   0.0191279), wk =   0.0069444
        k(    3) = (   0.0000000   0.0000000   0.0382559), wk =   0.0069444
        k(    4) = (   0.0000000   0.0000000   0.0573838), wk =   0.0069444
        k(    5) = (   0.0000000   0.0000000   0.0765117), wk =   0.0069444
        k(    6) = (   0.0000000   0.0000000   0.0956397), wk =   0.0069444
        k(    7) = (   0.0000000   0.0000000  -0.1147676), wk =   0.0034722
        k(    8) = (   0.0000000   0.0191279   0.0191279), wk =   0.0138889
        k(    9) = (   0.0000000   0.0191279   0.0382559), wk =   0.0277778
        k(   10) = (   0.0000000   0.0191279   0.0573838), wk =   0.0277778
        k(   11) = (   0.0000000   0.0191279   0.0765117), wk =   0.0277778
        k(   12) = (   0.0000000   0.0191279   0.0956397), wk =   0.0277778
        k(   13) = (   0.0000000   0.0191279  -0.1147676), wk =   0.0138889
        k(   14) = (   0.0000000   0.0382559   0.0382559), wk =   0.0138889
        k(   15) = (   0.0000000   0.0382559   0.0573838), wk =   0.0277778
        k(   16) = (   0.0000000   0.0382559   0.0765117), wk =   0.0277778
        k(   17) = (   0.0000000   0.0382559   0.0956397), wk =   0.0277778
        k(   18) = (   0.0000000   0.0382559  -0.1147676), wk =   0.0138889
        k(   19) = (   0.0000000   0.0573838   0.0573838), wk =   0.0138889
        k(   20) = (   0.0000000   0.0573838   0.0765117), wk =   0.0277778
        k(   21) = (   0.0000000   0.0573838   0.0956397), wk =   0.0277778
        k(   22) = (   0.0000000   0.0573838  -0.1147676), wk =   0.0138889
        k(   23) = (   0.0000000   0.0765117   0.0765117), wk =   0.0138889
        k(   24) = (   0.0000000   0.0765117   0.0956397), wk =   0.0277778
        k(   25) = (   0.0000000   0.0765117  -0.1147676), wk =   0.0138889
        k(   26) = (   0.0000000   0.0956397   0.0956397), wk =   0.0138889
        k(   27) = (   0.0000000   0.0956397  -0.1147676), wk =   0.0138889
        k(   28) = (   0.0000000  -0.1147676  -0.1147676), wk =   0.0034722
        k(   29) = (   0.0191279   0.0191279   0.0191279), wk =   0.0092593
        k(   30) = (   0.0191279   0.0191279   0.0382559), wk =   0.0277778
        k(   31) = (   0.0191279   0.0191279   0.0573838), wk =   0.0277778
        k(   32) = (   0.0191279   0.0191279   0.0765117), wk =   0.0277778
        k(   33) = (   0.0191279   0.0191279   0.0956397), wk =   0.0277778
        k(   34) = (   0.0191279   0.0191279  -0.1147676), wk =   0.0138889
        k(   35) = (   0.0191279   0.0382559   0.0382559), wk =   0.0277778
        k(   36) = (   0.0191279   0.0382559   0.0573838), wk =   0.0555556
        k(   37) = (   0.0191279   0.0382559   0.0765117), wk =   0.0555556
        k(   38) = (   0.0191279   0.0382559   0.0956397), wk =   0.0555556
        k(   39) = (   0.0191279   0.0382559  -0.1147676), wk =   0.0277778
        k(   40) = (   0.0191279   0.0573838   0.0573838), wk =   0.0277778
        k(   41) = (   0.0191279   0.0573838   0.0765117), wk =   0.0555556
        k(   42) = (   0.0191279   0.0573838   0.0956397), wk =   0.0555556
        k(   43) = (   0.0191279   0.0573838  -0.1147676), wk =   0.0277778
        k(   44) = (   0.0191279   0.0765117   0.0765117), wk =   0.0277778
        k(   45) = (   0.0191279   0.0765117   0.0956397), wk =   0.0555556
        k(   46) = (   0.0191279   0.0765117  -0.1147676), wk =   0.0277778
        k(   47) = (   0.0191279   0.0956397   0.0956397), wk =   0.0277778
        k(   48) = (   0.0191279   0.0956397  -0.1147676), wk =   0.0277778
        k(   49) = (   0.0191279  -0.1147676  -0.1147676), wk =   0.0069444
        k(   50) = (   0.0382559   0.0382559   0.0382559), wk =   0.0092593
        k(   51) = (   0.0382559   0.0382559   0.0573838), wk =   0.0277778
        k(   52) = (   0.0382559   0.0382559   0.0765117), wk =   0.0277778
        k(   53) = (   0.0382559   0.0382559   0.0956397), wk =   0.0277778
        k(   54) = (   0.0382559   0.0382559  -0.1147676), wk =   0.0138889
        k(   55) = (   0.0382559   0.0573838   0.0573838), wk =   0.0277778
        k(   56) = (   0.0382559   0.0573838   0.0765117), wk =   0.0555556
        k(   57) = (   0.0382559   0.0573838   0.0956397), wk =   0.0555556
        k(   58) = (   0.0382559   0.0573838  -0.1147676), wk =   0.0277778
        k(   59) = (   0.0382559   0.0765117   0.0765117), wk =   0.0277778
        k(   60) = (   0.0382559   0.0765117   0.0956397), wk =   0.0555556
[...]
        k(   70) = (   0.0573838   0.0765117   0.0956397), wk =   0.0555556
        k(   71) = (   0.0573838   0.0765117  -0.1147676), wk =   0.0277778
        k(   72) = (   0.0573838   0.0956397   0.0956397), wk =   0.0277778
        k(   73) = (   0.0573838   0.0956397  -0.1147676), wk =   0.0277778
        k(   74) = (   0.0573838  -0.1147676  -0.1147676), wk =   0.0069444
        k(   75) = (   0.0765117   0.0765117   0.0765117), wk =   0.0092593
        k(   76) = (   0.0765117   0.0765117   0.0956397), wk =   0.0277778
        k(   77) = (   0.0765117   0.0765117  -0.1147676), wk =   0.0138889
        k(   78) = (   0.0765117   0.0956397   0.0956397), wk =   0.0277778
        k(   79) = (   0.0765117   0.0956397  -0.1147676), wk =   0.0277778
        k(   80) = (   0.0765117  -0.1147676  -0.1147676), wk =   0.0069444
        k(   81) = (   0.0956397   0.0956397   0.0956397), wk =   0.0092593
        k(   82) = (   0.0956397   0.0956397  -0.1147676), wk =   0.0138889
        k(   83) = (   0.0956397  -0.1147676  -0.1147676), wk =   0.0069444
        k(   84) = (  -0.1147676  -0.1147676  -0.1147676), wk =   0.0011574

     Largest allocated arrays     est. size (Mb)     dimensions
     Largest temporary arrays     est. size (Mb)     dimensions

     Check: negative/imaginary core charge=   -0.000004    0.000000

     Initial potential from superposition of free atoms
     Check: negative starting charge=   -0.302330

     starting charge   49.99352, renormalised to   51.00000

     negative rho (up, down):  3.084E-01 0.000E+00

     *
     * You are using vdW-DF for exchange-correlation in this calculation.
     * Please cite the following three references that made this development
     * possible:
     *
     *   M. Dion, H. Rydberg, E. Schroder, D. C. Langreth, and
     *   B. I. Lundqvist, Phys. Rev. Lett. 92, 246401 (2004).
     *
     *   T. Thonhauser, V. R. Cooper, S. Li, A. Puzder, P. Hyldgaard, and
     *   D. C. Langreth, Phys. Rev. B 76, 125112 (2007).
     *
     *   G. Roman-Perez and J. M. Soler, Phys. Rev. Lett. 103, 096102 (2009).
     *
     *
     * If you are using vdW-DF2, please also cite:
     *
     *   K. Lee, E. D. Murray, L. Kong, B. I. Lundqvist, and
     *   D. C. Langreth, Phys. Rev. B 82, 081101(R) (2010).
     *
     *
     * If you are calculating the stress with vdW-DF, please also cite:
     *
     *   R. Sabatini, E. Kucukbenli, B. Kolb, T. Thonhauser, and
     *   S. de Gironcoli, J. Phys.: Condens. Matter 24, 424209 (2012).
     *

     Carrying out vdW-DF run using the following parameters:

     Nqs =      20    Nr_points =    1024   r_max =   100.000
     q_mesh =
               0.00001000     0.04494208     0.09755937     0.15916263
               0.23128650     0.31572767     0.41458969     0.53033537
               0.66584808     0.82450364     1.01025438     1.22772762
               1.48234092     1.78043706     2.12944203     2.53805004
               3.01644009     3.57652955     4.23227104     5.00000000

     Gradients computed in reciprocal space

     Starting wfc are   52 randomized atomic wfcs

     Self-consistent Calculation

     iteration #  1     ecut=    58.80 Ry     beta=0.10
     Davidson diagonalization with overlap
     ethr =  1.00E-02,  avg # of iterations =  4.2

     Threshold (ethr) on eigenvalues was too large:
     Diagonalizing with lowered threshold

     Davidson diagonalization with overlap
     ethr =  8.68E-04,  avg # of iterations =  1.0

[...]

     total energy              =    -474.75920949 Ry
     Harris-Foulkes estimate   =    -474.78188549 Ry
     estimated scf accuracy    <       0.44456741 Ry

[...]

     total energy              =    -474.64955527 Ry
     Harris-Foulkes estimate   =    -474.64955448 Ry
     estimated scf accuracy    <       0.00000003 Ry

     iteration # 16     ecut=    58.80 Ry     beta=0.10
     Davidson diagonalization with overlap
     ethr =  3.88E-11,  avg # of iterations =  1.0

     negative rho (up, down):  3.123E-01 0.000E+00

     End of self-consistent calculation

          k = 0.0000 0.0000 0.0000 (  4169 PWs)   bands (ev):

   -50.9885 -33.4910 -33.2752 -33.2751 -22.9887 -22.9887 -22.9887 -11.8188
   -11.8187 -11.8187 -11.2550 -11.2550 -11.2549 -10.9516 -10.9516 -10.9516
     9.7441  11.9134  12.0416  12.0417  12.6936  12.6936  12.6936  15.7620
    15.7620  15.7621  17.6863  17.6863  18.8542  18.8542  18.8542  19.9185
    19.9186  19.9186  20.2672  20.2673  21.2408  21.7529  21.7529  21.7530
    25.6146  25.6146  25.6146  26.8798  26.8804

[...]

          k = 0.0956-0.1148-0.1148 (  4248 PWs)   bands (ev):

[...]

          k =-0.1148-0.1148-0.1148 (  4272 PWs)   bands (ev):

   -50.9882 -33.3458 -33.3457 -33.3457 -22.9928 -22.9928 -22.9928 -12.1499
   -11.7243 -11.7243 -11.7242 -10.9927 -10.9926 -10.9622 -10.9622 -10.9621
    11.9897  12.2039  12.2040  12.2040  14.8244  14.8245  15.4978  15.4978
    15.4978  16.3245  16.3246  16.3246  16.7325  16.7325  16.7325  17.0516
    19.5649  19.5649  19.5649  20.0529  20.0530  21.1968  21.1968  21.1968
    24.9164  25.7931  25.7931  25.7931  26.6618

     the Fermi energy is    15.4989 ev

!    total energy              =    -474.64956359 Ry
     Harris-Foulkes estimate   =    -474.64956019 Ry
     estimated scf accuracy    <          2.7E-09 Ry

     The total energy is the sum of the following terms:

     one-electron contribution =     -92.07539476 Ry
     hartree contribution      =      69.93287417 Ry
     xc contribution           =     -88.52015874 Ry
     ewald contribution        =    -363.97249227 Ry
     smearing contrib. (-TS)   =      -0.01439198 Ry

     convergence has been achieved in  16 iterations

     Forces acting on atoms (Ry/au):

     negative rho (up, down):  3.123E-01 0.000E+00
     atom    1 type  1   force =     0.00000000    0.00000000    0.00000000
     atom    2 type  1   force =     0.00000000    0.00000000    0.00000000
     atom    3 type  1   force =     0.00000000    0.00000000   -0.00000000
     atom    4 type  2   force =     0.00000000    0.00000000    0.00000000

     Total force =     0.000000     Total SCF correction =     0.000000
 !ASE

     General routines

     Parallel routines

   This run was terminated on:  12:42:18  25Oct2017

   JOB DONE.