     Program PWSCF v.5.1rc2 (svn rev. ) starts on 25Oct2017 at 19:43: 6

     Current dimensions of program PWSCF are:
     Max number of different atomic species (ntypx) = 10
     Max number of k-points (npk) =  40000
     Max angular momentum in pseudopotentials (lmaxx) =  3

     IMPORTANT: XC functional enforced from input :
     Exchange-correlation      = BEEF-VDW ( 1  4 27 13 2)
     Any further DFT definition will be discarded
     Please, verify this is what you really want

     Subspace diagonalization in iterative solution of the eigenvalue problem:
     a serial algorithm will be used

     bravais-lattice index     =            0
     lattice parameter (alat)  =       1.8897  a.u.
     unit-cell volume          =     342.3540 (a.u.)^3
     number of atoms/cell      =            4
     number of atomic types    =            2
     number of electrons       =        57.00
     number of Kohn-Sham states=           48
     kinetic-energy cutoff     =      58.7989  Ry
     charge density cutoff     =     587.9892  Ry
     convergence threshold     =      7.3E-09
     mixing beta               =       0.1000
     number of iterations used =           10  local-TF  mixing
     Exchange-correlation      = BEEF-VDW ( 1  4 27 13 2)
     nstep                     =           50

     celldm(1)=   1.889726  celldm(2)=   0.000000  celldm(3)=   0.000000
     celldm(4)=   0.000000  celldm(5)=   0.000000  celldm(6)=   0.000000

     crystal axes: (cart. coord. in units of alat)
               a(1) = (   3.701914   0.000000   0.000000 )
               a(2) = (   0.000000   3.701914   0.000000 )
               a(3) = (   0.000000   0.000000   3.701914 )

     reciprocal axes: (cart. coord. in units 2 pi/alat)
               b(1) = (  0.270131  0.000000  0.000000 )
               b(2) = (  0.000000  0.270131  0.000000 )
               b(3) = (  0.000000  0.000000  0.270131 )

     PseudoPot. # 1 for Cr read from file:
     /home/vossj/suncat/psp/gbrv1.5pbe/Cr.UPF
     MD5 check sum: 0d52af634a40206e4dee301ad30da4bf
     Pseudo is Ultrasoft + core correction, Zval = 14.0
     Generated by new atomic code, or converted to UPF format
     Using radial grid of  857 points,  6 beta functions with:
                l(1) =   0
                l(2) =   0
                l(3) =   1
                l(4) =   1
                l(5) =   2
                l(6) =   2
     Q(r) pseudized with  8 coefficients,  rinner =    0.950   0.950   0.950
                                                       0.950   0.950

     PseudoPot. # 2 for Tc read from file:
     /home/vossj/suncat/psp/gbrv1.5pbe/Tc.UPF
     MD5 check sum: 9eb49e5b028550b2339a02317eb7b844
     Pseudo is Ultrasoft + core correction, Zval = 15.0
     Generated by new atomic code, or converted to UPF format
     Using radial grid of  965 points,  6 beta functions with:
                l(1) =   0
                l(2) =   0
                l(3) =   1
                l(4) =   1
                l(5) =   2
                l(6) =   2
     Q(r) pseudized with  8 coefficients,  rinner =    1.300   1.300   1.300
                                                       1.300   1.300

     vdW kernel table read from file vdW_kernel_table
     MD5 check sum: 095c7af220d748ca6e76c0b4c6cfb241

     atomic species   valence    mass     pseudopotential
        Cr1           14.00    51.99610     Cr( 1.00)
        Tc1           15.00    97.90721     Tc( 1.00)

     48 Sym. Ops., with inversion, found (32 have fractional translation)

   Cartesian axes

     site n.     atom                  positions (alat units)
         1           Cr1 tau(   1) = (   0.0000000   0.0000000   0.0000000  )
         2           Cr1 tau(   2) = (   0.0000000   1.8509568   1.8509568  )
         3           Cr1 tau(   3) = (   1.8509568   0.0000000   1.8509568  )
         4           Tc1 tau(   4) = (   1.8509568   1.8509568   0.0000000  )

     number of k points=    84  Fermi-Dirac smearing, width (Ry)=  0.0073
                       cart. coord. in units 2pi/alat
        k(    1) = (   0.0000000   0.0000000   0.0000000), wk =   0.0011574
        k(    2) = (   0.0000000   0.0000000   0.0225109), wk =   0.0069444
        k(    3) = (   0.0000000   0.0000000   0.0450218), wk =   0.0069444
        k(    4) = (   0.0000000   0.0000000   0.0675326), wk =   0.0069444
        k(    5) = (   0.0000000   0.0000000   0.0900435), wk =   0.0069444
        k(    6) = (   0.0000000   0.0000000   0.1125544), wk =   0.0069444
        k(    7) = (   0.0000000   0.0000000  -0.1350653), wk =   0.0034722
        k(    8) = (   0.0000000   0.0225109   0.0225109), wk =   0.0138889
        k(    9) = (   0.0000000   0.0225109   0.0450218), wk =   0.0277778
        k(   10) = (   0.0000000   0.0225109   0.0675326), wk =   0.0277778
        k(   11) = (   0.0000000   0.0225109   0.0900435), wk =   0.0277778
        k(   12) = (   0.0000000   0.0225109   0.1125544), wk =   0.0277778
        k(   13) = (   0.0000000   0.0225109  -0.1350653), wk =   0.0138889
        k(   14) = (   0.0000000   0.0450218   0.0450218), wk =   0.0138889
        k(   15) = (   0.0000000   0.0450218   0.0675326), wk =   0.0277778
        k(   16) = (   0.0000000   0.0450218   0.0900435), wk =   0.0277778
        k(   17) = (   0.0000000   0.0450218   0.1125544), wk =   0.0277778
        k(   18) = (   0.0000000   0.0450218  -0.1350653), wk =   0.0138889
        k(   19) = (   0.0000000   0.0675326   0.0675326), wk =   0.0138889
        k(   20) = (   0.0000000   0.0675326   0.0900435), wk =   0.0277778
        k(   21) = (   0.0000000   0.0675326   0.1125544), wk =   0.0277778
        k(   22) = (   0.0000000   0.0675326  -0.1350653), wk =   0.0138889
        k(   23) = (   0.0000000   0.0900435   0.0900435), wk =   0.0138889
        k(   24) = (   0.0000000   0.0900435   0.1125544), wk =   0.0277778
        k(   25) = (   0.0000000   0.0900435  -0.1350653), wk =   0.0138889
        k(   26) = (   0.0000000   0.1125544   0.1125544), wk =   0.0138889
        k(   27) = (   0.0000000   0.1125544  -0.1350653), wk =   0.0138889
        k(   28) = (   0.0000000  -0.1350653  -0.1350653), wk =   0.0034722
        k(   29) = (   0.0225109   0.0225109   0.0225109), wk =   0.0092593
        k(   30) = (   0.0225109   0.0225109   0.0450218), wk =   0.0277778
        k(   31) = (   0.0225109   0.0225109   0.0675326), wk =   0.0277778
        k(   32) = (   0.0225109   0.0225109   0.0900435), wk =   0.0277778
        k(   33) = (   0.0225109   0.0225109   0.1125544), wk =   0.0277778
        k(   34) = (   0.0225109   0.0225109  -0.1350653), wk =   0.0138889
        k(   35) = (   0.0225109   0.0450218   0.0450218), wk =   0.0277778
        k(   36) = (   0.0225109   0.0450218   0.0675326), wk =   0.0555556
        k(   37) = (   0.0225109   0.0450218   0.0900435), wk =   0.0555556
        k(   38) = (   0.0225109   0.0450218   0.1125544), wk =   0.0555556
        k(   39) = (   0.0225109   0.0450218  -0.1350653), wk =   0.0277778
        k(   40) = (   0.0225109   0.0675326   0.0675326), wk =   0.0277778
        k(   41) = (   0.0225109   0.0675326   0.0900435), wk =   0.0555556
        k(   42) = (   0.0225109   0.0675326   0.1125544), wk =   0.0555556
        k(   43) = (   0.0225109   0.0675326  -0.1350653), wk =   0.0277778
        k(   44) = (   0.0225109   0.0900435   0.0900435), wk =   0.0277778
        k(   45) = (   0.0225109   0.0900435   0.1125544), wk =   0.0555556
        k(   46) = (   0.0225109   0.0900435  -0.1350653), wk =   0.0277778
        k(   47) = (   0.0225109   0.1125544   0.1125544), wk =   0.0277778
        k(   48) = (   0.0225109   0.1125544  -0.1350653), wk =   0.0277778
        k(   49) = (   0.0225109  -0.1350653  -0.1350653), wk =   0.0069444
        k(   50) = (   0.0450218   0.0450218   0.0450218), wk =   0.0092593
        k(   51) = (   0.0450218   0.0450218   0.0675326), wk =   0.0277778
        k(   52) = (   0.0450218   0.0450218   0.0900435), wk =   0.0277778
        k(   53) = (   0.0450218   0.0450218   0.1125544), wk =   0.0277778
        k(   54) = (   0.0450218   0.0450218  -0.1350653), wk =   0.0138889
        k(   55) = (   0.0450218   0.0675326   0.0675326), wk =   0.0277778
        k(   56) = (   0.0450218   0.0675326   0.0900435), wk =   0.0555556
        k(   57) = (   0.0450218   0.0675326   0.1125544), wk =   0.0555556
        k(   58) = (   0.0450218   0.0675326  -0.1350653), wk =   0.0277778
        k(   59) = (   0.0450218   0.0900435   0.0900435), wk =   0.0277778
        k(   60) = (   0.0450218   0.0900435   0.1125544), wk =   0.0555556
[...]
        k(   70) = (   0.0675326   0.0900435   0.1125544), wk =   0.0555556
        k(   71) = (   0.0675326   0.0900435  -0.1350653), wk =   0.0277778
        k(   72) = (   0.0675326   0.1125544   0.1125544), wk =   0.0277778
        k(   73) = (   0.0675326   0.1125544  -0.1350653), wk =   0.0277778
        k(   74) = (   0.0675326  -0.1350653  -0.1350653), wk =   0.0069444
        k(   75) = (   0.0900435   0.0900435   0.0900435), wk =   0.0092593
        k(   76) = (   0.0900435   0.0900435   0.1125544), wk =   0.0277778
        k(   77) = (   0.0900435   0.0900435  -0.1350653), wk =   0.0138889
        k(   78) = (   0.0900435   0.1125544   0.1125544), wk =   0.0277778
        k(   79) = (   0.0900435   0.1125544  -0.1350653), wk =   0.0277778
        k(   80) = (   0.0900435  -0.1350653  -0.1350653), wk =   0.0069444
        k(   81) = (   0.1125544   0.1125544   0.1125544), wk =   0.0092593
        k(   82) = (   0.1125544   0.1125544  -0.1350653), wk =   0.0138889
        k(   83) = (   0.1125544  -0.1350653  -0.1350653), wk =   0.0069444
        k(   84) = (  -0.1350653  -0.1350653  -0.1350653), wk =   0.0011574

     Largest allocated arrays     est. size (Mb)     dimensions
     Largest temporary arrays     est. size (Mb)     dimensions

     Check: negative/imaginary core charge=   -0.000011    0.000000

     Initial potential from superposition of free atoms
     Check: negative starting charge=   -0.125463

     starting charge   52.99993, renormalised to   57.00000

     negative rho (up, down):  1.349E-01 0.000E+00

     *
     * You are using vdW-DF for exchange-correlation in this calculation.
     * Please cite the following three references that made this development
     * possible:
     *
     *   M. Dion, H. Rydberg, E. Schroder, D. C. Langreth, and
     *   B. I. Lundqvist, Phys. Rev. Lett. 92, 246401 (2004).
     *
     *   T. Thonhauser, V. R. Cooper, S. Li, A. Puzder, P. Hyldgaard, and
     *   D. C. Langreth, Phys. Rev. B 76, 125112 (2007).
     *
     *   G. Roman-Perez and J. M. Soler, Phys. Rev. Lett. 103, 096102 (2009).
     *
     *
     * If you are using vdW-DF2, please also cite:
     *
     *   K. Lee, E. D. Murray, L. Kong, B. I. Lundqvist, and
     *   D. C. Langreth, Phys. Rev. B 82, 081101(R) (2010).
     *
     *
     * If you are calculating the stress with vdW-DF, please also cite:
     *
     *   R. Sabatini, E. Kucukbenli, B. Kolb, T. Thonhauser, and
     *   S. de Gironcoli, J. Phys.: Condens. Matter 24, 424209 (2012).
     *

     Carrying out vdW-DF run using the following parameters:

     Nqs =      20    Nr_points =    1024   r_max =   100.000
     q_mesh =
               0.00001000     0.04494208     0.09755937     0.15916263
               0.23128650     0.31572767     0.41458969     0.53033537
               0.66584808     0.82450364     1.01025438     1.22772762
               1.48234092     1.78043706     2.12944203     2.53805004
               3.01644009     3.57652955     4.23227104     5.00000000

     Gradients computed in reciprocal space

     Starting wfc are   43 randomized atomic wfcs +    5 random wfc

     Self-consistent Calculation

     iteration #  1     ecut=    58.80 Ry     beta=0.10
     Davidson diagonalization with overlap
     ethr =  1.00E-02,  avg # of iterations =  4.3

[...]

     total energy              =    -705.72075787 Ry
     Harris-Foulkes estimate   =    -706.22254988 Ry
     estimated scf accuracy    <       6.50080707 Ry

[...]

     total energy              =    -704.18037474 Ry
     Harris-Foulkes estimate   =    -704.18037433 Ry
     estimated scf accuracy    <       0.00000002 Ry

     iteration # 17     ecut=    58.80 Ry     beta=0.10
     Davidson diagonalization with overlap
     ethr =  2.97E-11,  avg # of iterations =  2.4

     negative rho (up, down):  1.314E-01 0.000E+00

     End of self-consistent calculation

          k = 0.0000 0.0000 0.0000 (  2553 PWs)   bands (ev):

   -52.5343 -52.3998 -52.3998 -47.6941 -24.0044 -24.0044 -24.0044 -23.7158
   -23.7158 -23.7158 -23.5374 -23.5374 -23.5374 -19.6818 -19.6818 -19.6818
    11.7993  14.2686  14.2686  15.3610  15.3610  15.3610  15.3935  18.4923
    18.4923  18.4923  20.3369  20.3369  21.3538  21.6641  21.6641  21.6641
    21.7851  21.7851  22.3502  22.3502  22.3502  22.8654  22.8654  22.8654
    31.0972  32.3401  32.3401  32.6459  32.6459  32.6459  34.7329  34.7329

[...]

          k = 0.1126-0.1351-0.1351 (  2576 PWs)   bands (ev):

[...]

          k =-0.1351-0.1351-0.1351 (  2608 PWs)   bands (ev):

   -52.4428 -52.4428 -52.4428 -47.6944 -24.1171 -24.0011 -24.0011 -24.0011
   -23.5632 -23.5632 -23.5632 -23.5310 -23.5310 -19.6870 -19.6870 -19.6870
    14.6173  14.6173  14.6173  15.5210  17.8824  17.8824  18.3987  18.3987
    18.3987  18.5592  18.5592  18.5592  19.7339  20.2447  20.2447  20.2447
    21.3804  21.3804  21.3804  21.7812  21.7812  21.8089  21.8089  21.8089
    28.5620  28.9334  28.9334  28.9334  36.1220  36.1220  36.1220  36.5316

     the Fermi energy is    19.1520 ev

!    total energy              =    -704.18037647 Ry
     Harris-Foulkes estimate   =    -704.18037474 Ry
     estimated scf accuracy    <          3.1E-09 Ry

     The total energy is the sum of the following terms:

     one-electron contribution =    -206.04594622 Ry
     hartree contribution      =     137.57737749 Ry
     xc contribution           =    -103.11349383 Ry
     ewald contribution        =    -532.58386695 Ry
     smearing contrib. (-TS)   =      -0.01444696 Ry

     convergence has been achieved in  17 iterations

     Forces acting on atoms (Ry/au):

     negative rho (up, down):  1.314E-01 0.000E+00
     atom    1 type  1   force =     0.00000000    0.00000000    0.00000000
     atom    2 type  1   force =     0.00000000    0.00000000    0.00000000
     atom    3 type  1   force =     0.00000000    0.00000000   -0.00000000
     atom    4 type  2   force =     0.00000000   -0.00000000    0.00000000

     Total force =     0.000000     Total SCF correction =     0.000000
 !ASE

     General routines

     Parallel routines

   This run was terminated on:  19:44: 5  25Oct2017

   JOB DONE.