     Program PWSCF v.5.1rc2 (svn rev. ) starts on 31Oct2017 at 14:27:31

     Current dimensions of program PWSCF are:
     Max number of different atomic species (ntypx) = 10
     Max number of k-points (npk) =  40000
     Max angular momentum in pseudopotentials (lmaxx) =  3

     IMPORTANT: XC functional enforced from input :
     Exchange-correlation      = BEEF-VDW ( 1  4 27 13 2)
     Any further DFT definition will be discarded
     Please, verify this is what you really want

     Subspace diagonalization in iterative solution of the eigenvalue problem:
     a serial algorithm will be used

     bravais-lattice index     =            0
     lattice parameter (alat)  =       1.8897  a.u.
     unit-cell volume          =     498.6771 (a.u.)^3
     number of atoms/cell      =            4
     number of atomic types    =            2
     number of electrons       =        53.00
     number of Kohn-Sham states=           46
     kinetic-energy cutoff     =      58.7989  Ry
     charge density cutoff     =     587.9892  Ry
     convergence threshold     =      7.3E-09
     mixing beta               =       0.1000
     number of iterations used =           10  local-TF  mixing
     Exchange-correlation      = BEEF-VDW ( 1  4 27 13 2)
     nstep                     =           50

     celldm(1)=   1.889726  celldm(2)=   0.000000  celldm(3)=   0.000000
     celldm(4)=   0.000000  celldm(5)=   0.000000  celldm(6)=   0.000000

     crystal axes: (cart. coord. in units of alat)
               a(1) = (   4.196375   0.000000   0.000000 )
               a(2) = (   0.000000   4.196375   0.000000 )
               a(3) = (   0.000000   0.000000   4.196375 )

     reciprocal axes: (cart. coord. in units 2 pi/alat)
               b(1) = (  0.238301  0.000000  0.000000 )
               b(2) = (  0.000000  0.238301  0.000000 )
               b(3) = (  0.000000  0.000000  0.238301 )

     PseudoPot. # 1 for Cd read from file:
     /home/vossj/suncat/psp/gbrv1.5pbe/Cd.UPF
     MD5 check sum: 17164a7926edb8e0dc231208abae86a6
     Pseudo is Ultrasoft + core correction, Zval = 12.0
     Generated by new atomic code, or converted to UPF format
     Using radial grid of  889 points,  6 beta functions with:
                l(1) =   0
                l(2) =   0
                l(3) =   1
                l(4) =   1
                l(5) =   2
                l(6) =   2
     Q(r) pseudized with  6 coefficients,  rinner =    1.000   1.000   1.000
                                                       1.000   1.000

     PseudoPot. # 2 for Co read from file:
     /home/vossj/suncat/psp/gbrv1.5pbe/Co.UPF
     MD5 check sum: 5f91765df6ddd3222702df6e7b74a16d
     Pseudo is Ultrasoft + core correction, Zval = 17.0
     Generated by new atomic code, or converted to UPF format
     Using radial grid of  863 points,  6 beta functions with:
                l(1) =   0
                l(2) =   0
                l(3) =   1
                l(4) =   1
                l(5) =   2
                l(6) =   2
     Q(r) pseudized with  8 coefficients,  rinner =    1.200   1.200   1.200
                                                       1.200   1.200

     vdW kernel table read from file vdW_kernel_table
     MD5 check sum: 095c7af220d748ca6e76c0b4c6cfb241

     atomic species   valence    mass     pseudopotential
        Cd1           12.00   112.41400     Cd( 1.00)
        Co1           17.00    58.93319     Co( 1.00)

     48 Sym. Ops., with inversion, found (32 have fractional translation)

   Cartesian axes

     site n.     atom                  positions (alat units)
         1           Cd1 tau(   1) = (   0.0000000   0.0000000   0.0000000  )
         2           Cd1 tau(   2) = (   0.0000000   2.0981874   2.0981874  )
         3           Cd1 tau(   3) = (   2.0981874   0.0000000   2.0981874  )
         4           Co1 tau(   4) = (   2.0981874   2.0981874   0.0000000  )

     number of k points=    84  Fermi-Dirac smearing, width (Ry)=  0.0073
                       cart. coord. in units 2pi/alat
        k(    1) = (   0.0000000   0.0000000   0.0000000), wk =   0.0011574
        k(    2) = (   0.0000000   0.0000000   0.0198584), wk =   0.0069444
        k(    3) = (   0.0000000   0.0000000   0.0397168), wk =   0.0069444
        k(    4) = (   0.0000000   0.0000000   0.0595752), wk =   0.0069444
        k(    5) = (   0.0000000   0.0000000   0.0794336), wk =   0.0069444
        k(    6) = (   0.0000000   0.0000000   0.0992921), wk =   0.0069444
        k(    7) = (   0.0000000   0.0000000  -0.1191505), wk =   0.0034722
        k(    8) = (   0.0000000   0.0198584   0.0198584), wk =   0.0138889
        k(    9) = (   0.0000000   0.0198584   0.0397168), wk =   0.0277778
        k(   10) = (   0.0000000   0.0198584   0.0595752), wk =   0.0277778
        k(   11) = (   0.0000000   0.0198584   0.0794336), wk =   0.0277778
        k(   12) = (   0.0000000   0.0198584   0.0992921), wk =   0.0277778
        k(   13) = (   0.0000000   0.0198584  -0.1191505), wk =   0.0138889
        k(   14) = (   0.0000000   0.0397168   0.0397168), wk =   0.0138889
        k(   15) = (   0.0000000   0.0397168   0.0595752), wk =   0.0277778
        k(   16) = (   0.0000000   0.0397168   0.0794336), wk =   0.0277778
        k(   17) = (   0.0000000   0.0397168   0.0992921), wk =   0.0277778
        k(   18) = (   0.0000000   0.0397168  -0.1191505), wk =   0.0138889
        k(   19) = (   0.0000000   0.0595752   0.0595752), wk =   0.0138889
        k(   20) = (   0.0000000   0.0595752   0.0794336), wk =   0.0277778
        k(   21) = (   0.0000000   0.0595752   0.0992921), wk =   0.0277778
        k(   22) = (   0.0000000   0.0595752  -0.1191505), wk =   0.0138889
        k(   23) = (   0.0000000   0.0794336   0.0794336), wk =   0.0138889
        k(   24) = (   0.0000000   0.0794336   0.0992921), wk =   0.0277778
        k(   25) = (   0.0000000   0.0794336  -0.1191505), wk =   0.0138889
        k(   26) = (   0.0000000   0.0992921   0.0992921), wk =   0.0138889
        k(   27) = (   0.0000000   0.0992921  -0.1191505), wk =   0.0138889
        k(   28) = (   0.0000000  -0.1191505  -0.1191505), wk =   0.0034722
        k(   29) = (   0.0198584   0.0198584   0.0198584), wk =   0.0092593
        k(   30) = (   0.0198584   0.0198584   0.0397168), wk =   0.0277778
        k(   31) = (   0.0198584   0.0198584   0.0595752), wk =   0.0277778
        k(   32) = (   0.0198584   0.0198584   0.0794336), wk =   0.0277778
        k(   33) = (   0.0198584   0.0198584   0.0992921), wk =   0.0277778
        k(   34) = (   0.0198584   0.0198584  -0.1191505), wk =   0.0138889
        k(   35) = (   0.0198584   0.0397168   0.0397168), wk =   0.0277778
        k(   36) = (   0.0198584   0.0397168   0.0595752), wk =   0.0555556
        k(   37) = (   0.0198584   0.0397168   0.0794336), wk =   0.0555556
        k(   38) = (   0.0198584   0.0397168   0.0992921), wk =   0.0555556
        k(   39) = (   0.0198584   0.0397168  -0.1191505), wk =   0.0277778
        k(   40) = (   0.0198584   0.0595752   0.0595752), wk =   0.0277778
        k(   41) = (   0.0198584   0.0595752   0.0794336), wk =   0.0555556
        k(   42) = (   0.0198584   0.0595752   0.0992921), wk =   0.0555556
        k(   43) = (   0.0198584   0.0595752  -0.1191505), wk =   0.0277778
        k(   44) = (   0.0198584   0.0794336   0.0794336), wk =   0.0277778
        k(   45) = (   0.0198584   0.0794336   0.0992921), wk =   0.0555556
        k(   46) = (   0.0198584   0.0794336  -0.1191505), wk =   0.0277778
        k(   47) = (   0.0198584   0.0992921   0.0992921), wk =   0.0277778
        k(   48) = (   0.0198584   0.0992921  -0.1191505), wk =   0.0277778
        k(   49) = (   0.0198584  -0.1191505  -0.1191505), wk =   0.0069444
        k(   50) = (   0.0397168   0.0397168   0.0397168), wk =   0.0092593
        k(   51) = (   0.0397168   0.0397168   0.0595752), wk =   0.0277778
        k(   52) = (   0.0397168   0.0397168   0.0794336), wk =   0.0277778
        k(   53) = (   0.0397168   0.0397168   0.0992921), wk =   0.0277778
        k(   54) = (   0.0397168   0.0397168  -0.1191505), wk =   0.0138889
        k(   55) = (   0.0397168   0.0595752   0.0595752), wk =   0.0277778
        k(   56) = (   0.0397168   0.0595752   0.0794336), wk =   0.0555556
        k(   57) = (   0.0397168   0.0595752   0.0992921), wk =   0.0555556
        k(   58) = (   0.0397168   0.0595752  -0.1191505), wk =   0.0277778
        k(   59) = (   0.0397168   0.0794336   0.0794336), wk =   0.0277778
        k(   60) = (   0.0397168   0.0794336   0.0992921), wk =   0.0555556
[...]
        k(   70) = (   0.0595752   0.0794336   0.0992921), wk =   0.0555556
        k(   71) = (   0.0595752   0.0794336  -0.1191505), wk =   0.0277778
        k(   72) = (   0.0595752   0.0992921   0.0992921), wk =   0.0277778
        k(   73) = (   0.0595752   0.0992921  -0.1191505), wk =   0.0277778
        k(   74) = (   0.0595752  -0.1191505  -0.1191505), wk =   0.0069444
        k(   75) = (   0.0794336   0.0794336   0.0794336), wk =   0.0092593
        k(   76) = (   0.0794336   0.0794336   0.0992921), wk =   0.0277778
        k(   77) = (   0.0794336   0.0794336  -0.1191505), wk =   0.0138889
        k(   78) = (   0.0794336   0.0992921   0.0992921), wk =   0.0277778
        k(   79) = (   0.0794336   0.0992921  -0.1191505), wk =   0.0277778
        k(   80) = (   0.0794336  -0.1191505  -0.1191505), wk =   0.0069444
        k(   81) = (   0.0992921   0.0992921   0.0992921), wk =   0.0092593
        k(   82) = (   0.0992921   0.0992921  -0.1191505), wk =   0.0138889
        k(   83) = (   0.0992921  -0.1191505  -0.1191505), wk =   0.0069444
        k(   84) = (  -0.1191505  -0.1191505  -0.1191505), wk =   0.0011574

     Largest allocated arrays     est. size (Mb)     dimensions
     Largest temporary arrays     est. size (Mb)     dimensions

     Check: negative/imaginary core charge=   -0.000007    0.000000

     Initial potential from superposition of free atoms
     Check: negative starting charge=   -0.061391

     starting charge   50.49987, renormalised to   53.00000

     negative rho (up, down):  6.443E-02 0.000E+00

     *
     * You are using vdW-DF for exchange-correlation in this calculation.
     * Please cite the following three references that made this development
     * possible:
     *
     *   M. Dion, H. Rydberg, E. Schroder, D. C. Langreth, and
     *   B. I. Lundqvist, Phys. Rev. Lett. 92, 246401 (2004).
     *
     *   T. Thonhauser, V. R. Cooper, S. Li, A. Puzder, P. Hyldgaard, and
     *   D. C. Langreth, Phys. Rev. B 76, 125112 (2007).
     *
     *   G. Roman-Perez and J. M. Soler, Phys. Rev. Lett. 103, 096102 (2009).
     *
     *
     * If you are using vdW-DF2, please also cite:
     *
     *   K. Lee, E. D. Murray, L. Kong, B. I. Lundqvist, and
     *   D. C. Langreth, Phys. Rev. B 82, 081101(R) (2010).
     *
     *
     * If you are calculating the stress with vdW-DF, please also cite:
     *
     *   R. Sabatini, E. Kucukbenli, B. Kolb, T. Thonhauser, and
     *   S. de Gironcoli, J. Phys.: Condens. Matter 24, 424209 (2012).
     *

     Carrying out vdW-DF run using the following parameters:

     Nqs =      20    Nr_points =    1024   r_max =   100.000
     q_mesh =
               0.00001000     0.04494208     0.09755937     0.15916263
               0.23128650     0.31572767     0.41458969     0.53033537
               0.66584808     0.82450364     1.01025438     1.22772762
               1.48234092     1.78043706     2.12944203     2.53805004
               3.01644009     3.57652955     4.23227104     5.00000000

     Gradients computed in reciprocal space

     Starting wfc are   40 randomized atomic wfcs +    6 random wfc

     Self-consistent Calculation

     iteration #  1     ecut=    58.80 Ry     beta=0.10
     Davidson diagonalization with overlap
     ethr =  1.00E-02,  avg # of iterations =  4.8

[...]

     total energy              =    -648.26048936 Ry
     Harris-Foulkes estimate   =    -649.47194844 Ry
     estimated scf accuracy    <      19.99070673 Ry

[...]

     total energy              =    -647.77359775 Ry
     Harris-Foulkes estimate   =    -647.77358877 Ry
     estimated scf accuracy    <       0.00000005 Ry

     iteration # 16     ecut=    58.80 Ry     beta=0.10
     Davidson diagonalization with overlap
     ethr =  8.76E-11,  avg # of iterations =  3.2

     negative rho (up, down):  6.445E-02 0.000E+00

     End of self-consistent calculation

          k = 0.0000 0.0000 0.0000 (  3791 PWs)   bands (ev):

   -81.4763 -44.8155 -44.8155 -44.8155   2.2931   2.6115   2.6115   2.6115
     3.0101   3.0101   3.7258   3.7258   3.7258   3.8040   3.9757   3.9757
     4.3546   4.4255   4.4255   4.4255  11.5396  11.5396  12.1568  12.1568
    12.1568  12.4599  12.4599  12.4599  15.9995  15.9995  16.4610  21.0134
    21.0134  21.0134  21.0332  21.0332  21.0332  25.9229  25.9229  25.9229
    26.2749  26.2749  26.4195  27.8095  30.0120  30.0120

[...]

          k = 0.0993-0.1192-0.1192 (  3804 PWs)   bands (ev):

[...]

          k =-0.1192-0.1192-0.1192 (  3840 PWs)   bands (ev):

   -81.4763 -44.8157 -44.8157 -44.8157   2.7346   2.7346   2.7346   2.7665
     3.2316   3.2316   3.2316   3.6972   3.6972   3.6972   3.9084   3.9084
     4.3324   4.3324   4.3324  10.0259  10.5849  10.5849  10.5849  10.9433
    10.9433  10.9433  12.1941  12.1941  13.7195  13.7195  13.7195  14.1029
    26.5279  26.9707  26.9707  26.9707  27.0682  27.0682  27.7556  27.7556
    27.7556  27.8730  27.8730  27.8730  31.4019  31.4019

     the Fermi energy is    12.5881 ev

!    total energy              =    -647.77362878 Ry
     Harris-Foulkes estimate   =    -647.77359776 Ry
     estimated scf accuracy    <          2.5E-09 Ry

     The total energy is the sum of the following terms:

     one-electron contribution =    -255.30626773 Ry
     hartree contribution      =     175.24162344 Ry
     xc contribution           =    -156.35133558 Ry
     ewald contribution        =    -411.34889887 Ry
     smearing contrib. (-TS)   =      -0.00875004 Ry

     convergence has been achieved in  16 iterations

     Forces acting on atoms (Ry/au):

     negative rho (up, down):  6.445E-02 0.000E+00
     atom    1 type  1   force =     0.00000000    0.00000000    0.00000000
     atom    2 type  1   force =     0.00000000    0.00000000    0.00000000
     atom    3 type  1   force =     0.00000000    0.00000000    0.00000000
     atom    4 type  2   force =     0.00000000    0.00000000    0.00000000

     Total force =     0.000000     Total SCF correction =     0.000000
 !ASE

     General routines

     Parallel routines

   This run was terminated on:  14:28:44  31Oct2017

   JOB DONE.