     Program PWSCF v.5.1rc2 (svn rev. ) starts on 25Oct2017 at  9:32:11

     Current dimensions of program PWSCF are:
     Max number of different atomic species (ntypx) = 10
     Max number of k-points (npk) =  40000
     Max angular momentum in pseudopotentials (lmaxx) =  3

     IMPORTANT: XC functional enforced from input :
     Exchange-correlation      = BEEF-VDW ( 1  4 27 13 2)
     Any further DFT definition will be discarded
     Please, verify this is what you really want

     Subspace diagonalization in iterative solution of the eigenvalue problem:
     a serial algorithm will be used

     bravais-lattice index     =            0
     lattice parameter (alat)  =       1.8897  a.u.
     unit-cell volume          =     711.9245 (a.u.)^3
     number of atoms/cell      =            4
     number of atomic types    =            2
     number of electrons       =        58.00
     number of Kohn-Sham states=           49
     kinetic-energy cutoff     =      58.7989  Ry
     charge density cutoff     =     587.9892  Ry
     convergence threshold     =      7.3E-09
     mixing beta               =       0.1000
     number of iterations used =           10  local-TF  mixing
     Exchange-correlation      = BEEF-VDW ( 1  4 27 13 2)
     nstep                     =           50

     celldm(1)=   1.889726  celldm(2)=   0.000000  celldm(3)=   0.000000
     celldm(4)=   0.000000  celldm(5)=   0.000000  celldm(6)=   0.000000

     crystal axes: (cart. coord. in units of alat)
               a(1) = (   4.725116   0.000000   0.000000 )
               a(2) = (   0.000000   4.725116   0.000000 )
               a(3) = (   0.000000   0.000000   4.725116 )

     reciprocal axes: (cart. coord. in units 2 pi/alat)
               b(1) = (  0.211635  0.000000  0.000000 )
               b(2) = (  0.000000  0.211635  0.000000 )
               b(3) = (  0.000000  0.000000  0.211635 )

     PseudoPot. # 1 for In read from file:
     /home/vossj/suncat/psp/gbrv1.5pbe/In.UPF
     MD5 check sum: 90777abd96fbb83f2e67db2a40c566b9
     Pseudo is Ultrasoft + core correction, Zval = 13.0
     Generated by new atomic code, or converted to UPF format
     Using radial grid of  889 points,  6 beta functions with:
                l(1) =   0
                l(2) =   0
                l(3) =   1
                l(4) =   1
                l(5) =   2
                l(6) =   2
     Q(r) pseudized with  6 coefficients,  rinner =    1.400   1.400   1.400
                                                       1.400   1.400

     PseudoPot. # 2 for Ga read from file:
     /home/vossj/suncat/psp/gbrv1.5pbe/Ga.UPF
     MD5 check sum: ccd671392a58a050fbb373893b4fcd66
     Pseudo is Ultrasoft + core correction, Zval = 19.0
     Generated by new atomic code, or converted to UPF format
     Using radial grid of  871 points,  6 beta functions with:
                l(1) =   0
                l(2) =   0
                l(3) =   1
                l(4) =   1
                l(5) =   2
                l(6) =   2
     Q(r) pseudized with  8 coefficients,  rinner =    1.250   1.250   1.250
                                                       1.250   1.250

     vdW kernel table read from file vdW_kernel_table
     MD5 check sum: 095c7af220d748ca6e76c0b4c6cfb241

     atomic species   valence    mass     pseudopotential
        In1           13.00   114.81800     In( 1.00)
        Ga1           19.00    69.72300     Ga( 1.00)

     48 Sym. Ops., with inversion, found (32 have fractional translation)

   Cartesian axes

     site n.     atom                  positions (alat units)
         1           In1 tau(   1) = (   0.0000000   0.0000000   0.0000000  )
         2           In1 tau(   2) = (   0.0000000   2.3625578   2.3625578  )
         3           In1 tau(   3) = (   2.3625578   0.0000000   2.3625578  )
         4           Ga1 tau(   4) = (   2.3625578   2.3625578   0.0000000  )

     number of k points=    84  Fermi-Dirac smearing, width (Ry)=  0.0073
                       cart. coord. in units 2pi/alat
        k(    1) = (   0.0000000   0.0000000   0.0000000), wk =   0.0011574
        k(    2) = (   0.0000000   0.0000000   0.0176363), wk =   0.0069444
        k(    3) = (   0.0000000   0.0000000   0.0352725), wk =   0.0069444
        k(    4) = (   0.0000000   0.0000000   0.0529088), wk =   0.0069444
        k(    5) = (   0.0000000   0.0000000   0.0705450), wk =   0.0069444
        k(    6) = (   0.0000000   0.0000000   0.0881813), wk =   0.0069444
        k(    7) = (   0.0000000   0.0000000  -0.1058175), wk =   0.0034722
        k(    8) = (   0.0000000   0.0176363   0.0176363), wk =   0.0138889
        k(    9) = (   0.0000000   0.0176363   0.0352725), wk =   0.0277778
        k(   10) = (   0.0000000   0.0176363   0.0529088), wk =   0.0277778
        k(   11) = (   0.0000000   0.0176363   0.0705450), wk =   0.0277778
        k(   12) = (   0.0000000   0.0176363   0.0881813), wk =   0.0277778
        k(   13) = (   0.0000000   0.0176363  -0.1058175), wk =   0.0138889
        k(   14) = (   0.0000000   0.0352725   0.0352725), wk =   0.0138889
        k(   15) = (   0.0000000   0.0352725   0.0529088), wk =   0.0277778
        k(   16) = (   0.0000000   0.0352725   0.0705450), wk =   0.0277778
        k(   17) = (   0.0000000   0.0352725   0.0881813), wk =   0.0277778
        k(   18) = (   0.0000000   0.0352725  -0.1058175), wk =   0.0138889
        k(   19) = (   0.0000000   0.0529088   0.0529088), wk =   0.0138889
        k(   20) = (   0.0000000   0.0529088   0.0705450), wk =   0.0277778
        k(   21) = (   0.0000000   0.0529088   0.0881813), wk =   0.0277778
        k(   22) = (   0.0000000   0.0529088  -0.1058175), wk =   0.0138889
        k(   23) = (   0.0000000   0.0705450   0.0705450), wk =   0.0138889
        k(   24) = (   0.0000000   0.0705450   0.0881813), wk =   0.0277778
        k(   25) = (   0.0000000   0.0705450  -0.1058175), wk =   0.0138889
        k(   26) = (   0.0000000   0.0881813   0.0881813), wk =   0.0138889
        k(   27) = (   0.0000000   0.0881813  -0.1058175), wk =   0.0138889
        k(   28) = (   0.0000000  -0.1058175  -0.1058175), wk =   0.0034722
        k(   29) = (   0.0176363   0.0176363   0.0176363), wk =   0.0092593
        k(   30) = (   0.0176363   0.0176363   0.0352725), wk =   0.0277778
        k(   31) = (   0.0176363   0.0176363   0.0529088), wk =   0.0277778
        k(   32) = (   0.0176363   0.0176363   0.0705450), wk =   0.0277778
        k(   33) = (   0.0176363   0.0176363   0.0881813), wk =   0.0277778
        k(   34) = (   0.0176363   0.0176363  -0.1058175), wk =   0.0138889
        k(   35) = (   0.0176363   0.0352725   0.0352725), wk =   0.0277778
        k(   36) = (   0.0176363   0.0352725   0.0529088), wk =   0.0555556
        k(   37) = (   0.0176363   0.0352725   0.0705450), wk =   0.0555556
        k(   38) = (   0.0176363   0.0352725   0.0881813), wk =   0.0555556
        k(   39) = (   0.0176363   0.0352725  -0.1058175), wk =   0.0277778
        k(   40) = (   0.0176363   0.0529088   0.0529088), wk =   0.0277778
        k(   41) = (   0.0176363   0.0529088   0.0705450), wk =   0.0555556
        k(   42) = (   0.0176363   0.0529088   0.0881813), wk =   0.0555556
        k(   43) = (   0.0176363   0.0529088  -0.1058175), wk =   0.0277778
        k(   44) = (   0.0176363   0.0705450   0.0705450), wk =   0.0277778
        k(   45) = (   0.0176363   0.0705450   0.0881813), wk =   0.0555556
        k(   46) = (   0.0176363   0.0705450  -0.1058175), wk =   0.0277778
        k(   47) = (   0.0176363   0.0881813   0.0881813), wk =   0.0277778
        k(   48) = (   0.0176363   0.0881813  -0.1058175), wk =   0.0277778
        k(   49) = (   0.0176363  -0.1058175  -0.1058175), wk =   0.0069444
        k(   50) = (   0.0352725   0.0352725   0.0352725), wk =   0.0092593
        k(   51) = (   0.0352725   0.0352725   0.0529088), wk =   0.0277778
        k(   52) = (   0.0352725   0.0352725   0.0705450), wk =   0.0277778
        k(   53) = (   0.0352725   0.0352725   0.0881813), wk =   0.0277778
        k(   54) = (   0.0352725   0.0352725  -0.1058175), wk =   0.0138889
        k(   55) = (   0.0352725   0.0529088   0.0529088), wk =   0.0277778
        k(   56) = (   0.0352725   0.0529088   0.0705450), wk =   0.0555556
        k(   57) = (   0.0352725   0.0529088   0.0881813), wk =   0.0555556
        k(   58) = (   0.0352725   0.0529088  -0.1058175), wk =   0.0277778
        k(   59) = (   0.0352725   0.0705450   0.0705450), wk =   0.0277778
        k(   60) = (   0.0352725   0.0705450   0.0881813), wk =   0.0555556
[...]
        k(   70) = (   0.0529088   0.0705450   0.0881813), wk =   0.0555556
        k(   71) = (   0.0529088   0.0705450  -0.1058175), wk =   0.0277778
        k(   72) = (   0.0529088   0.0881813   0.0881813), wk =   0.0277778
        k(   73) = (   0.0529088   0.0881813  -0.1058175), wk =   0.0277778
        k(   74) = (   0.0529088  -0.1058175  -0.1058175), wk =   0.0069444
        k(   75) = (   0.0705450   0.0705450   0.0705450), wk =   0.0092593
        k(   76) = (   0.0705450   0.0705450   0.0881813), wk =   0.0277778
        k(   77) = (   0.0705450   0.0705450  -0.1058175), wk =   0.0138889
        k(   78) = (   0.0705450   0.0881813   0.0881813), wk =   0.0277778
        k(   79) = (   0.0705450   0.0881813  -0.1058175), wk =   0.0277778
        k(   80) = (   0.0705450  -0.1058175  -0.1058175), wk =   0.0069444
        k(   81) = (   0.0881813   0.0881813   0.0881813), wk =   0.0092593
        k(   82) = (   0.0881813   0.0881813  -0.1058175), wk =   0.0138889
        k(   83) = (   0.0881813  -0.1058175  -0.1058175), wk =   0.0069444
        k(   84) = (  -0.1058175  -0.1058175  -0.1058175), wk =   0.0011574

     Largest allocated arrays     est. size (Mb)     dimensions
     Largest temporary arrays     est. size (Mb)     dimensions

     Initial potential from superposition of free atoms

     starting charge   52.50000, renormalised to   58.00000

     *
     * You are using vdW-DF for exchange-correlation in this calculation.
     * Please cite the following three references that made this development
     * possible:
     *
     *   M. Dion, H. Rydberg, E. Schroder, D. C. Langreth, and
     *   B. I. Lundqvist, Phys. Rev. Lett. 92, 246401 (2004).
     *
     *   T. Thonhauser, V. R. Cooper, S. Li, A. Puzder, P. Hyldgaard, and
     *   D. C. Langreth, Phys. Rev. B 76, 125112 (2007).
     *
     *   G. Roman-Perez and J. M. Soler, Phys. Rev. Lett. 103, 096102 (2009).
     *
     *
     * If you are using vdW-DF2, please also cite:
     *
     *   K. Lee, E. D. Murray, L. Kong, B. I. Lundqvist, and
     *   D. C. Langreth, Phys. Rev. B 82, 081101(R) (2010).
     *
     *
     * If you are calculating the stress with vdW-DF, please also cite:
     *
     *   R. Sabatini, E. Kucukbenli, B. Kolb, T. Thonhauser, and
     *   S. de Gironcoli, J. Phys.: Condens. Matter 24, 424209 (2012).
     *

     Carrying out vdW-DF run using the following parameters:

     Nqs =      20    Nr_points =    1024   r_max =   100.000
     q_mesh =
               0.00001000     0.04494208     0.09755937     0.15916263
               0.23128650     0.31572767     0.41458969     0.53033537
               0.66584808     0.82450364     1.01025438     1.22772762
               1.48234092     1.78043706     2.12944203     2.53805004
               3.01644009     3.57652955     4.23227104     5.00000000

     Gradients computed in reciprocal space

     Starting wfc are   39 randomized atomic wfcs +   10 random wfc

     Self-consistent Calculation

     iteration #  1     ecut=    58.80 Ry     beta=0.10
     Davidson diagonalization with overlap
     ethr =  1.00E-02,  avg # of iterations =  5.1

     total energy              =    -831.64329504 Ry
     Harris-Foulkes estimate   =    -839.40155818 Ry
     estimated scf accuracy    <     136.05815782 Ry

[...]

     total energy              =    -820.96174522 Ry
     Harris-Foulkes estimate   =    -820.96174516 Ry
     estimated scf accuracy    <       0.00000001 Ry

     iteration # 34     ecut=    58.80 Ry     beta=0.10
     Davidson diagonalization with overlap
     ethr =  1.83E-11,  avg # of iterations =  2.0

     End of self-consistent calculation

          k = 0.0000 0.0000 0.0000 (  5449 PWs)   bands (ev):

   -85.5855 -85.5855 -85.5855  -5.9727  -5.9727  -5.9727  -5.9390  -5.9390
    -5.8580  -5.8262  -5.8262  -5.8262  -5.6949  -5.6949  -5.5603  -5.5603
    -5.5603  -5.5212  -5.5212  -5.4494  -5.4065  -5.4065  -5.4065  -0.0954
     6.1599   7.1696   7.1696   7.2361   7.2361   7.2361  12.9190  12.9190
    12.9190  13.5310  13.5310  13.5310  16.0398  16.6669  16.6669  16.8032
    16.8032  16.8032  19.2808  19.2808  19.2808  21.3218  23.0521  23.0521
    23.0521

[...]

          k = 0.0882-0.1058-0.1058 (  5460 PWs)   bands (ev):

[...]

          k =-0.1058-0.1058-0.1058 (  5400 PWs)   bands (ev):

   -85.5855 -85.5855 -85.5855  -5.9260  -5.9260  -5.9260  -5.9102  -5.9102
    -5.7804  -5.7689  -5.7689  -5.7689  -5.7350  -5.7350  -5.7350  -5.5465
    -5.5465  -5.5465  -5.5390  -5.5390  -5.4412  -5.4412  -5.4412   4.1744
     4.9501   4.9501   4.9501   6.0084   6.1629   6.1629   6.1629  16.4852
    16.4852  16.4852  17.5980  17.5980  17.8699  17.8699  17.8699  20.4105
    20.6593  20.6593  20.6593  20.6928  21.3001  21.3001  21.5343  21.5343
    21.5343

     the Fermi energy is     9.2326 ev

!    total energy              =    -820.96174551 Ry
     Harris-Foulkes estimate   =    -820.96174522 Ry
     estimated scf accuracy    <          8.7E-10 Ry

     The total energy is the sum of the following terms:

     one-electron contribution =    -508.18584519 Ry
     hartree contribution      =     292.96877693 Ry
     xc contribution           =    -167.09394431 Ry
     ewald contribution        =    -438.64614564 Ry
     smearing contrib. (-TS)   =      -0.00458731 Ry

     convergence has been achieved in  34 iterations

     Forces acting on atoms (Ry/au):

     atom    1 type  1   force =     0.00000000    0.00000000    0.00000000
     atom    2 type  1   force =     0.00000000    0.00000000    0.00000000
     atom    3 type  1   force =     0.00000000    0.00000000    0.00000000
     atom    4 type  2   force =     0.00000000    0.00000000    0.00000000

     Total force =     0.000000     Total SCF correction =     0.000000
 !ASE

     General routines

     Parallel routines

   This run was terminated on:   9:35:24  25Oct2017

   JOB DONE.