     Program PWSCF v.5.1rc2 (svn rev. ) starts on 25Oct2017 at 12:22:23

     Current dimensions of program PWSCF are:
     Max number of different atomic species (ntypx) = 10
     Max number of k-points (npk) =  40000
     Max angular momentum in pseudopotentials (lmaxx) =  3

     IMPORTANT: XC functional enforced from input :
     Exchange-correlation      = BEEF-VDW ( 1  4 27 13 2)
     Any further DFT definition will be discarded
     Please, verify this is what you really want

     Subspace diagonalization in iterative solution of the eigenvalue problem:
     a serial algorithm will be used

     bravais-lattice index     =            0
     lattice parameter (alat)  =       1.8897  a.u.
     unit-cell volume          =     563.3592 (a.u.)^3
     number of atoms/cell      =            4
     number of atomic types    =            2
     number of electrons       =        52.00
     number of Kohn-Sham states=           46
     kinetic-energy cutoff     =      58.7989  Ry
     charge density cutoff     =     587.9892  Ry
     convergence threshold     =      7.3E-09
     mixing beta               =       0.1000
     number of iterations used =           10  local-TF  mixing
     Exchange-correlation      = BEEF-VDW ( 1  4 27 13 2)
     nstep                     =           50

     celldm(1)=   1.889726  celldm(2)=   0.000000  celldm(3)=   0.000000
     celldm(4)=   0.000000  celldm(5)=   0.000000  celldm(6)=   0.000000

     crystal axes: (cart. coord. in units of alat)
               a(1) = (   4.370485   0.000000   0.000000 )
               a(2) = (   0.000000   4.370485   0.000000 )
               a(3) = (   0.000000   0.000000   4.370485 )

     reciprocal axes: (cart. coord. in units 2 pi/alat)
               b(1) = (  0.228808  0.000000  0.000000 )
               b(2) = (  0.000000  0.228808  0.000000 )
               b(3) = (  0.000000  0.000000  0.228808 )

     PseudoPot. # 1 for Zr read from file:
     /home/vossj/suncat/psp/gbrv1.5pbe/Zr.UPF
     MD5 check sum: 5db81b1e868ab7776c4564c113de050b
     Pseudo is Ultrasoft + core correction, Zval = 12.0
     Generated by new atomic code, or converted to UPF format
     Using radial grid of  887 points,  6 beta functions with:
                l(1) =   0
                l(2) =   0
                l(3) =   1
                l(4) =   1
                l(5) =   2
                l(6) =   2
     Q(r) pseudized with  6 coefficients,  rinner =    1.200   1.200   1.200
                                                       1.200   1.200

     PseudoPot. # 2 for Pd read from file:
     /home/vossj/suncat/psp/gbrv1.5pbe/Pd.UPF
     MD5 check sum: 2d733d2bc2cbfd217af676df1668a4bc
     Pseudo is Ultrasoft + core correction, Zval = 16.0
     Generated by new atomic code, or converted to UPF format
     Using radial grid of  887 points,  6 beta functions with:
                l(1) =   0
                l(2) =   0
                l(3) =   1
                l(4) =   1
                l(5) =   2
                l(6) =   2
     Q(r) pseudized with  8 coefficients,  rinner =    1.130   1.130   1.130
                                                       1.130   1.130

     vdW kernel table read from file vdW_kernel_table
     MD5 check sum: 095c7af220d748ca6e76c0b4c6cfb241

     atomic species   valence    mass     pseudopotential
        Zr1           12.00    91.22400     Zr( 1.00)
        Pd1           16.00   106.42000     Pd( 1.00)

     48 Sym. Ops., with inversion, found (32 have fractional translation)

   Cartesian axes

     site n.     atom                  positions (alat units)
         1           Zr1 tau(   1) = (   0.0000000   0.0000000   0.0000000  )
         2           Zr1 tau(   2) = (   0.0000000   2.1852423   2.1852423  )
         3           Zr1 tau(   3) = (   2.1852423   0.0000000   2.1852423  )
         4           Pd1 tau(   4) = (   2.1852423   2.1852423   0.0000000  )

     number of k points=    84  Fermi-Dirac smearing, width (Ry)=  0.0073
                       cart. coord. in units 2pi/alat
        k(    1) = (   0.0000000   0.0000000   0.0000000), wk =   0.0011574
        k(    2) = (   0.0000000   0.0000000   0.0190673), wk =   0.0069444
        k(    3) = (   0.0000000   0.0000000   0.0381346), wk =   0.0069444
        k(    4) = (   0.0000000   0.0000000   0.0572019), wk =   0.0069444
        k(    5) = (   0.0000000   0.0000000   0.0762692), wk =   0.0069444
        k(    6) = (   0.0000000   0.0000000   0.0953365), wk =   0.0069444
        k(    7) = (   0.0000000   0.0000000  -0.1144038), wk =   0.0034722
        k(    8) = (   0.0000000   0.0190673   0.0190673), wk =   0.0138889
        k(    9) = (   0.0000000   0.0190673   0.0381346), wk =   0.0277778
        k(   10) = (   0.0000000   0.0190673   0.0572019), wk =   0.0277778
        k(   11) = (   0.0000000   0.0190673   0.0762692), wk =   0.0277778
        k(   12) = (   0.0000000   0.0190673   0.0953365), wk =   0.0277778
        k(   13) = (   0.0000000   0.0190673  -0.1144038), wk =   0.0138889
        k(   14) = (   0.0000000   0.0381346   0.0381346), wk =   0.0138889
        k(   15) = (   0.0000000   0.0381346   0.0572019), wk =   0.0277778
        k(   16) = (   0.0000000   0.0381346   0.0762692), wk =   0.0277778
        k(   17) = (   0.0000000   0.0381346   0.0953365), wk =   0.0277778
        k(   18) = (   0.0000000   0.0381346  -0.1144038), wk =   0.0138889
        k(   19) = (   0.0000000   0.0572019   0.0572019), wk =   0.0138889
        k(   20) = (   0.0000000   0.0572019   0.0762692), wk =   0.0277778
        k(   21) = (   0.0000000   0.0572019   0.0953365), wk =   0.0277778
        k(   22) = (   0.0000000   0.0572019  -0.1144038), wk =   0.0138889
        k(   23) = (   0.0000000   0.0762692   0.0762692), wk =   0.0138889
        k(   24) = (   0.0000000   0.0762692   0.0953365), wk =   0.0277778
        k(   25) = (   0.0000000   0.0762692  -0.1144038), wk =   0.0138889
        k(   26) = (   0.0000000   0.0953365   0.0953365), wk =   0.0138889
        k(   27) = (   0.0000000   0.0953365  -0.1144038), wk =   0.0138889
        k(   28) = (   0.0000000  -0.1144038  -0.1144038), wk =   0.0034722
        k(   29) = (   0.0190673   0.0190673   0.0190673), wk =   0.0092593
        k(   30) = (   0.0190673   0.0190673   0.0381346), wk =   0.0277778
        k(   31) = (   0.0190673   0.0190673   0.0572019), wk =   0.0277778
        k(   32) = (   0.0190673   0.0190673   0.0762692), wk =   0.0277778
        k(   33) = (   0.0190673   0.0190673   0.0953365), wk =   0.0277778
        k(   34) = (   0.0190673   0.0190673  -0.1144038), wk =   0.0138889
        k(   35) = (   0.0190673   0.0381346   0.0381346), wk =   0.0277778
        k(   36) = (   0.0190673   0.0381346   0.0572019), wk =   0.0555556
        k(   37) = (   0.0190673   0.0381346   0.0762692), wk =   0.0555556
        k(   38) = (   0.0190673   0.0381346   0.0953365), wk =   0.0555556
        k(   39) = (   0.0190673   0.0381346  -0.1144038), wk =   0.0277778
        k(   40) = (   0.0190673   0.0572019   0.0572019), wk =   0.0277778
        k(   41) = (   0.0190673   0.0572019   0.0762692), wk =   0.0555556
        k(   42) = (   0.0190673   0.0572019   0.0953365), wk =   0.0555556
        k(   43) = (   0.0190673   0.0572019  -0.1144038), wk =   0.0277778
        k(   44) = (   0.0190673   0.0762692   0.0762692), wk =   0.0277778
        k(   45) = (   0.0190673   0.0762692   0.0953365), wk =   0.0555556
        k(   46) = (   0.0190673   0.0762692  -0.1144038), wk =   0.0277778
        k(   47) = (   0.0190673   0.0953365   0.0953365), wk =   0.0277778
        k(   48) = (   0.0190673   0.0953365  -0.1144038), wk =   0.0277778
        k(   49) = (   0.0190673  -0.1144038  -0.1144038), wk =   0.0069444
        k(   50) = (   0.0381346   0.0381346   0.0381346), wk =   0.0092593
        k(   51) = (   0.0381346   0.0381346   0.0572019), wk =   0.0277778
        k(   52) = (   0.0381346   0.0381346   0.0762692), wk =   0.0277778
        k(   53) = (   0.0381346   0.0381346   0.0953365), wk =   0.0277778
        k(   54) = (   0.0381346   0.0381346  -0.1144038), wk =   0.0138889
        k(   55) = (   0.0381346   0.0572019   0.0572019), wk =   0.0277778
        k(   56) = (   0.0381346   0.0572019   0.0762692), wk =   0.0555556
        k(   57) = (   0.0381346   0.0572019   0.0953365), wk =   0.0555556
        k(   58) = (   0.0381346   0.0572019  -0.1144038), wk =   0.0277778
        k(   59) = (   0.0381346   0.0762692   0.0762692), wk =   0.0277778
        k(   60) = (   0.0381346   0.0762692   0.0953365), wk =   0.0555556
[...]
        k(   70) = (   0.0572019   0.0762692   0.0953365), wk =   0.0555556
        k(   71) = (   0.0572019   0.0762692  -0.1144038), wk =   0.0277778
        k(   72) = (   0.0572019   0.0953365   0.0953365), wk =   0.0277778
        k(   73) = (   0.0572019   0.0953365  -0.1144038), wk =   0.0277778
        k(   74) = (   0.0572019  -0.1144038  -0.1144038), wk =   0.0069444
        k(   75) = (   0.0762692   0.0762692   0.0762692), wk =   0.0092593
        k(   76) = (   0.0762692   0.0762692   0.0953365), wk =   0.0277778
        k(   77) = (   0.0762692   0.0762692  -0.1144038), wk =   0.0138889
        k(   78) = (   0.0762692   0.0953365   0.0953365), wk =   0.0277778
        k(   79) = (   0.0762692   0.0953365  -0.1144038), wk =   0.0277778
        k(   80) = (   0.0762692  -0.1144038  -0.1144038), wk =   0.0069444
        k(   81) = (   0.0953365   0.0953365   0.0953365), wk =   0.0092593
        k(   82) = (   0.0953365   0.0953365  -0.1144038), wk =   0.0138889
        k(   83) = (   0.0953365  -0.1144038  -0.1144038), wk =   0.0069444
        k(   84) = (  -0.1144038  -0.1144038  -0.1144038), wk =   0.0011574

     Largest allocated arrays     est. size (Mb)     dimensions
     Largest temporary arrays     est. size (Mb)     dimensions

     Initial potential from superposition of free atoms
     Check: negative starting charge=   -0.255634

     starting charge   51.49355, renormalised to   52.00000

     negative rho (up, down):  2.581E-01 0.000E+00

     *
     * You are using vdW-DF for exchange-correlation in this calculation.
     * Please cite the following three references that made this development
     * possible:
     *
     *   M. Dion, H. Rydberg, E. Schroder, D. C. Langreth, and
     *   B. I. Lundqvist, Phys. Rev. Lett. 92, 246401 (2004).
     *
     *   T. Thonhauser, V. R. Cooper, S. Li, A. Puzder, P. Hyldgaard, and
     *   D. C. Langreth, Phys. Rev. B 76, 125112 (2007).
     *
     *   G. Roman-Perez and J. M. Soler, Phys. Rev. Lett. 103, 096102 (2009).
     *
     *
     * If you are using vdW-DF2, please also cite:
     *
     *   K. Lee, E. D. Murray, L. Kong, B. I. Lundqvist, and
     *   D. C. Langreth, Phys. Rev. B 82, 081101(R) (2010).
     *
     *
     * If you are calculating the stress with vdW-DF, please also cite:
     *
     *   R. Sabatini, E. Kucukbenli, B. Kolb, T. Thonhauser, and
     *   S. de Gironcoli, J. Phys.: Condens. Matter 24, 424209 (2012).
     *

     Carrying out vdW-DF run using the following parameters:

     Nqs =      20    Nr_points =    1024   r_max =   100.000
     q_mesh =
               0.00001000     0.04494208     0.09755937     0.15916263
               0.23128650     0.31572767     0.41458969     0.53033537
               0.66584808     0.82450364     1.01025438     1.22772762
               1.48234092     1.78043706     2.12944203     2.53805004
               3.01644009     3.57652955     4.23227104     5.00000000

     Gradients computed in reciprocal space

     Starting wfc are   51 randomized atomic wfcs

     Self-consistent Calculation

     iteration #  1     ecut=    58.80 Ry     beta=0.10
     Davidson diagonalization with overlap
     ethr =  1.00E-02,  avg # of iterations =  4.1

[...]

     total energy              =    -499.35264915 Ry
     Harris-Foulkes estimate   =    -499.63963827 Ry
     estimated scf accuracy    <       5.83907152 Ry

[...]

     total energy              =    -499.20911133 Ry
     Harris-Foulkes estimate   =    -499.20910954 Ry
     estimated scf accuracy    <          1.0E-08 Ry

     iteration # 14     ecut=    58.80 Ry     beta=0.10
     Davidson diagonalization with overlap
     ethr =  1.91E-11,  avg # of iterations =  1.3

     negative rho (up, down):  2.647E-01 0.000E+00

     End of self-consistent calculation

          k = 0.0000 0.0000 0.0000 (  4337 PWs)   bands (ev):

   -35.5865 -35.5865 -35.5865 -34.1340 -33.9270 -33.9268 -12.4407 -12.4407
   -12.4407 -11.9288 -11.9288 -11.9286 -11.5907 -11.5906 -11.5906   9.0527
    10.8265  10.8265  11.3010  11.3010  11.3010  11.3743  14.2524  14.2524
    14.2525  15.2340  15.2341  17.9667  17.9667  17.9667  18.3018  18.3020
    18.3020  19.4598  19.4599  20.4918  21.0667  21.0667  21.0668  24.5986
    24.5986  24.5986  25.2081  26.4971  26.4971  26.4971

[...]

          k = 0.0953-0.1144-0.1144 (  4276 PWs)   bands (ev):

[...]

          k =-0.1144-0.1144-0.1144 (  4272 PWs)   bands (ev):

   -35.5870 -35.5870 -35.5870 -33.9948 -33.9944 -33.9944 -12.7125 -12.3899
   -12.3899 -12.3897 -11.6458 -11.6458 -11.6456 -11.5919 -11.5917  11.0200
    11.0201  11.0201  11.1584  12.2022  12.2022  13.8629  13.8629  13.8629
    15.6998  15.6999  15.6999  15.8698  15.8698  15.8699  16.5256  18.0346
    18.0349  18.0349  18.8446  18.8448  20.4933  20.4934  20.4934  23.0219
    24.7622  24.7622  24.7622  26.2420  26.3953  26.3953

     the Fermi energy is    14.8667 ev

!    total energy              =    -499.20911888 Ry
     Harris-Foulkes estimate   =    -499.20911122 Ry
     estimated scf accuracy    <          5.5E-09 Ry

     The total energy is the sum of the following terms:

     one-electron contribution =    -120.42190110 Ry
     hartree contribution      =      87.67826944 Ry
     xc contribution           =     -87.90447056 Ry
     ewald contribution        =    -378.54666116 Ry
     smearing contrib. (-TS)   =      -0.01435549 Ry

     convergence has been achieved in  14 iterations

     Forces acting on atoms (Ry/au):

     negative rho (up, down):  2.647E-01 0.000E+00
     atom    1 type  1   force =     0.00000000    0.00000000    0.00000000
     atom    2 type  1   force =     0.00000000   -0.00000000   -0.00000000
     atom    3 type  1   force =     0.00000000   -0.00000000    0.00000000
     atom    4 type  2   force =     0.00000000    0.00000000   -0.00000000

     Total force =     0.000000     Total SCF correction =     0.000000
 !ASE

     General routines

     Parallel routines

   This run was terminated on:  12:23:25  25Oct2017

   JOB DONE.