     Program PWSCF v.5.1rc2 (svn rev. ) starts on 25Oct2017 at  0: 5:39

     Current dimensions of program PWSCF are:
     Max number of different atomic species (ntypx) = 10
     Max number of k-points (npk) =  40000
     Max angular momentum in pseudopotentials (lmaxx) =  3

     IMPORTANT: XC functional enforced from input :
     Exchange-correlation      = BEEF-VDW ( 1  4 27 13 2)
     Any further DFT definition will be discarded
     Please, verify this is what you really want

     Subspace diagonalization in iterative solution of the eigenvalue problem:
     a serial algorithm will be used

     bravais-lattice index     =            0
     lattice parameter (alat)  =       1.8897  a.u.
     unit-cell volume          =     424.1560 (a.u.)^3
     number of atoms/cell      =            4
     number of atomic types    =            2
     number of electrons       =        57.00
     number of Kohn-Sham states=           48
     kinetic-energy cutoff     =      58.7989  Ry
     charge density cutoff     =     587.9892  Ry
     convergence threshold     =      7.3E-09
     mixing beta               =       0.1000
     number of iterations used =           10  local-TF  mixing
     Exchange-correlation      = BEEF-VDW ( 1  4 27 13 2)
     nstep                     =           50

     celldm(1)=   1.889726  celldm(2)=   0.000000  celldm(3)=   0.000000
     celldm(4)=   0.000000  celldm(5)=   0.000000  celldm(6)=   0.000000

     crystal axes: (cart. coord. in units of alat)
               a(1) = (   3.975969   0.000000   0.000000 )
               a(2) = (   0.000000   3.975969   0.000000 )
               a(3) = (   0.000000   0.000000   3.975969 )

     reciprocal axes: (cart. coord. in units 2 pi/alat)
               b(1) = (  0.251511  0.000000  0.000000 )
               b(2) = (  0.000000  0.251511  0.000000 )
               b(3) = (  0.000000  0.000000  0.251511 )

     PseudoPot. # 1 for Tc read from file:
     /home/vossj/suncat/psp/gbrv1.5pbe/Tc.UPF
     MD5 check sum: 9eb49e5b028550b2339a02317eb7b844
     Pseudo is Ultrasoft + core correction, Zval = 15.0
     Generated by new atomic code, or converted to UPF format
     Using radial grid of  965 points,  6 beta functions with:
                l(1) =   0
                l(2) =   0
                l(3) =   1
                l(4) =   1
                l(5) =   2
                l(6) =   2
     Q(r) pseudized with  8 coefficients,  rinner =    1.300   1.300   1.300
                                                       1.300   1.300

     PseudoPot. # 2 for Cd read from file:
     /home/vossj/suncat/psp/gbrv1.5pbe/Cd.UPF
     MD5 check sum: 17164a7926edb8e0dc231208abae86a6
     Pseudo is Ultrasoft + core correction, Zval = 12.0
     Generated by new atomic code, or converted to UPF format
     Using radial grid of  889 points,  6 beta functions with:
                l(1) =   0
                l(2) =   0
                l(3) =   1
                l(4) =   1
                l(5) =   2
                l(6) =   2
     Q(r) pseudized with  6 coefficients,  rinner =    1.000   1.000   1.000
                                                       1.000   1.000

     vdW kernel table read from file vdW_kernel_table
     MD5 check sum: 095c7af220d748ca6e76c0b4c6cfb241

     atomic species   valence    mass     pseudopotential
        Tc1           15.00    97.90721     Tc( 1.00)
        Cd1           12.00   112.41400     Cd( 1.00)

     48 Sym. Ops., with inversion, found (32 have fractional translation)

   Cartesian axes

     site n.     atom                  positions (alat units)
         1           Tc1 tau(   1) = (   0.0000000   0.0000000   0.0000000  )
         2           Tc1 tau(   2) = (   0.0000000   1.9879846   1.9879846  )
         3           Tc1 tau(   3) = (   1.9879846   0.0000000   1.9879846  )
         4           Cd1 tau(   4) = (   1.9879846   1.9879846   0.0000000  )

     number of k points=    84  Fermi-Dirac smearing, width (Ry)=  0.0073
                       cart. coord. in units 2pi/alat
        k(    1) = (   0.0000000   0.0000000   0.0000000), wk =   0.0011574
        k(    2) = (   0.0000000   0.0000000   0.0209593), wk =   0.0069444
        k(    3) = (   0.0000000   0.0000000   0.0419185), wk =   0.0069444
        k(    4) = (   0.0000000   0.0000000   0.0628778), wk =   0.0069444
        k(    5) = (   0.0000000   0.0000000   0.0838370), wk =   0.0069444
        k(    6) = (   0.0000000   0.0000000   0.1047963), wk =   0.0069444
        k(    7) = (   0.0000000   0.0000000  -0.1257555), wk =   0.0034722
        k(    8) = (   0.0000000   0.0209593   0.0209593), wk =   0.0138889
        k(    9) = (   0.0000000   0.0209593   0.0419185), wk =   0.0277778
        k(   10) = (   0.0000000   0.0209593   0.0628778), wk =   0.0277778
        k(   11) = (   0.0000000   0.0209593   0.0838370), wk =   0.0277778
        k(   12) = (   0.0000000   0.0209593   0.1047963), wk =   0.0277778
        k(   13) = (   0.0000000   0.0209593  -0.1257555), wk =   0.0138889
        k(   14) = (   0.0000000   0.0419185   0.0419185), wk =   0.0138889
        k(   15) = (   0.0000000   0.0419185   0.0628778), wk =   0.0277778
        k(   16) = (   0.0000000   0.0419185   0.0838370), wk =   0.0277778
        k(   17) = (   0.0000000   0.0419185   0.1047963), wk =   0.0277778
        k(   18) = (   0.0000000   0.0419185  -0.1257555), wk =   0.0138889
        k(   19) = (   0.0000000   0.0628778   0.0628778), wk =   0.0138889
        k(   20) = (   0.0000000   0.0628778   0.0838370), wk =   0.0277778
        k(   21) = (   0.0000000   0.0628778   0.1047963), wk =   0.0277778
        k(   22) = (   0.0000000   0.0628778  -0.1257555), wk =   0.0138889
        k(   23) = (   0.0000000   0.0838370   0.0838370), wk =   0.0138889
        k(   24) = (   0.0000000   0.0838370   0.1047963), wk =   0.0277778
        k(   25) = (   0.0000000   0.0838370  -0.1257555), wk =   0.0138889
        k(   26) = (   0.0000000   0.1047963   0.1047963), wk =   0.0138889
        k(   27) = (   0.0000000   0.1047963  -0.1257555), wk =   0.0138889
        k(   28) = (   0.0000000  -0.1257555  -0.1257555), wk =   0.0034722
        k(   29) = (   0.0209593   0.0209593   0.0209593), wk =   0.0092593
        k(   30) = (   0.0209593   0.0209593   0.0419185), wk =   0.0277778
        k(   31) = (   0.0209593   0.0209593   0.0628778), wk =   0.0277778
        k(   32) = (   0.0209593   0.0209593   0.0838370), wk =   0.0277778
        k(   33) = (   0.0209593   0.0209593   0.1047963), wk =   0.0277778
        k(   34) = (   0.0209593   0.0209593  -0.1257555), wk =   0.0138889
        k(   35) = (   0.0209593   0.0419185   0.0419185), wk =   0.0277778
        k(   36) = (   0.0209593   0.0419185   0.0628778), wk =   0.0555556
        k(   37) = (   0.0209593   0.0419185   0.0838370), wk =   0.0555556
        k(   38) = (   0.0209593   0.0419185   0.1047963), wk =   0.0555556
        k(   39) = (   0.0209593   0.0419185  -0.1257555), wk =   0.0277778
        k(   40) = (   0.0209593   0.0628778   0.0628778), wk =   0.0277778
        k(   41) = (   0.0209593   0.0628778   0.0838370), wk =   0.0555556
        k(   42) = (   0.0209593   0.0628778   0.1047963), wk =   0.0555556
        k(   43) = (   0.0209593   0.0628778  -0.1257555), wk =   0.0277778
        k(   44) = (   0.0209593   0.0838370   0.0838370), wk =   0.0277778
        k(   45) = (   0.0209593   0.0838370   0.1047963), wk =   0.0555556
        k(   46) = (   0.0209593   0.0838370  -0.1257555), wk =   0.0277778
        k(   47) = (   0.0209593   0.1047963   0.1047963), wk =   0.0277778
        k(   48) = (   0.0209593   0.1047963  -0.1257555), wk =   0.0277778
        k(   49) = (   0.0209593  -0.1257555  -0.1257555), wk =   0.0069444
        k(   50) = (   0.0419185   0.0419185   0.0419185), wk =   0.0092593
        k(   51) = (   0.0419185   0.0419185   0.0628778), wk =   0.0277778
        k(   52) = (   0.0419185   0.0419185   0.0838370), wk =   0.0277778
        k(   53) = (   0.0419185   0.0419185   0.1047963), wk =   0.0277778
        k(   54) = (   0.0419185   0.0419185  -0.1257555), wk =   0.0138889
        k(   55) = (   0.0419185   0.0628778   0.0628778), wk =   0.0277778
        k(   56) = (   0.0419185   0.0628778   0.0838370), wk =   0.0555556
        k(   57) = (   0.0419185   0.0628778   0.1047963), wk =   0.0555556
        k(   58) = (   0.0419185   0.0628778  -0.1257555), wk =   0.0277778
        k(   59) = (   0.0419185   0.0838370   0.0838370), wk =   0.0277778
        k(   60) = (   0.0419185   0.0838370   0.1047963), wk =   0.0555556
[...]
        k(   70) = (   0.0628778   0.0838370   0.1047963), wk =   0.0555556
        k(   71) = (   0.0628778   0.0838370  -0.1257555), wk =   0.0277778
        k(   72) = (   0.0628778   0.1047963   0.1047963), wk =   0.0277778
        k(   73) = (   0.0628778   0.1047963  -0.1257555), wk =   0.0277778
        k(   74) = (   0.0628778  -0.1257555  -0.1257555), wk =   0.0069444
        k(   75) = (   0.0838370   0.0838370   0.0838370), wk =   0.0092593
        k(   76) = (   0.0838370   0.0838370   0.1047963), wk =   0.0277778
        k(   77) = (   0.0838370   0.0838370  -0.1257555), wk =   0.0138889
        k(   78) = (   0.0838370   0.1047963   0.1047963), wk =   0.0277778
        k(   79) = (   0.0838370   0.1047963  -0.1257555), wk =   0.0277778
        k(   80) = (   0.0838370  -0.1257555  -0.1257555), wk =   0.0069444
        k(   81) = (   0.1047963   0.1047963   0.1047963), wk =   0.0092593
        k(   82) = (   0.1047963   0.1047963  -0.1257555), wk =   0.0138889
        k(   83) = (   0.1047963  -0.1257555  -0.1257555), wk =   0.0069444
        k(   84) = (  -0.1257555  -0.1257555  -0.1257555), wk =   0.0011574

     Largest allocated arrays     est. size (Mb)     dimensions
     Largest temporary arrays     est. size (Mb)     dimensions

     Check: negative/imaginary core charge=   -0.000006    0.000000

     Initial potential from superposition of free atoms
     Check: negative starting charge=   -0.393138

     starting charge   53.49988, renormalised to   57.00000

     negative rho (up, down):  4.189E-01 0.000E+00

     *
     * You are using vdW-DF for exchange-correlation in this calculation.
     * Please cite the following three references that made this development
     * possible:
     *
     *   M. Dion, H. Rydberg, E. Schroder, D. C. Langreth, and
     *   B. I. Lundqvist, Phys. Rev. Lett. 92, 246401 (2004).
     *
     *   T. Thonhauser, V. R. Cooper, S. Li, A. Puzder, P. Hyldgaard, and
     *   D. C. Langreth, Phys. Rev. B 76, 125112 (2007).
     *
     *   G. Roman-Perez and J. M. Soler, Phys. Rev. Lett. 103, 096102 (2009).
     *
     *
     * If you are using vdW-DF2, please also cite:
     *
     *   K. Lee, E. D. Murray, L. Kong, B. I. Lundqvist, and
     *   D. C. Langreth, Phys. Rev. B 82, 081101(R) (2010).
     *
     *
     * If you are calculating the stress with vdW-DF, please also cite:
     *
     *   R. Sabatini, E. Kucukbenli, B. Kolb, T. Thonhauser, and
     *   S. de Gironcoli, J. Phys.: Condens. Matter 24, 424209 (2012).
     *

     Carrying out vdW-DF run using the following parameters:

     Nqs =      20    Nr_points =    1024   r_max =   100.000
     q_mesh =
               0.00001000     0.04494208     0.09755937     0.15916263
               0.23128650     0.31572767     0.41458969     0.53033537
               0.66584808     0.82450364     1.01025438     1.22772762
               1.48234092     1.78043706     2.12944203     2.53805004
               3.01644009     3.57652955     4.23227104     5.00000000

     Gradients computed in reciprocal space

     Starting wfc are   48 randomized atomic wfcs

     Self-consistent Calculation

     iteration #  1     ecut=    58.80 Ry     beta=0.10
     Davidson diagonalization with overlap
     ethr =  1.00E-02,  avg # of iterations =  4.5

[...]

     total energy              =    -642.77104114 Ry
     Harris-Foulkes estimate   =    -642.97616460 Ry
     estimated scf accuracy    <       2.95906716 Ry

[...]

     total energy              =    -641.93140333 Ry
     Harris-Foulkes estimate   =    -641.93140058 Ry
     estimated scf accuracy    <       0.00000004 Ry

     iteration # 12     ecut=    58.80 Ry     beta=0.10
     Davidson diagonalization with overlap
     ethr =  5.57E-11,  avg # of iterations =  2.0

     negative rho (up, down):  4.085E-01 0.000E+00

     End of self-consistent calculation

          k = 0.0000 0.0000 0.0000 (  3239 PWs)   bands (ev):

   -47.8775 -47.7290 -47.7290 -20.1125 -20.1125 -20.1125 -19.7356 -19.7356
   -19.7356 -19.4951 -19.4951 -19.4951   9.9316   9.9316  10.1076  10.1076
    10.1076  11.1159  13.8736  15.8162  15.8162  15.8162  16.3790  16.3790
    19.4908  19.4908  19.4908  20.6494  20.6494  21.4470  21.4470  21.4470
    21.5575  22.1288  22.1288  22.1288  28.7254  30.0363  30.0363  30.0363
    30.5027  30.5027  31.8584  31.8584  31.8584  33.4247  38.3685  38.3685

[...]

          k = 0.1048-0.1258-0.1258 (  3220 PWs)   bands (ev):

[...]

          k =-0.1258-0.1258-0.1258 (  3184 PWs)   bands (ev):

   -47.7776 -47.7776 -47.7776 -20.3071 -20.0656 -20.0656 -20.0656 -19.5252
   -19.5252 -19.5252 -19.5102 -19.5102  10.0335  10.0335  10.0335  10.4979
    10.4979  13.0101  15.5899  15.5899  15.5899  17.4655  17.4655  17.4655
    18.9403  18.9403  18.9403  19.4126  19.4126  19.4126  20.0052  20.0052
    20.3811  21.6278  21.6278  21.6278  25.3573  27.6035  27.6035  27.6035
    32.9157  32.9157  32.9157  32.9878  36.6898  36.6898  36.6898  38.5216

     the Fermi energy is    19.3957 ev

!    total energy              =    -641.93141509 Ry
     Harris-Foulkes estimate   =    -641.93140333 Ry
     estimated scf accuracy    <          2.2E-09 Ry

     The total energy is the sum of the following terms:

     one-electron contribution =     -94.99276411 Ry
     hartree contribution      =      91.05594921 Ry
     xc contribution           =    -140.30487033 Ry
     ewald contribution        =    -497.67452638 Ry
     smearing contrib. (-TS)   =      -0.01520348 Ry

     convergence has been achieved in  12 iterations

     Forces acting on atoms (Ry/au):

     negative rho (up, down):  4.085E-01 0.000E+00
     atom    1 type  1   force =     0.00000000    0.00000000    0.00000000
     atom    2 type  1   force =     0.00000000    0.00000000    0.00000000
     atom    3 type  1   force =     0.00000000    0.00000000    0.00000000
     atom    4 type  2   force =     0.00000000    0.00000000    0.00000000

     Total force =     0.000000     Total SCF correction =     0.000000
 !ASE

     General routines

     Parallel routines

   This run was terminated on:   0: 6:32  25Oct2017

   JOB DONE.