     Program PWSCF v.5.1rc2 (svn rev. ) starts on 26Oct2017 at  2: 9: 9

     Current dimensions of program PWSCF are:
     Max number of different atomic species (ntypx) = 10
     Max number of k-points (npk) =  40000
     Max angular momentum in pseudopotentials (lmaxx) =  3

     IMPORTANT: XC functional enforced from input :
     Exchange-correlation      = BEEF-VDW ( 1  4 27 13 2)
     Any further DFT definition will be discarded
     Please, verify this is what you really want

     Subspace diagonalization in iterative solution of the eigenvalue problem:
     a serial algorithm will be used

     bravais-lattice index     =            0
     lattice parameter (alat)  =       1.8897  a.u.
     unit-cell volume          =     429.1037 (a.u.)^3
     number of atoms/cell      =            4
     number of atomic types    =            2
     number of electrons       =        71.00
     number of Kohn-Sham states=           55
     kinetic-energy cutoff     =      58.7989  Ry
     charge density cutoff     =     587.9892  Ry
     convergence threshold     =      7.3E-09
     mixing beta               =       0.1000
     number of iterations used =           10  local-TF  mixing
     Exchange-correlation      = BEEF-VDW ( 1  4 27 13 2)
     nstep                     =           50

     celldm(1)=   1.889726  celldm(2)=   0.000000  celldm(3)=   0.000000
     celldm(4)=   0.000000  celldm(5)=   0.000000  celldm(6)=   0.000000

     crystal axes: (cart. coord. in units of alat)
               a(1) = (   3.991369   0.000000   0.000000 )
               a(2) = (   0.000000   3.991369   0.000000 )
               a(3) = (   0.000000   0.000000   3.991369 )

     reciprocal axes: (cart. coord. in units 2 pi/alat)
               b(1) = (  0.250541  0.000000  0.000000 )
               b(2) = (  0.000000  0.250541  0.000000 )
               b(3) = (  0.000000  0.000000  0.250541 )

     PseudoPot. # 1 for Zn read from file:
     /home/vossj/suncat/psp/gbrv1.5pbe/Zn.UPF
     MD5 check sum: df62231357ef9e81f77b2b3087fa5675
     Pseudo is Ultrasoft, Zval = 20.0
     Generated by new atomic code, or converted to UPF format
     Using radial grid of  943 points,  6 beta functions with:
                l(1) =   0
                l(2) =   0
                l(3) =   1
                l(4) =   1
                l(5) =   2
                l(6) =   2
     Q(r) pseudized with  8 coefficients,  rinner =    1.100   1.100   1.100
                                                       1.100   1.100

     PseudoPot. # 2 for Au read from file:
     /home/vossj/suncat/psp/gbrv1.5pbe/Au.UPF
     MD5 check sum: 9d7f43293ad2c663164586bc4b293ffc
     Pseudo is Ultrasoft + core correction, Zval = 11.0
     Generated by new atomic code, or converted to UPF format
     Using radial grid of  985 points,  7 beta functions with:
                l(1) =   0
                l(2) =   0
                l(3) =   1
                l(4) =   1
                l(5) =   2
                l(6) =   2
                l(7) =   3
     Q(r) pseudized with  6 coefficients,  rinner =    1.900   1.900   1.900
                                                       1.900   1.900   1.900
                                                       1.900

     vdW kernel table read from file vdW_kernel_table
     MD5 check sum: 095c7af220d748ca6e76c0b4c6cfb241

     atomic species   valence    mass     pseudopotential
        Zn1           20.00    65.38000     Zn( 1.00)
        Au1           11.00   196.96657     Au( 1.00)

     48 Sym. Ops., with inversion, found (32 have fractional translation)

   Cartesian axes

     site n.     atom                  positions (alat units)
         1           Zn1 tau(   1) = (   0.0000000   0.0000000   0.0000000  )
         2           Zn1 tau(   2) = (   0.0000000   1.9956846   1.9956846  )
         3           Zn1 tau(   3) = (   1.9956846   0.0000000   1.9956846  )
         4           Au1 tau(   4) = (   1.9956846   1.9956846   0.0000000  )

     number of k points=    84  Fermi-Dirac smearing, width (Ry)=  0.0073
                       cart. coord. in units 2pi/alat
        k(    1) = (   0.0000000   0.0000000   0.0000000), wk =   0.0011574
        k(    2) = (   0.0000000   0.0000000   0.0208784), wk =   0.0069444
        k(    3) = (   0.0000000   0.0000000   0.0417568), wk =   0.0069444
        k(    4) = (   0.0000000   0.0000000   0.0626351), wk =   0.0069444
        k(    5) = (   0.0000000   0.0000000   0.0835135), wk =   0.0069444
        k(    6) = (   0.0000000   0.0000000   0.1043919), wk =   0.0069444
        k(    7) = (   0.0000000   0.0000000  -0.1252703), wk =   0.0034722
        k(    8) = (   0.0000000   0.0208784   0.0208784), wk =   0.0138889
        k(    9) = (   0.0000000   0.0208784   0.0417568), wk =   0.0277778
        k(   10) = (   0.0000000   0.0208784   0.0626351), wk =   0.0277778
        k(   11) = (   0.0000000   0.0208784   0.0835135), wk =   0.0277778
        k(   12) = (   0.0000000   0.0208784   0.1043919), wk =   0.0277778
        k(   13) = (   0.0000000   0.0208784  -0.1252703), wk =   0.0138889
        k(   14) = (   0.0000000   0.0417568   0.0417568), wk =   0.0138889
        k(   15) = (   0.0000000   0.0417568   0.0626351), wk =   0.0277778
        k(   16) = (   0.0000000   0.0417568   0.0835135), wk =   0.0277778
        k(   17) = (   0.0000000   0.0417568   0.1043919), wk =   0.0277778
        k(   18) = (   0.0000000   0.0417568  -0.1252703), wk =   0.0138889
        k(   19) = (   0.0000000   0.0626351   0.0626351), wk =   0.0138889
        k(   20) = (   0.0000000   0.0626351   0.0835135), wk =   0.0277778
        k(   21) = (   0.0000000   0.0626351   0.1043919), wk =   0.0277778
        k(   22) = (   0.0000000   0.0626351  -0.1252703), wk =   0.0138889
        k(   23) = (   0.0000000   0.0835135   0.0835135), wk =   0.0138889
        k(   24) = (   0.0000000   0.0835135   0.1043919), wk =   0.0277778
        k(   25) = (   0.0000000   0.0835135  -0.1252703), wk =   0.0138889
        k(   26) = (   0.0000000   0.1043919   0.1043919), wk =   0.0138889
        k(   27) = (   0.0000000   0.1043919  -0.1252703), wk =   0.0138889
        k(   28) = (   0.0000000  -0.1252703  -0.1252703), wk =   0.0034722
        k(   29) = (   0.0208784   0.0208784   0.0208784), wk =   0.0092593
        k(   30) = (   0.0208784   0.0208784   0.0417568), wk =   0.0277778
        k(   31) = (   0.0208784   0.0208784   0.0626351), wk =   0.0277778
        k(   32) = (   0.0208784   0.0208784   0.0835135), wk =   0.0277778
        k(   33) = (   0.0208784   0.0208784   0.1043919), wk =   0.0277778
        k(   34) = (   0.0208784   0.0208784  -0.1252703), wk =   0.0138889
        k(   35) = (   0.0208784   0.0417568   0.0417568), wk =   0.0277778
        k(   36) = (   0.0208784   0.0417568   0.0626351), wk =   0.0555556
        k(   37) = (   0.0208784   0.0417568   0.0835135), wk =   0.0555556
        k(   38) = (   0.0208784   0.0417568   0.1043919), wk =   0.0555556
        k(   39) = (   0.0208784   0.0417568  -0.1252703), wk =   0.0277778
        k(   40) = (   0.0208784   0.0626351   0.0626351), wk =   0.0277778
        k(   41) = (   0.0208784   0.0626351   0.0835135), wk =   0.0555556
        k(   42) = (   0.0208784   0.0626351   0.1043919), wk =   0.0555556
        k(   43) = (   0.0208784   0.0626351  -0.1252703), wk =   0.0277778
        k(   44) = (   0.0208784   0.0835135   0.0835135), wk =   0.0277778
        k(   45) = (   0.0208784   0.0835135   0.1043919), wk =   0.0555556
        k(   46) = (   0.0208784   0.0835135  -0.1252703), wk =   0.0277778
        k(   47) = (   0.0208784   0.1043919   0.1043919), wk =   0.0277778
        k(   48) = (   0.0208784   0.1043919  -0.1252703), wk =   0.0277778
        k(   49) = (   0.0208784  -0.1252703  -0.1252703), wk =   0.0069444
        k(   50) = (   0.0417568   0.0417568   0.0417568), wk =   0.0092593
        k(   51) = (   0.0417568   0.0417568   0.0626351), wk =   0.0277778
        k(   52) = (   0.0417568   0.0417568   0.0835135), wk =   0.0277778
        k(   53) = (   0.0417568   0.0417568   0.1043919), wk =   0.0277778
        k(   54) = (   0.0417568   0.0417568  -0.1252703), wk =   0.0138889
        k(   55) = (   0.0417568   0.0626351   0.0626351), wk =   0.0277778
        k(   56) = (   0.0417568   0.0626351   0.0835135), wk =   0.0555556
        k(   57) = (   0.0417568   0.0626351   0.1043919), wk =   0.0555556
        k(   58) = (   0.0417568   0.0626351  -0.1252703), wk =   0.0277778
        k(   59) = (   0.0417568   0.0835135   0.0835135), wk =   0.0277778
        k(   60) = (   0.0417568   0.0835135   0.1043919), wk =   0.0555556
[...]
        k(   70) = (   0.0626351   0.0835135   0.1043919), wk =   0.0555556
        k(   71) = (   0.0626351   0.0835135  -0.1252703), wk =   0.0277778
        k(   72) = (   0.0626351   0.1043919   0.1043919), wk =   0.0277778
        k(   73) = (   0.0626351   0.1043919  -0.1252703), wk =   0.0277778
        k(   74) = (   0.0626351  -0.1252703  -0.1252703), wk =   0.0069444
        k(   75) = (   0.0835135   0.0835135   0.0835135), wk =   0.0092593
        k(   76) = (   0.0835135   0.0835135   0.1043919), wk =   0.0277778
        k(   77) = (   0.0835135   0.0835135  -0.1252703), wk =   0.0138889
        k(   78) = (   0.0835135   0.1043919   0.1043919), wk =   0.0277778
        k(   79) = (   0.0835135   0.1043919  -0.1252703), wk =   0.0277778
        k(   80) = (   0.0835135  -0.1252703  -0.1252703), wk =   0.0069444
        k(   81) = (   0.1043919   0.1043919   0.1043919), wk =   0.0092593
        k(   82) = (   0.1043919   0.1043919  -0.1252703), wk =   0.0138889
        k(   83) = (   0.1043919  -0.1252703  -0.1252703), wk =   0.0069444
        k(   84) = (  -0.1252703  -0.1252703  -0.1252703), wk =   0.0011574

     Largest allocated arrays     est. size (Mb)     dimensions
     Largest temporary arrays     est. size (Mb)     dimensions

     Check: negative/imaginary core charge=   -0.000001    0.000000

     Initial potential from superposition of free atoms

     starting charge   70.99945, renormalised to   71.00000

     *
     * You are using vdW-DF for exchange-correlation in this calculation.
     * Please cite the following three references that made this development
     * possible:
     *
     *   M. Dion, H. Rydberg, E. Schroder, D. C. Langreth, and
     *   B. I. Lundqvist, Phys. Rev. Lett. 92, 246401 (2004).
     *
     *   T. Thonhauser, V. R. Cooper, S. Li, A. Puzder, P. Hyldgaard, and
     *   D. C. Langreth, Phys. Rev. B 76, 125112 (2007).
     *
     *   G. Roman-Perez and J. M. Soler, Phys. Rev. Lett. 103, 096102 (2009).
     *
     *
     * If you are using vdW-DF2, please also cite:
     *
     *   K. Lee, E. D. Murray, L. Kong, B. I. Lundqvist, and
     *   D. C. Langreth, Phys. Rev. B 82, 081101(R) (2010).
     *
     *
     * If you are calculating the stress with vdW-DF, please also cite:
     *
     *   R. Sabatini, E. Kucukbenli, B. Kolb, T. Thonhauser, and
     *   S. de Gironcoli, J. Phys.: Condens. Matter 24, 424209 (2012).
     *

     Carrying out vdW-DF run using the following parameters:

     Nqs =      20    Nr_points =    1024   r_max =   100.000
     q_mesh =
               0.00001000     0.04494208     0.09755937     0.15916263
               0.23128650     0.31572767     0.41458969     0.53033537
               0.66584808     0.82450364     1.01025438     1.22772762
               1.48234092     1.78043706     2.12944203     2.53805004
               3.01644009     3.57652955     4.23227104     5.00000000

     Gradients computed in reciprocal space

     Starting wfc are   48 randomized atomic wfcs +    7 random wfc

     Self-consistent Calculation

     iteration #  1     ecut=    58.80 Ry     beta=0.10
     Davidson diagonalization with overlap
     ethr =  1.00E-02,  avg # of iterations =  4.9

     Threshold (ethr) on eigenvalues was too large:
     Diagonalizing with lowered threshold

     Davidson diagonalization with overlap
     ethr =  1.36E-04,  avg # of iterations =  2.1

     total energy              =   -1505.11611982 Ry
     Harris-Foulkes estimate   =   -1505.12122985 Ry
     estimated scf accuracy    <       0.09642022 Ry

[...]

     total energy              =   -1505.10131836 Ry
     Harris-Foulkes estimate   =   -1505.10131805 Ry
     estimated scf accuracy    <       0.00000010 Ry

     iteration # 11     ecut=    58.80 Ry     beta=0.10
     Davidson diagonalization with overlap
     ethr =  1.44E-10,  avg # of iterations =  2.3

     End of self-consistent calculation

          k = 0.0000 0.0000 0.0000 (  3239 PWs)   bands (ev):

  -112.9839-112.9824-112.9824 -67.1753 -67.1753 -67.1753 -67.1605 -67.1605
   -67.1605 -67.1593 -67.1593 -67.1593   3.5780   5.3434   5.4170   5.4170
     5.4502   5.4502   5.4502   6.0725   6.0725   6.0725   6.3655   6.3655
     6.5382   6.6108   6.6108   6.6108   8.7665   8.7665   9.4627   9.4627
     9.4627  13.1810  13.1810  13.1810  15.9996  16.6917  16.6917  21.4831
    21.4831  21.4831  23.3100  23.3100  23.3100  27.1741  27.1741  27.1741
    27.6734  27.6734  27.8227  30.9558  32.2663  32.2663  32.2663

[...]

          k = 0.1044-0.1253-0.1253 (  3256 PWs)   bands (ev):

[...]

          k =-0.1253-0.1253-0.1253 (  3184 PWs)   bands (ev):

  -112.9829-112.9829-112.9829 -67.1824 -67.1680 -67.1680 -67.1660 -67.1660
   -67.1660 -67.1564 -67.1564 -67.1564   5.3072   5.3659   5.3659   5.3659
     5.9431   5.9431   5.9431   6.0815   6.0815   6.0815   6.1871   6.1871
     6.5479   6.5479   6.5479   8.3704   8.3704   8.3704   9.4977   9.4977
    10.9462  11.4755  11.4755  11.4755  12.8857  13.9146  13.9146  13.9146
    27.7818  27.7818  27.7818  28.3090  28.3090  29.7369  29.7369  29.7369
    30.0704  31.6342  31.6342  31.6342  31.8733  31.8733  31.8733

     the Fermi energy is    13.8764 ev

!    total energy              =   -1505.10131994 Ry
     Harris-Foulkes estimate   =   -1505.10131838 Ry
     estimated scf accuracy    <          2.1E-09 Ry

     The total energy is the sum of the following terms:

     one-electron contribution =   -1126.49398444 Ry
     hartree contribution      =     600.00369497 Ry
     xc contribution           =    -194.38850444 Ry
     ewald contribution        =    -784.21955101 Ry
     smearing contrib. (-TS)   =      -0.00297502 Ry

     convergence has been achieved in  11 iterations

     Forces acting on atoms (Ry/au):

     atom    1 type  1   force =     0.00000000    0.00000000    0.00000000
     atom    2 type  1   force =     0.00000000    0.00000000   -0.00000000
     atom    3 type  1   force =     0.00000000    0.00000000    0.00000000
     atom    4 type  2   force =     0.00000000    0.00000000    0.00000000

     Total force =     0.000000     Total SCF correction =     0.000000
 !ASE

     General routines

     Parallel routines

   This run was terminated on:   2:10:12  26Oct2017

   JOB DONE.