     Program PWSCF v.5.1rc2 (svn rev. ) starts on 25Oct2017 at 17:45:39

     Current dimensions of program PWSCF are:
     Max number of different atomic species (ntypx) = 10
     Max number of k-points (npk) =  40000
     Max angular momentum in pseudopotentials (lmaxx) =  3

     IMPORTANT: XC functional enforced from input :
     Exchange-correlation      = BEEF-VDW ( 1  4 27 13 2)
     Any further DFT definition will be discarded
     Please, verify this is what you really want

     Subspace diagonalization in iterative solution of the eigenvalue problem:
     a serial algorithm will be used

     bravais-lattice index     =            0
     lattice parameter (alat)  =       1.8897  a.u.
     unit-cell volume          =     418.1764 (a.u.)^3
     number of atoms/cell      =            4
     number of atomic types    =            2
     number of electrons       =        57.00
     number of Kohn-Sham states=           48
     kinetic-energy cutoff     =      58.7989  Ry
     charge density cutoff     =     587.9892  Ry
     convergence threshold     =      7.3E-09
     mixing beta               =       0.1000
     number of iterations used =           10  local-TF  mixing
     Exchange-correlation      = BEEF-VDW ( 1  4 27 13 2)
     nstep                     =           50

     celldm(1)=   1.889726  celldm(2)=   0.000000  celldm(3)=   0.000000
     celldm(4)=   0.000000  celldm(5)=   0.000000  celldm(6)=   0.000000

     crystal axes: (cart. coord. in units of alat)
               a(1) = (   3.957197   0.000000   0.000000 )
               a(2) = (   0.000000   3.957197   0.000000 )
               a(3) = (   0.000000   0.000000   3.957197 )

     reciprocal axes: (cart. coord. in units 2 pi/alat)
               b(1) = (  0.252704  0.000000  0.000000 )
               b(2) = (  0.000000  0.252704  0.000000 )
               b(3) = (  0.000000  0.000000  0.252704 )

     PseudoPot. # 1 for Rh read from file:
     /home/vossj/suncat/psp/gbrv1.5pbe/Rh.UPF
     MD5 check sum: 761627e959a2e3a1f56b0b5fe687810e
     Pseudo is Ultrasoft + core correction, Zval = 15.0
     Generated by new atomic code, or converted to UPF format
     Using radial grid of  969 points,  7 beta functions with:
                l(1) =   0
                l(2) =   0
                l(3) =   1
                l(4) =   1
                l(5) =   2
                l(6) =   2
                l(7) =   2
     Q(r) pseudized with  8 coefficients,  rinner =    1.200   1.200   1.200
                                                       1.200   1.200

     PseudoPot. # 2 for Hf read from file:
     /home/vossj/suncat/psp/gbrv1.5pbe/Hf.UPF
     MD5 check sum: 8ee9378dfe14276e333edf04c5e4aa26
     Pseudo is Ultrasoft + core correction, Zval = 12.0
     Generated by new atomic code, or converted to UPF format
     Using radial grid of  921 points,  8 beta functions with:
                l(1) =   0
                l(2) =   0
                l(3) =   0
                l(4) =   1
                l(5) =   1
                l(6) =   2
                l(7) =   2
                l(8) =   3
     Q(r) pseudized with  6 coefficients,  rinner =    1.200   1.200   1.200
                                                       1.200   1.200   1.200
                                                       1.200

     vdW kernel table read from file vdW_kernel_table
     MD5 check sum: 095c7af220d748ca6e76c0b4c6cfb241

     atomic species   valence    mass     pseudopotential
        Rh1           15.00   102.90550     Rh( 1.00)
        Hf1           12.00   178.49000     Hf( 1.00)

     48 Sym. Ops., with inversion, found (32 have fractional translation)

   Cartesian axes

     site n.     atom                  positions (alat units)
         1           Rh1 tau(   1) = (   0.0000000   0.0000000   0.0000000  )
         2           Rh1 tau(   2) = (   0.0000000   1.9785983   1.9785983  )
         3           Rh1 tau(   3) = (   1.9785983   0.0000000   1.9785983  )
         4           Hf1 tau(   4) = (   1.9785983   1.9785983   0.0000000  )

     number of k points=    84  Fermi-Dirac smearing, width (Ry)=  0.0073
                       cart. coord. in units 2pi/alat
        k(    1) = (   0.0000000   0.0000000   0.0000000), wk =   0.0011574
        k(    2) = (   0.0000000   0.0000000   0.0210587), wk =   0.0069444
        k(    3) = (   0.0000000   0.0000000   0.0421174), wk =   0.0069444
        k(    4) = (   0.0000000   0.0000000   0.0631760), wk =   0.0069444
        k(    5) = (   0.0000000   0.0000000   0.0842347), wk =   0.0069444
        k(    6) = (   0.0000000   0.0000000   0.1052934), wk =   0.0069444
        k(    7) = (   0.0000000   0.0000000  -0.1263521), wk =   0.0034722
        k(    8) = (   0.0000000   0.0210587   0.0210587), wk =   0.0138889
        k(    9) = (   0.0000000   0.0210587   0.0421174), wk =   0.0277778
        k(   10) = (   0.0000000   0.0210587   0.0631760), wk =   0.0277778
        k(   11) = (   0.0000000   0.0210587   0.0842347), wk =   0.0277778
        k(   12) = (   0.0000000   0.0210587   0.1052934), wk =   0.0277778
        k(   13) = (   0.0000000   0.0210587  -0.1263521), wk =   0.0138889
        k(   14) = (   0.0000000   0.0421174   0.0421174), wk =   0.0138889
        k(   15) = (   0.0000000   0.0421174   0.0631760), wk =   0.0277778
        k(   16) = (   0.0000000   0.0421174   0.0842347), wk =   0.0277778
        k(   17) = (   0.0000000   0.0421174   0.1052934), wk =   0.0277778
        k(   18) = (   0.0000000   0.0421174  -0.1263521), wk =   0.0138889
        k(   19) = (   0.0000000   0.0631760   0.0631760), wk =   0.0138889
        k(   20) = (   0.0000000   0.0631760   0.0842347), wk =   0.0277778
        k(   21) = (   0.0000000   0.0631760   0.1052934), wk =   0.0277778
        k(   22) = (   0.0000000   0.0631760  -0.1263521), wk =   0.0138889
        k(   23) = (   0.0000000   0.0842347   0.0842347), wk =   0.0138889
        k(   24) = (   0.0000000   0.0842347   0.1052934), wk =   0.0277778
        k(   25) = (   0.0000000   0.0842347  -0.1263521), wk =   0.0138889
        k(   26) = (   0.0000000   0.1052934   0.1052934), wk =   0.0138889
        k(   27) = (   0.0000000   0.1052934  -0.1263521), wk =   0.0138889
        k(   28) = (   0.0000000  -0.1263521  -0.1263521), wk =   0.0034722
        k(   29) = (   0.0210587   0.0210587   0.0210587), wk =   0.0092593
        k(   30) = (   0.0210587   0.0210587   0.0421174), wk =   0.0277778
        k(   31) = (   0.0210587   0.0210587   0.0631760), wk =   0.0277778
        k(   32) = (   0.0210587   0.0210587   0.0842347), wk =   0.0277778
        k(   33) = (   0.0210587   0.0210587   0.1052934), wk =   0.0277778
        k(   34) = (   0.0210587   0.0210587  -0.1263521), wk =   0.0138889
        k(   35) = (   0.0210587   0.0421174   0.0421174), wk =   0.0277778
        k(   36) = (   0.0210587   0.0421174   0.0631760), wk =   0.0555556
        k(   37) = (   0.0210587   0.0421174   0.0842347), wk =   0.0555556
        k(   38) = (   0.0210587   0.0421174   0.1052934), wk =   0.0555556
        k(   39) = (   0.0210587   0.0421174  -0.1263521), wk =   0.0277778
        k(   40) = (   0.0210587   0.0631760   0.0631760), wk =   0.0277778
        k(   41) = (   0.0210587   0.0631760   0.0842347), wk =   0.0555556
        k(   42) = (   0.0210587   0.0631760   0.1052934), wk =   0.0555556
        k(   43) = (   0.0210587   0.0631760  -0.1263521), wk =   0.0277778
        k(   44) = (   0.0210587   0.0842347   0.0842347), wk =   0.0277778
        k(   45) = (   0.0210587   0.0842347   0.1052934), wk =   0.0555556
        k(   46) = (   0.0210587   0.0842347  -0.1263521), wk =   0.0277778
        k(   47) = (   0.0210587   0.1052934   0.1052934), wk =   0.0277778
        k(   48) = (   0.0210587   0.1052934  -0.1263521), wk =   0.0277778
        k(   49) = (   0.0210587  -0.1263521  -0.1263521), wk =   0.0069444
        k(   50) = (   0.0421174   0.0421174   0.0421174), wk =   0.0092593
        k(   51) = (   0.0421174   0.0421174   0.0631760), wk =   0.0277778
        k(   52) = (   0.0421174   0.0421174   0.0842347), wk =   0.0277778
        k(   53) = (   0.0421174   0.0421174   0.1052934), wk =   0.0277778
        k(   54) = (   0.0421174   0.0421174  -0.1263521), wk =   0.0138889
        k(   55) = (   0.0421174   0.0631760   0.0631760), wk =   0.0277778
        k(   56) = (   0.0421174   0.0631760   0.0842347), wk =   0.0555556
        k(   57) = (   0.0421174   0.0631760   0.1052934), wk =   0.0555556
        k(   58) = (   0.0421174   0.0631760  -0.1263521), wk =   0.0277778
        k(   59) = (   0.0421174   0.0842347   0.0842347), wk =   0.0277778
        k(   60) = (   0.0421174   0.0842347   0.1052934), wk =   0.0555556
[...]
        k(   70) = (   0.0631760   0.0842347   0.1052934), wk =   0.0555556
        k(   71) = (   0.0631760   0.0842347  -0.1263521), wk =   0.0277778
        k(   72) = (   0.0631760   0.1052934   0.1052934), wk =   0.0277778
        k(   73) = (   0.0631760   0.1052934  -0.1263521), wk =   0.0277778
        k(   74) = (   0.0631760  -0.1263521  -0.1263521), wk =   0.0069444
        k(   75) = (   0.0842347   0.0842347   0.0842347), wk =   0.0092593
        k(   76) = (   0.0842347   0.0842347   0.1052934), wk =   0.0277778
        k(   77) = (   0.0842347   0.0842347  -0.1263521), wk =   0.0138889
        k(   78) = (   0.0842347   0.1052934   0.1052934), wk =   0.0277778
        k(   79) = (   0.0842347   0.1052934  -0.1263521), wk =   0.0277778
        k(   80) = (   0.0842347  -0.1263521  -0.1263521), wk =   0.0069444
        k(   81) = (   0.1052934   0.1052934   0.1052934), wk =   0.0092593
        k(   82) = (   0.1052934   0.1052934  -0.1263521), wk =   0.0138889
        k(   83) = (   0.1052934  -0.1263521  -0.1263521), wk =   0.0069444
        k(   84) = (  -0.1263521  -0.1263521  -0.1263521), wk =   0.0011574

     Largest allocated arrays     est. size (Mb)     dimensions
     Largest temporary arrays     est. size (Mb)     dimensions

     Initial potential from superposition of free atoms
     Check: negative starting charge=   -0.277164

     starting charge   53.49970, renormalised to   57.00000

     negative rho (up, down):  2.953E-01 0.000E+00

     *
     * You are using vdW-DF for exchange-correlation in this calculation.
     * Please cite the following three references that made this development
     * possible:
     *
     *   M. Dion, H. Rydberg, E. Schroder, D. C. Langreth, and
     *   B. I. Lundqvist, Phys. Rev. Lett. 92, 246401 (2004).
     *
     *   T. Thonhauser, V. R. Cooper, S. Li, A. Puzder, P. Hyldgaard, and
     *   D. C. Langreth, Phys. Rev. B 76, 125112 (2007).
     *
     *   G. Roman-Perez and J. M. Soler, Phys. Rev. Lett. 103, 096102 (2009).
     *
     *
     * If you are using vdW-DF2, please also cite:
     *
     *   K. Lee, E. D. Murray, L. Kong, B. I. Lundqvist, and
     *   D. C. Langreth, Phys. Rev. B 82, 081101(R) (2010).
     *
     *
     * If you are calculating the stress with vdW-DF, please also cite:
     *
     *   R. Sabatini, E. Kucukbenli, B. Kolb, T. Thonhauser, and
     *   S. de Gironcoli, J. Phys.: Condens. Matter 24, 424209 (2012).
     *

     Carrying out vdW-DF run using the following parameters:

     Nqs =      20    Nr_points =    1024   r_max =   100.000
     q_mesh =
               0.00001000     0.04494208     0.09755937     0.15916263
               0.23128650     0.31572767     0.41458969     0.53033537
               0.66584808     0.82450364     1.01025438     1.22772762
               1.48234092     1.78043706     2.12944203     2.53805004
               3.01644009     3.57652955     4.23227104     5.00000000

     Gradients computed in reciprocal space

     Starting wfc are   49 randomized atomic wfcs

     Self-consistent Calculation

     iteration #  1     ecut=    58.80 Ry     beta=0.10
     Davidson diagonalization with overlap
     ethr =  1.00E-02,  avg # of iterations =  4.2

[...]

     total energy              =    -678.68539719 Ry
     Harris-Foulkes estimate   =    -679.11990131 Ry
     estimated scf accuracy    <       6.75571682 Ry

[...]

     total energy              =    -677.53394943 Ry
     Harris-Foulkes estimate   =    -677.53394930 Ry
     estimated scf accuracy    <       0.00000003 Ry

     iteration # 15     ecut=    58.80 Ry     beta=0.10
     Davidson diagonalization with overlap
     ethr =  2.50E-11,  avg # of iterations =  1.1

     negative rho (up, down):  2.964E-01 0.000E+00

     End of self-consistent calculation

          k = 0.0000 0.0000 0.0000 (  3191 PWs)   bands (ev):

   -43.2434 -27.5265 -27.5265 -27.5265 -27.3431 -27.3431 -27.3431 -27.1943
   -27.1943 -27.1943 -11.7783 -11.7783 -11.7783  11.5997  13.6759  13.6759
    13.8284  14.2001  14.2001  14.2001  16.8717  16.8717  16.8717  18.5503
    18.5503  19.3965  19.8566  19.8566  19.8566  22.5474  22.5474  22.5474
    22.8182  22.8182  24.5269  24.5269  24.5269  30.8125  30.8851  30.8851
    30.8851  32.6146  32.6146  33.1652  33.1652  33.1652  34.4563  39.6298

[...]

          k = 0.1053-0.1264-0.1264 (  3156 PWs)   bands (ev):

[...]

          k =-0.1264-0.1264-0.1264 (  3184 PWs)   bands (ev):

   -43.2413 -27.5994 -27.5183 -27.5183 -27.5183 -27.2311 -27.2311 -27.2311
   -27.1891 -27.1891 -11.8060 -11.8060 -11.8060  13.6872  13.9398  13.9398
    13.9398  16.3119  16.3119  16.3119  16.9048  16.9048  16.9048  17.2580
    17.2580  19.4779  19.4779  19.4779  19.9203  20.2588  20.2588  20.2588
    22.2097  22.2097  22.2097  23.8278  23.8278  27.6585  29.6439  29.6439
    29.6439  33.7539  33.7539  33.7539  34.2602  38.2785  38.2785  38.2785

     the Fermi energy is    18.8335 ev

!    total energy              =    -677.53395006 Ry
     Harris-Foulkes estimate   =    -677.53394943 Ry
     estimated scf accuracy    <          3.1E-10 Ry

     The total energy is the sum of the following terms:

     one-electron contribution =    -104.14663986 Ry
     hartree contribution      =      97.42448144 Ry
     xc contribution           =    -170.76726396 Ry
     ewald contribution        =    -500.03544418 Ry
     smearing contrib. (-TS)   =      -0.00908350 Ry

     convergence has been achieved in  15 iterations

     Forces acting on atoms (Ry/au):

     negative rho (up, down):  2.964E-01 0.000E+00
     atom    1 type  1   force =     0.00000000    0.00000000    0.00000000
     atom    2 type  1   force =     0.00000000    0.00000000    0.00000000
     atom    3 type  1   force =     0.00000000    0.00000000    0.00000000
     atom    4 type  2   force =     0.00000000   -0.00000000    0.00000000

     Total force =     0.000000     Total SCF correction =     0.000000
 !ASE

     General routines

     Parallel routines

   This run was terminated on:  17:46:47  25Oct2017

   JOB DONE.