     Program PWSCF v.5.1rc2 (svn rev. ) starts on 25Oct2017 at 10:22:59

     Current dimensions of program PWSCF are:
     Max number of different atomic species (ntypx) = 10
     Max number of k-points (npk) =  40000
     Max angular momentum in pseudopotentials (lmaxx) =  3

     IMPORTANT: XC functional enforced from input :
     Exchange-correlation      = BEEF-VDW ( 1  4 27 13 2)
     Any further DFT definition will be discarded
     Please, verify this is what you really want

     Subspace diagonalization in iterative solution of the eigenvalue problem:
     a serial algorithm will be used

     bravais-lattice index     =            0
     lattice parameter (alat)  =       1.8897  a.u.
     unit-cell volume          =     598.0840 (a.u.)^3
     number of atoms/cell      =            4
     number of atomic types    =            2
     number of electrons       =        52.00
     number of Kohn-Sham states=           46
     kinetic-energy cutoff     =      58.7989  Ry
     charge density cutoff     =     587.9892  Ry
     convergence threshold     =      7.3E-09
     mixing beta               =       0.1000
     number of iterations used =           10  local-TF  mixing
     Exchange-correlation      = BEEF-VDW ( 1  4 27 13 2)
     nstep                     =           50

     celldm(1)=   1.889726  celldm(2)=   0.000000  celldm(3)=   0.000000
     celldm(4)=   0.000000  celldm(5)=   0.000000  celldm(6)=   0.000000

     crystal axes: (cart. coord. in units of alat)
               a(1) = (   4.458497   0.000000   0.000000 )
               a(2) = (   0.000000   4.458497   0.000000 )
               a(3) = (   0.000000   0.000000   4.458497 )

     reciprocal axes: (cart. coord. in units 2 pi/alat)
               b(1) = (  0.224291  0.000000  0.000000 )
               b(2) = (  0.000000  0.224291  0.000000 )
               b(3) = (  0.000000  0.000000  0.224291 )

     PseudoPot. # 1 for In read from file:
     /home/vossj/suncat/psp/gbrv1.5pbe/In.UPF
     MD5 check sum: 90777abd96fbb83f2e67db2a40c566b9
     Pseudo is Ultrasoft + core correction, Zval = 13.0
     Generated by new atomic code, or converted to UPF format
     Using radial grid of  889 points,  6 beta functions with:
                l(1) =   0
                l(2) =   0
                l(3) =   1
                l(4) =   1
                l(5) =   2
                l(6) =   2
     Q(r) pseudized with  6 coefficients,  rinner =    1.400   1.400   1.400
                                                       1.400   1.400

     PseudoPot. # 2 for Ta read from file:
     /home/vossj/suncat/psp/gbrv1.5pbe/Ta.UPF
     MD5 check sum: f8bbe9446314a3b8ea5d9f3e3836c939
     Pseudo is Ultrasoft + core correction, Zval = 13.0
     Generated by new atomic code, or converted to UPF format
     Using radial grid of  921 points,  7 beta functions with:
                l(1) =   0
                l(2) =   0
                l(3) =   1
                l(4) =   1
                l(5) =   2
                l(6) =   2
                l(7) =   3
     Q(r) pseudized with  6 coefficients,  rinner =    1.300   1.300   1.300
                                                       1.300   1.300   1.300
                                                       1.300

     vdW kernel table read from file vdW_kernel_table
     MD5 check sum: 095c7af220d748ca6e76c0b4c6cfb241

     atomic species   valence    mass     pseudopotential
        In1           13.00   114.81800     In( 1.00)
        Ta1           13.00   180.94788     Ta( 1.00)

     48 Sym. Ops., with inversion, found (32 have fractional translation)

   Cartesian axes

     site n.     atom                  positions (alat units)
         1           In1 tau(   1) = (   0.0000000   0.0000000   0.0000000  )
         2           In1 tau(   2) = (   0.0000000   2.2292487   2.2292487  )
         3           In1 tau(   3) = (   2.2292487   0.0000000   2.2292487  )
         4           Ta1 tau(   4) = (   2.2292487   2.2292487   0.0000000  )

     number of k points=    84  Fermi-Dirac smearing, width (Ry)=  0.0073
                       cart. coord. in units 2pi/alat
        k(    1) = (   0.0000000   0.0000000   0.0000000), wk =   0.0011574
        k(    2) = (   0.0000000   0.0000000   0.0186909), wk =   0.0069444
        k(    3) = (   0.0000000   0.0000000   0.0373818), wk =   0.0069444
        k(    4) = (   0.0000000   0.0000000   0.0560727), wk =   0.0069444
        k(    5) = (   0.0000000   0.0000000   0.0747636), wk =   0.0069444
        k(    6) = (   0.0000000   0.0000000   0.0934545), wk =   0.0069444
        k(    7) = (   0.0000000   0.0000000  -0.1121454), wk =   0.0034722
        k(    8) = (   0.0000000   0.0186909   0.0186909), wk =   0.0138889
        k(    9) = (   0.0000000   0.0186909   0.0373818), wk =   0.0277778
        k(   10) = (   0.0000000   0.0186909   0.0560727), wk =   0.0277778
        k(   11) = (   0.0000000   0.0186909   0.0747636), wk =   0.0277778
        k(   12) = (   0.0000000   0.0186909   0.0934545), wk =   0.0277778
        k(   13) = (   0.0000000   0.0186909  -0.1121454), wk =   0.0138889
        k(   14) = (   0.0000000   0.0373818   0.0373818), wk =   0.0138889
        k(   15) = (   0.0000000   0.0373818   0.0560727), wk =   0.0277778
        k(   16) = (   0.0000000   0.0373818   0.0747636), wk =   0.0277778
        k(   17) = (   0.0000000   0.0373818   0.0934545), wk =   0.0277778
        k(   18) = (   0.0000000   0.0373818  -0.1121454), wk =   0.0138889
        k(   19) = (   0.0000000   0.0560727   0.0560727), wk =   0.0138889
        k(   20) = (   0.0000000   0.0560727   0.0747636), wk =   0.0277778
        k(   21) = (   0.0000000   0.0560727   0.0934545), wk =   0.0277778
        k(   22) = (   0.0000000   0.0560727  -0.1121454), wk =   0.0138889
        k(   23) = (   0.0000000   0.0747636   0.0747636), wk =   0.0138889
        k(   24) = (   0.0000000   0.0747636   0.0934545), wk =   0.0277778
        k(   25) = (   0.0000000   0.0747636  -0.1121454), wk =   0.0138889
        k(   26) = (   0.0000000   0.0934545   0.0934545), wk =   0.0138889
        k(   27) = (   0.0000000   0.0934545  -0.1121454), wk =   0.0138889
        k(   28) = (   0.0000000  -0.1121454  -0.1121454), wk =   0.0034722
        k(   29) = (   0.0186909   0.0186909   0.0186909), wk =   0.0092593
        k(   30) = (   0.0186909   0.0186909   0.0373818), wk =   0.0277778
        k(   31) = (   0.0186909   0.0186909   0.0560727), wk =   0.0277778
        k(   32) = (   0.0186909   0.0186909   0.0747636), wk =   0.0277778
        k(   33) = (   0.0186909   0.0186909   0.0934545), wk =   0.0277778
        k(   34) = (   0.0186909   0.0186909  -0.1121454), wk =   0.0138889
        k(   35) = (   0.0186909   0.0373818   0.0373818), wk =   0.0277778
        k(   36) = (   0.0186909   0.0373818   0.0560727), wk =   0.0555556
        k(   37) = (   0.0186909   0.0373818   0.0747636), wk =   0.0555556
        k(   38) = (   0.0186909   0.0373818   0.0934545), wk =   0.0555556
        k(   39) = (   0.0186909   0.0373818  -0.1121454), wk =   0.0277778
        k(   40) = (   0.0186909   0.0560727   0.0560727), wk =   0.0277778
        k(   41) = (   0.0186909   0.0560727   0.0747636), wk =   0.0555556
        k(   42) = (   0.0186909   0.0560727   0.0934545), wk =   0.0555556
        k(   43) = (   0.0186909   0.0560727  -0.1121454), wk =   0.0277778
        k(   44) = (   0.0186909   0.0747636   0.0747636), wk =   0.0277778
        k(   45) = (   0.0186909   0.0747636   0.0934545), wk =   0.0555556
        k(   46) = (   0.0186909   0.0747636  -0.1121454), wk =   0.0277778
        k(   47) = (   0.0186909   0.0934545   0.0934545), wk =   0.0277778
        k(   48) = (   0.0186909   0.0934545  -0.1121454), wk =   0.0277778
        k(   49) = (   0.0186909  -0.1121454  -0.1121454), wk =   0.0069444
        k(   50) = (   0.0373818   0.0373818   0.0373818), wk =   0.0092593
        k(   51) = (   0.0373818   0.0373818   0.0560727), wk =   0.0277778
        k(   52) = (   0.0373818   0.0373818   0.0747636), wk =   0.0277778
        k(   53) = (   0.0373818   0.0373818   0.0934545), wk =   0.0277778
        k(   54) = (   0.0373818   0.0373818  -0.1121454), wk =   0.0138889
        k(   55) = (   0.0373818   0.0560727   0.0560727), wk =   0.0277778
        k(   56) = (   0.0373818   0.0560727   0.0747636), wk =   0.0555556
        k(   57) = (   0.0373818   0.0560727   0.0934545), wk =   0.0555556
        k(   58) = (   0.0373818   0.0560727  -0.1121454), wk =   0.0277778
        k(   59) = (   0.0373818   0.0747636   0.0747636), wk =   0.0277778
        k(   60) = (   0.0373818   0.0747636   0.0934545), wk =   0.0555556
[...]
        k(   70) = (   0.0560727   0.0747636   0.0934545), wk =   0.0555556
        k(   71) = (   0.0560727   0.0747636  -0.1121454), wk =   0.0277778
        k(   72) = (   0.0560727   0.0934545   0.0934545), wk =   0.0277778
        k(   73) = (   0.0560727   0.0934545  -0.1121454), wk =   0.0277778
        k(   74) = (   0.0560727  -0.1121454  -0.1121454), wk =   0.0069444
        k(   75) = (   0.0747636   0.0747636   0.0747636), wk =   0.0092593
        k(   76) = (   0.0747636   0.0747636   0.0934545), wk =   0.0277778
        k(   77) = (   0.0747636   0.0747636  -0.1121454), wk =   0.0138889
        k(   78) = (   0.0747636   0.0934545   0.0934545), wk =   0.0277778
        k(   79) = (   0.0747636   0.0934545  -0.1121454), wk =   0.0277778
        k(   80) = (   0.0747636  -0.1121454  -0.1121454), wk =   0.0069444
        k(   81) = (   0.0934545   0.0934545   0.0934545), wk =   0.0092593
        k(   82) = (   0.0934545   0.0934545  -0.1121454), wk =   0.0138889
        k(   83) = (   0.0934545  -0.1121454  -0.1121454), wk =   0.0069444
        k(   84) = (  -0.1121454  -0.1121454  -0.1121454), wk =   0.0011574

     Largest allocated arrays     est. size (Mb)     dimensions
     Largest temporary arrays     est. size (Mb)     dimensions

     Initial potential from superposition of free atoms
     Check: negative starting charge=   -0.095285

     starting charge   47.49889, renormalised to   52.00000

     negative rho (up, down):  1.043E-01 0.000E+00

     *
     * You are using vdW-DF for exchange-correlation in this calculation.
     * Please cite the following three references that made this development
     * possible:
     *
     *   M. Dion, H. Rydberg, E. Schroder, D. C. Langreth, and
     *   B. I. Lundqvist, Phys. Rev. Lett. 92, 246401 (2004).
     *
     *   T. Thonhauser, V. R. Cooper, S. Li, A. Puzder, P. Hyldgaard, and
     *   D. C. Langreth, Phys. Rev. B 76, 125112 (2007).
     *
     *   G. Roman-Perez and J. M. Soler, Phys. Rev. Lett. 103, 096102 (2009).
     *
     *
     * If you are using vdW-DF2, please also cite:
     *
     *   K. Lee, E. D. Murray, L. Kong, B. I. Lundqvist, and
     *   D. C. Langreth, Phys. Rev. B 82, 081101(R) (2010).
     *
     *
     * If you are calculating the stress with vdW-DF, please also cite:
     *
     *   R. Sabatini, E. Kucukbenli, B. Kolb, T. Thonhauser, and
     *   S. de Gironcoli, J. Phys.: Condens. Matter 24, 424209 (2012).
     *

     Carrying out vdW-DF run using the following parameters:

     Nqs =      20    Nr_points =    1024   r_max =   100.000
     q_mesh =
               0.00001000     0.04494208     0.09755937     0.15916263
               0.23128650     0.31572767     0.41458969     0.53033537
               0.66584808     0.82450364     1.01025438     1.22772762
               1.48234092     1.78043706     2.12944203     2.53805004
               3.01644009     3.57652955     4.23227104     5.00000000

     Gradients computed in reciprocal space

     Starting wfc are   40 randomized atomic wfcs +    6 random wfc

     Self-consistent Calculation

     iteration #  1     ecut=    58.80 Ry     beta=0.10
     Davidson diagonalization with overlap
     ethr =  1.00E-02,  avg # of iterations =  4.7

[...]

     total energy              =    -549.37940079 Ry
     Harris-Foulkes estimate   =    -549.84716963 Ry
     estimated scf accuracy    <       6.37675724 Ry

[...]

     total energy              =    -547.50209268 Ry
     Harris-Foulkes estimate   =    -547.50209098 Ry
     estimated scf accuracy    <       0.00000004 Ry

     iteration # 13     ecut=    58.80 Ry     beta=0.10
     Davidson diagonalization with overlap
     ethr =  7.60E-11,  avg # of iterations =  2.8

     negative rho (up, down):  1.000E-01 0.000E+00

     End of self-consistent calculation

          k = 0.0000 0.0000 0.0000 (  4553 PWs)   bands (ev):

   -55.8177 -22.1218 -22.1218 -22.1218  -2.1287  -2.0918  -2.0918  -2.0918
    -1.8367  -1.8367  -1.6281  -1.6281  -1.6281  -1.5621  -1.5621  -1.3438
    -1.3419  -1.3419  -1.3419   3.0686  10.1732  10.1732  11.2840  11.2840
    11.2840  13.6228  13.6228  13.6228  14.6429  15.9692  15.9692  17.7063
    17.7063  17.7063  19.7927  19.7927  19.7927  24.1738  24.1738  24.1738
    24.3929  24.4931  24.4931  24.8685  27.1146  27.1146

[...]

          k = 0.0935-0.1121-0.1121 (  4592 PWs)   bands (ev):

[...]

          k =-0.1121-0.1121-0.1121 (  4632 PWs)   bands (ev):

   -55.8176 -22.1264 -22.1264 -22.1264  -1.9585  -1.9585  -1.9585  -1.9313
    -1.8334  -1.8334  -1.8334  -1.6449  -1.6449  -1.6449  -1.5535  -1.5535
    -1.3668  -1.3668  -1.3668   8.1101   8.1101   8.1101   9.1368  10.2147
    10.2147  10.2147  12.7607  14.2434  14.2434  15.7886  15.7886  15.7886
    22.8756  22.8756  22.8756  22.9356  22.9356  24.1984  24.1984  24.1984
    24.2162  27.1229  27.1229  27.1625  27.1625  27.1625

     the Fermi energy is    13.4550 ev

!    total energy              =    -547.50209987 Ry
     Harris-Foulkes estimate   =    -547.50209269 Ry
     estimated scf accuracy    <          5.3E-09 Ry

     The total energy is the sum of the following terms:

     one-electron contribution =    -119.92268341 Ry
     hartree contribution      =     101.47181250 Ry
     xc contribution           =    -161.17988102 Ry
     ewald contribution        =    -367.86255340 Ry
     smearing contrib. (-TS)   =      -0.00879455 Ry

     convergence has been achieved in  13 iterations

     Forces acting on atoms (Ry/au):

     negative rho (up, down):  1.000E-01 0.000E+00
     atom    1 type  1   force =     0.00000000   -0.00000000    0.00000000
     atom    2 type  1   force =     0.00000000    0.00000000    0.00000000
     atom    3 type  1   force =     0.00000000    0.00000000   -0.00000000
     atom    4 type  2   force =     0.00000000    0.00000000    0.00000000

     Total force =     0.000000     Total SCF correction =     0.000000
 !ASE

     General routines

     Parallel routines

   This run was terminated on:  10:24: 9  25Oct2017

   JOB DONE.