     Program PWSCF v.5.1rc2 (svn rev. ) starts on 25Oct2017 at 18:20:32

     Current dimensions of program PWSCF are:
     Max number of different atomic species (ntypx) = 10
     Max number of k-points (npk) =  40000
     Max angular momentum in pseudopotentials (lmaxx) =  3

     IMPORTANT: XC functional enforced from input :
     Exchange-correlation      = BEEF-VDW ( 1  4 27 13 2)
     Any further DFT definition will be discarded
     Please, verify this is what you really want

     Subspace diagonalization in iterative solution of the eigenvalue problem:
     a serial algorithm will be used

     bravais-lattice index     =            0
     lattice parameter (alat)  =       1.8897  a.u.
     unit-cell volume          =     388.4081 (a.u.)^3
     number of atoms/cell      =            4
     number of atomic types    =            2
     number of electrons       =        65.00
     number of Kohn-Sham states=           52
     kinetic-energy cutoff     =      58.7989  Ry
     charge density cutoff     =     587.9892  Ry
     convergence threshold     =      7.3E-09
     mixing beta               =       0.1000
     number of iterations used =           10  local-TF  mixing
     Exchange-correlation      = BEEF-VDW ( 1  4 27 13 2)
     nstep                     =           50

     celldm(1)=   1.889726  celldm(2)=   0.000000  celldm(3)=   0.000000
     celldm(4)=   0.000000  celldm(5)=   0.000000  celldm(6)=   0.000000

     crystal axes: (cart. coord. in units of alat)
               a(1) = (   3.860977   0.000000   0.000000 )
               a(2) = (   0.000000   3.860977   0.000000 )
               a(3) = (   0.000000   0.000000   3.860977 )

     reciprocal axes: (cart. coord. in units 2 pi/alat)
               b(1) = (  0.259002  0.000000  0.000000 )
               b(2) = (  0.000000  0.259002  0.000000 )
               b(3) = (  0.000000  0.000000  0.259002 )

     PseudoPot. # 1 for Tc read from file:
     /home/vossj/suncat/psp/gbrv1.5pbe/Tc.UPF
     MD5 check sum: 9eb49e5b028550b2339a02317eb7b844
     Pseudo is Ultrasoft + core correction, Zval = 15.0
     Generated by new atomic code, or converted to UPF format
     Using radial grid of  965 points,  6 beta functions with:
                l(1) =   0
                l(2) =   0
                l(3) =   1
                l(4) =   1
                l(5) =   2
                l(6) =   2
     Q(r) pseudized with  8 coefficients,  rinner =    1.300   1.300   1.300
                                                       1.300   1.300

     PseudoPot. # 2 for Zn read from file:
     /home/vossj/suncat/psp/gbrv1.5pbe/Zn.UPF
     MD5 check sum: df62231357ef9e81f77b2b3087fa5675
     Pseudo is Ultrasoft, Zval = 20.0
     Generated by new atomic code, or converted to UPF format
     Using radial grid of  943 points,  6 beta functions with:
                l(1) =   0
                l(2) =   0
                l(3) =   1
                l(4) =   1
                l(5) =   2
                l(6) =   2
     Q(r) pseudized with  8 coefficients,  rinner =    1.100   1.100   1.100
                                                       1.100   1.100

     vdW kernel table read from file vdW_kernel_table
     MD5 check sum: 095c7af220d748ca6e76c0b4c6cfb241

     atomic species   valence    mass     pseudopotential
        Tc1           15.00    97.90721     Tc( 1.00)
        Zn1           20.00    65.38000     Zn( 1.00)

     48 Sym. Ops., with inversion, found (32 have fractional translation)

   Cartesian axes

     site n.     atom                  positions (alat units)
         1           Tc1 tau(   1) = (   0.0000000   0.0000000   0.0000000  )
         2           Tc1 tau(   2) = (   0.0000000   1.9304885   1.9304885  )
         3           Tc1 tau(   3) = (   1.9304885   0.0000000   1.9304885  )
         4           Zn1 tau(   4) = (   1.9304885   1.9304885   0.0000000  )

     number of k points=    84  Fermi-Dirac smearing, width (Ry)=  0.0073
                       cart. coord. in units 2pi/alat
        k(    1) = (   0.0000000   0.0000000   0.0000000), wk =   0.0011574
        k(    2) = (   0.0000000   0.0000000   0.0215835), wk =   0.0069444
        k(    3) = (   0.0000000   0.0000000   0.0431670), wk =   0.0069444
        k(    4) = (   0.0000000   0.0000000   0.0647504), wk =   0.0069444
        k(    5) = (   0.0000000   0.0000000   0.0863339), wk =   0.0069444
        k(    6) = (   0.0000000   0.0000000   0.1079174), wk =   0.0069444
        k(    7) = (   0.0000000   0.0000000  -0.1295009), wk =   0.0034722
        k(    8) = (   0.0000000   0.0215835   0.0215835), wk =   0.0138889
        k(    9) = (   0.0000000   0.0215835   0.0431670), wk =   0.0277778
        k(   10) = (   0.0000000   0.0215835   0.0647504), wk =   0.0277778
        k(   11) = (   0.0000000   0.0215835   0.0863339), wk =   0.0277778
        k(   12) = (   0.0000000   0.0215835   0.1079174), wk =   0.0277778
        k(   13) = (   0.0000000   0.0215835  -0.1295009), wk =   0.0138889
        k(   14) = (   0.0000000   0.0431670   0.0431670), wk =   0.0138889
        k(   15) = (   0.0000000   0.0431670   0.0647504), wk =   0.0277778
        k(   16) = (   0.0000000   0.0431670   0.0863339), wk =   0.0277778
        k(   17) = (   0.0000000   0.0431670   0.1079174), wk =   0.0277778
        k(   18) = (   0.0000000   0.0431670  -0.1295009), wk =   0.0138889
        k(   19) = (   0.0000000   0.0647504   0.0647504), wk =   0.0138889
        k(   20) = (   0.0000000   0.0647504   0.0863339), wk =   0.0277778
        k(   21) = (   0.0000000   0.0647504   0.1079174), wk =   0.0277778
        k(   22) = (   0.0000000   0.0647504  -0.1295009), wk =   0.0138889
        k(   23) = (   0.0000000   0.0863339   0.0863339), wk =   0.0138889
        k(   24) = (   0.0000000   0.0863339   0.1079174), wk =   0.0277778
        k(   25) = (   0.0000000   0.0863339  -0.1295009), wk =   0.0138889
        k(   26) = (   0.0000000   0.1079174   0.1079174), wk =   0.0138889
        k(   27) = (   0.0000000   0.1079174  -0.1295009), wk =   0.0138889
        k(   28) = (   0.0000000  -0.1295009  -0.1295009), wk =   0.0034722
        k(   29) = (   0.0215835   0.0215835   0.0215835), wk =   0.0092593
        k(   30) = (   0.0215835   0.0215835   0.0431670), wk =   0.0277778
        k(   31) = (   0.0215835   0.0215835   0.0647504), wk =   0.0277778
        k(   32) = (   0.0215835   0.0215835   0.0863339), wk =   0.0277778
        k(   33) = (   0.0215835   0.0215835   0.1079174), wk =   0.0277778
        k(   34) = (   0.0215835   0.0215835  -0.1295009), wk =   0.0138889
        k(   35) = (   0.0215835   0.0431670   0.0431670), wk =   0.0277778
        k(   36) = (   0.0215835   0.0431670   0.0647504), wk =   0.0555556
        k(   37) = (   0.0215835   0.0431670   0.0863339), wk =   0.0555556
        k(   38) = (   0.0215835   0.0431670   0.1079174), wk =   0.0555556
        k(   39) = (   0.0215835   0.0431670  -0.1295009), wk =   0.0277778
        k(   40) = (   0.0215835   0.0647504   0.0647504), wk =   0.0277778
        k(   41) = (   0.0215835   0.0647504   0.0863339), wk =   0.0555556
        k(   42) = (   0.0215835   0.0647504   0.1079174), wk =   0.0555556
        k(   43) = (   0.0215835   0.0647504  -0.1295009), wk =   0.0277778
        k(   44) = (   0.0215835   0.0863339   0.0863339), wk =   0.0277778
        k(   45) = (   0.0215835   0.0863339   0.1079174), wk =   0.0555556
        k(   46) = (   0.0215835   0.0863339  -0.1295009), wk =   0.0277778
        k(   47) = (   0.0215835   0.1079174   0.1079174), wk =   0.0277778
        k(   48) = (   0.0215835   0.1079174  -0.1295009), wk =   0.0277778
        k(   49) = (   0.0215835  -0.1295009  -0.1295009), wk =   0.0069444
        k(   50) = (   0.0431670   0.0431670   0.0431670), wk =   0.0092593
        k(   51) = (   0.0431670   0.0431670   0.0647504), wk =   0.0277778
        k(   52) = (   0.0431670   0.0431670   0.0863339), wk =   0.0277778
        k(   53) = (   0.0431670   0.0431670   0.1079174), wk =   0.0277778
        k(   54) = (   0.0431670   0.0431670  -0.1295009), wk =   0.0138889
        k(   55) = (   0.0431670   0.0647504   0.0647504), wk =   0.0277778
        k(   56) = (   0.0431670   0.0647504   0.0863339), wk =   0.0555556
        k(   57) = (   0.0431670   0.0647504   0.1079174), wk =   0.0555556
        k(   58) = (   0.0431670   0.0647504  -0.1295009), wk =   0.0277778
        k(   59) = (   0.0431670   0.0863339   0.0863339), wk =   0.0277778
        k(   60) = (   0.0431670   0.0863339   0.1079174), wk =   0.0555556
[...]
        k(   70) = (   0.0647504   0.0863339   0.1079174), wk =   0.0555556
        k(   71) = (   0.0647504   0.0863339  -0.1295009), wk =   0.0277778
        k(   72) = (   0.0647504   0.1079174   0.1079174), wk =   0.0277778
        k(   73) = (   0.0647504   0.1079174  -0.1295009), wk =   0.0277778
        k(   74) = (   0.0647504  -0.1295009  -0.1295009), wk =   0.0069444
        k(   75) = (   0.0863339   0.0863339   0.0863339), wk =   0.0092593
        k(   76) = (   0.0863339   0.0863339   0.1079174), wk =   0.0277778
        k(   77) = (   0.0863339   0.0863339  -0.1295009), wk =   0.0138889
        k(   78) = (   0.0863339   0.1079174   0.1079174), wk =   0.0277778
        k(   79) = (   0.0863339   0.1079174  -0.1295009), wk =   0.0277778
        k(   80) = (   0.0863339  -0.1295009  -0.1295009), wk =   0.0069444
        k(   81) = (   0.1079174   0.1079174   0.1079174), wk =   0.0092593
        k(   82) = (   0.1079174   0.1079174  -0.1295009), wk =   0.0138889
        k(   83) = (   0.1079174  -0.1295009  -0.1295009), wk =   0.0069444
        k(   84) = (  -0.1295009  -0.1295009  -0.1295009), wk =   0.0011574

     Largest allocated arrays     est. size (Mb)     dimensions
     Largest temporary arrays     est. size (Mb)     dimensions

     Check: negative/imaginary core charge=   -0.000010    0.000000

     Initial potential from superposition of free atoms
     Check: negative starting charge=   -0.372676

     starting charge   61.99978, renormalised to   65.00000

     negative rho (up, down):  3.907E-01 0.000E+00

     *
     * You are using vdW-DF for exchange-correlation in this calculation.
     * Please cite the following three references that made this development
     * possible:
     *
     *   M. Dion, H. Rydberg, E. Schroder, D. C. Langreth, and
     *   B. I. Lundqvist, Phys. Rev. Lett. 92, 246401 (2004).
     *
     *   T. Thonhauser, V. R. Cooper, S. Li, A. Puzder, P. Hyldgaard, and
     *   D. C. Langreth, Phys. Rev. B 76, 125112 (2007).
     *
     *   G. Roman-Perez and J. M. Soler, Phys. Rev. Lett. 103, 096102 (2009).
     *
     *
     * If you are using vdW-DF2, please also cite:
     *
     *   K. Lee, E. D. Murray, L. Kong, B. I. Lundqvist, and
     *   D. C. Langreth, Phys. Rev. B 82, 081101(R) (2010).
     *
     *
     * If you are calculating the stress with vdW-DF, please also cite:
     *
     *   R. Sabatini, E. Kucukbenli, B. Kolb, T. Thonhauser, and
     *   S. de Gironcoli, J. Phys.: Condens. Matter 24, 424209 (2012).
     *

     Carrying out vdW-DF run using the following parameters:

     Nqs =      20    Nr_points =    1024   r_max =   100.000
     q_mesh =
               0.00001000     0.04494208     0.09755937     0.15916263
               0.23128650     0.31572767     0.41458969     0.53033537
               0.66584808     0.82450364     1.01025438     1.22772762
               1.48234092     1.78043706     2.12944203     2.53805004
               3.01644009     3.57652955     4.23227104     5.00000000

     Gradients computed in reciprocal space

     Starting wfc are   52 randomized atomic wfcs

     Self-consistent Calculation

     iteration #  1     ecut=    58.80 Ry     beta=0.10
     Davidson diagonalization with overlap
     ethr =  1.00E-02,  avg # of iterations =  4.6

[...]

     total energy              =    -990.88501195 Ry
     Harris-Foulkes estimate   =    -995.96141049 Ry
     estimated scf accuracy    <      90.79670825 Ry

[...]

     total energy              =    -988.71182420 Ry
     Harris-Foulkes estimate   =    -988.71182419 Ry
     estimated scf accuracy    <       0.00000001 Ry

     iteration # 31     ecut=    58.80 Ry     beta=0.10
     Davidson diagonalization with overlap
     ethr =  1.22E-11,  avg # of iterations =  2.0

     negative rho (up, down):  3.890E-01 0.000E+00

     End of self-consistent calculation

          k = 0.0000 0.0000 0.0000 (  2945 PWs)   bands (ev):

  -106.0319 -60.2014 -60.2014 -60.2014 -46.9508 -46.7384 -46.7384 -19.2613
   -19.2613 -19.2613 -18.7479 -18.7479 -18.7479 -18.4500 -18.4500 -18.4500
    11.8029  12.5957  12.5957  12.7549  12.7549  12.7549  14.2479  16.3482
    16.3482  16.3482  16.8579  16.8579  20.4019  20.4019  20.4019  21.8694
    21.8694  22.4219  22.4219  22.4219  22.9761  23.5842  23.5842  23.5842
    29.0553  31.0968  31.0968  31.0968  32.1651  32.1651  34.3427  34.3427
    34.3427  35.3568  40.3007  40.5030

[...]

          k = 0.1079-0.1295-0.1295 (  2976 PWs)   bands (ev):

[...]

          k =-0.1295-0.1295-0.1295 (  3016 PWs)   bands (ev):

  -106.0319 -60.2014 -60.2014 -60.2014 -46.8079 -46.8079 -46.8079 -19.5410
   -19.1865 -19.1865 -19.1865 -18.4813 -18.4813 -18.4725 -18.4725 -18.4725
    12.7155  12.7155  12.7155  13.0801  13.0801  13.4340  16.1660  16.1660
    16.1660  18.3548  18.3548  18.3548  19.8951  19.8951  19.8951  20.2800
    20.2800  20.2800  21.0908  21.0908  21.6786  23.0278  23.0278  23.0278
    25.8281  29.3800  29.3800  29.3800  34.7050  34.8057  34.8057  34.8057
    37.4343  37.4343  37.4343  40.5549

     the Fermi energy is    20.4214 ev

!    total energy              =    -988.71182424 Ry
     Harris-Foulkes estimate   =    -988.71182420 Ry
     estimated scf accuracy    <          7.2E-09 Ry

     The total energy is the sum of the following terms:

     one-electron contribution =    -436.47800670 Ry
     hartree contribution      =     260.28778119 Ry
     xc contribution           =    -142.97564322 Ry
     ewald contribution        =    -669.53274949 Ry
     smearing contrib. (-TS)   =      -0.01320603 Ry

     convergence has been achieved in  31 iterations

     Forces acting on atoms (Ry/au):

     negative rho (up, down):  3.890E-01 0.000E+00
     atom    1 type  1   force =     0.00000000    0.00000000    0.00000000
     atom    2 type  1   force =     0.00000000    0.00000000    0.00000000
     atom    3 type  1   force =     0.00000000    0.00000000    0.00000000
     atom    4 type  2   force =     0.00000000    0.00000000    0.00000000

     Total force =     0.000000     Total SCF correction =     0.000000
 !ASE

     General routines

     Parallel routines

   This run was terminated on:  18:22:31  25Oct2017

   JOB DONE.