     Program PWSCF v.5.1rc2 (svn rev. ) starts on 31Oct2017 at 16:26:54

     Current dimensions of program PWSCF are:
     Max number of different atomic species (ntypx) = 10
     Max number of k-points (npk) =  40000
     Max angular momentum in pseudopotentials (lmaxx) =  3

     IMPORTANT: XC functional enforced from input :
     Exchange-correlation      = BEEF-VDW ( 1  4 27 13 2)
     Any further DFT definition will be discarded
     Please, verify this is what you really want

     Subspace diagonalization in iterative solution of the eigenvalue problem:
     a serial algorithm will be used

     bravais-lattice index     =            0
     lattice parameter (alat)  =       1.8897  a.u.
     unit-cell volume          =     313.9807 (a.u.)^3
     number of atoms/cell      =            4
     number of atomic types    =            2
     number of electrons       =        65.00
     number of Kohn-Sham states=           52
     kinetic-energy cutoff     =      58.7989  Ry
     charge density cutoff     =     587.9892  Ry
     convergence threshold     =      7.3E-09
     mixing beta               =       0.1000
     number of iterations used =           10  local-TF  mixing
     Exchange-correlation      = BEEF-VDW ( 1  4 27 13 2)
     nstep                     =           50

     celldm(1)=   1.889726  celldm(2)=   0.000000  celldm(3)=   0.000000
     celldm(4)=   0.000000  celldm(5)=   0.000000  celldm(6)=   0.000000

     crystal axes: (cart. coord. in units of alat)
               a(1) = (   3.596683   0.000000   0.000000 )
               a(2) = (   0.000000   3.596683   0.000000 )
               a(3) = (   0.000000   0.000000   3.596683 )

     reciprocal axes: (cart. coord. in units 2 pi/alat)
               b(1) = (  0.278034  0.000000  0.000000 )
               b(2) = (  0.000000  0.278034  0.000000 )
               b(3) = (  0.000000  0.000000  0.278034 )

     PseudoPot. # 1 for Co read from file:
     /home/vossj/suncat/psp/gbrv1.5pbe/Co.UPF
     MD5 check sum: 5f91765df6ddd3222702df6e7b74a16d
     Pseudo is Ultrasoft + core correction, Zval = 17.0
     Generated by new atomic code, or converted to UPF format
     Using radial grid of  863 points,  6 beta functions with:
                l(1) =   0
                l(2) =   0
                l(3) =   1
                l(4) =   1
                l(5) =   2
                l(6) =   2
     Q(r) pseudized with  8 coefficients,  rinner =    1.200   1.200   1.200
                                                       1.200   1.200

     PseudoPot. # 2 for Mo read from file:
     /home/vossj/suncat/psp/gbrv1.5pbe/Mo.UPF
     MD5 check sum: 30c4dcd161f5d35cd49bb5239c51a633
     Pseudo is Ultrasoft + core correction, Zval = 14.0
     Generated by new atomic code, or converted to UPF format
     Using radial grid of  889 points,  6 beta functions with:
                l(1) =   0
                l(2) =   0
                l(3) =   1
                l(4) =   1
                l(5) =   2
                l(6) =   2
     Q(r) pseudized with  6 coefficients,  rinner =    1.000   1.000   1.000
                                                       1.000   1.000

     vdW kernel table read from file vdW_kernel_table
     MD5 check sum: 095c7af220d748ca6e76c0b4c6cfb241

     atomic species   valence    mass     pseudopotential
        Co1           17.00    58.93319     Co( 1.00)
        Mo1           14.00    95.95000     Mo( 1.00)

     48 Sym. Ops., with inversion, found (32 have fractional translation)

   Cartesian axes

     site n.     atom                  positions (alat units)
         1           Co1 tau(   1) = (   0.0000000   0.0000000   0.0000000  )
         2           Co1 tau(   2) = (   0.0000000   1.7983413   1.7983413  )
         3           Co1 tau(   3) = (   1.7983413   0.0000000   1.7983413  )
         4           Mo1 tau(   4) = (   1.7983413   1.7983413   0.0000000  )

     number of k points=    84  Fermi-Dirac smearing, width (Ry)=  0.0073
                       cart. coord. in units 2pi/alat
        k(    1) = (   0.0000000   0.0000000   0.0000000), wk =   0.0011574
        k(    2) = (   0.0000000   0.0000000   0.0231695), wk =   0.0069444
        k(    3) = (   0.0000000   0.0000000   0.0463390), wk =   0.0069444
        k(    4) = (   0.0000000   0.0000000   0.0695085), wk =   0.0069444
        k(    5) = (   0.0000000   0.0000000   0.0926780), wk =   0.0069444
        k(    6) = (   0.0000000   0.0000000   0.1158475), wk =   0.0069444
        k(    7) = (   0.0000000   0.0000000  -0.1390170), wk =   0.0034722
        k(    8) = (   0.0000000   0.0231695   0.0231695), wk =   0.0138889
        k(    9) = (   0.0000000   0.0231695   0.0463390), wk =   0.0277778
        k(   10) = (   0.0000000   0.0231695   0.0695085), wk =   0.0277778
        k(   11) = (   0.0000000   0.0231695   0.0926780), wk =   0.0277778
        k(   12) = (   0.0000000   0.0231695   0.1158475), wk =   0.0277778
        k(   13) = (   0.0000000   0.0231695  -0.1390170), wk =   0.0138889
        k(   14) = (   0.0000000   0.0463390   0.0463390), wk =   0.0138889
        k(   15) = (   0.0000000   0.0463390   0.0695085), wk =   0.0277778
        k(   16) = (   0.0000000   0.0463390   0.0926780), wk =   0.0277778
        k(   17) = (   0.0000000   0.0463390   0.1158475), wk =   0.0277778
        k(   18) = (   0.0000000   0.0463390  -0.1390170), wk =   0.0138889
        k(   19) = (   0.0000000   0.0695085   0.0695085), wk =   0.0138889
        k(   20) = (   0.0000000   0.0695085   0.0926780), wk =   0.0277778
        k(   21) = (   0.0000000   0.0695085   0.1158475), wk =   0.0277778
        k(   22) = (   0.0000000   0.0695085  -0.1390170), wk =   0.0138889
        k(   23) = (   0.0000000   0.0926780   0.0926780), wk =   0.0138889
        k(   24) = (   0.0000000   0.0926780   0.1158475), wk =   0.0277778
        k(   25) = (   0.0000000   0.0926780  -0.1390170), wk =   0.0138889
        k(   26) = (   0.0000000   0.1158475   0.1158475), wk =   0.0138889
        k(   27) = (   0.0000000   0.1158475  -0.1390170), wk =   0.0138889
        k(   28) = (   0.0000000  -0.1390170  -0.1390170), wk =   0.0034722
        k(   29) = (   0.0231695   0.0231695   0.0231695), wk =   0.0092593
        k(   30) = (   0.0231695   0.0231695   0.0463390), wk =   0.0277778
        k(   31) = (   0.0231695   0.0231695   0.0695085), wk =   0.0277778
        k(   32) = (   0.0231695   0.0231695   0.0926780), wk =   0.0277778
        k(   33) = (   0.0231695   0.0231695   0.1158475), wk =   0.0277778
        k(   34) = (   0.0231695   0.0231695  -0.1390170), wk =   0.0138889
        k(   35) = (   0.0231695   0.0463390   0.0463390), wk =   0.0277778
        k(   36) = (   0.0231695   0.0463390   0.0695085), wk =   0.0555556
        k(   37) = (   0.0231695   0.0463390   0.0926780), wk =   0.0555556
        k(   38) = (   0.0231695   0.0463390   0.1158475), wk =   0.0555556
        k(   39) = (   0.0231695   0.0463390  -0.1390170), wk =   0.0277778
        k(   40) = (   0.0231695   0.0695085   0.0695085), wk =   0.0277778
        k(   41) = (   0.0231695   0.0695085   0.0926780), wk =   0.0555556
        k(   42) = (   0.0231695   0.0695085   0.1158475), wk =   0.0555556
        k(   43) = (   0.0231695   0.0695085  -0.1390170), wk =   0.0277778
        k(   44) = (   0.0231695   0.0926780   0.0926780), wk =   0.0277778
        k(   45) = (   0.0231695   0.0926780   0.1158475), wk =   0.0555556
        k(   46) = (   0.0231695   0.0926780  -0.1390170), wk =   0.0277778
        k(   47) = (   0.0231695   0.1158475   0.1158475), wk =   0.0277778
        k(   48) = (   0.0231695   0.1158475  -0.1390170), wk =   0.0277778
        k(   49) = (   0.0231695  -0.1390170  -0.1390170), wk =   0.0069444
        k(   50) = (   0.0463390   0.0463390   0.0463390), wk =   0.0092593
        k(   51) = (   0.0463390   0.0463390   0.0695085), wk =   0.0277778
        k(   52) = (   0.0463390   0.0463390   0.0926780), wk =   0.0277778
        k(   53) = (   0.0463390   0.0463390   0.1158475), wk =   0.0277778
        k(   54) = (   0.0463390   0.0463390  -0.1390170), wk =   0.0138889
        k(   55) = (   0.0463390   0.0695085   0.0695085), wk =   0.0277778
        k(   56) = (   0.0463390   0.0695085   0.0926780), wk =   0.0555556
        k(   57) = (   0.0463390   0.0695085   0.1158475), wk =   0.0555556
        k(   58) = (   0.0463390   0.0695085  -0.1390170), wk =   0.0277778
        k(   59) = (   0.0463390   0.0926780   0.0926780), wk =   0.0277778
        k(   60) = (   0.0463390   0.0926780   0.1158475), wk =   0.0555556
[...]
        k(   70) = (   0.0695085   0.0926780   0.1158475), wk =   0.0555556
        k(   71) = (   0.0695085   0.0926780  -0.1390170), wk =   0.0277778
        k(   72) = (   0.0695085   0.1158475   0.1158475), wk =   0.0277778
        k(   73) = (   0.0695085   0.1158475  -0.1390170), wk =   0.0277778
        k(   74) = (   0.0695085  -0.1390170  -0.1390170), wk =   0.0069444
        k(   75) = (   0.0926780   0.0926780   0.0926780), wk =   0.0092593
        k(   76) = (   0.0926780   0.0926780   0.1158475), wk =   0.0277778
        k(   77) = (   0.0926780   0.0926780  -0.1390170), wk =   0.0138889
        k(   78) = (   0.0926780   0.1158475   0.1158475), wk =   0.0277778
        k(   79) = (   0.0926780   0.1158475  -0.1390170), wk =   0.0277778
        k(   80) = (   0.0926780  -0.1390170  -0.1390170), wk =   0.0069444
        k(   81) = (   0.1158475   0.1158475   0.1158475), wk =   0.0092593
        k(   82) = (   0.1158475   0.1158475  -0.1390170), wk =   0.0138889
        k(   83) = (   0.1158475  -0.1390170  -0.1390170), wk =   0.0069444
        k(   84) = (  -0.1390170  -0.1390170  -0.1390170), wk =   0.0011574

     Largest allocated arrays     est. size (Mb)     dimensions
     Largest temporary arrays     est. size (Mb)     dimensions

     Check: negative/imaginary core charge=   -0.000035    0.000000

     Initial potential from superposition of free atoms

     starting charge   61.99892, renormalised to   65.00000

     *
     * You are using vdW-DF for exchange-correlation in this calculation.
     * Please cite the following three references that made this development
     * possible:
     *
     *   M. Dion, H. Rydberg, E. Schroder, D. C. Langreth, and
     *   B. I. Lundqvist, Phys. Rev. Lett. 92, 246401 (2004).
     *
     *   T. Thonhauser, V. R. Cooper, S. Li, A. Puzder, P. Hyldgaard, and
     *   D. C. Langreth, Phys. Rev. B 76, 125112 (2007).
     *
     *   G. Roman-Perez and J. M. Soler, Phys. Rev. Lett. 103, 096102 (2009).
     *
     *
     * If you are using vdW-DF2, please also cite:
     *
     *   K. Lee, E. D. Murray, L. Kong, B. I. Lundqvist, and
     *   D. C. Langreth, Phys. Rev. B 82, 081101(R) (2010).
     *
     *
     * If you are calculating the stress with vdW-DF, please also cite:
     *
     *   R. Sabatini, E. Kucukbenli, B. Kolb, T. Thonhauser, and
     *   S. de Gironcoli, J. Phys.: Condens. Matter 24, 424209 (2012).
     *

     Carrying out vdW-DF run using the following parameters:

     Nqs =      20    Nr_points =    1024   r_max =   100.000
     q_mesh =
               0.00001000     0.04494208     0.09755937     0.15916263
               0.23128650     0.31572767     0.41458969     0.53033537
               0.66584808     0.82450364     1.01025438     1.22772762
               1.48234092     1.78043706     2.12944203     2.53805004
               3.01644009     3.57652955     4.23227104     5.00000000

     Gradients computed in reciprocal space

     Starting wfc are   52 randomized atomic wfcs

     Self-consistent Calculation

     iteration #  1     ecut=    58.80 Ry     beta=0.10
     Davidson diagonalization with overlap
     ethr =  1.00E-02,  avg # of iterations =  4.3

     total energy              =   -1040.78848223 Ry
     Harris-Foulkes estimate   =   -1042.74919424 Ry
     estimated scf accuracy    <      28.31572843 Ry

[...]

     negative rho (up, down):  4.032E-04 0.000E+00

[...]

     total energy              =   -1038.67393464 Ry
     Harris-Foulkes estimate   =   -1038.67393424 Ry
     estimated scf accuracy    <       0.00000010 Ry

     iteration # 20     ecut=    58.80 Ry     beta=0.10
     Davidson diagonalization with overlap
     ethr =  1.58E-10,  avg # of iterations =  1.0

     End of self-consistent calculation

          k = 0.0000 0.0000 0.0000 (  2373 PWs)   bands (ev):

   -75.2524 -75.2111 -75.2111 -41.8617 -38.6203 -38.6203 -38.6203 -38.5475
   -38.5475 -38.5475 -38.4029 -38.4029 -38.4029 -15.8600 -15.8600 -15.8600
    11.4018  14.3244  14.3244  15.5359  15.5359  15.5359  15.7465  18.0473
    18.0473  18.0473  19.3456  19.3456  19.8896  20.2236  20.2236  20.2236
    21.3926  21.3926  22.3849  22.3849  22.3849  22.8681  22.8681  22.8681
    30.9324  32.2772  32.2772  32.3248  32.3248  32.3248  36.6933  36.6933
    36.6933  39.0888  41.2370  41.2370

[...]

          k = 0.1158-0.1390-0.1390 (  2380 PWs)   bands (ev):

[...]

          k =-0.1390-0.1390-0.1390 (  2440 PWs)   bands (ev):

   -75.2247 -75.2247 -75.2247 -41.8528 -38.6409 -38.6409 -38.6409 -38.5965
   -38.4870 -38.4870 -38.4870 -38.3745 -38.3745 -15.9084 -15.9084 -15.9084
    14.5274  14.5274  14.5274  15.8262  17.9052  17.9052  17.9052  17.9149
    17.9149  18.0448  18.0448  18.0448  19.5199  19.9804  19.9804  19.9804
    20.4489  20.4489  20.4489  21.1843  21.1843  21.1843  21.8224  21.8224
    28.6470  28.6470  28.6470  28.8368  37.9198  37.9198  37.9198  38.9537
    40.5721  40.5721  40.5721  43.3943

     the Fermi energy is    19.8851 ev

!    total energy              =   -1038.67393644 Ry
     Harris-Foulkes estimate   =   -1038.67393465 Ry
     estimated scf accuracy    <          5.0E-11 Ry

     The total energy is the sum of the following terms:

     one-electron contribution =    -495.64473735 Ry
     hartree contribution      =     293.17616028 Ry
     xc contribution           =    -121.44447865 Ry
     ewald contribution        =    -714.75098524 Ry
     smearing contrib. (-TS)   =      -0.00989548 Ry

     convergence has been achieved in  20 iterations

     Forces acting on atoms (Ry/au):

     atom    1 type  1   force =     0.00000000    0.00000000    0.00000000
     atom    2 type  1   force =     0.00000000    0.00000000   -0.00000000
     atom    3 type  1   force =     0.00000000    0.00000000   -0.00000000
     atom    4 type  2   force =     0.00000000    0.00000000    0.00000000

     Total force =     0.000000     Total SCF correction =     0.000000
 !ASE

     General routines

     Parallel routines

   This run was terminated on:  16:28: 9  31Oct2017

   JOB DONE.