     Program PWSCF v.5.1rc2 (svn rev. ) starts on 25Oct2017 at  5:13: 2

     Current dimensions of program PWSCF are:
     Max number of different atomic species (ntypx) = 10
     Max number of k-points (npk) =  40000
     Max angular momentum in pseudopotentials (lmaxx) =  3

     IMPORTANT: XC functional enforced from input :
     Exchange-correlation      = BEEF-VDW ( 1  4 27 13 2)
     Any further DFT definition will be discarded
     Please, verify this is what you really want

     Subspace diagonalization in iterative solution of the eigenvalue problem:
     a serial algorithm will be used

     bravais-lattice index     =            0
     lattice parameter (alat)  =       1.8897  a.u.
     unit-cell volume          =     533.2230 (a.u.)^3
     number of atoms/cell      =            4
     number of atomic types    =            2
     number of electrons       =        51.00
     number of Kohn-Sham states=           45
     kinetic-energy cutoff     =      58.7989  Ry
     charge density cutoff     =     587.9892  Ry
     convergence threshold     =      7.3E-09
     mixing beta               =       0.1000
     number of iterations used =           10  local-TF  mixing
     Exchange-correlation      = BEEF-VDW ( 1  4 27 13 2)
     nstep                     =           50

     celldm(1)=   1.889726  celldm(2)=   0.000000  celldm(3)=   0.000000
     celldm(4)=   0.000000  celldm(5)=   0.000000  celldm(6)=   0.000000

     crystal axes: (cart. coord. in units of alat)
               a(1) = (   4.291121   0.000000   0.000000 )
               a(2) = (   0.000000   4.291121   0.000000 )
               a(3) = (   0.000000   0.000000   4.291121 )

     reciprocal axes: (cart. coord. in units 2 pi/alat)
               b(1) = (  0.233039  0.000000  0.000000 )
               b(2) = (  0.000000  0.233039  0.000000 )
               b(3) = (  0.000000  0.000000  0.233039 )

     PseudoPot. # 1 for Hf read from file:
     /home/vossj/suncat/psp/gbrv1.5pbe/Hf.UPF
     MD5 check sum: 8ee9378dfe14276e333edf04c5e4aa26
     Pseudo is Ultrasoft + core correction, Zval = 12.0
     Generated by new atomic code, or converted to UPF format
     Using radial grid of  921 points,  8 beta functions with:
                l(1) =   0
                l(2) =   0
                l(3) =   0
                l(4) =   1
                l(5) =   1
                l(6) =   2
                l(7) =   2
                l(8) =   3
     Q(r) pseudized with  6 coefficients,  rinner =    1.200   1.200   1.200
                                                       1.200   1.200   1.200
                                                       1.200

     PseudoPot. # 2 for Ir read from file:
     /home/vossj/suncat/psp/gbrv1.5pbe/Ir.UPF
     MD5 check sum: 8836f839c3459d2b385c504ce6d91f2c
     Pseudo is Ultrasoft + core correction, Zval = 15.0
     Generated by new atomic code, or converted to UPF format
     Using radial grid of  983 points,  7 beta functions with:
                l(1) =   0
                l(2) =   0
                l(3) =   1
                l(4) =   1
                l(5) =   1
                l(6) =   2
                l(7) =   2
     Q(r) pseudized with  8 coefficients,  rinner =    1.400   1.400   1.400
                                                       1.400   1.400

     vdW kernel table read from file vdW_kernel_table
     MD5 check sum: 095c7af220d748ca6e76c0b4c6cfb241

     atomic species   valence    mass     pseudopotential
        Hf1           12.00   178.49000     Hf( 1.00)
        Ir1           15.00   192.21700     Ir( 1.00)

     48 Sym. Ops., with inversion, found (32 have fractional translation)

   Cartesian axes

     site n.     atom                  positions (alat units)
         1           Hf1 tau(   1) = (   0.0000000   0.0000000   0.0000000  )
         2           Hf1 tau(   2) = (   0.0000000   2.1455605   2.1455605  )
         3           Hf1 tau(   3) = (   2.1455605   0.0000000   2.1455605  )
         4           Ir1 tau(   4) = (   2.1455605   2.1455605   0.0000000  )

     number of k points=    84  Fermi-Dirac smearing, width (Ry)=  0.0073
                       cart. coord. in units 2pi/alat
        k(    1) = (   0.0000000   0.0000000   0.0000000), wk =   0.0011574
        k(    2) = (   0.0000000   0.0000000   0.0194199), wk =   0.0069444
        k(    3) = (   0.0000000   0.0000000   0.0388399), wk =   0.0069444
        k(    4) = (   0.0000000   0.0000000   0.0582598), wk =   0.0069444
        k(    5) = (   0.0000000   0.0000000   0.0776798), wk =   0.0069444
        k(    6) = (   0.0000000   0.0000000   0.0970997), wk =   0.0069444
        k(    7) = (   0.0000000   0.0000000  -0.1165197), wk =   0.0034722
        k(    8) = (   0.0000000   0.0194199   0.0194199), wk =   0.0138889
        k(    9) = (   0.0000000   0.0194199   0.0388399), wk =   0.0277778
        k(   10) = (   0.0000000   0.0194199   0.0582598), wk =   0.0277778
        k(   11) = (   0.0000000   0.0194199   0.0776798), wk =   0.0277778
        k(   12) = (   0.0000000   0.0194199   0.0970997), wk =   0.0277778
        k(   13) = (   0.0000000   0.0194199  -0.1165197), wk =   0.0138889
        k(   14) = (   0.0000000   0.0388399   0.0388399), wk =   0.0138889
        k(   15) = (   0.0000000   0.0388399   0.0582598), wk =   0.0277778
        k(   16) = (   0.0000000   0.0388399   0.0776798), wk =   0.0277778
        k(   17) = (   0.0000000   0.0388399   0.0970997), wk =   0.0277778
        k(   18) = (   0.0000000   0.0388399  -0.1165197), wk =   0.0138889
        k(   19) = (   0.0000000   0.0582598   0.0582598), wk =   0.0138889
        k(   20) = (   0.0000000   0.0582598   0.0776798), wk =   0.0277778
        k(   21) = (   0.0000000   0.0582598   0.0970997), wk =   0.0277778
        k(   22) = (   0.0000000   0.0582598  -0.1165197), wk =   0.0138889
        k(   23) = (   0.0000000   0.0776798   0.0776798), wk =   0.0138889
        k(   24) = (   0.0000000   0.0776798   0.0970997), wk =   0.0277778
        k(   25) = (   0.0000000   0.0776798  -0.1165197), wk =   0.0138889
        k(   26) = (   0.0000000   0.0970997   0.0970997), wk =   0.0138889
        k(   27) = (   0.0000000   0.0970997  -0.1165197), wk =   0.0138889
        k(   28) = (   0.0000000  -0.1165197  -0.1165197), wk =   0.0034722
        k(   29) = (   0.0194199   0.0194199   0.0194199), wk =   0.0092593
        k(   30) = (   0.0194199   0.0194199   0.0388399), wk =   0.0277778
        k(   31) = (   0.0194199   0.0194199   0.0582598), wk =   0.0277778
        k(   32) = (   0.0194199   0.0194199   0.0776798), wk =   0.0277778
        k(   33) = (   0.0194199   0.0194199   0.0970997), wk =   0.0277778
        k(   34) = (   0.0194199   0.0194199  -0.1165197), wk =   0.0138889
        k(   35) = (   0.0194199   0.0388399   0.0388399), wk =   0.0277778
        k(   36) = (   0.0194199   0.0388399   0.0582598), wk =   0.0555556
        k(   37) = (   0.0194199   0.0388399   0.0776798), wk =   0.0555556
        k(   38) = (   0.0194199   0.0388399   0.0970997), wk =   0.0555556
        k(   39) = (   0.0194199   0.0388399  -0.1165197), wk =   0.0277778
        k(   40) = (   0.0194199   0.0582598   0.0582598), wk =   0.0277778
        k(   41) = (   0.0194199   0.0582598   0.0776798), wk =   0.0555556
        k(   42) = (   0.0194199   0.0582598   0.0970997), wk =   0.0555556
        k(   43) = (   0.0194199   0.0582598  -0.1165197), wk =   0.0277778
        k(   44) = (   0.0194199   0.0776798   0.0776798), wk =   0.0277778
        k(   45) = (   0.0194199   0.0776798   0.0970997), wk =   0.0555556
        k(   46) = (   0.0194199   0.0776798  -0.1165197), wk =   0.0277778
        k(   47) = (   0.0194199   0.0970997   0.0970997), wk =   0.0277778
        k(   48) = (   0.0194199   0.0970997  -0.1165197), wk =   0.0277778
        k(   49) = (   0.0194199  -0.1165197  -0.1165197), wk =   0.0069444
        k(   50) = (   0.0388399   0.0388399   0.0388399), wk =   0.0092593
        k(   51) = (   0.0388399   0.0388399   0.0582598), wk =   0.0277778
        k(   52) = (   0.0388399   0.0388399   0.0776798), wk =   0.0277778
        k(   53) = (   0.0388399   0.0388399   0.0970997), wk =   0.0277778
        k(   54) = (   0.0388399   0.0388399  -0.1165197), wk =   0.0138889
        k(   55) = (   0.0388399   0.0582598   0.0582598), wk =   0.0277778
        k(   56) = (   0.0388399   0.0582598   0.0776798), wk =   0.0555556
        k(   57) = (   0.0388399   0.0582598   0.0970997), wk =   0.0555556
        k(   58) = (   0.0388399   0.0582598  -0.1165197), wk =   0.0277778
        k(   59) = (   0.0388399   0.0776798   0.0776798), wk =   0.0277778
        k(   60) = (   0.0388399   0.0776798   0.0970997), wk =   0.0555556
[...]
        k(   70) = (   0.0582598   0.0776798   0.0970997), wk =   0.0555556
        k(   71) = (   0.0582598   0.0776798  -0.1165197), wk =   0.0277778
        k(   72) = (   0.0582598   0.0970997   0.0970997), wk =   0.0277778
        k(   73) = (   0.0582598   0.0970997  -0.1165197), wk =   0.0277778
        k(   74) = (   0.0582598  -0.1165197  -0.1165197), wk =   0.0069444
        k(   75) = (   0.0776798   0.0776798   0.0776798), wk =   0.0092593
        k(   76) = (   0.0776798   0.0776798   0.0970997), wk =   0.0277778
        k(   77) = (   0.0776798   0.0776798  -0.1165197), wk =   0.0138889
        k(   78) = (   0.0776798   0.0970997   0.0970997), wk =   0.0277778
        k(   79) = (   0.0776798   0.0970997  -0.1165197), wk =   0.0277778
        k(   80) = (   0.0776798  -0.1165197  -0.1165197), wk =   0.0069444
        k(   81) = (   0.0970997   0.0970997   0.0970997), wk =   0.0092593
        k(   82) = (   0.0970997   0.0970997  -0.1165197), wk =   0.0138889
        k(   83) = (   0.0970997  -0.1165197  -0.1165197), wk =   0.0069444
        k(   84) = (  -0.1165197  -0.1165197  -0.1165197), wk =   0.0011574

     Largest allocated arrays     est. size (Mb)     dimensions
     Largest temporary arrays     est. size (Mb)     dimensions

     Initial potential from superposition of free atoms
     Check: negative starting charge=   -0.688755

     starting charge   44.49996, renormalised to   51.00000

     negative rho (up, down):  7.894E-01 0.000E+00

     *
     * You are using vdW-DF for exchange-correlation in this calculation.
     * Please cite the following three references that made this development
     * possible:
     *
     *   M. Dion, H. Rydberg, E. Schroder, D. C. Langreth, and
     *   B. I. Lundqvist, Phys. Rev. Lett. 92, 246401 (2004).
     *
     *   T. Thonhauser, V. R. Cooper, S. Li, A. Puzder, P. Hyldgaard, and
     *   D. C. Langreth, Phys. Rev. B 76, 125112 (2007).
     *
     *   G. Roman-Perez and J. M. Soler, Phys. Rev. Lett. 103, 096102 (2009).
     *
     *
     * If you are using vdW-DF2, please also cite:
     *
     *   K. Lee, E. D. Murray, L. Kong, B. I. Lundqvist, and
     *   D. C. Langreth, Phys. Rev. B 82, 081101(R) (2010).
     *
     *
     * If you are calculating the stress with vdW-DF, please also cite:
     *
     *   R. Sabatini, E. Kucukbenli, B. Kolb, T. Thonhauser, and
     *   S. de Gironcoli, J. Phys.: Condens. Matter 24, 424209 (2012).
     *

     Carrying out vdW-DF run using the following parameters:

     Nqs =      20    Nr_points =    1024   r_max =   100.000
     q_mesh =
               0.00001000     0.04494208     0.09755937     0.15916263
               0.23128650     0.31572767     0.41458969     0.53033537
               0.66584808     0.82450364     1.01025438     1.22772762
               1.48234092     1.78043706     2.12944203     2.53805004
               3.01644009     3.57652955     4.23227104     5.00000000

     Gradients computed in reciprocal space

     Starting wfc are   51 randomized atomic wfcs

     Self-consistent Calculation

     iteration #  1     ecut=    58.80 Ry     beta=0.10
     Davidson diagonalization with overlap
     ethr =  1.00E-02,  avg # of iterations =  3.8

[...]

     total energy              =    -669.85179532 Ry
     Harris-Foulkes estimate   =    -670.95653766 Ry
     estimated scf accuracy    <      23.60051074 Ry

[...]

     total energy              =    -665.24018635 Ry
     Harris-Foulkes estimate   =    -665.24018610 Ry
     estimated scf accuracy    <       0.00000009 Ry

     iteration # 20     ecut=    58.80 Ry     beta=0.10
     Davidson diagonalization with overlap
     ethr =  1.86E-10,  avg # of iterations =  1.3

     negative rho (up, down):  6.733E-01 0.000E+00

     End of self-consistent calculation

          k = 0.0000 0.0000 0.0000 (  3959 PWs)   bands (ev):

   -45.7199 -45.6167 -45.6167 -32.3793 -32.3793 -32.3793 -14.6344 -14.6344
   -14.6344 -14.1552 -14.1552 -14.1552 -13.8680 -13.8680 -13.8680   8.6709
    12.0625  12.0625  12.3915  12.9077  12.9077  12.9077  16.4417  16.4417
    16.4417  18.1115  18.1115  19.1426  19.1426  19.1426  21.3333  21.3333
    21.3333  22.1760  22.1760  23.4363  24.1171  24.1171  24.1171  26.1518
    26.4547  26.4547  26.4547  27.9001  27.9001

[...]

          k = 0.0971-0.1165-0.1165 (  4064 PWs)   bands (ev):

[...]

          k =-0.1165-0.1165-0.1165 (  4032 PWs)   bands (ev):

   -45.6507 -45.6507 -45.6507 -32.3807 -32.3807 -32.3807 -14.9016 -14.5652
   -14.5652 -14.5652 -13.8970 -13.8970 -13.8970 -13.8905 -13.8905  11.7614
    11.9814  11.9814  11.9814  14.4988  14.4988  15.9146  15.9146  15.9146
    16.9707  16.9707  16.9707  17.4232  17.6228  17.6228  17.6228  20.7869
    20.7869  20.7869  21.7357  21.7357  23.4041  23.4041  23.4041  24.9514
    26.6172  26.6172  26.6172  28.1219  28.1429

     the Fermi energy is    16.4394 ev

!    total energy              =    -665.24018745 Ry
     Harris-Foulkes estimate   =    -665.24018635 Ry
     estimated scf accuracy    <          5.1E-09 Ry

     The total energy is the sum of the following terms:

     one-electron contribution =     -75.70705519 Ry
     hartree contribution      =      64.34057407 Ry
     xc contribution           =    -284.33165327 Ry
     ewald contribution        =    -369.52895267 Ry
     smearing contrib. (-TS)   =      -0.01310039 Ry

     convergence has been achieved in  20 iterations

     Forces acting on atoms (Ry/au):

     negative rho (up, down):  6.733E-01 0.000E+00
     atom    1 type  1   force =     0.00000000   -0.00000000    0.00000000
     atom    2 type  1   force =     0.00000000    0.00000000    0.00000000
     atom    3 type  1   force =     0.00000000    0.00000000   -0.00000000
     atom    4 type  2   force =     0.00000000    0.00000000    0.00000000

     Total force =     0.000000     Total SCF correction =     0.000000
 !ASE

     General routines

     Parallel routines

   This run was terminated on:   5:14:36  25Oct2017

   JOB DONE.