     Program PWSCF v.5.1rc2 (svn rev. ) starts on 31Oct2017 at 17: 9:13

     Current dimensions of program PWSCF are:
     Max number of different atomic species (ntypx) = 10
     Max number of k-points (npk) =  40000
     Max angular momentum in pseudopotentials (lmaxx) =  3

     IMPORTANT: XC functional enforced from input :
     Exchange-correlation      = BEEF-VDW ( 1  4 27 13 2)
     Any further DFT definition will be discarded
     Please, verify this is what you really want

     Subspace diagonalization in iterative solution of the eigenvalue problem:
     a serial algorithm will be used

     bravais-lattice index     =            0
     lattice parameter (alat)  =       1.8897  a.u.
     unit-cell volume          =     607.0353 (a.u.)^3
     number of atoms/cell      =            4
     number of atomic types    =            2
     number of electrons       =        59.00
     number of Kohn-Sham states=           49
     kinetic-energy cutoff     =      58.7989  Ry
     charge density cutoff     =     587.9892  Ry
     convergence threshold     =      7.3E-09
     mixing beta               =       0.1000
     number of iterations used =           10  local-TF  mixing
     Exchange-correlation      = BEEF-VDW ( 1  4 27 13 2)
     nstep                     =           50

     celldm(1)=   1.889726  celldm(2)=   0.000000  celldm(3)=   0.000000
     celldm(4)=   0.000000  celldm(5)=   0.000000  celldm(6)=   0.000000

     crystal axes: (cart. coord. in units of alat)
               a(1) = (   4.480630   0.000000   0.000000 )
               a(2) = (   0.000000   4.480630   0.000000 )
               a(3) = (   0.000000   0.000000   4.480630 )

     reciprocal axes: (cart. coord. in units 2 pi/alat)
               b(1) = (  0.223183  0.000000  0.000000 )
               b(2) = (  0.000000  0.223183  0.000000 )
               b(3) = (  0.000000  0.000000  0.223183 )

     PseudoPot. # 1 for Sn read from file:
     /home/vossj/suncat/psp/gbrv1.5pbe/Sn.UPF
     MD5 check sum: 469debedee59599fedebd795477fea03
     Pseudo is Ultrasoft + core correction, Zval = 14.0
     Generated by new atomic code, or converted to UPF format
     Using radial grid of  891 points,  6 beta functions with:
                l(1) =   0
                l(2) =   0
                l(3) =   1
                l(4) =   1
                l(5) =   2
                l(6) =   2
     Q(r) pseudized with  8 coefficients,  rinner =    1.350   1.350   1.350
                                                       1.350   1.350

     PseudoPot. # 2 for Co read from file:
     /home/vossj/suncat/psp/gbrv1.5pbe/Co.UPF
     MD5 check sum: 5f91765df6ddd3222702df6e7b74a16d
     Pseudo is Ultrasoft + core correction, Zval = 17.0
     Generated by new atomic code, or converted to UPF format
     Using radial grid of  863 points,  6 beta functions with:
                l(1) =   0
                l(2) =   0
                l(3) =   1
                l(4) =   1
                l(5) =   2
                l(6) =   2
     Q(r) pseudized with  8 coefficients,  rinner =    1.200   1.200   1.200
                                                       1.200   1.200

     vdW kernel table read from file vdW_kernel_table
     MD5 check sum: 095c7af220d748ca6e76c0b4c6cfb241

     atomic species   valence    mass     pseudopotential
        Sn1           14.00   118.71000     Sn( 1.00)
        Co1           17.00    58.93319     Co( 1.00)

     48 Sym. Ops., with inversion, found (32 have fractional translation)

   Cartesian axes

     site n.     atom                  positions (alat units)
         1           Sn1 tau(   1) = (   0.0000000   0.0000000   0.0000000  )
         2           Sn1 tau(   2) = (   0.0000000   2.2403152   2.2403152  )
         3           Sn1 tau(   3) = (   2.2403152   0.0000000   2.2403152  )
         4           Co1 tau(   4) = (   2.2403152   2.2403152   0.0000000  )

     number of k points=    84  Fermi-Dirac smearing, width (Ry)=  0.0073
                       cart. coord. in units 2pi/alat
        k(    1) = (   0.0000000   0.0000000   0.0000000), wk =   0.0011574
        k(    2) = (   0.0000000   0.0000000   0.0185986), wk =   0.0069444
        k(    3) = (   0.0000000   0.0000000   0.0371971), wk =   0.0069444
        k(    4) = (   0.0000000   0.0000000   0.0557957), wk =   0.0069444
        k(    5) = (   0.0000000   0.0000000   0.0743943), wk =   0.0069444
        k(    6) = (   0.0000000   0.0000000   0.0929929), wk =   0.0069444
        k(    7) = (   0.0000000   0.0000000  -0.1115914), wk =   0.0034722
        k(    8) = (   0.0000000   0.0185986   0.0185986), wk =   0.0138889
        k(    9) = (   0.0000000   0.0185986   0.0371971), wk =   0.0277778
        k(   10) = (   0.0000000   0.0185986   0.0557957), wk =   0.0277778
        k(   11) = (   0.0000000   0.0185986   0.0743943), wk =   0.0277778
        k(   12) = (   0.0000000   0.0185986   0.0929929), wk =   0.0277778
        k(   13) = (   0.0000000   0.0185986  -0.1115914), wk =   0.0138889
        k(   14) = (   0.0000000   0.0371971   0.0371971), wk =   0.0138889
        k(   15) = (   0.0000000   0.0371971   0.0557957), wk =   0.0277778
        k(   16) = (   0.0000000   0.0371971   0.0743943), wk =   0.0277778
        k(   17) = (   0.0000000   0.0371971   0.0929929), wk =   0.0277778
        k(   18) = (   0.0000000   0.0371971  -0.1115914), wk =   0.0138889
        k(   19) = (   0.0000000   0.0557957   0.0557957), wk =   0.0138889
        k(   20) = (   0.0000000   0.0557957   0.0743943), wk =   0.0277778
        k(   21) = (   0.0000000   0.0557957   0.0929929), wk =   0.0277778
        k(   22) = (   0.0000000   0.0557957  -0.1115914), wk =   0.0138889
        k(   23) = (   0.0000000   0.0743943   0.0743943), wk =   0.0138889
        k(   24) = (   0.0000000   0.0743943   0.0929929), wk =   0.0277778
        k(   25) = (   0.0000000   0.0743943  -0.1115914), wk =   0.0138889
        k(   26) = (   0.0000000   0.0929929   0.0929929), wk =   0.0138889
        k(   27) = (   0.0000000   0.0929929  -0.1115914), wk =   0.0138889
        k(   28) = (   0.0000000  -0.1115914  -0.1115914), wk =   0.0034722
        k(   29) = (   0.0185986   0.0185986   0.0185986), wk =   0.0092593
        k(   30) = (   0.0185986   0.0185986   0.0371971), wk =   0.0277778
        k(   31) = (   0.0185986   0.0185986   0.0557957), wk =   0.0277778
        k(   32) = (   0.0185986   0.0185986   0.0743943), wk =   0.0277778
        k(   33) = (   0.0185986   0.0185986   0.0929929), wk =   0.0277778
        k(   34) = (   0.0185986   0.0185986  -0.1115914), wk =   0.0138889
        k(   35) = (   0.0185986   0.0371971   0.0371971), wk =   0.0277778
        k(   36) = (   0.0185986   0.0371971   0.0557957), wk =   0.0555556
        k(   37) = (   0.0185986   0.0371971   0.0743943), wk =   0.0555556
        k(   38) = (   0.0185986   0.0371971   0.0929929), wk =   0.0555556
        k(   39) = (   0.0185986   0.0371971  -0.1115914), wk =   0.0277778
        k(   40) = (   0.0185986   0.0557957   0.0557957), wk =   0.0277778
        k(   41) = (   0.0185986   0.0557957   0.0743943), wk =   0.0555556
        k(   42) = (   0.0185986   0.0557957   0.0929929), wk =   0.0555556
        k(   43) = (   0.0185986   0.0557957  -0.1115914), wk =   0.0277778
        k(   44) = (   0.0185986   0.0743943   0.0743943), wk =   0.0277778
        k(   45) = (   0.0185986   0.0743943   0.0929929), wk =   0.0555556
        k(   46) = (   0.0185986   0.0743943  -0.1115914), wk =   0.0277778
        k(   47) = (   0.0185986   0.0929929   0.0929929), wk =   0.0277778
        k(   48) = (   0.0185986   0.0929929  -0.1115914), wk =   0.0277778
        k(   49) = (   0.0185986  -0.1115914  -0.1115914), wk =   0.0069444
        k(   50) = (   0.0371971   0.0371971   0.0371971), wk =   0.0092593
        k(   51) = (   0.0371971   0.0371971   0.0557957), wk =   0.0277778
        k(   52) = (   0.0371971   0.0371971   0.0743943), wk =   0.0277778
        k(   53) = (   0.0371971   0.0371971   0.0929929), wk =   0.0277778
        k(   54) = (   0.0371971   0.0371971  -0.1115914), wk =   0.0138889
        k(   55) = (   0.0371971   0.0557957   0.0557957), wk =   0.0277778
        k(   56) = (   0.0371971   0.0557957   0.0743943), wk =   0.0555556
        k(   57) = (   0.0371971   0.0557957   0.0929929), wk =   0.0555556
        k(   58) = (   0.0371971   0.0557957  -0.1115914), wk =   0.0277778
        k(   59) = (   0.0371971   0.0743943   0.0743943), wk =   0.0277778
        k(   60) = (   0.0371971   0.0743943   0.0929929), wk =   0.0555556
[...]
        k(   70) = (   0.0557957   0.0743943   0.0929929), wk =   0.0555556
        k(   71) = (   0.0557957   0.0743943  -0.1115914), wk =   0.0277778
        k(   72) = (   0.0557957   0.0929929   0.0929929), wk =   0.0277778
        k(   73) = (   0.0557957   0.0929929  -0.1115914), wk =   0.0277778
        k(   74) = (   0.0557957  -0.1115914  -0.1115914), wk =   0.0069444
        k(   75) = (   0.0743943   0.0743943   0.0743943), wk =   0.0092593
        k(   76) = (   0.0743943   0.0743943   0.0929929), wk =   0.0277778
        k(   77) = (   0.0743943   0.0743943  -0.1115914), wk =   0.0138889
        k(   78) = (   0.0743943   0.0929929   0.0929929), wk =   0.0277778
        k(   79) = (   0.0743943   0.0929929  -0.1115914), wk =   0.0277778
        k(   80) = (   0.0743943  -0.1115914  -0.1115914), wk =   0.0069444
        k(   81) = (   0.0929929   0.0929929   0.0929929), wk =   0.0092593
        k(   82) = (   0.0929929   0.0929929  -0.1115914), wk =   0.0138889
        k(   83) = (   0.0929929  -0.1115914  -0.1115914), wk =   0.0069444
        k(   84) = (  -0.1115914  -0.1115914  -0.1115914), wk =   0.0011574

     Largest allocated arrays     est. size (Mb)     dimensions
     Largest temporary arrays     est. size (Mb)     dimensions

     Check: negative/imaginary core charge=   -0.000008    0.000000

     Initial potential from superposition of free atoms

     starting charge   54.99986, renormalised to   59.00000

     *
     * You are using vdW-DF for exchange-correlation in this calculation.
     * Please cite the following three references that made this development
     * possible:
     *
     *   M. Dion, H. Rydberg, E. Schroder, D. C. Langreth, and
     *   B. I. Lundqvist, Phys. Rev. Lett. 92, 246401 (2004).
     *
     *   T. Thonhauser, V. R. Cooper, S. Li, A. Puzder, P. Hyldgaard, and
     *   D. C. Langreth, Phys. Rev. B 76, 125112 (2007).
     *
     *   G. Roman-Perez and J. M. Soler, Phys. Rev. Lett. 103, 096102 (2009).
     *
     *
     * If you are using vdW-DF2, please also cite:
     *
     *   K. Lee, E. D. Murray, L. Kong, B. I. Lundqvist, and
     *   D. C. Langreth, Phys. Rev. B 82, 081101(R) (2010).
     *
     *
     * If you are calculating the stress with vdW-DF, please also cite:
     *
     *   R. Sabatini, E. Kucukbenli, B. Kolb, T. Thonhauser, and
     *   S. de Gironcoli, J. Phys.: Condens. Matter 24, 424209 (2012).
     *

     Carrying out vdW-DF run using the following parameters:

     Nqs =      20    Nr_points =    1024   r_max =   100.000
     q_mesh =
               0.00001000     0.04494208     0.09755937     0.15916263
               0.23128650     0.31572767     0.41458969     0.53033537
               0.66584808     0.82450364     1.01025438     1.22772762
               1.48234092     1.78043706     2.12944203     2.53805004
               3.01644009     3.57652955     4.23227104     5.00000000

     Gradients computed in reciprocal space

     Starting wfc are   40 randomized atomic wfcs +    9 random wfc

     Self-consistent Calculation

     iteration #  1     ecut=    58.80 Ry     beta=0.10
     Davidson diagonalization with overlap
     ethr =  1.00E-02,  avg # of iterations =  5.1

     total energy              =    -784.75056185 Ry
     Harris-Foulkes estimate   =    -787.23037817 Ry
     estimated scf accuracy    <      42.21841188 Ry

[...]

     total energy              =    -781.56686762 Ry
     Harris-Foulkes estimate   =    -781.56686763 Ry
     estimated scf accuracy    <       0.00000003 Ry

     iteration # 66     ecut=    58.80 Ry     beta=0.10
     Davidson diagonalization with overlap
     ethr =  5.48E-11,  avg # of iterations =  2.0

     End of self-consistent calculation

          k = 0.0000 0.0000 0.0000 (  4625 PWs)   bands (ev):

   -81.9738 -45.3185 -45.3185 -45.3185 -10.1644 -10.1644 -10.1644 -10.1498
   -10.0009 -10.0009  -9.8967  -9.8967  -9.8954  -9.8954  -9.8954  -9.7837
    -9.7837  -9.7837  -9.7831   0.6528   7.5974   7.5974   8.7826   8.7826
     8.7826  11.3940  11.3940  11.3940  11.8069  11.8069  12.2714  15.1259
    15.1259  15.1259  16.6961  16.6961  16.6961  19.7321  19.7321  19.7321
    19.9359  19.9359  20.5603  23.7815  23.7815  23.7815  24.4114  26.8668
    26.8668

[...]

          k = 0.0930-0.1116-0.1116 (  4656 PWs)   bands (ev):

[...]

          k =-0.1116-0.1116-0.1116 (  4680 PWs)   bands (ev):

   -81.9738 -45.3186 -45.3186 -45.3186 -10.0836 -10.0836 -10.0836 -10.0405
   -10.0405 -10.0405 -10.0087  -9.9190  -9.9190  -9.9190  -9.8625  -9.8625
    -9.7952  -9.7952  -9.7952   5.1780   5.1780   5.1780   6.5267   8.0594
     8.0594   8.0594  11.1321  11.5523  11.5523  11.8273  11.8273  11.8273
    19.2412  19.2412  19.8662  19.8662  19.8662  22.7650  22.7650  22.7650
    23.1094  24.1586  24.1586  24.1586  24.2433  24.2433  24.2433  24.4322
    24.4322

     the Fermi energy is    12.0153 ev

!    total energy              =    -781.56686763 Ry
     Harris-Foulkes estimate   =    -781.56686763 Ry
     estimated scf accuracy    <          3.8E-09 Ry

     The total energy is the sum of the following terms:

     one-electron contribution =    -364.87550809 Ry
     hartree contribution      =     223.78569906 Ry
     xc contribution           =    -167.43886890 Ry
     ewald contribution        =    -473.02683418 Ry
     smearing contrib. (-TS)   =      -0.01135552 Ry

     convergence has been achieved in  66 iterations

     Forces acting on atoms (Ry/au):

     atom    1 type  1   force =     0.00000000    0.00000000    0.00000000
     atom    2 type  1   force =     0.00000000    0.00000000    0.00000000
     atom    3 type  1   force =     0.00000000    0.00000000   -0.00000000
     atom    4 type  2   force =     0.00000000    0.00000000    0.00000000

     Total force =     0.000000     Total SCF correction =     0.000000
 !ASE

     General routines

     Parallel routines

   This run was terminated on:  17:14:32  31Oct2017

   JOB DONE.