     Program PWSCF v.5.1rc2 (svn rev. ) starts on 31Oct2017 at 14: 2:47

     Current dimensions of program PWSCF are:
     Max number of different atomic species (ntypx) = 10
     Max number of k-points (npk) =  40000
     Max angular momentum in pseudopotentials (lmaxx) =  3

     IMPORTANT: XC functional enforced from input :
     Exchange-correlation      = BEEF-VDW ( 1  4 27 13 2)
     Any further DFT definition will be discarded
     Please, verify this is what you really want

     Subspace diagonalization in iterative solution of the eigenvalue problem:
     a serial algorithm will be used

     bravais-lattice index     =            0
     lattice parameter (alat)  =       1.8897  a.u.
     unit-cell volume          =     447.5803 (a.u.)^3
     number of atoms/cell      =            4
     number of atomic types    =            2
     number of electrons       =        50.00
     number of Kohn-Sham states=           45
     kinetic-energy cutoff     =      58.7989  Ry
     charge density cutoff     =     587.9892  Ry
     convergence threshold     =      7.3E-09
     mixing beta               =       0.1000
     number of iterations used =           10  local-TF  mixing
     Exchange-correlation      = BEEF-VDW ( 1  4 27 13 2)
     nstep                     =           50

     celldm(1)=   1.889726  celldm(2)=   0.000000  celldm(3)=   0.000000
     celldm(4)=   0.000000  celldm(5)=   0.000000  celldm(6)=   0.000000

     crystal axes: (cart. coord. in units of alat)
               a(1) = (   4.047853   0.000000   0.000000 )
               a(2) = (   0.000000   4.047853   0.000000 )
               a(3) = (   0.000000   0.000000   4.047853 )

     reciprocal axes: (cart. coord. in units 2 pi/alat)
               b(1) = (  0.247045  0.000000  0.000000 )
               b(2) = (  0.000000  0.247045  0.000000 )
               b(3) = (  0.000000  0.000000  0.247045 )

     PseudoPot. # 1 for Au read from file:
     /home/vossj/suncat/psp/gbrv1.5pbe/Au.UPF
     MD5 check sum: 9d7f43293ad2c663164586bc4b293ffc
     Pseudo is Ultrasoft + core correction, Zval = 11.0
     Generated by new atomic code, or converted to UPF format
     Using radial grid of  985 points,  7 beta functions with:
                l(1) =   0
                l(2) =   0
                l(3) =   1
                l(4) =   1
                l(5) =   2
                l(6) =   2
                l(7) =   3
     Q(r) pseudized with  6 coefficients,  rinner =    1.900   1.900   1.900
                                                       1.900   1.900   1.900
                                                       1.900

     PseudoPot. # 2 for Co read from file:
     /home/vossj/suncat/psp/gbrv1.5pbe/Co.UPF
     MD5 check sum: 5f91765df6ddd3222702df6e7b74a16d
     Pseudo is Ultrasoft + core correction, Zval = 17.0
     Generated by new atomic code, or converted to UPF format
     Using radial grid of  863 points,  6 beta functions with:
                l(1) =   0
                l(2) =   0
                l(3) =   1
                l(4) =   1
                l(5) =   2
                l(6) =   2
     Q(r) pseudized with  8 coefficients,  rinner =    1.200   1.200   1.200
                                                       1.200   1.200

     vdW kernel table read from file vdW_kernel_table
     MD5 check sum: 095c7af220d748ca6e76c0b4c6cfb241

     atomic species   valence    mass     pseudopotential
        Au1           11.00   196.96657     Au( 1.00)
        Co1           17.00    58.93319     Co( 1.00)

     48 Sym. Ops., with inversion, found (32 have fractional translation)

   Cartesian axes

     site n.     atom                  positions (alat units)
         1           Au1 tau(   1) = (   0.0000000   0.0000000   0.0000000  )
         2           Au1 tau(   2) = (   0.0000000   2.0239267   2.0239267  )
         3           Au1 tau(   3) = (   2.0239267   0.0000000   2.0239267  )
         4           Co1 tau(   4) = (   2.0239267   2.0239267   0.0000000  )

     number of k points=    84  Fermi-Dirac smearing, width (Ry)=  0.0073
                       cart. coord. in units 2pi/alat
        k(    1) = (   0.0000000   0.0000000   0.0000000), wk =   0.0011574
        k(    2) = (   0.0000000   0.0000000   0.0205870), wk =   0.0069444
        k(    3) = (   0.0000000   0.0000000   0.0411741), wk =   0.0069444
        k(    4) = (   0.0000000   0.0000000   0.0617611), wk =   0.0069444
        k(    5) = (   0.0000000   0.0000000   0.0823482), wk =   0.0069444
        k(    6) = (   0.0000000   0.0000000   0.1029352), wk =   0.0069444
        k(    7) = (   0.0000000   0.0000000  -0.1235223), wk =   0.0034722
        k(    8) = (   0.0000000   0.0205870   0.0205870), wk =   0.0138889
        k(    9) = (   0.0000000   0.0205870   0.0411741), wk =   0.0277778
        k(   10) = (   0.0000000   0.0205870   0.0617611), wk =   0.0277778
        k(   11) = (   0.0000000   0.0205870   0.0823482), wk =   0.0277778
        k(   12) = (   0.0000000   0.0205870   0.1029352), wk =   0.0277778
        k(   13) = (   0.0000000   0.0205870  -0.1235223), wk =   0.0138889
        k(   14) = (   0.0000000   0.0411741   0.0411741), wk =   0.0138889
        k(   15) = (   0.0000000   0.0411741   0.0617611), wk =   0.0277778
        k(   16) = (   0.0000000   0.0411741   0.0823482), wk =   0.0277778
        k(   17) = (   0.0000000   0.0411741   0.1029352), wk =   0.0277778
        k(   18) = (   0.0000000   0.0411741  -0.1235223), wk =   0.0138889
        k(   19) = (   0.0000000   0.0617611   0.0617611), wk =   0.0138889
        k(   20) = (   0.0000000   0.0617611   0.0823482), wk =   0.0277778
        k(   21) = (   0.0000000   0.0617611   0.1029352), wk =   0.0277778
        k(   22) = (   0.0000000   0.0617611  -0.1235223), wk =   0.0138889
        k(   23) = (   0.0000000   0.0823482   0.0823482), wk =   0.0138889
        k(   24) = (   0.0000000   0.0823482   0.1029352), wk =   0.0277778
        k(   25) = (   0.0000000   0.0823482  -0.1235223), wk =   0.0138889
        k(   26) = (   0.0000000   0.1029352   0.1029352), wk =   0.0138889
        k(   27) = (   0.0000000   0.1029352  -0.1235223), wk =   0.0138889
        k(   28) = (   0.0000000  -0.1235223  -0.1235223), wk =   0.0034722
        k(   29) = (   0.0205870   0.0205870   0.0205870), wk =   0.0092593
        k(   30) = (   0.0205870   0.0205870   0.0411741), wk =   0.0277778
        k(   31) = (   0.0205870   0.0205870   0.0617611), wk =   0.0277778
        k(   32) = (   0.0205870   0.0205870   0.0823482), wk =   0.0277778
        k(   33) = (   0.0205870   0.0205870   0.1029352), wk =   0.0277778
        k(   34) = (   0.0205870   0.0205870  -0.1235223), wk =   0.0138889
        k(   35) = (   0.0205870   0.0411741   0.0411741), wk =   0.0277778
        k(   36) = (   0.0205870   0.0411741   0.0617611), wk =   0.0555556
        k(   37) = (   0.0205870   0.0411741   0.0823482), wk =   0.0555556
        k(   38) = (   0.0205870   0.0411741   0.1029352), wk =   0.0555556
        k(   39) = (   0.0205870   0.0411741  -0.1235223), wk =   0.0277778
        k(   40) = (   0.0205870   0.0617611   0.0617611), wk =   0.0277778
        k(   41) = (   0.0205870   0.0617611   0.0823482), wk =   0.0555556
        k(   42) = (   0.0205870   0.0617611   0.1029352), wk =   0.0555556
        k(   43) = (   0.0205870   0.0617611  -0.1235223), wk =   0.0277778
        k(   44) = (   0.0205870   0.0823482   0.0823482), wk =   0.0277778
        k(   45) = (   0.0205870   0.0823482   0.1029352), wk =   0.0555556
        k(   46) = (   0.0205870   0.0823482  -0.1235223), wk =   0.0277778
        k(   47) = (   0.0205870   0.1029352   0.1029352), wk =   0.0277778
        k(   48) = (   0.0205870   0.1029352  -0.1235223), wk =   0.0277778
        k(   49) = (   0.0205870  -0.1235223  -0.1235223), wk =   0.0069444
        k(   50) = (   0.0411741   0.0411741   0.0411741), wk =   0.0092593
        k(   51) = (   0.0411741   0.0411741   0.0617611), wk =   0.0277778
        k(   52) = (   0.0411741   0.0411741   0.0823482), wk =   0.0277778
        k(   53) = (   0.0411741   0.0411741   0.1029352), wk =   0.0277778
        k(   54) = (   0.0411741   0.0411741  -0.1235223), wk =   0.0138889
        k(   55) = (   0.0411741   0.0617611   0.0617611), wk =   0.0277778
        k(   56) = (   0.0411741   0.0617611   0.0823482), wk =   0.0555556
        k(   57) = (   0.0411741   0.0617611   0.1029352), wk =   0.0555556
        k(   58) = (   0.0411741   0.0617611  -0.1235223), wk =   0.0277778
        k(   59) = (   0.0411741   0.0823482   0.0823482), wk =   0.0277778
        k(   60) = (   0.0411741   0.0823482   0.1029352), wk =   0.0555556
[...]
        k(   70) = (   0.0617611   0.0823482   0.1029352), wk =   0.0555556
        k(   71) = (   0.0617611   0.0823482  -0.1235223), wk =   0.0277778
        k(   72) = (   0.0617611   0.1029352   0.1029352), wk =   0.0277778
        k(   73) = (   0.0617611   0.1029352  -0.1235223), wk =   0.0277778
        k(   74) = (   0.0617611  -0.1235223  -0.1235223), wk =   0.0069444
        k(   75) = (   0.0823482   0.0823482   0.0823482), wk =   0.0092593
        k(   76) = (   0.0823482   0.0823482   0.1029352), wk =   0.0277778
        k(   77) = (   0.0823482   0.0823482  -0.1235223), wk =   0.0138889
        k(   78) = (   0.0823482   0.1029352   0.1029352), wk =   0.0277778
        k(   79) = (   0.0823482   0.1029352  -0.1235223), wk =   0.0277778
        k(   80) = (   0.0823482  -0.1235223  -0.1235223), wk =   0.0069444
        k(   81) = (   0.1029352   0.1029352   0.1029352), wk =   0.0092593
        k(   82) = (   0.1029352   0.1029352  -0.1235223), wk =   0.0138889
        k(   83) = (   0.1029352  -0.1235223  -0.1235223), wk =   0.0069444
        k(   84) = (  -0.1235223  -0.1235223  -0.1235223), wk =   0.0011574

     Largest allocated arrays     est. size (Mb)     dimensions
     Largest temporary arrays     est. size (Mb)     dimensions

     Check: negative/imaginary core charge=   -0.000006    0.000000

     Initial potential from superposition of free atoms

     starting charge   48.99963, renormalised to   50.00000

     *
     * You are using vdW-DF for exchange-correlation in this calculation.
     * Please cite the following three references that made this development
     * possible:
     *
     *   M. Dion, H. Rydberg, E. Schroder, D. C. Langreth, and
     *   B. I. Lundqvist, Phys. Rev. Lett. 92, 246401 (2004).
     *
     *   T. Thonhauser, V. R. Cooper, S. Li, A. Puzder, P. Hyldgaard, and
     *   D. C. Langreth, Phys. Rev. B 76, 125112 (2007).
     *
     *   G. Roman-Perez and J. M. Soler, Phys. Rev. Lett. 103, 096102 (2009).
     *
     *
     * If you are using vdW-DF2, please also cite:
     *
     *   K. Lee, E. D. Murray, L. Kong, B. I. Lundqvist, and
     *   D. C. Langreth, Phys. Rev. B 82, 081101(R) (2010).
     *
     *
     * If you are calculating the stress with vdW-DF, please also cite:
     *
     *   R. Sabatini, E. Kucukbenli, B. Kolb, T. Thonhauser, and
     *   S. de Gironcoli, J. Phys.: Condens. Matter 24, 424209 (2012).
     *

     Carrying out vdW-DF run using the following parameters:

     Nqs =      20    Nr_points =    1024   r_max =   100.000
     q_mesh =
               0.00001000     0.04494208     0.09755937     0.15916263
               0.23128650     0.31572767     0.41458969     0.53033537
               0.66584808     0.82450364     1.01025438     1.22772762
               1.48234092     1.78043706     2.12944203     2.53805004
               3.01644009     3.57652955     4.23227104     5.00000000

     Gradients computed in reciprocal space

     Starting wfc are   40 randomized atomic wfcs +    5 random wfc

     Self-consistent Calculation

     iteration #  1     ecut=    58.80 Ry     beta=0.10
     Davidson diagonalization with overlap
     ethr =  1.00E-02,  avg # of iterations =  5.2

     total energy              =    -649.84779357 Ry
     Harris-Foulkes estimate   =    -649.94345925 Ry
     estimated scf accuracy    <       1.66483668 Ry

[...]

     iteration #  8     ecut=    58.80 Ry     beta=0.10
     Davidson diagonalization with overlap
     c_bands:  1 eigenvalues not converged
     ethr =  4.50E-07,  avg # of iterations =  4.3

[...]

     total energy              =    -649.62120729 Ry
     Harris-Foulkes estimate   =    -649.62120693 Ry
     estimated scf accuracy    <       0.00000002 Ry

     iteration # 15     ecut=    58.80 Ry     beta=0.10
     Davidson diagonalization with overlap
     ethr =  3.50E-11,  avg # of iterations =  2.1

     End of self-consistent calculation

          k = 0.0000 0.0000 0.0000 (  3407 PWs)   bands (ev):

   -79.7095 -43.0427 -43.0427 -43.0427   5.3865   7.5693   8.2613   8.2613
     8.2613   8.3949   8.3949  10.6185  10.6185  10.6185  11.6976  11.6976
    12.4767  12.8451  12.8451  12.8451  14.2365  14.2365  14.5340  14.5340
    14.5340  16.0362  16.0362  16.0362  20.3705  20.3705  22.0776  24.7818
    24.7818  24.7818  25.6262  25.6262  25.6262  30.4343  31.5663  31.5663
    32.5799  33.2869  33.2869  33.2869  34.0931

[...]

          k = 0.1029-0.1235-0.1235 (  3408 PWs)   bands (ev):

[...]

          k =-0.1235-0.1235-0.1235 (  3448 PWs)   bands (ev):

   -79.7095 -43.0430 -43.0430 -43.0430   7.8146   7.8146   7.8146   7.8484
     9.7427   9.7427   9.7427  10.5782  10.5782  10.5782  11.0857  11.0857
    12.5197  12.5197  12.5197  13.8881  14.0701  14.0701  14.0701  14.1129
    14.1129  14.1129  14.3385  14.3385  17.6498  17.6498  17.6498  19.4950
    29.4990  29.8200  29.8200  29.8200  31.6033  31.6033  31.6033  32.3718
    32.3718  33.4245  33.4245  33.4245  34.5267

     the Fermi energy is    14.3492 ev

!    total energy              =    -649.62120892 Ry
     Harris-Foulkes estimate   =    -649.62120730 Ry
     estimated scf accuracy    <          8.5E-10 Ry

     The total energy is the sum of the following terms:

     one-electron contribution =    -183.05338324 Ry
     hartree contribution      =     141.93142826 Ry
     xc contribution           =    -225.91077762 Ry
     ewald contribution        =    -382.57155618 Ry
     smearing contrib. (-TS)   =      -0.01692014 Ry

     convergence has been achieved in  15 iterations

     Forces acting on atoms (Ry/au):

     atom    1 type  1   force =     0.00000000    0.00000000    0.00000000
     atom    2 type  1   force =     0.00000000    0.00000000    0.00000000
     atom    3 type  1   force =     0.00000000    0.00000000   -0.00000000
     atom    4 type  2   force =     0.00000000   -0.00000000    0.00000000

     Total force =     0.000000     Total SCF correction =     0.000000
 !ASE

     General routines

     Parallel routines

   This run was terminated on:  14: 3:53  31Oct2017

   JOB DONE.