     Program PWSCF v.5.1rc2 (svn rev. ) starts on 25Oct2017 at 11:29: 2

     Current dimensions of program PWSCF are:
     Max number of different atomic species (ntypx) = 10
     Max number of k-points (npk) =  40000
     Max angular momentum in pseudopotentials (lmaxx) =  3

     IMPORTANT: XC functional enforced from input :
     Exchange-correlation      = BEEF-VDW ( 1  4 27 13 2)
     Any further DFT definition will be discarded
     Please, verify this is what you really want

     Subspace diagonalization in iterative solution of the eigenvalue problem:
     a serial algorithm will be used

     bravais-lattice index     =            0
     lattice parameter (alat)  =       1.8897  a.u.
     unit-cell volume          =     721.8964 (a.u.)^3
     number of atoms/cell      =            4
     number of atomic types    =            2
     number of electrons       =        58.00
     number of Kohn-Sham states=           49
     kinetic-energy cutoff     =      58.7989  Ry
     charge density cutoff     =     587.9892  Ry
     convergence threshold     =      7.3E-09
     mixing beta               =       0.1000
     number of iterations used =           10  local-TF  mixing
     Exchange-correlation      = BEEF-VDW ( 1  4 27 13 2)
     nstep                     =           50

     celldm(1)=   1.889726  celldm(2)=   0.000000  celldm(3)=   0.000000
     celldm(4)=   0.000000  celldm(5)=   0.000000  celldm(6)=   0.000000

     crystal axes: (cart. coord. in units of alat)
               a(1) = (   4.747075   0.000000   0.000000 )
               a(2) = (   0.000000   4.747075   0.000000 )
               a(3) = (   0.000000   0.000000   4.747075 )

     reciprocal axes: (cart. coord. in units 2 pi/alat)
               b(1) = (  0.210656  0.000000  0.000000 )
               b(2) = (  0.000000  0.210656  0.000000 )
               b(3) = (  0.000000  0.000000  0.210656 )

     PseudoPot. # 1 for Pb read from file:
     /home/vossj/suncat/psp/gbrv1.5pbe/Pb.UPF
     MD5 check sum: 3d1c1779aa92214d1e8f3a7db79003e2
     Pseudo is Ultrasoft + core correction, Zval = 14.0
     Generated by new atomic code, or converted to UPF format
     Using radial grid of  899 points,  6 beta functions with:
                l(1) =   0
                l(2) =   0
                l(3) =   1
                l(4) =   1
                l(5) =   2
                l(6) =   2
     Q(r) pseudized with  6 coefficients,  rinner =    1.000   1.000   1.000
                                                       1.000   1.000

     PseudoPot. # 2 for Pt read from file:
     /home/vossj/suncat/psp/gbrv1.5pbe/Pt.UPF
     MD5 check sum: f09d6de1a584b5a045c4fc126da2d0c4
     Pseudo is Ultrasoft + core correction, Zval = 16.0
     Generated by new atomic code, or converted to UPF format
     Using radial grid of  985 points,  6 beta functions with:
                l(1) =   0
                l(2) =   0
                l(3) =   1
                l(4) =   1
                l(5) =   2
                l(6) =   2
     Q(r) pseudized with  8 coefficients,  rinner =    1.300   1.300   1.300
                                                       1.300   1.300

     vdW kernel table read from file vdW_kernel_table
     MD5 check sum: 095c7af220d748ca6e76c0b4c6cfb241

     atomic species   valence    mass     pseudopotential
        Pb1           14.00   207.20000     Pb( 1.00)
        Pt1           16.00   195.08400     Pt( 1.00)

     48 Sym. Ops., with inversion, found (32 have fractional translation)

   Cartesian axes

     site n.     atom                  positions (alat units)
         1           Pb1 tau(   1) = (   0.0000000   0.0000000   0.0000000  )
         2           Pb1 tau(   2) = (   0.0000000   2.3735375   2.3735375  )
         3           Pb1 tau(   3) = (   2.3735375   0.0000000   2.3735375  )
         4           Pt1 tau(   4) = (   2.3735375   2.3735375   0.0000000  )

     number of k points=    84  Fermi-Dirac smearing, width (Ry)=  0.0073
                       cart. coord. in units 2pi/alat
        k(    1) = (   0.0000000   0.0000000   0.0000000), wk =   0.0011574
        k(    2) = (   0.0000000   0.0000000   0.0175547), wk =   0.0069444
        k(    3) = (   0.0000000   0.0000000   0.0351093), wk =   0.0069444
        k(    4) = (   0.0000000   0.0000000   0.0526640), wk =   0.0069444
        k(    5) = (   0.0000000   0.0000000   0.0702187), wk =   0.0069444
        k(    6) = (   0.0000000   0.0000000   0.0877733), wk =   0.0069444
        k(    7) = (   0.0000000   0.0000000  -0.1053280), wk =   0.0034722
        k(    8) = (   0.0000000   0.0175547   0.0175547), wk =   0.0138889
        k(    9) = (   0.0000000   0.0175547   0.0351093), wk =   0.0277778
        k(   10) = (   0.0000000   0.0175547   0.0526640), wk =   0.0277778
        k(   11) = (   0.0000000   0.0175547   0.0702187), wk =   0.0277778
        k(   12) = (   0.0000000   0.0175547   0.0877733), wk =   0.0277778
        k(   13) = (   0.0000000   0.0175547  -0.1053280), wk =   0.0138889
        k(   14) = (   0.0000000   0.0351093   0.0351093), wk =   0.0138889
        k(   15) = (   0.0000000   0.0351093   0.0526640), wk =   0.0277778
        k(   16) = (   0.0000000   0.0351093   0.0702187), wk =   0.0277778
        k(   17) = (   0.0000000   0.0351093   0.0877733), wk =   0.0277778
        k(   18) = (   0.0000000   0.0351093  -0.1053280), wk =   0.0138889
        k(   19) = (   0.0000000   0.0526640   0.0526640), wk =   0.0138889
        k(   20) = (   0.0000000   0.0526640   0.0702187), wk =   0.0277778
        k(   21) = (   0.0000000   0.0526640   0.0877733), wk =   0.0277778
        k(   22) = (   0.0000000   0.0526640  -0.1053280), wk =   0.0138889
        k(   23) = (   0.0000000   0.0702187   0.0702187), wk =   0.0138889
        k(   24) = (   0.0000000   0.0702187   0.0877733), wk =   0.0277778
        k(   25) = (   0.0000000   0.0702187  -0.1053280), wk =   0.0138889
        k(   26) = (   0.0000000   0.0877733   0.0877733), wk =   0.0138889
        k(   27) = (   0.0000000   0.0877733  -0.1053280), wk =   0.0138889
        k(   28) = (   0.0000000  -0.1053280  -0.1053280), wk =   0.0034722
        k(   29) = (   0.0175547   0.0175547   0.0175547), wk =   0.0092593
        k(   30) = (   0.0175547   0.0175547   0.0351093), wk =   0.0277778
        k(   31) = (   0.0175547   0.0175547   0.0526640), wk =   0.0277778
        k(   32) = (   0.0175547   0.0175547   0.0702187), wk =   0.0277778
        k(   33) = (   0.0175547   0.0175547   0.0877733), wk =   0.0277778
        k(   34) = (   0.0175547   0.0175547  -0.1053280), wk =   0.0138889
        k(   35) = (   0.0175547   0.0351093   0.0351093), wk =   0.0277778
        k(   36) = (   0.0175547   0.0351093   0.0526640), wk =   0.0555556
        k(   37) = (   0.0175547   0.0351093   0.0702187), wk =   0.0555556
        k(   38) = (   0.0175547   0.0351093   0.0877733), wk =   0.0555556
        k(   39) = (   0.0175547   0.0351093  -0.1053280), wk =   0.0277778
        k(   40) = (   0.0175547   0.0526640   0.0526640), wk =   0.0277778
        k(   41) = (   0.0175547   0.0526640   0.0702187), wk =   0.0555556
        k(   42) = (   0.0175547   0.0526640   0.0877733), wk =   0.0555556
        k(   43) = (   0.0175547   0.0526640  -0.1053280), wk =   0.0277778
        k(   44) = (   0.0175547   0.0702187   0.0702187), wk =   0.0277778
        k(   45) = (   0.0175547   0.0702187   0.0877733), wk =   0.0555556
        k(   46) = (   0.0175547   0.0702187  -0.1053280), wk =   0.0277778
        k(   47) = (   0.0175547   0.0877733   0.0877733), wk =   0.0277778
        k(   48) = (   0.0175547   0.0877733  -0.1053280), wk =   0.0277778
        k(   49) = (   0.0175547  -0.1053280  -0.1053280), wk =   0.0069444
        k(   50) = (   0.0351093   0.0351093   0.0351093), wk =   0.0092593
        k(   51) = (   0.0351093   0.0351093   0.0526640), wk =   0.0277778
        k(   52) = (   0.0351093   0.0351093   0.0702187), wk =   0.0277778
        k(   53) = (   0.0351093   0.0351093   0.0877733), wk =   0.0277778
        k(   54) = (   0.0351093   0.0351093  -0.1053280), wk =   0.0138889
        k(   55) = (   0.0351093   0.0526640   0.0526640), wk =   0.0277778
        k(   56) = (   0.0351093   0.0526640   0.0702187), wk =   0.0555556
        k(   57) = (   0.0351093   0.0526640   0.0877733), wk =   0.0555556
        k(   58) = (   0.0351093   0.0526640  -0.1053280), wk =   0.0277778
        k(   59) = (   0.0351093   0.0702187   0.0702187), wk =   0.0277778
        k(   60) = (   0.0351093   0.0702187   0.0877733), wk =   0.0555556
[...]
        k(   70) = (   0.0526640   0.0702187   0.0877733), wk =   0.0555556
        k(   71) = (   0.0526640   0.0702187  -0.1053280), wk =   0.0277778
        k(   72) = (   0.0526640   0.0877733   0.0877733), wk =   0.0277778
        k(   73) = (   0.0526640   0.0877733  -0.1053280), wk =   0.0277778
        k(   74) = (   0.0526640  -0.1053280  -0.1053280), wk =   0.0069444
        k(   75) = (   0.0702187   0.0702187   0.0702187), wk =   0.0092593
        k(   76) = (   0.0702187   0.0702187   0.0877733), wk =   0.0277778
        k(   77) = (   0.0702187   0.0702187  -0.1053280), wk =   0.0138889
        k(   78) = (   0.0702187   0.0877733   0.0877733), wk =   0.0277778
        k(   79) = (   0.0702187   0.0877733  -0.1053280), wk =   0.0277778
        k(   80) = (   0.0702187  -0.1053280  -0.1053280), wk =   0.0069444
        k(   81) = (   0.0877733   0.0877733   0.0877733), wk =   0.0092593
        k(   82) = (   0.0877733   0.0877733  -0.1053280), wk =   0.0138889
        k(   83) = (   0.0877733  -0.1053280  -0.1053280), wk =   0.0069444
        k(   84) = (  -0.1053280  -0.1053280  -0.1053280), wk =   0.0011574

     Largest allocated arrays     est. size (Mb)     dimensions
     Largest temporary arrays     est. size (Mb)     dimensions

     Initial potential from superposition of free atoms
     Check: negative starting charge=   -0.230801

     starting charge   57.49293, renormalised to   58.00000

     negative rho (up, down):  2.328E-01 0.000E+00

     *
     * You are using vdW-DF for exchange-correlation in this calculation.
     * Please cite the following three references that made this development
     * possible:
     *
     *   M. Dion, H. Rydberg, E. Schroder, D. C. Langreth, and
     *   B. I. Lundqvist, Phys. Rev. Lett. 92, 246401 (2004).
     *
     *   T. Thonhauser, V. R. Cooper, S. Li, A. Puzder, P. Hyldgaard, and
     *   D. C. Langreth, Phys. Rev. B 76, 125112 (2007).
     *
     *   G. Roman-Perez and J. M. Soler, Phys. Rev. Lett. 103, 096102 (2009).
     *
     *
     * If you are using vdW-DF2, please also cite:
     *
     *   K. Lee, E. D. Murray, L. Kong, B. I. Lundqvist, and
     *   D. C. Langreth, Phys. Rev. B 82, 081101(R) (2010).
     *
     *
     * If you are calculating the stress with vdW-DF, please also cite:
     *
     *   R. Sabatini, E. Kucukbenli, B. Kolb, T. Thonhauser, and
     *   S. de Gironcoli, J. Phys.: Condens. Matter 24, 424209 (2012).
     *

     Carrying out vdW-DF run using the following parameters:

     Nqs =      20    Nr_points =    1024   r_max =   100.000
     q_mesh =
               0.00001000     0.04494208     0.09755937     0.15916263
               0.23128650     0.31572767     0.41458969     0.53033537
               0.66584808     0.82450364     1.01025438     1.22772762
               1.48234092     1.78043706     2.12944203     2.53805004
               3.01644009     3.57652955     4.23227104     5.00000000

     Gradients computed in reciprocal space

     Starting wfc are   39 randomized atomic wfcs +   10 random wfc

     Self-consistent Calculation

     iteration #  1     ecut=    58.80 Ry     beta=0.10
     Davidson diagonalization with overlap
     ethr =  1.00E-02,  avg # of iterations =  4.7

     Threshold (ethr) on eigenvalues was too large:
     Diagonalizing with lowered threshold

     Davidson diagonalization with overlap
     ethr =  3.38E-04,  avg # of iterations =  1.2

[...]

     total energy              =    -710.46377703 Ry
     Harris-Foulkes estimate   =    -710.47208322 Ry
     estimated scf accuracy    <       0.19936939 Ry

[...]

     total energy              =    -710.43183560 Ry
     Harris-Foulkes estimate   =    -710.43182890 Ry
     estimated scf accuracy    <       0.00000002 Ry

     iteration # 30     ecut=    58.80 Ry     beta=0.10
     Davidson diagonalization with overlap
     ethr =  1.73E-11,  avg # of iterations =  2.1

     negative rho (up, down):  2.285E-01 0.000E+00

     End of self-consistent calculation

          k = 0.0000 0.0000 0.0000 (  5449 PWs)   bands (ev):

   -39.3717 -39.3717 -39.3717  -5.2578  -5.2578  -5.2578  -5.2354  -5.0608
    -5.0608  -4.8969  -4.8969  -4.8969  -4.8555  -4.8555  -4.7365  -4.7100
    -4.7100  -4.7100   0.7927   5.9182   5.9182   9.7513   9.7513   9.7513
    10.4955  10.4955  10.4955  10.7685  10.7685  11.9826  15.2373  15.2373
    15.2373  16.8283  16.8283  16.8283  19.6938  20.6103  20.6103  21.3277
    21.3277  21.3277  22.8254  22.8560  22.8560  23.3123  23.3123  23.3123
    23.3604

[...]

          k = 0.0878-0.1053-0.1053 (  5528 PWs)   bands (ev):

[...]

          k =-0.1053-0.1053-0.1053 (  5520 PWs)   bands (ev):

   -39.3719 -39.3719 -39.3719  -5.1515  -5.1515  -5.1515  -5.0909  -5.0909
    -5.0909  -5.0730  -4.8992  -4.8992  -4.8992  -4.8482  -4.8482  -4.7405
    -4.7405  -4.7405   4.2042   4.2043   4.2043   7.7600   9.1554   9.1554
     9.1554  10.6760  10.6760  10.9118  10.9729  10.9729  10.9729  18.8633
    18.8633  19.3438  19.3438  19.3438  22.3699  22.4011  22.4011  22.4011
    22.7425  22.7425  22.7425  23.4719  23.4719  23.4719  24.0091  24.0091
    24.0091

     the Fermi energy is    12.3019 ev

!    total energy              =    -710.43186386 Ry
     Harris-Foulkes estimate   =    -710.43183561 Ry
     estimated scf accuracy    <          1.3E-09 Ry

     The total energy is the sum of the following terms:

     one-electron contribution =    -139.25402329 Ry
     hartree contribution      =     114.09697006 Ry
     xc contribution           =    -254.68595368 Ry
     ewald contribution        =    -430.58462235 Ry
     smearing contrib. (-TS)   =      -0.00423460 Ry

     convergence has been achieved in  30 iterations

     Forces acting on atoms (Ry/au):

     negative rho (up, down):  2.285E-01 0.000E+00
     atom    1 type  1   force =     0.00000000    0.00000000    0.00000000
     atom    2 type  1   force =     0.00000000    0.00000000    0.00000000
     atom    3 type  1   force =     0.00000000    0.00000000    0.00000000
     atom    4 type  2   force =     0.00000000    0.00000000    0.00000000

     Total force =     0.000000     Total SCF correction =     0.000000
 !ASE

     General routines

     Parallel routines

   This run was terminated on:  11:31:53  25Oct2017

   JOB DONE.