     Program PWSCF v.5.1rc2 (svn rev. ) starts on 25Oct2017 at 10:44:54

     Current dimensions of program PWSCF are:
     Max number of different atomic species (ntypx) = 10
     Max number of k-points (npk) =  40000
     Max angular momentum in pseudopotentials (lmaxx) =  3

     IMPORTANT: XC functional enforced from input :
     Exchange-correlation      = BEEF-VDW ( 1  4 27 13 2)
     Any further DFT definition will be discarded
     Please, verify this is what you really want

     Subspace diagonalization in iterative solution of the eigenvalue problem:
     a serial algorithm will be used

     bravais-lattice index     =            0
     lattice parameter (alat)  =       1.8897  a.u.
     unit-cell volume          =     692.3177 (a.u.)^3
     number of atoms/cell      =            4
     number of atomic types    =            2
     number of electrons       =        59.00
     number of Kohn-Sham states=           49
     kinetic-energy cutoff     =      58.7989  Ry
     charge density cutoff     =     587.9892  Ry
     convergence threshold     =      7.3E-09
     mixing beta               =       0.1000
     number of iterations used =           10  local-TF  mixing
     Exchange-correlation      = BEEF-VDW ( 1  4 27 13 2)
     nstep                     =           50

     celldm(1)=   1.889726  celldm(2)=   0.000000  celldm(3)=   0.000000
     celldm(4)=   0.000000  celldm(5)=   0.000000  celldm(6)=   0.000000

     crystal axes: (cart. coord. in units of alat)
               a(1) = (   4.681334   0.000000   0.000000 )
               a(2) = (   0.000000   4.681334   0.000000 )
               a(3) = (   0.000000   0.000000   4.681334 )

     reciprocal axes: (cart. coord. in units 2 pi/alat)
               b(1) = (  0.213614  0.000000  0.000000 )
               b(2) = (  0.000000  0.213614  0.000000 )
               b(3) = (  0.000000  0.000000  0.213614 )

     PseudoPot. # 1 for In read from file:
     /home/vossj/suncat/psp/gbrv1.5pbe/In.UPF
     MD5 check sum: 90777abd96fbb83f2e67db2a40c566b9
     Pseudo is Ultrasoft + core correction, Zval = 13.0
     Generated by new atomic code, or converted to UPF format
     Using radial grid of  889 points,  6 beta functions with:
                l(1) =   0
                l(2) =   0
                l(3) =   1
                l(4) =   1
                l(5) =   2
                l(6) =   2
     Q(r) pseudized with  6 coefficients,  rinner =    1.400   1.400   1.400
                                                       1.400   1.400

     PseudoPot. # 2 for Zn read from file:
     /home/vossj/suncat/psp/gbrv1.5pbe/Zn.UPF
     MD5 check sum: df62231357ef9e81f77b2b3087fa5675
     Pseudo is Ultrasoft, Zval = 20.0
     Generated by new atomic code, or converted to UPF format
     Using radial grid of  943 points,  6 beta functions with:
                l(1) =   0
                l(2) =   0
                l(3) =   1
                l(4) =   1
                l(5) =   2
                l(6) =   2
     Q(r) pseudized with  8 coefficients,  rinner =    1.100   1.100   1.100
                                                       1.100   1.100

     vdW kernel table read from file vdW_kernel_table
     MD5 check sum: 095c7af220d748ca6e76c0b4c6cfb241

     atomic species   valence    mass     pseudopotential
        In1           13.00   114.81800     In( 1.00)
        Zn1           20.00    65.38000     Zn( 1.00)

     48 Sym. Ops., with inversion, found (32 have fractional translation)

   Cartesian axes

     site n.     atom                  positions (alat units)
         1           In1 tau(   1) = (   0.0000000   0.0000000   0.0000000  )
         2           In1 tau(   2) = (   0.0000000   2.3406669   2.3406669  )
         3           In1 tau(   3) = (   2.3406669   0.0000000   2.3406669  )
         4           Zn1 tau(   4) = (   2.3406669   2.3406669   0.0000000  )

     number of k points=    84  Fermi-Dirac smearing, width (Ry)=  0.0073
                       cart. coord. in units 2pi/alat
        k(    1) = (   0.0000000   0.0000000   0.0000000), wk =   0.0011574
        k(    2) = (   0.0000000   0.0000000   0.0178012), wk =   0.0069444
        k(    3) = (   0.0000000   0.0000000   0.0356024), wk =   0.0069444
        k(    4) = (   0.0000000   0.0000000   0.0534036), wk =   0.0069444
        k(    5) = (   0.0000000   0.0000000   0.0712048), wk =   0.0069444
        k(    6) = (   0.0000000   0.0000000   0.0890060), wk =   0.0069444
        k(    7) = (   0.0000000   0.0000000  -0.1068072), wk =   0.0034722
        k(    8) = (   0.0000000   0.0178012   0.0178012), wk =   0.0138889
        k(    9) = (   0.0000000   0.0178012   0.0356024), wk =   0.0277778
        k(   10) = (   0.0000000   0.0178012   0.0534036), wk =   0.0277778
        k(   11) = (   0.0000000   0.0178012   0.0712048), wk =   0.0277778
        k(   12) = (   0.0000000   0.0178012   0.0890060), wk =   0.0277778
        k(   13) = (   0.0000000   0.0178012  -0.1068072), wk =   0.0138889
        k(   14) = (   0.0000000   0.0356024   0.0356024), wk =   0.0138889
        k(   15) = (   0.0000000   0.0356024   0.0534036), wk =   0.0277778
        k(   16) = (   0.0000000   0.0356024   0.0712048), wk =   0.0277778
        k(   17) = (   0.0000000   0.0356024   0.0890060), wk =   0.0277778
        k(   18) = (   0.0000000   0.0356024  -0.1068072), wk =   0.0138889
        k(   19) = (   0.0000000   0.0534036   0.0534036), wk =   0.0138889
        k(   20) = (   0.0000000   0.0534036   0.0712048), wk =   0.0277778
        k(   21) = (   0.0000000   0.0534036   0.0890060), wk =   0.0277778
        k(   22) = (   0.0000000   0.0534036  -0.1068072), wk =   0.0138889
        k(   23) = (   0.0000000   0.0712048   0.0712048), wk =   0.0138889
        k(   24) = (   0.0000000   0.0712048   0.0890060), wk =   0.0277778
        k(   25) = (   0.0000000   0.0712048  -0.1068072), wk =   0.0138889
        k(   26) = (   0.0000000   0.0890060   0.0890060), wk =   0.0138889
        k(   27) = (   0.0000000   0.0890060  -0.1068072), wk =   0.0138889
        k(   28) = (   0.0000000  -0.1068072  -0.1068072), wk =   0.0034722
        k(   29) = (   0.0178012   0.0178012   0.0178012), wk =   0.0092593
        k(   30) = (   0.0178012   0.0178012   0.0356024), wk =   0.0277778
        k(   31) = (   0.0178012   0.0178012   0.0534036), wk =   0.0277778
        k(   32) = (   0.0178012   0.0178012   0.0712048), wk =   0.0277778
        k(   33) = (   0.0178012   0.0178012   0.0890060), wk =   0.0277778
        k(   34) = (   0.0178012   0.0178012  -0.1068072), wk =   0.0138889
        k(   35) = (   0.0178012   0.0356024   0.0356024), wk =   0.0277778
        k(   36) = (   0.0178012   0.0356024   0.0534036), wk =   0.0555556
        k(   37) = (   0.0178012   0.0356024   0.0712048), wk =   0.0555556
        k(   38) = (   0.0178012   0.0356024   0.0890060), wk =   0.0555556
        k(   39) = (   0.0178012   0.0356024  -0.1068072), wk =   0.0277778
        k(   40) = (   0.0178012   0.0534036   0.0534036), wk =   0.0277778
        k(   41) = (   0.0178012   0.0534036   0.0712048), wk =   0.0555556
        k(   42) = (   0.0178012   0.0534036   0.0890060), wk =   0.0555556
        k(   43) = (   0.0178012   0.0534036  -0.1068072), wk =   0.0277778
        k(   44) = (   0.0178012   0.0712048   0.0712048), wk =   0.0277778
        k(   45) = (   0.0178012   0.0712048   0.0890060), wk =   0.0555556
        k(   46) = (   0.0178012   0.0712048  -0.1068072), wk =   0.0277778
        k(   47) = (   0.0178012   0.0890060   0.0890060), wk =   0.0277778
        k(   48) = (   0.0178012   0.0890060  -0.1068072), wk =   0.0277778
        k(   49) = (   0.0178012  -0.1068072  -0.1068072), wk =   0.0069444
        k(   50) = (   0.0356024   0.0356024   0.0356024), wk =   0.0092593
        k(   51) = (   0.0356024   0.0356024   0.0534036), wk =   0.0277778
        k(   52) = (   0.0356024   0.0356024   0.0712048), wk =   0.0277778
        k(   53) = (   0.0356024   0.0356024   0.0890060), wk =   0.0277778
        k(   54) = (   0.0356024   0.0356024  -0.1068072), wk =   0.0138889
        k(   55) = (   0.0356024   0.0534036   0.0534036), wk =   0.0277778
        k(   56) = (   0.0356024   0.0534036   0.0712048), wk =   0.0555556
        k(   57) = (   0.0356024   0.0534036   0.0890060), wk =   0.0555556
        k(   58) = (   0.0356024   0.0534036  -0.1068072), wk =   0.0277778
        k(   59) = (   0.0356024   0.0712048   0.0712048), wk =   0.0277778
        k(   60) = (   0.0356024   0.0712048   0.0890060), wk =   0.0555556
[...]
        k(   70) = (   0.0534036   0.0712048   0.0890060), wk =   0.0555556
        k(   71) = (   0.0534036   0.0712048  -0.1068072), wk =   0.0277778
        k(   72) = (   0.0534036   0.0890060   0.0890060), wk =   0.0277778
        k(   73) = (   0.0534036   0.0890060  -0.1068072), wk =   0.0277778
        k(   74) = (   0.0534036  -0.1068072  -0.1068072), wk =   0.0069444
        k(   75) = (   0.0712048   0.0712048   0.0712048), wk =   0.0092593
        k(   76) = (   0.0712048   0.0712048   0.0890060), wk =   0.0277778
        k(   77) = (   0.0712048   0.0712048  -0.1068072), wk =   0.0138889
        k(   78) = (   0.0712048   0.0890060   0.0890060), wk =   0.0277778
        k(   79) = (   0.0712048   0.0890060  -0.1068072), wk =   0.0277778
        k(   80) = (   0.0712048  -0.1068072  -0.1068072), wk =   0.0069444
        k(   81) = (   0.0890060   0.0890060   0.0890060), wk =   0.0092593
        k(   82) = (   0.0890060   0.0890060  -0.1068072), wk =   0.0138889
        k(   83) = (   0.0890060  -0.1068072  -0.1068072), wk =   0.0069444
        k(   84) = (  -0.1068072  -0.1068072  -0.1068072), wk =   0.0011574

     Largest allocated arrays     est. size (Mb)     dimensions
     Largest temporary arrays     est. size (Mb)     dimensions

     Initial potential from superposition of free atoms

     starting charge   54.49986, renormalised to   59.00000

     *
     * You are using vdW-DF for exchange-correlation in this calculation.
     * Please cite the following three references that made this development
     * possible:
     *
     *   M. Dion, H. Rydberg, E. Schroder, D. C. Langreth, and
     *   B. I. Lundqvist, Phys. Rev. Lett. 92, 246401 (2004).
     *
     *   T. Thonhauser, V. R. Cooper, S. Li, A. Puzder, P. Hyldgaard, and
     *   D. C. Langreth, Phys. Rev. B 76, 125112 (2007).
     *
     *   G. Roman-Perez and J. M. Soler, Phys. Rev. Lett. 103, 096102 (2009).
     *
     *
     * If you are using vdW-DF2, please also cite:
     *
     *   K. Lee, E. D. Murray, L. Kong, B. I. Lundqvist, and
     *   D. C. Langreth, Phys. Rev. B 82, 081101(R) (2010).
     *
     *
     * If you are calculating the stress with vdW-DF, please also cite:
     *
     *   R. Sabatini, E. Kucukbenli, B. Kolb, T. Thonhauser, and
     *   S. de Gironcoli, J. Phys.: Condens. Matter 24, 424209 (2012).
     *

     Carrying out vdW-DF run using the following parameters:

     Nqs =      20    Nr_points =    1024   r_max =   100.000
     q_mesh =
               0.00001000     0.04494208     0.09755937     0.15916263
               0.23128650     0.31572767     0.41458969     0.53033537
               0.66584808     0.82450364     1.01025438     1.22772762
               1.48234092     1.78043706     2.12944203     2.53805004
               3.01644009     3.57652955     4.23227104     5.00000000

     Gradients computed in reciprocal space

     Starting wfc are   40 randomized atomic wfcs +    9 random wfc

     Self-consistent Calculation

     iteration #  1     ecut=    58.80 Ry     beta=0.10
     Davidson diagonalization with overlap
     ethr =  1.00E-02,  avg # of iterations =  5.1

     total energy              =    -879.56128437 Ry
     Harris-Foulkes estimate   =    -885.96188578 Ry
     estimated scf accuracy    <     118.71433263 Ry

[...]

     total energy              =    -867.13427391 Ry
     Harris-Foulkes estimate   =    -867.13427387 Ry
     estimated scf accuracy    <          8.6E-09 Ry

     iteration # 33     ecut=    58.80 Ry     beta=0.10
     Davidson diagonalization with overlap
     ethr =  1.46E-11,  avg # of iterations =  1.0

     End of self-consistent calculation

          k = 0.0000 0.0000 0.0000 (  5257 PWs)   bands (ev):

  -116.9117 -71.0944 -71.0944 -71.0944  -5.7343  -5.7343  -5.7343  -5.7215
    -5.5873  -5.5873  -5.4414  -5.4414  -5.4414  -5.3657  -5.3657  -5.2847
    -5.2372  -5.2372  -5.2372   0.3245   2.1691   2.1691   2.2164   2.2164
     2.2164   7.5628   7.5628   7.6913   7.6913   7.6913   8.3987  13.8745
    13.8745  13.8745  14.0845  14.0845  14.0845  17.0674  17.3892  17.3892
    17.5207  17.5207  17.5207  20.3950  20.3950  20.3950  21.7551  23.9390
    23.9390

[...]

          k = 0.0890-0.1068-0.1068 (  5308 PWs)   bands (ev):

[...]

          k =-0.1068-0.1068-0.1068 (  5232 PWs)   bands (ev):

  -116.9117 -71.0944 -71.0944 -71.0944  -5.6325  -5.6325  -5.6325  -5.6268
    -5.5914  -5.5914  -5.5914  -5.4109  -5.4109  -5.4109  -5.3987  -5.3987
    -5.2753  -5.2753  -5.2753   2.1197   2.1197   2.1197   2.2313   2.2313
     5.3040   5.3040   5.3040   6.0825   6.6571   6.6870   6.6870   6.6870
    17.9910  17.9910  18.3672  18.3672  18.3672  18.4075  18.4075  18.4075
    20.7450  21.1290  21.1290  21.1290  22.3943  22.3943  22.3943  22.6250
    22.8823

     the Fermi energy is     9.3763 ev

!    total energy              =    -867.13427410 Ry
     Harris-Foulkes estimate   =    -867.13427391 Ry
     estimated scf accuracy    <          6.2E-09 Ry

     The total energy is the sum of the following terms:

     one-electron contribution =    -566.87121473 Ry
     hartree contribution      =     320.92534288 Ry
     xc contribution           =    -160.79034707 Ry
     ewald contribution        =    -460.39307613 Ry
     smearing contrib. (-TS)   =      -0.00497905 Ry

     convergence has been achieved in  33 iterations

     Forces acting on atoms (Ry/au):

     atom    1 type  1   force =     0.00000000    0.00000000    0.00000000
     atom    2 type  1   force =     0.00000000    0.00000000    0.00000000
     atom    3 type  1   force =     0.00000000    0.00000000    0.00000000
     atom    4 type  2   force =     0.00000000    0.00000000    0.00000000

     Total force =     0.000000     Total SCF correction =     0.000000
 !ASE

     General routines

     Parallel routines

   This run was terminated on:  10:48: 5  25Oct2017

   JOB DONE.