     Program PWSCF v.5.1rc2 (svn rev. ) starts on 25Oct2017 at  6:31:54

     Current dimensions of program PWSCF are:
     Max number of different atomic species (ntypx) = 10
     Max number of k-points (npk) =  40000
     Max angular momentum in pseudopotentials (lmaxx) =  3

     IMPORTANT: XC functional enforced from input :
     Exchange-correlation      = BEEF-VDW ( 1  4 27 13 2)
     Any further DFT definition will be discarded
     Please, verify this is what you really want

     Subspace diagonalization in iterative solution of the eigenvalue problem:
     a serial algorithm will be used

     bravais-lattice index     =            0
     lattice parameter (alat)  =       1.8897  a.u.
     unit-cell volume          =     419.2996 (a.u.)^3
     number of atoms/cell      =            4
     number of atomic types    =            2
     number of electrons       =        60.00
     number of Kohn-Sham states=           50
     kinetic-energy cutoff     =      58.7989  Ry
     charge density cutoff     =     587.9892  Ry
     convergence threshold     =      7.3E-09
     mixing beta               =       0.1000
     number of iterations used =           10  local-TF  mixing
     Exchange-correlation      = BEEF-VDW ( 1  4 27 13 2)
     nstep                     =           50

     celldm(1)=   1.889726  celldm(2)=   0.000000  celldm(3)=   0.000000
     celldm(4)=   0.000000  celldm(5)=   0.000000  celldm(6)=   0.000000

     crystal axes: (cart. coord. in units of alat)
               a(1) = (   3.960737   0.000000   0.000000 )
               a(2) = (   0.000000   3.960737   0.000000 )
               a(3) = (   0.000000   0.000000   3.960737 )

     reciprocal axes: (cart. coord. in units 2 pi/alat)
               b(1) = (  0.252478  0.000000  0.000000 )
               b(2) = (  0.000000  0.252478  0.000000 )
               b(3) = (  0.000000  0.000000  0.252478 )

     PseudoPot. # 1 for Pt read from file:
     /home/vossj/suncat/psp/gbrv1.5pbe/Pt.UPF
     MD5 check sum: f09d6de1a584b5a045c4fc126da2d0c4
     Pseudo is Ultrasoft + core correction, Zval = 16.0
     Generated by new atomic code, or converted to UPF format
     Using radial grid of  985 points,  6 beta functions with:
                l(1) =   0
                l(2) =   0
                l(3) =   1
                l(4) =   1
                l(5) =   2
                l(6) =   2
     Q(r) pseudized with  8 coefficients,  rinner =    1.300   1.300   1.300
                                                       1.300   1.300

     PseudoPot. # 2 for Ti read from file:
     /home/vossj/suncat/psp/gbrv1.5pbe/Ti.UPF
     MD5 check sum: 88a00a6731bd790ddea75d31a80cb452
     Pseudo is Ultrasoft + core correction, Zval = 12.0
     Generated by new atomic code, or converted to UPF format
     Using radial grid of  851 points,  6 beta functions with:
                l(1) =   0
                l(2) =   0
                l(3) =   1
                l(4) =   1
                l(5) =   2
                l(6) =   2
     Q(r) pseudized with  6 coefficients,  rinner =    1.000   1.000   1.000
                                                       1.000   1.000

     vdW kernel table read from file vdW_kernel_table
     MD5 check sum: 095c7af220d748ca6e76c0b4c6cfb241

     atomic species   valence    mass     pseudopotential
        Pt1           16.00   195.08400     Pt( 1.00)
        Ti1           12.00    47.86700     Ti( 1.00)

     48 Sym. Ops., with inversion, found (32 have fractional translation)

   Cartesian axes

     site n.     atom                  positions (alat units)
         1           Pt1 tau(   1) = (   0.0000000   0.0000000   0.0000000  )
         2           Pt1 tau(   2) = (   0.0000000   1.9803683   1.9803683  )
         3           Pt1 tau(   3) = (   1.9803683   0.0000000   1.9803683  )
         4           Ti1 tau(   4) = (   1.9803683   1.9803683   0.0000000  )

     number of k points=    84  Fermi-Dirac smearing, width (Ry)=  0.0073
                       cart. coord. in units 2pi/alat
        k(    1) = (   0.0000000   0.0000000   0.0000000), wk =   0.0011574
        k(    2) = (   0.0000000   0.0000000   0.0210399), wk =   0.0069444
        k(    3) = (   0.0000000   0.0000000   0.0420797), wk =   0.0069444
        k(    4) = (   0.0000000   0.0000000   0.0631196), wk =   0.0069444
        k(    5) = (   0.0000000   0.0000000   0.0841594), wk =   0.0069444
        k(    6) = (   0.0000000   0.0000000   0.1051993), wk =   0.0069444
        k(    7) = (   0.0000000   0.0000000  -0.1262391), wk =   0.0034722
        k(    8) = (   0.0000000   0.0210399   0.0210399), wk =   0.0138889
        k(    9) = (   0.0000000   0.0210399   0.0420797), wk =   0.0277778
        k(   10) = (   0.0000000   0.0210399   0.0631196), wk =   0.0277778
        k(   11) = (   0.0000000   0.0210399   0.0841594), wk =   0.0277778
        k(   12) = (   0.0000000   0.0210399   0.1051993), wk =   0.0277778
        k(   13) = (   0.0000000   0.0210399  -0.1262391), wk =   0.0138889
        k(   14) = (   0.0000000   0.0420797   0.0420797), wk =   0.0138889
        k(   15) = (   0.0000000   0.0420797   0.0631196), wk =   0.0277778
        k(   16) = (   0.0000000   0.0420797   0.0841594), wk =   0.0277778
        k(   17) = (   0.0000000   0.0420797   0.1051993), wk =   0.0277778
        k(   18) = (   0.0000000   0.0420797  -0.1262391), wk =   0.0138889
        k(   19) = (   0.0000000   0.0631196   0.0631196), wk =   0.0138889
        k(   20) = (   0.0000000   0.0631196   0.0841594), wk =   0.0277778
        k(   21) = (   0.0000000   0.0631196   0.1051993), wk =   0.0277778
        k(   22) = (   0.0000000   0.0631196  -0.1262391), wk =   0.0138889
        k(   23) = (   0.0000000   0.0841594   0.0841594), wk =   0.0138889
        k(   24) = (   0.0000000   0.0841594   0.1051993), wk =   0.0277778
        k(   25) = (   0.0000000   0.0841594  -0.1262391), wk =   0.0138889
        k(   26) = (   0.0000000   0.1051993   0.1051993), wk =   0.0138889
        k(   27) = (   0.0000000   0.1051993  -0.1262391), wk =   0.0138889
        k(   28) = (   0.0000000  -0.1262391  -0.1262391), wk =   0.0034722
        k(   29) = (   0.0210399   0.0210399   0.0210399), wk =   0.0092593
        k(   30) = (   0.0210399   0.0210399   0.0420797), wk =   0.0277778
        k(   31) = (   0.0210399   0.0210399   0.0631196), wk =   0.0277778
        k(   32) = (   0.0210399   0.0210399   0.0841594), wk =   0.0277778
        k(   33) = (   0.0210399   0.0210399   0.1051993), wk =   0.0277778
        k(   34) = (   0.0210399   0.0210399  -0.1262391), wk =   0.0138889
        k(   35) = (   0.0210399   0.0420797   0.0420797), wk =   0.0277778
        k(   36) = (   0.0210399   0.0420797   0.0631196), wk =   0.0555556
        k(   37) = (   0.0210399   0.0420797   0.0841594), wk =   0.0555556
        k(   38) = (   0.0210399   0.0420797   0.1051993), wk =   0.0555556
        k(   39) = (   0.0210399   0.0420797  -0.1262391), wk =   0.0277778
        k(   40) = (   0.0210399   0.0631196   0.0631196), wk =   0.0277778
        k(   41) = (   0.0210399   0.0631196   0.0841594), wk =   0.0555556
        k(   42) = (   0.0210399   0.0631196   0.1051993), wk =   0.0555556
        k(   43) = (   0.0210399   0.0631196  -0.1262391), wk =   0.0277778
        k(   44) = (   0.0210399   0.0841594   0.0841594), wk =   0.0277778
        k(   45) = (   0.0210399   0.0841594   0.1051993), wk =   0.0555556
        k(   46) = (   0.0210399   0.0841594  -0.1262391), wk =   0.0277778
        k(   47) = (   0.0210399   0.1051993   0.1051993), wk =   0.0277778
        k(   48) = (   0.0210399   0.1051993  -0.1262391), wk =   0.0277778
        k(   49) = (   0.0210399  -0.1262391  -0.1262391), wk =   0.0069444
        k(   50) = (   0.0420797   0.0420797   0.0420797), wk =   0.0092593
        k(   51) = (   0.0420797   0.0420797   0.0631196), wk =   0.0277778
        k(   52) = (   0.0420797   0.0420797   0.0841594), wk =   0.0277778
        k(   53) = (   0.0420797   0.0420797   0.1051993), wk =   0.0277778
        k(   54) = (   0.0420797   0.0420797  -0.1262391), wk =   0.0138889
        k(   55) = (   0.0420797   0.0631196   0.0631196), wk =   0.0277778
        k(   56) = (   0.0420797   0.0631196   0.0841594), wk =   0.0555556
        k(   57) = (   0.0420797   0.0631196   0.1051993), wk =   0.0555556
        k(   58) = (   0.0420797   0.0631196  -0.1262391), wk =   0.0277778
        k(   59) = (   0.0420797   0.0841594   0.0841594), wk =   0.0277778
        k(   60) = (   0.0420797   0.0841594   0.1051993), wk =   0.0555556
[...]
        k(   70) = (   0.0631196   0.0841594   0.1051993), wk =   0.0555556
        k(   71) = (   0.0631196   0.0841594  -0.1262391), wk =   0.0277778
        k(   72) = (   0.0631196   0.1051993   0.1051993), wk =   0.0277778
        k(   73) = (   0.0631196   0.1051993  -0.1262391), wk =   0.0277778
        k(   74) = (   0.0631196  -0.1262391  -0.1262391), wk =   0.0069444
        k(   75) = (   0.0841594   0.0841594   0.0841594), wk =   0.0092593
        k(   76) = (   0.0841594   0.0841594   0.1051993), wk =   0.0277778
        k(   77) = (   0.0841594   0.0841594  -0.1262391), wk =   0.0138889
        k(   78) = (   0.0841594   0.1051993   0.1051993), wk =   0.0277778
        k(   79) = (   0.0841594   0.1051993  -0.1262391), wk =   0.0277778
        k(   80) = (   0.0841594  -0.1262391  -0.1262391), wk =   0.0069444
        k(   81) = (   0.1051993   0.1051993   0.1051993), wk =   0.0092593
        k(   82) = (   0.1051993   0.1051993  -0.1262391), wk =   0.0138889
        k(   83) = (   0.1051993  -0.1262391  -0.1262391), wk =   0.0069444
        k(   84) = (  -0.1262391  -0.1262391  -0.1262391), wk =   0.0011574

     Largest allocated arrays     est. size (Mb)     dimensions
     Largest temporary arrays     est. size (Mb)     dimensions

     Initial potential from superposition of free atoms
     Check: negative starting charge=   -0.554615

     starting charge   57.49992, renormalised to   60.00000

     negative rho (up, down):  5.787E-01 0.000E+00

     *
     * You are using vdW-DF for exchange-correlation in this calculation.
     * Please cite the following three references that made this development
     * possible:
     *
     *   M. Dion, H. Rydberg, E. Schroder, D. C. Langreth, and
     *   B. I. Lundqvist, Phys. Rev. Lett. 92, 246401 (2004).
     *
     *   T. Thonhauser, V. R. Cooper, S. Li, A. Puzder, P. Hyldgaard, and
     *   D. C. Langreth, Phys. Rev. B 76, 125112 (2007).
     *
     *   G. Roman-Perez and J. M. Soler, Phys. Rev. Lett. 103, 096102 (2009).
     *
     *
     * If you are using vdW-DF2, please also cite:
     *
     *   K. Lee, E. D. Murray, L. Kong, B. I. Lundqvist, and
     *   D. C. Langreth, Phys. Rev. B 82, 081101(R) (2010).
     *
     *
     * If you are calculating the stress with vdW-DF, please also cite:
     *
     *   R. Sabatini, E. Kucukbenli, B. Kolb, T. Thonhauser, and
     *   S. de Gironcoli, J. Phys.: Condens. Matter 24, 424209 (2012).
     *

     Carrying out vdW-DF run using the following parameters:

     Nqs =      20    Nr_points =    1024   r_max =   100.000
     q_mesh =
               0.00001000     0.04494208     0.09755937     0.15916263
               0.23128650     0.31572767     0.41458969     0.53033537
               0.66584808     0.82450364     1.01025438     1.22772762
               1.48234092     1.78043706     2.12944203     2.53805004
               3.01644009     3.57652955     4.23227104     5.00000000

     Gradients computed in reciprocal space

     Starting wfc are   46 randomized atomic wfcs +    4 random wfc

     Self-consistent Calculation

     iteration #  1     ecut=    58.80 Ry     beta=0.10
     Davidson diagonalization with overlap
     ethr =  1.00E-02,  avg # of iterations =  4.6

[...]

     total energy              =    -758.79428814 Ry
     Harris-Foulkes estimate   =    -760.37648884 Ry
     estimated scf accuracy    <      30.31473452 Ry

[...]

     total energy              =    -757.28124870 Ry
     Harris-Foulkes estimate   =    -757.28124847 Ry
     estimated scf accuracy    <       0.00000001 Ry

     iteration # 24     ecut=    58.80 Ry     beta=0.10
     Davidson diagonalization with overlap
     ethr =  1.72E-11,  avg # of iterations =  2.0

     negative rho (up, down):  5.323E-01 0.000E+00

     End of self-consistent calculation

          k = 0.0000 0.0000 0.0000 (  3191 PWs)   bands (ev):

   -38.0779 -33.1835 -33.1835 -33.1835 -33.0342 -33.0342 -33.0342 -32.8992
   -32.8992 -32.8992 -14.2486 -14.2486 -14.2486  10.7647  13.4538  13.7961
    13.7961  14.0802  14.0802  14.0802  16.9307  16.9307  16.9307  18.6787
    18.6787  19.7284  20.2666  20.2666  20.2666  21.5585  21.5585  22.0918
    22.0918  22.0918  22.1233  22.1233  22.1233  28.3261  28.3261  31.3564
    31.3564  31.3564  31.7026  31.8421  31.8421  31.8421  34.9371  38.7067
    38.7067  39.7559

[...]

          k = 0.1052-0.1262-0.1262 (  3168 PWs)   bands (ev):

[...]

          k =-0.1262-0.1262-0.1262 (  3184 PWs)   bands (ev):

   -38.0762 -33.2427 -33.1753 -33.1753 -33.1753 -32.9385 -32.9385 -32.9385
   -32.8929 -32.8929 -14.2577 -14.2577 -14.2577  13.4245  13.4245  13.4245
    13.7612  16.1385  16.1385  16.1385  16.9083  16.9083  16.9083  17.4568
    17.4568  19.7158  19.8115  19.8115  19.8115  19.8732  19.8732  19.8732
    21.3717  21.3717  21.3717  21.7010  21.7010  25.6416  25.6416  25.6416
    28.9911  34.3886  34.3886  34.3886  34.4436  39.2766  39.2766  39.2766
    39.3432  39.3432

     the Fermi energy is    20.2418 ev

!    total energy              =    -757.28124971 Ry
     Harris-Foulkes estimate   =    -757.28124870 Ry
     estimated scf accuracy    <          7.4E-10 Ry

     The total energy is the sum of the following terms:

     one-electron contribution =    -109.32891088 Ry
     hartree contribution      =     101.77620463 Ry
     xc contribution           =    -194.80114670 Ry
     ewald contribution        =    -554.92258497 Ry
     smearing contrib. (-TS)   =      -0.00481178 Ry

     convergence has been achieved in  24 iterations

     Forces acting on atoms (Ry/au):

     negative rho (up, down):  5.323E-01 0.000E+00
     atom    1 type  1   force =     0.00000000    0.00000000    0.00000000
     atom    2 type  1   force =     0.00000000    0.00000000    0.00000000
     atom    3 type  1   force =     0.00000000    0.00000000    0.00000000
     atom    4 type  2   force =     0.00000000    0.00000000    0.00000000

     Total force =     0.000000     Total SCF correction =     0.000000
 !ASE

     General routines

     Parallel routines

   This run was terminated on:   6:33:33  25Oct2017

   JOB DONE.