     Program PWSCF v.5.1rc2 (svn rev. ) starts on 31Oct2017 at 14:46: 3

     Current dimensions of program PWSCF are:
     Max number of different atomic species (ntypx) = 10
     Max number of k-points (npk) =  40000
     Max angular momentum in pseudopotentials (lmaxx) =  3

     IMPORTANT: XC functional enforced from input :
     Exchange-correlation      = BEEF-VDW ( 1  4 27 13 2)
     Any further DFT definition will be discarded
     Please, verify this is what you really want

     Subspace diagonalization in iterative solution of the eigenvalue problem:
     a serial algorithm will be used

     bravais-lattice index     =            0
     lattice parameter (alat)  =       1.8897  a.u.
     unit-cell volume          =     701.7611 (a.u.)^3
     number of atoms/cell      =            4
     number of atomic types    =            2
     number of electrons       =        59.00
     number of Kohn-Sham states=           49
     kinetic-energy cutoff     =      58.7989  Ry
     charge density cutoff     =     587.9892  Ry
     convergence threshold     =      7.3E-09
     mixing beta               =       0.1000
     number of iterations used =           10  local-TF  mixing
     Exchange-correlation      = BEEF-VDW ( 1  4 27 13 2)
     nstep                     =           50

     celldm(1)=   1.889726  celldm(2)=   0.000000  celldm(3)=   0.000000
     celldm(4)=   0.000000  celldm(5)=   0.000000  celldm(6)=   0.000000

     crystal axes: (cart. coord. in units of alat)
               a(1) = (   4.702523   0.000000   0.000000 )
               a(2) = (   0.000000   4.702523   0.000000 )
               a(3) = (   0.000000   0.000000   4.702523 )

     reciprocal axes: (cart. coord. in units 2 pi/alat)
               b(1) = (  0.212652  0.000000  0.000000 )
               b(2) = (  0.000000  0.212652  0.000000 )
               b(3) = (  0.000000  0.000000  0.212652 )

     PseudoPot. # 1 for Pb read from file:
     /home/vossj/suncat/psp/gbrv1.5pbe/Pb.UPF
     MD5 check sum: 3d1c1779aa92214d1e8f3a7db79003e2
     Pseudo is Ultrasoft + core correction, Zval = 14.0
     Generated by new atomic code, or converted to UPF format
     Using radial grid of  899 points,  6 beta functions with:
                l(1) =   0
                l(2) =   0
                l(3) =   1
                l(4) =   1
                l(5) =   2
                l(6) =   2
     Q(r) pseudized with  6 coefficients,  rinner =    1.000   1.000   1.000
                                                       1.000   1.000

     PseudoPot. # 2 for Co read from file:
     /home/vossj/suncat/psp/gbrv1.5pbe/Co.UPF
     MD5 check sum: 5f91765df6ddd3222702df6e7b74a16d
     Pseudo is Ultrasoft + core correction, Zval = 17.0
     Generated by new atomic code, or converted to UPF format
     Using radial grid of  863 points,  6 beta functions with:
                l(1) =   0
                l(2) =   0
                l(3) =   1
                l(4) =   1
                l(5) =   2
                l(6) =   2
     Q(r) pseudized with  8 coefficients,  rinner =    1.200   1.200   1.200
                                                       1.200   1.200

     vdW kernel table read from file vdW_kernel_table
     MD5 check sum: 095c7af220d748ca6e76c0b4c6cfb241

     atomic species   valence    mass     pseudopotential
        Pb1           14.00   207.20000     Pb( 1.00)
        Co1           17.00    58.93319     Co( 1.00)

     48 Sym. Ops., with inversion, found (32 have fractional translation)

   Cartesian axes

     site n.     atom                  positions (alat units)
         1           Pb1 tau(   1) = (   0.0000000   0.0000000   0.0000000  )
         2           Pb1 tau(   2) = (   0.0000000   2.3512613   2.3512613  )
         3           Pb1 tau(   3) = (   2.3512613   0.0000000   2.3512613  )
         4           Co1 tau(   4) = (   2.3512613   2.3512613   0.0000000  )

     number of k points=    84  Fermi-Dirac smearing, width (Ry)=  0.0073
                       cart. coord. in units 2pi/alat
        k(    1) = (   0.0000000   0.0000000   0.0000000), wk =   0.0011574
        k(    2) = (   0.0000000   0.0000000   0.0177210), wk =   0.0069444
        k(    3) = (   0.0000000   0.0000000   0.0354420), wk =   0.0069444
        k(    4) = (   0.0000000   0.0000000   0.0531630), wk =   0.0069444
        k(    5) = (   0.0000000   0.0000000   0.0708839), wk =   0.0069444
        k(    6) = (   0.0000000   0.0000000   0.0886049), wk =   0.0069444
        k(    7) = (   0.0000000   0.0000000  -0.1063259), wk =   0.0034722
        k(    8) = (   0.0000000   0.0177210   0.0177210), wk =   0.0138889
        k(    9) = (   0.0000000   0.0177210   0.0354420), wk =   0.0277778
        k(   10) = (   0.0000000   0.0177210   0.0531630), wk =   0.0277778
        k(   11) = (   0.0000000   0.0177210   0.0708839), wk =   0.0277778
        k(   12) = (   0.0000000   0.0177210   0.0886049), wk =   0.0277778
        k(   13) = (   0.0000000   0.0177210  -0.1063259), wk =   0.0138889
        k(   14) = (   0.0000000   0.0354420   0.0354420), wk =   0.0138889
        k(   15) = (   0.0000000   0.0354420   0.0531630), wk =   0.0277778
        k(   16) = (   0.0000000   0.0354420   0.0708839), wk =   0.0277778
        k(   17) = (   0.0000000   0.0354420   0.0886049), wk =   0.0277778
        k(   18) = (   0.0000000   0.0354420  -0.1063259), wk =   0.0138889
        k(   19) = (   0.0000000   0.0531630   0.0531630), wk =   0.0138889
        k(   20) = (   0.0000000   0.0531630   0.0708839), wk =   0.0277778
        k(   21) = (   0.0000000   0.0531630   0.0886049), wk =   0.0277778
        k(   22) = (   0.0000000   0.0531630  -0.1063259), wk =   0.0138889
        k(   23) = (   0.0000000   0.0708839   0.0708839), wk =   0.0138889
        k(   24) = (   0.0000000   0.0708839   0.0886049), wk =   0.0277778
        k(   25) = (   0.0000000   0.0708839  -0.1063259), wk =   0.0138889
        k(   26) = (   0.0000000   0.0886049   0.0886049), wk =   0.0138889
        k(   27) = (   0.0000000   0.0886049  -0.1063259), wk =   0.0138889
        k(   28) = (   0.0000000  -0.1063259  -0.1063259), wk =   0.0034722
        k(   29) = (   0.0177210   0.0177210   0.0177210), wk =   0.0092593
        k(   30) = (   0.0177210   0.0177210   0.0354420), wk =   0.0277778
        k(   31) = (   0.0177210   0.0177210   0.0531630), wk =   0.0277778
        k(   32) = (   0.0177210   0.0177210   0.0708839), wk =   0.0277778
        k(   33) = (   0.0177210   0.0177210   0.0886049), wk =   0.0277778
        k(   34) = (   0.0177210   0.0177210  -0.1063259), wk =   0.0138889
        k(   35) = (   0.0177210   0.0354420   0.0354420), wk =   0.0277778
        k(   36) = (   0.0177210   0.0354420   0.0531630), wk =   0.0555556
        k(   37) = (   0.0177210   0.0354420   0.0708839), wk =   0.0555556
        k(   38) = (   0.0177210   0.0354420   0.0886049), wk =   0.0555556
        k(   39) = (   0.0177210   0.0354420  -0.1063259), wk =   0.0277778
        k(   40) = (   0.0177210   0.0531630   0.0531630), wk =   0.0277778
        k(   41) = (   0.0177210   0.0531630   0.0708839), wk =   0.0555556
        k(   42) = (   0.0177210   0.0531630   0.0886049), wk =   0.0555556
        k(   43) = (   0.0177210   0.0531630  -0.1063259), wk =   0.0277778
        k(   44) = (   0.0177210   0.0708839   0.0708839), wk =   0.0277778
        k(   45) = (   0.0177210   0.0708839   0.0886049), wk =   0.0555556
        k(   46) = (   0.0177210   0.0708839  -0.1063259), wk =   0.0277778
        k(   47) = (   0.0177210   0.0886049   0.0886049), wk =   0.0277778
        k(   48) = (   0.0177210   0.0886049  -0.1063259), wk =   0.0277778
        k(   49) = (   0.0177210  -0.1063259  -0.1063259), wk =   0.0069444
        k(   50) = (   0.0354420   0.0354420   0.0354420), wk =   0.0092593
        k(   51) = (   0.0354420   0.0354420   0.0531630), wk =   0.0277778
        k(   52) = (   0.0354420   0.0354420   0.0708839), wk =   0.0277778
        k(   53) = (   0.0354420   0.0354420   0.0886049), wk =   0.0277778
        k(   54) = (   0.0354420   0.0354420  -0.1063259), wk =   0.0138889
        k(   55) = (   0.0354420   0.0531630   0.0531630), wk =   0.0277778
        k(   56) = (   0.0354420   0.0531630   0.0708839), wk =   0.0555556
        k(   57) = (   0.0354420   0.0531630   0.0886049), wk =   0.0555556
        k(   58) = (   0.0354420   0.0531630  -0.1063259), wk =   0.0277778
        k(   59) = (   0.0354420   0.0708839   0.0708839), wk =   0.0277778
        k(   60) = (   0.0354420   0.0708839   0.0886049), wk =   0.0555556
[...]
        k(   70) = (   0.0531630   0.0708839   0.0886049), wk =   0.0555556
        k(   71) = (   0.0531630   0.0708839  -0.1063259), wk =   0.0277778
        k(   72) = (   0.0531630   0.0886049   0.0886049), wk =   0.0277778
        k(   73) = (   0.0531630   0.0886049  -0.1063259), wk =   0.0277778
        k(   74) = (   0.0531630  -0.1063259  -0.1063259), wk =   0.0069444
        k(   75) = (   0.0708839   0.0708839   0.0708839), wk =   0.0092593
        k(   76) = (   0.0708839   0.0708839   0.0886049), wk =   0.0277778
        k(   77) = (   0.0708839   0.0708839  -0.1063259), wk =   0.0138889
        k(   78) = (   0.0708839   0.0886049   0.0886049), wk =   0.0277778
        k(   79) = (   0.0708839   0.0886049  -0.1063259), wk =   0.0277778
        k(   80) = (   0.0708839  -0.1063259  -0.1063259), wk =   0.0069444
        k(   81) = (   0.0886049   0.0886049   0.0886049), wk =   0.0092593
        k(   82) = (   0.0886049   0.0886049  -0.1063259), wk =   0.0138889
        k(   83) = (   0.0886049  -0.1063259  -0.1063259), wk =   0.0069444
        k(   84) = (  -0.1063259  -0.1063259  -0.1063259), wk =   0.0011574

     Largest allocated arrays     est. size (Mb)     dimensions
     Largest temporary arrays     est. size (Mb)     dimensions

     Check: negative/imaginary core charge=   -0.000008    0.000000

     Initial potential from superposition of free atoms
     Check: negative starting charge=   -0.046287

     starting charge   57.99294, renormalised to   59.00000

     negative rho (up, down):  4.709E-02 0.000E+00

     *
     * You are using vdW-DF for exchange-correlation in this calculation.
     * Please cite the following three references that made this development
     * possible:
     *
     *   M. Dion, H. Rydberg, E. Schroder, D. C. Langreth, and
     *   B. I. Lundqvist, Phys. Rev. Lett. 92, 246401 (2004).
     *
     *   T. Thonhauser, V. R. Cooper, S. Li, A. Puzder, P. Hyldgaard, and
     *   D. C. Langreth, Phys. Rev. B 76, 125112 (2007).
     *
     *   G. Roman-Perez and J. M. Soler, Phys. Rev. Lett. 103, 096102 (2009).
     *
     *
     * If you are using vdW-DF2, please also cite:
     *
     *   K. Lee, E. D. Murray, L. Kong, B. I. Lundqvist, and
     *   D. C. Langreth, Phys. Rev. B 82, 081101(R) (2010).
     *
     *
     * If you are calculating the stress with vdW-DF, please also cite:
     *
     *   R. Sabatini, E. Kucukbenli, B. Kolb, T. Thonhauser, and
     *   S. de Gironcoli, J. Phys.: Condens. Matter 24, 424209 (2012).
     *

     Carrying out vdW-DF run using the following parameters:

     Nqs =      20    Nr_points =    1024   r_max =   100.000
     q_mesh =
               0.00001000     0.04494208     0.09755937     0.15916263
               0.23128650     0.31572767     0.41458969     0.53033537
               0.66584808     0.82450364     1.01025438     1.22772762
               1.48234092     1.78043706     2.12944203     2.53805004
               3.01644009     3.57652955     4.23227104     5.00000000

     Gradients computed in reciprocal space

     Starting wfc are   40 randomized atomic wfcs +    9 random wfc

     Self-consistent Calculation

     iteration #  1     ecut=    58.80 Ry     beta=0.10
     Davidson diagonalization with overlap
     ethr =  1.00E-02,  avg # of iterations =  4.7

[...]

     total energy              =    -797.63753535 Ry
     Harris-Foulkes estimate   =    -797.71302531 Ry
     estimated scf accuracy    <       1.89624123 Ry

[...]

     iteration # 12     ecut=    58.80 Ry     beta=0.10
     Davidson diagonalization with overlap
     c_bands:  1 eigenvalues not converged
     ethr =  9.84E-06,  avg # of iterations =  7.7

[...]

     total energy              =    -797.46201228 Ry
     Harris-Foulkes estimate   =    -797.46200856 Ry
     estimated scf accuracy    <       0.00000046 Ry

     iteration # 33     ecut=    58.80 Ry     beta=0.10
     Davidson diagonalization with overlap
     ethr =  7.82E-10,  avg # of iterations =  1.8

     negative rho (up, down):  5.143E-02 0.000E+00

     End of self-consistent calculation

          k = 0.0000 0.0000 0.0000 (  5377 PWs)   bands (ev):

   -82.3929 -45.7425 -45.7425 -45.7425  -6.1261  -6.1261  -6.1257  -6.1135
    -5.9048  -5.9041  -5.7312  -5.7302  -5.7302  -5.6970  -5.6963  -5.5501
    -5.5315  -5.5315  -5.5309  -0.1551   5.2567   5.2571   8.7932   8.7933
     8.7933  11.0314  11.0314  11.0314  11.1243  11.1244  11.9122  14.5193
    14.5193  14.5194  15.8596  15.8597  15.8597  18.9565  18.9566  19.1226
    19.9274  19.9274  19.9274  21.9819  22.0050  22.0063  22.1983  22.1983
    22.1984

[...]

          k = 0.0886-0.1063-0.1063 (  5380 PWs)   bands (ev):

[...]

          k =-0.1063-0.1063-0.1063 (  5400 PWs)   bands (ev):

   -82.3929 -45.7426 -45.7426 -45.7425  -6.0162  -6.0162  -6.0161  -5.9403
    -5.9400  -5.9400  -5.9215  -5.7429  -5.7422  -5.7422  -5.6789  -5.6782
    -5.5598  -5.5595  -5.5595   3.4438   3.4444   3.4444   6.7712   8.1466
     8.1466   8.1469  10.9692  11.1227  11.1227  11.2539  11.2539  11.2539
    18.2118  18.2120  18.8177  18.8177  18.8180  21.2075  21.2075  21.2077
    21.6617  21.8904  21.8922  21.8922  22.5722  22.5722  22.5723  23.3429
    23.3431

     the Fermi energy is    11.4409 ev

!    total energy              =    -797.46202834 Ry
     Harris-Foulkes estimate   =    -797.46201234 Ry
     estimated scf accuracy    <          6.1E-09 Ry

     The total energy is the sum of the following terms:

     one-electron contribution =    -316.63330595 Ry
     hartree contribution      =     199.69070141 Ry
     xc contribution           =    -229.79744699 Ry
     ewald contribution        =    -450.70669441 Ry
     smearing contrib. (-TS)   =      -0.01528240 Ry

     convergence has been achieved in  33 iterations

     Forces acting on atoms (Ry/au):

     negative rho (up, down):  5.143E-02 0.000E+00
     atom    1 type  1   force =     0.00000000    0.00000000    0.00000000
     atom    2 type  1   force =     0.00000000    0.00000000    0.00000000
     atom    3 type  1   force =     0.00000000    0.00000000    0.00000000
     atom    4 type  2   force =     0.00000000    0.00000000    0.00000000

     Total force =     0.000000     Total SCF correction =     0.000000
 !ASE

     General routines

     Parallel routines

   This run was terminated on:  14:49: 8  31Oct2017

   JOB DONE.