     Program PWSCF v.5.1rc2 (svn rev. ) starts on  9Nov2017 at 21:31: 0

     Current dimensions of program PWSCF are:
     Max number of different atomic species (ntypx) = 10
     Max number of k-points (npk) =  40000
     Max angular momentum in pseudopotentials (lmaxx) =  3

     IMPORTANT: XC functional enforced from input :
     Exchange-correlation      = BEEF-VDW ( 1  4 27 13 2)
     Any further DFT definition will be discarded
     Please, verify this is what you really want

     Subspace diagonalization in iterative solution of the eigenvalue problem:
     a serial algorithm will be used

     Generating pointlists ...
     new r_m :   0.4125 (alat units)  0.7795 (a.u.) for type    1
     new r_m :   0.4125 (alat units)  0.7795 (a.u.) for type    2

     bravais-lattice index     =            0
     lattice parameter (alat)  =       1.8897  a.u.
     unit-cell volume          =     360.8843 (a.u.)^3
     number of atoms/cell      =            4
     number of atomic types    =            2
     number of electrons       =        64.00
     number of Kohn-Sham states=           52
     kinetic-energy cutoff     =      58.7989  Ry
     charge density cutoff     =     587.9892  Ry
     convergence threshold     =      7.3E-07
     mixing beta               =       0.3000
     number of iterations used =           10  local-TF  mixing
     Exchange-correlation      = BEEF-VDW ( 1  4 27 13 2)
     nstep                     =           50

     celldm(1)=   1.889726  celldm(2)=   0.000000  celldm(3)=   0.000000
     celldm(4)=   0.000000  celldm(5)=   0.000000  celldm(6)=   0.000000

     crystal axes: (cart. coord. in units of alat)
               a(1) = (   3.767534   0.000000   0.000000 )
               a(2) = (   0.000000   3.767534   0.000000 )
               a(3) = (   0.000000   0.000000   3.767534 )

     reciprocal axes: (cart. coord. in units 2 pi/alat)
               b(1) = (  0.265426  0.000000  0.000000 )
               b(2) = (  0.000000  0.265426  0.000000 )
               b(3) = (  0.000000  0.000000  0.265426 )

     PseudoPot. # 1 for Ru read from file:
     /home/vossj/suncat/psp/gbrv1.5pbe/Ru.UPF
     MD5 check sum: 7158a806dd851261a58e6920c40ebe78
     Pseudo is Ultrasoft + core correction, Zval = 16.0
     Generated by new atomic code, or converted to UPF format
     Using radial grid of  967 points,  6 beta functions with:
                l(1) =   0
                l(2) =   0
                l(3) =   1
                l(4) =   1
                l(5) =   2
                l(6) =   2
     Q(r) pseudized with  8 coefficients,  rinner =    1.300   1.300   1.300
                                                       1.300   1.300

     PseudoPot. # 2 for Fe read from file:
     /home/vossj/suncat/psp/gbrv1.5pbe/Fe.UPF
     MD5 check sum: a130daea23fe5165f5d574ae7f82ed95
     Pseudo is Ultrasoft + core correction, Zval = 16.0
     Generated by new atomic code, or converted to UPF format
     Using radial grid of  861 points,  6 beta functions with:
                l(1) =   0
                l(2) =   0
                l(3) =   1
                l(4) =   1
                l(5) =   2
                l(6) =   2
     Q(r) pseudized with  8 coefficients,  rinner =    1.000   1.000   1.000
                                                       1.000   1.000

     vdW kernel table read from file vdW_kernel_table
     MD5 check sum: 095c7af220d748ca6e76c0b4c6cfb241

     atomic species   valence    mass     pseudopotential
        Ru1           16.00   101.07000     Ru( 1.00)
        Fe1           16.00    55.84500     Fe( 1.00)

     Starting magnetic structure
     atomic species   magnetization
        Ru1          0.125
        Fe1          0.125

     48 Sym. Ops., with inversion, found (32 have fractional translation)

   Cartesian axes

     site n.     atom                  positions (alat units)
         1           Ru1 tau(   1) = (   0.0000000   0.0000000   0.0000000  )
         2           Ru1 tau(   2) = (   0.0000000   1.8837669   1.8837669  )
         3           Ru1 tau(   3) = (   1.8837669   0.0000000   1.8837669  )
         4           Fe1 tau(   4) = (   1.8837669   1.8837669   0.0000000  )

     number of k points=    70  Fermi-Dirac smearing, width (Ry)=  0.0073
                       cart. coord. in units 2pi/alat
        k(    1) = (   0.0000000   0.0000000   0.0000000), wk =   0.0013717
        k(    2) = (   0.0000000   0.0000000   0.0294917), wk =   0.0082305
        k(    3) = (   0.0000000   0.0000000   0.0589835), wk =   0.0082305
        k(    4) = (   0.0000000   0.0000000   0.0884752), wk =   0.0082305
        k(    5) = (   0.0000000   0.0000000   0.1179669), wk =   0.0082305
        k(    6) = (   0.0000000   0.0294917   0.0294917), wk =   0.0164609
        k(    7) = (   0.0000000   0.0294917   0.0589835), wk =   0.0329218
        k(    8) = (   0.0000000   0.0294917   0.0884752), wk =   0.0329218
        k(    9) = (   0.0000000   0.0294917   0.1179669), wk =   0.0329218
        k(   10) = (   0.0000000   0.0589835   0.0589835), wk =   0.0164609
        k(   11) = (   0.0000000   0.0589835   0.0884752), wk =   0.0329218
        k(   12) = (   0.0000000   0.0589835   0.1179669), wk =   0.0329218
        k(   13) = (   0.0000000   0.0884752   0.0884752), wk =   0.0164609
        k(   14) = (   0.0000000   0.0884752   0.1179669), wk =   0.0329218
        k(   15) = (   0.0000000   0.1179669   0.1179669), wk =   0.0164609
        k(   16) = (   0.0294917   0.0294917   0.0294917), wk =   0.0109739
        k(   17) = (   0.0294917   0.0294917   0.0589835), wk =   0.0329218
        k(   18) = (   0.0294917   0.0294917   0.0884752), wk =   0.0329218
        k(   19) = (   0.0294917   0.0294917   0.1179669), wk =   0.0329218
        k(   20) = (   0.0294917   0.0589835   0.0589835), wk =   0.0329218
        k(   21) = (   0.0294917   0.0589835   0.0884752), wk =   0.0658436
        k(   22) = (   0.0294917   0.0589835   0.1179669), wk =   0.0658436
        k(   23) = (   0.0294917   0.0884752   0.0884752), wk =   0.0329218
        k(   24) = (   0.0294917   0.0884752   0.1179669), wk =   0.0658436
        k(   25) = (   0.0294917   0.1179669   0.1179669), wk =   0.0329218
        k(   26) = (   0.0589835   0.0589835   0.0589835), wk =   0.0109739
        k(   27) = (   0.0589835   0.0589835   0.0884752), wk =   0.0329218
        k(   28) = (   0.0589835   0.0589835   0.1179669), wk =   0.0329218
        k(   29) = (   0.0589835   0.0884752   0.0884752), wk =   0.0329218
        k(   30) = (   0.0589835   0.0884752   0.1179669), wk =   0.0658436
        k(   31) = (   0.0589835   0.1179669   0.1179669), wk =   0.0329218
        k(   32) = (   0.0884752   0.0884752   0.0884752), wk =   0.0109739
        k(   33) = (   0.0884752   0.0884752   0.1179669), wk =   0.0329218
        k(   34) = (   0.0884752   0.1179669   0.1179669), wk =   0.0329218
        k(   35) = (   0.1179669   0.1179669   0.1179669), wk =   0.0109739
        k(   36) = (   0.0000000   0.0000000   0.0000000), wk =   0.0013717
        k(   37) = (   0.0000000   0.0000000   0.0294917), wk =   0.0082305
        k(   38) = (   0.0000000   0.0000000   0.0589835), wk =   0.0082305
        k(   39) = (   0.0000000   0.0000000   0.0884752), wk =   0.0082305
        k(   40) = (   0.0000000   0.0000000   0.1179669), wk =   0.0082305
        k(   41) = (   0.0000000   0.0294917   0.0294917), wk =   0.0164609
        k(   42) = (   0.0000000   0.0294917   0.0589835), wk =   0.0329218
        k(   43) = (   0.0000000   0.0294917   0.0884752), wk =   0.0329218
        k(   44) = (   0.0000000   0.0294917   0.1179669), wk =   0.0329218
        k(   45) = (   0.0000000   0.0589835   0.0589835), wk =   0.0164609
        k(   46) = (   0.0000000   0.0589835   0.0884752), wk =   0.0329218
        k(   47) = (   0.0000000   0.0589835   0.1179669), wk =   0.0329218
        k(   48) = (   0.0000000   0.0884752   0.0884752), wk =   0.0164609
        k(   49) = (   0.0000000   0.0884752   0.1179669), wk =   0.0329218
        k(   50) = (   0.0000000   0.1179669   0.1179669), wk =   0.0164609
        k(   51) = (   0.0294917   0.0294917   0.0294917), wk =   0.0109739
        k(   52) = (   0.0294917   0.0294917   0.0589835), wk =   0.0329218
        k(   53) = (   0.0294917   0.0294917   0.0884752), wk =   0.0329218
        k(   54) = (   0.0294917   0.0294917   0.1179669), wk =   0.0329218
        k(   55) = (   0.0294917   0.0589835   0.0589835), wk =   0.0329218
        k(   56) = (   0.0294917   0.0589835   0.0884752), wk =   0.0658436
        k(   57) = (   0.0294917   0.0589835   0.1179669), wk =   0.0658436
        k(   58) = (   0.0294917   0.0884752   0.0884752), wk =   0.0329218
        k(   59) = (   0.0294917   0.0884752   0.1179669), wk =   0.0658436
        k(   60) = (   0.0294917   0.1179669   0.1179669), wk =   0.0329218
        k(   61) = (   0.0589835   0.0589835   0.0589835), wk =   0.0109739
        k(   62) = (   0.0589835   0.0589835   0.0884752), wk =   0.0329218
        k(   63) = (   0.0589835   0.0589835   0.1179669), wk =   0.0329218
        k(   64) = (   0.0589835   0.0884752   0.0884752), wk =   0.0329218
        k(   65) = (   0.0589835   0.0884752   0.1179669), wk =   0.0658436
        k(   66) = (   0.0589835   0.1179669   0.1179669), wk =   0.0329218
        k(   67) = (   0.0884752   0.0884752   0.0884752), wk =   0.0109739
        k(   68) = (   0.0884752   0.0884752   0.1179669), wk =   0.0329218
        k(   69) = (   0.0884752   0.1179669   0.1179669), wk =   0.0329218
        k(   70) = (   0.1179669   0.1179669   0.1179669), wk =   0.0109739

     Largest allocated arrays     est. size (Mb)     dimensions
     Largest temporary arrays     est. size (Mb)     dimensions

     Check: negative/imaginary core charge=   -0.000019    0.000000

     Initial potential from superposition of free atoms
     Check: negative starting charge=(component1):   -0.124077
     Check: negative starting charge=(component2):   -0.096505

     starting charge   59.99995, renormalised to   64.00000

     negative rho (up, down):  1.323E-01 1.029E-01

     *
     * You are using vdW-DF for exchange-correlation in this calculation.
     * Please cite the following three references that made this development
     * possible:
     *
     *   M. Dion, H. Rydberg, E. Schroder, D. C. Langreth, and
     *   B. I. Lundqvist, Phys. Rev. Lett. 92, 246401 (2004).
     *
     *   T. Thonhauser, V. R. Cooper, S. Li, A. Puzder, P. Hyldgaard, and
     *   D. C. Langreth, Phys. Rev. B 76, 125112 (2007).
     *
     *   G. Roman-Perez and J. M. Soler, Phys. Rev. Lett. 103, 096102 (2009).
     *
     *
     * If you are using vdW-DF2, please also cite:
     *
     *   K. Lee, E. D. Murray, L. Kong, B. I. Lundqvist, and
     *   D. C. Langreth, Phys. Rev. B 82, 081101(R) (2010).
     *
     *
     * If you are calculating the stress with vdW-DF, please also cite:
     *
     *   R. Sabatini, E. Kucukbenli, B. Kolb, T. Thonhauser, and
     *   S. de Gironcoli, J. Phys.: Condens. Matter 24, 424209 (2012).
     *

     Carrying out vdW-DF run using the following parameters:

     Nqs =      20    Nr_points =    1024   r_max =   100.000
     q_mesh =
               0.00001000     0.04494208     0.09755937     0.15916263
               0.23128650     0.31572767     0.41458969     0.53033537
               0.66584808     0.82450364     1.01025438     1.22772762
               1.48234092     1.78043706     2.12944203     2.53805004
               3.01644009     3.57652955     4.23227104     5.00000000

     Gradients computed in reciprocal space

     Starting wfc are   52 randomized atomic wfcs

     Self-consistent Calculation

     iteration #  1     ecut=    58.80 Ry     beta=0.30
     Davidson diagonalization with overlap
     ethr =  1.00E-02,  avg # of iterations =  4.4

[...]

     Magnetic moment per site:
     atom:    1    charge:    2.9694    magn:    0.2856    constr:    0.0000
     atom:    2    charge:    2.9694    magn:    0.2856    constr:    0.0000
     atom:    3    charge:    2.9694    magn:    0.2856    constr:    0.0000
     atom:    4    charge:    7.2619    magn:    0.7836    constr:    0.0000

     total energy              =    -837.28887992 Ry
     Harris-Foulkes estimate   =    -838.33313931 Ry
     estimated scf accuracy    <       5.27042765 Ry

     total magnetization       =     2.53 Bohr mag/cell
     absolute magnetization    =     2.57 Bohr mag/cell

[...]

     total energy              =    -836.79259548 Ry
     Harris-Foulkes estimate   =    -836.79259559 Ry
     estimated scf accuracy    <       0.00000178 Ry

[...]

     iteration # 18     ecut=    58.80 Ry     beta=0.30
     Davidson diagonalization with overlap
     ethr =  2.78E-09,  avg # of iterations =  1.0

     negative rho (up, down):  1.148E-01 1.131E-01

     Magnetic moment per site:
     atom:    1    charge:    2.8458    magn:   -0.0320    constr:    0.0000
     atom:    2    charge:    2.8458    magn:   -0.0320    constr:    0.0000
     atom:    3    charge:    2.8458    magn:   -0.0320    constr:    0.0000
     atom:    4    charge:    7.0718    magn:    0.9635    constr:    0.0000

     End of self-consistent calculation

 ------ SPIN UP ------------

          k = 0.0000 0.0000 0.0000 (  2777 PWs)   bands (ev):

   -67.0882 -51.5238 -51.3366 -51.3366 -33.0931 -33.0931 -33.0931 -21.7445
   -21.7445 -21.7445 -21.2747 -21.2747 -21.2747 -21.0177 -21.0177 -21.0177
    13.7263  15.2017  15.9159  15.9159  16.2139  16.2139  16.2139  19.0611
    19.0611  19.0611  20.5040  20.5040  22.2873  22.2873  22.2873  22.5751
    22.5751  23.3536  23.9408  23.9408  23.9408  24.8796  24.8796  24.8796
    33.8559  34.0851  34.0851  34.1262  34.1262  34.1262  36.2489  36.2489
    36.2489  37.7591  43.1910  43.1910

[...]

 ------ SPIN DOWN ----------

[...]

          k = 0.1180 0.1180 0.1180 (  2761 PWs)   bands (ev):

   -64.6122 -51.5872 -51.5816 -51.5816 -30.6876 -30.6876 -30.6874 -22.1815
   -21.8485 -21.8456 -21.8456 -21.2666 -21.2666 -21.2360 -21.2355 -21.2355
    15.3812  16.1784  16.2780  16.2780  18.8629  18.8629  19.0049  19.2710
    19.4779  19.4779  20.0418  20.0418  21.5593  21.5593  21.7175  22.0657
    22.8920  22.8920  23.0945  23.0945  23.3229  23.7610  23.8513  23.8513
    30.3739  30.9801  30.9801  31.3858  37.1442  37.2873  37.3297  37.3297
    41.4411  41.5112  41.5112  42.9194

     the Fermi energy is    21.5769 ev

!    total energy              =    -836.79259550 Ry
     Harris-Foulkes estimate   =    -836.79259564 Ry
     estimated scf accuracy    <       0.00000016 Ry

     The total energy is the sum of the following terms:

     one-electron contribution =    -223.21771930 Ry
     hartree contribution      =     156.84370905 Ry
     xc contribution           =    -110.97506973 Ry
     ewald contribution        =    -659.43230400 Ry
     smearing contrib. (-TS)   =      -0.01121152 Ry

     total magnetization       =     1.20 Bohr mag/cell
     absolute magnetization    =     2.93 Bohr mag/cell

     convergence has been achieved in  18 iterations

     Forces acting on atoms (Ry/au):

     negative rho (up, down):  1.148E-01 1.131E-01
     atom    1 type  1   force =     0.00000000    0.00000000   -0.00000000
     atom    2 type  1   force =     0.00000000    0.00000000    0.00000000
     atom    3 type  1   force =     0.00000000    0.00000000    0.00000000
     atom    4 type  2   force =     0.00000000    0.00000000   -0.00000000

     Total force =     0.000000     Total SCF correction =     0.000000
 !ASE

     General routines

     Parallel routines

   This run was terminated on:  21:32: 0   9Nov2017

   JOB DONE.