     Program PWSCF v.5.1rc2 (svn rev. ) starts on 31Oct2017 at 16: 1:50

     Current dimensions of program PWSCF are:
     Max number of different atomic species (ntypx) = 10
     Max number of k-points (npk) =  40000
     Max angular momentum in pseudopotentials (lmaxx) =  3

     IMPORTANT: XC functional enforced from input :
     Exchange-correlation      = BEEF-VDW ( 1  4 27 13 2)
     Any further DFT definition will be discarded
     Please, verify this is what you really want

     Subspace diagonalization in iterative solution of the eigenvalue problem:
     a serial algorithm will be used

     bravais-lattice index     =            0
     lattice parameter (alat)  =       1.8897  a.u.
     unit-cell volume          =     365.1031 (a.u.)^3
     number of atoms/cell      =            4
     number of atomic types    =            2
     number of electrons       =        62.00
     number of Kohn-Sham states=           51
     kinetic-energy cutoff     =      58.7989  Ry
     charge density cutoff     =     587.9892  Ry
     convergence threshold     =      7.3E-09
     mixing beta               =       0.1000
     number of iterations used =           10  local-TF  mixing
     Exchange-correlation      = BEEF-VDW ( 1  4 27 13 2)
     nstep                     =           50

     celldm(1)=   1.889726  celldm(2)=   0.000000  celldm(3)=   0.000000
     celldm(4)=   0.000000  celldm(5)=   0.000000  celldm(6)=   0.000000

     crystal axes: (cart. coord. in units of alat)
               a(1) = (   3.782158   0.000000   0.000000 )
               a(2) = (   0.000000   3.782158   0.000000 )
               a(3) = (   0.000000   0.000000   3.782158 )

     reciprocal axes: (cart. coord. in units 2 pi/alat)
               b(1) = (  0.264399  0.000000  0.000000 )
               b(2) = (  0.000000  0.264399  0.000000 )
               b(3) = (  0.000000  0.000000  0.264399 )

     PseudoPot. # 1 for Tc read from file:
     /home/vossj/suncat/psp/gbrv1.5pbe/Tc.UPF
     MD5 check sum: 9eb49e5b028550b2339a02317eb7b844
     Pseudo is Ultrasoft + core correction, Zval = 15.0
     Generated by new atomic code, or converted to UPF format
     Using radial grid of  965 points,  6 beta functions with:
                l(1) =   0
                l(2) =   0
                l(3) =   1
                l(4) =   1
                l(5) =   2
                l(6) =   2
     Q(r) pseudized with  8 coefficients,  rinner =    1.300   1.300   1.300
                                                       1.300   1.300

     PseudoPot. # 2 for Co read from file:
     /home/vossj/suncat/psp/gbrv1.5pbe/Co.UPF
     MD5 check sum: 5f91765df6ddd3222702df6e7b74a16d
     Pseudo is Ultrasoft + core correction, Zval = 17.0
     Generated by new atomic code, or converted to UPF format
     Using radial grid of  863 points,  6 beta functions with:
                l(1) =   0
                l(2) =   0
                l(3) =   1
                l(4) =   1
                l(5) =   2
                l(6) =   2
     Q(r) pseudized with  8 coefficients,  rinner =    1.200   1.200   1.200
                                                       1.200   1.200

     vdW kernel table read from file vdW_kernel_table
     MD5 check sum: 095c7af220d748ca6e76c0b4c6cfb241

     atomic species   valence    mass     pseudopotential
        Tc1           15.00    97.90721     Tc( 1.00)
        Co1           17.00    58.93319     Co( 1.00)

     48 Sym. Ops., with inversion, found (32 have fractional translation)

   Cartesian axes

     site n.     atom                  positions (alat units)
         1           Tc1 tau(   1) = (   0.0000000   0.0000000   0.0000000  )
         2           Tc1 tau(   2) = (   0.0000000   1.8910789   1.8910789  )
         3           Tc1 tau(   3) = (   1.8910789   0.0000000   1.8910789  )
         4           Co1 tau(   4) = (   1.8910789   1.8910789   0.0000000  )

     number of k points=    84  Fermi-Dirac smearing, width (Ry)=  0.0073
                       cart. coord. in units 2pi/alat
        k(    1) = (   0.0000000   0.0000000   0.0000000), wk =   0.0011574
        k(    2) = (   0.0000000   0.0000000   0.0220333), wk =   0.0069444
        k(    3) = (   0.0000000   0.0000000   0.0440666), wk =   0.0069444
        k(    4) = (   0.0000000   0.0000000   0.0660998), wk =   0.0069444
        k(    5) = (   0.0000000   0.0000000   0.0881331), wk =   0.0069444
        k(    6) = (   0.0000000   0.0000000   0.1101664), wk =   0.0069444
        k(    7) = (   0.0000000   0.0000000  -0.1321997), wk =   0.0034722
        k(    8) = (   0.0000000   0.0220333   0.0220333), wk =   0.0138889
        k(    9) = (   0.0000000   0.0220333   0.0440666), wk =   0.0277778
        k(   10) = (   0.0000000   0.0220333   0.0660998), wk =   0.0277778
        k(   11) = (   0.0000000   0.0220333   0.0881331), wk =   0.0277778
        k(   12) = (   0.0000000   0.0220333   0.1101664), wk =   0.0277778
        k(   13) = (   0.0000000   0.0220333  -0.1321997), wk =   0.0138889
        k(   14) = (   0.0000000   0.0440666   0.0440666), wk =   0.0138889
        k(   15) = (   0.0000000   0.0440666   0.0660998), wk =   0.0277778
        k(   16) = (   0.0000000   0.0440666   0.0881331), wk =   0.0277778
        k(   17) = (   0.0000000   0.0440666   0.1101664), wk =   0.0277778
        k(   18) = (   0.0000000   0.0440666  -0.1321997), wk =   0.0138889
        k(   19) = (   0.0000000   0.0660998   0.0660998), wk =   0.0138889
        k(   20) = (   0.0000000   0.0660998   0.0881331), wk =   0.0277778
        k(   21) = (   0.0000000   0.0660998   0.1101664), wk =   0.0277778
        k(   22) = (   0.0000000   0.0660998  -0.1321997), wk =   0.0138889
        k(   23) = (   0.0000000   0.0881331   0.0881331), wk =   0.0138889
        k(   24) = (   0.0000000   0.0881331   0.1101664), wk =   0.0277778
        k(   25) = (   0.0000000   0.0881331  -0.1321997), wk =   0.0138889
        k(   26) = (   0.0000000   0.1101664   0.1101664), wk =   0.0138889
        k(   27) = (   0.0000000   0.1101664  -0.1321997), wk =   0.0138889
        k(   28) = (   0.0000000  -0.1321997  -0.1321997), wk =   0.0034722
        k(   29) = (   0.0220333   0.0220333   0.0220333), wk =   0.0092593
        k(   30) = (   0.0220333   0.0220333   0.0440666), wk =   0.0277778
        k(   31) = (   0.0220333   0.0220333   0.0660998), wk =   0.0277778
        k(   32) = (   0.0220333   0.0220333   0.0881331), wk =   0.0277778
        k(   33) = (   0.0220333   0.0220333   0.1101664), wk =   0.0277778
        k(   34) = (   0.0220333   0.0220333  -0.1321997), wk =   0.0138889
        k(   35) = (   0.0220333   0.0440666   0.0440666), wk =   0.0277778
        k(   36) = (   0.0220333   0.0440666   0.0660998), wk =   0.0555556
        k(   37) = (   0.0220333   0.0440666   0.0881331), wk =   0.0555556
        k(   38) = (   0.0220333   0.0440666   0.1101664), wk =   0.0555556
        k(   39) = (   0.0220333   0.0440666  -0.1321997), wk =   0.0277778
        k(   40) = (   0.0220333   0.0660998   0.0660998), wk =   0.0277778
        k(   41) = (   0.0220333   0.0660998   0.0881331), wk =   0.0555556
        k(   42) = (   0.0220333   0.0660998   0.1101664), wk =   0.0555556
        k(   43) = (   0.0220333   0.0660998  -0.1321997), wk =   0.0277778
        k(   44) = (   0.0220333   0.0881331   0.0881331), wk =   0.0277778
        k(   45) = (   0.0220333   0.0881331   0.1101664), wk =   0.0555556
        k(   46) = (   0.0220333   0.0881331  -0.1321997), wk =   0.0277778
        k(   47) = (   0.0220333   0.1101664   0.1101664), wk =   0.0277778
        k(   48) = (   0.0220333   0.1101664  -0.1321997), wk =   0.0277778
        k(   49) = (   0.0220333  -0.1321997  -0.1321997), wk =   0.0069444
        k(   50) = (   0.0440666   0.0440666   0.0440666), wk =   0.0092593
        k(   51) = (   0.0440666   0.0440666   0.0660998), wk =   0.0277778
        k(   52) = (   0.0440666   0.0440666   0.0881331), wk =   0.0277778
        k(   53) = (   0.0440666   0.0440666   0.1101664), wk =   0.0277778
        k(   54) = (   0.0440666   0.0440666  -0.1321997), wk =   0.0138889
        k(   55) = (   0.0440666   0.0660998   0.0660998), wk =   0.0277778
        k(   56) = (   0.0440666   0.0660998   0.0881331), wk =   0.0555556
        k(   57) = (   0.0440666   0.0660998   0.1101664), wk =   0.0555556
        k(   58) = (   0.0440666   0.0660998  -0.1321997), wk =   0.0277778
        k(   59) = (   0.0440666   0.0881331   0.0881331), wk =   0.0277778
        k(   60) = (   0.0440666   0.0881331   0.1101664), wk =   0.0555556
[...]
        k(   70) = (   0.0660998   0.0881331   0.1101664), wk =   0.0555556
        k(   71) = (   0.0660998   0.0881331  -0.1321997), wk =   0.0277778
        k(   72) = (   0.0660998   0.1101664   0.1101664), wk =   0.0277778
        k(   73) = (   0.0660998   0.1101664  -0.1321997), wk =   0.0277778
        k(   74) = (   0.0660998  -0.1321997  -0.1321997), wk =   0.0069444
        k(   75) = (   0.0881331   0.0881331   0.0881331), wk =   0.0092593
        k(   76) = (   0.0881331   0.0881331   0.1101664), wk =   0.0277778
        k(   77) = (   0.0881331   0.0881331  -0.1321997), wk =   0.0138889
        k(   78) = (   0.0881331   0.1101664   0.1101664), wk =   0.0277778
        k(   79) = (   0.0881331   0.1101664  -0.1321997), wk =   0.0277778
        k(   80) = (   0.0881331  -0.1321997  -0.1321997), wk =   0.0069444
        k(   81) = (   0.1101664   0.1101664   0.1101664), wk =   0.0092593
        k(   82) = (   0.1101664   0.1101664  -0.1321997), wk =   0.0138889
        k(   83) = (   0.1101664  -0.1321997  -0.1321997), wk =   0.0069444
        k(   84) = (  -0.1321997  -0.1321997  -0.1321997), wk =   0.0011574

     Largest allocated arrays     est. size (Mb)     dimensions
     Largest temporary arrays     est. size (Mb)     dimensions

     Check: negative/imaginary core charge=   -0.000019    0.000000

     Initial potential from superposition of free atoms
     Check: negative starting charge=   -0.374562

     starting charge   57.99991, renormalised to   62.00000

     negative rho (up, down):  4.004E-01 0.000E+00

     *
     * You are using vdW-DF for exchange-correlation in this calculation.
     * Please cite the following three references that made this development
     * possible:
     *
     *   M. Dion, H. Rydberg, E. Schroder, D. C. Langreth, and
     *   B. I. Lundqvist, Phys. Rev. Lett. 92, 246401 (2004).
     *
     *   T. Thonhauser, V. R. Cooper, S. Li, A. Puzder, P. Hyldgaard, and
     *   D. C. Langreth, Phys. Rev. B 76, 125112 (2007).
     *
     *   G. Roman-Perez and J. M. Soler, Phys. Rev. Lett. 103, 096102 (2009).
     *
     *
     * If you are using vdW-DF2, please also cite:
     *
     *   K. Lee, E. D. Murray, L. Kong, B. I. Lundqvist, and
     *   D. C. Langreth, Phys. Rev. B 82, 081101(R) (2010).
     *
     *
     * If you are calculating the stress with vdW-DF, please also cite:
     *
     *   R. Sabatini, E. Kucukbenli, B. Kolb, T. Thonhauser, and
     *   S. de Gironcoli, J. Phys.: Condens. Matter 24, 424209 (2012).
     *

     Carrying out vdW-DF run using the following parameters:

     Nqs =      20    Nr_points =    1024   r_max =   100.000
     q_mesh =
               0.00001000     0.04494208     0.09755937     0.15916263
               0.23128650     0.31572767     0.41458969     0.53033537
               0.66584808     0.82450364     1.01025438     1.22772762
               1.48234092     1.78043706     2.12944203     2.53805004
               3.01644009     3.57652955     4.23227104     5.00000000

     Gradients computed in reciprocal space

     Starting wfc are   52 randomized atomic wfcs

     Self-consistent Calculation

     iteration #  1     ecut=    58.80 Ry     beta=0.10
     Davidson diagonalization with overlap
     ethr =  1.00E-02,  avg # of iterations =  4.5

[...]

     total energy              =    -828.20683818 Ry
     Harris-Foulkes estimate   =    -830.32545344 Ry
     estimated scf accuracy    <      35.23196384 Ry

[...]

     total energy              =    -825.53864880 Ry
     Harris-Foulkes estimate   =    -825.53864879 Ry
     estimated scf accuracy    <       0.00000026 Ry

     iteration # 28     ecut=    58.80 Ry     beta=0.10
     Davidson diagonalization with overlap
     ethr =  4.17E-10,  avg # of iterations =  1.0

     negative rho (up, down):  3.936E-01 0.000E+00

     End of self-consistent calculation

          k = 0.0000 0.0000 0.0000 (  2801 PWs)   bands (ev):

   -73.3608 -45.8767 -45.6064 -45.6064 -36.6538 -36.6538 -36.6538 -18.2344
   -18.2344 -18.2344 -17.5997 -17.5997 -17.5997 -17.2618 -17.2618 -17.2618
    13.8437  15.0634  16.3465  16.3465  16.4888  16.4888  16.4888  19.7615
    19.7615  19.7615  21.4638  21.4638  23.0684  23.0684  23.0684  23.4606
    23.4606  24.4995  25.0476  25.0476  25.0476  25.1062  25.1062  25.1062
    33.8019  33.8019  33.8019  34.2063  35.0094  35.0094  36.4380  36.4380
    36.4380  36.9358  42.4731

[...]

          k = 0.1102-0.1322-0.1322 (  2812 PWs)   bands (ev):

[...]

          k =-0.1322-0.1322-0.1322 (  2800 PWs)   bands (ev):

   -73.3607 -45.6948 -45.6948 -45.6948 -36.6550 -36.6550 -36.6550 -18.5988
   -18.1245 -18.1245 -18.1245 -17.3147 -17.3147 -17.2696 -17.2696 -17.2696
    15.4126  16.3888  16.3888  16.3888  19.4669  19.4669  19.4669  19.6101
    19.6101  19.6101  19.8026  19.8026  22.3205  22.3205  22.3205  22.8443
    22.8443  22.8443  23.0699  23.2369  23.2369  24.5192  24.5192  24.5192
    30.4077  31.9062  31.9062  31.9062  36.2205  36.5447  36.5447  36.5447
    40.7466  40.7466  40.7466

     the Fermi energy is    21.5182 ev

!    total energy              =    -825.53864893 Ry
     Harris-Foulkes estimate   =    -825.53864881 Ry
     estimated scf accuracy    <          7.4E-10 Ry

     The total energy is the sum of the following terms:

     one-electron contribution =    -238.52343011 Ry
     hartree contribution      =     163.68402197 Ry
     xc contribution           =    -133.27358184 Ry
     ewald contribution        =    -617.41528585 Ry
     smearing contrib. (-TS)   =      -0.01037310 Ry

     convergence has been achieved in  28 iterations

     Forces acting on atoms (Ry/au):

     negative rho (up, down):  3.936E-01 0.000E+00
     atom    1 type  1   force =     0.00000000    0.00000000    0.00000000
     atom    2 type  1   force =     0.00000000    0.00000000    0.00000000
     atom    3 type  1   force =     0.00000000    0.00000000    0.00000000
     atom    4 type  2   force =     0.00000000    0.00000000   -0.00000000

     Total force =     0.000000     Total SCF correction =     0.000000
 !ASE

     General routines

     Parallel routines

   This run was terminated on:  16: 3:25  31Oct2017

   JOB DONE.