     Program PWSCF v.5.1rc2 (svn rev. ) starts on 24Oct2017 at 23: 3:24

     Current dimensions of program PWSCF are:
     Max number of different atomic species (ntypx) = 10
     Max number of k-points (npk) =  40000
     Max angular momentum in pseudopotentials (lmaxx) =  3

     IMPORTANT: XC functional enforced from input :
     Exchange-correlation      = BEEF-VDW ( 1  4 27 13 2)
     Any further DFT definition will be discarded
     Please, verify this is what you really want

     Subspace diagonalization in iterative solution of the eigenvalue problem:
     a serial algorithm will be used

     bravais-lattice index     =            0
     lattice parameter (alat)  =       1.8897  a.u.
     unit-cell volume          =     660.9541 (a.u.)^3
     number of atoms/cell      =            4
     number of atomic types    =            2
     number of electrons       =        61.00
     number of Kohn-Sham states=           50
     kinetic-energy cutoff     =      58.7989  Ry
     charge density cutoff     =     587.9892  Ry
     convergence threshold     =      7.3E-09
     mixing beta               =       0.1000
     number of iterations used =           10  local-TF  mixing
     Exchange-correlation      = BEEF-VDW ( 1  4 27 13 2)
     nstep                     =           50

     celldm(1)=   1.889726  celldm(2)=   0.000000  celldm(3)=   0.000000
     celldm(4)=   0.000000  celldm(5)=   0.000000  celldm(6)=   0.000000

     crystal axes: (cart. coord. in units of alat)
               a(1) = (   4.609547   0.000000   0.000000 )
               a(2) = (   0.000000   4.609547   0.000000 )
               a(3) = (   0.000000   0.000000   4.609547 )

     reciprocal axes: (cart. coord. in units 2 pi/alat)
               b(1) = (  0.216941  0.000000  0.000000 )
               b(2) = (  0.000000  0.216941  0.000000 )
               b(3) = (  0.000000  0.000000  0.216941 )

     PseudoPot. # 1 for Sn read from file:
     /home/vossj/suncat/psp/gbrv1.5pbe/Sn.UPF
     MD5 check sum: 469debedee59599fedebd795477fea03
     Pseudo is Ultrasoft + core correction, Zval = 14.0
     Generated by new atomic code, or converted to UPF format
     Using radial grid of  891 points,  6 beta functions with:
                l(1) =   0
                l(2) =   0
                l(3) =   1
                l(4) =   1
                l(5) =   2
                l(6) =   2
     Q(r) pseudized with  8 coefficients,  rinner =    1.350   1.350   1.350
                                                       1.350   1.350

     PseudoPot. # 2 for Cu read from file:
     /home/vossj/suncat/psp/gbrv1.5pbe/Cu.UPF
     MD5 check sum: 6e991ff952a84172a2a52a1c1e996048
     Pseudo is Ultrasoft + core correction, Zval = 19.0
     Generated by new atomic code, or converted to UPF format
     Using radial grid of  867 points,  6 beta functions with:
                l(1) =   0
                l(2) =   0
                l(3) =   1
                l(4) =   1
                l(5) =   2
                l(6) =   2
     Q(r) pseudized with  8 coefficients,  rinner =    1.150   1.150   1.150
                                                       1.150   1.150

     vdW kernel table read from file vdW_kernel_table
     MD5 check sum: 095c7af220d748ca6e76c0b4c6cfb241

     atomic species   valence    mass     pseudopotential
        Sn1           14.00   118.71000     Sn( 1.00)
        Cu1           19.00    63.54600     Cu( 1.00)

     48 Sym. Ops., with inversion, found (32 have fractional translation)

   Cartesian axes

     site n.     atom                  positions (alat units)
         1           Sn1 tau(   1) = (   0.0000000   0.0000000   0.0000000  )
         2           Sn1 tau(   2) = (   0.0000000   2.3047734   2.3047734  )
         3           Sn1 tau(   3) = (   2.3047734   0.0000000   2.3047734  )
         4           Cu1 tau(   4) = (   2.3047734   2.3047734   0.0000000  )

     number of k points=    84  Fermi-Dirac smearing, width (Ry)=  0.0073
                       cart. coord. in units 2pi/alat
        k(    1) = (   0.0000000   0.0000000   0.0000000), wk =   0.0011574
        k(    2) = (   0.0000000   0.0000000   0.0180784), wk =   0.0069444
        k(    3) = (   0.0000000   0.0000000   0.0361568), wk =   0.0069444
        k(    4) = (   0.0000000   0.0000000   0.0542353), wk =   0.0069444
        k(    5) = (   0.0000000   0.0000000   0.0723137), wk =   0.0069444
        k(    6) = (   0.0000000   0.0000000   0.0903921), wk =   0.0069444
        k(    7) = (   0.0000000   0.0000000  -0.1084705), wk =   0.0034722
        k(    8) = (   0.0000000   0.0180784   0.0180784), wk =   0.0138889
        k(    9) = (   0.0000000   0.0180784   0.0361568), wk =   0.0277778
        k(   10) = (   0.0000000   0.0180784   0.0542353), wk =   0.0277778
        k(   11) = (   0.0000000   0.0180784   0.0723137), wk =   0.0277778
        k(   12) = (   0.0000000   0.0180784   0.0903921), wk =   0.0277778
        k(   13) = (   0.0000000   0.0180784  -0.1084705), wk =   0.0138889
        k(   14) = (   0.0000000   0.0361568   0.0361568), wk =   0.0138889
        k(   15) = (   0.0000000   0.0361568   0.0542353), wk =   0.0277778
        k(   16) = (   0.0000000   0.0361568   0.0723137), wk =   0.0277778
        k(   17) = (   0.0000000   0.0361568   0.0903921), wk =   0.0277778
        k(   18) = (   0.0000000   0.0361568  -0.1084705), wk =   0.0138889
        k(   19) = (   0.0000000   0.0542353   0.0542353), wk =   0.0138889
        k(   20) = (   0.0000000   0.0542353   0.0723137), wk =   0.0277778
        k(   21) = (   0.0000000   0.0542353   0.0903921), wk =   0.0277778
        k(   22) = (   0.0000000   0.0542353  -0.1084705), wk =   0.0138889
        k(   23) = (   0.0000000   0.0723137   0.0723137), wk =   0.0138889
        k(   24) = (   0.0000000   0.0723137   0.0903921), wk =   0.0277778
        k(   25) = (   0.0000000   0.0723137  -0.1084705), wk =   0.0138889
        k(   26) = (   0.0000000   0.0903921   0.0903921), wk =   0.0138889
        k(   27) = (   0.0000000   0.0903921  -0.1084705), wk =   0.0138889
        k(   28) = (   0.0000000  -0.1084705  -0.1084705), wk =   0.0034722
        k(   29) = (   0.0180784   0.0180784   0.0180784), wk =   0.0092593
        k(   30) = (   0.0180784   0.0180784   0.0361568), wk =   0.0277778
        k(   31) = (   0.0180784   0.0180784   0.0542353), wk =   0.0277778
        k(   32) = (   0.0180784   0.0180784   0.0723137), wk =   0.0277778
        k(   33) = (   0.0180784   0.0180784   0.0903921), wk =   0.0277778
        k(   34) = (   0.0180784   0.0180784  -0.1084705), wk =   0.0138889
        k(   35) = (   0.0180784   0.0361568   0.0361568), wk =   0.0277778
        k(   36) = (   0.0180784   0.0361568   0.0542353), wk =   0.0555556
        k(   37) = (   0.0180784   0.0361568   0.0723137), wk =   0.0555556
        k(   38) = (   0.0180784   0.0361568   0.0903921), wk =   0.0555556
        k(   39) = (   0.0180784   0.0361568  -0.1084705), wk =   0.0277778
        k(   40) = (   0.0180784   0.0542353   0.0542353), wk =   0.0277778
        k(   41) = (   0.0180784   0.0542353   0.0723137), wk =   0.0555556
        k(   42) = (   0.0180784   0.0542353   0.0903921), wk =   0.0555556
        k(   43) = (   0.0180784   0.0542353  -0.1084705), wk =   0.0277778
        k(   44) = (   0.0180784   0.0723137   0.0723137), wk =   0.0277778
        k(   45) = (   0.0180784   0.0723137   0.0903921), wk =   0.0555556
        k(   46) = (   0.0180784   0.0723137  -0.1084705), wk =   0.0277778
        k(   47) = (   0.0180784   0.0903921   0.0903921), wk =   0.0277778
        k(   48) = (   0.0180784   0.0903921  -0.1084705), wk =   0.0277778
        k(   49) = (   0.0180784  -0.1084705  -0.1084705), wk =   0.0069444
        k(   50) = (   0.0361568   0.0361568   0.0361568), wk =   0.0092593
        k(   51) = (   0.0361568   0.0361568   0.0542353), wk =   0.0277778
        k(   52) = (   0.0361568   0.0361568   0.0723137), wk =   0.0277778
        k(   53) = (   0.0361568   0.0361568   0.0903921), wk =   0.0277778
        k(   54) = (   0.0361568   0.0361568  -0.1084705), wk =   0.0138889
        k(   55) = (   0.0361568   0.0542353   0.0542353), wk =   0.0277778
        k(   56) = (   0.0361568   0.0542353   0.0723137), wk =   0.0555556
        k(   57) = (   0.0361568   0.0542353   0.0903921), wk =   0.0555556
        k(   58) = (   0.0361568   0.0542353  -0.1084705), wk =   0.0277778
        k(   59) = (   0.0361568   0.0723137   0.0723137), wk =   0.0277778
        k(   60) = (   0.0361568   0.0723137   0.0903921), wk =   0.0555556
[...]
        k(   70) = (   0.0542353   0.0723137   0.0903921), wk =   0.0555556
        k(   71) = (   0.0542353   0.0723137  -0.1084705), wk =   0.0277778
        k(   72) = (   0.0542353   0.0903921   0.0903921), wk =   0.0277778
        k(   73) = (   0.0542353   0.0903921  -0.1084705), wk =   0.0277778
        k(   74) = (   0.0542353  -0.1084705  -0.1084705), wk =   0.0069444
        k(   75) = (   0.0723137   0.0723137   0.0723137), wk =   0.0092593
        k(   76) = (   0.0723137   0.0723137   0.0903921), wk =   0.0277778
        k(   77) = (   0.0723137   0.0723137  -0.1084705), wk =   0.0138889
        k(   78) = (   0.0723137   0.0903921   0.0903921), wk =   0.0277778
        k(   79) = (   0.0723137   0.0903921  -0.1084705), wk =   0.0277778
        k(   80) = (   0.0723137  -0.1084705  -0.1084705), wk =   0.0069444
        k(   81) = (   0.0903921   0.0903921   0.0903921), wk =   0.0092593
        k(   82) = (   0.0903921   0.0903921  -0.1084705), wk =   0.0138889
        k(   83) = (   0.0903921  -0.1084705  -0.1084705), wk =   0.0069444
        k(   84) = (  -0.1084705  -0.1084705  -0.1084705), wk =   0.0011574

     Largest allocated arrays     est. size (Mb)     dimensions
     Largest temporary arrays     est. size (Mb)     dimensions

     Initial potential from superposition of free atoms

     starting charge   56.99986, renormalised to   61.00000

     *
     * You are using vdW-DF for exchange-correlation in this calculation.
     * Please cite the following three references that made this development
     * possible:
     *
     *   M. Dion, H. Rydberg, E. Schroder, D. C. Langreth, and
     *   B. I. Lundqvist, Phys. Rev. Lett. 92, 246401 (2004).
     *
     *   T. Thonhauser, V. R. Cooper, S. Li, A. Puzder, P. Hyldgaard, and
     *   D. C. Langreth, Phys. Rev. B 76, 125112 (2007).
     *
     *   G. Roman-Perez and J. M. Soler, Phys. Rev. Lett. 103, 096102 (2009).
     *
     *
     * If you are using vdW-DF2, please also cite:
     *
     *   K. Lee, E. D. Murray, L. Kong, B. I. Lundqvist, and
     *   D. C. Langreth, Phys. Rev. B 82, 081101(R) (2010).
     *
     *
     * If you are calculating the stress with vdW-DF, please also cite:
     *
     *   R. Sabatini, E. Kucukbenli, B. Kolb, T. Thonhauser, and
     *   S. de Gironcoli, J. Phys.: Condens. Matter 24, 424209 (2012).
     *

     Carrying out vdW-DF run using the following parameters:

     Nqs =      20    Nr_points =    1024   r_max =   100.000
     q_mesh =
               0.00001000     0.04494208     0.09755937     0.15916263
               0.23128650     0.31572767     0.41458969     0.53033537
               0.66584808     0.82450364     1.01025438     1.22772762
               1.48234092     1.78043706     2.12944203     2.53805004
               3.01644009     3.57652955     4.23227104     5.00000000

     Gradients computed in reciprocal space

     Starting wfc are   40 randomized atomic wfcs +   10 random wfc

     Self-consistent Calculation

     iteration #  1     ecut=    58.80 Ry     beta=0.10
     Davidson diagonalization with overlap
     ethr =  1.00E-02,  avg # of iterations =  5.2

     total energy              =    -888.09122507 Ry
     Harris-Foulkes estimate   =    -891.89888273 Ry
     estimated scf accuracy    <      64.70998497 Ry

[...]

     total energy              =    -887.04452332 Ry
     Harris-Foulkes estimate   =    -887.04451313 Ry
     estimated scf accuracy    <       0.00000024 Ry

     iteration # 17     ecut=    58.80 Ry     beta=0.10
     Davidson diagonalization with overlap
     ethr =  4.00E-10,  avg # of iterations =  2.0

     End of self-consistent calculation

          k = 0.0000 0.0000 0.0000 (  5041 PWs)   bands (ev):

  -101.5312 -58.9426 -58.9426 -58.9426 -11.3654 -11.3654 -11.3654 -11.3398
   -11.2633 -11.2633 -11.1834 -11.1834 -11.1834 -11.1524 -11.1524 -11.0980
   -11.0709 -11.0709 -11.0709  -0.1052   6.0836   6.0836   7.7272   7.7272
     7.7272   8.2861   8.2861   8.2861   8.6033   8.6033  10.3010  13.5612
    13.5612  13.5612  14.9496  14.9496  14.9496  17.8973  17.8973  17.9173
    17.9173  17.9173  18.0634  21.1912  21.1912  21.1912  22.9223  24.6134
    24.6134  24.6134

[...]

          k = 0.0904-0.1085-0.1085 (  5000 PWs)   bands (ev):

[...]

          k =-0.1085-0.1085-0.1085 (  5040 PWs)   bands (ev):

  -101.5312 -58.9426 -58.9426 -58.9426 -11.2967 -11.2967 -11.2967 -11.2839
   -11.2839 -11.2839 -11.2687 -11.1698 -11.1698 -11.1698 -11.1598 -11.1598
   -11.0932 -11.0932 -11.0932   3.9652   3.9652   3.9652   5.7516   7.0188
     7.0188   7.0188   8.3593   8.3593   8.5401   8.5401   8.5401   9.0707
    17.3394  17.3394  17.8106  17.8106  17.8106  20.3369  20.3369  20.3369
    21.7241  22.2460  22.2460  22.2460  22.4509  22.4509  22.4509  22.5308
    22.5308  22.5308

     the Fermi energy is    10.7794 ev

!    total energy              =    -887.04456734 Ry
     Harris-Foulkes estimate   =    -887.04452336 Ry
     estimated scf accuracy    <          5.9E-09 Ry

     The total energy is the sum of the following terms:

     one-electron contribution =    -517.37312798 Ry
     hartree contribution      =     298.38175160 Ry
     xc contribution           =    -173.56387921 Ry
     ewald contribution        =    -494.48435504 Ry
     smearing contrib. (-TS)   =      -0.00495671 Ry

     convergence has been achieved in  17 iterations

     Forces acting on atoms (Ry/au):

     atom    1 type  1   force =     0.00000000    0.00000000    0.00000000
     atom    2 type  1   force =     0.00000000    0.00000000    0.00000000
     atom    3 type  1   force =     0.00000000    0.00000000    0.00000000
     atom    4 type  2   force =     0.00000000    0.00000000    0.00000000

     Total force =     0.000000     Total SCF correction =     0.000000
 !ASE

     General routines

     Parallel routines

   This run was terminated on:  23: 5: 2  24Oct2017

   JOB DONE.