     Program PWSCF v.5.1rc2 (svn rev. ) starts on 25Oct2017 at 12: 7:56

     Current dimensions of program PWSCF are:
     Max number of different atomic species (ntypx) = 10
     Max number of k-points (npk) =  40000
     Max angular momentum in pseudopotentials (lmaxx) =  3

     IMPORTANT: XC functional enforced from input :
     Exchange-correlation      = BEEF-VDW ( 1  4 27 13 2)
     Any further DFT definition will be discarded
     Please, verify this is what you really want

     Subspace diagonalization in iterative solution of the eigenvalue problem:
     a serial algorithm will be used

     bravais-lattice index     =            0
     lattice parameter (alat)  =       1.8897  a.u.
     unit-cell volume          =     466.2266 (a.u.)^3
     number of atoms/cell      =            4
     number of atomic types    =            2
     number of electrons       =        53.00
     number of Kohn-Sham states=           46
     kinetic-energy cutoff     =      58.7989  Ry
     charge density cutoff     =     587.9892  Ry
     convergence threshold     =      7.3E-09
     mixing beta               =       0.1000
     number of iterations used =           10  local-TF  mixing
     Exchange-correlation      = BEEF-VDW ( 1  4 27 13 2)
     nstep                     =           50

     celldm(1)=   1.889726  celldm(2)=   0.000000  celldm(3)=   0.000000
     celldm(4)=   0.000000  celldm(5)=   0.000000  celldm(6)=   0.000000

     crystal axes: (cart. coord. in units of alat)
               a(1) = (   4.103302   0.000000   0.000000 )
               a(2) = (   0.000000   4.103302   0.000000 )
               a(3) = (   0.000000   0.000000   4.103302 )

     reciprocal axes: (cart. coord. in units 2 pi/alat)
               b(1) = (  0.243706  0.000000  0.000000 )
               b(2) = (  0.000000  0.243706  0.000000 )
               b(3) = (  0.000000  0.000000  0.243706 )

     PseudoPot. # 1 for Mo read from file:
     /home/vossj/suncat/psp/gbrv1.5pbe/Mo.UPF
     MD5 check sum: 30c4dcd161f5d35cd49bb5239c51a633
     Pseudo is Ultrasoft + core correction, Zval = 14.0
     Generated by new atomic code, or converted to UPF format
     Using radial grid of  889 points,  6 beta functions with:
                l(1) =   0
                l(2) =   0
                l(3) =   1
                l(4) =   1
                l(5) =   2
                l(6) =   2
     Q(r) pseudized with  6 coefficients,  rinner =    1.000   1.000   1.000
                                                       1.000   1.000

     PseudoPot. # 2 for Sc read from file:
     /home/vossj/suncat/psp/gbrv1.5pbe/Sc.UPF
     MD5 check sum: db30a2753ba66ef00f23801d899b7e7f
     Pseudo is Ultrasoft + core correction, Zval = 11.0
     Generated by new atomic code, or converted to UPF format
     Using radial grid of  849 points,  6 beta functions with:
                l(1) =   0
                l(2) =   0
                l(3) =   1
                l(4) =   1
                l(5) =   2
                l(6) =   2
     Q(r) pseudized with  6 coefficients,  rinner =    1.200   1.200   1.200
                                                       1.200   1.200

     vdW kernel table read from file vdW_kernel_table
     MD5 check sum: 095c7af220d748ca6e76c0b4c6cfb241

     atomic species   valence    mass     pseudopotential
        Mo1           14.00    95.95000     Mo( 1.00)
        Sc1           11.00    44.95591     Sc( 1.00)

     48 Sym. Ops., with inversion, found (32 have fractional translation)

   Cartesian axes

     site n.     atom                  positions (alat units)
         1           Mo1 tau(   1) = (   0.0000000   0.0000000   0.0000000  )
         2           Mo1 tau(   2) = (   0.0000000   2.0516510   2.0516510  )
         3           Mo1 tau(   3) = (   2.0516510   0.0000000   2.0516510  )
         4           Sc1 tau(   4) = (   2.0516510   2.0516510   0.0000000  )

     number of k points=    84  Fermi-Dirac smearing, width (Ry)=  0.0073
                       cart. coord. in units 2pi/alat
        k(    1) = (   0.0000000   0.0000000   0.0000000), wk =   0.0011574
        k(    2) = (   0.0000000   0.0000000   0.0203088), wk =   0.0069444
        k(    3) = (   0.0000000   0.0000000   0.0406177), wk =   0.0069444
        k(    4) = (   0.0000000   0.0000000   0.0609265), wk =   0.0069444
        k(    5) = (   0.0000000   0.0000000   0.0812354), wk =   0.0069444
        k(    6) = (   0.0000000   0.0000000   0.1015442), wk =   0.0069444
        k(    7) = (   0.0000000   0.0000000  -0.1218531), wk =   0.0034722
        k(    8) = (   0.0000000   0.0203088   0.0203088), wk =   0.0138889
        k(    9) = (   0.0000000   0.0203088   0.0406177), wk =   0.0277778
        k(   10) = (   0.0000000   0.0203088   0.0609265), wk =   0.0277778
        k(   11) = (   0.0000000   0.0203088   0.0812354), wk =   0.0277778
        k(   12) = (   0.0000000   0.0203088   0.1015442), wk =   0.0277778
        k(   13) = (   0.0000000   0.0203088  -0.1218531), wk =   0.0138889
        k(   14) = (   0.0000000   0.0406177   0.0406177), wk =   0.0138889
        k(   15) = (   0.0000000   0.0406177   0.0609265), wk =   0.0277778
        k(   16) = (   0.0000000   0.0406177   0.0812354), wk =   0.0277778
        k(   17) = (   0.0000000   0.0406177   0.1015442), wk =   0.0277778
        k(   18) = (   0.0000000   0.0406177  -0.1218531), wk =   0.0138889
        k(   19) = (   0.0000000   0.0609265   0.0609265), wk =   0.0138889
        k(   20) = (   0.0000000   0.0609265   0.0812354), wk =   0.0277778
        k(   21) = (   0.0000000   0.0609265   0.1015442), wk =   0.0277778
        k(   22) = (   0.0000000   0.0609265  -0.1218531), wk =   0.0138889
        k(   23) = (   0.0000000   0.0812354   0.0812354), wk =   0.0138889
        k(   24) = (   0.0000000   0.0812354   0.1015442), wk =   0.0277778
        k(   25) = (   0.0000000   0.0812354  -0.1218531), wk =   0.0138889
        k(   26) = (   0.0000000   0.1015442   0.1015442), wk =   0.0138889
        k(   27) = (   0.0000000   0.1015442  -0.1218531), wk =   0.0138889
        k(   28) = (   0.0000000  -0.1218531  -0.1218531), wk =   0.0034722
        k(   29) = (   0.0203088   0.0203088   0.0203088), wk =   0.0092593
        k(   30) = (   0.0203088   0.0203088   0.0406177), wk =   0.0277778
        k(   31) = (   0.0203088   0.0203088   0.0609265), wk =   0.0277778
        k(   32) = (   0.0203088   0.0203088   0.0812354), wk =   0.0277778
        k(   33) = (   0.0203088   0.0203088   0.1015442), wk =   0.0277778
        k(   34) = (   0.0203088   0.0203088  -0.1218531), wk =   0.0138889
        k(   35) = (   0.0203088   0.0406177   0.0406177), wk =   0.0277778
        k(   36) = (   0.0203088   0.0406177   0.0609265), wk =   0.0555556
        k(   37) = (   0.0203088   0.0406177   0.0812354), wk =   0.0555556
        k(   38) = (   0.0203088   0.0406177   0.1015442), wk =   0.0555556
        k(   39) = (   0.0203088   0.0406177  -0.1218531), wk =   0.0277778
        k(   40) = (   0.0203088   0.0609265   0.0609265), wk =   0.0277778
        k(   41) = (   0.0203088   0.0609265   0.0812354), wk =   0.0555556
        k(   42) = (   0.0203088   0.0609265   0.1015442), wk =   0.0555556
        k(   43) = (   0.0203088   0.0609265  -0.1218531), wk =   0.0277778
        k(   44) = (   0.0203088   0.0812354   0.0812354), wk =   0.0277778
        k(   45) = (   0.0203088   0.0812354   0.1015442), wk =   0.0555556
        k(   46) = (   0.0203088   0.0812354  -0.1218531), wk =   0.0277778
        k(   47) = (   0.0203088   0.1015442   0.1015442), wk =   0.0277778
        k(   48) = (   0.0203088   0.1015442  -0.1218531), wk =   0.0277778
        k(   49) = (   0.0203088  -0.1218531  -0.1218531), wk =   0.0069444
        k(   50) = (   0.0406177   0.0406177   0.0406177), wk =   0.0092593
        k(   51) = (   0.0406177   0.0406177   0.0609265), wk =   0.0277778
        k(   52) = (   0.0406177   0.0406177   0.0812354), wk =   0.0277778
        k(   53) = (   0.0406177   0.0406177   0.1015442), wk =   0.0277778
        k(   54) = (   0.0406177   0.0406177  -0.1218531), wk =   0.0138889
        k(   55) = (   0.0406177   0.0609265   0.0609265), wk =   0.0277778
        k(   56) = (   0.0406177   0.0609265   0.0812354), wk =   0.0555556
        k(   57) = (   0.0406177   0.0609265   0.1015442), wk =   0.0555556
        k(   58) = (   0.0406177   0.0609265  -0.1218531), wk =   0.0277778
        k(   59) = (   0.0406177   0.0812354   0.0812354), wk =   0.0277778
        k(   60) = (   0.0406177   0.0812354   0.1015442), wk =   0.0555556
[...]
        k(   70) = (   0.0609265   0.0812354   0.1015442), wk =   0.0555556
        k(   71) = (   0.0609265   0.0812354  -0.1218531), wk =   0.0277778
        k(   72) = (   0.0609265   0.1015442   0.1015442), wk =   0.0277778
        k(   73) = (   0.0609265   0.1015442  -0.1218531), wk =   0.0277778
        k(   74) = (   0.0609265  -0.1218531  -0.1218531), wk =   0.0069444
        k(   75) = (   0.0812354   0.0812354   0.0812354), wk =   0.0092593
        k(   76) = (   0.0812354   0.0812354   0.1015442), wk =   0.0277778
        k(   77) = (   0.0812354   0.0812354  -0.1218531), wk =   0.0138889
        k(   78) = (   0.0812354   0.1015442   0.1015442), wk =   0.0277778
        k(   79) = (   0.0812354   0.1015442  -0.1218531), wk =   0.0277778
        k(   80) = (   0.0812354  -0.1218531  -0.1218531), wk =   0.0069444
        k(   81) = (   0.1015442   0.1015442   0.1015442), wk =   0.0092593
        k(   82) = (   0.1015442   0.1015442  -0.1218531), wk =   0.0138889
        k(   83) = (   0.1015442  -0.1218531  -0.1218531), wk =   0.0069444
        k(   84) = (  -0.1218531  -0.1218531  -0.1218531), wk =   0.0011574

     Largest allocated arrays     est. size (Mb)     dimensions
     Largest temporary arrays     est. size (Mb)     dimensions

     Initial potential from superposition of free atoms

     starting charge   52.99441, renormalised to   53.00000

     *
     * You are using vdW-DF for exchange-correlation in this calculation.
     * Please cite the following three references that made this development
     * possible:
     *
     *   M. Dion, H. Rydberg, E. Schroder, D. C. Langreth, and
     *   B. I. Lundqvist, Phys. Rev. Lett. 92, 246401 (2004).
     *
     *   T. Thonhauser, V. R. Cooper, S. Li, A. Puzder, P. Hyldgaard, and
     *   D. C. Langreth, Phys. Rev. B 76, 125112 (2007).
     *
     *   G. Roman-Perez and J. M. Soler, Phys. Rev. Lett. 103, 096102 (2009).
     *
     *
     * If you are using vdW-DF2, please also cite:
     *
     *   K. Lee, E. D. Murray, L. Kong, B. I. Lundqvist, and
     *   D. C. Langreth, Phys. Rev. B 82, 081101(R) (2010).
     *
     *
     * If you are calculating the stress with vdW-DF, please also cite:
     *
     *   R. Sabatini, E. Kucukbenli, B. Kolb, T. Thonhauser, and
     *   S. de Gironcoli, J. Phys.: Condens. Matter 24, 424209 (2012).
     *

     Carrying out vdW-DF run using the following parameters:

     Nqs =      20    Nr_points =    1024   r_max =   100.000
     q_mesh =
               0.00001000     0.04494208     0.09755937     0.15916263
               0.23128650     0.31572767     0.41458969     0.53033537
               0.66584808     0.82450364     1.01025438     1.22772762
               1.48234092     1.78043706     2.12944203     2.53805004
               3.01644009     3.57652955     4.23227104     5.00000000

     Gradients computed in reciprocal space

     Starting wfc are   52 randomized atomic wfcs

     Self-consistent Calculation

     iteration #  1     ecut=    58.80 Ry     beta=0.10
     Davidson diagonalization with overlap
     ethr =  1.00E-02,  avg # of iterations =  4.1

     Threshold (ethr) on eigenvalues was too large:
     Diagonalizing with lowered threshold

     Davidson diagonalization with overlap
     ethr =  8.84E-05,  avg # of iterations =  4.0

     total energy              =    -514.74921559 Ry
     Harris-Foulkes estimate   =    -514.75072493 Ry
     estimated scf accuracy    <       0.04747647 Ry

[...]

     total energy              =    -514.74176704 Ry
     Harris-Foulkes estimate   =    -514.74176112 Ry
     estimated scf accuracy    <       0.00000001 Ry

     iteration # 10     ecut=    58.80 Ry     beta=0.10
     Davidson diagonalization with overlap
     ethr =  2.26E-11,  avg # of iterations =  2.0

     End of self-consistent calculation

          k = 0.0000 0.0000 0.0000 (  3575 PWs)   bands (ev):

   -43.7779 -43.6170 -43.6170 -31.5387 -18.0667 -18.0667 -18.0667 -17.6484
   -17.6484 -17.6484 -17.3967 -17.3967 -17.3967 -10.1706 -10.1706 -10.1706
    10.9877  12.8314  13.3234  13.3234  13.7912  13.7912  13.7912  17.1482
    17.1482  17.1482  19.3325  19.3325  20.6515  20.8740  20.8740  20.8740
    21.2025  21.2025  21.2025  21.8201  21.8201  22.4083  22.4083  22.4083
    29.2067  29.2067  29.2067  29.3461  29.3461  29.3461

[...]

          k = 0.1015-0.1219-0.1219 (  3532 PWs)   bands (ev):

[...]

          k =-0.1219-0.1219-0.1219 (  3544 PWs)   bands (ev):

   -43.6695 -43.6695 -43.6695 -31.5376 -18.2736 -18.0243 -18.0243 -18.0243
   -17.4222 -17.4222 -17.4222 -17.4103 -17.4103 -10.1776 -10.1776 -10.1776
    13.2999  13.3853  13.3853  13.3853  16.3553  16.3553  16.3553  17.0415
    17.0415  17.0415  17.6327  17.6327  18.4727  18.5619  18.5619  18.5619
    20.6921  20.6921  20.6921  21.7635  21.7635  21.7635  21.8599  21.8599
    27.0912  27.0912  27.0912  28.0548  30.0799  30.1475

     the Fermi energy is    17.2566 ev

!    total energy              =    -514.74177267 Ry
     Harris-Foulkes estimate   =    -514.74176704 Ry
     estimated scf accuracy    <          1.8E-09 Ry

     The total energy is the sum of the following terms:

     one-electron contribution =    -101.13473689 Ry
     hartree contribution      =      77.71756737 Ry
     xc contribution           =     -74.11874252 Ry
     ewald contribution        =    -417.18988591 Ry
     smearing contrib. (-TS)   =      -0.01597472 Ry

     convergence has been achieved in  10 iterations

     Forces acting on atoms (Ry/au):

     atom    1 type  1   force =     0.00000000    0.00000000    0.00000000
     atom    2 type  1   force =     0.00000000    0.00000000   -0.00000000
     atom    3 type  1   force =     0.00000000    0.00000000    0.00000000
     atom    4 type  2   force =     0.00000000    0.00000000    0.00000000

     Total force =     0.000000     Total SCF correction =     0.000000
 !ASE

     General routines

     Parallel routines

   This run was terminated on:  12: 8:41  25Oct2017

   JOB DONE.