     Program PWSCF v.5.1rc2 (svn rev. ) starts on 25Oct2017 at 14: 8:15

     Current dimensions of program PWSCF are:
     Max number of different atomic species (ntypx) = 10
     Max number of k-points (npk) =  40000
     Max angular momentum in pseudopotentials (lmaxx) =  3

     IMPORTANT: XC functional enforced from input :
     Exchange-correlation      = BEEF-VDW ( 1  4 27 13 2)
     Any further DFT definition will be discarded
     Please, verify this is what you really want

     Subspace diagonalization in iterative solution of the eigenvalue problem:
     a serial algorithm will be used

     bravais-lattice index     =            0
     lattice parameter (alat)  =       1.8897  a.u.
     unit-cell volume          =     439.6480 (a.u.)^3
     number of atoms/cell      =            4
     number of atomic types    =            2
     number of electrons       =        58.00
     number of Kohn-Sham states=           49
     kinetic-energy cutoff     =      58.7989  Ry
     charge density cutoff     =     587.9892  Ry
     convergence threshold     =      7.3E-09
     mixing beta               =       0.1000
     number of iterations used =           10  local-TF  mixing
     Exchange-correlation      = BEEF-VDW ( 1  4 27 13 2)
     nstep                     =           50

     celldm(1)=   1.889726  celldm(2)=   0.000000  celldm(3)=   0.000000
     celldm(4)=   0.000000  celldm(5)=   0.000000  celldm(6)=   0.000000

     crystal axes: (cart. coord. in units of alat)
               a(1) = (   4.023798   0.000000   0.000000 )
               a(2) = (   0.000000   4.023798   0.000000 )
               a(3) = (   0.000000   0.000000   4.023798 )

     reciprocal axes: (cart. coord. in units 2 pi/alat)
               b(1) = (  0.248521  0.000000  0.000000 )
               b(2) = (  0.000000  0.248521  0.000000 )
               b(3) = (  0.000000  0.000000  0.248521 )

     PseudoPot. # 1 for Rh read from file:
     /home/vossj/suncat/psp/gbrv1.5pbe/Rh.UPF
     MD5 check sum: 761627e959a2e3a1f56b0b5fe687810e
     Pseudo is Ultrasoft + core correction, Zval = 15.0
     Generated by new atomic code, or converted to UPF format
     Using radial grid of  969 points,  7 beta functions with:
                l(1) =   0
                l(2) =   0
                l(3) =   1
                l(4) =   1
                l(5) =   2
                l(6) =   2
                l(7) =   2
     Q(r) pseudized with  8 coefficients,  rinner =    1.200   1.200   1.200
                                                       1.200   1.200

     PseudoPot. # 2 for Tl read from file:
     /home/vossj/suncat/psp/gbrv1.5pbe/Tl.UPF
     MD5 check sum: b76cf1f7e72655a2b2c53cf6385d7059
     Pseudo is Ultrasoft + core correction, Zval = 13.0
     Generated by new atomic code, or converted to UPF format
     Using radial grid of  899 points,  6 beta functions with:
                l(1) =   0
                l(2) =   0
                l(3) =   1
                l(4) =   1
                l(5) =   2
                l(6) =   2
     Q(r) pseudized with  6 coefficients,  rinner =    1.100   1.100   1.100
                                                       1.100   1.100

     vdW kernel table read from file vdW_kernel_table
     MD5 check sum: 095c7af220d748ca6e76c0b4c6cfb241

     atomic species   valence    mass     pseudopotential
        Rh1           15.00   102.90550     Rh( 1.00)
        Tl1           13.00   204.38000     Tl( 1.00)

     48 Sym. Ops., with inversion, found (32 have fractional translation)

   Cartesian axes

     site n.     atom                  positions (alat units)
         1           Rh1 tau(   1) = (   0.0000000   0.0000000   0.0000000  )
         2           Rh1 tau(   2) = (   0.0000000   2.0118989   2.0118989  )
         3           Rh1 tau(   3) = (   2.0118989   0.0000000   2.0118989  )
         4           Tl1 tau(   4) = (   2.0118989   2.0118989   0.0000000  )

     number of k points=    84  Fermi-Dirac smearing, width (Ry)=  0.0073
                       cart. coord. in units 2pi/alat
        k(    1) = (   0.0000000   0.0000000   0.0000000), wk =   0.0011574
        k(    2) = (   0.0000000   0.0000000   0.0207101), wk =   0.0069444
        k(    3) = (   0.0000000   0.0000000   0.0414202), wk =   0.0069444
        k(    4) = (   0.0000000   0.0000000   0.0621304), wk =   0.0069444
        k(    5) = (   0.0000000   0.0000000   0.0828405), wk =   0.0069444
        k(    6) = (   0.0000000   0.0000000   0.1035506), wk =   0.0069444
        k(    7) = (   0.0000000   0.0000000  -0.1242607), wk =   0.0034722
        k(    8) = (   0.0000000   0.0207101   0.0207101), wk =   0.0138889
        k(    9) = (   0.0000000   0.0207101   0.0414202), wk =   0.0277778
        k(   10) = (   0.0000000   0.0207101   0.0621304), wk =   0.0277778
        k(   11) = (   0.0000000   0.0207101   0.0828405), wk =   0.0277778
        k(   12) = (   0.0000000   0.0207101   0.1035506), wk =   0.0277778
        k(   13) = (   0.0000000   0.0207101  -0.1242607), wk =   0.0138889
        k(   14) = (   0.0000000   0.0414202   0.0414202), wk =   0.0138889
        k(   15) = (   0.0000000   0.0414202   0.0621304), wk =   0.0277778
        k(   16) = (   0.0000000   0.0414202   0.0828405), wk =   0.0277778
        k(   17) = (   0.0000000   0.0414202   0.1035506), wk =   0.0277778
        k(   18) = (   0.0000000   0.0414202  -0.1242607), wk =   0.0138889
        k(   19) = (   0.0000000   0.0621304   0.0621304), wk =   0.0138889
        k(   20) = (   0.0000000   0.0621304   0.0828405), wk =   0.0277778
        k(   21) = (   0.0000000   0.0621304   0.1035506), wk =   0.0277778
        k(   22) = (   0.0000000   0.0621304  -0.1242607), wk =   0.0138889
        k(   23) = (   0.0000000   0.0828405   0.0828405), wk =   0.0138889
        k(   24) = (   0.0000000   0.0828405   0.1035506), wk =   0.0277778
        k(   25) = (   0.0000000   0.0828405  -0.1242607), wk =   0.0138889
        k(   26) = (   0.0000000   0.1035506   0.1035506), wk =   0.0138889
        k(   27) = (   0.0000000   0.1035506  -0.1242607), wk =   0.0138889
        k(   28) = (   0.0000000  -0.1242607  -0.1242607), wk =   0.0034722
        k(   29) = (   0.0207101   0.0207101   0.0207101), wk =   0.0092593
        k(   30) = (   0.0207101   0.0207101   0.0414202), wk =   0.0277778
        k(   31) = (   0.0207101   0.0207101   0.0621304), wk =   0.0277778
        k(   32) = (   0.0207101   0.0207101   0.0828405), wk =   0.0277778
        k(   33) = (   0.0207101   0.0207101   0.1035506), wk =   0.0277778
        k(   34) = (   0.0207101   0.0207101  -0.1242607), wk =   0.0138889
        k(   35) = (   0.0207101   0.0414202   0.0414202), wk =   0.0277778
        k(   36) = (   0.0207101   0.0414202   0.0621304), wk =   0.0555556
        k(   37) = (   0.0207101   0.0414202   0.0828405), wk =   0.0555556
        k(   38) = (   0.0207101   0.0414202   0.1035506), wk =   0.0555556
        k(   39) = (   0.0207101   0.0414202  -0.1242607), wk =   0.0277778
        k(   40) = (   0.0207101   0.0621304   0.0621304), wk =   0.0277778
        k(   41) = (   0.0207101   0.0621304   0.0828405), wk =   0.0555556
        k(   42) = (   0.0207101   0.0621304   0.1035506), wk =   0.0555556
        k(   43) = (   0.0207101   0.0621304  -0.1242607), wk =   0.0277778
        k(   44) = (   0.0207101   0.0828405   0.0828405), wk =   0.0277778
        k(   45) = (   0.0207101   0.0828405   0.1035506), wk =   0.0555556
        k(   46) = (   0.0207101   0.0828405  -0.1242607), wk =   0.0277778
        k(   47) = (   0.0207101   0.1035506   0.1035506), wk =   0.0277778
        k(   48) = (   0.0207101   0.1035506  -0.1242607), wk =   0.0277778
        k(   49) = (   0.0207101  -0.1242607  -0.1242607), wk =   0.0069444
        k(   50) = (   0.0414202   0.0414202   0.0414202), wk =   0.0092593
        k(   51) = (   0.0414202   0.0414202   0.0621304), wk =   0.0277778
        k(   52) = (   0.0414202   0.0414202   0.0828405), wk =   0.0277778
        k(   53) = (   0.0414202   0.0414202   0.1035506), wk =   0.0277778
        k(   54) = (   0.0414202   0.0414202  -0.1242607), wk =   0.0138889
        k(   55) = (   0.0414202   0.0621304   0.0621304), wk =   0.0277778
        k(   56) = (   0.0414202   0.0621304   0.0828405), wk =   0.0555556
        k(   57) = (   0.0414202   0.0621304   0.1035506), wk =   0.0555556
        k(   58) = (   0.0414202   0.0621304  -0.1242607), wk =   0.0277778
        k(   59) = (   0.0414202   0.0828405   0.0828405), wk =   0.0277778
        k(   60) = (   0.0414202   0.0828405   0.1035506), wk =   0.0555556
[...]
        k(   70) = (   0.0621304   0.0828405   0.1035506), wk =   0.0555556
        k(   71) = (   0.0621304   0.0828405  -0.1242607), wk =   0.0277778
        k(   72) = (   0.0621304   0.1035506   0.1035506), wk =   0.0277778
        k(   73) = (   0.0621304   0.1035506  -0.1242607), wk =   0.0277778
        k(   74) = (   0.0621304  -0.1242607  -0.1242607), wk =   0.0069444
        k(   75) = (   0.0828405   0.0828405   0.0828405), wk =   0.0092593
        k(   76) = (   0.0828405   0.0828405   0.1035506), wk =   0.0277778
        k(   77) = (   0.0828405   0.0828405  -0.1242607), wk =   0.0138889
        k(   78) = (   0.0828405   0.1035506   0.1035506), wk =   0.0277778
        k(   79) = (   0.0828405   0.1035506  -0.1242607), wk =   0.0277778
        k(   80) = (   0.0828405  -0.1242607  -0.1242607), wk =   0.0069444
        k(   81) = (   0.1035506   0.1035506   0.1035506), wk =   0.0092593
        k(   82) = (   0.1035506   0.1035506  -0.1242607), wk =   0.0138889
        k(   83) = (   0.1035506  -0.1242607  -0.1242607), wk =   0.0069444
        k(   84) = (  -0.1242607  -0.1242607  -0.1242607), wk =   0.0011574

     Largest allocated arrays     est. size (Mb)     dimensions
     Largest temporary arrays     est. size (Mb)     dimensions

     Initial potential from superposition of free atoms
     Check: negative starting charge=   -0.218122

     starting charge   56.49484, renormalised to   58.00000

     negative rho (up, down):  2.239E-01 0.000E+00

     *
     * You are using vdW-DF for exchange-correlation in this calculation.
     * Please cite the following three references that made this development
     * possible:
     *
     *   M. Dion, H. Rydberg, E. Schroder, D. C. Langreth, and
     *   B. I. Lundqvist, Phys. Rev. Lett. 92, 246401 (2004).
     *
     *   T. Thonhauser, V. R. Cooper, S. Li, A. Puzder, P. Hyldgaard, and
     *   D. C. Langreth, Phys. Rev. B 76, 125112 (2007).
     *
     *   G. Roman-Perez and J. M. Soler, Phys. Rev. Lett. 103, 096102 (2009).
     *
     *
     * If you are using vdW-DF2, please also cite:
     *
     *   K. Lee, E. D. Murray, L. Kong, B. I. Lundqvist, and
     *   D. C. Langreth, Phys. Rev. B 82, 081101(R) (2010).
     *
     *
     * If you are calculating the stress with vdW-DF, please also cite:
     *
     *   R. Sabatini, E. Kucukbenli, B. Kolb, T. Thonhauser, and
     *   S. de Gironcoli, J. Phys.: Condens. Matter 24, 424209 (2012).
     *

     Carrying out vdW-DF run using the following parameters:

     Nqs =      20    Nr_points =    1024   r_max =   100.000
     q_mesh =
               0.00001000     0.04494208     0.09755937     0.15916263
               0.23128650     0.31572767     0.41458969     0.53033537
               0.66584808     0.82450364     1.01025438     1.22772762
               1.48234092     1.78043706     2.12944203     2.53805004
               3.01644009     3.57652955     4.23227104     5.00000000

     Gradients computed in reciprocal space

     Starting wfc are   45 randomized atomic wfcs +    4 random wfc

     Self-consistent Calculation

     iteration #  1     ecut=    58.80 Ry     beta=0.10
     Davidson diagonalization with overlap
     ethr =  1.00E-02,  avg # of iterations =  4.5

[...]

     total energy              =    -663.64879479 Ry
     Harris-Foulkes estimate   =    -663.69745098 Ry
     estimated scf accuracy    <       0.70379766 Ry

[...]

     total energy              =    -663.47617867 Ry
     Harris-Foulkes estimate   =    -663.47615374 Ry
     estimated scf accuracy    <       0.00000002 Ry

     iteration # 13     ecut=    58.80 Ry     beta=0.10
     Davidson diagonalization with overlap
     ethr =  3.97E-11,  avg # of iterations =  2.0

     negative rho (up, down):  2.298E-01 0.000E+00

     End of self-consistent calculation

          k = 0.0000 0.0000 0.0000 (  3407 PWs)   bands (ev):

   -28.4409 -28.4409 -28.4409 -28.2835 -28.2835 -28.2835 -28.1654 -28.1654
   -28.1654   5.9260   5.9260   6.0542   6.0542   6.0542   8.3228  12.8375
    14.1865  14.1865  14.1865  14.5406  14.5406  16.8003  16.8003  16.8003
    17.6484  17.6484  18.2429  18.6627  18.6627  18.6627  19.1274  19.1274
    19.1274  23.0076  26.9352  26.9352  28.1801  28.1801  28.1801  29.4554
    29.4554  29.4554  33.1276  35.2176  36.8602  36.8602  36.8602  37.1207
    37.1207

[...]

          k = 0.1036-0.1243-0.1243 (  3348 PWs)   bands (ev):

[...]

          k =-0.1243-0.1243-0.1243 (  3328 PWs)   bands (ev):

   -28.5136 -28.4248 -28.4248 -28.4248 -28.1891 -28.1891 -28.1891 -28.1681
   -28.1681   5.9742   5.9742   5.9742   6.2901   6.2901  10.2008  14.0250
    14.0250  14.0250  15.3987  15.3987  15.3987  16.7202  16.7202  16.7202
    16.8350  16.8350  16.8350  17.1386  17.1386  18.3155  18.3155  18.3155
    18.7815  19.8714  23.9959  23.9959  23.9959  32.2113  32.2113  32.2113
    32.9262  35.2319  35.2319  35.2319  36.3648  36.3648  36.3648  37.6854
    37.6854

     the Fermi energy is    17.6968 ev

!    total energy              =    -663.47628487 Ry
     Harris-Foulkes estimate   =    -663.47617868 Ry
     estimated scf accuracy    <          5.3E-09 Ry

     The total energy is the sum of the following terms:

     one-electron contribution =    -101.01791977 Ry
     hartree contribution      =     102.97778305 Ry
     xc contribution           =    -157.44179227 Ry
     ewald contribution        =    -507.98216187 Ry
     smearing contrib. (-TS)   =      -0.01219400 Ry

     convergence has been achieved in  13 iterations

     Forces acting on atoms (Ry/au):

     negative rho (up, down):  2.298E-01 0.000E+00
     atom    1 type  1   force =     0.00000000    0.00000000    0.00000000
     atom    2 type  1   force =     0.00000000    0.00000000    0.00000000
     atom    3 type  1   force =     0.00000000    0.00000000   -0.00000000
     atom    4 type  2   force =     0.00000000    0.00000000    0.00000000

     Total force =     0.000000     Total SCF correction =     0.000000
 !ASE

     General routines

     Parallel routines

   This run was terminated on:  14: 9:11  25Oct2017

   JOB DONE.